TimeStep;Np;Nbound;Nfixed;Nmoving;Nfloat;Nfluid
0.600033;10047;2448;2448;0;0;7599

Pos.x;Pos.y;Pos.z;Idp;Vel.x;Vel.y;Vel.z;Rhop;Mass;Press;Type;Acec.x;Acec.y;Acec.z;CellOffSpring;GradVel;Qfxx;Qfxy;Qfxz;Qfyy;Qfyz;Qfzz;StrainDot.x;StrainDot.y;StrainDot.z;VonMises3D;
 -1.9000000E-01;  9.9999998E-03; -4.4999999E-01;89;  0.0000000E+00;  0.0000000E+00;  0.0000000E+00;  1.0000000E+03;  1.0000000E-01;  0.0000000E+00;0;  0.0000000E+00;  0.0000000E+00;  0.0000000E+00;0;  0.0000000E+00;  4.0000000E+04;  0.0000000E+00;  0.0000000E+00;  4.0000000E+04;  0.0000000E+00;  4.0000000E+04;  0.0000000E+00;  0.0000000E+00;  0.0000000E+00;  0.0000000E+00;
 -1.8000001E-01;  9.9999998E-03; -4.4999999E-01;180;  0.0000000E+00;  0.0000000E+00;  0.0000000E+00;  1.0000000E+03;  1.0000000E-01;  0.0000000E+00;0;  0.0000000E+00;  0.0000000E+00;  0.0000000E+00;0;  0.0000000E+00;  4.0000000E+04;  0.0000000E+00;  0.0000000E+00;  4.0000000E+04;  0.0000000E+00;  4.0000000E+04;  0.0000000E+00;  0.0000000E+00;  0.0000000E+00;  0.0000000E+00;
 -1.7000000E-01;  9.9999998E-03; -4.4999999E-01;271;  0.0000000E+00;  0.0000000E+00;  0.0000000E+00;  1.0000000E+03;  1.0000000E-01;  0.0000000E+00;0;  0.0000000E+00;  0.0000000E+00;  0.0000000E+00;0;  0.0000000E+00;  4.0000000E+04;  0.0000000E+00;  0.0000000E+00;  4.0000000E+04;  0.0000000E+00;  4.0000000E+04;  0.0000000E+00;  0.0000000E+00;  0.0000000E+00;  0.0000000E+00;
 -1.6000000E-01;  9.9999998E-03; -4.4999999E-01;362;  0.0000000E+00;  0.0000000E+00;  0.0000000E+00;  1.0000000E+03;  1.0000000E-01;  0.0000000E+00;0;  0.0000000E+00;  0.0000000E+00;  0.0000000E+00;0;  0.0000000E+00;  4.0000000E+04;  0.0000000E+00;  0.0000000E+00;  4.0000000E+04;  0.0000000E+00;  4.0000000E+04;  0.0000000E+00;  0.0000000E+00;  0.0000000E+00;  0.0000000E+00;
 -1.5000001E-01;  9.9999998E-03; -4.4999999E-01;453;  0.0000000E+00;  0.0000000E+00;  0.0000000E+00;  1.0000000E+03;  1.0000000E-01;  0.0000000E+00;0;  0.0000000E+00;  0.0000000E+00;  0.0000000E+00;0;  0.0000000E+00;  4.0000000E+04;  0.0000000E+00;  0.0000000E+00;  4.0000000E+04;  0.0000000E+00;  4.0000000E+04;  0.0000000E+00;  0.0000000E+00;  0.0000000E+00;  0.0000000E+00;
 -1.4000000E-01;  9.9999998E-03; -4.4999999E-01;544;  0.0000000E+00;  0.0000000E+00;  0.0000000E+00;  1.0000000E+03;  1.0000000E-01;  0.0000000E+00;0;  0.0000000E+00;  0.0000000E+00;  0.0000000E+00;0;  0.0000000E+00;  4.0000000E+04;  0.0000000E+00;  0.0000000E+00;  4.0000000E+04;  0.0000000E+00;  4.0000000E+04;  0.0000000E+00;  0.0000000E+00;  0.0000000E+00;  0.0000000E+00;
 -1.3000000E-01;  9.9999998E-03; -4.4999999E-01;635;  0.0000000E+00;  0.0000000E+00;  0.0000000E+00;  1.0000000E+03;  1.0000000E-01;  0.0000000E+00;0;  0.0000000E+00;  0.0000000E+00;  0.0000000E+00;0;  0.0000000E+00;  4.0000000E+04;  0.0000000E+00;  0.0000000E+00;  4.0000000E+04;  0.0000000E+00;  4.0000000E+04;  0.0000000E+00;  0.0000000E+00;  0.0000000E+00;  0.0000000E+00;
 -1.2000000E-01;  9.9999998E-03; -4.4999999E-01;726;  0.0000000E+00;  0.0000000E+00;  0.0000000E+00;  1.0000000E+03;  1.0000000E-01;  0.0000000E+00;0;  0.0000000E+00;  0.0000000E+00;  0.0000000E+00;0;  0.0000000E+00;  4.0000000E+04;  0.0000000E+00;  0.0000000E+00;  4.0000000E+04;  0.0000000E+00;  4.0000000E+04;  0.0000000E+00;  0.0000000E+00;  0.0000000E+00;  0.0000000E+00;
 -1.1000000E-01;  9.9999998E-03; -4.4999999E-01;817;  0.0000000E+00;  0.0000000E+00;  0.0000000E+00;  1.0000000E+03;  1.0000000E-01;  0.0000000E+00;0;  0.0000000E+00;  0.0000000E+00;  0.0000000E+00;0;  0.0000000E+00;  4.0000000E+04;  0.0000000E+00;  0.0000000E+00;  4.0000000E+04;  0.0000000E+00;  4.0000000E+04;  0.0000000E+00;  0.0000000E+00;  0.0000000E+00;  0.0000000E+00;
 -1.0000000E-01;  9.9999998E-03; -4.4999999E-01;908;  0.0000000E+00;  0.0000000E+00;  0.0000000E+00;  1.0000000E+03;  1.0000000E-01;  0.0000000E+00;0;  0.0000000E+00;  0.0000000E+00;  0.0000000E+00;0;  0.0000000E+00;  4.0000000E+04;  0.0000000E+00;  0.0000000E+00;  4.0000000E+04;  0.0000000E+00;  4.0000000E+04;  0.0000000E+00;  0.0000000E+00;  0.0000000E+00;  0.0000000E+00;
 -9.0000004E-02;  9.9999998E-03; -4.4999999E-01;999;  0.0000000E+00;  0.0000000E+00;  0.0000000E+00;  1.0000000E+03;  1.0000000E-01;  0.0000000E+00;0;  0.0000000E+00;  0.0000000E+00;  0.0000000E+00;0;  0.0000000E+00;  4.0000000E+04;  0.0000000E+00;  0.0000000E+00;  4.0000000E+04;  0.0000000E+00;  4.0000000E+04;  0.0000000E+00;  0.0000000E+00;  0.0000000E+00;  0.0000000E+00;
 -7.9999998E-02;  9.9999998E-03; -4.4999999E-01;1090;  0.0000000E+00;  0.0000000E+00;  0.0000000E+00;  1.0000000E+03;  1.0000000E-01;  0.0000000E+00;0;  0.0000000E+00;  0.0000000E+00;  0.0000000E+00;0;  0.0000000E+00;  4.0000000E+04;  0.0000000E+00;  0.0000000E+00;  4.0000000E+04;  0.0000000E+00;  4.0000000E+04;  0.0000000E+00;  0.0000000E+00;  0.0000000E+00;  0.0000000E+00;
 -7.0000000E-02;  9.9999998E-03; -4.4999999E-01;1181;  0.0000000E+00;  0.0000000E+00;  0.0000000E+00;  1.0000000E+03;  1.0000000E-01;  0.0000000E+00;0;  0.0000000E+00;  0.0000000E+00;  0.0000000E+00;0;  0.0000000E+00;  4.0000000E+04;  0.0000000E+00;  0.0000000E+00;  4.0000000E+04;  0.0000000E+00;  4.0000000E+04;  0.0000000E+00;  0.0000000E+00;  0.0000000E+00;  8.6648275E-12;
 -5.9999999E-02;  9.9999998E-03; -4.4999999E-01;1272;  0.0000000E+00;  0.0000000E+00;  0.0000000E+00;  1.0000000E+03;  1.0000000E-01;  0.0000000E+00;0;  0.0000000E+00;  0.0000000E+00;  0.0000000E+00;0; -3.8911452E-09;  4.0000000E+04;  0.0000000E+00;  0.0000000E+00;  4.0000000E+04;  0.0000000E+00;  4.0000000E+04; -1.7689257E-09;  0.0000000E+00; -2.1222195E-09;  3.2426067E-02;
 -5.0000001E-02;  9.9999998E-03; -4.4999999E-01;1363;  0.0000000E+00;  0.0000000E+00;  0.0000000E+00;  1.0000000E+03;  1.0000000E-01;  0.0000000E+00;0;  0.0000000E+00;  0.0000000E+00;  0.0000000E+00;0; -2.8510136E-08;  4.0000000E+04;  0.0000000E+00;  0.0000000E+00;  4.0000000E+04;  0.0000000E+00;  4.0000000E+04; -1.3740078E-08;  0.0000000E+00; -1.4770058E-08;  2.8080660E-01;
 -3.9999999E-02;  9.9999998E-03; -4.4999999E-01;1454;  0.0000000E+00;  0.0000000E+00;  0.0000000E+00;  1.0000000E+03;  1.0000000E-01;  0.0000000E+00;0;  0.0000000E+00;  0.0000000E+00;  0.0000000E+00;0; -7.9882540E-08;  4.0000000E+04;  0.0000000E+00;  0.0000000E+00;  4.0000000E+04;  0.0000000E+00;  4.0000000E+04; -4.4522150E-08;  0.0000000E+00; -3.5360394E-08;  1.0426952E+00;
 -2.9999999E-02;  9.9999998E-03; -4.4999999E-01;1545;  0.0000000E+00;  0.0000000E+00;  0.0000000E+00;  1.0000000E+03;  1.0000000E-01;  0.0000000E+00;0;  0.0000000E+00;  0.0000000E+00;  0.0000000E+00;0; -1.2893780E-07;  4.0000000E+04;  0.0000000E+00;  0.0000000E+00;  4.0000000E+04;  0.0000000E+00;  4.0000000E+04; -1.0077776E-07;  0.0000000E+00; -2.8160040E-08;  2.5769439E+00;
 -2.0000000E-02;  9.9999998E-03; -4.4999999E-01;1636;  0.0000000E+00;  0.0000000E+00;  0.0000000E+00;  1.0000000E+03;  1.0000000E-01;  0.0000000E+00;0;  0.0000000E+00;  0.0000000E+00;  0.0000000E+00;0; -1.2607168E-07;  4.0000000E+04;  0.0000000E+00;  0.0000000E+00;  4.0000000E+04;  0.0000000E+00;  4.0000000E+04; -1.8627092E-07;  0.0000000E+00;  6.0199241E-08;  4.9180398E+00;
 -9.9999998E-03;  9.9999998E-03; -4.4999999E-01;1727;  0.0000000E+00;  0.0000000E+00;  0.0000000E+00;  1.0000000E+03;  1.0000000E-01;  0.0000000E+00;0;  0.0000000E+00;  0.0000000E+00;  0.0000000E+00;0; -4.4549040E-08;  4.0000000E+04;  0.0000000E+00;  0.0000000E+00;  4.0000000E+04;  0.0000000E+00;  4.0000000E+04; -2.9766471E-07;  0.0000000E+00;  2.5311567E-07;  7.7662768E+00;
  0.0000000E+00;  9.9999998E-03; -4.4999999E-01;1818;  0.0000000E+00;  0.0000000E+00;  0.0000000E+00;  1.0000000E+03;  1.0000000E-01;  0.0000000E+00;0;  0.0000000E+00;  0.0000000E+00;  0.0000000E+00;0;  8.7326640E-08;  4.0000000E+04;  0.0000000E+00;  0.0000000E+00;  4.0000000E+04;  0.0000000E+00;  4.0000000E+04; -4.1914333E-07;  0.0000000E+00;  5.0646997E-07;  1.0515704E+01;
  9.9999998E-03;  9.9999998E-03; -4.4999999E-01;1850;  0.0000000E+00;  0.0000000E+00;  0.0000000E+00;  1.0000000E+03;  1.0000000E-01;  0.0000000E+00;0;  0.0000000E+00;  0.0000000E+00;  0.0000000E+00;0;  1.8911766E-07;  4.0000000E+04;  0.0000000E+00;  0.0000000E+00;  4.0000000E+04;  0.0000000E+00;  4.0000000E+04; -5.1983471E-07;  0.0000000E+00;  7.0895237E-07;  1.2397685E+01;
  2.0000000E-02;  9.9999998E-03; -4.4999999E-01;1880;  0.0000000E+00;  0.0000000E+00;  0.0000000E+00;  1.0000000E+03;  1.0000000E-01;  0.0000000E+00;0;  0.0000000E+00;  0.0000000E+00;  0.0000000E+00;0;  1.5680411E-07;  4.0000000E+04;  0.0000000E+00;  0.0000000E+00;  4.0000000E+04;  0.0000000E+00;  4.0000000E+04; -5.5974033E-07;  0.0000000E+00;  7.1654443E-07;  1.2693508E+01;
  2.9999999E-02;  9.9999998E-03; -4.4999999E-01;1910;  0.0000000E+00;  0.0000000E+00;  0.0000000E+00;  1.0000000E+03;  1.0000000E-01;  0.0000000E+00;0;  0.0000000E+00;  0.0000000E+00;  0.0000000E+00;0; -1.0038451E-07;  4.0000000E+04;  0.0000000E+00;  0.0000000E+00;  4.0000000E+04;  0.0000000E+00;  4.0000000E+04; -5.0323945E-07;  0.0000000E+00;  4.0285494E-07;  1.0954135E+01;
  3.9999999E-02;  9.9999998E-03; -4.4999999E-01;1940;  0.0000000E+00;  0.0000000E+00;  0.0000000E+00;  1.0000000E+03;  1.0000000E-01;  0.0000000E+00;0;  0.0000000E+00;  0.0000000E+00;  0.0000000E+00;0; -6.1786614E-07;  4.0000000E+04;  0.0000000E+00;  0.0000000E+00;  4.0000000E+04;  0.0000000E+00;  4.0000000E+04; -3.3135197E-07;  0.0000000E+00; -2.8651414E-07;  7.1998386E+00;
  5.0000001E-02;  9.9999998E-03; -4.4999999E-01;1970;  0.0000000E+00;  0.0000000E+00;  0.0000000E+00;  1.0000000E+03;  1.0000000E-01;  0.0000000E+00;0;  0.0000000E+00;  0.0000000E+00;  0.0000000E+00;0; -1.3087479E-06;  4.0000000E+04;  0.0000000E+00;  0.0000000E+00;  4.0000000E+04;  0.0000000E+00;  4.0000000E+04; -3.6503106E-08;  0.0000000E+00; -1.2722447E-06;  2.1033256E+00;
  5.9999999E-02;  9.9999998E-03; -4.4999999E-01;2000;  0.0000000E+00;  0.0000000E+00;  0.0000000E+00;  1.0000000E+03;  1.0000000E-01;  0.0000000E+00;0;  0.0000000E+00;  0.0000000E+00;  0.0000000E+00;0; -1.8572854E-06;  4.0000000E+04;  0.0000000E+00;  0.0000000E+00;  4.0000000E+04;  0.0000000E+00;  4.0000000E+04;  4.0669045E-07;  0.0000000E+00; -2.2639758E-06;  2.9538808E+00;
  7.0000000E-02;  9.9999998E-03; -4.4999999E-01;2030;  0.0000000E+00;  0.0000000E+00;  0.0000000E+00;  1.0000000E+03;  1.0000000E-01;  0.0000000E+00;0;  0.0000000E+00;  0.0000000E+00;  0.0000000E+00;0; -1.8112801E-06;  4.0000000E+04;  0.0000000E+00;  0.0000000E+00;  4.0000000E+04;  0.0000000E+00;  4.0000000E+04;  1.0175870E-06;  0.0000000E+00; -2.8288671E-06;  6.0166907E+00;
  7.9999998E-02;  9.9999998E-03; -4.4999999E-01;2060;  0.0000000E+00;  0.0000000E+00;  0.0000000E+00;  1.0000000E+03;  1.0000000E-01;  0.0000000E+00;0;  0.0000000E+00;  0.0000000E+00;  0.0000000E+00;0; -7.8353787E-07;  4.0000000E+04;  0.0000000E+00;  0.0000000E+00;  4.0000000E+04;  0.0000000E+00;  4.0000000E+04;  1.7691036E-06;  0.0000000E+00; -2.5526415E-06;  5.2034769E+00;
  9.0000004E-02;  9.9999998E-03; -4.4999999E-01;2090;  0.0000000E+00;  0.0000000E+00;  0.0000000E+00;  1.0000000E+03;  1.0000000E-01;  0.0000000E+00;0;  0.0000000E+00;  0.0000000E+00;  0.0000000E+00;0;  1.3885127E-06;  4.0000000E+04;  0.0000000E+00;  0.0000000E+00;  4.0000000E+04;  0.0000000E+00;  4.0000000E+04;  2.5756685E-06;  0.0000000E+00; -1.1871558E-06;  2.1799989E+00;
  1.0000000E-01;  9.9999998E-03; -4.4999999E-01;2120;  0.0000000E+00;  0.0000000E+00;  0.0000000E+00;  1.0000000E+03;  1.0000000E-01;  0.0000000E+00;0;  0.0000000E+00;  0.0000000E+00;  0.0000000E+00;0;  4.5661682E-06;  4.0000000E+04;  0.0000000E+00;  0.0000000E+00;  4.0000000E+04;  0.0000000E+00;  4.0000000E+04;  3.3193437E-06;  0.0000000E+00;  1.2468247E-06;  1.3246800E+01;
  1.1000000E-01;  9.9999998E-03; -4.4999999E-01;2150;  0.0000000E+00;  0.0000000E+00;  0.0000000E+00;  1.0000000E+03;  1.0000000E-01;  0.0000000E+00;0;  0.0000000E+00;  0.0000000E+00;  0.0000000E+00;0;  8.3329469E-06;  4.0000000E+04;  0.0000000E+00;  0.0000000E+00;  4.0000000E+04;  0.0000000E+00;  4.0000000E+04;  3.8841317E-06;  0.0000000E+00;  4.4488156E-06;  3.0606167E+01;
  1.2000000E-01;  9.9999998E-03; -4.4999999E-01;2180;  0.0000000E+00;  0.0000000E+00;  0.0000000E+00;  1.0000000E+03;  1.0000000E-01;  0.0000000E+00;0;  0.0000000E+00;  0.0000000E+00;  0.0000000E+00;0;  1.2031962E-05;  4.0000000E+04;  0.0000000E+00;  0.0000000E+00;  4.0000000E+04;  0.0000000E+00;  4.0000000E+04;  4.1426051E-06;  0.0000000E+00;  7.8893563E-06;  5.6000092E+01;
  1.3000000E-01;  9.9999998E-03; -4.4999999E-01;2210;  0.0000000E+00;  0.0000000E+00;  0.0000000E+00;  1.0000000E+03;  1.0000000E-01;  0.0000000E+00;0;  0.0000000E+00;  0.0000000E+00;  0.0000000E+00;0;  1.4909354E-05;  4.0000000E+04;  0.0000000E+00;  0.0000000E+00;  4.0000000E+04;  0.0000000E+00;  4.0000000E+04;  3.9935380E-06;  0.0000000E+00;  1.0915816E-05;  9.7654785E+01;
  1.4000000E-01;  9.9999998E-03; -4.4999999E-01;2240;  0.0000000E+00;  0.0000000E+00;  0.0000000E+00;  1.0000000E+03;  1.0000000E-01;  0.0000000E+00;0;  0.0000000E+00;  0.0000000E+00;  0.0000000E+00;0;  1.6410952E-05;  4.0000000E+04;  0.0000000E+00;  0.0000000E+00;  4.0000000E+04;  0.0000000E+00;  4.0000000E+04;  3.4601744E-06;  0.0000000E+00;  1.2950778E-05;  1.7139212E+02;
  1.5000001E-01;  9.9999998E-03; -4.4999999E-01;2270;  0.0000000E+00;  0.0000000E+00;  0.0000000E+00;  1.0000000E+03;  1.0000000E-01;  0.0000000E+00;0;  0.0000000E+00;  0.0000000E+00;  0.0000000E+00;0;  1.6368236E-05;  4.0000000E+04;  0.0000000E+00;  0.0000000E+00;  4.0000000E+04;  0.0000000E+00;  4.0000000E+04;  2.7335554E-06;  0.0000000E+00;  1.3634681E-05;  2.9985806E+02;
  1.6000000E-01;  9.9999998E-03; -4.4999999E-01;2300;  0.0000000E+00;  0.0000000E+00;  0.0000000E+00;  1.0000000E+03;  1.0000000E-01;  0.0000000E+00;0;  0.0000000E+00;  0.0000000E+00;  0.0000000E+00;0;  1.4958215E-05;  4.0000000E+04;  0.0000000E+00;  0.0000000E+00;  4.0000000E+04;  0.0000000E+00;  4.0000000E+04;  2.1104854E-06;  0.0000000E+00;  1.2847730E-05;  5.1216394E+02;
  1.7000000E-01;  9.9999998E-03; -4.4999999E-01;2330;  0.0000000E+00;  0.0000000E+00;  0.0000000E+00;  1.0000000E+03;  1.0000000E-01;  0.0000000E+00;0;  0.0000000E+00;  0.0000000E+00;  0.0000000E+00;0;  1.2516154E-05;  4.0000000E+04;  0.0000000E+00;  0.0000000E+00;  4.0000000E+04;  0.0000000E+00;  4.0000000E+04;  1.8910841E-06;  0.0000000E+00;  1.0625070E-05;  8.4324176E+02;
  1.8000001E-01;  9.9999998E-03; -4.4999999E-01;2360;  0.0000000E+00;  0.0000000E+00;  0.0000000E+00;  1.0000000E+03;  1.0000000E-01;  0.0000000E+00;0;  0.0000000E+00;  0.0000000E+00;  0.0000000E+00;0;  9.2802820E-06;  4.0000000E+04;  0.0000000E+00;  0.0000000E+00;  4.0000000E+04;  0.0000000E+00;  4.0000000E+04;  2.2380168E-06;  0.0000000E+00;  7.0422652E-06;  1.3278618E+03;
  1.9000000E-01;  9.9999998E-03; -4.4999999E-01;2390;  0.0000000E+00;  0.0000000E+00;  0.0000000E+00;  1.0000000E+03;  1.0000000E-01;  0.0000000E+00;0;  0.0000000E+00;  0.0000000E+00;  0.0000000E+00;0;  5.2350942E-06;  4.0000000E+04;  0.0000000E+00;  0.0000000E+00;  4.0000000E+04;  0.0000000E+00;  4.0000000E+04;  3.0258757E-06;  0.0000000E+00;  2.2092183E-06;  1.9870033E+03;
 -1.9000000E-01;  9.9999998E-03; -4.4000000E-01;90;  0.0000000E+00;  0.0000000E+00;  0.0000000E+00;  1.0000000E+03;  1.0000000E-01;  0.0000000E+00;0;  0.0000000E+00;  0.0000000E+00;  0.0000000E+00;0;  0.0000000E+00;  4.0000000E+04;  0.0000000E+00;  0.0000000E+00;  4.0000000E+04;  0.0000000E+00;  4.0000000E+04;  0.0000000E+00;  0.0000000E+00;  0.0000000E+00;  0.0000000E+00;
 -1.9000000E-01;  9.9999998E-03; -4.3000001E-01;91;  0.0000000E+00;  0.0000000E+00;  0.0000000E+00;  1.0000000E+03;  1.0000000E-01;  0.0000000E+00;0;  0.0000000E+00;  0.0000000E+00;  0.0000000E+00;0;  0.0000000E+00;  4.0000000E+04;  0.0000000E+00;  0.0000000E+00;  4.0000000E+04;  0.0000000E+00;  4.0000000E+04;  0.0000000E+00;  0.0000000E+00;  0.0000000E+00;  0.0000000E+00;
 -1.9000000E-01;  9.9999998E-03; -4.1999999E-01;92;  0.0000000E+00;  0.0000000E+00;  0.0000000E+00;  1.0000000E+03;  1.0000000E-01;  0.0000000E+00;0;  0.0000000E+00;  0.0000000E+00;  0.0000000E+00;0;  0.0000000E+00;  4.0000000E+04;  0.0000000E+00;  0.0000000E+00;  4.0000000E+04;  0.0000000E+00;  4.0000000E+04;  0.0000000E+00;  0.0000000E+00;  0.0000000E+00;  0.0000000E+00;
 -1.9000000E-01;  9.9999998E-03; -4.1000000E-01;93;  0.0000000E+00;  0.0000000E+00;  0.0000000E+00;  1.0000000E+03;  1.0000000E-01;  0.0000000E+00;0;  0.0000000E+00;  0.0000000E+00;  0.0000000E+00;0;  0.0000000E+00;  4.0000000E+04;  0.0000000E+00;  0.0000000E+00;  4.0000000E+04;  0.0000000E+00;  4.0000000E+04;  0.0000000E+00;  0.0000000E+00;  0.0000000E+00;  0.0000000E+00;
 -1.9000000E-01;  9.9999998E-03; -4.0000001E-01;94;  0.0000000E+00;  0.0000000E+00;  0.0000000E+00;  1.0000000E+03;  1.0000000E-01;  0.0000000E+00;0;  0.0000000E+00;  0.0000000E+00;  0.0000000E+00;0;  0.0000000E+00;  4.0000000E+04;  0.0000000E+00;  0.0000000E+00;  4.0000000E+04;  0.0000000E+00;  4.0000000E+04;  0.0000000E+00;  0.0000000E+00;  0.0000000E+00;  0.0000000E+00;
 -1.9000000E-01;  9.9999998E-03; -3.8999999E-01;95;  0.0000000E+00;  0.0000000E+00;  0.0000000E+00;  1.0000000E+03;  1.0000000E-01;  0.0000000E+00;0;  0.0000000E+00;  0.0000000E+00;  0.0000000E+00;0;  0.0000000E+00;  4.0000000E+04;  0.0000000E+00;  0.0000000E+00;  4.0000000E+04;  0.0000000E+00;  4.0000000E+04;  0.0000000E+00;  0.0000000E+00;  0.0000000E+00;  0.0000000E+00;
 -1.9000000E-01;  9.9999998E-03; -3.8000000E-01;96;  0.0000000E+00;  0.0000000E+00;  0.0000000E+00;  1.0000000E+03;  1.0000000E-01;  0.0000000E+00;0;  0.0000000E+00;  0.0000000E+00;  0.0000000E+00;0;  0.0000000E+00;  4.0000000E+04;  0.0000000E+00;  0.0000000E+00;  4.0000000E+04;  0.0000000E+00;  4.0000000E+04;  0.0000000E+00;  0.0000000E+00;  0.0000000E+00;  0.0000000E+00;
 -1.9000000E-01;  9.9999998E-03; -3.7000000E-01;97;  0.0000000E+00;  0.0000000E+00;  0.0000000E+00;  1.0000000E+03;  1.0000000E-01;  0.0000000E+00;0;  0.0000000E+00;  0.0000000E+00;  0.0000000E+00;0;  0.0000000E+00;  4.0000000E+04;  0.0000000E+00;  0.0000000E+00;  4.0000000E+04;  0.0000000E+00;  4.0000000E+04;  0.0000000E+00;  0.0000000E+00;  0.0000000E+00;  0.0000000E+00;
 -1.9000000E-01;  9.9999998E-03; -3.6000001E-01;98;  0.0000000E+00;  0.0000000E+00;  0.0000000E+00;  1.0000000E+03;  1.0000000E-01;  0.0000000E+00;0;  0.0000000E+00;  0.0000000E+00;  0.0000000E+00;0;  0.0000000E+00;  4.0000000E+04;  0.0000000E+00;  0.0000000E+00;  4.0000000E+04;  0.0000000E+00;  4.0000000E+04;  0.0000000E+00;  0.0000000E+00;  0.0000000E+00;  0.0000000E+00;
 -1.9000000E-01;  9.9999998E-03; -3.4999999E-01;99;  0.0000000E+00;  0.0000000E+00;  0.0000000E+00;  1.0000000E+03;  1.0000000E-01;  0.0000000E+00;0;  0.0000000E+00;  0.0000000E+00;  0.0000000E+00;0;  0.0000000E+00;  4.0000000E+04;  0.0000000E+00;  0.0000000E+00;  4.0000000E+04;  0.0000000E+00;  4.0000000E+04;  0.0000000E+00;  0.0000000E+00;  0.0000000E+00;  0.0000000E+00;
 -1.9000000E-01;  9.9999998E-03; -3.4000000E-01;100;  0.0000000E+00;  0.0000000E+00;  0.0000000E+00;  1.0000000E+03;  1.0000000E-01;  0.0000000E+00;0;  0.0000000E+00;  0.0000000E+00;  0.0000000E+00;0;  0.0000000E+00;  4.0000000E+04;  0.0000000E+00;  0.0000000E+00;  4.0000000E+04;  0.0000000E+00;  4.0000000E+04;  0.0000000E+00;  0.0000000E+00;  0.0000000E+00;  0.0000000E+00;
 -1.9000000E-01;  9.9999998E-03; -3.3000001E-01;101;  0.0000000E+00;  0.0000000E+00;  0.0000000E+00;  1.0000000E+03;  1.0000000E-01;  0.0000000E+00;0;  0.0000000E+00;  0.0000000E+00;  0.0000000E+00;0;  0.0000000E+00;  4.0000000E+04;  0.0000000E+00;  0.0000000E+00;  4.0000000E+04;  0.0000000E+00;  4.0000000E+04;  0.0000000E+00;  0.0000000E+00;  0.0000000E+00;  0.0000000E+00;
 -1.9000000E-01;  9.9999998E-03; -3.1999999E-01;102;  0.0000000E+00;  0.0000000E+00;  0.0000000E+00;  1.0000000E+03;  1.0000000E-01;  0.0000000E+00;0;  0.0000000E+00;  0.0000000E+00;  0.0000000E+00;0;  0.0000000E+00;  4.0000000E+04;  0.0000000E+00;  0.0000000E+00;  4.0000000E+04;  0.0000000E+00;  4.0000000E+04;  0.0000000E+00;  0.0000000E+00;  0.0000000E+00;  0.0000000E+00;
 -1.9000000E-01;  9.9999998E-03; -3.1000000E-01;103;  0.0000000E+00;  0.0000000E+00;  0.0000000E+00;  1.0000000E+03;  1.0000000E-01;  0.0000000E+00;0;  0.0000000E+00;  0.0000000E+00;  0.0000000E+00;0;  0.0000000E+00;  4.0000000E+04;  0.0000000E+00;  0.0000000E+00;  4.0000000E+04;  0.0000000E+00;  4.0000000E+04;  0.0000000E+00;  0.0000000E+00;  0.0000000E+00;  0.0000000E+00;
 -1.9000000E-01;  9.9999998E-03; -3.0000001E-01;104;  0.0000000E+00;  0.0000000E+00;  0.0000000E+00;  1.0000000E+03;  1.0000000E-01;  0.0000000E+00;0;  0.0000000E+00;  0.0000000E+00;  0.0000000E+00;0;  0.0000000E+00;  4.0000000E+04;  0.0000000E+00;  0.0000000E+00;  4.0000000E+04;  0.0000000E+00;  4.0000000E+04;  0.0000000E+00;  0.0000000E+00;  0.0000000E+00;  0.0000000E+00;
 -1.9000000E-01;  9.9999998E-03; -2.8999999E-01;105;  0.0000000E+00;  0.0000000E+00;  0.0000000E+00;  1.0000000E+03;  1.0000000E-01;  0.0000000E+00;0;  0.0000000E+00;  0.0000000E+00;  0.0000000E+00;0;  0.0000000E+00;  4.0000000E+04;  0.0000000E+00;  0.0000000E+00;  4.0000000E+04;  0.0000000E+00;  4.0000000E+04;  0.0000000E+00;  0.0000000E+00;  0.0000000E+00;  0.0000000E+00;
 -1.9000000E-01;  9.9999998E-03; -2.8000000E-01;106;  0.0000000E+00;  0.0000000E+00;  0.0000000E+00;  1.0000000E+03;  1.0000000E-01;  0.0000000E+00;0;  0.0000000E+00;  0.0000000E+00;  0.0000000E+00;0;  0.0000000E+00;  4.0000000E+04;  0.0000000E+00;  0.0000000E+00;  4.0000000E+04;  0.0000000E+00;  4.0000000E+04;  0.0000000E+00;  0.0000000E+00;  0.0000000E+00;  0.0000000E+00;
 -1.8000001E-01;  9.9999998E-03; -4.4000000E-01;181;  0.0000000E+00;  0.0000000E+00;  0.0000000E+00;  1.0000000E+03;  1.0000000E-01;  0.0000000E+00;0;  0.0000000E+00;  0.0000000E+00;  0.0000000E+00;0;  0.0000000E+00;  4.0000000E+04;  0.0000000E+00;  0.0000000E+00;  4.0000000E+04;  0.0000000E+00;  4.0000000E+04;  0.0000000E+00;  0.0000000E+00;  0.0000000E+00;  0.0000000E+00;
 -1.8000001E-01;  9.9999998E-03; -4.3000001E-01;182;  0.0000000E+00;  0.0000000E+00;  0.0000000E+00;  1.0000000E+03;  1.0000000E-01;  0.0000000E+00;0;  0.0000000E+00;  0.0000000E+00;  0.0000000E+00;0;  0.0000000E+00;  4.0000000E+04;  0.0000000E+00;  0.0000000E+00;  4.0000000E+04;  0.0000000E+00;  4.0000000E+04;  0.0000000E+00;  0.0000000E+00;  0.0000000E+00;  0.0000000E+00;
 -1.8000001E-01;  9.9999998E-03; -4.1999999E-01;183;  0.0000000E+00;  0.0000000E+00;  0.0000000E+00;  1.0000000E+03;  1.0000000E-01;  0.0000000E+00;0;  0.0000000E+00;  0.0000000E+00;  0.0000000E+00;0;  0.0000000E+00;  4.0000000E+04;  0.0000000E+00;  0.0000000E+00;  4.0000000E+04;  0.0000000E+00;  4.0000000E+04;  0.0000000E+00;  0.0000000E+00;  0.0000000E+00;  0.0000000E+00;
 -1.8000001E-01;  9.9999998E-03; -4.1000000E-01;184;  0.0000000E+00;  0.0000000E+00;  0.0000000E+00;  1.0000000E+03;  1.0000000E-01;  0.0000000E+00;0;  0.0000000E+00;  0.0000000E+00;  0.0000000E+00;0;  0.0000000E+00;  4.0000000E+04;  0.0000000E+00;  0.0000000E+00;  4.0000000E+04;  0.0000000E+00;  4.0000000E+04;  0.0000000E+00;  0.0000000E+00;  0.0000000E+00;  0.0000000E+00;
 -1.8000001E-01;  9.9999998E-03; -4.0000001E-01;185;  0.0000000E+00;  0.0000000E+00;  0.0000000E+00;  1.0000000E+03;  1.0000000E-01;  0.0000000E+00;0;  0.0000000E+00;  0.0000000E+00;  0.0000000E+00;0;  0.0000000E+00;  4.0000000E+04;  0.0000000E+00;  0.0000000E+00;  4.0000000E+04;  0.0000000E+00;  4.0000000E+04;  0.0000000E+00;  0.0000000E+00;  0.0000000E+00;  0.0000000E+00;
 -1.8000001E-01;  9.9999998E-03; -3.8999999E-01;186;  0.0000000E+00;  0.0000000E+00;  0.0000000E+00;  1.0000000E+03;  1.0000000E-01;  0.0000000E+00;0;  0.0000000E+00;  0.0000000E+00;  0.0000000E+00;0;  0.0000000E+00;  4.0000000E+04;  0.0000000E+00;  0.0000000E+00;  4.0000000E+04;  0.0000000E+00;  4.0000000E+04;  0.0000000E+00;  0.0000000E+00;  0.0000000E+00;  0.0000000E+00;
 -1.8000001E-01;  9.9999998E-03; -3.8000000E-01;187;  0.0000000E+00;  0.0000000E+00;  0.0000000E+00;  1.0000000E+03;  1.0000000E-01;  0.0000000E+00;0;  0.0000000E+00;  0.0000000E+00;  0.0000000E+00;0;  0.0000000E+00;  4.0000000E+04;  0.0000000E+00;  0.0000000E+00;  4.0000000E+04;  0.0000000E+00;  4.0000000E+04;  0.0000000E+00;  0.0000000E+00;  0.0000000E+00;  0.0000000E+00;
 -1.8000001E-01;  9.9999998E-03; -3.7000000E-01;188;  0.0000000E+00;  0.0000000E+00;  0.0000000E+00;  1.0000000E+03;  1.0000000E-01;  0.0000000E+00;0;  0.0000000E+00;  0.0000000E+00;  0.0000000E+00;0;  0.0000000E+00;  4.0000000E+04;  0.0000000E+00;  0.0000000E+00;  4.0000000E+04;  0.0000000E+00;  4.0000000E+04;  0.0000000E+00;  0.0000000E+00;  0.0000000E+00;  0.0000000E+00;
 -1.8000001E-01;  9.9999998E-03; -3.6000001E-01;189;  0.0000000E+00;  0.0000000E+00;  0.0000000E+00;  1.0000000E+03;  1.0000000E-01;  0.0000000E+00;0;  0.0000000E+00;  0.0000000E+00;  0.0000000E+00;0;  0.0000000E+00;  4.0000000E+04;  0.0000000E+00;  0.0000000E+00;  4.0000000E+04;  0.0000000E+00;  4.0000000E+04;  0.0000000E+00;  0.0000000E+00;  0.0000000E+00;  0.0000000E+00;
 -1.8000001E-01;  9.9999998E-03; -3.4999999E-01;190;  0.0000000E+00;  0.0000000E+00;  0.0000000E+00;  1.0000000E+03;  1.0000000E-01;  0.0000000E+00;0;  0.0000000E+00;  0.0000000E+00;  0.0000000E+00;0;  0.0000000E+00;  4.0000000E+04;  0.0000000E+00;  0.0000000E+00;  4.0000000E+04;  0.0000000E+00;  4.0000000E+04;  0.0000000E+00;  0.0000000E+00;  0.0000000E+00;  0.0000000E+00;
 -1.8000001E-01;  9.9999998E-03; -3.4000000E-01;191;  0.0000000E+00;  0.0000000E+00;  0.0000000E+00;  1.0000000E+03;  1.0000000E-01;  0.0000000E+00;0;  0.0000000E+00;  0.0000000E+00;  0.0000000E+00;0;  0.0000000E+00;  4.0000000E+04;  0.0000000E+00;  0.0000000E+00;  4.0000000E+04;  0.0000000E+00;  4.0000000E+04;  0.0000000E+00;  0.0000000E+00;  0.0000000E+00;  0.0000000E+00;
 -1.8000001E-01;  9.9999998E-03; -3.3000001E-01;192;  0.0000000E+00;  0.0000000E+00;  0.0000000E+00;  1.0000000E+03;  1.0000000E-01;  0.0000000E+00;0;  0.0000000E+00;  0.0000000E+00;  0.0000000E+00;0;  0.0000000E+00;  4.0000000E+04;  0.0000000E+00;  0.0000000E+00;  4.0000000E+04;  0.0000000E+00;  4.0000000E+04;  0.0000000E+00;  0.0000000E+00;  0.0000000E+00;  0.0000000E+00;
 -1.8000001E-01;  9.9999998E-03; -3.1999999E-01;193;  0.0000000E+00;  0.0000000E+00;  0.0000000E+00;  1.0000000E+03;  1.0000000E-01;  0.0000000E+00;0;  0.0000000E+00;  0.0000000E+00;  0.0000000E+00;0;  0.0000000E+00;  4.0000000E+04;  0.0000000E+00;  0.0000000E+00;  4.0000000E+04;  0.0000000E+00;  4.0000000E+04;  0.0000000E+00;  0.0000000E+00;  0.0000000E+00;  0.0000000E+00;
 -1.8000001E-01;  9.9999998E-03; -3.1000000E-01;194;  0.0000000E+00;  0.0000000E+00;  0.0000000E+00;  1.0000000E+03;  1.0000000E-01;  0.0000000E+00;0;  0.0000000E+00;  0.0000000E+00;  0.0000000E+00;0;  0.0000000E+00;  4.0000000E+04;  0.0000000E+00;  0.0000000E+00;  4.0000000E+04;  0.0000000E+00;  4.0000000E+04;  0.0000000E+00;  0.0000000E+00;  0.0000000E+00;  0.0000000E+00;
 -1.8000001E-01;  9.9999998E-03; -3.0000001E-01;195;  0.0000000E+00;  0.0000000E+00;  0.0000000E+00;  1.0000000E+03;  1.0000000E-01;  0.0000000E+00;0;  0.0000000E+00;  0.0000000E+00;  0.0000000E+00;0;  0.0000000E+00;  4.0000000E+04;  0.0000000E+00;  0.0000000E+00;  4.0000000E+04;  0.0000000E+00;  4.0000000E+04;  0.0000000E+00;  0.0000000E+00;  0.0000000E+00;  0.0000000E+00;
 -1.8000001E-01;  9.9999998E-03; -2.8999999E-01;196;  0.0000000E+00;  0.0000000E+00;  0.0000000E+00;  1.0000000E+03;  1.0000000E-01;  0.0000000E+00;0;  0.0000000E+00;  0.0000000E+00;  0.0000000E+00;0;  0.0000000E+00;  4.0000000E+04;  0.0000000E+00;  0.0000000E+00;  4.0000000E+04;  0.0000000E+00;  4.0000000E+04;  0.0000000E+00;  0.0000000E+00;  0.0000000E+00;  0.0000000E+00;
 -1.8000001E-01;  9.9999998E-03; -2.8000000E-01;197;  0.0000000E+00;  0.0000000E+00;  0.0000000E+00;  1.0000000E+03;  1.0000000E-01;  0.0000000E+00;0;  0.0000000E+00;  0.0000000E+00;  0.0000000E+00;0;  0.0000000E+00;  4.0000000E+04;  0.0000000E+00;  0.0000000E+00;  4.0000000E+04;  0.0000000E+00;  4.0000000E+04;  0.0000000E+00;  0.0000000E+00;  0.0000000E+00;  0.0000000E+00;
 -1.7000000E-01;  9.9999998E-03; -4.4000000E-01;272;  0.0000000E+00;  0.0000000E+00;  0.0000000E+00;  1.0000000E+03;  1.0000000E-01;  0.0000000E+00;0;  0.0000000E+00;  0.0000000E+00;  0.0000000E+00;0;  0.0000000E+00;  4.0000000E+04;  0.0000000E+00;  0.0000000E+00;  4.0000000E+04;  0.0000000E+00;  4.0000000E+04;  0.0000000E+00;  0.0000000E+00;  0.0000000E+00;  0.0000000E+00;
 -1.7000000E-01;  9.9999998E-03; -4.3000001E-01;273;  0.0000000E+00;  0.0000000E+00;  0.0000000E+00;  1.0000000E+03;  1.0000000E-01;  0.0000000E+00;0;  0.0000000E+00;  0.0000000E+00;  0.0000000E+00;0;  0.0000000E+00;  4.0000000E+04;  0.0000000E+00;  0.0000000E+00;  4.0000000E+04;  0.0000000E+00;  4.0000000E+04;  0.0000000E+00;  0.0000000E+00;  0.0000000E+00;  0.0000000E+00;
 -1.7000000E-01;  9.9999998E-03; -4.1999999E-01;274;  0.0000000E+00;  0.0000000E+00;  0.0000000E+00;  1.0000000E+03;  1.0000000E-01;  0.0000000E+00;0;  0.0000000E+00;  0.0000000E+00;  0.0000000E+00;0;  0.0000000E+00;  4.0000000E+04;  0.0000000E+00;  0.0000000E+00;  4.0000000E+04;  0.0000000E+00;  4.0000000E+04;  0.0000000E+00;  0.0000000E+00;  0.0000000E+00;  0.0000000E+00;
 -1.7000000E-01;  9.9999998E-03; -4.1000000E-01;275;  0.0000000E+00;  0.0000000E+00;  0.0000000E+00;  1.0000000E+03;  1.0000000E-01;  0.0000000E+00;0;  0.0000000E+00;  0.0000000E+00;  0.0000000E+00;0;  0.0000000E+00;  4.0000000E+04;  0.0000000E+00;  0.0000000E+00;  4.0000000E+04;  0.0000000E+00;  4.0000000E+04;  0.0000000E+00;  0.0000000E+00;  0.0000000E+00;  0.0000000E+00;
 -1.7000000E-01;  9.9999998E-03; -4.0000001E-01;276;  0.0000000E+00;  0.0000000E+00;  0.0000000E+00;  1.0000000E+03;  1.0000000E-01;  0.0000000E+00;0;  0.0000000E+00;  0.0000000E+00;  0.0000000E+00;0;  0.0000000E+00;  4.0000000E+04;  0.0000000E+00;  0.0000000E+00;  4.0000000E+04;  0.0000000E+00;  4.0000000E+04;  0.0000000E+00;  0.0000000E+00;  0.0000000E+00;  0.0000000E+00;
 -1.7000000E-01;  9.9999998E-03; -3.8999999E-01;277;  0.0000000E+00;  0.0000000E+00;  0.0000000E+00;  1.0000000E+03;  1.0000000E-01;  0.0000000E+00;0;  0.0000000E+00;  0.0000000E+00;  0.0000000E+00;0;  0.0000000E+00;  4.0000000E+04;  0.0000000E+00;  0.0000000E+00;  4.0000000E+04;  0.0000000E+00;  4.0000000E+04;  0.0000000E+00;  0.0000000E+00;  0.0000000E+00;  0.0000000E+00;
 -1.7000000E-01;  9.9999998E-03; -3.8000000E-01;278;  0.0000000E+00;  0.0000000E+00;  0.0000000E+00;  1.0000000E+03;  1.0000000E-01;  0.0000000E+00;0;  0.0000000E+00;  0.0000000E+00;  0.0000000E+00;0;  0.0000000E+00;  4.0000000E+04;  0.0000000E+00;  0.0000000E+00;  4.0000000E+04;  0.0000000E+00;  4.0000000E+04;  0.0000000E+00;  0.0000000E+00;  0.0000000E+00;  0.0000000E+00;
 -1.7000000E-01;  9.9999998E-03; -3.7000000E-01;279;  0.0000000E+00;  0.0000000E+00;  0.0000000E+00;  1.0000000E+03;  1.0000000E-01;  0.0000000E+00;0;  0.0000000E+00;  0.0000000E+00;  0.0000000E+00;0;  0.0000000E+00;  4.0000000E+04;  0.0000000E+00;  0.0000000E+00;  4.0000000E+04;  0.0000000E+00;  4.0000000E+04;  0.0000000E+00;  0.0000000E+00;  0.0000000E+00;  0.0000000E+00;
 -1.7000000E-01;  9.9999998E-03; -3.6000001E-01;280;  0.0000000E+00;  0.0000000E+00;  0.0000000E+00;  1.0000000E+03;  1.0000000E-01;  0.0000000E+00;0;  0.0000000E+00;  0.0000000E+00;  0.0000000E+00;0;  0.0000000E+00;  4.0000000E+04;  0.0000000E+00;  0.0000000E+00;  4.0000000E+04;  0.0000000E+00;  4.0000000E+04;  0.0000000E+00;  0.0000000E+00;  0.0000000E+00;  0.0000000E+00;
 -1.7000000E-01;  9.9999998E-03; -3.4999999E-01;281;  0.0000000E+00;  0.0000000E+00;  0.0000000E+00;  1.0000000E+03;  1.0000000E-01;  0.0000000E+00;0;  0.0000000E+00;  0.0000000E+00;  0.0000000E+00;0;  0.0000000E+00;  4.0000000E+04;  0.0000000E+00;  0.0000000E+00;  4.0000000E+04;  0.0000000E+00;  4.0000000E+04;  0.0000000E+00;  0.0000000E+00;  0.0000000E+00;  0.0000000E+00;
 -1.7000000E-01;  9.9999998E-03; -3.4000000E-01;282;  0.0000000E+00;  0.0000000E+00;  0.0000000E+00;  1.0000000E+03;  1.0000000E-01;  0.0000000E+00;0;  0.0000000E+00;  0.0000000E+00;  0.0000000E+00;0;  0.0000000E+00;  4.0000000E+04;  0.0000000E+00;  0.0000000E+00;  4.0000000E+04;  0.0000000E+00;  4.0000000E+04;  0.0000000E+00;  0.0000000E+00;  0.0000000E+00;  0.0000000E+00;
 -1.7000000E-01;  9.9999998E-03; -3.3000001E-01;283;  0.0000000E+00;  0.0000000E+00;  0.0000000E+00;  1.0000000E+03;  1.0000000E-01;  0.0000000E+00;0;  0.0000000E+00;  0.0000000E+00;  0.0000000E+00;0;  0.0000000E+00;  4.0000000E+04;  0.0000000E+00;  0.0000000E+00;  4.0000000E+04;  0.0000000E+00;  4.0000000E+04;  0.0000000E+00;  0.0000000E+00;  0.0000000E+00;  0.0000000E+00;
 -1.7000000E-01;  9.9999998E-03; -3.1999999E-01;284;  0.0000000E+00;  0.0000000E+00;  0.0000000E+00;  1.0000000E+03;  1.0000000E-01;  0.0000000E+00;0;  0.0000000E+00;  0.0000000E+00;  0.0000000E+00;0;  0.0000000E+00;  4.0000000E+04;  0.0000000E+00;  0.0000000E+00;  4.0000000E+04;  0.0000000E+00;  4.0000000E+04;  0.0000000E+00;  0.0000000E+00;  0.0000000E+00;  0.0000000E+00;
 -1.7000000E-01;  9.9999998E-03; -3.1000000E-01;285;  0.0000000E+00;  0.0000000E+00;  0.0000000E+00;  1.0000000E+03;  1.0000000E-01;  0.0000000E+00;0;  0.0000000E+00;  0.0000000E+00;  0.0000000E+00;0;  0.0000000E+00;  4.0000000E+04;  0.0000000E+00;  0.0000000E+00;  4.0000000E+04;  0.0000000E+00;  4.0000000E+04;  0.0000000E+00;  0.0000000E+00;  0.0000000E+00;  0.0000000E+00;
 -1.7000000E-01;  9.9999998E-03; -3.0000001E-01;286;  0.0000000E+00;  0.0000000E+00;  0.0000000E+00;  1.0000000E+03;  1.0000000E-01;  0.0000000E+00;0;  0.0000000E+00;  0.0000000E+00;  0.0000000E+00;0;  0.0000000E+00;  4.0000000E+04;  0.0000000E+00;  0.0000000E+00;  4.0000000E+04;  0.0000000E+00;  4.0000000E+04;  0.0000000E+00;  0.0000000E+00;  0.0000000E+00;  0.0000000E+00;
 -1.7000000E-01;  9.9999998E-03; -2.8999999E-01;287;  0.0000000E+00;  0.0000000E+00;  0.0000000E+00;  1.0000000E+03;  1.0000000E-01;  0.0000000E+00;0;  0.0000000E+00;  0.0000000E+00;  0.0000000E+00;0;  0.0000000E+00;  4.0000000E+04;  0.0000000E+00;  0.0000000E+00;  4.0000000E+04;  0.0000000E+00;  4.0000000E+04;  0.0000000E+00;  0.0000000E+00;  0.0000000E+00;  6.8926012E-14;
 -1.7000000E-01;  9.9999998E-03; -2.8000000E-01;288;  0.0000000E+00;  0.0000000E+00;  0.0000000E+00;  1.0000000E+03;  1.0000000E-01;  0.0000000E+00;0;  0.0000000E+00;  0.0000000E+00;  0.0000000E+00;0;  0.0000000E+00;  4.0000000E+04;  0.0000000E+00;  0.0000000E+00;  4.0000000E+04;  0.0000000E+00;  4.0000000E+04;  0.0000000E+00;  0.0000000E+00;  0.0000000E+00;  1.4968563E-11;
 -1.6000000E-01;  9.9999998E-03; -4.4000000E-01;363;  0.0000000E+00;  0.0000000E+00;  0.0000000E+00;  1.0000000E+03;  1.0000000E-01;  0.0000000E+00;0;  0.0000000E+00;  0.0000000E+00;  0.0000000E+00;0;  0.0000000E+00;  4.0000000E+04;  0.0000000E+00;  0.0000000E+00;  4.0000000E+04;  0.0000000E+00;  4.0000000E+04;  0.0000000E+00;  0.0000000E+00;  0.0000000E+00;  0.0000000E+00;
 -1.6000000E-01;  9.9999998E-03; -4.3000001E-01;364;  0.0000000E+00;  0.0000000E+00;  0.0000000E+00;  1.0000000E+03;  1.0000000E-01;  0.0000000E+00;0;  0.0000000E+00;  0.0000000E+00;  0.0000000E+00;0;  0.0000000E+00;  4.0000000E+04;  0.0000000E+00;  0.0000000E+00;  4.0000000E+04;  0.0000000E+00;  4.0000000E+04;  0.0000000E+00;  0.0000000E+00;  0.0000000E+00;  0.0000000E+00;
 -1.6000000E-01;  9.9999998E-03; -4.1999999E-01;365;  0.0000000E+00;  0.0000000E+00;  0.0000000E+00;  1.0000000E+03;  1.0000000E-01;  0.0000000E+00;0;  0.0000000E+00;  0.0000000E+00;  0.0000000E+00;0;  0.0000000E+00;  4.0000000E+04;  0.0000000E+00;  0.0000000E+00;  4.0000000E+04;  0.0000000E+00;  4.0000000E+04;  0.0000000E+00;  0.0000000E+00;  0.0000000E+00;  0.0000000E+00;
 -1.6000000E-01;  9.9999998E-03; -4.1000000E-01;366;  0.0000000E+00;  0.0000000E+00;  0.0000000E+00;  1.0000000E+03;  1.0000000E-01;  0.0000000E+00;0;  0.0000000E+00;  0.0000000E+00;  0.0000000E+00;0;  0.0000000E+00;  4.0000000E+04;  0.0000000E+00;  0.0000000E+00;  4.0000000E+04;  0.0000000E+00;  4.0000000E+04;  0.0000000E+00;  0.0000000E+00;  0.0000000E+00;  0.0000000E+00;
 -1.6000000E-01;  9.9999998E-03; -4.0000001E-01;367;  0.0000000E+00;  0.0000000E+00;  0.0000000E+00;  1.0000000E+03;  1.0000000E-01;  0.0000000E+00;0;  0.0000000E+00;  0.0000000E+00;  0.0000000E+00;0;  0.0000000E+00;  4.0000000E+04;  0.0000000E+00;  0.0000000E+00;  4.0000000E+04;  0.0000000E+00;  4.0000000E+04;  0.0000000E+00;  0.0000000E+00;  0.0000000E+00;  0.0000000E+00;
 -1.6000000E-01;  9.9999998E-03; -3.8999999E-01;368;  0.0000000E+00;  0.0000000E+00;  0.0000000E+00;  1.0000000E+03;  1.0000000E-01;  0.0000000E+00;0;  0.0000000E+00;  0.0000000E+00;  0.0000000E+00;0;  0.0000000E+00;  4.0000000E+04;  0.0000000E+00;  0.0000000E+00;  4.0000000E+04;  0.0000000E+00;  4.0000000E+04;  0.0000000E+00;  0.0000000E+00;  0.0000000E+00;  0.0000000E+00;
 -1.6000000E-01;  9.9999998E-03; -3.8000000E-01;369;  0.0000000E+00;  0.0000000E+00;  0.0000000E+00;  1.0000000E+03;  1.0000000E-01;  0.0000000E+00;0;  0.0000000E+00;  0.0000000E+00;  0.0000000E+00;0;  0.0000000E+00;  4.0000000E+04;  0.0000000E+00;  0.0000000E+00;  4.0000000E+04;  0.0000000E+00;  4.0000000E+04;  0.0000000E+00;  0.0000000E+00;  0.0000000E+00;  0.0000000E+00;
 -1.6000000E-01;  9.9999998E-03; -3.7000000E-01;370;  0.0000000E+00;  0.0000000E+00;  0.0000000E+00;  1.0000000E+03;  1.0000000E-01;  0.0000000E+00;0;  0.0000000E+00;  0.0000000E+00;  0.0000000E+00;0;  0.0000000E+00;  4.0000000E+04;  0.0000000E+00;  0.0000000E+00;  4.0000000E+04;  0.0000000E+00;  4.0000000E+04;  0.0000000E+00;  0.0000000E+00;  0.0000000E+00;  0.0000000E+00;
 -1.6000000E-01;  9.9999998E-03; -3.6000001E-01;371;  0.0000000E+00;  0.0000000E+00;  0.0000000E+00;  1.0000000E+03;  1.0000000E-01;  0.0000000E+00;0;  0.0000000E+00;  0.0000000E+00;  0.0000000E+00;0;  0.0000000E+00;  4.0000000E+04;  0.0000000E+00;  0.0000000E+00;  4.0000000E+04;  0.0000000E+00;  4.0000000E+04;  0.0000000E+00;  0.0000000E+00;  0.0000000E+00;  0.0000000E+00;
 -1.6000000E-01;  9.9999998E-03; -3.4999999E-01;372;  0.0000000E+00;  0.0000000E+00;  0.0000000E+00;  1.0000000E+03;  1.0000000E-01;  0.0000000E+00;0;  0.0000000E+00;  0.0000000E+00;  0.0000000E+00;0;  0.0000000E+00;  4.0000000E+04;  0.0000000E+00;  0.0000000E+00;  4.0000000E+04;  0.0000000E+00;  4.0000000E+04;  0.0000000E+00;  0.0000000E+00;  0.0000000E+00;  0.0000000E+00;
 -1.6000000E-01;  9.9999998E-03; -3.4000000E-01;373;  0.0000000E+00;  0.0000000E+00;  0.0000000E+00;  1.0000000E+03;  1.0000000E-01;  0.0000000E+00;0;  0.0000000E+00;  0.0000000E+00;  0.0000000E+00;0;  7.6364715E-10;  4.0000000E+04;  0.0000000E+00;  0.0000000E+00;  4.0000000E+04;  0.0000000E+00;  4.0000000E+04;  8.4392515E-10;  0.0000000E+00; -8.0278000E-11;  9.1898046E-04;
 -1.6000000E-01;  9.9999998E-03; -3.3000001E-01;374;  0.0000000E+00;  0.0000000E+00;  0.0000000E+00;  1.0000000E+03;  1.0000000E-01;  0.0000000E+00;0;  0.0000000E+00;  0.0000000E+00;  0.0000000E+00;0;  1.3751190E-08;  4.0000000E+04;  0.0000000E+00;  0.0000000E+00;  4.0000000E+04;  0.0000000E+00;  4.0000000E+04;  1.4672374E-08;  0.0000000E+00; -9.2118374E-10;  6.6597285E-03;
 -1.6000000E-01;  9.9999998E-03; -3.1999999E-01;375;  0.0000000E+00;  0.0000000E+00;  0.0000000E+00;  1.0000000E+03;  1.0000000E-01;  0.0000000E+00;0;  0.0000000E+00;  0.0000000E+00;  0.0000000E+00;0;  7.9611532E-08;  4.0000000E+04;  0.0000000E+00;  0.0000000E+00;  4.0000000E+04;  0.0000000E+00;  4.0000000E+04;  7.9814392E-08;  0.0000000E+00; -2.0285915E-10;  2.0508016E-02;
 -1.6000000E-01;  9.9999998E-03; -3.1000000E-01;376;  0.0000000E+00;  0.0000000E+00;  0.0000000E+00;  1.0000000E+03;  1.0000000E-01;  0.0000000E+00;0;  0.0000000E+00;  0.0000000E+00;  0.0000000E+00;0;  2.5170974E-07;  4.0000000E+04;  0.0000000E+00;  0.0000000E+00;  4.0000000E+04;  0.0000000E+00;  4.0000000E+04;  2.4694066E-07;  0.0000000E+00;  4.7690873E-09;  3.9021172E-02;
 -1.6000000E-01;  9.9999998E-03; -3.0000001E-01;377;  0.0000000E+00;  0.0000000E+00;  0.0000000E+00;  1.0000000E+03;  1.0000000E-01;  0.0000000E+00;0;  0.0000000E+00;  0.0000000E+00;  0.0000000E+00;0;  5.5568574E-07;  4.0000000E+04;  0.0000000E+00;  0.0000000E+00;  4.0000000E+04;  0.0000000E+00;  4.0000000E+04;  5.4302365E-07;  0.0000000E+00;  1.2662085E-08;  5.0333813E-02;
 -1.6000000E-01;  9.9999998E-03; -2.8999999E-01;378;  0.0000000E+00;  0.0000000E+00;  0.0000000E+00;  1.0000000E+03;  1.0000000E-01;  0.0000000E+00;0;  0.0000000E+00;  0.0000000E+00;  0.0000000E+00;0;  9.6621022E-07;  4.0000000E+04;  0.0000000E+00;  0.0000000E+00;  4.0000000E+04;  0.0000000E+00;  4.0000000E+04;  9.4761742E-07;  0.0000000E+00;  1.8592772E-08;  4.0366337E-02;
 -1.6000000E-01;  9.9999998E-03; -2.8000000E-01;379;  0.0000000E+00;  0.0000000E+00;  0.0000000E+00;  1.0000000E+03;  1.0000000E-01;  0.0000000E+00;0;  0.0000000E+00;  0.0000000E+00;  0.0000000E+00;0;  1.4094896E-06;  4.0000000E+04;  0.0000000E+00;  0.0000000E+00;  4.0000000E+04;  0.0000000E+00;  4.0000000E+04;  1.3916494E-06;  0.0000000E+00;  1.7840202E-08;  2.6112252E-03;
 -1.5000001E-01;  9.9999998E-03; -4.4000000E-01;454;  0.0000000E+00;  0.0000000E+00;  0.0000000E+00;  1.0000000E+03;  1.0000000E-01;  0.0000000E+00;0;  0.0000000E+00;  0.0000000E+00;  0.0000000E+00;0;  0.0000000E+00;  4.0000000E+04;  0.0000000E+00;  0.0000000E+00;  4.0000000E+04;  0.0000000E+00;  4.0000000E+04;  0.0000000E+00;  0.0000000E+00;  0.0000000E+00;  0.0000000E+00;
 -1.5000001E-01;  9.9999998E-03; -4.3000001E-01;455;  0.0000000E+00;  0.0000000E+00;  0.0000000E+00;  1.0000000E+03;  1.0000000E-01;  0.0000000E+00;0;  0.0000000E+00;  0.0000000E+00;  0.0000000E+00;0;  0.0000000E+00;  4.0000000E+04;  0.0000000E+00;  0.0000000E+00;  4.0000000E+04;  0.0000000E+00;  4.0000000E+04;  0.0000000E+00;  0.0000000E+00;  0.0000000E+00;  0.0000000E+00;
 -1.5000001E-01;  9.9999998E-03; -4.1999999E-01;456;  0.0000000E+00;  0.0000000E+00;  0.0000000E+00;  1.0000000E+03;  1.0000000E-01;  0.0000000E+00;0;  0.0000000E+00;  0.0000000E+00;  0.0000000E+00;0;  0.0000000E+00;  4.0000000E+04;  0.0000000E+00;  0.0000000E+00;  4.0000000E+04;  0.0000000E+00;  4.0000000E+04;  0.0000000E+00;  0.0000000E+00;  0.0000000E+00;  0.0000000E+00;
 -1.5000001E-01;  9.9999998E-03; -4.1000000E-01;457;  0.0000000E+00;  0.0000000E+00;  0.0000000E+00;  1.0000000E+03;  1.0000000E-01;  0.0000000E+00;0;  0.0000000E+00;  0.0000000E+00;  0.0000000E+00;0;  0.0000000E+00;  4.0000000E+04;  0.0000000E+00;  0.0000000E+00;  4.0000000E+04;  0.0000000E+00;  4.0000000E+04;  0.0000000E+00;  0.0000000E+00;  0.0000000E+00;  0.0000000E+00;
 -1.5000001E-01;  9.9999998E-03; -4.0000001E-01;458;  0.0000000E+00;  0.0000000E+00;  0.0000000E+00;  1.0000000E+03;  1.0000000E-01;  0.0000000E+00;0;  0.0000000E+00;  0.0000000E+00;  0.0000000E+00;0;  0.0000000E+00;  4.0000000E+04;  0.0000000E+00;  0.0000000E+00;  4.0000000E+04;  0.0000000E+00;  4.0000000E+04;  0.0000000E+00;  0.0000000E+00;  0.0000000E+00;  0.0000000E+00;
 -1.5000001E-01;  9.9999998E-03; -3.8999999E-01;459;  0.0000000E+00;  0.0000000E+00;  0.0000000E+00;  1.0000000E+03;  1.0000000E-01;  0.0000000E+00;0;  0.0000000E+00;  0.0000000E+00;  0.0000000E+00;0;  0.0000000E+00;  4.0000000E+04;  0.0000000E+00;  0.0000000E+00;  4.0000000E+04;  0.0000000E+00;  4.0000000E+04;  0.0000000E+00;  0.0000000E+00;  0.0000000E+00;  0.0000000E+00;
 -1.5000001E-01;  9.9999998E-03; -3.8000000E-01;460;  0.0000000E+00;  0.0000000E+00;  0.0000000E+00;  1.0000000E+03;  1.0000000E-01;  0.0000000E+00;0;  0.0000000E+00;  0.0000000E+00;  0.0000000E+00;0;  0.0000000E+00;  4.0000000E+04;  0.0000000E+00;  0.0000000E+00;  4.0000000E+04;  0.0000000E+00;  4.0000000E+04;  0.0000000E+00;  0.0000000E+00;  0.0000000E+00;  0.0000000E+00;
 -1.5000001E-01;  9.9999998E-03; -3.7000000E-01;461;  0.0000000E+00;  0.0000000E+00;  0.0000000E+00;  1.0000000E+03;  1.0000000E-01;  0.0000000E+00;0;  0.0000000E+00;  0.0000000E+00;  0.0000000E+00;0;  0.0000000E+00;  4.0000000E+04;  0.0000000E+00;  0.0000000E+00;  4.0000000E+04;  0.0000000E+00;  4.0000000E+04;  0.0000000E+00;  0.0000000E+00;  0.0000000E+00;  3.0836722E-09;
 -1.5000001E-01;  9.9999998E-03; -3.6000001E-01;462;  0.0000000E+00;  0.0000000E+00;  0.0000000E+00;  1.0000000E+03;  1.0000000E-01;  0.0000000E+00;0;  0.0000000E+00;  0.0000000E+00;  0.0000000E+00;0;  6.5816539E-09;  4.0000000E+04;  0.0000000E+00;  0.0000000E+00;  4.0000000E+04;  0.0000000E+00;  4.0000000E+04;  7.7656024E-09;  0.0000000E+00; -1.1839484E-09;  7.5755278E-03;
 -1.5000001E-01;  9.9999998E-03; -3.4999999E-01;463;  0.0000000E+00;  0.0000000E+00;  0.0000000E+00;  1.0000000E+03;  1.0000000E-01;  0.0000000E+00;0;  0.0000000E+00;  0.0000000E+00;  0.0000000E+00;0;  7.7031714E-08;  4.0000000E+04;  0.0000000E+00;  0.0000000E+00;  4.0000000E+04;  0.0000000E+00;  4.0000000E+04;  8.2741366E-08;  0.0000000E+00; -5.7096545E-09;  4.7167614E-02;
 -1.5000001E-01;  9.9999998E-03; -3.4000000E-01;464;  0.0000000E+00;  0.0000000E+00;  0.0000000E+00;  1.0000000E+03;  1.0000000E-01;  0.0000000E+00;0;  0.0000000E+00;  0.0000000E+00;  0.0000000E+00;0;  4.0341180E-07;  4.0000000E+04;  0.0000000E+00;  0.0000000E+00;  4.0000000E+04;  0.0000000E+00;  4.0000000E+04;  4.0112124E-07;  0.0000000E+00;  2.2905584E-09;  1.5436943E-01;
 -1.5000001E-01;  9.9999998E-03; -3.3000001E-01;465;  0.0000000E+00;  0.0000000E+00;  0.0000000E+00;  1.0000000E+03;  1.0000000E-01;  0.0000000E+00;0;  0.0000000E+00;  0.0000000E+00;  0.0000000E+00;0;  1.2926879E-06;  4.0000000E+04;  0.0000000E+00;  0.0000000E+00;  4.0000000E+04;  0.0000000E+00;  4.0000000E+04;  1.2484538E-06;  0.0000000E+00;  4.4234092E-08;  3.4175301E-01;
 -1.5000001E-01;  9.9999998E-03; -3.1999999E-01;466;  0.0000000E+00;  0.0000000E+00;  0.0000000E+00;  1.0000000E+03;  1.0000000E-01;  0.0000000E+00;0;  0.0000000E+00;  0.0000000E+00;  0.0000000E+00;0;  3.0734566E-06;  4.0000000E+04;  0.0000000E+00;  0.0000000E+00;  4.0000000E+04;  0.0000000E+00;  4.0000000E+04;  2.9453083E-06;  0.0000000E+00;  1.2814826E-07;  5.6735069E-01;
 -1.5000001E-01;  9.9999998E-03; -3.1000000E-01;467;  0.0000000E+00;  0.0000000E+00;  0.0000000E+00;  1.0000000E+03;  1.0000000E-01;  0.0000000E+00;0;  0.0000000E+00;  0.0000000E+00;  0.0000000E+00;0;  5.9735808E-06;  4.0000000E+04;  0.0000000E+00;  0.0000000E+00;  4.0000000E+04;  0.0000000E+00;  4.0000000E+04;  5.7349898E-06;  0.0000000E+00;  2.3859093E-07;  7.3594397E-01;
 -1.5000001E-01;  9.9999998E-03; -3.0000001E-01;468;  0.0000000E+00;  0.0000000E+00;  0.0000000E+00;  1.0000000E+03;  1.0000000E-01;  0.0000000E+00;0;  0.0000000E+00;  0.0000000E+00;  0.0000000E+00;0;  1.0017251E-05;  4.0000000E+04;  0.0000000E+00;  0.0000000E+00;  4.0000000E+04;  0.0000000E+00;  4.0000000E+04;  9.6771955E-06;  0.0000000E+00;  3.4005552E-07;  7.3323917E-01;
 -1.5000001E-01;  9.9999998E-03; -2.8999999E-01;469;  0.0000000E+00;  0.0000000E+00;  0.0000000E+00;  1.0000000E+03;  1.0000000E-01;  0.0000000E+00;0;  0.0000000E+00;  0.0000000E+00;  0.0000000E+00;0;  1.4984069E-05;  4.0000000E+04;  0.0000000E+00;  0.0000000E+00;  4.0000000E+04;  0.0000000E+00;  4.0000000E+04;  1.4591879E-05;  0.0000000E+00;  3.9218989E-07;  4.7425100E-01;
 -1.5000001E-01;  9.9999998E-03; -2.8000000E-01;470;  0.0000000E+00;  0.0000000E+00;  0.0000000E+00;  1.0000000E+03;  1.0000000E-01;  0.0000000E+00;0;  0.0000000E+00;  0.0000000E+00;  0.0000000E+00;0;  2.0440701E-05;  4.0000000E+04;  0.0000000E+00;  0.0000000E+00;  4.0000000E+04;  0.0000000E+00;  4.0000000E+04;  2.0072011E-05;  0.0000000E+00;  3.6868974E-07;  5.9435748E-02;
 -1.4000000E-01;  9.9999998E-03; -4.4000000E-01;545;  0.0000000E+00;  0.0000000E+00;  0.0000000E+00;  1.0000000E+03;  1.0000000E-01;  0.0000000E+00;0;  0.0000000E+00;  0.0000000E+00;  0.0000000E+00;0;  0.0000000E+00;  4.0000000E+04;  0.0000000E+00;  0.0000000E+00;  4.0000000E+04;  0.0000000E+00;  4.0000000E+04;  0.0000000E+00;  0.0000000E+00;  0.0000000E+00;  0.0000000E+00;
 -1.4000000E-01;  9.9999998E-03; -4.3000001E-01;546;  0.0000000E+00;  0.0000000E+00;  0.0000000E+00;  1.0000000E+03;  1.0000000E-01;  0.0000000E+00;0;  0.0000000E+00;  0.0000000E+00;  0.0000000E+00;0;  0.0000000E+00;  4.0000000E+04;  0.0000000E+00;  0.0000000E+00;  4.0000000E+04;  0.0000000E+00;  4.0000000E+04;  0.0000000E+00;  0.0000000E+00;  0.0000000E+00;  0.0000000E+00;
 -1.4000000E-01;  9.9999998E-03; -4.1999999E-01;547;  0.0000000E+00;  0.0000000E+00;  0.0000000E+00;  1.0000000E+03;  1.0000000E-01;  0.0000000E+00;0;  0.0000000E+00;  0.0000000E+00;  0.0000000E+00;0;  0.0000000E+00;  4.0000000E+04;  0.0000000E+00;  0.0000000E+00;  4.0000000E+04;  0.0000000E+00;  4.0000000E+04;  0.0000000E+00;  0.0000000E+00;  0.0000000E+00;  0.0000000E+00;
 -1.4000000E-01;  9.9999998E-03; -4.1000000E-01;548;  0.0000000E+00;  0.0000000E+00;  0.0000000E+00;  1.0000000E+03;  1.0000000E-01;  0.0000000E+00;0;  0.0000000E+00;  0.0000000E+00;  0.0000000E+00;0;  0.0000000E+00;  4.0000000E+04;  0.0000000E+00;  0.0000000E+00;  4.0000000E+04;  0.0000000E+00;  4.0000000E+04;  0.0000000E+00;  0.0000000E+00;  0.0000000E+00;  0.0000000E+00;
 -1.4000000E-01;  9.9999998E-03; -4.0000001E-01;549;  0.0000000E+00;  0.0000000E+00;  0.0000000E+00;  1.0000000E+03;  1.0000000E-01;  0.0000000E+00;0;  0.0000000E+00;  0.0000000E+00;  0.0000000E+00;0;  0.0000000E+00;  4.0000000E+04;  0.0000000E+00;  0.0000000E+00;  4.0000000E+04;  0.0000000E+00;  4.0000000E+04;  0.0000000E+00;  0.0000000E+00;  0.0000000E+00;  0.0000000E+00;
 -1.4000000E-01;  9.9999998E-03; -3.8999999E-01;550;  0.0000000E+00;  0.0000000E+00;  0.0000000E+00;  1.0000000E+03;  1.0000000E-01;  0.0000000E+00;0;  0.0000000E+00;  0.0000000E+00;  0.0000000E+00;0;  0.0000000E+00;  4.0000000E+04;  0.0000000E+00;  0.0000000E+00;  4.0000000E+04;  0.0000000E+00;  4.0000000E+04;  0.0000000E+00;  0.0000000E+00;  0.0000000E+00;  0.0000000E+00;
 -1.4000000E-01;  9.9999998E-03; -3.8000000E-01;551;  0.0000000E+00;  0.0000000E+00;  0.0000000E+00;  1.0000000E+03;  1.0000000E-01;  0.0000000E+00;0;  0.0000000E+00;  0.0000000E+00;  0.0000000E+00;0;  2.3878268E-09;  4.0000000E+04;  0.0000000E+00;  0.0000000E+00;  4.0000000E+04;  0.0000000E+00;  4.0000000E+04;  3.1431675E-09;  0.0000000E+00; -7.5534073E-10;  6.1435029E-03;
 -1.4000000E-01;  9.9999998E-03; -3.7000000E-01;552;  0.0000000E+00;  0.0000000E+00;  0.0000000E+00;  1.0000000E+03;  1.0000000E-01;  0.0000000E+00;0;  0.0000000E+00;  0.0000000E+00;  0.0000000E+00;0;  5.4011480E-08;  4.0000000E+04;  0.0000000E+00;  0.0000000E+00;  4.0000000E+04;  0.0000000E+00;  4.0000000E+04;  6.6115184E-08;  0.0000000E+00; -1.2103704E-08;  7.8903317E-02;
 -1.4000000E-01;  9.9999998E-03; -3.6000001E-01;553;  0.0000000E+00;  0.0000000E+00;  0.0000000E+00;  1.0000000E+03;  1.0000000E-01;  0.0000000E+00;0;  0.0000000E+00;  0.0000000E+00;  0.0000000E+00;0;  4.1859909E-07;  4.0000000E+04;  0.0000000E+00;  0.0000000E+00;  4.0000000E+04;  0.0000000E+00;  4.0000000E+04;  4.2941497E-07;  0.0000000E+00; -1.0815889E-08;  3.4570166E-01;
 -1.4000000E-01;  9.9999998E-03; -3.4999999E-01;554;  0.0000000E+00;  0.0000000E+00;  0.0000000E+00;  1.0000000E+03;  1.0000000E-01;  0.0000000E+00;0;  0.0000000E+00;  0.0000000E+00;  0.0000000E+00;0;  1.7135898E-06;  4.0000000E+04;  0.0000000E+00;  0.0000000E+00;  4.0000000E+04;  0.0000000E+00;  4.0000000E+04;  1.6414288E-06;  0.0000000E+00;  7.2160972E-08;  9.2328703E-01;
 -1.4000000E-01;  9.9999998E-03; -3.4000000E-01;555;  0.0000000E+00;  0.0000000E+00;  0.0000000E+00;  1.0000000E+03;  1.0000000E-01;  0.0000000E+00;0;  0.0000000E+00;  0.0000000E+00;  0.0000000E+00;0;  4.8276561E-06;  4.0000000E+04;  0.0000000E+00;  0.0000000E+00;  4.0000000E+04;  0.0000000E+00;  4.0000000E+04;  4.5237034E-06;  0.0000000E+00;  3.0395245E-07;  1.8297714E+00;
 -1.4000000E-01;  9.9999998E-03; -3.3000001E-01;556;  0.0000000E+00;  0.0000000E+00;  0.0000000E+00;  1.0000000E+03;  1.0000000E-01;  0.0000000E+00;0;  0.0000000E+00;  0.0000000E+00;  0.0000000E+00;0;  1.0732972E-05;  4.0000000E+04;  0.0000000E+00;  0.0000000E+00;  4.0000000E+04;  0.0000000E+00;  4.0000000E+04;  1.0028381E-05;  0.0000000E+00;  7.0459123E-07;  2.9186430E+00;
 -1.4000000E-01;  9.9999998E-03; -3.1999999E-01;557;  0.0000000E+00;  0.0000000E+00;  0.0000000E+00;  1.0000000E+03;  1.0000000E-01;  0.0000000E+00;0;  0.0000000E+00;  0.0000000E+00;  0.0000000E+00;0;  2.0248048E-05;  4.0000000E+04;  0.0000000E+00;  0.0000000E+00;  4.0000000E+04;  0.0000000E+00;  4.0000000E+04;  1.9021330E-05;  0.0000000E+00;  1.2267164E-06;  3.8748078E+00;
 -1.4000000E-01;  9.9999998E-03; -3.1000000E-01;558;  0.0000000E+00;  0.0000000E+00;  0.0000000E+00;  1.0000000E+03;  1.0000000E-01;  0.0000000E+00;0;  0.0000000E+00;  0.0000000E+00;  0.0000000E+00;0;  3.3800294E-05;  4.0000000E+04;  0.0000000E+00;  0.0000000E+00;  4.0000000E+04;  0.0000000E+00;  4.0000000E+04;  3.2038817E-05;  0.0000000E+00;  1.7614783E-06;  4.2919369E+00;
 -1.4000000E-01;  9.9999998E-03; -3.0000001E-01;559;  0.0000000E+00;  0.0000000E+00;  0.0000000E+00;  1.0000000E+03;  1.0000000E-01;  0.0000000E+00;0;  0.0000000E+00;  0.0000000E+00;  0.0000000E+00;0;  5.1257510E-05;  4.0000000E+04;  0.0000000E+00;  0.0000000E+00;  4.0000000E+04;  0.0000000E+00;  4.0000000E+04;  4.9089314E-05;  0.0000000E+00;  2.1681949E-06;  3.7981188E+00;
 -1.4000000E-01;  9.9999998E-03; -2.8999999E-01;560;  0.0000000E+00;  0.0000000E+00;  0.0000000E+00;  1.0000000E+03;  1.0000000E-01;  0.0000000E+00;0;  0.0000000E+00;  0.0000000E+00;  0.0000000E+00;0;  7.1884111E-05;  4.0000000E+04;  0.0000000E+00;  0.0000000E+00;  4.0000000E+04;  0.0000000E+00;  4.0000000E+04;  6.9563735E-05;  0.0000000E+00;  2.3203775E-06;  2.1860919E+00;
 -1.4000000E-01;  9.9999998E-03; -2.8000000E-01;561;  0.0000000E+00;  0.0000000E+00;  0.0000000E+00;  1.0000000E+03;  1.0000000E-01;  0.0000000E+00;0;  0.0000000E+00;  0.0000000E+00;  0.0000000E+00;0;  9.4434326E-05;  4.0000000E+04;  0.0000000E+00;  0.0000000E+00;  4.0000000E+04;  0.0000000E+00;  4.0000000E+04;  9.2282047E-05;  0.0000000E+00;  2.1522817E-06;  5.0124228E-01;
 -1.3000000E-01;  9.9999998E-03; -4.4000000E-01;636;  0.0000000E+00;  0.0000000E+00;  0.0000000E+00;  1.0000000E+03;  1.0000000E-01;  0.0000000E+00;0;  0.0000000E+00;  0.0000000E+00;  0.0000000E+00;0;  0.0000000E+00;  4.0000000E+04;  0.0000000E+00;  0.0000000E+00;  4.0000000E+04;  0.0000000E+00;  4.0000000E+04;  0.0000000E+00;  0.0000000E+00;  0.0000000E+00;  0.0000000E+00;
 -1.3000000E-01;  9.9999998E-03; -4.3000001E-01;637;  0.0000000E+00;  0.0000000E+00;  0.0000000E+00;  1.0000000E+03;  1.0000000E-01;  0.0000000E+00;0;  0.0000000E+00;  0.0000000E+00;  0.0000000E+00;0;  0.0000000E+00;  4.0000000E+04;  0.0000000E+00;  0.0000000E+00;  4.0000000E+04;  0.0000000E+00;  4.0000000E+04;  0.0000000E+00;  0.0000000E+00;  0.0000000E+00;  0.0000000E+00;
 -1.3000000E-01;  9.9999998E-03; -4.1999999E-01;638;  0.0000000E+00;  0.0000000E+00;  0.0000000E+00;  1.0000000E+03;  1.0000000E-01;  0.0000000E+00;0;  0.0000000E+00;  0.0000000E+00;  0.0000000E+00;0;  0.0000000E+00;  4.0000000E+04;  0.0000000E+00;  0.0000000E+00;  4.0000000E+04;  0.0000000E+00;  4.0000000E+04;  0.0000000E+00;  0.0000000E+00;  0.0000000E+00;  0.0000000E+00;
 -1.3000000E-01;  9.9999998E-03; -4.1000000E-01;639;  0.0000000E+00;  0.0000000E+00;  0.0000000E+00;  1.0000000E+03;  1.0000000E-01;  0.0000000E+00;0;  0.0000000E+00;  0.0000000E+00;  0.0000000E+00;0;  0.0000000E+00;  4.0000000E+04;  0.0000000E+00;  0.0000000E+00;  4.0000000E+04;  0.0000000E+00;  4.0000000E+04;  0.0000000E+00;  0.0000000E+00;  0.0000000E+00;  0.0000000E+00;
 -1.3000000E-01;  9.9999998E-03; -4.0000001E-01;640;  0.0000000E+00;  0.0000000E+00;  0.0000000E+00;  1.0000000E+03;  1.0000000E-01;  0.0000000E+00;0;  0.0000000E+00;  0.0000000E+00;  0.0000000E+00;0;  0.0000000E+00;  4.0000000E+04;  0.0000000E+00;  0.0000000E+00;  4.0000000E+04;  0.0000000E+00;  4.0000000E+04;  0.0000000E+00;  0.0000000E+00;  0.0000000E+00;  0.0000000E+00;
 -1.3000000E-01;  9.9999998E-03; -3.8999999E-01;641;  0.0000000E+00;  0.0000000E+00;  0.0000000E+00;  1.0000000E+03;  1.0000000E-01;  0.0000000E+00;0;  0.0000000E+00;  0.0000000E+00;  0.0000000E+00;0;  9.0680210E-09;  4.0000000E+04;  0.0000000E+00;  0.0000000E+00;  4.0000000E+04;  0.0000000E+00;  4.0000000E+04;  1.4798462E-08;  0.0000000E+00; -5.7304406E-09;  3.7795588E-02;
 -1.3000000E-01;  9.9999998E-03; -3.8000000E-01;642;  0.0000000E+00;  0.0000000E+00;  0.0000000E+00;  1.0000000E+03;  1.0000000E-01;  0.0000000E+00;0;  0.0000000E+00;  0.0000000E+00;  0.0000000E+00;0;  1.3599370E-07;  4.0000000E+04;  0.0000000E+00;  0.0000000E+00;  4.0000000E+04;  0.0000000E+00;  4.0000000E+04;  1.6914164E-07;  0.0000000E+00; -3.3147945E-08;  3.2621962E-01;
 -1.3000000E-01;  9.9999998E-03; -3.7000000E-01;643;  0.0000000E+00;  0.0000000E+00;  0.0000000E+00;  1.0000000E+03;  1.0000000E-01;  0.0000000E+00;0;  0.0000000E+00;  0.0000000E+00;  0.0000000E+00;0;  9.7877853E-07;  4.0000000E+04;  0.0000000E+00;  0.0000000E+00;  4.0000000E+04;  0.0000000E+00;  4.0000000E+04;  9.6808901E-07;  0.0000000E+00;  1.0689554E-08;  1.2131691E+00;
 -1.3000000E-01;  9.9999998E-03; -3.6000001E-01;644;  0.0000000E+00;  0.0000000E+00;  0.0000000E+00;  1.0000000E+03;  1.0000000E-01;  0.0000000E+00;0;  0.0000000E+00;  0.0000000E+00;  0.0000000E+00;0;  3.7528393E-06;  4.0000000E+04;  0.0000000E+00;  0.0000000E+00;  4.0000000E+04;  0.0000000E+00;  4.0000000E+04;  3.4521677E-06;  0.0000000E+00;  3.0067162E-07;  2.9903631E+00;
 -1.3000000E-01;  9.9999998E-03; -3.4999999E-01;645;  0.0000000E+00;  0.0000000E+00;  0.0000000E+00;  1.0000000E+03;  1.0000000E-01;  0.0000000E+00;0;  0.0000000E+00;  0.0000000E+00;  0.0000000E+00;0;  1.0198343E-05;  4.0000000E+04;  0.0000000E+00;  0.0000000E+00;  4.0000000E+04;  0.0000000E+00;  4.0000000E+04;  9.2041082E-06;  0.0000000E+00;  9.9423528E-07;  5.7027292E+00;
 -1.3000000E-01;  9.9999998E-03; -3.4000000E-01;646;  0.0000000E+00;  0.0000000E+00;  0.0000000E+00;  1.0000000E+03;  1.0000000E-01;  0.0000000E+00;0;  0.0000000E+00;  0.0000000E+00;  0.0000000E+00;0;  2.2314871E-05;  4.0000000E+04;  0.0000000E+00;  0.0000000E+00;  4.0000000E+04;  0.0000000E+00;  4.0000000E+04;  2.0166406E-05;  0.0000000E+00;  2.1484655E-06;  9.0415182E+00;
 -1.3000000E-01;  9.9999998E-03; -3.3000001E-01;647;  0.0000000E+00;  0.0000000E+00;  0.0000000E+00;  1.0000000E+03;  1.0000000E-01;  0.0000000E+00;0;  0.0000000E+00;  0.0000000E+00;  0.0000000E+00;0;  4.2006035E-05;  4.0000000E+04;  0.0000000E+00;  0.0000000E+00;  4.0000000E+04;  0.0000000E+00;  4.0000000E+04;  3.8324582E-05;  0.0000000E+00;  3.6814538E-06;  1.2326015E+01;
 -1.3000000E-01;  9.9999998E-03; -3.1999999E-01;648;  0.0000000E+00;  0.0000000E+00;  0.0000000E+00;  1.0000000E+03;  1.0000000E-01;  0.0000000E+00;0;  0.0000000E+00;  0.0000000E+00;  0.0000000E+00;0;  7.0681403E-05;  4.0000000E+04;  0.0000000E+00;  0.0000000E+00;  4.0000000E+04;  0.0000000E+00;  4.0000000E+04;  6.5306529E-05;  0.0000000E+00;  5.3748718E-06;  1.4607967E+01;
 -1.3000000E-01;  9.9999998E-03; -3.1000000E-01;649;  0.0000000E+00;  0.0000000E+00;  0.0000000E+00;  1.0000000E+03;  1.0000000E-01;  0.0000000E+00;0;  0.0000000E+00;  0.0000000E+00;  0.0000000E+00;0;  1.0888475E-04;  4.0000000E+04;  0.0000000E+00;  0.0000000E+00;  4.0000000E+04;  0.0000000E+00;  4.0000000E+04;  1.0197340E-04;  0.0000000E+00;  6.9113485E-06;  1.4885259E+01;
 -1.3000000E-01;  9.9999998E-03; -3.0000001E-01;650;  0.0000000E+00;  0.0000000E+00;  0.0000000E+00;  1.0000000E+03;  1.0000000E-01;  0.0000000E+00;0;  0.0000000E+00;  0.0000000E+00;  0.0000000E+00;0;  1.5605584E-04;  4.0000000E+04;  0.0000000E+00;  0.0000000E+00;  4.0000000E+04;  0.0000000E+00;  4.0000000E+04;  1.4811002E-04;  0.0000000E+00;  7.9458232E-06;  1.2368905E+01;
 -1.3000000E-01;  9.9999998E-03; -2.8999999E-01;651;  0.0000000E+00;  0.0000000E+00;  0.0000000E+00;  1.0000025E+03;  1.0000000E-01;  2.0740154E+00;0;  0.0000000E+00;  0.0000000E+00;  0.0000000E+00;0;  2.1050876E-04;  4.0000000E+04;  0.0000000E+00;  0.0000000E+00;  4.0000000E+04;  0.0000000E+00;  4.0000000E+04;  2.0230710E-04;  0.0000000E+00;  8.2016686E-06;  6.7411885E+00;
 -1.3000000E-01;  9.9999998E-03; -2.8000000E-01;652;  0.0000000E+00;  0.0000000E+00;  0.0000000E+00;  1.0000000E+03;  1.0000000E-01;  0.0000000E+00;0;  0.0000000E+00;  0.0000000E+00;  0.0000000E+00;0;  2.6962909E-04;  4.0000000E+04;  0.0000000E+00;  0.0000000E+00;  4.0000000E+04;  0.0000000E+00;  4.0000000E+04;  2.6206707E-04;  0.0000000E+00;  7.5620201E-06;  1.6938168E+00;
 -1.2000000E-01;  9.9999998E-03; -4.4000000E-01;727;  0.0000000E+00;  0.0000000E+00;  0.0000000E+00;  1.0000000E+03;  1.0000000E-01;  0.0000000E+00;0;  0.0000000E+00;  0.0000000E+00;  0.0000000E+00;0;  0.0000000E+00;  4.0000000E+04;  0.0000000E+00;  0.0000000E+00;  4.0000000E+04;  0.0000000E+00;  4.0000000E+04;  0.0000000E+00;  0.0000000E+00;  0.0000000E+00;  0.0000000E+00;
 -1.2000000E-01;  9.9999998E-03; -4.3000001E-01;728;  0.0000000E+00;  0.0000000E+00;  0.0000000E+00;  1.0000000E+03;  1.0000000E-01;  0.0000000E+00;0;  0.0000000E+00;  0.0000000E+00;  0.0000000E+00;0;  0.0000000E+00;  4.0000000E+04;  0.0000000E+00;  0.0000000E+00;  4.0000000E+04;  0.0000000E+00;  4.0000000E+04;  0.0000000E+00;  0.0000000E+00;  0.0000000E+00;  0.0000000E+00;
 -1.2000000E-01;  9.9999998E-03; -4.1999999E-01;729;  0.0000000E+00;  0.0000000E+00;  0.0000000E+00;  1.0000000E+03;  1.0000000E-01;  0.0000000E+00;0;  0.0000000E+00;  0.0000000E+00;  0.0000000E+00;0;  0.0000000E+00;  4.0000000E+04;  0.0000000E+00;  0.0000000E+00;  4.0000000E+04;  0.0000000E+00;  4.0000000E+04;  0.0000000E+00;  0.0000000E+00;  0.0000000E+00;  0.0000000E+00;
 -1.2000000E-01;  9.9999998E-03; -4.1000000E-01;730;  0.0000000E+00;  0.0000000E+00;  0.0000000E+00;  1.0000000E+03;  1.0000000E-01;  0.0000000E+00;0;  0.0000000E+00;  0.0000000E+00;  0.0000000E+00;0;  0.0000000E+00;  4.0000000E+04;  0.0000000E+00;  0.0000000E+00;  4.0000000E+04;  0.0000000E+00;  4.0000000E+04;  0.0000000E+00;  0.0000000E+00;  0.0000000E+00;  3.0553806E-06;
 -1.2000000E-01;  9.9999998E-03; -4.0000001E-01;731;  0.0000000E+00;  0.0000000E+00;  0.0000000E+00;  1.0000000E+03;  1.0000000E-01;  0.0000000E+00;0;  0.0000000E+00;  0.0000000E+00;  0.0000000E+00;0;  5.3603069E-09;  4.0000000E+04;  0.0000000E+00;  0.0000000E+00;  4.0000000E+04;  0.0000000E+00;  4.0000000E+04;  1.9747471E-08;  0.0000000E+00; -1.4387164E-08;  1.0032171E-01;
 -1.2000000E-01;  9.9999998E-03; -3.8999999E-01;732;  0.0000000E+00;  0.0000000E+00;  0.0000000E+00;  1.0000000E+03;  1.0000000E-01;  0.0000000E+00;0;  0.0000000E+00;  0.0000000E+00;  0.0000000E+00;0;  1.8338696E-07;  4.0000000E+04;  0.0000000E+00;  0.0000000E+00;  4.0000000E+04;  0.0000000E+00;  4.0000000E+04;  2.4165641E-07;  0.0000000E+00; -5.8269450E-08;  7.6648718E-01;
 -1.2000000E-01;  9.9999998E-03; -3.8000000E-01;733;  0.0000000E+00;  0.0000000E+00;  0.0000000E+00;  1.0000000E+03;  1.0000000E-01;  0.0000000E+00;0;  0.0000000E+00;  0.0000000E+00;  0.0000000E+00;0;  1.4526336E-06;  4.0000000E+04;  0.0000000E+00;  0.0000000E+00;  4.0000000E+04;  0.0000000E+00;  4.0000000E+04;  1.3854434E-06;  0.0000000E+00;  6.7190186E-08;  2.7613008E+00;
 -1.2000000E-01;  9.9999998E-03; -3.7000000E-01;734;  0.0000000E+00;  0.0000000E+00;  0.0000000E+00;  1.0000000E+03;  1.0000000E-01;  0.0000000E+00;0;  0.0000000E+00;  0.0000000E+00;  0.0000000E+00;0;  5.6933700E-06;  4.0000000E+04;  0.0000000E+00;  0.0000000E+00;  4.0000000E+04;  0.0000000E+00;  4.0000000E+04;  4.9773098E-06;  0.0000000E+00;  7.1606024E-07;  6.7103791E+00;
 -1.2000000E-01;  9.9999998E-03; -3.6000001E-01;735;  0.0000000E+00;  0.0000000E+00;  0.0000000E+00;  1.0000000E+03;  1.0000000E-01;  0.0000000E+00;0;  0.0000000E+00;  0.0000000E+00;  0.0000000E+00;0;  1.5612801E-05;  4.0000000E+04;  0.0000000E+00;  0.0000000E+00;  4.0000000E+04;  0.0000000E+00;  4.0000000E+04;  1.3403803E-05;  0.0000000E+00;  2.2089971E-06;  1.2775385E+01;
 -1.2000000E-01;  9.9999998E-03; -3.4999999E-01;736;  0.0000000E+00;  0.0000000E+00;  0.0000000E+00;  1.0000000E+03;  1.0000000E-01;  0.0000000E+00;0;  0.0000000E+00;  0.0000000E+00;  0.0000000E+00;0;  3.4479253E-05;  4.0000000E+04;  0.0000000E+00;  0.0000000E+00;  4.0000000E+04;  0.0000000E+00;  4.0000000E+04;  2.9784729E-05;  0.0000000E+00;  4.6945247E-06;  2.0484575E+01;
 -1.2000000E-01;  9.9999998E-03; -3.4000000E-01;737;  0.0000000E+00;  0.0000000E+00;  0.0000000E+00;  1.0000000E+03;  1.0000000E-01;  0.0000000E+00;0;  0.0000000E+00;  0.0000000E+00;  0.0000000E+00;0;  6.5707318E-05;  4.0000000E+04;  0.0000000E+00;  0.0000000E+00;  4.0000000E+04;  0.0000000E+00;  4.0000000E+04;  5.7618781E-05;  0.0000000E+00;  8.0885347E-06;  2.8699272E+01;
 -1.2000000E-01;  9.9999998E-03; -3.3000001E-01;738;  0.0000000E+00;  0.0000000E+00;  0.0000000E+00;  1.0000000E+03;  1.0000000E-01;  0.0000000E+00;0;  0.0000000E+00;  0.0000000E+00;  0.0000000E+00;0;  1.1231201E-04;  4.0000000E+04;  0.0000000E+00;  0.0000000E+00;  4.0000000E+04;  0.0000000E+00;  4.0000000E+04;  1.0024926E-04;  0.0000000E+00;  1.2062750E-05;  3.5722885E+01;
 -1.2000000E-01;  9.9999998E-03; -3.1999999E-01;739;  0.0000000E+00;  0.0000000E+00;  0.0000000E+00;  1.0000133E+03;  1.0000000E-01;  1.1061416E+01;0;  0.0000000E+00;  0.0000000E+00;  0.0000000E+00;0;  1.7630981E-04;  4.0000000E+04;  0.0000000E+00;  0.0000000E+00;  4.0000000E+04;  0.0000000E+00;  4.0000000E+04;  1.6023262E-04;  0.0000000E+00;  1.6077183E-05;  3.9563454E+01;
 -1.2000000E-01;  9.9999998E-03; -3.1000000E-01;740;  0.0000000E+00;  0.0000000E+00;  0.0000000E+00;  1.0000146E+03;  1.0000000E-01;  1.2049042E+01;0;  0.0000000E+00;  0.0000000E+00;  0.0000000E+00;0;  2.5818555E-04;  4.0000000E+04;  0.0000000E+00;  0.0000000E+00;  4.0000000E+04;  0.0000000E+00;  4.0000000E+04;  2.3872808E-04;  0.0000000E+00;  1.9457460E-05;  3.8326870E+01;
 -1.2000000E-01;  9.9999998E-03; -3.0000001E-01;741;  0.0000000E+00;  0.0000000E+00;  0.0000000E+00;  1.0000049E+03;  1.0000000E-01;  4.0492682E+00;0;  0.0000000E+00;  0.0000000E+00;  0.0000000E+00;0;  3.5658781E-04;  4.0000000E+04;  0.0000000E+00;  0.0000000E+00;  4.0000000E+04;  0.0000000E+00;  4.0000000E+04;  3.3506128E-04;  0.0000000E+00;  2.1526525E-05;  3.0686171E+01;
 -1.2000000E-01;  9.9999998E-03; -2.8999999E-01;742;  0.0000000E+00;  0.0000000E+00;  0.0000000E+00;  1.0000000E+03;  1.0000000E-01;  0.0000000E+00;0;  0.0000000E+00;  0.0000000E+00;  0.0000000E+00;0;  4.6836809E-04;  4.0000000E+04;  0.0000000E+00;  0.0000000E+00;  4.0000000E+04;  0.0000000E+00;  4.0000000E+04;  4.4658949E-04;  0.0000000E+00;  2.1778604E-05;  1.6341356E+01;
 -1.2000000E-01;  9.9999998E-03; -2.8000000E-01;743;  0.0000000E+00;  0.0000000E+00;  0.0000000E+00;  1.0000000E+03;  1.0000000E-01;  0.0000000E+00;0;  0.0000000E+00;  0.0000000E+00;  0.0000000E+00;0;  5.8893987E-04;  4.0000000E+04;  0.0000000E+00;  0.0000000E+00;  4.0000000E+04;  0.0000000E+00;  4.0000000E+04;  5.6890032E-04;  0.0000000E+00;  2.0039573E-05;  4.0639234E+00;
 -1.1000000E-01;  9.9999998E-03; -4.4000000E-01;818;  0.0000000E+00;  0.0000000E+00;  0.0000000E+00;  1.0000000E+03;  1.0000000E-01;  0.0000000E+00;0;  0.0000000E+00;  0.0000000E+00;  0.0000000E+00;0;  0.0000000E+00;  4.0000000E+04;  0.0000000E+00;  0.0000000E+00;  4.0000000E+04;  0.0000000E+00;  4.0000000E+04;  0.0000000E+00;  0.0000000E+00;  0.0000000E+00;  0.0000000E+00;
 -1.1000000E-01;  9.9999998E-03; -4.3000001E-01;819;  0.0000000E+00;  0.0000000E+00;  0.0000000E+00;  1.0000000E+03;  1.0000000E-01;  0.0000000E+00;0;  0.0000000E+00;  0.0000000E+00;  0.0000000E+00;0;  0.0000000E+00;  4.0000000E+04;  0.0000000E+00;  0.0000000E+00;  4.0000000E+04;  0.0000000E+00;  4.0000000E+04;  0.0000000E+00;  0.0000000E+00;  0.0000000E+00;  0.0000000E+00;
 -1.1000000E-01;  9.9999998E-03; -4.1999999E-01;820;  0.0000000E+00;  0.0000000E+00;  0.0000000E+00;  1.0000000E+03;  1.0000000E-01;  0.0000000E+00;0;  0.0000000E+00;  0.0000000E+00;  0.0000000E+00;0; -2.8798178E-16;  4.0000000E+04;  0.0000000E+00;  0.0000000E+00;  4.0000000E+04;  0.0000000E+00;  4.0000000E+04; -1.7676920E-16;  0.0000000E+00; -1.1121258E-16;  2.4097385E-06;
 -1.1000000E-01;  9.9999998E-03; -4.1000000E-01;821;  0.0000000E+00;  0.0000000E+00;  0.0000000E+00;  1.0000000E+03;  1.0000000E-01;  0.0000000E+00;0;  0.0000000E+00;  0.0000000E+00;  0.0000000E+00;0; -6.7341457E-09;  4.0000000E+04;  0.0000000E+00;  0.0000000E+00;  4.0000000E+04;  0.0000000E+00;  4.0000000E+04;  1.2999534E-08;  0.0000000E+00; -1.9733680E-08;  1.5380545E-01;
 -1.1000000E-01;  9.9999998E-03; -4.0000001E-01;822;  0.0000000E+00;  0.0000000E+00;  0.0000000E+00;  1.0000000E+03;  1.0000000E-01;  0.0000000E+00;0;  0.0000000E+00;  0.0000000E+00;  0.0000000E+00;0;  1.3522867E-07;  4.0000000E+04;  0.0000000E+00;  0.0000000E+00;  4.0000000E+04;  0.0000000E+00;  4.0000000E+04;  2.2046673E-07;  0.0000000E+00; -8.5238050E-08;  1.2478834E+00;
 -1.1000000E-01;  9.9999998E-03; -3.8999999E-01;823;  0.0000000E+00;  0.0000000E+00;  0.0000000E+00;  1.0000000E+03;  1.0000000E-01;  0.0000000E+00;0;  0.0000000E+00;  0.0000000E+00;  0.0000000E+00;0;  1.5573116E-06;  4.0000000E+04;  0.0000000E+00;  0.0000000E+00;  4.0000000E+04;  0.0000000E+00;  4.0000000E+04;  1.4356689E-06;  0.0000000E+00;  1.2164280E-07;  4.6742868E+00;
 -1.1000000E-01;  9.9999998E-03; -3.8000000E-01;824;  0.0000000E+00;  0.0000000E+00;  0.0000000E+00;  1.0000000E+03;  1.0000000E-01;  0.0000000E+00;0;  0.0000000E+00;  0.0000000E+00;  0.0000000E+00;0;  6.7096485E-06;  4.0000000E+04;  0.0000000E+00;  0.0000000E+00;  4.0000000E+04;  0.0000000E+00;  4.0000000E+04;  5.4937245E-06;  0.0000000E+00;  1.2159240E-06;  1.1684834E+01;
 -1.1000000E-01;  9.9999998E-03; -3.7000000E-01;825;  0.0000000E+00;  0.0000000E+00;  0.0000000E+00;  1.0000000E+03;  1.0000000E-01;  0.0000000E+00;0;  0.0000000E+00;  0.0000000E+00;  0.0000000E+00;0;  1.9230305E-05;  4.0000000E+04;  0.0000000E+00;  0.0000000E+00;  4.0000000E+04;  0.0000000E+00;  4.0000000E+04;  1.5441352E-05;  0.0000000E+00;  3.7889529E-06;  2.2762203E+01;
 -1.1000000E-01;  9.9999998E-03; -3.6000001E-01;826;  0.0000000E+00;  0.0000000E+00;  0.0000000E+00;  1.0000000E+03;  1.0000000E-01;  0.0000000E+00;0;  0.0000000E+00;  0.0000000E+00;  0.0000000E+00;0;  4.3676930E-05;  4.0000000E+04;  0.0000000E+00;  0.0000000E+00;  4.0000000E+04;  0.0000000E+00;  4.0000000E+04;  3.5498655E-05;  0.0000000E+00;  8.1782746E-06;  3.7369122E+01;
 -1.1000000E-01;  9.9999998E-03; -3.4999999E-01;827;  0.0000000E+00;  0.0000000E+00;  0.0000000E+00;  1.0000000E+03;  1.0000000E-01;  0.0000000E+00;0;  0.0000000E+00;  0.0000000E+00;  0.0000000E+00;0;  8.5155378E-05;  4.0000000E+04;  0.0000000E+00;  0.0000000E+00;  4.0000000E+04;  0.0000000E+00;  4.0000000E+04;  7.0786460E-05;  0.0000000E+00;  1.4368919E-05;  5.3915264E+01;
 -1.1000000E-01;  9.9999998E-03; -3.4000000E-01;828;  0.0000000E+00;  0.0000000E+00;  0.0000000E+00;  1.0000266E+03;  1.0000000E-01;  2.2024069E+01;0;  0.0000000E+00;  0.0000000E+00;  0.0000000E+00;0;  1.4874317E-04;  4.0000000E+04;  0.0000000E+00;  0.0000000E+00;  4.0000000E+04;  0.0000000E+00;  4.0000000E+04;  1.2676617E-04;  0.0000000E+00;  2.1976999E-05;  6.9866684E+01;
 -1.1000000E-01;  9.9999998E-03; -3.3000001E-01;829;  0.0000000E+00;  0.0000000E+00;  0.0000000E+00;  1.0000227E+03;  1.0000000E-01;  1.8764902E+01;0;  0.0000000E+00;  0.0000000E+00;  0.0000000E+00;0;  2.3870461E-04;  4.0000000E+04;  0.0000000E+00;  0.0000000E+00;  4.0000000E+04;  0.0000000E+00;  4.0000000E+04;  2.0844204E-04;  0.0000000E+00;  3.0262572E-05;  8.2009033E+01;
 -1.1000000E-01;  9.9999998E-03; -3.1999999E-01;830;  0.0000000E+00;  0.0000000E+00;  0.0000000E+00;  1.0000166E+03;  1.0000000E-01;  1.3728006E+01;0;  0.0000000E+00;  0.0000000E+00;  0.0000000E+00;0;  3.5762822E-04;  4.0000000E+04;  0.0000000E+00;  0.0000000E+00;  4.0000000E+04;  0.0000000E+00;  4.0000000E+04;  3.1944367E-04;  0.0000000E+00;  3.8184535E-05;  8.6883530E+01;
 -1.1000000E-01;  9.9999998E-03; -3.1000000E-01;831;  0.0000000E+00;  0.0000000E+00;  0.0000000E+00;  1.0000000E+03;  1.0000000E-01;  0.0000000E+00;0;  0.0000000E+00;  0.0000000E+00;  0.0000000E+00;0;  5.0569954E-04;  4.0000000E+04;  0.0000000E+00;  0.0000000E+00;  4.0000000E+04;  0.0000000E+00;  4.0000000E+04;  4.6117330E-04;  0.0000000E+00;  4.4526227E-05;  8.1413139E+01;
 -1.1000000E-01;  9.9999998E-03; -3.0000001E-01;832;  0.0000000E+00;  0.0000000E+00;  0.0000000E+00;  1.0000000E+03;  1.0000000E-01;  0.0000000E+00;0;  0.0000000E+00;  0.0000000E+00;  0.0000000E+00;0;  6.8034505E-04;  4.0000000E+04;  0.0000000E+00;  0.0000000E+00;  4.0000000E+04;  0.0000000E+00;  4.0000000E+04;  6.3223048E-04;  0.0000000E+00;  4.8114565E-05;  6.3682690E+01;
 -1.1000000E-01;  9.9999998E-03; -2.8999999E-01;833;  0.0000000E+00;  0.0000000E+00;  0.0000000E+00;  1.0000000E+03;  1.0000000E-01;  0.0000000E+00;0;  0.0000000E+00;  0.0000000E+00;  0.0000000E+00;0;  8.7638909E-04;  4.0000000E+04;  0.0000000E+00;  0.0000000E+00;  4.0000000E+04;  0.0000000E+00;  4.0000000E+04;  8.2827715E-04;  0.0000000E+00;  4.8111979E-05;  3.3741257E+01;
 -1.1000000E-01;  9.9999998E-03; -2.8000000E-01;834;  0.0000000E+00;  0.0000000E+00;  0.0000000E+00;  1.0000000E+03;  1.0000000E-01;  0.0000000E+00;0;  0.0000000E+00;  0.0000000E+00;  0.0000000E+00;0;  1.0866422E-03;  4.0000000E+04;  0.0000000E+00;  0.0000000E+00;  4.0000000E+04;  0.0000000E+00;  4.0000000E+04;  1.0423638E-03;  0.0000000E+00;  4.4278335E-05;  9.0249929E+00;
 -1.0000000E-01;  9.9999998E-03; -4.4000000E-01;909;  0.0000000E+00;  0.0000000E+00;  0.0000000E+00;  1.0000000E+03;  1.0000000E-01;  0.0000000E+00;0;  0.0000000E+00;  0.0000000E+00;  0.0000000E+00;0;  0.0000000E+00;  4.0000000E+04;  0.0000000E+00;  0.0000000E+00;  4.0000000E+04;  0.0000000E+00;  4.0000000E+04;  0.0000000E+00;  0.0000000E+00;  0.0000000E+00;  0.0000000E+00;
 -1.0000000E-01;  9.9999998E-03; -4.3000001E-01;910;  0.0000000E+00;  0.0000000E+00;  0.0000000E+00;  1.0000000E+03;  1.0000000E-01;  0.0000000E+00;0;  0.0000000E+00;  0.0000000E+00;  0.0000000E+00;0;  0.0000000E+00;  4.0000000E+04;  0.0000000E+00;  0.0000000E+00;  4.0000000E+04;  0.0000000E+00;  4.0000000E+04;  0.0000000E+00;  0.0000000E+00;  0.0000000E+00;  0.0000000E+00;
 -1.0000000E-01;  9.9999998E-03; -4.1999999E-01;911;  0.0000000E+00;  0.0000000E+00;  0.0000000E+00;  1.0000000E+03;  1.0000000E-01;  0.0000000E+00;0;  0.0000000E+00;  0.0000000E+00;  0.0000000E+00;0; -1.3940134E-08;  4.0000000E+04;  0.0000000E+00;  0.0000000E+00;  4.0000000E+04;  0.0000000E+00;  4.0000000E+04;  1.9271320E-09;  0.0000000E+00; -1.5867267E-08;  1.4755754E-01;
 -1.0000000E-01;  9.9999998E-03; -4.1000000E-01;912;  0.0000000E+00;  0.0000000E+00;  0.0000000E+00;  1.0000000E+03;  1.0000000E-01;  0.0000000E+00;0;  0.0000000E+00;  0.0000000E+00;  0.0000000E+00;0;  1.9248446E-08;  4.0000000E+04;  0.0000000E+00;  0.0000000E+00;  4.0000000E+04;  0.0000000E+00;  4.0000000E+04;  1.2674683E-07;  0.0000000E+00; -1.0749838E-07;  1.4976206E+00;
 -1.0000000E-01;  9.9999998E-03; -4.0000001E-01;913;  0.0000000E+00;  0.0000000E+00;  0.0000000E+00;  1.0000000E+03;  1.0000000E-01;  0.0000000E+00;0;  0.0000000E+00;  0.0000000E+00;  0.0000000E+00;0;  1.2236709E-06;  4.0000000E+04;  0.0000000E+00;  0.0000000E+00;  4.0000000E+04;  0.0000000E+00;  4.0000000E+04;  1.1115112E-06;  0.0000000E+00;  1.1215973E-07;  6.2457132E+00;
 -1.0000000E-01;  9.9999998E-03; -3.8999999E-01;914;  0.0000000E+00;  0.0000000E+00;  0.0000000E+00;  1.0000000E+03;  1.0000000E-01;  0.0000000E+00;0;  0.0000000E+00;  0.0000000E+00;  0.0000000E+00;0;  6.4280548E-06;  4.0000000E+04;  0.0000000E+00;  0.0000000E+00;  4.0000000E+04;  0.0000000E+00;  4.0000000E+04;  4.8472598E-06;  0.0000000E+00;  1.5807950E-06;  1.6668156E+01;
 -1.0000000E-01;  9.9999998E-03; -3.8000000E-01;915;  0.0000000E+00;  0.0000000E+00;  0.0000000E+00;  1.0000000E+03;  1.0000000E-01;  0.0000000E+00;0;  0.0000000E+00;  0.0000000E+00;  0.0000000E+00;0;  2.0012598E-05;  4.0000000E+04;  0.0000000E+00;  0.0000000E+00;  4.0000000E+04;  0.0000000E+00;  4.0000000E+04;  1.4707995E-05;  0.0000000E+00;  5.3046033E-06;  3.3966007E+01;
 -1.0000000E-01;  9.9999998E-03; -3.7000000E-01;916;  0.0000000E+00;  0.0000000E+00;  0.0000000E+00;  1.0000000E+03;  1.0000000E-01;  0.0000000E+00;0;  0.0000000E+00;  0.0000000E+00;  0.0000000E+00;0;  4.7645772E-05;  4.0000000E+04;  0.0000000E+00;  0.0000000E+00;  4.0000000E+04;  0.0000000E+00;  4.0000000E+04;  3.5692781E-05;  0.0000000E+00;  1.1952989E-05;  5.7789982E+01;
 -1.0000000E-01;  9.9999998E-03; -3.6000001E-01;917;  0.0000000E+00;  0.0000000E+00;  0.0000000E+00;  1.0000137E+03;  1.0000000E-01;  1.1357703E+01;0;  0.0000000E+00;  0.0000000E+00;  0.0000000E+00;0;  9.6010648E-05;  4.0000000E+04;  0.0000000E+00;  0.0000000E+00;  4.0000000E+04;  0.0000000E+00;  4.0000000E+04;  7.4305121E-05;  0.0000000E+00;  2.1705526E-05;  8.6232178E+01;
 -1.0000000E-01;  9.9999998E-03; -3.4999999E-01;918;  0.0000000E+00;  0.0000000E+00;  0.0000000E+00;  1.0000374E+03;  1.0000000E-01;  3.0912706E+01;0;  0.0000000E+00;  0.0000000E+00;  0.0000000E+00;0;  1.7234797E-04;  4.0000000E+04;  0.0000000E+00;  0.0000000E+00;  4.0000000E+04;  0.0000000E+00;  4.0000000E+04;  1.3812169E-04;  0.0000000E+00;  3.4226279E-05;  1.1597730E+02;
 -1.0000000E-01;  9.9999998E-03; -3.4000000E-01;919;  0.0000000E+00;  0.0000000E+00;  0.0000000E+00;  1.0000366E+03;  1.0000000E-01;  3.0320129E+01;0;  0.0000000E+00;  0.0000000E+00;  0.0000000E+00;0;  2.8364369E-04;  4.0000000E+04;  0.0000000E+00;  0.0000000E+00;  4.0000000E+04;  0.0000000E+00;  4.0000000E+04;  2.3497289E-04;  0.0000000E+00;  4.8670809E-05;  1.4255493E+02;
 -1.0000000E-01;  9.9999998E-03; -3.3000001E-01;920;  0.0000000E+00;  0.0000000E+00;  0.0000000E+00;  1.0000089E+03;  1.0000000E-01;  7.4071980E+00;0;  0.0000000E+00;  0.0000000E+00;  0.0000000E+00;0;  4.3553716E-04;  4.0000000E+04;  0.0000000E+00;  0.0000000E+00;  4.0000000E+04;  0.0000000E+00;  4.0000000E+04;  3.7183057E-04;  0.0000000E+00;  6.3706604E-05;  1.6072670E+02;
 -1.0000000E-01;  9.9999998E-03; -3.1999999E-01;921;  0.0000000E+00;  0.0000000E+00;  0.0000000E+00;  1.0000140E+03;  1.0000000E-01;  1.1653992E+01;0;  0.0000000E+00;  0.0000000E+00;  0.0000000E+00;0;  6.3113193E-04;  4.0000000E+04;  0.0000000E+00;  0.0000000E+00;  4.0000000E+04;  0.0000000E+00;  4.0000000E+04;  5.5355061E-04;  0.0000000E+00;  7.7581339E-05;  1.6512672E+02;
 -1.0000000E-01;  9.9999998E-03; -3.1000000E-01;922;  0.0000000E+00;  0.0000000E+00;  0.0000000E+00;  1.0000056E+03;  1.0000000E-01;  4.6418438E+00;0;  0.0000000E+00;  0.0000000E+00;  0.0000000E+00;0;  8.7003846E-04;  4.0000000E+04;  0.0000000E+00;  0.0000000E+00;  4.0000000E+04;  0.0000000E+00;  4.0000000E+04;  7.8173244E-04;  0.0000000E+00;  8.8306049E-05;  1.5122928E+02;
 -1.0000000E-01;  9.9999998E-03; -3.0000001E-01;923;  0.0000000E+00;  0.0000000E+00;  0.0000000E+00;  1.0000111E+03;  1.0000000E-01;  9.1849251E+00;0;  0.0000000E+00;  0.0000000E+00;  0.0000000E+00;0;  1.1479881E-03;  4.0000000E+04;  0.0000000E+00;  0.0000000E+00;  4.0000000E+04;  0.0000000E+00;  4.0000000E+04;  1.0539888E-03;  0.0000000E+00;  9.3999326E-05;  1.1658006E+02;
 -1.0000000E-01;  9.9999998E-03; -2.8999999E-01;924;  0.0000000E+00;  0.0000000E+00;  0.0000000E+00;  1.0000000E+03;  1.0000000E-01;  0.0000000E+00;0;  0.0000000E+00;  0.0000000E+00;  0.0000000E+00;0;  1.4571646E-03;  4.0000000E+04;  0.0000000E+00;  0.0000000E+00;  4.0000000E+04;  0.0000000E+00;  4.0000000E+04;  1.3638146E-03;  0.0000000E+00;  9.3350121E-05;  6.2295544E+01;
 -1.0000000E-01;  9.9999998E-03; -2.8000000E-01;925;  0.0000000E+00;  0.0000000E+00;  0.0000000E+00;  1.0000000E+03;  1.0000000E-01;  0.0000000E+00;0;  0.0000000E+00;  0.0000000E+00;  0.0000000E+00;0;  1.7870910E-03;  4.0000000E+04;  0.0000000E+00;  0.0000000E+00;  4.0000000E+04;  0.0000000E+00;  4.0000000E+04;  1.7010613E-03;  0.0000000E+00;  8.6029766E-05;  2.0217237E+01;
 -9.0000004E-02;  9.9999998E-03; -4.4000000E-01;1000;  0.0000000E+00;  0.0000000E+00;  0.0000000E+00;  1.0000000E+03;  1.0000000E-01;  0.0000000E+00;0;  0.0000000E+00;  0.0000000E+00;  0.0000000E+00;0;  0.0000000E+00;  4.0000000E+04;  0.0000000E+00;  0.0000000E+00;  4.0000000E+04;  0.0000000E+00;  4.0000000E+04;  0.0000000E+00;  0.0000000E+00;  0.0000000E+00;  0.0000000E+00;
 -9.0000004E-02;  9.9999998E-03; -4.3000001E-01;1001;  0.0000000E+00;  0.0000000E+00;  0.0000000E+00;  1.0000000E+03;  1.0000000E-01;  0.0000000E+00;0;  0.0000000E+00;  0.0000000E+00;  0.0000000E+00;0; -9.7498472E-09;  4.0000000E+04;  0.0000000E+00;  0.0000000E+00;  4.0000000E+04;  0.0000000E+00;  4.0000000E+04; -3.4004535E-09;  0.0000000E+00; -6.3493939E-09;  7.9198427E-02;
 -9.0000004E-02;  9.9999998E-03; -4.1999999E-01;1002;  0.0000000E+00;  0.0000000E+00;  0.0000000E+00;  1.0000000E+03;  1.0000000E-01;  0.0000000E+00;0;  0.0000000E+00;  0.0000000E+00;  0.0000000E+00;0; -7.3295894E-08;  4.0000000E+04;  0.0000000E+00;  0.0000000E+00;  4.0000000E+04;  0.0000000E+00;  4.0000000E+04;  3.1853464E-08;  0.0000000E+00; -1.0514935E-07;  1.3192546E+00;
 -9.0000004E-02;  9.9999998E-03; -4.1000000E-01;1003;  0.0000000E+00;  0.0000000E+00;  0.0000000E+00;  1.0000000E+03;  1.0000000E-01;  0.0000000E+00;0;  0.0000000E+00;  0.0000000E+00;  0.0000000E+00;0;  6.3450432E-07;  4.0000000E+04;  0.0000000E+00;  0.0000000E+00;  4.0000000E+04;  0.0000000E+00;  4.0000000E+04;  6.1770311E-07;  0.0000000E+00;  1.6801202E-08;  6.6730909E+00;
 -9.0000004E-02;  9.9999998E-03; -4.0000001E-01;1004;  0.0000000E+00;  0.0000000E+00;  0.0000000E+00;  1.0000000E+03;  1.0000000E-01;  0.0000000E+00;0;  0.0000000E+00;  0.0000000E+00;  0.0000000E+00;0;  5.0034096E-06;  4.0000000E+04;  0.0000000E+00;  0.0000000E+00;  4.0000000E+04;  0.0000000E+00;  4.0000000E+04;  3.4168081E-06;  0.0000000E+00;  1.5866016E-06;  1.9875288E+01;
 -9.0000004E-02;  9.9999998E-03; -3.8999999E-01;1005;  0.0000000E+00;  0.0000000E+00;  0.0000000E+00;  1.0000000E+03;  1.0000000E-01;  0.0000000E+00;0;  0.0000000E+00;  0.0000000E+00;  0.0000000E+00;0;  1.7907356E-05;  4.0000000E+04;  0.0000000E+00;  0.0000000E+00;  4.0000000E+04;  0.0000000E+00;  4.0000000E+04;  1.1729510E-05;  0.0000000E+00;  6.1778455E-06;  4.3476776E+01;
 -9.0000004E-02;  9.9999998E-03; -3.8000000E-01;1006;  0.0000000E+00;  0.0000000E+00;  0.0000000E+00;  1.0000000E+03;  1.0000000E-01;  0.0000000E+00;0;  0.0000000E+00;  0.0000000E+00;  0.0000000E+00;0;  4.5814144E-05;  4.0000000E+04;  0.0000000E+00;  0.0000000E+00;  4.0000000E+04;  0.0000000E+00;  4.0000000E+04;  3.0812003E-05;  0.0000000E+00;  1.5002141E-05;  7.7818222E+01;
 -9.0000004E-02;  9.9999998E-03; -3.7000000E-01;1007;  0.0000000E+00;  0.0000000E+00;  0.0000000E+00;  1.0000407E+03;  1.0000000E-01;  3.3776821E+01;0;  0.0000000E+00;  0.0000000E+00;  0.0000000E+00;0;  9.6622294E-05;  4.0000000E+04;  0.0000000E+00;  0.0000000E+00;  4.0000000E+04;  0.0000000E+00;  4.0000000E+04;  6.8009285E-05;  0.0000000E+00;  2.8613009E-05;  1.2097862E+02;
 -9.0000004E-02;  9.9999998E-03; -3.6000001E-01;1008;  0.0000000E+00;  0.0000000E+00;  0.0000000E+00;  1.0000438E+03;  1.0000000E-01;  3.6245888E+01;0;  0.0000000E+00;  0.0000000E+00;  0.0000000E+00;0;  1.7941301E-04;  4.0000000E+04;  0.0000000E+00;  0.0000000E+00;  4.0000000E+04;  0.0000000E+00;  4.0000000E+04;  1.3254122E-04;  0.0000000E+00;  4.6871799E-05;  1.6905923E+02;
 -9.0000004E-02;  9.9999998E-03; -3.4999999E-01;1009;  0.0000000E+00;  0.0000000E+00;  0.0000000E+00;  1.0000502E+03;  1.0000000E-01;  4.1579071E+01;0;  0.0000000E+00;  0.0000000E+00;  0.0000000E+00;0;  3.0386358E-04;  4.0000000E+04;  0.0000000E+00;  0.0000000E+00;  4.0000000E+04;  0.0000000E+00;  4.0000000E+04;  2.3488289E-04;  0.0000000E+00;  6.8980684E-05;  2.1649040E+02;
 -9.0000004E-02;  9.9999998E-03; -3.4000000E-01;1010;  0.0000000E+00;  0.0000000E+00;  0.0000000E+00;  1.0000413E+03;  1.0000000E-01;  3.4171871E+01;0;  0.0000000E+00;  0.0000000E+00;  0.0000000E+00;0;  4.7913843E-04;  4.0000000E+04;  0.0000000E+00;  0.0000000E+00;  4.0000000E+04;  0.0000000E+00;  4.0000000E+04;  3.8565387E-04;  0.0000000E+00;  9.3484567E-05;  2.5634576E+02;
 -9.0000004E-02;  9.9999998E-03; -3.3000001E-01;1011;  0.0000000E+00;  0.0000000E+00;  0.0000000E+00;  1.0000526E+03;  1.0000000E-01;  4.3554325E+01;0;  0.0000000E+00;  0.0000000E+00;  0.0000000E+00;0;  7.1240426E-04;  4.0000000E+04;  0.0000000E+00;  0.0000000E+00;  4.0000000E+04;  0.0000000E+00;  4.0000000E+04;  5.9413613E-04;  0.0000000E+00;  1.1826816E-04;  2.8085669E+02;
 -9.0000004E-02;  9.9999998E-03; -3.1999999E-01;1012;  0.0000000E+00;  0.0000000E+00;  0.0000000E+00;  1.0000699E+03;  1.0000000E-01;  5.7874905E+01;0;  0.0000000E+00;  0.0000000E+00;  0.0000000E+00;0;  1.0072372E-03;  4.0000000E+04;  0.0000000E+00;  0.0000000E+00;  4.0000000E+04;  0.0000000E+00;  4.0000000E+04;  8.6661358E-04;  0.0000000E+00;  1.4062363E-04;  2.8230850E+02;
 -9.0000004E-02;  9.9999998E-03; -3.1000000E-01;1013;  0.0000000E+00;  0.0000000E+00;  0.0000000E+00;  1.0000484E+03;  1.0000000E-01;  4.0097630E+01;0;  0.0000000E+00;  0.0000000E+00;  0.0000000E+00;0;  1.3623957E-03;  4.0000000E+04;  0.0000000E+00;  0.0000000E+00;  4.0000000E+04;  0.0000000E+00;  4.0000000E+04;  1.2048907E-03;  0.0000000E+00;  1.5750501E-04;  2.5447318E+02;
 -9.0000004E-02;  9.9999998E-03; -3.0000001E-01;1014;  0.0000000E+00;  0.0000000E+00;  0.0000000E+00;  1.0000559E+03;  1.0000000E-01;  4.6319679E+01;0;  0.0000000E+00;  0.0000000E+00;  0.0000000E+00;0;  1.7714145E-03;  4.0000000E+04;  0.0000000E+00;  0.0000000E+00;  4.0000000E+04;  0.0000000E+00;  4.0000000E+04;  1.6053698E-03;  0.0000000E+00;  1.6604472E-04;  1.9454878E+02;
 -9.0000004E-02;  9.9999998E-03; -2.8999999E-01;1015;  0.0000000E+00;  0.0000000E+00;  0.0000000E+00;  1.0000134E+03;  1.0000000E-01;  1.1061416E+01;0;  0.0000000E+00;  0.0000000E+00;  0.0000000E+00;0;  2.2231538E-03;  4.0000000E+04;  0.0000000E+00;  0.0000000E+00;  4.0000000E+04;  0.0000000E+00;  4.0000000E+04;  2.0588948E-03;  0.0000000E+00;  1.6425908E-04;  1.0601717E+02;
 -9.0000004E-02;  9.9999998E-03; -2.8000000E-01;1016;  0.0000000E+00;  0.0000000E+00;  0.0000000E+00;  1.0000000E+03;  1.0000000E-01;  0.0000000E+00;0;  0.0000000E+00;  0.0000000E+00;  0.0000000E+00;0;  2.7030883E-03;  4.0000000E+04;  0.0000000E+00;  0.0000000E+00;  4.0000000E+04;  0.0000000E+00;  4.0000000E+04;  2.5514092E-03;  0.0000000E+00;  1.5167912E-04;  4.2786407E+01;
 -7.9999998E-02;  9.9999998E-03; -4.4000000E-01;1091;  0.0000000E+00;  0.0000000E+00;  0.0000000E+00;  1.0000000E+03;  1.0000000E-01;  0.0000000E+00;0;  0.0000000E+00;  0.0000000E+00;  0.0000000E+00;0; -1.9533557E-09;  4.0000000E+04;  0.0000000E+00;  0.0000000E+00;  4.0000000E+04;  0.0000000E+00;  4.0000000E+04; -9.9220043E-10;  0.0000000E+00; -9.6115516E-10;  1.4971297E-02;
 -7.9999998E-02;  9.9999998E-03; -4.3000001E-01;1092;  0.0000000E+00;  0.0000000E+00;  0.0000000E+00;  1.0000000E+03;  1.0000000E-01;  0.0000000E+00;0;  0.0000000E+00;  0.0000000E+00;  0.0000000E+00;0; -7.6835292E-08;  4.0000000E+04;  0.0000000E+00;  0.0000000E+00;  4.0000000E+04;  0.0000000E+00;  4.0000000E+04; -1.1596832E-08;  0.0000000E+00; -6.5238460E-08;  8.0488700E-01;
 -7.9999998E-02;  9.9999998E-03; -4.1999999E-01;1093;  0.0000000E+00;  0.0000000E+00;  0.0000000E+00;  1.0000000E+03;  1.0000000E-01;  0.0000000E+00;0;  0.0000000E+00;  0.0000000E+00;  0.0000000E+00;0;  9.8346007E-08;  4.0000000E+04;  0.0000000E+00;  0.0000000E+00;  4.0000000E+04;  0.0000000E+00;  4.0000000E+04;  1.9814014E-07;  0.0000000E+00; -9.9794136E-08;  5.5904956E+00;
 -7.9999998E-02;  9.9999998E-03; -4.1000000E-01;1094;  0.0000000E+00;  0.0000000E+00;  0.0000000E+00;  1.0000000E+03;  1.0000000E-01;  0.0000000E+00;0;  0.0000000E+00;  0.0000000E+00;  0.0000000E+00;0;  2.9979456E-06;  4.0000000E+04;  0.0000000E+00;  0.0000000E+00;  4.0000000E+04;  0.0000000E+00;  4.0000000E+04;  1.8276661E-06;  0.0000000E+00;  1.1702793E-06;  1.9730375E+01;
 -7.9999998E-02;  9.9999998E-03; -4.0000001E-01;1095;  0.0000000E+00;  0.0000000E+00;  0.0000000E+00;  1.0000000E+03;  1.0000000E-01;  0.0000000E+00;0;  0.0000000E+00;  0.0000000E+00;  0.0000000E+00;0;  1.3646804E-05;  4.0000000E+04;  0.0000000E+00;  0.0000000E+00;  4.0000000E+04;  0.0000000E+00;  4.0000000E+04;  7.7038931E-06;  0.0000000E+00;  5.9429112E-06;  4.7960789E+01;
 -7.9999998E-02;  9.9999998E-03; -3.8999999E-01;1096;  0.0000000E+00;  0.0000000E+00;  0.0000000E+00;  1.0000000E+03;  1.0000000E-01;  0.0000000E+00;0;  0.0000000E+00;  0.0000000E+00;  0.0000000E+00;0;  3.9011611E-05;  4.0000000E+04;  0.0000000E+00;  0.0000000E+00;  4.0000000E+04;  0.0000000E+00;  4.0000000E+04;  2.2771712E-05;  0.0000000E+00;  1.6239899E-05;  9.2197113E+01;
 -7.9999998E-02;  9.9999998E-03; -3.8000000E-01;1097;  0.0000000E+00;  0.0000000E+00;  0.0000000E+00;  1.0000444E+03;  1.0000000E-01;  3.6739700E+01;0;  0.0000000E+00;  0.0000000E+00;  0.0000000E+00;0;  8.7717563E-05;  4.0000000E+04;  0.0000000E+00;  0.0000000E+00;  4.0000000E+04;  0.0000000E+00;  4.0000000E+04;  5.4460776E-05;  0.0000000E+00;  3.3256783E-05;  1.5108595E+02;
 -7.9999998E-02;  9.9999998E-03; -3.7000000E-01;1098;  0.0000000E+00;  0.0000000E+00;  0.0000000E+00;  1.0000494E+03;  1.0000000E-01;  4.0986496E+01;0;  0.0000000E+00;  0.0000000E+00;  0.0000000E+00;0;  1.7005709E-04;  4.0000000E+04;  0.0000000E+00;  0.0000000E+00;  4.0000000E+04;  0.0000000E+00;  4.0000000E+04;  1.1280111E-04;  0.0000000E+00;  5.7255977E-05;  2.2049515E+02;
 -7.9999998E-02;  9.9999998E-03; -3.6000001E-01;1099;  0.0000000E+00;  0.0000000E+00;  0.0000000E+00;  1.0000682E+03;  1.0000000E-01;  5.6492229E+01;0;  0.0000000E+00;  0.0000000E+00;  0.0000000E+00;0;  2.9777834E-04;  4.0000000E+04;  0.0000000E+00;  0.0000000E+00;  4.0000000E+04;  0.0000000E+00;  4.0000000E+04;  2.1011822E-04;  0.0000000E+00;  8.7660119E-05;  2.9403964E+02;
 -7.9999998E-02;  9.9999998E-03; -3.4999999E-01;1100;  0.0000000E+00;  0.0000000E+00;  0.0000000E+00;  1.0000714E+03;  1.0000000E-01;  5.9158821E+01;0;  0.0000000E+00;  0.0000000E+00;  0.0000000E+00;0;  4.8332178E-04;  4.0000000E+04;  0.0000000E+00;  0.0000000E+00;  4.0000000E+04;  0.0000000E+00;  4.0000000E+04;  3.6021476E-04;  0.0000000E+00;  1.2310701E-04;  3.6345090E+02;
 -7.9999998E-02;  9.9999998E-03; -3.4000000E-01;1101;  0.0000000E+00;  0.0000000E+00;  0.0000000E+00;  1.0001107E+03;  1.0000000E-01;  9.1651726E+01;0;  0.0000000E+00;  0.0000000E+00;  0.0000000E+00;0;  7.3834643E-04;  4.0000000E+04;  0.0000000E+00;  0.0000000E+00;  4.0000000E+04;  0.0000000E+00;  4.0000000E+04;  5.7694246E-04;  0.0000000E+00;  1.6140396E-04;  4.1888412E+02;
 -7.9999998E-02;  9.9999998E-03; -3.3000001E-01;1102;  0.0000000E+00;  0.0000000E+00;  0.0000000E+00;  1.0001354E+03;  1.0000000E-01;  1.1219436E+02;0;  0.0000000E+00;  0.0000000E+00;  0.0000000E+00;0;  1.0717487E-03;  4.0000000E+04;  0.0000000E+00;  0.0000000E+00;  4.0000000E+04;  0.0000000E+00;  4.0000000E+04;  8.7229116E-04;  0.0000000E+00;  1.9945750E-04;  4.4952808E+02;
 -7.9999998E-02;  9.9999998E-03; -3.1999999E-01;1103;  0.0000000E+00;  0.0000000E+00;  0.0000000E+00;  1.0001417E+03;  1.0000000E-01;  1.1742878E+02;0;  0.0000000E+00;  0.0000000E+00;  0.0000000E+00;0;  1.4875864E-03;  4.0000000E+04;  0.0000000E+00;  0.0000000E+00;  4.0000000E+04;  0.0000000E+00;  4.0000000E+04;  1.2542625E-03;  0.0000000E+00;  2.3332395E-04;  4.4485004E+02;
 -7.9999998E-02;  9.9999998E-03; -3.1000000E-01;1104;  0.0000000E+00;  0.0000000E+00;  0.0000000E+00;  1.0001476E+03;  1.0000000E-01;  1.2236691E+02;0;  0.0000000E+00;  0.0000000E+00;  0.0000000E+00;0;  1.9835266E-03;  4.0000000E+04;  0.0000000E+00;  0.0000000E+00;  4.0000000E+04;  0.0000000E+00;  4.0000000E+04;  1.7249754E-03;  0.0000000E+00;  2.5855124E-04;  3.9668747E+02;
 -7.9999998E-02;  9.9999998E-03; -3.0000001E-01;1105;  0.0000000E+00;  0.0000000E+00;  0.0000000E+00;  1.0001599E+03;  1.0000000E-01;  1.3244070E+02;0;  0.0000000E+00;  0.0000000E+00;  0.0000000E+00;0;  2.5503798E-03;  4.0000000E+04;  0.0000000E+00;  0.0000000E+00;  4.0000000E+04;  0.0000000E+00;  4.0000000E+04;  2.2794586E-03;  0.0000000E+00;  2.7092124E-04;  3.0217435E+02;
 -7.9999998E-02;  9.9999998E-03; -2.8999999E-01;1106;  0.0000000E+00;  0.0000000E+00;  0.0000000E+00;  1.0001470E+03;  1.0000000E-01;  1.2177433E+02;0;  0.0000000E+00;  0.0000000E+00;  0.0000000E+00;0;  3.1729247E-03;  4.0000000E+04;  0.0000000E+00;  0.0000000E+00;  4.0000000E+04;  0.0000000E+00;  4.0000000E+04;  2.9054296E-03;  0.0000000E+00;  2.6749520E-04;  1.6905444E+02;
 -7.9999998E-02;  9.9999998E-03; -2.8000000E-01;1107;  0.0000000E+00;  0.0000000E+00;  0.0000000E+00;  1.0001321E+03;  1.0000000E-01;  1.0942900E+02;0;  0.0000000E+00;  0.0000000E+00;  0.0000000E+00;0;  3.8317379E-03;  4.0000000E+04;  0.0000000E+00;  0.0000000E+00;  4.0000000E+04;  0.0000000E+00;  4.0000000E+04;  3.5841742E-03;  0.0000000E+00;  2.4756361E-04;  8.1238815E+01;
 -7.0000000E-02;  9.9999998E-03; -4.4000000E-01;1182;  0.0000000E+00;  0.0000000E+00;  0.0000000E+00;  1.0000000E+03;  1.0000000E-01;  0.0000000E+00;0;  0.0000000E+00;  0.0000000E+00;  0.0000000E+00;0; -3.2901738E-08;  4.0000000E+04;  0.0000000E+00;  0.0000000E+00;  4.0000000E+04;  0.0000000E+00;  4.0000000E+04; -1.2846449E-08;  0.0000000E+00; -2.0055287E-08;  2.8468528E-01;
 -7.0000000E-02;  9.9999998E-03; -4.3000001E-01;1183;  0.0000000E+00;  0.0000000E+00;  0.0000000E+00;  1.0000000E+03;  1.0000000E-01;  0.0000000E+00;0;  0.0000000E+00;  0.0000000E+00;  0.0000000E+00;0; -1.5285795E-07;  4.0000000E+04;  0.0000000E+00;  0.0000000E+00;  4.0000000E+04;  0.0000000E+00;  4.0000000E+04; -1.6250121E-08;  0.0000000E+00; -1.3660782E-07;  3.4694445E+00;
 -7.0000000E-02;  9.9999998E-03; -4.1999999E-01;1184;  0.0000000E+00;  0.0000000E+00;  0.0000000E+00;  1.0000000E+03;  1.0000000E-01;  0.0000000E+00;0;  0.0000000E+00;  0.0000000E+00;  0.0000000E+00;0;  1.1489617E-06;  4.0000000E+04;  0.0000000E+00;  0.0000000E+00;  4.0000000E+04;  0.0000000E+00;  4.0000000E+04;  6.1303399E-07;  0.0000000E+00;  5.3592765E-07;  1.5882918E+01;
 -7.0000000E-02;  9.9999998E-03; -4.1000000E-01;1185;  0.0000000E+00;  0.0000000E+00;  0.0000000E+00;  1.0000000E+03;  1.0000000E-01;  0.0000000E+00;0;  0.0000000E+00;  0.0000000E+00;  0.0000000E+00;0;  8.4853536E-06;  4.0000000E+04;  0.0000000E+00;  0.0000000E+00;  4.0000000E+04;  0.0000000E+00;  4.0000000E+04;  3.9237325E-06;  0.0000000E+00;  4.5616212E-06;  4.5057446E+01;
 -7.0000000E-02;  9.9999998E-03; -4.0000001E-01;1186;  0.0000000E+00;  0.0000000E+00;  0.0000000E+00;  1.0000000E+03;  1.0000000E-01;  0.0000000E+00;0;  0.0000000E+00;  0.0000000E+00;  0.0000000E+00;0;  2.9008786E-05;  4.0000000E+04;  0.0000000E+00;  0.0000000E+00;  4.0000000E+04;  0.0000000E+00;  4.0000000E+04;  1.4031282E-05;  0.0000000E+00;  1.4977504E-05;  9.5820107E+01;
 -7.0000000E-02;  9.9999998E-03; -3.8999999E-01;1187;  0.0000000E+00;  0.0000000E+00;  0.0000000E+00;  1.0000443E+03;  1.0000000E-01;  3.6739700E+01;0;  0.0000000E+00;  0.0000000E+00;  0.0000000E+00;0;  7.1695045E-05;  4.0000000E+04;  0.0000000E+00;  0.0000000E+00;  4.0000000E+04;  0.0000000E+00;  4.0000000E+04;  3.7686314E-05;  0.0000000E+00;  3.4008728E-05;  1.6850772E+02;
 -7.0000000E-02;  9.9999998E-03; -3.8000000E-01;1188;  0.0000000E+00;  0.0000000E+00;  0.0000000E+00;  1.0000561E+03;  1.0000000E-01;  4.6517204E+01;0;  0.0000000E+00;  0.0000000E+00;  0.0000000E+00;0;  1.4731314E-04;  4.0000000E+04;  0.0000000E+00;  0.0000000E+00;  4.0000000E+04;  0.0000000E+00;  4.0000000E+04;  8.4686668E-05;  0.0000000E+00;  6.2626466E-05;  2.5937473E+02;
 -7.0000000E-02;  9.9999998E-03; -3.7000000E-01;1189;  0.0000000E+00;  0.0000000E+00;  0.0000000E+00;  1.0000927E+03;  1.0000000E-01;  7.6837334E+01;0;  0.0000000E+00;  0.0000000E+00;  0.0000000E+00;0;  2.6867830E-04;  4.0000000E+04;  0.0000000E+00;  0.0000000E+00;  4.0000000E+04;  0.0000000E+00;  4.0000000E+04;  1.6799459E-04;  0.0000000E+00;  1.0068373E-04;  3.6160742E+02;
 -7.0000000E-02;  9.9999998E-03; -3.6000001E-01;1190;  0.0000000E+00;  0.0000000E+00;  0.0000000E+00;  1.0000938E+03;  1.0000000E-01;  7.7726196E+01;0;  0.0000000E+00;  0.0000000E+00;  0.0000000E+00;0;  4.5046990E-04;  4.0000000E+04;  0.0000000E+00;  0.0000000E+00;  4.0000000E+04;  0.0000000E+00;  4.0000000E+04;  3.0335953E-04;  0.0000000E+00;  1.4711036E-04;  4.6599847E+02;
 -7.0000000E-02;  9.9999998E-03; -3.4999999E-01;1191;  0.0000000E+00;  0.0000000E+00;  0.0000000E+00;  1.0001448E+03;  1.0000000E-01;  1.1989784E+02;0;  0.0000000E+00;  0.0000000E+00;  0.0000000E+00;0;  7.0823019E-04;  4.0000000E+04;  0.0000000E+00;  0.0000000E+00;  4.0000000E+04;  0.0000000E+00;  4.0000000E+04;  5.0829793E-04;  0.0000000E+00;  1.9993224E-04;  5.6125513E+02;
 -7.0000000E-02;  9.9999998E-03; -3.4000000E-01;1192;  0.0000000E+00;  0.0000000E+00;  0.0000000E+00;  1.0002047E+03;  1.0000000E-01;  1.6957545E+02;0;  0.0000000E+00;  0.0000000E+00;  0.0000000E+00;0;  1.0564537E-03;  4.0000000E+04;  0.0000000E+00;  0.0000000E+00;  4.0000000E+04;  0.0000000E+00;  4.0000000E+04;  8.0033264E-04;  0.0000000E+00;  2.5612110E-04;  6.3419958E+02;
 -7.0000000E-02;  9.9999998E-03; -3.3000001E-01;1193;  0.0000000E+00;  0.0000000E+00;  0.0000000E+00;  1.0002509E+03;  1.0000000E-01;  2.0779659E+02;0;  0.0000000E+00;  0.0000000E+00;  0.0000000E+00;0;  1.5060357E-03;  4.0000000E+04;  0.0000000E+00;  0.0000000E+00;  4.0000000E+04;  0.0000000E+00;  4.0000000E+04;  1.1946197E-03;  0.0000000E+00;  3.1141593E-04;  6.7050537E+02;
 -7.0000000E-02;  9.9999998E-03; -3.1999999E-01;1194;  0.0000000E+00;  0.0000000E+00;  0.0000000E+00;  1.0003077E+03;  1.0000000E-01;  2.5490637E+02;0;  0.0000000E+00;  0.0000000E+00;  0.0000000E+00;0;  2.0616208E-03;  4.0000000E+04;  0.0000000E+00;  0.0000000E+00;  4.0000000E+04;  0.0000000E+00;  4.0000000E+04;  1.7012932E-03;  0.0000000E+00;  3.6032766E-04;  6.5630634E+02;
 -7.0000000E-02;  9.9999998E-03; -3.1000000E-01;1195;  0.0000000E+00;  0.0000000E+00;  0.0000000E+00;  1.0003354E+03;  1.0000000E-01;  2.7781931E+02;0;  0.0000000E+00;  0.0000000E+00;  0.0000000E+00;0;  2.7196135E-03;  4.0000000E+04;  0.0000000E+00;  0.0000000E+00;  4.0000000E+04;  0.0000000E+00;  4.0000000E+04;  2.3230396E-03;  0.0000000E+00;  3.9657400E-04;  5.8116980E+02;
 -7.0000000E-02;  9.9999998E-03; -3.0000001E-01;1196;  0.0000000E+00;  0.0000000E+00;  0.0000000E+00;  1.0003580E+03;  1.0000000E-01;  2.9658420E+02;0;  0.0000000E+00;  0.0000000E+00;  0.0000000E+00;0;  3.4675957E-03;  4.0000000E+04;  0.0000000E+00;  0.0000000E+00;  4.0000000E+04;  0.0000000E+00;  4.0000000E+04;  3.0534843E-03;  0.0000000E+00;  4.1411148E-04;  4.4240857E+02;
 -7.0000000E-02;  9.9999998E-03; -2.8999999E-01;1197;  0.0000000E+00;  0.0000000E+00;  0.0000000E+00;  1.0003764E+03;  1.0000000E-01;  3.1189243E+02;0;  0.0000000E+00;  0.0000000E+00;  0.0000000E+00;0;  4.2854585E-03;  4.0000000E+04;  0.0000000E+00;  0.0000000E+00;  4.0000000E+04;  0.0000000E+00;  4.0000000E+04;  3.8768139E-03;  0.0000000E+00;  4.0864461E-04;  2.5399669E+02;
 -7.0000000E-02;  9.9999998E-03; -2.8000000E-01;1198;  0.0000000E+00;  0.0000000E+00;  0.0000000E+00;  1.0003718E+03;  1.0000000E-01;  3.0804068E+02;0;  0.0000000E+00;  0.0000000E+00;  0.0000000E+00;0;  5.1479181E-03;  4.0000000E+04;  0.0000000E+00;  0.0000000E+00;  4.0000000E+04;  0.0000000E+00;  4.0000000E+04;  4.7688736E-03;  0.0000000E+00;  3.7904471E-04;  1.3679053E+02;
 -5.9999999E-02;  9.9999998E-03; -4.4000000E-01;1273;  0.0000000E+00;  0.0000000E+00;  0.0000000E+00;  1.0000000E+03;  1.0000000E-01;  0.0000000E+00;0;  0.0000000E+00;  0.0000000E+00;  0.0000000E+00;0; -1.1839490E-07;  4.0000000E+04;  0.0000000E+00;  0.0000000E+00;  4.0000000E+04;  0.0000000E+00;  4.0000000E+04; -4.5094033E-08;  0.0000000E+00; -7.3300868E-08;  1.4212888E+00;
 -5.9999999E-02;  9.9999998E-03; -4.3000001E-01;1274;  0.0000000E+00;  0.0000000E+00;  0.0000000E+00;  1.0000000E+03;  1.0000000E-01;  0.0000000E+00;0;  0.0000000E+00;  0.0000000E+00;  0.0000000E+00;0;  5.8282502E-08;  4.0000000E+04;  0.0000000E+00;  0.0000000E+00;  4.0000000E+04;  0.0000000E+00;  4.0000000E+04;  6.4044539E-09;  0.0000000E+00;  5.1878047E-08;  9.8557358E+00;
 -5.9999999E-02;  9.9999998E-03; -4.1999999E-01;1275;  0.0000000E+00;  0.0000000E+00;  0.0000000E+00;  1.0000000E+03;  1.0000000E-01;  0.0000000E+00;0;  0.0000000E+00;  0.0000000E+00;  0.0000000E+00;0;  3.8747526E-06;  4.0000000E+04;  0.0000000E+00;  0.0000000E+00;  4.0000000E+04;  0.0000000E+00;  4.0000000E+04;  1.2843203E-06;  0.0000000E+00;  2.5904324E-06;  3.5058548E+01;
 -5.9999999E-02;  9.9999998E-03; -4.1000000E-01;1276;  0.0000000E+00;  0.0000000E+00;  0.0000000E+00;  1.0000000E+03;  1.0000000E-01;  0.0000000E+00;0;  0.0000000E+00;  0.0000000E+00;  0.0000000E+00;0;  1.8126710E-05;  4.0000000E+04;  0.0000000E+00;  0.0000000E+00;  4.0000000E+04;  0.0000000E+00;  4.0000000E+04;  6.7193550E-06;  0.0000000E+00;  1.1407355E-05;  8.6025543E+01;
 -5.9999999E-02;  9.9999998E-03; -4.0000001E-01;1277;  0.0000000E+00;  0.0000000E+00;  0.0000000E+00;  1.0000315E+03;  1.0000000E-01;  2.6073338E+01;0;  0.0000000E+00;  0.0000000E+00;  0.0000000E+00;0;  5.1898547E-05;  4.0000000E+04;  0.0000000E+00;  0.0000000E+00;  4.0000000E+04;  0.0000000E+00;  4.0000000E+04;  2.1751441E-05;  0.0000000E+00;  3.0147106E-05;  1.6668428E+02;
 -5.9999999E-02;  9.9999998E-03; -3.8999999E-01;1278;  0.0000000E+00;  0.0000000E+00;  0.0000000E+00;  1.0000620E+03;  1.0000000E-01;  5.1356571E+01;0;  0.0000000E+00;  0.0000000E+00;  0.0000000E+00;0;  1.1596063E-04;  4.0000000E+04;  0.0000000E+00;  0.0000000E+00;  4.0000000E+04;  0.0000000E+00;  4.0000000E+04;  5.4973454E-05;  0.0000000E+00;  6.0987171E-05;  2.7499292E+02;
 -5.9999999E-02;  9.9999998E-03; -3.8000000E-01;1279;  0.0000000E+00;  0.0000000E+00;  0.0000000E+00;  1.0000936E+03;  1.0000000E-01;  7.7528671E+01;0;  0.0000000E+00;  0.0000000E+00;  0.0000000E+00;0;  2.2314233E-04;  4.0000000E+04;  0.0000000E+00;  0.0000000E+00;  4.0000000E+04;  0.0000000E+00;  4.0000000E+04;  1.1861179E-04;  0.0000000E+00;  1.0453054E-04;  4.0431354E+02;
 -5.9999999E-02;  9.9999998E-03; -3.7000000E-01;1280;  0.0000000E+00;  0.0000000E+00;  0.0000000E+00;  1.0001255E+03;  1.0000000E-01;  1.0399706E+02;0;  0.0000000E+00;  0.0000000E+00;  0.0000000E+00;0;  3.8886507E-04;  4.0000000E+04;  0.0000000E+00;  0.0000000E+00;  4.0000000E+04;  0.0000000E+00;  4.0000000E+04;  2.2867393E-04;  0.0000000E+00;  1.6019114E-04;  5.4490790E+02;
 -5.9999999E-02;  9.9999998E-03; -3.6000001E-01;1281;  0.0000000E+00;  0.0000000E+00;  0.0000000E+00;  1.0001881E+03;  1.0000000E-01;  1.5584744E+02;0;  0.0000000E+00;  0.0000000E+00;  0.0000000E+00;0;  6.3094107E-04;  4.0000000E+04;  0.0000000E+00;  0.0000000E+00;  4.0000000E+04;  0.0000000E+00;  4.0000000E+04;  4.0451493E-04;  0.0000000E+00;  2.2642613E-04;  6.8459790E+02;
 -5.9999999E-02;  9.9999998E-03; -3.4999999E-01;1282;  0.0000000E+00;  0.0000000E+00;  0.0000000E+00;  1.0002797E+03;  1.0000000E-01;  2.3169714E+02;0;  0.0000000E+00;  0.0000000E+00;  0.0000000E+00;0;  9.6830295E-04;  4.0000000E+04;  0.0000000E+00;  0.0000000E+00;  4.0000000E+04;  0.0000000E+00;  4.0000000E+04;  6.6763902E-04;  0.0000000E+00;  3.0066390E-04;  8.0888525E+02;
 -5.9999999E-02;  9.9999998E-03; -3.4000000E-01;1283;  0.0000000E+00;  0.0000000E+00;  0.0000000E+00;  1.0003626E+03;  1.0000000E-01;  3.0043594E+02;0;  0.0000000E+00;  0.0000000E+00;  0.0000000E+00;0;  1.4186181E-03;  4.0000000E+04;  0.0000000E+00;  0.0000000E+00;  4.0000000E+04;  0.0000000E+00;  4.0000000E+04;  1.0396265E-03;  0.0000000E+00;  3.7899156E-04;  9.0099957E+02;
 -5.9999999E-02;  9.9999998E-03; -3.3000001E-01;1284;  0.0000000E+00;  0.0000000E+00;  0.0000000E+00;  1.0004499E+03;  1.0000000E-01;  3.7273019E+02;0;  0.0000000E+00;  0.0000000E+00;  0.0000000E+00;0;  1.9951286E-03;  4.0000000E+04;  0.0000000E+00;  0.0000000E+00;  4.0000000E+04;  0.0000000E+00;  4.0000000E+04;  1.5393100E-03;  0.0000000E+00;  4.5581860E-04;  9.4259503E+02;
 -5.9999999E-02;  9.9999998E-03; -3.1999999E-01;1285;  0.0000000E+00;  0.0000000E+00;  0.0000000E+00;  1.0005231E+03;  1.0000000E-01;  4.3337045E+02;0;  0.0000000E+00;  0.0000000E+00;  0.0000000E+00;0;  2.7033065E-03;  4.0000000E+04;  0.0000000E+00;  0.0000000E+00;  4.0000000E+04;  0.0000000E+00;  4.0000000E+04;  2.1795207E-03;  0.0000000E+00;  5.2378577E-04;  9.1589941E+02;
 -5.9999999E-02;  9.9999998E-03; -3.1000000E-01;1286;  0.0000000E+00;  0.0000000E+00;  0.0000000E+00;  1.0006005E+03;  1.0000000E-01;  4.9746741E+02;0;  0.0000000E+00;  0.0000000E+00;  0.0000000E+00;0;  3.5382693E-03;  4.0000000E+04;  0.0000000E+00;  0.0000000E+00;  4.0000000E+04;  0.0000000E+00;  4.0000000E+04;  2.9639930E-03;  0.0000000E+00;  5.7427632E-04;  8.0758722E+02;
 -5.9999999E-02;  9.9999998E-03; -3.0000001E-01;1287;  0.0000000E+00;  0.0000000E+00;  0.0000000E+00;  1.0006720E+03;  1.0000000E-01;  5.5672498E+02;0;  0.0000000E+00;  0.0000000E+00;  0.0000000E+00;0;  4.4839382E-03;  4.0000000E+04;  0.0000000E+00;  0.0000000E+00;  4.0000000E+04;  0.0000000E+00;  4.0000000E+04;  3.8851374E-03;  0.0000000E+00;  5.9880089E-04;  6.1503516E+02;
 -5.9999999E-02;  9.9999998E-03; -2.8999999E-01;1288;  0.0000000E+00;  0.0000000E+00;  0.0000000E+00;  1.0007309E+03;  1.0000000E-01;  6.0551373E+02;0;  0.0000000E+00;  0.0000000E+00;  0.0000000E+00;0;  5.5144713E-03;  4.0000000E+04;  0.0000000E+00;  0.0000000E+00;  4.0000000E+04;  0.0000000E+00;  4.0000000E+04;  4.9233306E-03;  0.0000000E+00;  5.9114082E-04;  3.5959610E+02;
 -5.9999999E-02;  9.9999998E-03; -2.8000000E-01;1289;  0.0000000E+00;  0.0000000E+00;  0.0000000E+00;  1.0007811E+03;  1.0000000E-01;  6.4719159E+02;0;  0.0000000E+00;  0.0000000E+00;  0.0000000E+00;0;  6.5976148E-03;  4.0000000E+04;  0.0000000E+00;  0.0000000E+00;  4.0000000E+04;  0.0000000E+00;  4.0000000E+04;  6.0481564E-03;  0.0000000E+00;  5.4945849E-04;  2.0457494E+02;
 -5.0000001E-02;  9.9999998E-03; -4.4000000E-01;1364;  0.0000000E+00;  0.0000000E+00;  0.0000000E+00;  1.0000000E+03;  1.0000000E-01;  0.0000000E+00;0;  0.0000000E+00;  0.0000000E+00;  0.0000000E+00;0; -1.9839047E-07;  4.0000000E+04;  0.0000000E+00;  0.0000000E+00;  4.0000000E+04;  0.0000000E+00;  4.0000000E+04; -1.1233877E-07;  0.0000000E+00; -8.6051685E-08;  4.2845941E+00;
 -5.0000001E-02;  9.9999998E-03; -4.3000001E-01;1365;  0.0000000E+00;  0.0000000E+00;  0.0000000E+00;  1.0000000E+03;  1.0000000E-01;  0.0000000E+00;0;  0.0000000E+00;  0.0000000E+00;  0.0000000E+00;0;  9.3900121E-07;  4.0000000E+04;  0.0000000E+00;  0.0000000E+00;  4.0000000E+04;  0.0000000E+00;  4.0000000E+04;  1.9499629E-08;  0.0000000E+00;  9.1950159E-07;  2.1525883E+01;
 -5.0000001E-02;  9.9999998E-03; -4.1999999E-01;1366;  0.0000000E+00;  0.0000000E+00;  0.0000000E+00;  1.0000000E+03;  1.0000000E-01;  0.0000000E+00;0;  0.0000000E+00;  0.0000000E+00;  0.0000000E+00;0;  8.7751041E-06;  4.0000000E+04;  0.0000000E+00;  0.0000000E+00;  4.0000000E+04;  0.0000000E+00;  4.0000000E+04;  2.0043537E-06;  0.0000000E+00;  6.7707501E-06;  6.4807167E+01;
 -5.0000001E-02;  9.9999998E-03; -4.1000000E-01;1367;  0.0000000E+00;  0.0000000E+00;  0.0000000E+00;  1.0000088E+03;  1.0000000E-01;  7.3084354E+00;0;  0.0000000E+00;  0.0000000E+00;  0.0000000E+00;0;  3.2069875E-05;  4.0000000E+04;  0.0000000E+00;  0.0000000E+00;  4.0000000E+04;  0.0000000E+00;  4.0000000E+04;  9.5957639E-06;  0.0000000E+00;  2.2474109E-05;  1.4368973E+02;
 -5.0000001E-02;  9.9999998E-03; -4.0000001E-01;1368;  0.0000000E+00;  0.0000000E+00;  0.0000000E+00;  1.0000590E+03;  1.0000000E-01;  4.8887505E+01;0;  0.0000000E+00;  0.0000000E+00;  0.0000000E+00;0;  8.1475009E-05;  4.0000000E+04;  0.0000000E+00;  0.0000000E+00;  4.0000000E+04;  0.0000000E+00;  4.0000000E+04;  2.9466271E-05;  0.0000000E+00;  5.2008734E-05;  2.6032098E+02;
 -5.0000001E-02;  9.9999998E-03; -3.8999999E-01;1369;  0.0000000E+00;  0.0000000E+00;  0.0000000E+00;  1.0000916E+03;  1.0000000E-01;  7.5849709E+01;0;  0.0000000E+00;  0.0000000E+00;  0.0000000E+00;0;  1.6924934E-04;  4.0000000E+04;  0.0000000E+00;  0.0000000E+00;  4.0000000E+04;  0.0000000E+00;  4.0000000E+04;  7.1937284E-05;  0.0000000E+00;  9.7312062E-05;  4.0970016E+02;
 -5.0000001E-02;  9.9999998E-03; -3.8000000E-01;1370;  0.0000000E+00;  0.0000000E+00;  0.0000000E+00;  1.0001434E+03;  1.0000000E-01;  1.1881145E+02;0;  0.0000000E+00;  0.0000000E+00;  0.0000000E+00;0;  3.1013571E-04;  4.0000000E+04;  0.0000000E+00;  0.0000000E+00;  4.0000000E+04;  0.0000000E+00;  4.0000000E+04;  1.5155588E-04;  0.0000000E+00;  1.5857982E-04;  5.8207275E+02;
 -5.0000001E-02;  9.9999998E-03; -3.7000000E-01;1371;  0.0000000E+00;  0.0000000E+00;  0.0000000E+00;  1.0002068E+03;  1.0000000E-01;  1.7135318E+02;0;  0.0000000E+00;  0.0000000E+00;  0.0000000E+00;0;  5.2212866E-04;  4.0000000E+04;  0.0000000E+00;  0.0000000E+00;  4.0000000E+04;  0.0000000E+00;  4.0000000E+04;  2.8728554E-04;  0.0000000E+00;  2.3484314E-04;  7.6475604E+02;
 -5.0000001E-02;  9.9999998E-03; -3.6000001E-01;1372;  0.0000000E+00;  0.0000000E+00;  0.0000000E+00;  1.0003218E+03;  1.0000000E-01;  2.6665912E+02;0;  0.0000000E+00;  0.0000000E+00;  0.0000000E+00;0;  8.2624418E-04;  4.0000000E+04;  0.0000000E+00;  0.0000000E+00;  4.0000000E+04;  0.0000000E+00;  4.0000000E+04;  5.0205545E-04;  0.0000000E+00;  3.2418873E-04;  9.4270880E+02;
 -5.0000001E-02;  9.9999998E-03; -3.4999999E-01;1373;  0.0000000E+00;  0.0000000E+00;  0.0000000E+00;  1.0004428E+03;  1.0000000E-01;  3.6690320E+02;0;  0.0000000E+00;  0.0000000E+00;  0.0000000E+00;0;  1.2449864E-03;  4.0000000E+04;  0.0000000E+00;  0.0000000E+00;  4.0000000E+04;  0.0000000E+00;  4.0000000E+04;  8.2144741E-04;  0.0000000E+00;  4.2353902E-04;  1.0982791E+03;
 -5.0000001E-02;  9.9999998E-03; -3.4000000E-01;1374;  0.0000000E+00;  0.0000000E+00;  0.0000000E+00;  1.0005662E+03;  1.0000000E-01;  4.6902377E+02;0;  0.0000000E+00;  0.0000000E+00;  0.0000000E+00;0;  1.7995220E-03;  4.0000000E+04;  0.0000000E+00;  0.0000000E+00;  4.0000000E+04;  0.0000000E+00;  4.0000000E+04;  1.2713937E-03;  0.0000000E+00;  5.2812824E-04;  1.2109689E+03;
 -5.0000001E-02;  9.9999998E-03; -3.3000001E-01;1375;  0.0000000E+00;  0.0000000E+00;  0.0000000E+00;  1.0006968E+03;  1.0000000E-01;  5.7726764E+02;0;  0.0000000E+00;  0.0000000E+00;  0.0000000E+00;0;  2.5058540E-03;  4.0000000E+04;  0.0000000E+00;  0.0000000E+00;  4.0000000E+04;  0.0000000E+00;  4.0000000E+04;  1.8749234E-03;  0.0000000E+00;  6.3093071E-04;  1.2580494E+03;
 -5.0000001E-02;  9.9999998E-03; -3.1999999E-01;1376;  0.0000000E+00;  0.0000000E+00;  0.0000000E+00;  1.0008329E+03;  1.0000000E-01;  6.9005457E+02;0;  0.0000000E+00;  0.0000000E+00;  0.0000000E+00;0;  3.3706327E-03;  4.0000000E+04;  0.0000000E+00;  0.0000000E+00;  4.0000000E+04;  0.0000000E+00;  4.0000000E+04;  2.6482432E-03;  0.0000000E+00;  7.2238949E-04;  1.2169937E+03;
 -5.0000001E-02;  9.9999998E-03; -3.1000000E-01;1377;  0.0000000E+00;  0.0000000E+00;  0.0000000E+00;  1.0009908E+03;  1.0000000E-01;  8.2081628E+02;0;  0.0000000E+00;  0.0000000E+00;  0.0000000E+00;0;  4.3877717E-03;  4.0000000E+04;  0.0000000E+00;  0.0000000E+00;  4.0000000E+04;  0.0000000E+00;  4.0000000E+04;  3.5968088E-03;  0.0000000E+00;  7.9096289E-04;  1.0706465E+03;
 -5.0000001E-02;  9.9999998E-03; -3.0000001E-01;1378;  0.0000000E+00;  0.0000000E+00;  0.0000000E+00;  1.0011330E+03;  1.0000000E-01;  9.3864014E+02;0;  0.0000000E+00;  0.0000000E+00;  0.0000000E+00;0;  5.5371593E-03;  4.0000000E+04;  0.0000000E+00;  0.0000000E+00;  4.0000000E+04;  0.0000000E+00;  4.0000000E+04;  4.7122389E-03;  0.0000000E+00;  8.2492031E-04;  8.1550647E+02;
 -5.0000001E-02;  9.9999998E-03; -2.8999999E-01;1379;  0.0000000E+00;  0.0000000E+00;  0.0000000E+00;  1.0012546E+03;  1.0000000E-01;  1.0393781E+03;0;  0.0000000E+00;  0.0000000E+00;  0.0000000E+00;0;  6.7863362E-03;  4.0000000E+04;  0.0000000E+00;  0.0000000E+00;  4.0000000E+04;  0.0000000E+00;  4.0000000E+04;  5.9710066E-03;  0.0000000E+00;  8.1532943E-04;  4.7961560E+02;
 -5.0000001E-02;  9.9999998E-03; -2.8000000E-01;1380;  0.0000000E+00;  0.0000000E+00;  0.0000000E+00;  1.0013657E+03;  1.0000000E-01;  1.1315236E+03;0;  0.0000000E+00;  0.0000000E+00;  0.0000000E+00;0;  8.0948956E-03;  4.0000000E+04;  0.0000000E+00;  0.0000000E+00;  4.0000000E+04;  0.0000000E+00;  4.0000000E+04;  7.3357034E-03;  0.0000000E+00;  7.5919245E-04;  2.7231610E+02;
 -3.9999999E-02;  9.9999998E-03; -4.4000000E-01;1455;  0.0000000E+00;  0.0000000E+00;  0.0000000E+00;  1.0000000E+03;  1.0000000E-01;  0.0000000E+00;0;  0.0000000E+00;  0.0000000E+00;  0.0000000E+00;0; -1.2561478E-07;  4.0000000E+04;  0.0000000E+00;  0.0000000E+00;  4.0000000E+04;  0.0000000E+00;  4.0000000E+04; -2.3554240E-07;  0.0000000E+00;  1.0992763E-07;  9.5844326E+00;
 -3.9999999E-02;  9.9999998E-03; -4.3000001E-01;1456;  0.0000000E+00;  0.0000000E+00;  0.0000000E+00;  1.0000000E+03;  1.0000000E-01;  0.0000000E+00;0;  0.0000000E+00;  0.0000000E+00;  0.0000000E+00;0;  2.7244353E-06;  4.0000000E+04;  0.0000000E+00;  0.0000000E+00;  4.0000000E+04;  0.0000000E+00;  4.0000000E+04; -9.6906831E-08;  0.0000000E+00;  2.8213422E-06;  3.9094746E+01;
 -3.9999999E-02;  9.9999998E-03; -4.1999999E-01;1457;  0.0000000E+00;  0.0000000E+00;  0.0000000E+00;  1.0000000E+03;  1.0000000E-01;  0.0000000E+00;0;  0.0000000E+00;  0.0000000E+00;  0.0000000E+00;0;  1.5752750E-05;  4.0000000E+04;  0.0000000E+00;  0.0000000E+00;  4.0000000E+04;  0.0000000E+00;  4.0000000E+04;  2.3768496E-06;  0.0000000E+00;  1.3375900E-05;  1.0477823E+02;
 -3.9999999E-02;  9.9999998E-03; -4.1000000E-01;1458;  0.0000000E+00;  0.0000000E+00;  0.0000000E+00;  1.0000480E+03;  1.0000000E-01;  3.9801342E+01;0;  0.0000000E+00;  0.0000000E+00;  0.0000000E+00;0;  4.9275754E-05;  4.0000000E+04;  0.0000000E+00;  0.0000000E+00;  4.0000000E+04;  0.0000000E+00;  4.0000000E+04;  1.1602282E-05;  0.0000000E+00;  3.7673472E-05;  2.1588936E+02;
 -3.9999999E-02;  9.9999998E-03; -4.0000001E-01;1459;  0.0000000E+00;  0.0000000E+00;  0.0000000E+00;  1.0000756E+03;  1.0000000E-01;  6.2615513E+01;0;  0.0000000E+00;  0.0000000E+00;  0.0000000E+00;0;  1.1503977E-04;  4.0000000E+04;  0.0000000E+00;  0.0000000E+00;  4.0000000E+04;  0.0000000E+00;  4.0000000E+04;  3.5258763E-05;  0.0000000E+00;  7.9781006E-05;  3.7213321E+02;
 -3.9999999E-02;  9.9999998E-03; -3.8999999E-01;1460;  0.0000000E+00;  0.0000000E+00;  0.0000000E+00;  1.0001362E+03;  1.0000000E-01;  1.1278693E+02;0;  0.0000000E+00;  0.0000000E+00;  0.0000000E+00;0;  2.2645025E-04;  4.0000000E+04;  0.0000000E+00;  0.0000000E+00;  4.0000000E+04;  0.0000000E+00;  4.0000000E+04;  8.5130625E-05;  0.0000000E+00;  1.4131963E-04;  5.6527350E+02;
 -3.9999999E-02;  9.9999998E-03; -3.8000000E-01;1461;  0.0000000E+00;  0.0000000E+00;  0.0000000E+00;  1.0002114E+03;  1.0000000E-01;  1.7520493E+02;0;  0.0000000E+00;  0.0000000E+00;  0.0000000E+00;0;  3.9991571E-04;  4.0000000E+04;  0.0000000E+00;  0.0000000E+00;  4.0000000E+04;  0.0000000E+00;  4.0000000E+04;  1.7777884E-04;  0.0000000E+00;  2.2213686E-04;  7.8247485E+02;
 -3.9999999E-02;  9.9999998E-03; -3.7000000E-01;1462;  0.0000000E+00;  0.0000000E+00;  0.0000000E+00;  1.0003332E+03;  1.0000000E-01;  2.7604156E+02;0;  0.0000000E+00;  0.0000000E+00;  0.0000000E+00;0;  6.5583928E-04;  4.0000000E+04;  0.0000000E+00;  0.0000000E+00;  4.0000000E+04;  0.0000000E+00;  4.0000000E+04;  3.3480645E-04;  0.0000000E+00;  3.2103283E-04;  1.0084066E+03;
 -3.9999999E-02;  9.9999998E-03; -3.6000001E-01;1463;  0.0000000E+00;  0.0000000E+00;  0.0000000E+00;  1.0004891E+03;  1.0000000E-01;  4.0522311E+02;0;  0.0000000E+00;  0.0000000E+00;  0.0000000E+00;0;  1.0183946E-03;  4.0000000E+04;  0.0000000E+00;  0.0000000E+00;  4.0000000E+04;  0.0000000E+00;  4.0000000E+04;  5.8247329E-04;  0.0000000E+00;  4.3592133E-04;  1.2255201E+03;
 -3.9999999E-02;  9.9999998E-03; -3.4999999E-01;1464;  0.0000000E+00;  0.0000000E+00;  0.0000000E+00;  1.0006389E+03;  1.0000000E-01;  5.2936774E+02;0;  0.0000000E+00;  0.0000000E+00;  0.0000000E+00;0;  1.5137740E-03;  4.0000000E+04;  0.0000000E+00;  0.0000000E+00;  4.0000000E+04;  0.0000000E+00;  4.0000000E+04;  9.5035497E-04;  0.0000000E+00;  5.6341902E-04;  1.4133979E+03;
 -3.9999999E-02;  9.9999998E-03; -3.4000000E-01;1465;  0.0000000E+00;  0.0000000E+00;  0.0000000E+00;  1.0008248E+03;  1.0000000E-01;  6.8333868E+02;0;  0.0000000E+00;  0.0000000E+00;  0.0000000E+00;0;  2.1668226E-03;  4.0000000E+04;  0.0000000E+00;  0.0000000E+00;  4.0000000E+04;  0.0000000E+00;  4.0000000E+04;  1.4688042E-03;  0.0000000E+00;  6.9801841E-04;  1.5479119E+03;
 -3.9999999E-02;  9.9999998E-03; -3.3000001E-01;1466;  0.0000000E+00;  0.0000000E+00;  0.0000000E+00;  1.0010629E+03;  1.0000000E-01;  8.8056769E+02;0;  0.0000000E+00;  0.0000000E+00;  0.0000000E+00;0;  2.9964428E-03;  4.0000000E+04;  0.0000000E+00;  0.0000000E+00;  4.0000000E+04;  0.0000000E+00;  4.0000000E+04;  2.1652561E-03;  0.0000000E+00;  8.3118671E-04;  1.6016381E+03;
 -3.9999999E-02;  9.9999998E-03; -3.1999999E-01;1467;  0.0000000E+00;  0.0000000E+00;  0.0000000E+00;  1.0012784E+03;  1.0000000E-01;  1.0591305E+03;0;  0.0000000E+00;  0.0000000E+00;  0.0000000E+00;0;  4.0105954E-03;  4.0000000E+04;  0.0000000E+00;  0.0000000E+00;  4.0000000E+04;  0.0000000E+00;  4.0000000E+04;  3.0597453E-03;  0.0000000E+00;  9.5085008E-04;  1.5464600E+03;
 -3.9999999E-02;  9.9999998E-03; -3.1000000E-01;1468;  0.0000000E+00;  0.0000000E+00;  0.0000000E+00;  1.0015114E+03;  1.0000000E-01;  1.2521128E+03;0;  0.0000000E+00;  0.0000000E+00;  0.0000000E+00;0;  5.2020820E-03;  4.0000000E+04;  0.0000000E+00;  0.0000000E+00;  4.0000000E+04;  0.0000000E+00;  4.0000000E+04;  4.1601788E-03;  0.0000000E+00;  1.0419033E-03;  1.3597595E+03;
 -3.9999999E-02;  9.9999998E-03; -3.0000001E-01;1469;  0.0000000E+00;  0.0000000E+00;  0.0000000E+00;  1.0017455E+03;  1.0000000E-01;  1.4461813E+03;0;  0.0000000E+00;  0.0000000E+00;  0.0000000E+00;0;  6.5465709E-03;  4.0000000E+04;  0.0000000E+00;  0.0000000E+00;  4.0000000E+04;  0.0000000E+00;  4.0000000E+04;  5.4581547E-03;  0.0000000E+00;  1.0884163E-03;  1.0351782E+03;
 -3.9999999E-02;  9.9999998E-03; -2.8999999E-01;1470;  0.0000000E+00;  0.0000000E+00;  0.0000000E+00;  1.0019591E+03;  1.0000000E-01;  1.6230652E+03;0;  0.0000000E+00;  0.0000000E+00;  0.0000000E+00;0;  8.0042742E-03;  4.0000000E+04;  0.0000000E+00;  0.0000000E+00;  4.0000000E+04;  0.0000000E+00;  4.0000000E+04;  6.9265799E-03;  0.0000000E+00;  1.0776944E-03;  6.0454779E+02;
 -3.9999999E-02;  9.9999998E-03; -2.8000000E-01;1471;  0.0000000E+00;  0.0000000E+00;  0.0000000E+00;  1.0021712E+03;  1.0000000E-01;  1.7987639E+03;0;  0.0000000E+00;  0.0000000E+00;  0.0000000E+00;0;  9.5254965E-03;  4.0000000E+04;  0.0000000E+00;  0.0000000E+00;  4.0000000E+04;  0.0000000E+00;  4.0000000E+04;  8.5205985E-03;  0.0000000E+00;  1.0048979E-03;  3.2306882E+02;
 -2.9999999E-02;  9.9999998E-03; -4.4000000E-01;1546;  0.0000000E+00;  0.0000000E+00;  0.0000000E+00;  1.0000000E+03;  1.0000000E-01;  0.0000000E+00;0;  0.0000000E+00;  0.0000000E+00;  0.0000000E+00;0;  2.2689198E-07;  4.0000000E+04;  0.0000000E+00;  0.0000000E+00;  4.0000000E+04;  0.0000000E+00;  4.0000000E+04; -4.4943306E-07;  0.0000000E+00;  6.7632504E-07;  1.7465870E+01;
 -2.9999999E-02;  9.9999998E-03; -4.3000001E-01;1547;  0.0000000E+00;  0.0000000E+00;  0.0000000E+00;  1.0000000E+03;  1.0000000E-01;  0.0000000E+00;0;  0.0000000E+00;  0.0000000E+00;  0.0000000E+00;0;  5.3323934E-06;  4.0000000E+04;  0.0000000E+00;  0.0000000E+00;  4.0000000E+04;  0.0000000E+00;  4.0000000E+04; -5.0844739E-07;  0.0000000E+00;  5.8408409E-06;  6.1718811E+01;
 -2.9999999E-02;  9.9999998E-03; -4.1999999E-01;1548;  0.0000000E+00;  0.0000000E+00;  0.0000000E+00;  1.0000106E+03;  1.0000000E-01;  8.7898750E+00;0;  0.0000000E+00;  0.0000000E+00;  0.0000000E+00;0;  2.4002022E-05;  4.0000000E+04;  0.0000000E+00;  0.0000000E+00;  4.0000000E+04;  0.0000000E+00;  4.0000000E+04;  1.9459344E-06;  0.0000000E+00;  2.2056087E-05;  1.5211760E+02;
 -2.9999999E-02;  9.9999998E-03; -4.1000000E-01;1549;  0.0000000E+00;  0.0000000E+00;  0.0000000E+00;  1.0000668E+03;  1.0000000E-01;  5.5307079E+01;0;  0.0000000E+00;  0.0000000E+00;  0.0000000E+00;0;  6.7563815E-05;  4.0000000E+04;  0.0000000E+00;  0.0000000E+00;  4.0000000E+04;  0.0000000E+00;  4.0000000E+04;  1.1739101E-05;  0.0000000E+00;  5.5824716E-05;  2.9689078E+02;
 -2.9999999E-02;  9.9999998E-03; -4.0000001E-01;1550;  0.0000000E+00;  0.0000000E+00;  0.0000000E+00;  1.0001212E+03;  1.0000000E-01;  1.0034284E+02;0;  0.0000000E+00;  0.0000000E+00;  0.0000000E+00;0;  1.4840490E-04;  4.0000000E+04;  0.0000000E+00;  0.0000000E+00;  4.0000000E+04;  0.0000000E+00;  4.0000000E+04;  3.7236852E-05;  0.0000000E+00;  1.1116805E-04;  4.9294934E+02;
 -2.9999999E-02;  9.9999998E-03; -3.8999999E-01;1551;  0.0000000E+00;  0.0000000E+00;  0.0000000E+00;  1.0002195E+03;  1.0000000E-01;  1.8192078E+02;0;  0.0000000E+00;  0.0000000E+00;  0.0000000E+00;0;  2.8072644E-04;  4.0000000E+04;  0.0000000E+00;  0.0000000E+00;  4.0000000E+04;  0.0000000E+00;  4.0000000E+04;  9.1293216E-05;  0.0000000E+00;  1.8943322E-04;  7.2886462E+02;
 -2.9999999E-02;  9.9999998E-03; -3.8000000E-01;1552;  0.0000000E+00;  0.0000000E+00;  0.0000000E+00;  1.0003153E+03;  1.0000000E-01;  2.6122717E+02;0;  0.0000000E+00;  0.0000000E+00;  0.0000000E+00;0;  4.8235065E-04;  4.0000000E+04;  0.0000000E+00;  0.0000000E+00;  4.0000000E+04;  0.0000000E+00;  4.0000000E+04;  1.9204983E-04;  0.0000000E+00;  2.9030081E-04;  9.8911493E+02;
 -2.9999999E-02;  9.9999998E-03; -3.7000000E-01;1553;  0.0000000E+00;  0.0000000E+00;  0.0000000E+00;  1.0004874E+03;  1.0000000E-01;  4.0384042E+02;0;  0.0000000E+00;  0.0000000E+00;  0.0000000E+00;0;  7.7598129E-04;  4.0000000E+04;  0.0000000E+00;  0.0000000E+00;  4.0000000E+04;  0.0000000E+00;  4.0000000E+04;  3.6335835E-04;  0.0000000E+00;  4.1262293E-04;  1.2563127E+03;
 -2.9999999E-02;  9.9999998E-03; -3.6000001E-01;1554;  0.0000000E+00;  0.0000000E+00;  0.0000000E+00;  1.0006832E+03;  1.0000000E-01;  5.6600867E+02;0;  0.0000000E+00;  0.0000000E+00;  0.0000000E+00;0;  1.1888994E-03;  4.0000000E+04;  0.0000000E+00;  0.0000000E+00;  4.0000000E+04;  0.0000000E+00;  4.0000000E+04;  6.3445920E-04;  0.0000000E+00;  5.5444019E-04;  1.5111289E+03;
 -2.9999999E-02;  9.9999998E-03; -3.4999999E-01;1555;  0.0000000E+00;  0.0000000E+00;  0.0000000E+00;  1.0009102E+03;  1.0000000E-01;  7.5405273E+02;0;  0.0000000E+00;  0.0000000E+00;  0.0000000E+00;0;  1.7506452E-03;  4.0000000E+04;  0.0000000E+00;  0.0000000E+00;  4.0000000E+04;  0.0000000E+00;  4.0000000E+04;  1.0383967E-03;  0.0000000E+00;  7.1224850E-04;  1.7309343E+03;
 -2.9999999E-02;  9.9999998E-03; -3.4000000E-01;1556;  0.0000000E+00;  0.0000000E+00;  0.0000000E+00;  1.0011847E+03;  1.0000000E-01;  9.8150311E+02;0;  0.0000000E+00;  0.0000000E+00;  0.0000000E+00;0;  2.4891463E-03;  4.0000000E+04;  0.0000000E+00;  0.0000000E+00;  4.0000000E+04;  0.0000000E+00;  4.0000000E+04;  1.6092630E-03;  0.0000000E+00;  8.7988336E-04;  1.8883912E+03;
 -2.9999999E-02;  9.9999998E-03; -3.3000001E-01;1557;  0.0000000E+00;  0.0000000E+00;  0.0000000E+00;  1.0014976E+03;  1.0000000E-01;  1.2407550E+03;0;  0.0000000E+00;  0.0000000E+00;  0.0000000E+00;0;  3.4256596E-03;  4.0000000E+04;  0.0000000E+00;  0.0000000E+00;  4.0000000E+04;  0.0000000E+00;  4.0000000E+04;  2.3783660E-03;  0.0000000E+00;  1.0472935E-03;  1.9512427E+03;
 -2.9999999E-02;  9.9999998E-03; -3.1999999E-01;1558;  0.0000000E+00;  0.0000000E+00;  0.0000000E+00;  1.0018356E+03;  1.0000000E-01;  1.5207471E+03;0;  0.0000000E+00;  0.0000000E+00;  0.0000000E+00;0;  4.5691747E-03;  4.0000000E+04;  0.0000000E+00;  0.0000000E+00;  4.0000000E+04;  0.0000000E+00;  4.0000000E+04;  3.3695034E-03;  0.0000000E+00;  1.1996713E-03;  1.8848650E+03;
 -2.9999999E-02;  9.9999998E-03; -3.1000000E-01;1559;  0.0000000E+00;  0.0000000E+00;  0.0000000E+00;  1.0021849E+03;  1.0000000E-01;  1.8102205E+03;0;  0.0000000E+00;  0.0000000E+00;  0.0000000E+00;0;  5.9114480E-03;  4.0000000E+04;  0.0000000E+00;  0.0000000E+00;  4.0000000E+04;  0.0000000E+00;  4.0000000E+04;  4.5936587E-03;  0.0000000E+00;  1.3177892E-03;  1.6593063E+03;
 -2.9999999E-02;  9.9999998E-03; -3.0000001E-01;1560;  0.0000000E+00;  0.0000000E+00;  0.0000000E+00;  1.0025319E+03;  1.0000000E-01;  2.0976196E+03;0;  0.0000000E+00;  0.0000000E+00;  0.0000000E+00;0;  7.4241376E-03;  4.0000000E+04;  0.0000000E+00;  0.0000000E+00;  4.0000000E+04;  0.0000000E+00;  4.0000000E+04;  6.0436158E-03;  0.0000000E+00;  1.3805217E-03;  1.2625100E+03;
 -2.9999999E-02;  9.9999998E-03; -2.8999999E-01;1561;  0.0000000E+00;  0.0000000E+00;  0.0000000E+00;  1.0028620E+03;  1.0000000E-01;  2.3710935E+03;0;  0.0000000E+00;  0.0000000E+00;  0.0000000E+00;0;  9.0598436E-03;  4.0000000E+04;  0.0000000E+00;  0.0000000E+00;  4.0000000E+04;  0.0000000E+00;  4.0000000E+04;  7.6897754E-03;  0.0000000E+00;  1.3700685E-03;  7.2542462E+02;
 -2.9999999E-02;  9.9999998E-03; -2.8000000E-01;1562;  0.0000000E+00;  0.0000000E+00;  0.0000000E+00;  1.0031812E+03;  1.0000000E-01;  2.6355798E+03;0;  0.0000000E+00;  0.0000000E+00;  0.0000000E+00;0;  1.0758742E-02;  4.0000000E+04;  0.0000000E+00;  0.0000000E+00;  4.0000000E+04;  0.0000000E+00;  4.0000000E+04;  9.4800452E-03;  0.0000000E+00;  1.2786969E-03;  3.4276974E+02;
 -2.0000000E-02;  9.9999998E-03; -4.4000000E-01;1637;  0.0000000E+00;  0.0000000E+00;  0.0000000E+00;  1.0000000E+03;  1.0000000E-01;  0.0000000E+00;0;  0.0000000E+00;  0.0000000E+00;  0.0000000E+00;0;  8.4947470E-07;  4.0000000E+04;  0.0000000E+00;  0.0000000E+00;  4.0000000E+04;  0.0000000E+00;  4.0000000E+04; -7.9080445E-07;  0.0000000E+00;  1.6402792E-06;  2.7256557E+01;
 -2.0000000E-02;  9.9999998E-03; -4.3000001E-01;1638;  0.0000000E+00;  0.0000000E+00;  0.0000000E+00;  1.0000000E+03;  1.0000000E-01;  0.0000000E+00;0;  0.0000000E+00;  0.0000000E+00;  0.0000000E+00;0;  8.3121649E-06;  4.0000000E+04;  0.0000000E+00;  0.0000000E+00;  4.0000000E+04;  0.0000000E+00;  4.0000000E+04; -1.3455879E-06;  0.0000000E+00;  9.6577533E-06;  8.6945442E+01;
 -2.0000000E-02;  9.9999998E-03; -4.1999999E-01;1639;  0.0000000E+00;  0.0000000E+00;  0.0000000E+00;  1.0000462E+03;  1.0000000E-01;  3.8319904E+01;0;  0.0000000E+00;  0.0000000E+00;  0.0000000E+00;0;  3.2091939E-05;  4.0000000E+04;  0.0000000E+00;  0.0000000E+00;  4.0000000E+04;  0.0000000E+00;  4.0000000E+04;  3.8647306E-07;  0.0000000E+00;  3.1705466E-05;  2.0151108E+02;
 -2.0000000E-02;  9.9999998E-03; -4.1000000E-01;1640;  0.0000000E+00;  0.0000000E+00;  0.0000000E+00;  1.0000828E+03;  1.0000000E-01;  6.8541275E+01;0;  0.0000000E+00;  0.0000000E+00;  0.0000000E+00;0;  8.4011161E-05;  4.0000000E+04;  0.0000000E+00;  0.0000000E+00;  4.0000000E+04;  0.0000000E+00;  4.0000000E+04;  9.3537492E-06;  0.0000000E+00;  7.4657415E-05;  3.7770126E+02;
 -2.0000000E-02;  9.9999998E-03; -4.0000001E-01;1641;  0.0000000E+00;  0.0000000E+00;  0.0000000E+00;  1.0001624E+03;  1.0000000E-01;  1.3451471E+02;0;  0.0000000E+00;  0.0000000E+00;  0.0000000E+00;0;  1.7675987E-04;  4.0000000E+04;  0.0000000E+00;  0.0000000E+00;  4.0000000E+04;  0.0000000E+00;  4.0000000E+04;  3.4262695E-05;  0.0000000E+00;  1.4249717E-04;  6.0969427E+02;
 -2.0000000E-02;  9.9999998E-03; -3.8999999E-01;1642;  0.0000000E+00;  0.0000000E+00;  0.0000000E+00;  1.0002778E+03;  1.0000000E-01;  2.3011694E+02;0;  0.0000000E+00;  0.0000000E+00;  0.0000000E+00;0;  3.2519194E-04;  4.0000000E+04;  0.0000000E+00;  0.0000000E+00;  4.0000000E+04;  0.0000000E+00;  4.0000000E+04;  8.8676730E-05;  0.0000000E+00;  2.3651522E-04;  8.8335736E+02;
 -2.0000000E-02;  9.9999998E-03; -3.8000000E-01;1643;  0.0000000E+00;  0.0000000E+00;  0.0000000E+00;  1.0004306E+03;  1.0000000E-01;  3.5673065E+02;0;  0.0000000E+00;  0.0000000E+00;  0.0000000E+00;0;  5.4868532E-04;  4.0000000E+04;  0.0000000E+00;  0.0000000E+00;  4.0000000E+04;  0.0000000E+00;  4.0000000E+04;  1.9206069E-04;  0.0000000E+00;  3.5662463E-04;  1.1812736E+03;
 -2.0000000E-02;  9.9999998E-03; -3.7000000E-01;1644;  0.0000000E+00;  0.0000000E+00;  0.0000000E+00;  1.0006596E+03;  1.0000000E-01;  5.4645367E+02;0;  0.0000000E+00;  0.0000000E+00;  0.0000000E+00;0;  8.7216106E-04;  4.0000000E+04;  0.0000000E+00;  0.0000000E+00;  4.0000000E+04;  0.0000000E+00;  4.0000000E+04;  3.7012878E-04;  0.0000000E+00;  5.0203229E-04;  1.4847745E+03;
 -2.0000000E-02;  9.9999998E-03; -3.6000001E-01;1645;  0.0000000E+00;  0.0000000E+00;  0.0000000E+00;  1.0009064E+03;  1.0000000E-01;  7.5089233E+02;0;  0.0000000E+00;  0.0000000E+00;  0.0000000E+00;0;  1.3252199E-03;  4.0000000E+04;  0.0000000E+00;  0.0000000E+00;  4.0000000E+04;  0.0000000E+00;  4.0000000E+04;  6.5421045E-04;  0.0000000E+00;  6.7100936E-04;  1.7734762E+03;
 -2.0000000E-02;  9.9999998E-03; -3.4999999E-01;1646;  0.0000000E+00;  0.0000000E+00;  0.0000000E+00;  1.0012347E+03;  1.0000000E-01;  1.0228846E+03;0;  0.0000000E+00;  0.0000000E+00;  0.0000000E+00;0;  1.9395258E-03;  4.0000000E+04;  0.0000000E+00;  0.0000000E+00;  4.0000000E+04;  0.0000000E+00;  4.0000000E+04;  1.0795154E-03;  0.0000000E+00;  8.6001033E-04;  2.0231796E+03;
 -2.0000000E-02;  9.9999998E-03; -3.4000000E-01;1647;  0.0000000E+00;  0.0000000E+00;  0.0000000E+00;  1.0016036E+03;  1.0000000E-01;  1.3285551E+03;0;  0.0000000E+00;  0.0000000E+00;  0.0000000E+00;0;  2.7447033E-03;  4.0000000E+04;  0.0000000E+00;  0.0000000E+00;  4.0000000E+04;  0.0000000E+00;  4.0000000E+04;  1.6823709E-03;  0.0000000E+00;  1.0623324E-03;  2.2039893E+03;
 -2.0000000E-02;  9.9999998E-03; -3.3000001E-01;1648;  0.0000000E+00;  0.0000000E+00;  0.0000000E+00;  1.0020286E+03;  1.0000000E-01;  1.6806438E+03;0;  0.0000000E+00;  0.0000000E+00;  0.0000000E+00;0;  3.7630289E-03;  4.0000000E+04;  0.0000000E+00;  0.0000000E+00;  4.0000000E+04;  0.0000000E+00;  4.0000000E+04;  2.4965152E-03;  0.0000000E+00;  1.2665137E-03;  2.2791853E+03;
 -2.0000000E-02;  9.9999998E-03; -3.1999999E-01;1649;  0.0000000E+00;  0.0000000E+00;  0.0000000E+00;  1.0024908E+03;  1.0000000E-01;  2.0635466E+03;0;  0.0000000E+00;  0.0000000E+00;  0.0000000E+00;0;  5.0035194E-03;  4.0000000E+04;  0.0000000E+00;  0.0000000E+00;  4.0000000E+04;  0.0000000E+00;  4.0000000E+04;  3.5485059E-03;  0.0000000E+00;  1.4550132E-03;  2.2071106E+03;
 -2.0000000E-02;  9.9999998E-03; -3.1000000E-01;1650;  0.0000000E+00;  0.0000000E+00;  0.0000000E+00;  1.0029644E+03;  1.0000000E-01;  2.4559304E+03;0;  0.0000000E+00;  0.0000000E+00;  0.0000000E+00;0;  6.4565805E-03;  4.0000000E+04;  0.0000000E+00;  0.0000000E+00;  4.0000000E+04;  0.0000000E+00;  4.0000000E+04;  4.8523997E-03;  0.0000000E+00;  1.6041809E-03;  1.9487211E+03;
 -2.0000000E-02;  9.9999998E-03; -3.0000001E-01;1651;  0.0000000E+00;  0.0000000E+00;  0.0000000E+00;  1.0034505E+03;  1.0000000E-01;  2.8586846E+03;0;  0.0000000E+00;  0.0000000E+00;  0.0000000E+00;0;  8.0903694E-03;  4.0000000E+04;  0.0000000E+00;  0.0000000E+00;  4.0000000E+04;  0.0000000E+00;  4.0000000E+04;  6.4035039E-03;  0.0000000E+00;  1.6868653E-03;  1.4830474E+03;
 -2.0000000E-02;  9.9999998E-03; -2.8999999E-01;1652;  0.0000000E+00;  0.0000000E+00;  0.0000000E+00;  1.0039330E+03;  1.0000000E-01;  3.2584758E+03;0;  0.0000000E+00;  0.0000000E+00;  0.0000000E+00;0;  9.8504499E-03;  4.0000000E+04;  0.0000000E+00;  0.0000000E+00;  4.0000000E+04;  0.0000000E+00;  4.0000000E+04;  8.1717949E-03;  0.0000000E+00;  1.6786547E-03;  8.3566119E+02;
 -2.0000000E-02;  9.9999998E-03; -2.8000000E-01;1653;  0.0000000E+00;  0.0000000E+00;  0.0000000E+00;  1.0043937E+03;  1.0000000E-01;  3.6400945E+03;0;  0.0000000E+00;  0.0000000E+00;  0.0000000E+00;0;  1.1666439E-02;  4.0000000E+04;  0.0000000E+00;  0.0000000E+00;  4.0000000E+04;  0.0000000E+00;  4.0000000E+04;  1.0099189E-02;  0.0000000E+00;  1.5672491E-03;  3.3082355E+02;
 -9.9999998E-03;  9.9999998E-03; -4.4000000E-01;1728;  0.0000000E+00;  0.0000000E+00;  0.0000000E+00;  1.0000000E+03;  1.0000000E-01;  0.0000000E+00;0;  0.0000000E+00;  0.0000000E+00;  0.0000000E+00;0;  1.5712646E-06;  4.0000000E+04;  0.0000000E+00;  0.0000000E+00;  4.0000000E+04;  0.0000000E+00;  4.0000000E+04; -1.2595249E-06;  0.0000000E+00;  2.8307895E-06;  3.7456059E+01;
 -9.9999998E-03;  9.9999998E-03; -4.3000001E-01;1729;  0.0000000E+00;  0.0000000E+00;  0.0000000E+00;  1.0000000E+03;  1.0000000E-01;  0.0000000E+00;0;  0.0000000E+00;  0.0000000E+00;  0.0000000E+00;0;  1.0920605E-05;  4.0000000E+04;  0.0000000E+00;  0.0000000E+00;  4.0000000E+04;  0.0000000E+00;  4.0000000E+04; -2.6072553E-06;  0.0000000E+00;  1.3527861E-05;  1.1095319E+02;
 -9.9999998E-03;  9.9999998E-03; -4.1999999E-01;1730;  0.0000000E+00;  0.0000000E+00;  0.0000000E+00;  1.0000550E+03;  1.0000000E-01;  4.5529575E+01;0;  0.0000000E+00;  0.0000000E+00;  0.0000000E+00;0;  3.8279613E-05;  4.0000000E+04;  0.0000000E+00;  0.0000000E+00;  4.0000000E+04;  0.0000000E+00;  4.0000000E+04; -2.2879558E-06;  0.0000000E+00;  4.0567571E-05;  2.4579604E+02;
 -9.9999998E-03;  9.9999998E-03; -4.1000000E-01;1731;  0.0000000E+00;  0.0000000E+00;  0.0000000E+00;  1.0001279E+03;  1.0000000E-01;  1.0597231E+02;0;  0.0000000E+00;  0.0000000E+00;  0.0000000E+00;0;  9.5642514E-05;  4.0000000E+04;  0.0000000E+00;  0.0000000E+00;  4.0000000E+04;  0.0000000E+00;  4.0000000E+04;  4.5407005E-06;  0.0000000E+00;  9.1101814E-05;  4.4724716E+02;
 -9.9999998E-03;  9.9999998E-03; -4.0000001E-01;1732;  0.0000000E+00;  0.0000000E+00;  0.0000000E+00;  1.0002291E+03;  1.0000000E-01;  1.8982179E+02;0;  0.0000000E+00;  0.0000000E+00;  0.0000000E+00;0;  1.9607789E-04;  4.0000000E+04;  0.0000000E+00;  0.0000000E+00;  4.0000000E+04;  0.0000000E+00;  4.0000000E+04;  2.6751535E-05;  0.0000000E+00;  1.6932635E-04;  7.0740961E+02;
 -9.9999998E-03;  9.9999998E-03; -3.8999999E-01;1733;  0.0000000E+00;  0.0000000E+00;  0.0000000E+00;  1.0003712E+03;  1.0000000E-01;  3.0754684E+02;0;  0.0000000E+00;  0.0000000E+00;  0.0000000E+00;0;  3.5567750E-04;  4.0000000E+04;  0.0000000E+00;  0.0000000E+00;  4.0000000E+04;  0.0000000E+00;  4.0000000E+04;  7.8648874E-05;  0.0000000E+00;  2.7702862E-04;  1.0105203E+03;
 -9.9999998E-03;  9.9999998E-03; -3.8000000E-01;1734;  0.0000000E+00;  0.0000000E+00;  0.0000000E+00;  1.0005721E+03;  1.0000000E-01;  4.7396191E+02;0;  0.0000000E+00;  0.0000000E+00;  0.0000000E+00;0;  5.9540861E-04;  4.0000000E+04;  0.0000000E+00;  0.0000000E+00;  4.0000000E+04;  0.0000000E+00;  4.0000000E+04;  1.8078224E-04;  0.0000000E+00;  4.1462638E-04;  1.3380416E+03;
 -9.9999998E-03;  9.9999998E-03; -3.7000000E-01;1735;  0.0000000E+00;  0.0000000E+00;  0.0000000E+00;  1.0008362E+03;  1.0000000E-01;  6.9281989E+02;0;  0.0000000E+00;  0.0000000E+00;  0.0000000E+00;0;  9.4155548E-04;  4.0000000E+04;  0.0000000E+00;  0.0000000E+00;  4.0000000E+04;  0.0000000E+00;  4.0000000E+04;  3.5989904E-04;  0.0000000E+00;  5.8165647E-04;  1.6705602E+03;
 -9.9999998E-03;  9.9999998E-03; -3.6000001E-01;1736;  0.0000000E+00;  0.0000000E+00;  0.0000000E+00;  1.0011658E+03;  1.0000000E-01;  9.6589862E+02;0;  0.0000000E+00;  0.0000000E+00;  0.0000000E+00;0;  1.4246372E-03;  4.0000000E+04;  0.0000000E+00;  0.0000000E+00;  4.0000000E+04;  0.0000000E+00;  4.0000000E+04;  6.4807100E-04;  0.0000000E+00;  7.7656622E-04;  1.9870010E+03;
 -9.9999998E-03;  9.9999998E-03; -3.4999999E-01;1737;  0.0000000E+00;  0.0000000E+00;  0.0000000E+00;  1.0015845E+03;  1.0000000E-01;  1.3127531E+03;0;  0.0000000E+00;  0.0000000E+00;  0.0000000E+00;0;  2.0766859E-03;  4.0000000E+04;  0.0000000E+00;  0.0000000E+00;  4.0000000E+04;  0.0000000E+00;  4.0000000E+04;  1.0808782E-03;  0.0000000E+00;  9.9580758E-04;  2.2623865E+03;
 -9.9999998E-03;  9.9999998E-03; -3.4000000E-01;1738;  0.0000000E+00;  0.0000000E+00;  0.0000000E+00;  1.0020635E+03;  1.0000000E-01;  1.7095813E+03;0;  0.0000000E+00;  0.0000000E+00;  0.0000000E+00;0;  2.9269904E-03;  4.0000000E+04;  0.0000000E+00;  0.0000000E+00;  4.0000000E+04;  0.0000000E+00;  4.0000000E+04;  1.6947109E-03;  0.0000000E+00;  1.2322796E-03;  2.4650977E+03;
 -9.9999998E-03;  9.9999998E-03; -3.3000001E-01;1739;  0.0000000E+00;  0.0000000E+00;  0.0000000E+00;  1.0026005E+03;  1.0000000E-01;  2.1545071E+03;0;  0.0000000E+00;  0.0000000E+00;  0.0000000E+00;0;  3.9966493E-03;  4.0000000E+04;  0.0000000E+00;  0.0000000E+00;  4.0000000E+04;  0.0000000E+00;  4.0000000E+04;  2.5232949E-03;  0.0000000E+00;  1.4733545E-03;  2.5549351E+03;
 -9.9999998E-03;  9.9999998E-03; -3.1999999E-01;1740;  0.0000000E+00;  0.0000000E+00;  0.0000000E+00;  1.0032040E+03;  1.0000000E-01;  2.6544434E+03;0;  0.0000000E+00;  0.0000000E+00;  0.0000000E+00;0;  5.2926023E-03;  4.0000000E+04;  0.0000000E+00;  0.0000000E+00;  4.0000000E+04;  0.0000000E+00;  4.0000000E+04;  3.5935917E-03;  0.0000000E+00;  1.6990106E-03;  2.4836763E+03;
 -9.9999998E-03;  9.9999998E-03; -3.1000000E-01;1741;  0.0000000E+00;  0.0000000E+00;  0.0000000E+00;  1.0038494E+03;  1.0000000E-01;  3.1891443E+03;0;  0.0000000E+00;  0.0000000E+00;  0.0000000E+00;0;  6.8023256E-03;  4.0000000E+04;  0.0000000E+00;  0.0000000E+00;  4.0000000E+04;  0.0000000E+00;  4.0000000E+04;  4.9210731E-03;  0.0000000E+00;  1.8812524E-03;  2.2018691E+03;
 -9.9999998E-03;  9.9999998E-03; -3.0000001E-01;1742;  0.0000000E+00;  0.0000000E+00;  0.0000000E+00;  1.0044945E+03;  1.0000000E-01;  3.7236477E+03;0;  0.0000000E+00;  0.0000000E+00;  0.0000000E+00;0;  8.4903203E-03;  4.0000000E+04;  0.0000000E+00;  0.0000000E+00;  4.0000000E+04;  0.0000000E+00;  4.0000000E+04;  6.5037981E-03;  0.0000000E+00;  1.9865227E-03;  1.6768113E+03;
 -9.9999998E-03;  9.9999998E-03; -2.8999999E-01;1743;  0.0000000E+00;  0.0000000E+00;  0.0000000E+00;  1.0051332E+03;  1.0000000E-01;  4.2527192E+03;0;  0.0000000E+00;  0.0000000E+00;  0.0000000E+00;0;  1.0296645E-02;  4.0000000E+04;  0.0000000E+00;  0.0000000E+00;  4.0000000E+04;  0.0000000E+00;  4.0000000E+04;  8.3139362E-03;  0.0000000E+00;  1.9827089E-03;  9.2666382E+02;
 -9.9999998E-03;  9.9999998E-03; -2.8000000E-01;1744;  0.0000000E+00;  0.0000000E+00;  0.0000000E+00;  1.0057558E+03;  1.0000000E-01;  4.7685566E+03;0;  0.0000000E+00;  0.0000000E+00;  0.0000000E+00;0;  1.2141090E-02;  4.0000000E+04;  0.0000000E+00;  0.0000000E+00;  4.0000000E+04;  0.0000000E+00;  4.0000000E+04;  1.0290599E-02;  0.0000000E+00;  1.8504900E-03;  3.0836194E+02;
  0.0000000E+00;  9.9999998E-03; -4.4000000E-01;1819;  0.0000000E+00;  0.0000000E+00;  0.0000000E+00;  1.0000000E+03;  1.0000000E-01;  0.0000000E+00;0;  0.0000000E+00;  0.0000000E+00;  0.0000000E+00;0;  2.1059664E-06;  4.0000000E+04;  0.0000000E+00;  0.0000000E+00;  4.0000000E+04;  0.0000000E+00;  4.0000000E+04; -1.7871233E-06;  0.0000000E+00;  3.8930898E-06;  4.5985592E+01;
  0.0000000E+00;  9.9999998E-03; -4.3000001E-01;1820;  0.0000000E+00;  0.0000000E+00;  0.0000000E+00;  1.0000084E+03;  1.0000000E-01;  6.9133849E+00;0;  0.0000000E+00;  0.0000000E+00;  0.0000000E+00;0;  1.2304191E-05;  4.0000000E+04;  0.0000000E+00;  0.0000000E+00;  4.0000000E+04;  0.0000000E+00;  4.0000000E+04; -4.0934856E-06;  0.0000000E+00;  1.6397677E-05;  1.2916266E+02;
  0.0000000E+00;  9.9999998E-03; -4.1999999E-01;1821;  0.0000000E+00;  0.0000000E+00;  0.0000000E+00;  1.0000707E+03;  1.0000000E-01;  5.8566246E+01;0;  0.0000000E+00;  0.0000000E+00;  0.0000000E+00;0;  4.0974741E-05;  4.0000000E+04;  0.0000000E+00;  0.0000000E+00;  4.0000000E+04;  0.0000000E+00;  4.0000000E+04; -5.5799023E-06;  0.0000000E+00;  4.6554644E-05;  2.7719650E+02;
  0.0000000E+00;  9.9999998E-03; -4.1000000E-01;1822;  0.0000000E+00;  0.0000000E+00;  0.0000000E+00;  1.0001492E+03;  1.0000000E-01;  1.2355206E+02;0;  0.0000000E+00;  0.0000000E+00;  0.0000000E+00;0;  1.0048066E-04;  4.0000000E+04;  0.0000000E+00;  0.0000000E+00;  4.0000000E+04;  0.0000000E+00;  4.0000000E+04; -1.4977089E-06;  0.0000000E+00;  1.0197837E-04;  4.9460812E+02;
  0.0000000E+00;  9.9999998E-03; -4.0000001E-01;1823;  0.0000000E+00;  0.0000000E+00;  0.0000000E+00;  1.0002874E+03;  1.0000000E-01;  2.3811673E+02;0;  0.0000000E+00;  0.0000000E+00;  0.0000000E+00;0;  2.0528445E-04;  4.0000000E+04;  0.0000000E+00;  0.0000000E+00;  4.0000000E+04;  0.0000000E+00;  4.0000000E+04;  1.7504817E-05;  0.0000000E+00;  1.8777963E-04;  7.7293799E+02;
  0.0000000E+00;  9.9999998E-03; -3.8999999E-01;1824;  0.0000000E+00;  0.0000000E+00;  0.0000000E+00;  1.0004694E+03;  1.0000000E-01;  3.8892728E+02;0;  0.0000000E+00;  0.0000000E+00;  0.0000000E+00;0;  3.7306134E-04;  4.0000000E+04;  0.0000000E+00;  0.0000000E+00;  4.0000000E+04;  0.0000000E+00;  4.0000000E+04;  6.6500812E-05;  0.0000000E+00;  3.0656051E-04;  1.0957466E+03;
  0.0000000E+00;  9.9999998E-03; -3.8000000E-01;1825;  0.0000000E+00;  0.0000000E+00;  0.0000000E+00;  1.0007151E+03;  1.0000000E-01;  5.9247705E+02;0;  0.0000000E+00;  0.0000000E+00;  0.0000000E+00;0;  6.2573829E-04;  4.0000000E+04;  0.0000000E+00;  0.0000000E+00;  4.0000000E+04;  0.0000000E+00;  4.0000000E+04;  1.6660831E-04;  0.0000000E+00;  4.5913001E-04;  1.4436957E+03;
  0.0000000E+00;  9.9999998E-03; -3.7000000E-01;1826;  0.0000000E+00;  0.0000000E+00;  0.0000000E+00;  1.0010287E+03;  1.0000000E-01;  8.5232159E+02;0;  0.0000000E+00;  0.0000000E+00;  0.0000000E+00;0;  9.8974630E-04;  4.0000000E+04;  0.0000000E+00;  0.0000000E+00;  4.0000000E+04;  0.0000000E+00;  4.0000000E+04;  3.4460647E-04;  0.0000000E+00;  6.4513989E-04;  1.7965974E+03;
  0.0000000E+00;  9.9999998E-03; -3.6000001E-01;1827;  0.0000000E+00;  0.0000000E+00;  0.0000000E+00;  1.0014494E+03;  1.0000000E-01;  1.2007561E+03;0;  0.0000000E+00;  0.0000000E+00;  0.0000000E+00;0;  1.4949009E-03;  4.0000000E+04;  0.0000000E+00;  0.0000000E+00;  4.0000000E+04;  0.0000000E+00;  4.0000000E+04;  6.3184497E-04;  0.0000000E+00;  8.6305593E-04;  2.1327986E+03;
  0.0000000E+00;  9.9999998E-03; -3.4999999E-01;1828;  0.0000000E+00;  0.0000000E+00;  0.0000000E+00;  1.0019311E+03;  1.0000000E-01;  1.5998560E+03;0;  0.0000000E+00;  0.0000000E+00;  0.0000000E+00;0;  2.1715988E-03;  4.0000000E+04;  0.0000000E+00;  0.0000000E+00;  4.0000000E+04;  0.0000000E+00;  4.0000000E+04;  1.0623200E-03;  0.0000000E+00;  1.1092788E-03;  2.4269307E+03;
  0.0000000E+00;  9.9999998E-03; -3.4000000E-01;1829;  0.0000000E+00;  0.0000000E+00;  0.0000000E+00;  1.0025150E+03;  1.0000000E-01;  2.0835955E+03;0;  0.0000000E+00;  0.0000000E+00;  0.0000000E+00;0;  3.0464204E-03;  4.0000000E+04;  0.0000000E+00;  0.0000000E+00;  4.0000000E+04;  0.0000000E+00;  4.0000000E+04;  1.6699786E-03;  0.0000000E+00;  1.3764417E-03;  2.6466096E+03;
  0.0000000E+00;  9.9999998E-03; -3.3000001E-01;1830;  0.0000000E+00;  0.0000000E+00;  0.0000000E+00;  1.0031890E+03;  1.0000000E-01;  2.6419993E+03;0;  0.0000000E+00;  0.0000000E+00;  0.0000000E+00;0;  4.1365479E-03;  4.0000000E+04;  0.0000000E+00;  0.0000000E+00;  4.0000000E+04;  0.0000000E+00;  4.0000000E+04;  2.4854969E-03;  0.0000000E+00;  1.6510511E-03;  2.7497253E+03;
  0.0000000E+00;  9.9999998E-03; -3.1999999E-01;1831;  0.0000000E+00;  0.0000000E+00;  0.0000000E+00;  1.0039474E+03;  1.0000000E-01;  3.2704260E+03;0;  0.0000000E+00;  0.0000000E+00;  0.0000000E+00;0;  5.4437406E-03;  4.0000000E+04;  0.0000000E+00;  0.0000000E+00;  4.0000000E+04;  0.0000000E+00;  4.0000000E+04;  3.5326588E-03;  0.0000000E+00;  1.9110816E-03;  2.6831370E+03;
  0.0000000E+00;  9.9999998E-03; -3.1000000E-01;1832;  0.0000000E+00;  0.0000000E+00;  0.0000000E+00;  1.0047651E+03;  1.0000000E-01;  3.9478389E+03;0;  0.0000000E+00;  0.0000000E+00;  0.0000000E+00;0;  6.9492273E-03;  4.0000000E+04;  0.0000000E+00;  0.0000000E+00;  4.0000000E+04;  0.0000000E+00;  4.0000000E+04;  4.8245187E-03;  0.0000000E+00;  2.1247084E-03;  2.3873203E+03;
  0.0000000E+00;  9.9999998E-03; -3.0000001E-01;1833;  0.0000000E+00;  0.0000000E+00;  0.0000000E+00;  1.0055957E+03;  1.0000000E-01;  4.6359185E+03;0;  0.0000000E+00;  0.0000000E+00;  0.0000000E+00;0;  8.6109247E-03;  4.0000000E+04;  0.0000000E+00;  0.0000000E+00;  4.0000000E+04;  0.0000000E+00;  4.0000000E+04;  6.3587697E-03;  0.0000000E+00;  2.2521545E-03;  1.8148368E+03;
  9.9999998E-03;  9.9999998E-03; -4.4000000E-01;1851;  0.0000000E+00;  0.0000000E+00;  0.0000000E+00;  1.0000000E+03;  1.0000000E-01;  0.0000000E+00;0;  0.0000000E+00;  0.0000000E+00;  0.0000000E+00;0;  2.1311462E-06;  4.0000000E+04;  0.0000000E+00;  0.0000000E+00;  4.0000000E+04;  0.0000000E+00;  4.0000000E+04; -2.2337836E-06;  0.0000000E+00;  4.3649297E-06;  5.0627102E+01;
  9.9999998E-03;  9.9999998E-03; -4.3000001E-01;1852;  0.0000000E+00;  0.0000000E+00;  0.0000000E+00;  1.0000317E+03;  1.0000000E-01;  2.6270863E+01;0;  0.0000000E+00;  0.0000000E+00;  0.0000000E+00;0;  1.1758770E-05;  4.0000000E+04;  0.0000000E+00;  0.0000000E+00;  4.0000000E+04;  0.0000000E+00;  4.0000000E+04; -5.3918557E-06;  0.0000000E+00;  1.7150625E-05;  1.3721425E+02;
  9.9999998E-03;  9.9999998E-03; -4.1999999E-01;1853;  0.0000000E+00;  0.0000000E+00;  0.0000000E+00;  1.0000889E+03;  1.0000000E-01;  7.3676926E+01;0;  0.0000000E+00;  0.0000000E+00;  0.0000000E+00;0;  3.9432987E-05;  4.0000000E+04;  0.0000000E+00;  0.0000000E+00;  4.0000000E+04;  0.0000000E+00;  4.0000000E+04; -8.4016037E-06;  0.0000000E+00;  4.7834590E-05;  2.8931442E+02;
  9.9999998E-03;  9.9999998E-03; -4.1000000E-01;1854;  0.0000000E+00;  0.0000000E+00;  0.0000000E+00;  1.0001854E+03;  1.0000000E-01;  1.5357590E+02;0;  0.0000000E+00;  0.0000000E+00;  0.0000000E+00;0;  9.9127523E-05;  4.0000000E+04;  0.0000000E+00;  0.0000000E+00;  4.0000000E+04;  0.0000000E+00;  4.0000000E+04; -6.0955545E-06;  0.0000000E+00;  1.0522308E-04;  5.1254205E+02;
  9.9999998E-03;  9.9999998E-03; -4.0000001E-01;1855;  0.0000000E+00;  0.0000000E+00;  0.0000000E+00;  1.0003432E+03;  1.0000000E-01;  2.8433765E+02;0;  0.0000000E+00;  0.0000000E+00;  0.0000000E+00;0;  2.0745884E-04;  4.0000000E+04;  0.0000000E+00;  0.0000000E+00;  4.0000000E+04;  0.0000000E+00;  4.0000000E+04;  1.1663245E-05;  0.0000000E+00;  1.9579560E-04;  7.9933881E+02;
  9.9999998E-03;  9.9999998E-03; -3.8999999E-01;1856;  0.0000000E+00;  0.0000000E+00;  0.0000000E+00;  1.0005603E+03;  1.0000000E-01;  4.6418442E+02;0;  0.0000000E+00;  0.0000000E+00;  0.0000000E+00;0;  3.8343755E-04;  4.0000000E+04;  0.0000000E+00;  0.0000000E+00;  4.0000000E+04;  0.0000000E+00;  4.0000000E+04;  6.0566133E-05;  0.0000000E+00;  3.2287140E-04;  1.1330479E+03;
  9.9999998E-03;  9.9999998E-03; -3.8000000E-01;1857;  0.0000000E+00;  0.0000000E+00;  0.0000000E+00;  1.0008412E+03;  1.0000000E-01;  6.9696796E+02;0;  0.0000000E+00;  0.0000000E+00;  0.0000000E+00;0;  6.4906775E-04;  4.0000000E+04;  0.0000000E+00;  0.0000000E+00;  4.0000000E+04;  0.0000000E+00;  4.0000000E+04;  1.6174810E-04;  0.0000000E+00;  4.8731963E-04;  1.4931100E+03;
  9.9999998E-03;  9.9999998E-03; -3.7000000E-01;1858;  0.0000000E+00;  0.0000000E+00;  0.0000000E+00;  1.0012090E+03;  1.0000000E-01;  1.0016507E+03;0;  0.0000000E+00;  0.0000000E+00;  0.0000000E+00;0;  1.0296757E-03;  4.0000000E+04;  0.0000000E+00;  0.0000000E+00;  4.0000000E+04;  0.0000000E+00;  4.0000000E+04;  3.4111619E-04;  0.0000000E+00;  6.8855955E-04;  1.8579331E+03;
  9.9999998E-03;  9.9999998E-03; -3.6000001E-01;1859;  0.0000000E+00;  0.0000000E+00;  0.0000000E+00;  1.0016994E+03;  1.0000000E-01;  1.4079602E+03;0;  0.0000000E+00;  0.0000000E+00;  0.0000000E+00;0;  1.5528383E-03;  4.0000000E+04;  0.0000000E+00;  0.0000000E+00;  4.0000000E+04;  0.0000000E+00;  4.0000000E+04;  6.2802905E-04;  0.0000000E+00;  9.2480920E-04;  2.2048789E+03;
  9.9999998E-03;  9.9999998E-03; -3.4999999E-01;1860;  0.0000000E+00;  0.0000000E+00;  0.0000000E+00;  1.0022629E+03;  1.0000000E-01;  1.8748112E+03;0;  0.0000000E+00;  0.0000000E+00;  0.0000000E+00;0;  2.2454746E-03;  4.0000000E+04;  0.0000000E+00;  0.0000000E+00;  4.0000000E+04;  0.0000000E+00;  4.0000000E+04;  1.0531940E-03;  0.0000000E+00;  1.1922804E-03;  2.5081082E+03;
  9.9999998E-03;  9.9999998E-03; -3.4000000E-01;1861;  0.0000000E+00;  0.0000000E+00;  0.0000000E+00;  1.0029520E+03;  1.0000000E-01;  2.4456592E+03;0;  0.0000000E+00;  0.0000000E+00;  0.0000000E+00;0;  3.1292539E-03;  4.0000000E+04;  0.0000000E+00;  0.0000000E+00;  4.0000000E+04;  0.0000000E+00;  4.0000000E+04;  1.6458902E-03;  0.0000000E+00;  1.4833637E-03;  2.7352239E+03;
  9.9999998E-03;  9.9999998E-03; -3.3000001E-01;1862;  0.0000000E+00;  0.0000000E+00;  0.0000000E+00;  1.0037648E+03;  1.0000000E-01;  3.1190229E+03;0;  0.0000000E+00;  0.0000000E+00;  0.0000000E+00;0;  4.2149061E-03;  4.0000000E+04;  0.0000000E+00;  0.0000000E+00;  4.0000000E+04;  0.0000000E+00;  4.0000000E+04;  2.4309021E-03;  0.0000000E+00;  1.7840038E-03;  2.8436697E+03;
  9.9999998E-03;  9.9999998E-03; -3.1999999E-01;1863;  0.0000000E+00;  0.0000000E+00;  0.0000000E+00;  1.0046680E+03;  1.0000000E-01;  3.8673474E+03;0;  0.0000000E+00;  0.0000000E+00;  0.0000000E+00;0;  5.4961024E-03;  4.0000000E+04;  0.0000000E+00;  0.0000000E+00;  4.0000000E+04;  0.0000000E+00;  4.0000000E+04;  3.4253295E-03;  0.0000000E+00;  2.0707732E-03;  2.7780876E+03;
  9.9999998E-03;  9.9999998E-03; -3.1000000E-01;1864;  0.0000000E+00;  0.0000000E+00;  0.0000000E+00;  1.0056511E+03;  1.0000000E-01;  4.6818428E+03;0;  0.0000000E+00;  0.0000000E+00;  0.0000000E+00;0;  6.9445148E-03;  4.0000000E+04;  0.0000000E+00;  0.0000000E+00;  4.0000000E+04;  0.0000000E+00;  4.0000000E+04;  4.6356618E-03;  0.0000000E+00;  2.3088527E-03;  2.4720918E+03;
  2.0000000E-02;  9.9999998E-03; -4.4000000E-01;1881;  0.0000000E+00;  0.0000000E+00;  0.0000000E+00;  1.0000000E+03;  1.0000000E-01;  0.0000000E+00;0;  0.0000000E+00;  0.0000000E+00;  0.0000000E+00;0;  1.3885613E-06;  4.0000000E+04;  0.0000000E+00;  0.0000000E+00;  4.0000000E+04;  0.0000000E+00;  4.0000000E+04; -2.4152364E-06;  0.0000000E+00;  3.8037977E-06;  4.9579731E+01;
  2.0000000E-02;  9.9999998E-03; -4.3000001E-01;1882;  0.0000000E+00;  0.0000000E+00;  0.0000000E+00;  1.0000461E+03;  1.0000000E-01;  3.8221142E+01;0;  0.0000000E+00;  0.0000000E+00;  0.0000000E+00;0;  9.0914045E-06;  4.0000000E+04;  0.0000000E+00;  0.0000000E+00;  4.0000000E+04;  0.0000000E+00;  4.0000000E+04; -5.8918777E-06;  0.0000000E+00;  1.4983282E-05;  1.3233609E+02;
  2.0000000E-02;  9.9999998E-03; -4.1999999E-01;1883;  0.0000000E+00;  0.0000000E+00;  0.0000000E+00;  1.0001116E+03;  1.0000000E-01;  9.2441833E+01;0;  0.0000000E+00;  0.0000000E+00;  0.0000000E+00;0;  3.4793167E-05;  4.0000000E+04;  0.0000000E+00;  0.0000000E+00;  4.0000000E+04;  0.0000000E+00;  4.0000000E+04; -8.9729074E-06;  0.0000000E+00;  4.3766075E-05;  2.7979742E+02;
  2.0000000E-02;  9.9999998E-03; -4.1000000E-01;1884;  0.0000000E+00;  0.0000000E+00;  0.0000000E+00;  1.0002181E+03;  1.0000000E-01;  1.8063687E+02;0;  0.0000000E+00;  0.0000000E+00;  0.0000000E+00;0;  9.5203344E-05;  4.0000000E+04;  0.0000000E+00;  0.0000000E+00;  4.0000000E+04;  0.0000000E+00;  4.0000000E+04; -5.5371925E-06;  0.0000000E+00;  1.0074054E-04;  5.0080042E+02;
  2.0000000E-02;  9.9999998E-03; -4.0000001E-01;1885;  0.0000000E+00;  0.0000000E+00;  0.0000000E+00;  1.0004037E+03;  1.0000000E-01;  3.3450906E+02;0;  0.0000000E+00;  0.0000000E+00;  0.0000000E+00;0;  2.0926290E-04;  4.0000000E+04;  0.0000000E+00;  0.0000000E+00;  4.0000000E+04;  0.0000000E+00;  4.0000000E+04;  1.5494412E-05;  0.0000000E+00;  1.9376849E-04;  7.8962775E+02;
  2.0000000E-02;  9.9999998E-03; -3.8999999E-01;1886;  0.0000000E+00;  0.0000000E+00;  0.0000000E+00;  1.0006490E+03;  1.0000000E-01;  5.3766382E+02;0;  0.0000000E+00;  0.0000000E+00;  0.0000000E+00;0;  3.9674938E-04;  4.0000000E+04;  0.0000000E+00;  0.0000000E+00;  4.0000000E+04;  0.0000000E+00;  4.0000000E+04;  7.0244358E-05;  0.0000000E+00;  3.2650502E-04;  1.1289214E+03;
  2.0000000E-02;  9.9999998E-03; -3.8000000E-01;1887;  0.0000000E+00;  0.0000000E+00;  0.0000000E+00;  1.0009558E+03;  1.0000000E-01;  7.9187885E+02;0;  0.0000000E+00;  0.0000000E+00;  0.0000000E+00;0;  6.7887810E-04;  4.0000000E+04;  0.0000000E+00;  0.0000000E+00;  4.0000000E+04;  0.0000000E+00;  4.0000000E+04;  1.7946446E-04;  0.0000000E+00;  4.9941364E-04;  1.4957444E+03;
  2.0000000E-02;  9.9999998E-03; -3.7000000E-01;1888;  0.0000000E+00;  0.0000000E+00;  0.0000000E+00;  1.0013750E+03;  1.0000000E-01;  1.1391283E+03;0;  0.0000000E+00;  0.0000000E+00;  0.0000000E+00;0;  1.0788621E-03;  4.0000000E+04;  0.0000000E+00;  0.0000000E+00;  4.0000000E+04;  0.0000000E+00;  4.0000000E+04;  3.6759637E-04;  0.0000000E+00;  7.1126572E-04;  1.8659139E+03;
  2.0000000E-02;  9.9999998E-03; -3.6000001E-01;1889;  0.0000000E+00;  0.0000000E+00;  0.0000000E+00;  1.0019085E+03;  1.0000000E-01;  1.5811898E+03;0;  0.0000000E+00;  0.0000000E+00;  0.0000000E+00;0;  1.6208761E-03;  4.0000000E+04;  0.0000000E+00;  0.0000000E+00;  4.0000000E+04;  0.0000000E+00;  4.0000000E+04;  6.6117471E-04;  0.0000000E+00;  9.5970137E-04;  2.2148250E+03;
  2.0000000E-02;  9.9999998E-03; -3.4999999E-01;1890;  0.0000000E+00;  0.0000000E+00;  0.0000000E+00;  1.0025565E+03;  1.0000000E-01;  2.1180635E+03;0;  0.0000000E+00;  0.0000000E+00;  0.0000000E+00;0;  2.3270487E-03;  4.0000000E+04;  0.0000000E+00;  0.0000000E+00;  4.0000000E+04;  0.0000000E+00;  4.0000000E+04;  1.0865399E-03;  0.0000000E+00;  1.2405089E-03;  2.5157905E+03;
  2.0000000E-02;  9.9999998E-03; -3.4000000E-01;1891;  0.0000000E+00;  0.0000000E+00;  0.0000000E+00;  1.0033392E+03;  1.0000000E-01;  2.7665391E+03;0;  0.0000000E+00;  0.0000000E+00;  0.0000000E+00;0;  3.2126596E-03;  4.0000000E+04;  0.0000000E+00;  0.0000000E+00;  4.0000000E+04;  0.0000000E+00;  4.0000000E+04;  1.6669072E-03;  0.0000000E+00;  1.5457524E-03;  2.7366018E+03;
  2.0000000E-02;  9.9999998E-03; -3.3000001E-01;1892;  0.0000000E+00;  0.0000000E+00;  0.0000000E+00;  1.0042560E+03;  1.0000000E-01;  3.5260237E+03;0;  0.0000000E+00;  0.0000000E+00;  0.0000000E+00;0;  4.2803586E-03;  4.0000000E+04;  0.0000000E+00;  0.0000000E+00;  4.0000000E+04;  0.0000000E+00;  4.0000000E+04;  2.4193646E-03;  0.0000000E+00;  1.8609941E-03;  2.8355261E+03;
  2.0000000E-02;  9.9999998E-03; -3.1999999E-01;1893;  0.0000000E+00;  0.0000000E+00;  0.0000000E+00;  1.0052995E+03;  1.0000000E-01;  4.3904932E+03;0;  0.0000000E+00;  0.0000000E+00;  0.0000000E+00;0;  5.5142227E-03;  4.0000000E+04;  0.0000000E+00;  0.0000000E+00;  4.0000000E+04;  0.0000000E+00;  4.0000000E+04;  3.3521764E-03;  0.0000000E+00;  2.1620463E-03;  2.7578040E+03;
  2.0000000E-02;  9.9999998E-03; -3.1000000E-01;1894;  0.0000000E+00;  0.0000000E+00;  0.0000000E+00;  1.0064115E+03;  1.0000000E-01;  5.3118496E+03;0;  0.0000000E+00;  0.0000000E+00;  0.0000000E+00;0;  6.8752277E-03;  4.0000000E+04;  0.0000000E+00;  0.0000000E+00;  4.0000000E+04;  0.0000000E+00;  4.0000000E+04;  4.4629415E-03;  0.0000000E+00;  2.4122861E-03;  2.4359524E+03;
  2.9999999E-02;  9.9999998E-03; -4.4000000E-01;1911;  0.0000000E+00;  0.0000000E+00;  0.0000000E+00;  1.0000000E+03;  1.0000000E-01;  0.0000000E+00;0;  0.0000000E+00;  0.0000000E+00;  0.0000000E+00;0; -1.7592629E-07;  4.0000000E+04;  0.0000000E+00;  0.0000000E+00;  4.0000000E+04;  0.0000000E+00;  4.0000000E+04; -2.1359333E-06;  0.0000000E+00;  1.9600070E-06;  4.2134747E+01;
  2.9999999E-02;  9.9999998E-03; -4.3000001E-01;1912;  0.0000000E+00;  0.0000000E+00;  0.0000000E+00;  1.0000506E+03;  1.0000000E-01;  4.1875359E+01;0;  0.0000000E+00;  0.0000000E+00;  0.0000000E+00;0;  5.2251735E-06;  4.0000000E+04;  0.0000000E+00;  0.0000000E+00;  4.0000000E+04;  0.0000000E+00;  4.0000000E+04; -4.7622270E-06;  0.0000000E+00;  9.9874005E-06;  1.1497672E+02;
  2.9999999E-02;  9.9999998E-03; -4.1999999E-01;1913;  0.0000000E+00;  0.0000000E+00;  0.0000000E+00;  1.0001301E+03;  1.0000000E-01;  1.0775004E+02;0;  0.0000000E+00;  0.0000000E+00;  0.0000000E+00;0;  3.0135838E-05;  4.0000000E+04;  0.0000000E+00;  0.0000000E+00;  4.0000000E+04;  0.0000000E+00;  4.0000000E+04; -5.2396199E-06;  0.0000000E+00;  3.5375459E-05;  2.5248018E+02;
  2.9999999E-02;  9.9999998E-03; -4.1000000E-01;1914;  0.0000000E+00;  0.0000000E+00;  0.0000000E+00;  1.0002547E+03;  1.0000000E-01;  2.1105576E+02;0;  0.0000000E+00;  0.0000000E+00;  0.0000000E+00;0;  9.4515453E-05;  4.0000000E+04;  0.0000000E+00;  0.0000000E+00;  4.0000000E+04;  0.0000000E+00;  4.0000000E+04;  3.8757830E-06;  0.0000000E+00;  9.0639667E-05;  4.6836646E+02;
  2.9999999E-02;  9.9999998E-03; -4.0000001E-01;1915;  0.0000000E+00;  0.0000000E+00;  0.0000000E+00;  1.0004472E+03;  1.0000000E-01;  3.7045865E+02;0;  0.0000000E+00;  0.0000000E+00;  0.0000000E+00;0;  2.1929748E-04;  4.0000000E+04;  0.0000000E+00;  0.0000000E+00;  4.0000000E+04;  0.0000000E+00;  4.0000000E+04;  3.4658606E-05;  0.0000000E+00;  1.8463888E-04;  7.5859351E+02;
  2.9999999E-02;  9.9999998E-03; -3.8999999E-01;1916;  0.0000000E+00;  0.0000000E+00;  0.0000000E+00;  1.0007151E+03;  1.0000000E-01;  5.9247705E+02;0;  0.0000000E+00;  0.0000000E+00;  0.0000000E+00;0;  4.2440352E-04;  4.0000000E+04;  0.0000000E+00;  0.0000000E+00;  4.0000000E+04;  0.0000000E+00;  4.0000000E+04;  1.0358659E-04;  0.0000000E+00;  3.2081694E-04;  1.1036163E+03;
  2.9999999E-02;  9.9999998E-03; -3.8000000E-01;1917;  0.0000000E+00;  0.0000000E+00;  0.0000000E+00;  1.0010457E+03;  1.0000000E-01;  8.6634589E+02;0;  0.0000000E+00;  0.0000000E+00;  0.0000000E+00;0;  7.2961283E-04;  4.0000000E+04;  0.0000000E+00;  0.0000000E+00;  4.0000000E+04;  0.0000000E+00;  4.0000000E+04;  2.3086577E-04;  0.0000000E+00;  4.9874705E-04;  1.4764263E+03;
  2.9999999E-02;  9.9999998E-03; -3.7000000E-01;1918;  0.0000000E+00;  0.0000000E+00;  0.0000000E+00;  1.0015026E+03;  1.0000000E-01;  1.2448043E+03;0;  0.0000000E+00;  0.0000000E+00;  0.0000000E+00;0;  1.1554501E-03;  4.0000000E+04;  0.0000000E+00;  0.0000000E+00;  4.0000000E+04;  0.0000000E+00;  4.0000000E+04;  4.3927695E-04;  0.0000000E+00;  7.1617321E-04;  1.8487673E+03;
  2.9999999E-02;  9.9999998E-03; -3.6000001E-01;1919;  0.0000000E+00;  0.0000000E+00;  0.0000000E+00;  1.0020691E+03;  1.0000000E-01;  1.7142231E+03;0;  0.0000000E+00;  0.0000000E+00;  0.0000000E+00;0;  1.7220883E-03;  4.0000000E+04;  0.0000000E+00;  0.0000000E+00;  4.0000000E+04;  0.0000000E+00;  4.0000000E+04;  7.5226621E-04;  0.0000000E+00;  9.6982205E-04;  2.1930625E+03;
  2.9999999E-02;  9.9999998E-03; -3.4999999E-01;1920;  0.0000000E+00;  0.0000000E+00;  0.0000000E+00;  1.0027813E+03;  1.0000000E-01;  2.3042312E+03;0;  0.0000000E+00;  0.0000000E+00;  0.0000000E+00;0;  2.4462065E-03;  4.0000000E+04;  0.0000000E+00;  0.0000000E+00;  4.0000000E+04;  0.0000000E+00;  4.0000000E+04;  1.1914399E-03;  0.0000000E+00;  1.2547666E-03;  2.4810356E+03;
  2.9999999E-02;  9.9999998E-03; -3.4000000E-01;1921;  0.0000000E+00;  0.0000000E+00;  0.0000000E+00;  1.0036348E+03;  1.0000000E-01;  3.0113716E+03;0;  0.0000000E+00;  0.0000000E+00;  0.0000000E+00;0;  3.3361362E-03;  4.0000000E+04;  0.0000000E+00;  0.0000000E+00;  4.0000000E+04;  0.0000000E+00;  4.0000000E+04;  1.7735710E-03;  0.0000000E+00;  1.5625652E-03;  2.6806013E+03;
  2.9999999E-02;  9.9999998E-03; -3.3000001E-01;1922;  0.0000000E+00;  0.0000000E+00;  0.0000000E+00;  1.0046335E+03;  1.0000000E-01;  3.8388049E+03;0;  0.0000000E+00;  0.0000000E+00;  0.0000000E+00;0;  4.3861307E-03;  4.0000000E+04;  0.0000000E+00;  0.0000000E+00;  4.0000000E+04;  0.0000000E+00;  4.0000000E+04;  2.5076466E-03;  0.0000000E+00;  1.8784844E-03;  2.7519905E+03;
  2.9999999E-02;  9.9999998E-03; -3.1999999E-01;1923;  0.0000000E+00;  0.0000000E+00;  0.0000000E+00;  1.0057780E+03;  1.0000000E-01;  4.7869263E+03;0;  0.0000000E+00;  0.0000000E+00;  0.0000000E+00;0;  5.5708820E-03;  4.0000000E+04;  0.0000000E+00;  0.0000000E+00;  4.0000000E+04;  0.0000000E+00;  4.0000000E+04;  3.3926594E-03;  0.0000000E+00;  2.1782224E-03;  2.6446384E+03;
  2.9999999E-02;  9.9999998E-03; -3.1000000E-01;1924;  0.0000000E+00;  0.0000000E+00;  0.0000000E+00;  1.0070050E+03;  1.0000000E-01;  5.8034902E+03;0;  0.0000000E+00;  0.0000000E+00;  0.0000000E+00;0;  6.8419026E-03;  4.0000000E+04;  0.0000000E+00;  0.0000000E+00;  4.0000000E+04;  0.0000000E+00;  4.0000000E+04;  4.4168816E-03;  0.0000000E+00;  2.4250208E-03;  2.2991111E+03;
  3.9999999E-02;  9.9999998E-03; -4.4000000E-01;1941;  0.0000000E+00;  0.0000000E+00;  0.0000000E+00;  1.0000000E+03;  1.0000000E-01;  0.0000000E+00;0;  0.0000000E+00;  0.0000000E+00;  0.0000000E+00;0; -2.1432552E-06;  4.0000000E+04;  0.0000000E+00;  0.0000000E+00;  4.0000000E+04;  0.0000000E+00;  4.0000000E+04; -1.1790105E-06;  0.0000000E+00; -9.6424469E-07;  2.9425493E+01;
  3.9999999E-02;  9.9999998E-03; -4.3000001E-01;1942;  0.0000000E+00;  0.0000000E+00;  0.0000000E+00;  1.0000569E+03;  1.0000000E-01;  4.7109779E+01;0;  0.0000000E+00;  0.0000000E+00;  0.0000000E+00;0;  2.1881490E-06;  4.0000000E+04;  0.0000000E+00;  0.0000000E+00;  4.0000000E+04;  0.0000000E+00;  4.0000000E+04; -1.1926547E-06;  0.0000000E+00;  3.3808037E-06;  8.9871513E+01;
  3.9999999E-02;  9.9999998E-03; -4.1999999E-01;1943;  0.0000000E+00;  0.0000000E+00;  0.0000000E+00;  1.0001376E+03;  1.0000000E-01;  1.1407085E+02;0;  0.0000000E+00;  0.0000000E+00;  0.0000000E+00;0;  2.9715087E-05;  4.0000000E+04;  0.0000000E+00;  0.0000000E+00;  4.0000000E+04;  0.0000000E+00;  4.0000000E+04;  4.4126123E-06;  0.0000000E+00;  2.5302475E-05;  2.1816252E+02;
  3.9999999E-02;  9.9999998E-03; -4.1000000E-01;1944;  0.0000000E+00;  0.0000000E+00;  0.0000000E+00;  1.0002783E+03;  1.0000000E-01;  2.3061076E+02;0;  0.0000000E+00;  0.0000000E+00;  0.0000000E+00;0;  1.0351439E-04;  4.0000000E+04;  0.0000000E+00;  0.0000000E+00;  4.0000000E+04;  0.0000000E+00;  4.0000000E+04;  2.4611449E-05;  0.0000000E+00;  7.8902944E-05;  4.3337357E+02;
  3.9999999E-02;  9.9999998E-03; -4.0000001E-01;1945;  0.0000000E+00;  0.0000000E+00;  0.0000000E+00;  1.0004854E+03;  1.0000000E-01;  4.0216147E+02;0;  0.0000000E+00;  0.0000000E+00;  0.0000000E+00;0;  2.4592786E-04;  4.0000000E+04;  0.0000000E+00;  0.0000000E+00;  4.0000000E+04;  0.0000000E+00;  4.0000000E+04;  7.2547271E-05;  0.0000000E+00;  1.7338058E-04;  7.3148840E+02;
  3.9999999E-02;  9.9999998E-03; -3.8999999E-01;1946;  0.0000000E+00;  0.0000000E+00;  0.0000000E+00;  1.0007561E+03;  1.0000000E-01;  6.2645142E+02;0;  0.0000000E+00;  0.0000000E+00;  0.0000000E+00;0;  4.7650011E-04;  4.0000000E+04;  0.0000000E+00;  0.0000000E+00;  4.0000000E+04;  0.0000000E+00;  4.0000000E+04;  1.6509439E-04;  0.0000000E+00;  3.1140572E-04;  1.0886564E+03;
  3.9999999E-02;  9.9999998E-03; -3.8000000E-01;1947;  0.0000000E+00;  0.0000000E+00;  0.0000000E+00;  1.0011052E+03;  1.0000000E-01;  9.1562842E+02;0;  0.0000000E+00;  0.0000000E+00;  0.0000000E+00;0;  8.1325229E-04;  4.0000000E+04;  0.0000000E+00;  0.0000000E+00;  4.0000000E+04;  0.0000000E+00;  4.0000000E+04;  3.2198289E-04;  0.0000000E+00;  4.9126940E-04;  1.4721825E+03;
  3.9999999E-02;  9.9999998E-03; -3.7000000E-01;1948;  0.0000000E+00;  0.0000000E+00;  0.0000000E+00;  1.0015783E+03;  1.0000000E-01;  1.3076173E+03;0;  0.0000000E+00;  0.0000000E+00;  0.0000000E+00;0;  1.2737794E-03;  4.0000000E+04;  0.0000000E+00;  0.0000000E+00;  4.0000000E+04;  0.0000000E+00;  4.0000000E+04;  5.6438986E-04;  0.0000000E+00;  7.0938957E-04;  1.8485811E+03;
  3.9999999E-02;  9.9999998E-03; -3.6000001E-01;1949;  0.0000000E+00;  0.0000000E+00;  0.0000000E+00;  1.0021910E+03;  1.0000000E-01;  1.8151586E+03;0;  0.0000000E+00;  0.0000000E+00;  0.0000000E+00;0;  1.8742271E-03;  4.0000000E+04;  0.0000000E+00;  0.0000000E+00;  4.0000000E+04;  0.0000000E+00;  4.0000000E+04;  9.1289711E-04;  0.0000000E+00;  9.6132996E-04;  2.1861863E+03;
  3.9999999E-02;  9.9999998E-03; -3.4999999E-01;1950;  0.0000000E+00;  0.0000000E+00;  0.0000000E+00;  1.0029254E+03;  1.0000000E-01;  2.4236353E+03;0;  0.0000000E+00;  0.0000000E+00;  0.0000000E+00;0;  2.6259767E-03;  4.0000000E+04;  0.0000000E+00;  0.0000000E+00;  4.0000000E+04;  0.0000000E+00;  4.0000000E+04;  1.3847672E-03;  0.0000000E+00;  1.2412096E-03;  2.4543411E+03;
  3.9999999E-02;  9.9999998E-03; -3.4000000E-01;1951;  0.0000000E+00;  0.0000000E+00;  0.0000000E+00;  1.0038337E+03;  1.0000000E-01;  3.1761077E+03;0;  0.0000000E+00;  0.0000000E+00;  0.0000000E+00;0;  3.5308055E-03;  4.0000000E+04;  0.0000000E+00;  0.0000000E+00;  4.0000000E+04;  0.0000000E+00;  4.0000000E+04;  1.9908922E-03;  0.0000000E+00;  1.5399132E-03;  2.6208103E+03;
  3.9999999E-02;  9.9999998E-03; -3.3000001E-01;1952;  0.0000000E+00;  0.0000000E+00;  0.0000000E+00;  1.0048964E+03;  1.0000000E-01;  4.0565767E+03;0;  0.0000000E+00;  0.0000000E+00;  0.0000000E+00;0;  4.5754239E-03;  4.0000000E+04;  0.0000000E+00;  0.0000000E+00;  4.0000000E+04;  0.0000000E+00;  4.0000000E+04;  2.7329135E-03;  0.0000000E+00;  1.8425103E-03;  2.6490681E+03;
  3.9999999E-02;  9.9999998E-03; -3.1999999E-01;1953;  0.0000000E+00;  0.0000000E+00;  0.0000000E+00;  1.0060984E+03;  1.0000000E-01;  5.0524004E+03;0;  0.0000000E+00;  0.0000000E+00;  0.0000000E+00;0;  5.7266718E-03;  4.0000000E+04;  0.0000000E+00;  0.0000000E+00;  4.0000000E+04;  0.0000000E+00;  4.0000000E+04;  3.6013434E-03;  0.0000000E+00;  2.1253284E-03;  2.4970393E+03;
  3.9999999E-02;  9.9999998E-03; -3.1000000E-01;1954;  0.0000000E+00;  0.0000000E+00;  0.0000000E+00;  1.0074077E+03;  1.0000000E-01;  6.1371104E+03;0;  0.0000000E+00;  0.0000000E+00;  0.0000000E+00;0;  6.9293184E-03;  4.0000000E+04;  0.0000000E+00;  0.0000000E+00;  4.0000000E+04;  0.0000000E+00;  4.0000000E+04;  4.5756865E-03;  0.0000000E+00;  2.3536317E-03;  2.1230515E+03;
  5.0000001E-02;  9.9999998E-03; -4.4000000E-01;1971;  0.0000000E+00;  0.0000000E+00;  0.0000000E+00;  1.0000000E+03;  1.0000000E-01;  0.0000000E+00;0;  0.0000000E+00;  0.0000000E+00;  0.0000000E+00;0; -3.5304879E-06;  4.0000000E+04;  0.0000000E+00;  0.0000000E+00;  4.0000000E+04;  0.0000000E+00;  4.0000000E+04;  6.4724452E-07;  0.0000000E+00; -4.1777325E-06;  1.4832672E+01;
  5.0000001E-02;  9.9999998E-03; -4.3000001E-01;1972;  0.0000000E+00;  0.0000000E+00;  0.0000000E+00;  1.0000646E+03;  1.0000000E-01;  5.3529350E+01;0;  0.0000000E+00;  0.0000000E+00;  0.0000000E+00;0;  2.5492582E-06;  4.0000000E+04;  0.0000000E+00;  0.0000000E+00;  4.0000000E+04;  0.0000000E+00;  4.0000000E+04;  5.2382438E-06;  0.0000000E+00; -2.6889857E-06;  6.6012985E+01;
  5.0000001E-02;  9.9999998E-03; -4.1999999E-01;1973;  0.0000000E+00;  0.0000000E+00;  0.0000000E+00;  1.0001482E+03;  1.0000000E-01;  1.2276196E+02;0;  0.0000000E+00;  0.0000000E+00;  0.0000000E+00;0;  3.7730002E-05;  4.0000000E+04;  0.0000000E+00;  0.0000000E+00;  4.0000000E+04;  0.0000000E+00;  4.0000000E+04;  2.0484009E-05;  0.0000000E+00;  1.7245991E-05;  1.9343585E+02;
  5.0000001E-02;  9.9999998E-03; -4.1000000E-01;1974;  0.0000000E+00;  0.0000000E+00;  0.0000000E+00;  1.0002839E+03;  1.0000000E-01;  2.3525261E+02;0;  0.0000000E+00;  0.0000000E+00;  0.0000000E+00;0;  1.2757826E-04;  4.0000000E+04;  0.0000000E+00;  0.0000000E+00;  4.0000000E+04;  0.0000000E+00;  4.0000000E+04;  5.7023113E-05;  0.0000000E+00;  7.0555143E-05;  4.2008017E+02;
  5.0000001E-02;  9.9999998E-03; -4.0000001E-01;1975;  0.0000000E+00;  0.0000000E+00;  0.0000000E+00;  1.0005006E+03;  1.0000000E-01;  4.1470432E+02;0;  0.0000000E+00;  0.0000000E+00;  0.0000000E+00;0;  2.9517082E-04;  4.0000000E+04;  0.0000000E+00;  0.0000000E+00;  4.0000000E+04;  0.0000000E+00;  4.0000000E+04;  1.2914753E-04;  0.0000000E+00;  1.6602327E-04;  7.3940472E+02;
  5.0000001E-02;  9.9999998E-03; -3.8999999E-01;1976;  0.0000000E+00;  0.0000000E+00;  0.0000000E+00;  1.0007579E+03;  1.0000000E-01;  6.2793286E+02;0;  0.0000000E+00;  0.0000000E+00;  0.0000000E+00;0;  5.5921491E-04;  4.0000000E+04;  0.0000000E+00;  0.0000000E+00;  4.0000000E+04;  0.0000000E+00;  4.0000000E+04;  2.5417810E-04;  0.0000000E+00;  3.0503681E-04;  1.1213569E+03;
  5.0000001E-02;  9.9999998E-03; -3.8000000E-01;1977;  0.0000000E+00;  0.0000000E+00;  0.0000000E+00;  1.0011436E+03;  1.0000000E-01;  9.4742999E+02;0;  0.0000000E+00;  0.0000000E+00;  0.0000000E+00;0;  9.3585614E-04;  4.0000000E+04;  0.0000000E+00;  0.0000000E+00;  4.0000000E+04;  0.0000000E+00;  4.0000000E+04;  4.5149558E-04;  0.0000000E+00;  4.8436053E-04;  1.5263026E+03;
  5.0000001E-02;  9.9999998E-03; -3.7000000E-01;1978;  0.0000000E+00;  0.0000000E+00;  0.0000000E+00;  1.0016100E+03;  1.0000000E-01;  1.3338882E+03;0;  0.0000000E+00;  0.0000000E+00;  0.0000000E+00;0;  1.4400111E-03;  4.0000000E+04;  0.0000000E+00;  0.0000000E+00;  4.0000000E+04;  0.0000000E+00;  4.0000000E+04;  7.4102101E-04;  0.0000000E+00;  6.9899007E-04;  1.9146390E+03;
  5.0000001E-02;  9.9999998E-03; -3.6000001E-01;1979;  0.0000000E+00;  0.0000000E+00;  0.0000000E+00;  1.0022312E+03;  1.0000000E-01;  1.8485403E+03;0;  0.0000000E+00;  0.0000000E+00;  0.0000000E+00;0;  2.0843339E-03;  4.0000000E+04;  0.0000000E+00;  0.0000000E+00;  4.0000000E+04;  0.0000000E+00;  4.0000000E+04;  1.1410759E-03;  0.0000000E+00;  9.4325800E-04;  2.2498049E+03;
  5.0000001E-02;  9.9999998E-03; -3.4999999E-01;1980;  0.0000000E+00;  0.0000000E+00;  0.0000000E+00;  1.0030061E+03;  1.0000000E-01;  2.4904976E+03;0;  0.0000000E+00;  0.0000000E+00;  0.0000000E+00;0;  2.8757809E-03;  4.0000000E+04;  0.0000000E+00;  0.0000000E+00;  4.0000000E+04;  0.0000000E+00;  4.0000000E+04;  1.6655392E-03;  0.0000000E+00;  1.2102417E-03;  2.4979541E+03;
  5.0000001E-02;  9.9999998E-03; -3.4000000E-01;1981;  0.0000000E+00;  0.0000000E+00;  0.0000000E+00;  1.0039357E+03;  1.0000000E-01;  3.2606484E+03;0;  0.0000000E+00;  0.0000000E+00;  0.0000000E+00;0;  3.8106912E-03;  4.0000000E+04;  0.0000000E+00;  0.0000000E+00;  4.0000000E+04;  0.0000000E+00;  4.0000000E+04;  2.3206042E-03;  0.0000000E+00;  1.4900870E-03;  2.6262883E+03;
  5.0000001E-02;  9.9999998E-03; -3.3000001E-01;1982;  0.0000000E+00;  0.0000000E+00;  0.0000000E+00;  1.0050276E+03;  1.0000000E-01;  4.1653145E+03;0;  0.0000000E+00;  0.0000000E+00;  0.0000000E+00;0;  4.8696585E-03;  4.0000000E+04;  0.0000000E+00;  0.0000000E+00;  4.0000000E+04;  0.0000000E+00;  4.0000000E+04;  3.1018660E-03;  0.0000000E+00;  1.7677923E-03;  2.6020691E+03;
  5.0000001E-02;  9.9999998E-03; -3.1999999E-01;1983;  0.0000000E+00;  0.0000000E+00;  0.0000000E+00;  1.0062658E+03;  1.0000000E-01;  5.1910630E+03;0;  0.0000000E+00;  0.0000000E+00;  0.0000000E+00;0;  6.0136067E-03;  4.0000000E+04;  0.0000000E+00;  0.0000000E+00;  4.0000000E+04;  0.0000000E+00;  4.0000000E+04;  3.9925324E-03;  0.0000000E+00;  2.0210745E-03;  2.3946404E+03;
  5.0000001E-02;  9.9999998E-03; -3.1000000E-01;1984;  0.0000000E+00;  0.0000000E+00;  0.0000000E+00;  1.0076034E+03;  1.0000000E-01;  6.2992788E+03;0;  0.0000000E+00;  0.0000000E+00;  0.0000000E+00;0;  7.1831103E-03;  4.0000000E+04;  0.0000000E+00;  0.0000000E+00;  4.0000000E+04;  0.0000000E+00;  4.0000000E+04;  4.9639596E-03;  0.0000000E+00;  2.2191510E-03;  1.9864830E+03;
  5.9999999E-02;  9.9999998E-03; -4.4000000E-01;2001;  0.0000000E+00;  0.0000000E+00;  0.0000000E+00;  1.0000000E+03;  1.0000000E-01;  0.0000000E+00;0;  0.0000000E+00;  0.0000000E+00;  0.0000000E+00;0; -3.1081315E-06;  4.0000000E+04;  0.0000000E+00;  0.0000000E+00;  4.0000000E+04;  0.0000000E+00;  4.0000000E+04;  3.3806107E-06;  0.0000000E+00; -6.4887422E-06;  3.7624359E+00;
  5.9999999E-02;  9.9999998E-03; -4.3000001E-01;2002;  0.0000000E+00;  0.0000000E+00;  0.0000000E+00;  1.0000660E+03;  1.0000000E-01;  5.4615738E+01;0;  0.0000000E+00;  0.0000000E+00;  0.0000000E+00;0;  8.6297659E-06;  4.0000000E+04;  0.0000000E+00;  0.0000000E+00;  4.0000000E+04;  0.0000000E+00;  4.0000000E+04;  1.4313157E-05;  0.0000000E+00; -5.6833915E-06;  5.5143566E+01;
  5.9999999E-02;  9.9999998E-03; -4.1999999E-01;2003;  0.0000000E+00;  0.0000000E+00;  0.0000000E+00;  1.0001510E+03;  1.0000000E-01;  1.2513226E+02;0;  0.0000000E+00;  0.0000000E+00;  0.0000000E+00;0;  5.7189161E-05;  4.0000000E+04;  0.0000000E+00;  0.0000000E+00;  4.0000000E+04;  0.0000000E+00;  4.0000000E+04;  4.2105436E-05;  0.0000000E+00;  1.5083725E-05;  1.9712500E+02;
  5.9999999E-02;  9.9999998E-03; -4.1000000E-01;2004;  0.0000000E+00;  0.0000000E+00;  0.0000000E+00;  1.0002894E+03;  1.0000000E-01;  2.3979568E+02;0;  0.0000000E+00;  0.0000000E+00;  0.0000000E+00;0;  1.6969675E-04;  4.0000000E+04;  0.0000000E+00;  0.0000000E+00;  4.0000000E+04;  0.0000000E+00;  4.0000000E+04;  9.9121222E-05;  0.0000000E+00;  7.0575530E-05;  4.5366699E+02;
  5.9999999E-02;  9.9999998E-03; -4.0000001E-01;2005;  0.0000000E+00;  0.0000000E+00;  0.0000000E+00;  1.0004890E+03;  1.0000000E-01;  4.0512436E+02;0;  0.0000000E+00;  0.0000000E+00;  0.0000000E+00;0;  3.6909216E-04;  4.0000000E+04;  0.0000000E+00;  0.0000000E+00;  4.0000000E+04;  0.0000000E+00;  4.0000000E+04;  2.0075051E-04;  0.0000000E+00;  1.6834165E-04;  8.1309613E+02;
  5.9999999E-02;  9.9999998E-03; -3.8999999E-01;2006;  0.0000000E+00;  0.0000000E+00;  0.0000000E+00;  1.0007668E+03;  1.0000000E-01;  6.3524127E+02;0;  0.0000000E+00;  0.0000000E+00;  0.0000000E+00;0;  6.7291653E-04;  4.0000000E+04;  0.0000000E+00;  0.0000000E+00;  4.0000000E+04;  0.0000000E+00;  4.0000000E+04;  3.6479684E-04;  0.0000000E+00;  3.0811972E-04;  1.2375662E+03;
  5.9999999E-02;  9.9999998E-03; -3.8000000E-01;2007;  0.0000000E+00;  0.0000000E+00;  0.0000000E+00;  1.0011451E+03;  1.0000000E-01;  9.4871393E+02;0;  0.0000000E+00;  0.0000000E+00;  0.0000000E+00;0;  1.0956873E-03;  4.0000000E+04;  0.0000000E+00;  0.0000000E+00;  4.0000000E+04;  0.0000000E+00;  4.0000000E+04;  6.1052921E-04;  0.0000000E+00;  4.8515806E-04;  1.6797726E+03;
  5.9999999E-02;  9.9999998E-03; -3.7000000E-01;2008;  0.0000000E+00;  0.0000000E+00;  0.0000000E+00;  1.0016080E+03;  1.0000000E-01;  1.3322092E+03;0;  0.0000000E+00;  0.0000000E+00;  0.0000000E+00;0;  1.6504038E-03;  4.0000000E+04;  0.0000000E+00;  0.0000000E+00;  4.0000000E+04;  0.0000000E+00;  4.0000000E+04;  9.5719268E-04;  0.0000000E+00;  6.9321116E-04;  2.0936619E+03;
  5.9999999E-02;  9.9999998E-03; -3.6000001E-01;2009;  0.0000000E+00;  0.0000000E+00;  0.0000000E+00;  1.0022408E+03;  1.0000000E-01;  1.8564413E+03;0;  0.0000000E+00;  0.0000000E+00;  0.0000000E+00;0;  2.3472793E-03;  4.0000000E+04;  0.0000000E+00;  0.0000000E+00;  4.0000000E+04;  0.0000000E+00;  4.0000000E+04;  1.4217355E-03;  0.0000000E+00;  9.2554389E-04;  2.4376277E+03;
  5.9999999E-02;  9.9999998E-03; -3.4999999E-01;2010;  0.0000000E+00;  0.0000000E+00;  0.0000000E+00;  1.0030168E+03;  1.0000000E-01;  2.4993860E+03;0;  0.0000000E+00;  0.0000000E+00;  0.0000000E+00;0;  3.1899831E-03;  4.0000000E+04;  0.0000000E+00;  0.0000000E+00;  4.0000000E+04;  0.0000000E+00;  4.0000000E+04;  2.0157278E-03;  0.0000000E+00;  1.1742553E-03;  2.6737334E+03;
  5.9999999E-02;  9.9999998E-03; -3.4000000E-01;2011;  0.0000000E+00;  0.0000000E+00;  0.0000000E+00;  1.0039577E+03;  1.0000000E-01;  3.2789197E+03;0;  0.0000000E+00;  0.0000000E+00;  0.0000000E+00;0;  4.1706176E-03;  4.0000000E+04;  0.0000000E+00;  0.0000000E+00;  4.0000000E+04;  0.0000000E+00;  4.0000000E+04;  2.7418509E-03;  0.0000000E+00;  1.4287668E-03;  2.7667131E+03;
  5.9999999E-02;  9.9999998E-03; -3.3000001E-01;2012;  0.0000000E+00;  0.0000000E+00;  0.0000000E+00;  1.0050602E+03;  1.0000000E-01;  4.1922764E+03;0;  0.0000000E+00;  0.0000000E+00;  0.0000000E+00;0;  5.2649020E-03;  4.0000000E+04;  0.0000000E+00;  0.0000000E+00;  4.0000000E+04;  0.0000000E+00;  4.0000000E+04;  3.5907833E-03;  0.0000000E+00;  1.6741187E-03;  2.6851951E+03;
  5.9999999E-02;  9.9999998E-03; -3.1999999E-01;2013;  0.0000000E+00;  0.0000000E+00;  0.0000000E+00;  1.0063004E+03;  1.0000000E-01;  5.2197041E+03;0;  0.0000000E+00;  0.0000000E+00;  0.0000000E+00;0;  6.4291540E-03;  4.0000000E+04;  0.0000000E+00;  0.0000000E+00;  4.0000000E+04;  0.0000000E+00;  4.0000000E+04;  4.5393300E-03;  0.0000000E+00;  1.8898238E-03;  2.4074207E+03;
  5.9999999E-02;  9.9999998E-03; -3.1000000E-01;2014;  0.0000000E+00;  0.0000000E+00;  0.0000000E+00;  1.0076398E+03;  1.0000000E-01;  6.3294014E+03;0;  0.0000000E+00;  0.0000000E+00;  0.0000000E+00;0;  7.6009193E-03;  4.0000000E+04;  0.0000000E+00;  0.0000000E+00;  4.0000000E+04;  0.0000000E+00;  4.0000000E+04;  5.5509214E-03;  0.0000000E+00;  2.0499981E-03;  1.9384191E+03;
  7.0000000E-02;  9.9999998E-03; -4.4000000E-01;2031;  0.0000000E+00;  0.0000000E+00;  0.0000000E+00;  1.0000000E+03;  1.0000000E-01;  0.0000000E+00;0;  0.0000000E+00;  0.0000000E+00;  0.0000000E+00;0;  1.9102436E-07;  4.0000000E+04;  0.0000000E+00;  0.0000000E+00;  4.0000000E+04;  0.0000000E+00;  4.0000000E+04;  6.8447807E-06;  0.0000000E+00; -6.6537564E-06;  2.7517214E+00;
  7.0000000E-02;  9.9999998E-03; -4.3000001E-01;2032;  0.0000000E+00;  0.0000000E+00;  0.0000000E+00;  1.0000672E+03;  1.0000000E-01;  5.5702129E+01;0;  0.0000000E+00;  0.0000000E+00;  0.0000000E+00;0;  2.1841886E-05;  4.0000000E+04;  0.0000000E+00;  0.0000000E+00;  4.0000000E+04;  0.0000000E+00;  4.0000000E+04;  2.5218857E-05;  0.0000000E+00; -3.3769704E-06;  6.8789474E+01;
  7.0000000E-02;  9.9999998E-03; -4.1999999E-01;2033;  0.0000000E+00;  0.0000000E+00;  0.0000000E+00;  1.0001518E+03;  1.0000000E-01;  1.2572484E+02;0;  0.0000000E+00;  0.0000000E+00;  0.0000000E+00;0;  8.9186578E-05;  4.0000000E+04;  0.0000000E+00;  0.0000000E+00;  4.0000000E+04;  0.0000000E+00;  4.0000000E+04;  6.7261397E-05;  0.0000000E+00;  2.1925180E-05;  2.4562241E+02;
  7.0000000E-02;  9.9999998E-03; -4.1000000E-01;2034;  0.0000000E+00;  0.0000000E+00;  0.0000000E+00;  1.0002913E+03;  1.0000000E-01;  2.4137589E+02;0;  0.0000000E+00;  0.0000000E+00;  0.0000000E+00;0;  2.2960072E-04;  4.0000000E+04;  0.0000000E+00;  0.0000000E+00;  4.0000000E+04;  0.0000000E+00;  4.0000000E+04;  1.4694134E-04;  0.0000000E+00;  8.2659375E-05;  5.5446149E+02;
  7.0000000E-02;  9.9999998E-03; -4.0000001E-01;2035;  0.0000000E+00;  0.0000000E+00;  0.0000000E+00;  1.0004565E+03;  1.0000000E-01;  3.7826089E+02;0;  0.0000000E+00;  0.0000000E+00;  0.0000000E+00;0;  4.6507071E-04;  4.0000000E+04;  0.0000000E+00;  0.0000000E+00;  4.0000000E+04;  0.0000000E+00;  4.0000000E+04;  2.8068112E-04;  0.0000000E+00;  1.8438960E-04;  9.7599103E+02;
  7.0000000E-02;  9.9999998E-03; -3.8999999E-01;2036;  0.0000000E+00;  0.0000000E+00;  0.0000000E+00;  1.0007501E+03;  1.0000000E-01;  6.2141455E+02;0;  0.0000000E+00;  0.0000000E+00;  0.0000000E+00;0;  8.1200793E-04;  4.0000000E+04;  0.0000000E+00;  0.0000000E+00;  4.0000000E+04;  0.0000000E+00;  4.0000000E+04;  4.8689183E-04;  0.0000000E+00;  3.2511607E-04;  1.4633871E+03;
  7.0000000E-02;  9.9999998E-03; -3.8000000E-01;2037;  0.0000000E+00;  0.0000000E+00;  0.0000000E+00;  1.0011138E+03;  1.0000000E-01;  9.2273932E+02;0;  0.0000000E+00;  0.0000000E+00;  0.0000000E+00;0;  1.2840149E-03;  4.0000000E+04;  0.0000000E+00;  0.0000000E+00;  4.0000000E+04;  0.0000000E+00;  4.0000000E+04;  7.8513811E-04;  0.0000000E+00;  4.9887679E-04;  1.9617928E+03;
  7.0000000E-02;  9.9999998E-03; -3.7000000E-01;2038;  0.0000000E+00;  0.0000000E+00;  0.0000000E+00;  1.0015865E+03;  1.0000000E-01;  1.3144320E+03;0;  0.0000000E+00;  0.0000000E+00;  0.0000000E+00;0;  1.8931469E-03;  4.0000000E+04;  0.0000000E+00;  0.0000000E+00;  4.0000000E+04;  0.0000000E+00;  4.0000000E+04;  1.1945773E-03;  0.0000000E+00;  6.9856958E-04;  2.4193013E+03;
  7.0000000E-02;  9.9999998E-03; -3.6000001E-01;2039;  0.0000000E+00;  0.0000000E+00;  0.0000000E+00;  1.0022070E+03;  1.0000000E-01;  1.8283927E+03;0;  0.0000000E+00;  0.0000000E+00;  0.0000000E+00;0;  2.6481610E-03;  4.0000000E+04;  0.0000000E+00;  0.0000000E+00;  4.0000000E+04;  0.0000000E+00;  4.0000000E+04;  1.7314552E-03;  0.0000000E+00;  9.1670582E-04;  2.7892517E+03;
  7.0000000E-02;  9.9999998E-03; -3.4999999E-01;2040;  0.0000000E+00;  0.0000000E+00;  0.0000000E+00;  1.0029945E+03;  1.0000000E-01;  2.4809175E+03;0;  0.0000000E+00;  0.0000000E+00;  0.0000000E+00;0;  3.5503563E-03;  4.0000000E+04;  0.0000000E+00;  0.0000000E+00;  4.0000000E+04;  0.0000000E+00;  4.0000000E+04;  2.4057222E-03;  0.0000000E+00;  1.1446340E-03;  3.0279907E+03;
  7.0000000E-02;  9.9999998E-03; -3.4000000E-01;2041;  0.0000000E+00;  0.0000000E+00;  0.0000000E+00;  1.0039340E+03;  1.0000000E-01;  3.2592659E+03;0;  0.0000000E+00;  0.0000000E+00;  0.0000000E+00;0;  4.5884019E-03;  4.0000000E+04;  0.0000000E+00;  0.0000000E+00;  4.0000000E+04;  0.0000000E+00;  4.0000000E+04;  3.2172562E-03;  0.0000000E+00;  1.3711459E-03;  3.0932649E+03;
  7.0000000E-02;  9.9999998E-03; -3.3000001E-01;2042;  0.0000000E+00;  0.0000000E+00;  0.0000000E+00;  1.0050307E+03;  1.0000000E-01;  4.1678823E+03;0;  0.0000000E+00;  0.0000000E+00;  0.0000000E+00;0;  5.7337196E-03;  4.0000000E+04;  0.0000000E+00;  0.0000000E+00;  4.0000000E+04;  0.0000000E+00;  4.0000000E+04;  4.1524572E-03;  0.0000000E+00;  1.5812622E-03;  2.9468811E+03;
  7.0000000E-02;  9.9999998E-03; -3.1999999E-01;2043;  0.0000000E+00;  0.0000000E+00;  0.0000000E+00;  1.0062625E+03;  1.0000000E-01;  5.1882979E+03;0;  0.0000000E+00;  0.0000000E+00;  0.0000000E+00;0;  6.9382112E-03;  4.0000000E+04;  0.0000000E+00;  0.0000000E+00;  4.0000000E+04;  0.0000000E+00;  4.0000000E+04;  5.1821242E-03;  0.0000000E+00;  1.7560869E-03;  2.5644480E+03;
  7.0000000E-02;  9.9999998E-03; -3.1000000E-01;2044;  0.0000000E+00;  0.0000000E+00;  0.0000000E+00;  1.0075721E+03;  1.0000000E-01;  6.2734028E+03;0;  0.0000000E+00;  0.0000000E+00;  0.0000000E+00;0;  8.1359623E-03;  4.0000000E+04;  0.0000000E+00;  0.0000000E+00;  4.0000000E+04;  0.0000000E+00;  4.0000000E+04;  6.2616630E-03;  0.0000000E+00;  1.8742989E-03;  1.9579822E+03;
  7.9999998E-02;  9.9999998E-03; -4.4000000E-01;2061;  0.0000000E+00;  0.0000000E+00;  0.0000000E+00;  1.0000000E+03;  1.0000000E-01;  0.0000000E+00;0;  0.0000000E+00;  0.0000000E+00;  0.0000000E+00;0;  6.9214702E-06;  4.0000000E+04;  0.0000000E+00;  0.0000000E+00;  4.0000000E+04;  0.0000000E+00;  4.0000000E+04;  1.0682002E-05;  0.0000000E+00; -3.7605312E-06;  1.5279034E+01;
  7.9999998E-02;  9.9999998E-03; -4.3000001E-01;2062;  0.0000000E+00;  0.0000000E+00;  0.0000000E+00;  1.0000687E+03;  1.0000000E-01;  5.6887280E+01;0;  0.0000000E+00;  0.0000000E+00;  0.0000000E+00;0;  4.2309781E-05;  4.0000000E+04;  0.0000000E+00;  0.0000000E+00;  4.0000000E+04;  0.0000000E+00;  4.0000000E+04;  3.6770954E-05;  0.0000000E+00;  5.5388282E-06;  1.1483703E+02;
  7.9999998E-02;  9.9999998E-03; -4.1999999E-01;2063;  0.0000000E+00;  0.0000000E+00;  0.0000000E+00;  1.0001441E+03;  1.0000000E-01;  1.1940403E+02;0;  0.0000000E+00;  0.0000000E+00;  0.0000000E+00;0;  1.3240469E-04;  4.0000000E+04;  0.0000000E+00;  0.0000000E+00;  4.0000000E+04;  0.0000000E+00;  4.0000000E+04;  9.3183553E-05;  0.0000000E+00;  3.9221133E-05;  3.4860040E+02;
  7.9999998E-02;  9.9999998E-03; -4.1000000E-01;2064;  0.0000000E+00;  0.0000000E+00;  0.0000000E+00;  1.0002736E+03;  1.0000000E-01;  2.2666026E+02;0;  0.0000000E+00;  0.0000000E+00;  0.0000000E+00;0;  3.0351634E-04;  4.0000000E+04;  0.0000000E+00;  0.0000000E+00;  4.0000000E+04;  0.0000000E+00;  4.0000000E+04;  1.9537893E-04;  0.0000000E+00;  1.0813741E-04;  7.3264886E+02;
  7.9999998E-02;  9.9999998E-03; -4.0000001E-01;2065;  0.0000000E+00;  0.0000000E+00;  0.0000000E+00;  1.0004404E+03;  1.0000000E-01;  3.6492795E+02;0;  0.0000000E+00;  0.0000000E+00;  0.0000000E+00;0;  5.7627092E-04;  4.0000000E+04;  0.0000000E+00;  0.0000000E+00;  4.0000000E+04;  0.0000000E+00;  4.0000000E+04;  3.6088453E-04;  0.0000000E+00;  2.1538640E-04;  1.2378463E+03;
  7.9999998E-02;  9.9999998E-03; -3.8999999E-01;2066;  0.0000000E+00;  0.0000000E+00;  0.0000000E+00;  1.0007198E+03;  1.0000000E-01;  5.9642755E+02;0;  0.0000000E+00;  0.0000000E+00;  0.0000000E+00;0;  9.6641108E-04;  4.0000000E+04;  0.0000000E+00;  0.0000000E+00;  4.0000000E+04;  0.0000000E+00;  4.0000000E+04;  6.0901366E-04;  0.0000000E+00;  3.5739740E-04;  1.8083126E+03;
  7.9999998E-02;  9.9999998E-03; -3.8000000E-01;2067;  0.0000000E+00;  0.0000000E+00;  0.0000000E+00;  1.0010795E+03;  1.0000000E-01;  8.9429572E+02;0;  0.0000000E+00;  0.0000000E+00;  0.0000000E+00;0;  1.4874325E-03;  4.0000000E+04;  0.0000000E+00;  0.0000000E+00;  4.0000000E+04;  0.0000000E+00;  4.0000000E+04;  9.5996913E-04;  0.0000000E+00;  5.2746345E-04;  2.3825745E+03;
  7.9999998E-02;  9.9999998E-03; -3.7000000E-01;2068;  0.0000000E+00;  0.0000000E+00;  0.0000000E+00;  1.0015594E+03;  1.0000000E-01;  1.2919141E+03;0;  0.0000000E+00;  0.0000000E+00;  0.0000000E+00;0;  2.1511551E-03;  4.0000000E+04;  0.0000000E+00;  0.0000000E+00;  4.0000000E+04;  0.0000000E+00;  4.0000000E+04;  1.4330284E-03;  0.0000000E+00;  7.1812677E-04;  2.9036965E+03;
  7.9999998E-02;  9.9999998E-03; -3.6000001E-01;2069;  0.0000000E+00;  0.0000000E+00;  0.0000000E+00;  1.0021745E+03;  1.0000000E-01;  1.8015293E+03;0;  0.0000000E+00;  0.0000000E+00;  0.0000000E+00;0;  2.9653765E-03;  4.0000000E+04;  0.0000000E+00;  0.0000000E+00;  4.0000000E+04;  0.0000000E+00;  4.0000000E+04;  2.0437955E-03;  0.0000000E+00;  9.2158094E-04;  3.3196711E+03;
  7.9999998E-02;  9.9999998E-03; -3.4999999E-01;2070;  0.0000000E+00;  0.0000000E+00;  0.0000000E+00;  1.0029593E+03;  1.0000000E-01;  2.4516838E+03;0;  0.0000000E+00;  0.0000000E+00;  0.0000000E+00;0;  3.9293873E-03;  4.0000000E+04;  0.0000000E+00;  0.0000000E+00;  4.0000000E+04;  0.0000000E+00;  4.0000000E+04;  2.8006497E-03;  0.0000000E+00;  1.1287375E-03;  3.5789587E+03;
  7.9999998E-02;  9.9999998E-03; -3.4000000E-01;2071;  0.0000000E+00;  0.0000000E+00;  0.0000000E+00;  1.0038970E+03;  1.0000000E-01;  3.2285508E+03;0;  0.0000000E+00;  0.0000000E+00;  0.0000000E+00;0;  5.0286474E-03;  4.0000000E+04;  0.0000000E+00;  0.0000000E+00;  4.0000000E+04;  0.0000000E+00;  4.0000000E+04;  3.7007537E-03;  0.0000000E+00;  1.3278939E-03;  3.6269875E+03;
  7.9999998E-02;  9.9999998E-03; -3.3000001E-01;2072;  0.0000000E+00;  0.0000000E+00;  0.0000000E+00;  1.0049901E+03;  1.0000000E-01;  4.1342041E+03;0;  0.0000000E+00;  0.0000000E+00;  0.0000000E+00;0;  6.2301573E-03;  4.0000000E+04;  0.0000000E+00;  0.0000000E+00;  4.0000000E+04;  0.0000000E+00;  4.0000000E+04;  4.7263089E-03;  0.0000000E+00;  1.5038485E-03;  3.4093276E+03;
  7.9999998E-02;  9.9999998E-03; -3.1999999E-01;2073;  0.0000000E+00;  0.0000000E+00;  0.0000000E+00;  1.0061989E+03;  1.0000000E-01;  5.1356572E+03;0;  0.0000000E+00;  0.0000000E+00;  0.0000000E+00;0;  7.4804910E-03;  4.0000000E+04;  0.0000000E+00;  0.0000000E+00;  4.0000000E+04;  0.0000000E+00;  4.0000000E+04;  5.8420114E-03;  0.0000000E+00;  1.6384798E-03;  2.8860457E+03;
  7.9999998E-02;  9.9999998E-03; -3.1000000E-01;2074;  0.0000000E+00;  0.0000000E+00;  0.0000000E+00;  1.0074782E+03;  1.0000000E-01;  6.1955776E+03;0;  0.0000000E+00;  0.0000000E+00;  0.0000000E+00;0;  8.7083541E-03;  4.0000000E+04;  0.0000000E+00;  0.0000000E+00;  4.0000000E+04;  0.0000000E+00;  4.0000000E+04;  6.9949101E-03;  0.0000000E+00;  1.7134438E-03;  2.0561018E+03;
  9.0000004E-02;  9.9999998E-03; -4.4000000E-01;2091;  0.0000000E+00;  0.0000000E+00;  0.0000000E+00;  1.0000000E+03;  1.0000000E-01;  0.0000000E+00;0;  0.0000000E+00;  0.0000000E+00;  0.0000000E+00;0;  1.6942635E-05;  4.0000000E+04;  0.0000000E+00;  0.0000000E+00;  4.0000000E+04;  0.0000000E+00;  4.0000000E+04;  1.4466470E-05;  0.0000000E+00;  2.4761648E-06;  4.5012188E+01;
  9.0000004E-02;  9.9999998E-03; -4.3000001E-01;2092;  0.0000000E+00;  0.0000000E+00;  0.0000000E+00;  1.0000709E+03;  1.0000000E-01;  5.8763771E+01;0;  0.0000000E+00;  0.0000000E+00;  0.0000000E+00;0;  6.8617068E-05;  4.0000000E+04;  0.0000000E+00;  0.0000000E+00;  4.0000000E+04;  0.0000000E+00;  4.0000000E+04;  4.7638747E-05;  0.0000000E+00;  2.0978317E-05;  1.9513815E+02;
  9.0000004E-02;  9.9999998E-03; -4.1999999E-01;2093;  0.0000000E+00;  0.0000000E+00;  0.0000000E+00;  1.0001380E+03;  1.0000000E-01;  1.1436713E+02;0;  0.0000000E+00;  0.0000000E+00;  0.0000000E+00;0;  1.8310540E-04;  4.0000000E+04;  0.0000000E+00;  0.0000000E+00;  4.0000000E+04;  0.0000000E+00;  4.0000000E+04;  1.1694350E-04;  0.0000000E+00;  6.6161898E-05;  5.0593695E+02;
  9.0000004E-02;  9.9999998E-03; -4.1000000E-01;2094;  0.0000000E+00;  0.0000000E+00;  0.0000000E+00;  1.0002422E+03;  1.0000000E-01;  2.0068568E+02;0;  0.0000000E+00;  0.0000000E+00;  0.0000000E+00;0;  3.8483751E-04;  4.0000000E+04;  0.0000000E+00;  0.0000000E+00;  4.0000000E+04;  0.0000000E+00;  4.0000000E+04;  2.3938002E-04;  0.0000000E+00;  1.4545748E-04;  9.8474072E+02;
  9.0000004E-02;  9.9999998E-03; -4.0000001E-01;2095;  0.0000000E+00;  0.0000000E+00;  0.0000000E+00;  1.0004176E+03;  1.0000000E-01;  3.4596552E+02;0;  0.0000000E+00;  0.0000000E+00;  0.0000000E+00;0;  6.9311215E-04;  4.0000000E+04;  0.0000000E+00;  0.0000000E+00;  4.0000000E+04;  0.0000000E+00;  4.0000000E+04;  4.3385409E-04;  0.0000000E+00;  2.5925806E-04;  1.5914801E+03;
  9.0000004E-02;  9.9999998E-03; -3.8999999E-01;2096;  0.0000000E+00;  0.0000000E+00;  0.0000000E+00;  1.0006890E+03;  1.0000000E-01;  5.7084802E+02;0;  0.0000000E+00;  0.0000000E+00;  0.0000000E+00;0;  1.1235289E-03;  4.0000000E+04;  0.0000000E+00;  0.0000000E+00;  4.0000000E+04;  0.0000000E+00;  4.0000000E+04;  7.2082295E-04;  0.0000000E+00;  4.0270592E-04;  2.2618977E+03;
  9.0000004E-02;  9.9999998E-03; -3.8000000E-01;2097;  0.0000000E+00;  0.0000000E+00;  0.0000000E+00;  1.0010598E+03;  1.0000000E-01;  8.7799988E+02;0;  0.0000000E+00;  0.0000000E+00;  0.0000000E+00;0;  1.6899406E-03;  4.0000000E+04;  0.0000000E+00;  0.0000000E+00;  4.0000000E+04;  0.0000000E+00;  4.0000000E+04;  1.1211013E-03;  0.0000000E+00;  5.6883926E-04;  2.9293015E+03;
  9.0000004E-02;  9.9999998E-03; -3.7000000E-01;2098;  0.0000000E+00;  0.0000000E+00;  0.0000000E+00;  1.0015359E+03;  1.0000000E-01;  1.2724579E+03;0;  0.0000000E+00;  0.0000000E+00;  0.0000000E+00;0;  2.4041648E-03;  4.0000000E+04;  0.0000000E+00;  0.0000000E+00;  4.0000000E+04;  0.0000000E+00;  4.0000000E+04;  1.6537978E-03;  0.0000000E+00;  7.5036701E-04;  3.5328125E+03;
  9.0000004E-02;  9.9999998E-03; -3.6000001E-01;2099;  0.0000000E+00;  0.0000000E+00;  0.0000000E+00;  1.0021608E+03;  1.0000000E-01;  1.7901716E+03;0;  0.0000000E+00;  0.0000000E+00;  0.0000000E+00;0;  3.2730331E-03;  4.0000000E+04;  0.0000000E+00;  0.0000000E+00;  4.0000000E+04;  0.0000000E+00;  4.0000000E+04;  2.3333996E-03;  0.0000000E+00;  9.3963358E-04;  4.0155325E+03;
  9.0000004E-02;  9.9999998E-03; -3.4999999E-01;2100;  0.0000000E+00;  0.0000000E+00;  0.0000000E+00;  1.0029547E+03;  1.0000000E-01;  2.4479307E+03;0;  0.0000000E+00;  0.0000000E+00;  0.0000000E+00;0;  4.2935708E-03;  4.0000000E+04;  0.0000000E+00;  0.0000000E+00;  4.0000000E+04;  0.0000000E+00;  4.0000000E+04;  3.1660760E-03;  0.0000000E+00;  1.1274946E-03;  4.3186313E+03;
  9.0000004E-02;  9.9999998E-03; -3.4000000E-01;2101;  0.0000000E+00;  0.0000000E+00;  0.0000000E+00;  1.0038987E+03;  1.0000000E-01;  3.2300320E+03;0;  0.0000000E+00;  0.0000000E+00;  0.0000000E+00;0;  5.4474929E-03;  4.0000000E+04;  0.0000000E+00;  0.0000000E+00;  4.0000000E+04;  0.0000000E+00;  4.0000000E+04;  4.1455515E-03;  0.0000000E+00;  1.3019412E-03;  4.3787134E+03;
  9.0000004E-02;  9.9999998E-03; -3.3000001E-01;2102;  0.0000000E+00;  0.0000000E+00;  0.0000000E+00;  1.0049912E+03;  1.0000000E-01;  4.1350928E+03;0;  0.0000000E+00;  0.0000000E+00;  0.0000000E+00;0;  6.6965674E-03;  4.0000000E+04;  0.0000000E+00;  0.0000000E+00;  4.0000000E+04;  0.0000000E+00;  4.0000000E+04;  5.2492740E-03;  0.0000000E+00;  1.4472936E-03;  4.1346870E+03;
  9.0000004E-02;  9.9999998E-03; -3.1999999E-01;2103;  0.0000000E+00;  0.0000000E+00;  0.0000000E+00;  1.0061928E+03;  1.0000000E-01;  5.1306201E+03;0;  0.0000000E+00;  0.0000000E+00;  0.0000000E+00;0;  7.9805311E-03;  4.0000000E+04;  0.0000000E+00;  0.0000000E+00;  4.0000000E+04;  0.0000000E+00;  4.0000000E+04;  6.4355033E-03;  0.0000000E+00;  1.5450276E-03;  3.5526855E+03;
  9.0000004E-02;  9.9999998E-03; -3.1000000E-01;2104;  0.0000000E+00;  0.0000000E+00;  0.0000000E+00;  1.0074474E+03;  1.0000000E-01;  6.1699985E+03;0;  0.0000000E+00;  0.0000000E+00;  0.0000000E+00;0;  9.2198905E-03;  4.0000000E+04;  0.0000000E+00;  0.0000000E+00;  4.0000000E+04;  0.0000000E+00;  4.0000000E+04;  7.6426370E-03;  0.0000000E+00;  1.5772535E-03;  2.6799587E+03;
  1.0000000E-01;  9.9999998E-03; -4.4000000E-01;2121;  0.0000000E+00;  0.0000000E+00;  0.0000000E+00;  1.0000000E+03;  1.0000000E-01;  0.0000000E+00;0;  0.0000000E+00;  0.0000000E+00;  0.0000000E+00;0;  2.9279861E-05;  4.0000000E+04;  0.0000000E+00;  0.0000000E+00;  4.0000000E+04;  0.0000000E+00;  4.0000000E+04;  1.7736005E-05;  0.0000000E+00;  1.1543855E-05;  9.0756195E+01;
  1.0000000E-01;  9.9999998E-03; -4.3000001E-01;2122;  0.0000000E+00;  0.0000000E+00;  0.0000000E+00;  1.0000734E+03;  1.0000000E-01;  6.0837784E+01;0;  0.0000000E+00;  0.0000000E+00;  0.0000000E+00;0;  9.7886455E-05;  4.0000000E+04;  0.0000000E+00;  0.0000000E+00;  4.0000000E+04;  0.0000000E+00;  4.0000000E+04;  5.6538745E-05;  0.0000000E+00;  4.1347706E-05;  3.0565601E+02;
  1.0000000E-01;  9.9999998E-03; -4.1999999E-01;2123;  0.0000000E+00;  0.0000000E+00;  0.0000000E+00;  1.0001205E+03;  1.0000000E-01;  9.9849030E+01;0;  0.0000000E+00;  0.0000000E+00;  0.0000000E+00;0;  2.3582806E-04;  4.0000000E+04;  0.0000000E+00;  0.0000000E+00;  4.0000000E+04;  0.0000000E+00;  4.0000000E+04;  1.3606997E-04;  0.0000000E+00;  9.9758094E-05;  7.0836456E+02;
  1.0000000E-01;  9.9999998E-03; -4.1000000E-01;2124;  0.0000000E+00;  0.0000000E+00;  0.0000000E+00;  1.0002087E+03;  1.0000000E-01;  1.7293338E+02;0;  0.0000000E+00;  0.0000000E+00;  0.0000000E+00;0;  4.6542048E-04;  4.0000000E+04;  0.0000000E+00;  0.0000000E+00;  4.0000000E+04;  0.0000000E+00;  4.0000000E+04;  2.7501871E-04;  0.0000000E+00;  1.9040178E-04;  1.2951439E+03;
  1.0000000E-01;  9.9999998E-03; -4.0000001E-01;2125;  0.0000000E+00;  0.0000000E+00;  0.0000000E+00;  1.0003998E+03;  1.0000000E-01;  3.3124988E+02;0;  0.0000000E+00;  0.0000000E+00;  0.0000000E+00;0;  8.0482464E-04;  4.0000000E+04;  0.0000000E+00;  0.0000000E+00;  4.0000000E+04;  0.0000000E+00;  4.0000000E+04;  4.9392332E-04;  0.0000000E+00;  3.1090129E-04;  2.0143889E+03;
  1.0000000E-01;  9.9999998E-03; -3.8999999E-01;2126;  0.0000000E+00;  0.0000000E+00;  0.0000000E+00;  1.0006708E+03;  1.0000000E-01;  5.5573737E+02;0;  0.0000000E+00;  0.0000000E+00;  0.0000000E+00;0;  1.2697104E-03;  4.0000000E+04;  0.0000000E+00;  0.0000000E+00;  4.0000000E+04;  0.0000000E+00;  4.0000000E+04;  8.1435411E-04;  0.0000000E+00;  4.5535623E-04;  2.7944951E+03;
  1.0000000E-01;  9.9999998E-03; -3.8000000E-01;2127;  0.0000000E+00;  0.0000000E+00;  0.0000000E+00;  1.0010533E+03;  1.0000000E-01;  8.7266669E+02;0;  0.0000000E+00;  0.0000000E+00;  0.0000000E+00;0;  1.8743559E-03;  4.0000000E+04;  0.0000000E+00;  0.0000000E+00;  4.0000000E+04;  0.0000000E+00;  4.0000000E+04;  1.2574076E-03;  0.0000000E+00;  6.1694835E-04;  3.5658975E+03;
  1.0000000E-01;  9.9999998E-03; -3.7000000E-01;2128;  0.0000000E+00;  0.0000000E+00;  0.0000000E+00;  1.0015362E+03;  1.0000000E-01;  1.2727542E+03;0;  0.0000000E+00;  0.0000000E+00;  0.0000000E+00;0;  2.6303849E-03;  4.0000000E+04;  0.0000000E+00;  0.0000000E+00;  4.0000000E+04;  0.0000000E+00;  4.0000000E+04;  1.8414039E-03;  0.0000000E+00;  7.8898092E-04;  4.2677725E+03;
  1.0000000E-01;  9.9999998E-03; -3.6000001E-01;2129;  0.0000000E+00;  0.0000000E+00;  0.0000000E+00;  1.0021863E+03;  1.0000000E-01;  1.8113068E+03;0;  0.0000000E+00;  0.0000000E+00;  0.0000000E+00;0;  3.5431455E-03;  4.0000000E+04;  0.0000000E+00;  0.0000000E+00;  4.0000000E+04;  0.0000000E+00;  4.0000000E+04;  2.5787584E-03;  0.0000000E+00;  9.6438703E-04;  4.8455928E+03;
  1.0000000E-01;  9.9999998E-03; -3.4999999E-01;2130;  0.0000000E+00;  0.0000000E+00;  0.0000000E+00;  1.0030032E+03;  1.0000000E-01;  2.4881272E+03;0;  0.0000000E+00;  0.0000000E+00;  0.0000000E+00;0;  4.6065236E-03;  4.0000000E+04;  0.0000000E+00;  0.0000000E+00;  4.0000000E+04;  0.0000000E+00;  4.0000000E+04;  3.4721557E-03;  0.0000000E+00;  1.1343677E-03;  5.2482461E+03;
  1.0000000E-01;  9.9999998E-03; -3.4000000E-01;2131;  0.0000000E+00;  0.0000000E+00;  0.0000000E+00;  1.0039757E+03;  1.0000000E-01;  3.2938328E+03;0;  0.0000000E+00;  0.0000000E+00;  0.0000000E+00;0;  5.7973415E-03;  4.0000000E+04;  0.0000000E+00;  0.0000000E+00;  4.0000000E+04;  0.0000000E+00;  4.0000000E+04;  4.5104651E-03;  0.0000000E+00;  1.2868764E-03;  5.4323750E+03;
  1.0000000E-01;  9.9999998E-03; -3.3000001E-01;2132;  0.0000000E+00;  0.0000000E+00;  0.0000000E+00;  1.0050854E+03;  1.0000000E-01;  4.2131152E+03;0;  0.0000000E+00;  0.0000000E+00;  0.0000000E+00;0;  7.0707398E-03;  4.0000000E+04;  0.0000000E+00;  0.0000000E+00;  4.0000000E+04;  0.0000000E+00;  4.0000000E+04;  5.6651295E-03;  0.0000000E+00;  1.4056105E-03;  5.3792119E+03;
  1.0000000E-01;  9.9999998E-03; -3.1999999E-01;2133;  0.0000000E+00;  0.0000000E+00;  0.0000000E+00;  1.0062988E+03;  1.0000000E-01;  5.2184204E+03;0;  0.0000000E+00;  0.0000000E+00;  0.0000000E+00;0;  8.3580287E-03;  4.0000000E+04;  0.0000000E+00;  0.0000000E+00;  4.0000000E+04;  0.0000000E+00;  4.0000000E+04;  6.8874941E-03;  0.0000000E+00;  1.4705349E-03;  5.1259282E+03;
  1.0000000E-01;  9.9999998E-03; -3.1000000E-01;2134;  0.0000000E+00;  0.0000000E+00;  0.0000000E+00;  1.0075443E+03;  1.0000000E-01;  6.2502925E+03;0;  0.0000000E+00;  0.0000000E+00;  0.0000000E+00;0;  9.5691625E-03;  4.0000000E+04;  0.0000000E+00;  0.0000000E+00;  4.0000000E+04;  0.0000000E+00;  4.0000000E+04;  8.1078149E-03;  0.0000000E+00;  1.4613479E-03;  4.8029893E+03;
  1.1000000E-01;  9.9999998E-03; -4.4000000E-01;2151;  0.0000000E+00;  0.0000000E+00;  0.0000000E+00;  1.0000000E+03;  1.0000000E-01;  0.0000000E+00;0;  0.0000000E+00;  0.0000000E+00;  0.0000000E+00;0;  4.2214524E-05;  4.0000000E+04;  0.0000000E+00;  0.0000000E+00;  4.0000000E+04;  0.0000000E+00;  4.0000000E+04;  2.0014673E-05;  0.0000000E+00;  2.2199853E-05;  1.5144417E+02;
  1.1000000E-01;  9.9999998E-03; -4.3000001E-01;2152;  0.0000000E+00;  0.0000000E+00;  0.0000000E+00;  1.0000651E+03;  1.0000000E-01;  5.3924400E+01;0;  0.0000000E+00;  0.0000000E+00;  0.0000000E+00;0;  1.2636418E-04;  4.0000000E+04;  0.0000000E+00;  0.0000000E+00;  4.0000000E+04;  0.0000000E+00;  4.0000000E+04;  6.2508552E-05;  0.0000000E+00;  6.3855630E-05;  4.4249728E+02;
  1.1000000E-01;  9.9999998E-03; -4.1999999E-01;2153;  0.0000000E+00;  0.0000000E+00;  0.0000000E+00;  1.0001102E+03;  1.0000000E-01;  9.1256676E+01;0;  0.0000000E+00;  0.0000000E+00;  0.0000000E+00;0;  2.8452804E-04;  4.0000000E+04;  0.0000000E+00;  0.0000000E+00;  4.0000000E+04;  0.0000000E+00;  4.0000000E+04;  1.4906265E-04;  0.0000000E+00;  1.3546539E-04;  9.4692505E+02;
  1.1000000E-01;  9.9999998E-03; -4.1000000E-01;2154;  0.0000000E+00;  0.0000000E+00;  0.0000000E+00;  1.0001992E+03;  1.0000000E-01;  1.6503236E+02;0;  0.0000000E+00;  0.0000000E+00;  0.0000000E+00;0;  5.3696131E-04;  4.0000000E+04;  0.0000000E+00;  0.0000000E+00;  4.0000000E+04;  0.0000000E+00;  4.0000000E+04;  3.0008596E-04;  0.0000000E+00;  2.3687535E-04;  1.6467979E+03;
  1.1000000E-01;  9.9999998E-03; -4.0000001E-01;2155;  0.0000000E+00;  0.0000000E+00;  0.0000000E+00;  1.0004040E+03;  1.0000000E-01;  3.3470657E+02;0;  0.0000000E+00;  0.0000000E+00;  0.0000000E+00;0;  9.0073777E-04;  4.0000000E+04;  0.0000000E+00;  0.0000000E+00;  4.0000000E+04;  0.0000000E+00;  4.0000000E+04;  5.3772231E-04;  0.0000000E+00;  3.6301545E-04;  2.4777114E+03;
  1.1000000E-01;  9.9999998E-03; -3.8999999E-01;2156;  0.0000000E+00;  0.0000000E+00;  0.0000000E+00;  1.0006815E+03;  1.0000000E-01;  5.6462598E+02;0;  0.0000000E+00;  0.0000000E+00;  0.0000000E+00;0;  1.3915176E-03;  4.0000000E+04;  0.0000000E+00;  0.0000000E+00;  4.0000000E+04;  0.0000000E+00;  4.0000000E+04;  8.8444952E-04;  0.0000000E+00;  5.0706806E-04;  3.3628018E+03;
  1.1000000E-01;  9.9999998E-03; -3.8000000E-01;2157;  0.0000000E+00;  0.0000000E+00;  0.0000000E+00;  1.0010742E+03;  1.0000000E-01;  8.8995013E+02;0;  0.0000000E+00;  0.0000000E+00;  0.0000000E+00;0;  2.0237537E-03;  4.0000000E+04;  0.0000000E+00;  0.0000000E+00;  4.0000000E+04;  0.0000000E+00;  4.0000000E+04;  1.3611845E-03;  0.0000000E+00;  6.6256919E-04;  4.2369751E+03;
  1.1000000E-01;  9.9999998E-03; -3.7000000E-01;2158;  0.0000000E+00;  0.0000000E+00;  0.0000000E+00;  1.0015978E+03;  1.0000000E-01;  1.3238145E+03;0;  0.0000000E+00;  0.0000000E+00;  0.0000000E+00;0;  2.8083604E-03;  4.0000000E+04;  0.0000000E+00;  0.0000000E+00;  4.0000000E+04;  0.0000000E+00;  4.0000000E+04;  1.9846566E-03;  0.0000000E+00;  8.2370383E-04;  5.0554604E+03;
  1.1000000E-01;  9.9999998E-03; -3.6000001E-01;2159;  0.0000000E+00;  0.0000000E+00;  0.0000000E+00;  1.0022814E+03;  1.0000000E-01;  1.8901194E+03;0;  0.0000000E+00;  0.0000000E+00;  0.0000000E+00;0;  3.7482511E-03;  4.0000000E+04;  0.0000000E+00;  0.0000000E+00;  4.0000000E+04;  0.0000000E+00;  4.0000000E+04;  2.7639540E-03;  0.0000000E+00;  9.8429725E-04;  5.7957173E+03;
  1.1000000E-01;  9.9999998E-03; -3.4999999E-01;2160;  0.0000000E+00;  0.0000000E+00;  0.0000000E+00;  1.0031415E+03;  1.0000000E-01;  2.6026919E+03;0;  0.0000000E+00;  0.0000000E+00;  0.0000000E+00;0;  4.8328247E-03;  4.0000000E+04;  0.0000000E+00;  0.0000000E+00;  4.0000000E+04;  0.0000000E+00;  4.0000000E+04;  3.6965972E-03;  0.0000000E+00;  1.1362273E-03;  6.4614189E+03;
  1.1000000E-01;  9.9999998E-03; -3.4000000E-01;2161;  0.0000000E+00;  0.0000000E+00;  0.0000000E+00;  1.0041577E+03;  1.0000000E-01;  3.4445447E+03;0;  0.0000000E+00;  0.0000000E+00;  0.0000000E+00;0;  6.0324394E-03;  4.0000000E+04;  0.0000000E+00;  0.0000000E+00;  4.0000000E+04;  0.0000000E+00;  4.0000000E+04;  4.7647390E-03;  0.0000000E+00;  1.2677006E-03;  7.0870742E+03;
  1.1000000E-01;  9.9999998E-03; -3.3000001E-01;2162;  0.0000000E+00;  0.0000000E+00;  0.0000000E+00;  1.0053146E+03;  1.0000000E-01;  4.4030361E+03;0;  0.0000000E+00;  0.0000000E+00;  0.0000000E+00;0;  7.2941240E-03;  4.0000000E+04;  0.0000000E+00;  0.0000000E+00;  4.0000000E+04;  0.0000000E+00;  4.0000000E+04;  5.9322296E-03;  0.0000000E+00;  1.3618944E-03;  7.7274409E+03;
  1.1000000E-01;  9.9999998E-03; -3.1999999E-01;2163;  0.0000000E+00;  0.0000000E+00;  0.0000000E+00;  1.0065646E+03;  1.0000000E-01;  5.4386611E+03;0;  0.0000000E+00;  0.0000000E+00;  0.0000000E+00;0;  8.5396217E-03;  4.0000000E+04;  0.0000000E+00;  0.0000000E+00;  4.0000000E+04;  0.0000000E+00;  4.0000000E+04;  7.1428772E-03;  0.0000000E+00;  1.3967445E-03;  8.4142412E+03;
  1.1000000E-01;  9.9999998E-03; -3.1000000E-01;2164;  0.0000000E+00;  0.0000000E+00;  0.0000000E+00;  1.0078313E+03;  1.0000000E-01;  6.4881128E+03;0;  0.0000000E+00;  0.0000000E+00;  0.0000000E+00;0;  9.6675660E-03;  4.0000000E+04;  0.0000000E+00;  0.0000000E+00;  4.0000000E+04;  0.0000000E+00;  4.0000000E+04;  8.3202766E-03;  0.0000000E+00;  1.3472895E-03;  9.1003320E+03;
  1.2000000E-01;  9.9999998E-03; -4.4000000E-01;2181;  0.0000000E+00;  0.0000000E+00;  0.0000000E+00;  1.0000000E+03;  1.0000000E-01;  0.0000000E+00;0;  0.0000000E+00;  0.0000000E+00;  0.0000000E+00;0;  5.3719850E-05;  4.0000000E+04;  0.0000000E+00;  0.0000000E+00;  4.0000000E+04;  0.0000000E+00;  4.0000000E+04;  2.0945125E-05;  0.0000000E+00;  3.2774726E-05;  2.3453905E+02;
  1.2000000E-01;  9.9999998E-03; -4.3000001E-01;2182;  0.0000000E+00;  0.0000000E+00;  0.0000000E+00;  1.0000621E+03;  1.0000000E-01;  5.1455334E+01;0;  0.0000000E+00;  0.0000000E+00;  0.0000000E+00;0;  1.5024637E-04;  4.0000000E+04;  0.0000000E+00;  0.0000000E+00;  4.0000000E+04;  0.0000000E+00;  4.0000000E+04;  6.5111824E-05;  0.0000000E+00;  8.5134539E-05;  6.1986151E+02;
  1.2000000E-01;  9.9999998E-03; -4.1999999E-01;2183;  0.0000000E+00;  0.0000000E+00;  0.0000000E+00;  1.0001042E+03;  1.0000000E-01;  8.6318550E+01;0;  0.0000000E+00;  0.0000000E+00;  0.0000000E+00;0;  3.2366364E-04;  4.0000000E+04;  0.0000000E+00;  0.0000000E+00;  4.0000000E+04;  0.0000000E+00;  4.0000000E+04;  1.5550503E-04;  0.0000000E+00;  1.6815863E-04;  1.2387209E+03;
  1.2000000E-01;  9.9999998E-03; -4.1000000E-01;2184;  0.0000000E+00;  0.0000000E+00;  0.0000000E+00;  1.0002102E+03;  1.0000000E-01;  1.7411853E+02;0;  0.0000000E+00;  0.0000000E+00;  0.0000000E+00;0;  5.9209624E-04;  4.0000000E+04;  0.0000000E+00;  0.0000000E+00;  4.0000000E+04;  0.0000000E+00;  4.0000000E+04;  3.1403478E-04;  0.0000000E+00;  2.7806149E-04;  2.0487720E+03;
  1.2000000E-01;  9.9999998E-03; -4.0000001E-01;2185;  0.0000000E+00;  0.0000000E+00;  0.0000000E+00;  1.0004177E+03;  1.0000000E-01;  3.4606430E+02;0;  0.0000000E+00;  0.0000000E+00;  0.0000000E+00;0;  9.7143103E-04;  4.0000000E+04;  0.0000000E+00;  0.0000000E+00;  4.0000000E+04;  0.0000000E+00;  4.0000000E+04;  5.6410028E-04;  0.0000000E+00;  4.0733072E-04;  2.9681301E+03;
  1.2000000E-01;  9.9999998E-03; -3.8999999E-01;2186;  0.0000000E+00;  0.0000000E+00;  0.0000000E+00;  1.0007126E+03;  1.0000000E-01;  5.9040308E+02;0;  0.0000000E+00;  0.0000000E+00;  0.0000000E+00;0;  1.4770619E-03;  4.0000000E+04;  0.0000000E+00;  0.0000000E+00;  4.0000000E+04;  0.0000000E+00;  4.0000000E+04;  9.2877744E-04;  0.0000000E+00;  5.4828444E-04;  3.9217678E+03;
  1.2000000E-01;  9.9999998E-03; -3.8000000E-01;2187;  0.0000000E+00;  0.0000000E+00;  0.0000000E+00;  1.0011450E+03;  1.0000000E-01;  9.4861517E+02;0;  0.0000000E+00;  0.0000000E+00;  0.0000000E+00;0;  2.1232013E-03;  4.0000000E+04;  0.0000000E+00;  0.0000000E+00;  4.0000000E+04;  0.0000000E+00;  4.0000000E+04;  1.4283531E-03;  0.0000000E+00;  6.9484825E-04;  4.8752148E+03;
  1.2000000E-01;  9.9999998E-03; -3.7000000E-01;2188;  0.0000000E+00;  0.0000000E+00;  0.0000000E+00;  1.0017277E+03;  1.0000000E-01;  1.4313669E+03;0;  0.0000000E+00;  0.0000000E+00;  0.0000000E+00;0;  2.9192772E-03;  4.0000000E+04;  0.0000000E+00;  0.0000000E+00;  4.0000000E+04;  0.0000000E+00;  4.0000000E+04;  2.0771297E-03;  0.0000000E+00;  8.4214762E-04;  5.8514277E+03;
  1.2000000E-01;  9.9999998E-03; -3.6000001E-01;2189;  0.0000000E+00;  0.0000000E+00;  0.0000000E+00;  1.0024686E+03;  1.0000000E-01;  2.0451768E+03;0;  0.0000000E+00;  0.0000000E+00;  0.0000000E+00;0;  3.8646371E-03;  4.0000000E+04;  0.0000000E+00;  0.0000000E+00;  4.0000000E+04;  0.0000000E+00;  4.0000000E+04;  2.8796296E-03;  0.0000000E+00;  9.8500738E-04;  6.9363398E+03;
  1.2000000E-01;  9.9999998E-03; -3.4999999E-01;2190;  0.0000000E+00;  0.0000000E+00;  0.0000000E+00;  1.0033948E+03;  1.0000000E-01;  2.8125625E+03;0;  0.0000000E+00;  0.0000000E+00;  0.0000000E+00;0;  4.9427403E-03;  4.0000000E+04;  0.0000000E+00;  0.0000000E+00;  4.0000000E+04;  0.0000000E+00;  4.0000000E+04;  3.8266131E-03;  0.0000000E+00;  1.1161270E-03;  8.2608252E+03;
  1.2000000E-01;  9.9999998E-03; -3.4000000E-01;2191;  0.0000000E+00;  0.0000000E+00;  0.0000000E+00;  1.0044865E+03;  1.0000000E-01;  3.7170308E+03;0;  0.0000000E+00;  0.0000000E+00;  0.0000000E+00;0;  6.1160289E-03;  4.0000000E+04;  0.0000000E+00;  0.0000000E+00;  4.0000000E+04;  0.0000000E+00;  4.0000000E+04;  4.8918324E-03;  0.0000000E+00;  1.2241965E-03;  9.9367207E+03;
  1.2000000E-01;  9.9999998E-03; -3.3000001E-01;2192;  0.0000000E+00;  0.0000000E+00;  0.0000000E+00;  1.0057143E+03;  1.0000000E-01;  4.7341870E+03;0;  0.0000000E+00;  0.0000000E+00;  0.0000000E+00;0;  7.3223738E-03;  4.0000000E+04;  0.0000000E+00;  0.0000000E+00;  4.0000000E+04;  0.0000000E+00;  4.0000000E+04;  6.0301865E-03;  0.0000000E+00;  1.2921871E-03;  1.1956575E+04;
  1.2000000E-01;  9.9999998E-03; -3.1999999E-01;2193;  0.0000000E+00;  0.0000000E+00;  0.0000000E+00;  1.0070245E+03;  1.0000000E-01;  5.8196875E+03;0;  0.0000000E+00;  0.0000000E+00;  0.0000000E+00;0;  8.4739104E-03;  4.0000000E+04;  0.0000000E+00;  0.0000000E+00;  4.0000000E+04;  0.0000000E+00;  4.0000000E+04;  7.1776798E-03;  0.0000000E+00;  1.2962301E-03;  1.4116839E+04;
  1.2000000E-01;  9.9999998E-03; -3.1000000E-01;2194;  0.0000000E+00;  0.0000000E+00;  0.0000000E+00;  1.0083374E+03;  1.0000000E-01;  6.9073604E+03;0;  0.0000000E+00;  0.0000000E+00;  0.0000000E+00;0;  9.4595542E-03;  4.0000000E+04;  0.0000000E+00;  0.0000000E+00;  4.0000000E+04;  0.0000000E+00;  4.0000000E+04;  8.2531329E-03;  0.0000000E+00;  1.2064216E-03;  1.6026299E+04;
  1.3000000E-01;  9.9999998E-03; -4.4000000E-01;2211;  0.0000000E+00;  0.0000000E+00;  0.0000000E+00;  1.0000000E+03;  1.0000000E-01;  0.0000000E+00;0;  0.0000000E+00;  0.0000000E+00;  0.0000000E+00;0;  6.2010819E-05;  4.0000000E+04;  0.0000000E+00;  0.0000000E+00;  4.0000000E+04;  0.0000000E+00;  4.0000000E+04;  2.0443083E-05;  0.0000000E+00;  4.1567735E-05;  3.6976056E+02;
  1.3000000E-01;  9.9999998E-03; -4.3000001E-01;2212;  0.0000000E+00;  0.0000000E+00;  0.0000000E+00;  1.0000629E+03;  1.0000000E-01;  5.2146675E+01;0;  0.0000000E+00;  0.0000000E+00;  0.0000000E+00;0;  1.6652766E-04;  4.0000000E+04;  0.0000000E+00;  0.0000000E+00;  4.0000000E+04;  0.0000000E+00;  4.0000000E+04;  6.4495565E-05;  0.0000000E+00;  1.0203211E-04;  8.9982990E+02;
  1.3000000E-01;  9.9999998E-03; -4.1999999E-01;2213;  0.0000000E+00;  0.0000000E+00;  0.0000000E+00;  1.0000970E+03;  1.0000000E-01;  8.0392792E+01;0;  0.0000000E+00;  0.0000000E+00;  0.0000000E+00;0;  3.4894363E-04;  4.0000000E+04;  0.0000000E+00;  0.0000000E+00;  4.0000000E+04;  0.0000000E+00;  4.0000000E+04;  1.5589867E-04;  0.0000000E+00;  1.9304495E-04;  1.6728188E+03;
  1.3000000E-01;  9.9999998E-03; -4.1000000E-01;2214;  0.0000000E+00;  0.0000000E+00;  0.0000000E+00;  1.0002382E+03;  1.0000000E-01;  1.9732776E+02;0;  0.0000000E+00;  0.0000000E+00;  0.0000000E+00;0;  6.2521745E-04;  4.0000000E+04;  0.0000000E+00;  0.0000000E+00;  4.0000000E+04;  0.0000000E+00;  4.0000000E+04;  3.1759296E-04;  0.0000000E+00;  3.0762446E-04;  2.5896121E+03;
  1.3000000E-01;  9.9999998E-03; -4.0000001E-01;2215;  0.0000000E+00;  0.0000000E+00;  0.0000000E+00;  1.0004511E+03;  1.0000000E-01;  3.7371783E+02;0;  0.0000000E+00;  0.0000000E+00;  0.0000000E+00;0;  1.0097657E-03;  4.0000000E+04;  0.0000000E+00;  0.0000000E+00;  4.0000000E+04;  0.0000000E+00;  4.0000000E+04;  5.7376706E-04;  0.0000000E+00;  4.3599863E-04;  3.5325603E+03;
  1.3000000E-01;  9.9999998E-03; -3.8999999E-01;2216;  0.0000000E+00;  0.0000000E+00;  0.0000000E+00;  1.0007914E+03;  1.0000000E-01;  6.5568518E+02;0;  0.0000000E+00;  0.0000000E+00;  0.0000000E+00;0;  1.5174117E-03;  4.0000000E+04;  0.0000000E+00;  0.0000000E+00;  4.0000000E+04;  0.0000000E+00;  4.0000000E+04;  9.4762922E-04;  0.0000000E+00;  5.6978245E-04;  4.4475806E+03;
  1.3000000E-01;  9.9999998E-03; -3.8000000E-01;2217;  0.0000000E+00;  0.0000000E+00;  0.0000000E+00;  1.0012780E+03;  1.0000000E-01;  1.0587355E+03;0;  0.0000000E+00;  0.0000000E+00;  0.0000000E+00;0;  2.1616025E-03;  4.0000000E+04;  0.0000000E+00;  0.0000000E+00;  4.0000000E+04;  0.0000000E+00;  4.0000000E+04;  1.4583897E-03;  0.0000000E+00;  7.0321281E-04;  5.4107495E+03;
  1.3000000E-01;  9.9999998E-03; -3.7000000E-01;2218;  0.0000000E+00;  0.0000000E+00;  0.0000000E+00;  1.0019255E+03;  1.0000000E-01;  1.5952141E+03;0;  0.0000000E+00;  0.0000000E+00;  0.0000000E+00;0;  2.9495200E-03;  4.0000000E+04;  0.0000000E+00;  0.0000000E+00;  4.0000000E+04;  0.0000000E+00;  4.0000000E+04;  2.1173218E-03;  0.0000000E+00;  8.3219813E-04;  6.6563833E+03;
  1.3000000E-01;  9.9999998E-03; -3.6000001E-01;2219;  0.0000000E+00;  0.0000000E+00;  0.0000000E+00;  1.0027596E+03;  1.0000000E-01;  2.2862563E+03;0;  0.0000000E+00;  0.0000000E+00;  0.0000000E+00;0;  3.8759785E-03;  4.0000000E+04;  0.0000000E+00;  0.0000000E+00;  4.0000000E+04;  0.0000000E+00;  4.0000000E+04;  2.9235473E-03;  0.0000000E+00;  9.5243129E-04;  8.5081387E+03;
  1.3000000E-01;  9.9999998E-03; -3.4999999E-01;2220;  0.0000000E+00;  0.0000000E+00;  0.0000000E+00;  1.0037739E+03;  1.0000000E-01;  3.1265288E+03;0;  0.0000000E+00;  0.0000000E+00;  0.0000000E+00;0;  4.9175499E-03;  4.0000000E+04;  0.0000000E+00;  0.0000000E+00;  4.0000000E+04;  0.0000000E+00;  4.0000000E+04;  3.8601663E-03;  0.0000000E+00;  1.0573836E-03;  1.1200481E+04;
  1.3000000E-01;  9.9999998E-03; -3.4000000E-01;2221;  0.0000000E+00;  0.0000000E+00;  0.0000000E+00;  1.0049669E+03;  1.0000000E-01;  4.1149453E+03;0;  0.0000000E+00;  0.0000000E+00;  0.0000000E+00;0;  6.0281912E-03;  4.0000000E+04;  0.0000000E+00;  0.0000000E+00;  4.0000000E+04;  0.0000000E+00;  4.0000000E+04;  4.8918184E-03;  0.0000000E+00;  1.1363729E-03;  1.4723577E+04;
  1.3000000E-01;  9.9999998E-03; -3.3000001E-01;2222;  0.0000000E+00;  0.0000000E+00;  0.0000000E+00;  1.0062980E+03;  1.0000000E-01;  5.2178276E+03;0;  0.0000000E+00;  0.0000000E+00;  0.0000000E+00;0;  7.1369996E-03;  4.0000000E+04;  0.0000000E+00;  0.0000000E+00;  4.0000000E+04;  0.0000000E+00;  4.0000000E+04;  5.9644594E-03;  0.0000000E+00;  1.1725400E-03;  1.8776459E+04;
  1.3000000E-01;  9.9999998E-03; -3.1999999E-01;2223;  0.0000000E+00;  0.0000000E+00;  0.0000000E+00;  1.0076901E+03;  1.0000000E-01;  6.3710791E+03;0;  0.0000000E+00;  0.0000000E+00;  0.0000000E+00;0;  8.1484504E-03;  4.0000000E+04;  0.0000000E+00;  0.0000000E+00;  4.0000000E+04;  0.0000000E+00;  4.0000000E+04;  7.0073865E-03;  0.0000000E+00;  1.1410638E-03;  2.2784027E+04;
  1.3000000E-01;  9.9999998E-03; -3.1000000E-01;2224;  0.0000000E+00;  0.0000000E+00;  0.0000000E+00;  1.0090696E+03;  1.0000000E-01;  7.5140591E+03;0;  0.0000000E+00;  0.0000000E+00;  0.0000000E+00;0;  8.9470465E-03;  4.0000000E+04;  0.0000000E+00;  0.0000000E+00;  4.0000000E+04;  0.0000000E+00;  4.0000000E+04;  7.9379873E-03;  0.0000000E+00;  1.0090596E-03;  2.5980738E+04;
  1.4000000E-01;  9.9999998E-03; -4.4000000E-01;2241;  0.0000000E+00;  0.0000000E+00;  0.0000000E+00;  1.0000000E+03;  1.0000000E-01;  0.0000000E+00;0;  0.0000000E+00;  0.0000000E+00;  0.0000000E+00;0;  6.5980857E-05;  4.0000000E+04;  0.0000000E+00;  0.0000000E+00;  4.0000000E+04;  0.0000000E+00;  4.0000000E+04;  1.8766994E-05;  0.0000000E+00;  4.7213860E-05;  6.1471185E+02;
  1.4000000E-01;  9.9999998E-03; -4.3000001E-01;2242;  0.0000000E+00;  0.0000000E+00;  0.0000000E+00;  1.0000658E+03;  1.0000000E-01;  5.4516975E+01;0;  0.0000000E+00;  0.0000000E+00;  0.0000000E+00;0;  1.7351154E-04;  4.0000000E+04;  0.0000000E+00;  0.0000000E+00;  4.0000000E+04;  0.0000000E+00;  4.0000000E+04;  6.1338040E-05;  0.0000000E+00;  1.1217349E-04;  1.4077244E+03;
  1.4000000E-01;  9.9999998E-03; -4.1999999E-01;2243;  0.0000000E+00;  0.0000000E+00;  0.0000000E+00;  1.0001030E+03;  1.0000000E-01;  8.5330917E+01;0;  0.0000000E+00;  0.0000000E+00;  0.0000000E+00;0;  3.5787659E-04;  4.0000000E+04;  0.0000000E+00;  0.0000000E+00;  4.0000000E+04;  0.0000000E+00;  4.0000000E+04;  1.5139284E-04;  0.0000000E+00;  2.0648376E-04;  2.4440566E+03;
  1.4000000E-01;  9.9999998E-03; -4.1000000E-01;2244;  0.0000000E+00;  0.0000000E+00;  0.0000000E+00;  1.0002804E+03;  1.0000000E-01;  2.3228973E+02;0;  0.0000000E+00;  0.0000000E+00;  0.0000000E+00;0;  6.3294225E-04;  4.0000000E+04;  0.0000000E+00;  0.0000000E+00;  4.0000000E+04;  0.0000000E+00;  4.0000000E+04;  3.1234242E-04;  0.0000000E+00;  3.2059982E-04;  3.4944187E+03;
  1.4000000E-01;  9.9999998E-03; -4.0000001E-01;2245;  0.0000000E+00;  0.0000000E+00;  0.0000000E+00;  1.0005015E+03;  1.0000000E-01;  4.1549442E+02;0;  0.0000000E+00;  0.0000000E+00;  0.0000000E+00;0;  1.0115354E-03;  4.0000000E+04;  0.0000000E+00;  0.0000000E+00;  4.0000000E+04;  0.0000000E+00;  4.0000000E+04;  5.6867546E-04;  0.0000000E+00;  4.4285992E-04;  4.3451562E+03;
  1.4000000E-01;  9.9999998E-03; -3.8999999E-01;2246;  0.0000000E+00;  0.0000000E+00;  0.0000000E+00;  1.0009202E+03;  1.0000000E-01;  7.6234882E+02;0;  0.0000000E+00;  0.0000000E+00;  0.0000000E+00;0;  1.5075492E-03;  4.0000000E+04;  0.0000000E+00;  0.0000000E+00;  4.0000000E+04;  0.0000000E+00;  4.0000000E+04;  9.4329769E-04;  0.0000000E+00;  5.6425150E-04;  4.9782305E+03;
  1.4000000E-01;  9.9999998E-03; -3.8000000E-01;2247;  0.0000000E+00;  0.0000000E+00;  0.0000000E+00;  1.0014675E+03;  1.0000000E-01;  1.2158668E+03;0;  0.0000000E+00;  0.0000000E+00;  0.0000000E+00;0;  2.1331757E-03;  4.0000000E+04;  0.0000000E+00;  0.0000000E+00;  4.0000000E+04;  0.0000000E+00;  4.0000000E+04;  1.4538978E-03;  0.0000000E+00;  6.7927781E-04;  5.7811069E+03;
  1.4000000E-01;  9.9999998E-03; -3.7000000E-01;2248;  0.0000000E+00;  0.0000000E+00;  0.0000000E+00;  1.0021962E+03;  1.0000000E-01;  1.8195042E+03;0;  0.0000000E+00;  0.0000000E+00;  0.0000000E+00;0;  2.8928479E-03;  4.0000000E+04;  0.0000000E+00;  0.0000000E+00;  4.0000000E+04;  0.0000000E+00;  4.0000000E+04;  2.1084659E-03;  0.0000000E+00;  7.8438205E-04;  7.5605527E+03;
  1.4000000E-01;  9.9999998E-03; -3.6000001E-01;2249;  0.0000000E+00;  0.0000000E+00;  0.0000000E+00;  1.0031348E+03;  1.0000000E-01;  2.5970623E+03;0;  0.0000000E+00;  0.0000000E+00;  0.0000000E+00;0;  3.7764560E-03;  4.0000000E+04;  0.0000000E+00;  0.0000000E+00;  4.0000000E+04;  0.0000000E+00;  4.0000000E+04;  2.9006349E-03;  0.0000000E+00;  8.7582116E-04;  1.0941377E+04;
  1.4000000E-01;  9.9999998E-03; -3.4999999E-01;2250;  0.0000000E+00;  0.0000000E+00;  0.0000000E+00;  1.0042791E+03;  1.0000000E-01;  3.5451836E+03;0;  0.0000000E+00;  0.0000000E+00;  0.0000000E+00;0;  4.7537540E-03;  4.0000000E+04;  0.0000000E+00;  0.0000000E+00;  4.0000000E+04;  0.0000000E+00;  4.0000000E+04;  3.8060579E-03;  0.0000000E+00;  9.4769627E-04;  1.5928731E+04;
  1.4000000E-01;  9.9999998E-03; -3.4000000E-01;2251;  0.0000000E+00;  0.0000000E+00;  0.0000000E+00;  1.0056000E+03;  1.0000000E-01;  4.6395723E+03;0;  0.0000000E+00;  0.0000000E+00;  0.0000000E+00;0;  5.7711960E-03;  4.0000000E+04;  0.0000000E+00;  0.0000000E+00;  4.0000000E+04;  0.0000000E+00;  4.0000000E+04;  4.7811619E-03;  0.0000000E+00;  9.9003420E-04;  2.2105850E+04;
  1.4000000E-01;  9.9999998E-03; -3.3000001E-01;2252;  0.0000000E+00;  0.0000000E+00;  0.0000000E+00;  1.0070423E+03;  1.0000000E-01;  5.8344028E+03;0;  0.0000000E+00;  0.0000000E+00;  0.0000000E+00;0;  6.7514386E-03;  4.0000000E+04;  0.0000000E+00;  0.0000000E+00;  4.0000000E+04;  0.0000000E+00;  4.0000000E+04;  5.7647806E-03;  0.0000000E+00;  9.8665827E-04;  2.8751604E+04;
  1.4000000E-01;  9.9999998E-03; -3.1999999E-01;2253;  0.0000000E+00;  0.0000000E+00;  0.0000000E+00;  1.0085397E+03;  1.0000000E-01;  7.0749604E+03;0;  0.0000000E+00;  0.0000000E+00;  0.0000000E+00;0;  7.5961808E-03;  4.0000000E+04;  0.0000000E+00;  0.0000000E+00;  4.0000000E+04;  0.0000000E+00;  4.0000000E+04;  6.6827717E-03;  0.0000000E+00;  9.1340917E-04;  3.4852398E+04;
  1.4000000E-01;  9.9999998E-03; -3.1000000E-01;2254;  0.0000000E+00;  0.0000000E+00;  0.0000000E+00;  1.0099849E+03;  1.0000000E-01;  8.2723584E+03;0;  0.0000000E+00;  0.0000000E+00;  0.0000000E+00;0;  8.1945388E-03;  4.0000000E+04;  0.0000000E+00;  0.0000000E+00;  4.0000000E+04;  0.0000000E+00;  4.0000000E+04;  7.4559259E-03;  0.0000000E+00;  7.3861319E-04;  3.9229160E+04;
  1.5000001E-01;  9.9999998E-03; -4.4000000E-01;2271;  0.0000000E+00;  0.0000000E+00;  0.0000000E+00;  1.0000000E+03;  1.0000000E-01;  0.0000000E+00;0;  0.0000000E+00;  0.0000000E+00;  0.0000000E+00;0;  6.5405125E-05;  4.0000000E+04;  0.0000000E+00;  0.0000000E+00;  4.0000000E+04;  0.0000000E+00;  4.0000000E+04;  1.6491569E-05;  0.0000000E+00;  4.8913556E-05;  1.0456216E+03;
  1.5000001E-01;  9.9999998E-03; -4.3000001E-01;2272;  0.0000000E+00;  0.0000000E+00;  0.0000000E+00;  1.0000737E+03;  1.0000000E-01;  6.1035313E+01;0;  0.0000000E+00;  0.0000000E+00;  0.0000000E+00;0;  1.7091927E-04;  4.0000000E+04;  0.0000000E+00;  0.0000000E+00;  4.0000000E+04;  0.0000000E+00;  4.0000000E+04;  5.6697132E-05;  0.0000000E+00;  1.1422214E-04;  2.3057473E+03;
  1.5000001E-01;  9.9999998E-03; -4.1999999E-01;2273;  0.0000000E+00;  0.0000000E+00;  0.0000000E+00;  1.0001148E+03;  1.0000000E-01;  9.5108421E+01;0;  0.0000000E+00;  0.0000000E+00;  0.0000000E+00;0;  3.4993837E-04;  4.0000000E+04;  0.0000000E+00;  0.0000000E+00;  4.0000000E+04;  0.0000000E+00;  4.0000000E+04;  1.4354798E-04;  0.0000000E+00;  2.0639040E-04;  3.8126499E+03;
  1.5000001E-01;  9.9999998E-03; -4.1000000E-01;2274;  0.0000000E+00;  0.0000000E+00;  0.0000000E+00;  1.0003193E+03;  1.0000000E-01;  2.6448636E+02;0;  0.0000000E+00;  0.0000000E+00;  0.0000000E+00;0;  6.1436999E-04;  4.0000000E+04;  0.0000000E+00;  0.0000000E+00;  4.0000000E+04;  0.0000000E+00;  4.0000000E+04;  3.0033579E-04;  0.0000000E+00;  3.1403417E-04;  5.0979175E+03;
  1.5000001E-01;  9.9999998E-03; -4.0000001E-01;2275;  0.0000000E+00;  0.0000000E+00;  0.0000000E+00;  1.0006021E+03;  1.0000000E-01;  4.9875131E+02;0;  0.0000000E+00;  0.0000000E+00;  0.0000000E+00;0;  9.7560685E-04;  4.0000000E+04;  0.0000000E+00;  0.0000000E+00;  4.0000000E+04;  0.0000000E+00;  4.0000000E+04;  5.5140944E-04;  0.0000000E+00;  4.2419741E-04;  5.7342124E+03;
  1.5000001E-01;  9.9999998E-03; -3.8999999E-01;2276;  0.0000000E+00;  0.0000000E+00;  0.0000000E+00;  1.0010764E+03;  1.0000000E-01;  8.9172784E+02;0;  0.0000000E+00;  0.0000000E+00;  0.0000000E+00;0;  1.4465537E-03;  4.0000000E+04;  0.0000000E+00;  0.0000000E+00;  4.0000000E+04;  0.0000000E+00;  4.0000000E+04;  9.1911986E-04;  0.0000000E+00;  5.2743388E-04;  5.6715308E+03;
  1.5000001E-01;  9.9999998E-03; -3.8000000E-01;2277;  0.0000000E+00;  0.0000000E+00;  0.0000000E+00;  1.0017024E+03;  1.0000000E-01;  1.4104292E+03;0;  0.0000000E+00;  0.0000000E+00;  0.0000000E+00;0;  2.0379135E-03;  4.0000000E+04;  0.0000000E+00;  0.0000000E+00;  4.0000000E+04;  0.0000000E+00;  4.0000000E+04;  1.4195536E-03;  0.0000000E+00;  6.1835989E-04;  5.9392656E+03;
  1.5000001E-01;  9.9999998E-03; -3.7000000E-01;2278;  0.0000000E+00;  0.0000000E+00;  0.0000000E+00;  1.0025362E+03;  1.0000000E-01;  2.1011750E+03;0;  0.0000000E+00;  0.0000000E+00;  0.0000000E+00;0;  2.7512016E-03;  4.0000000E+04;  0.0000000E+00;  0.0000000E+00;  4.0000000E+04;  0.0000000E+00;  4.0000000E+04;  2.0575121E-03;  0.0000000E+00;  6.9368951E-04;  8.7604014E+03;
  1.5000001E-01;  9.9999998E-03; -3.6000001E-01;2279;  0.0000000E+00;  0.0000000E+00;  0.0000000E+00;  1.0036041E+03;  1.0000000E-01;  2.9858909E+03;0;  0.0000000E+00;  0.0000000E+00;  0.0000000E+00;0;  3.5717906E-03;  4.0000000E+04;  0.0000000E+00;  0.0000000E+00;  4.0000000E+04;  0.0000000E+00;  4.0000000E+04;  2.8217845E-03;  0.0000000E+00;  7.5000618E-04;  1.4704265E+04;
  1.5000001E-01;  9.9999998E-03; -3.4999999E-01;2280;  0.0000000E+00;  0.0000000E+00;  0.0000000E+00;  1.0048907E+03;  1.0000000E-01;  4.0519348E+03;0;  0.0000000E+00;  0.0000000E+00;  0.0000000E+00;0;  4.4639772E-03;  4.0000000E+04;  0.0000000E+00;  0.0000000E+00;  4.0000000E+04;  0.0000000E+00;  4.0000000E+04;  3.6820716E-03;  0.0000000E+00;  7.8190584E-04;  2.2944629E+04;
  1.5000001E-01;  9.9999998E-03; -3.4000000E-01;2281;  0.0000000E+00;  0.0000000E+00;  0.0000000E+00;  1.0063381E+03;  1.0000000E-01;  5.2510122E+03;0;  0.0000000E+00;  0.0000000E+00;  0.0000000E+00;0;  5.3690919E-03;  4.0000000E+04;  0.0000000E+00;  0.0000000E+00;  4.0000000E+04;  0.0000000E+00;  4.0000000E+04;  4.5888731E-03;  0.0000000E+00;  7.8021875E-04;  3.2538229E+04;
  1.5000001E-01;  9.9999998E-03; -3.3000001E-01;2282;  0.0000000E+00;  0.0000000E+00;  0.0000000E+00;  1.0079111E+03;  1.0000000E-01;  6.5541851E+03;0;  0.0000000E+00;  0.0000000E+00;  0.0000000E+00;0;  6.2073176E-03;  4.0000000E+04;  0.0000000E+00;  0.0000000E+00;  4.0000000E+04;  0.0000000E+00;  4.0000000E+04;  5.4771095E-03;  0.0000000E+00;  7.3020830E-04;  4.2275730E+04;
  1.5000001E-01;  9.9999998E-03; -3.1999999E-01;2283;  0.0000000E+00;  0.0000000E+00;  0.0000000E+00;  1.0094999E+03;  1.0000000E-01;  7.8704937E+03;0;  0.0000000E+00;  0.0000000E+00;  0.0000000E+00;0;  6.8838275E-03;  4.0000000E+04;  0.0000000E+00;  0.0000000E+00;  4.0000000E+04;  0.0000000E+00;  4.0000000E+04;  6.2733344E-03;  0.0000000E+00;  6.1049330E-04;  5.0606359E+04;
  1.5000001E-01;  9.9999998E-03; -3.1000000E-01;2284;  0.0000000E+00;  0.0000000E+00;  0.0000000E+00;  1.0110012E+03;  1.0000000E-01;  9.1142109E+03;0;  0.0000000E+00;  0.0000000E+00;  0.0000000E+00;0;  7.3007792E-03;  4.0000000E+04;  0.0000000E+00;  0.0000000E+00;  4.0000000E+04;  0.0000000E+00;  4.0000000E+04;  6.9058114E-03;  0.0000000E+00;  3.9496797E-04;  5.5872520E+04;
  1.6000000E-01;  9.9999998E-03; -4.4000000E-01;2301;  0.0000000E+00;  0.0000000E+00;  0.0000000E+00;  1.0000000E+03;  1.0000000E-01;  0.0000000E+00;0;  0.0000000E+00;  0.0000000E+00;  0.0000000E+00;0;  6.0790117E-05;  4.0000000E+04;  0.0000000E+00;  0.0000000E+00;  4.0000000E+04;  0.0000000E+00;  4.0000000E+04;  1.4375788E-05;  0.0000000E+00;  4.6414327E-05;  1.7501444E+03;
  1.6000000E-01;  9.9999998E-03; -4.3000001E-01;2302;  0.0000000E+00;  0.0000000E+00;  0.0000000E+00;  1.0000867E+03;  1.0000000E-01;  7.1800438E+01;0;  0.0000000E+00;  0.0000000E+00;  0.0000000E+00;0;  1.5959362E-04;  4.0000000E+04;  0.0000000E+00;  0.0000000E+00;  4.0000000E+04;  0.0000000E+00;  4.0000000E+04;  5.1816318E-05;  0.0000000E+00;  1.0777730E-04;  3.7625803E+03;
  1.6000000E-01;  9.9999998E-03; -4.1999999E-01;2303;  0.0000000E+00;  0.0000000E+00;  0.0000000E+00;  1.0001520E+03;  1.0000000E-01;  1.2592236E+02;0;  0.0000000E+00;  0.0000000E+00;  0.0000000E+00;0;  3.2624719E-04;  4.0000000E+04;  0.0000000E+00;  0.0000000E+00;  4.0000000E+04;  0.0000000E+00;  4.0000000E+04;  1.3405962E-04;  0.0000000E+00;  1.9218757E-04;  6.0272476E+03;
  1.6000000E-01;  9.9999998E-03; -4.1000000E-01;2304;  0.0000000E+00;  0.0000000E+00;  0.0000000E+00;  1.0003825E+03;  1.0000000E-01;  3.1692932E+02;0;  0.0000000E+00;  0.0000000E+00;  0.0000000E+00;0;  5.7085475E-04;  4.0000000E+04;  0.0000000E+00;  0.0000000E+00;  4.0000000E+04;  0.0000000E+00;  4.0000000E+04;  2.8374835E-04;  0.0000000E+00;  2.8710638E-04;  7.7148149E+03;
  1.6000000E-01;  9.9999998E-03; -4.0000001E-01;2305;  0.0000000E+00;  0.0000000E+00;  0.0000000E+00;  1.0007236E+03;  1.0000000E-01;  5.9948920E+02;0;  0.0000000E+00;  0.0000000E+00;  0.0000000E+00;0;  9.0382667E-04;  4.0000000E+04;  0.0000000E+00;  0.0000000E+00;  4.0000000E+04;  0.0000000E+00;  4.0000000E+04;  5.2473362E-04;  0.0000000E+00;  3.7909305E-04;  8.0630029E+03;
  1.6000000E-01;  9.9999998E-03; -3.8999999E-01;2306;  0.0000000E+00;  0.0000000E+00;  0.0000000E+00;  1.0012553E+03;  1.0000000E-01;  1.0399706E+03;0;  0.0000000E+00;  0.0000000E+00;  0.0000000E+00;0;  1.3373177E-03;  4.0000000E+04;  0.0000000E+00;  0.0000000E+00;  4.0000000E+04;  0.0000000E+00;  4.0000000E+04;  8.7875430E-04;  0.0000000E+00;  4.5856345E-04;  6.8227866E+03;
  1.6000000E-01;  9.9999998E-03; -3.8000000E-01;2307;  0.0000000E+00;  0.0000000E+00;  0.0000000E+00;  1.0019683E+03;  1.0000000E-01;  1.6306699E+03;0;  0.0000000E+00;  0.0000000E+00;  0.0000000E+00;0;  1.8807121E-03;  4.0000000E+04;  0.0000000E+00;  0.0000000E+00;  4.0000000E+04;  0.0000000E+00;  4.0000000E+04;  1.3605919E-03;  0.0000000E+00;  5.2012026E-04;  5.8602988E+03;
  1.6000000E-01;  9.9999998E-03; -3.7000000E-01;2308;  0.0000000E+00;  0.0000000E+00;  0.0000000E+00;  1.0029088E+03;  1.0000000E-01;  2.4099072E+03;0;  0.0000000E+00;  0.0000000E+00;  0.0000000E+00;0;  2.5331876E-03;  4.0000000E+04;  0.0000000E+00;  0.0000000E+00;  4.0000000E+04;  0.0000000E+00;  4.0000000E+04;  1.9727019E-03;  0.0000000E+00;  5.6048582E-04;  1.0478822E+04;
  1.6000000E-01;  9.9999998E-03; -3.6000001E-01;2309;  0.0000000E+00;  0.0000000E+00;  0.0000000E+00;  1.0041158E+03;  1.0000000E-01;  3.4098789E+03;0;  0.0000000E+00;  0.0000000E+00;  0.0000000E+00;0;  3.2770149E-03;  4.0000000E+04;  0.0000000E+00;  0.0000000E+00;  4.0000000E+04;  0.0000000E+00;  4.0000000E+04;  2.7006292E-03;  0.0000000E+00;  5.7638570E-04;  2.0047250E+04;
  1.6000000E-01;  9.9999998E-03; -3.4999999E-01;2310;  0.0000000E+00;  0.0000000E+00;  0.0000000E+00;  1.0055261E+03;  1.0000000E-01;  4.5782407E+03;0;  0.0000000E+00;  0.0000000E+00;  0.0000000E+00;0;  4.0733116E-03;  4.0000000E+04;  0.0000000E+00;  0.0000000E+00;  4.0000000E+04;  0.0000000E+00;  4.0000000E+04;  3.5104535E-03;  0.0000000E+00;  5.6285784E-04;  3.2422574E+04;
  1.6000000E-01;  9.9999998E-03; -3.4000000E-01;2311;  0.0000000E+00;  0.0000000E+00;  0.0000000E+00;  1.0071210E+03;  1.0000000E-01;  5.8996851E+03;0;  0.0000000E+00;  0.0000000E+00;  0.0000000E+00;0;  4.8614768E-03;  4.0000000E+04;  0.0000000E+00;  0.0000000E+00;  4.0000000E+04;  0.0000000E+00;  4.0000000E+04;  4.3497011E-03;  0.0000000E+00;  5.1177549E-04;  4.6151875E+04;
  1.6000000E-01;  9.9999998E-03; -3.3000001E-01;2312;  0.0000000E+00;  0.0000000E+00;  0.0000000E+00;  1.0088064E+03;  1.0000000E-01;  7.2958926E+03;0;  0.0000000E+00;  0.0000000E+00;  0.0000000E+00;0;  5.5634729E-03;  4.0000000E+04;  0.0000000E+00;  0.0000000E+00;  4.0000000E+04;  0.0000000E+00;  4.0000000E+04;  5.1526558E-03;  0.0000000E+00;  4.1081701E-04;  5.9439242E+04;
  1.6000000E-01;  9.9999998E-03; -3.1999999E-01;2313;  0.0000000E+00;  0.0000000E+00;  0.0000000E+00;  1.0104774E+03;  1.0000000E-01;  8.6803467E+03;0;  0.0000000E+00;  0.0000000E+00;  0.0000000E+00;0;  6.0931467E-03;  4.0000000E+04;  0.0000000E+00;  0.0000000E+00;  4.0000000E+04;  0.0000000E+00;  4.0000000E+04;  5.8495277E-03;  0.0000000E+00;  2.4361913E-04;  7.0070547E+04;
  1.6000000E-01;  9.9999998E-03; -3.1000000E-01;2314;  0.0000000E+00;  0.0000000E+00;  0.0000000E+00;  1.0120085E+03;  1.0000000E-01;  9.9488545E+03;0;  0.0000000E+00;  0.0000000E+00;  0.0000000E+00;0;  6.3712671E-03;  4.0000000E+04;  0.0000000E+00;  0.0000000E+00;  4.0000000E+04;  0.0000000E+00;  4.0000000E+04;  6.3780705E-03;  0.0000000E+00; -6.8032846E-06;  7.5834461E+04;
  1.7000000E-01;  9.9999998E-03; -4.4000000E-01;2331;  0.0000000E+00;  0.0000000E+00;  0.0000000E+00;  1.0000000E+03;  1.0000000E-01;  0.0000000E+00;0;  0.0000000E+00;  0.0000000E+00;  0.0000000E+00;0;  5.2918254E-05;  4.0000000E+04;  0.0000000E+00;  0.0000000E+00;  4.0000000E+04;  0.0000000E+00;  4.0000000E+04;  1.3132732E-05;  0.0000000E+00;  3.9785522E-05;  2.8220940E+03;
  1.7000000E-01;  9.9999998E-03; -4.3000001E-01;2332;  0.0000000E+00;  0.0000000E+00;  0.0000000E+00;  1.0000942E+03;  1.0000000E-01;  7.8022484E+01;0;  0.0000000E+00;  0.0000000E+00;  0.0000000E+00;0;  1.4083786E-04;  4.0000000E+04;  0.0000000E+00;  0.0000000E+00;  4.0000000E+04;  0.0000000E+00;  4.0000000E+04;  4.7820376E-05;  0.0000000E+00;  9.3017487E-05;  5.9326714E+03;
  1.7000000E-01;  9.9999998E-03; -4.1999999E-01;2333;  0.0000000E+00;  0.0000000E+00;  0.0000000E+00;  1.0002187E+03;  1.0000000E-01;  1.8113068E+02;0;  0.0000000E+00;  0.0000000E+00;  0.0000000E+00;0;  2.8878258E-04;  4.0000000E+04;  0.0000000E+00;  0.0000000E+00;  4.0000000E+04;  0.0000000E+00;  4.0000000E+04;  1.2442294E-04;  0.0000000E+00;  1.6435966E-04;  9.2718701E+03;
  1.7000000E-01;  9.9999998E-03; -4.1000000E-01;2334;  0.0000000E+00;  0.0000000E+00;  0.0000000E+00;  1.0004402E+03;  1.0000000E-01;  3.6473044E+02;0;  0.0000000E+00;  0.0000000E+00;  0.0000000E+00;0;  5.0536147E-04;  4.0000000E+04;  0.0000000E+00;  0.0000000E+00;  4.0000000E+04;  0.0000000E+00;  4.0000000E+04;  2.6453720E-04;  0.0000000E+00;  2.4082427E-04;  1.1527824E+04;
  1.7000000E-01;  9.9999998E-03; -4.0000001E-01;2335;  0.0000000E+00;  0.0000000E+00;  0.0000000E+00;  1.0008503E+03;  1.0000000E-01;  7.0447388E+02;0;  0.0000000E+00;  0.0000000E+00;  0.0000000E+00;0;  8.0048083E-04;  4.0000000E+04;  0.0000000E+00;  0.0000000E+00;  4.0000000E+04;  0.0000000E+00;  4.0000000E+04;  4.9123040E-04;  0.0000000E+00;  3.0925040E-04;  1.1532422E+04;
  1.7000000E-01;  9.9999998E-03; -3.8999999E-01;2336;  0.0000000E+00;  0.0000000E+00;  0.0000000E+00;  1.0014224E+03;  1.0000000E-01;  1.1784358E+03;0;  0.0000000E+00;  0.0000000E+00;  0.0000000E+00;0;  1.1858682E-03;  4.0000000E+04;  0.0000000E+00;  0.0000000E+00;  4.0000000E+04;  0.0000000E+00;  4.0000000E+04;  8.2557386E-04;  0.0000000E+00;  3.6029436E-04;  8.7287148E+03;
  1.7000000E-01;  9.9999998E-03; -3.8000000E-01;2337;  0.0000000E+00;  0.0000000E+00;  0.0000000E+00;  1.0022174E+03;  1.0000000E-01;  1.8370839E+03;0;  0.0000000E+00;  0.0000000E+00;  0.0000000E+00;0;  1.6701517E-03;  4.0000000E+04;  0.0000000E+00;  0.0000000E+00;  4.0000000E+04;  0.0000000E+00;  4.0000000E+04;  1.2816793E-03;  0.0000000E+00;  3.8847243E-04;  5.5510132E+03;
  1.7000000E-01;  9.9999998E-03; -3.7000000E-01;2338;  0.0000000E+00;  0.0000000E+00;  0.0000000E+00;  1.0032704E+03;  1.0000000E-01;  2.7094543E+03;0;  0.0000000E+00;  0.0000000E+00;  0.0000000E+00;0;  2.2515957E-03;  4.0000000E+04;  0.0000000E+00;  0.0000000E+00;  4.0000000E+04;  0.0000000E+00;  4.0000000E+04;  1.8612591E-03;  0.0000000E+00;  3.9033670E-04;  1.2787195E+04;
  1.7000000E-01;  9.9999998E-03; -3.6000001E-01;2339;  0.0000000E+00;  0.0000000E+00;  0.0000000E+00;  1.0045713E+03;  1.0000000E-01;  3.7872510E+03;0;  0.0000000E+00;  0.0000000E+00;  0.0000000E+00;0;  2.9117875E-03;  4.0000000E+04;  0.0000000E+00;  0.0000000E+00;  4.0000000E+04;  0.0000000E+00;  4.0000000E+04;  2.5491549E-03;  0.0000000E+00;  3.6263268E-04;  2.6819998E+04;
  1.7000000E-01;  9.9999998E-03; -3.4999999E-01;2340;  0.0000000E+00;  0.0000000E+00;  0.0000000E+00;  1.0061212E+03;  1.0000000E-01;  5.0712642E+03;0;  0.0000000E+00;  0.0000000E+00;  0.0000000E+00;0;  3.6117602E-03;  4.0000000E+04;  0.0000000E+00;  0.0000000E+00;  4.0000000E+04;  0.0000000E+00;  4.0000000E+04;  3.3109437E-03;  0.0000000E+00;  3.0081655E-04;  4.4048102E+04;
  1.7000000E-01;  9.9999998E-03; -3.4000000E-01;2341;  0.0000000E+00;  0.0000000E+00;  0.0000000E+00;  1.0078298E+03;  1.0000000E-01;  6.4868291E+03;0;  0.0000000E+00;  0.0000000E+00;  0.0000000E+00;0;  4.2925314E-03;  4.0000000E+04;  0.0000000E+00;  0.0000000E+00;  4.0000000E+04;  0.0000000E+00;  4.0000000E+04;  4.0943902E-03;  0.0000000E+00;  1.9814141E-04;  6.2523094E+04;
  1.7000000E-01;  9.9999998E-03; -3.3000001E-01;2342;  0.0000000E+00;  0.0000000E+00;  0.0000000E+00;  1.0096110E+03;  1.0000000E-01;  7.9625400E+03;0;  0.0000000E+00;  0.0000000E+00;  0.0000000E+00;0;  4.8812120E-03;  4.0000000E+04;  0.0000000E+00;  0.0000000E+00;  4.0000000E+04;  0.0000000E+00;  4.0000000E+04;  4.8355027E-03;  0.0000000E+00;  4.5709421E-05;  7.9759719E+04;
  1.7000000E-01;  9.9999998E-03; -3.1999999E-01;2343;  0.0000000E+00;  0.0000000E+00;  0.0000000E+00;  1.0113356E+03;  1.0000000E-01;  9.3913389E+03;0;  0.0000000E+00;  0.0000000E+00;  0.0000000E+00;0;  5.3028464E-03;  4.0000000E+04;  0.0000000E+00;  0.0000000E+00;  4.0000000E+04;  0.0000000E+00;  4.0000000E+04;  5.4686279E-03;  0.0000000E+00; -1.6578163E-04;  9.2765531E+04;
  1.7000000E-01;  9.9999998E-03; -3.1000000E-01;2344;  0.0000000E+00;  0.0000000E+00;  0.0000000E+00;  1.0128657E+03;  1.0000000E-01;  1.0659057E+04;0;  0.0000000E+00;  0.0000000E+00;  0.0000000E+00;0;  5.4977438E-03;  4.0000000E+04;  0.0000000E+00;  0.0000000E+00;  4.0000000E+04;  0.0000000E+00;  4.0000000E+04;  5.9389742E-03;  0.0000000E+00; -4.4123046E-04;  9.8691945E+04;
  1.8000001E-01;  9.9999998E-03; -4.4000000E-01;2361;  0.0000000E+00;  0.0000000E+00;  0.0000000E+00;  1.0000000E+03;  1.0000000E-01;  0.0000000E+00;0;  0.0000000E+00;  0.0000000E+00;  0.0000000E+00;0;  4.2291304E-05;  4.0000000E+04;  0.0000000E+00;  0.0000000E+00;  4.0000000E+04;  0.0000000E+00;  4.0000000E+04;  1.3127776E-05;  0.0000000E+00;  2.9163528E-05;  4.3403794E+03;
  1.8000001E-01;  9.9999998E-03; -4.3000001E-01;2362;  0.0000000E+00;  0.0000000E+00;  0.0000000E+00;  1.0000949E+03;  1.0000000E-01;  7.8615059E+01;0;  0.0000000E+00;  0.0000000E+00;  0.0000000E+00;0;  1.1562421E-04;  4.0000000E+04;  0.0000000E+00;  0.0000000E+00;  4.0000000E+04;  0.0000000E+00;  4.0000000E+04;  4.5302240E-05;  0.0000000E+00;  7.0321970E-05;  8.9097598E+03;
  1.8000001E-01;  9.9999998E-03; -4.1999999E-01;2363;  0.0000000E+00;  0.0000000E+00;  0.0000000E+00;  1.0002653E+03;  1.0000000E-01;  2.1984563E+02;0;  0.0000000E+00;  0.0000000E+00;  0.0000000E+00;0;  2.3954507E-04;  4.0000000E+04;  0.0000000E+00;  0.0000000E+00;  4.0000000E+04;  0.0000000E+00;  4.0000000E+04;  1.1556331E-04;  0.0000000E+00;  1.2398176E-04;  1.3596075E+04;
  1.8000001E-01;  9.9999998E-03; -4.1000000E-01;2364;  0.0000000E+00;  0.0000000E+00;  0.0000000E+00;  1.0005089E+03;  1.0000000E-01;  4.2161771E+02;0;  0.0000000E+00;  0.0000000E+00;  0.0000000E+00;0;  4.2160825E-04;  4.0000000E+04;  0.0000000E+00;  0.0000000E+00;  4.0000000E+04;  0.0000000E+00;  4.0000000E+04;  2.4410828E-04;  0.0000000E+00;  1.7749997E-04;  1.6507479E+04;
  1.8000001E-01;  9.9999998E-03; -4.0000001E-01;2365;  0.0000000E+00;  0.0000000E+00;  0.0000000E+00;  1.0009580E+03;  1.0000000E-01;  7.9365656E+02;0;  0.0000000E+00;  0.0000000E+00;  0.0000000E+00;0;  6.7140267E-04;  4.0000000E+04;  0.0000000E+00;  0.0000000E+00;  4.0000000E+04;  0.0000000E+00;  4.0000000E+04;  4.5287484E-04;  0.0000000E+00;  2.1852780E-04;  1.6071354E+04;
  1.8000001E-01;  9.9999998E-03; -3.8999999E-01;2366;  0.0000000E+00;  0.0000000E+00;  0.0000000E+00;  1.0015655E+03;  1.0000000E-01;  1.2969509E+03;0;  0.0000000E+00;  0.0000000E+00;  0.0000000E+00;0;  1.0005130E-03;  4.0000000E+04;  0.0000000E+00;  0.0000000E+00;  4.0000000E+04;  0.0000000E+00;  4.0000000E+04;  7.6229975E-04;  0.0000000E+00;  2.3821318E-04;  1.1457621E+04;
  1.8000001E-01;  9.9999998E-03; -3.8000000E-01;2367;  0.0000000E+00;  0.0000000E+00;  0.0000000E+00;  1.0024208E+03;  1.0000000E-01;  2.0055729E+03;0;  0.0000000E+00;  0.0000000E+00;  0.0000000E+00;0;  1.4176680E-03;  4.0000000E+04;  0.0000000E+00;  0.0000000E+00;  4.0000000E+04;  0.0000000E+00;  4.0000000E+04;  1.1866504E-03;  0.0000000E+00;  2.3101755E-04;  5.0711802E+03;
  1.8000001E-01;  9.9999998E-03; -3.7000000E-01;2368;  0.0000000E+00;  0.0000000E+00;  0.0000000E+00;  1.0035469E+03;  1.0000000E-01;  2.9384849E+03;0;  0.0000000E+00;  0.0000000E+00;  0.0000000E+00;0;  1.9220671E-03;  4.0000000E+04;  0.0000000E+00;  0.0000000E+00;  4.0000000E+04;  0.0000000E+00;  4.0000000E+04;  1.7287941E-03;  0.0000000E+00;  1.9327302E-04;  1.5478870E+04;
  1.8000001E-01;  9.9999998E-03; -3.6000001E-01;2369;  0.0000000E+00;  0.0000000E+00;  0.0000000E+00;  1.0049368E+03;  1.0000000E-01;  4.0900571E+03;0;  0.0000000E+00;  0.0000000E+00;  0.0000000E+00;0;  2.4973454E-03;  4.0000000E+04;  0.0000000E+00;  0.0000000E+00;  4.0000000E+04;  0.0000000E+00;  4.0000000E+04;  2.3756677E-03;  0.0000000E+00;  1.2167771E-04;  3.4412770E+04;
  1.8000001E-01;  9.9999998E-03; -3.4999999E-01;2370;  0.0000000E+00;  0.0000000E+00;  0.0000000E+00;  1.0065668E+03;  1.0000000E-01;  5.4404390E+03;0;  0.0000000E+00;  0.0000000E+00;  0.0000000E+00;0;  3.1079189E-03;  4.0000000E+04;  0.0000000E+00;  0.0000000E+00;  4.0000000E+04;  0.0000000E+00;  4.0000000E+04;  3.0957444E-03;  0.0000000E+00;  1.2174595E-05;  5.6878695E+04;
  1.8000001E-01;  9.9999998E-03; -3.4000000E-01;2371;  0.0000000E+00;  0.0000000E+00;  0.0000000E+00;  1.0083553E+03;  1.0000000E-01;  6.9222734E+03;0;  0.0000000E+00;  0.0000000E+00;  0.0000000E+00;0;  3.7000496E-03;  4.0000000E+04;  0.0000000E+00;  0.0000000E+00;  4.0000000E+04;  0.0000000E+00;  4.0000000E+04;  3.8403135E-03;  0.0000000E+00; -1.4026387E-04;  8.0441406E+04;
  1.8000001E-01;  9.9999998E-03; -3.3000001E-01;2372;  0.0000000E+00;  0.0000000E+00;  0.0000000E+00;  1.0101946E+03;  1.0000000E-01;  8.4459834E+03;0;  0.0000000E+00;  0.0000000E+00;  0.0000000E+00;0;  4.2089098E-03;  4.0000000E+04;  0.0000000E+00;  0.0000000E+00;  4.0000000E+04;  0.0000000E+00;  4.0000000E+04;  4.5493091E-03;  0.0000000E+00; -3.4039913E-04;  1.0188298E+05;
  1.8000001E-01;  9.9999998E-03; -3.1999999E-01;2373;  0.0000000E+00;  0.0000000E+00;  0.0000000E+00;  1.0119399E+03;  1.0000000E-01;  9.8919668E+03;0;  0.0000000E+00;  0.0000000E+00;  0.0000000E+00;0;  4.5715724E-03;  4.0000000E+04;  0.0000000E+00;  0.0000000E+00;  4.0000000E+04;  0.0000000E+00;  4.0000000E+04;  5.1608942E-03;  0.0000000E+00; -5.8932195E-04;  1.1736889E+05;
  1.8000001E-01;  9.9999998E-03; -3.1000000E-01;2374;  0.0000000E+00;  0.0000000E+00;  0.0000000E+00;  1.0134484E+03;  1.0000000E-01;  1.1141710E+04;0;  0.0000000E+00;  0.0000000E+00;  0.0000000E+00;0;  4.7451891E-03;  4.0000000E+04;  0.0000000E+00;  0.0000000E+00;  4.0000000E+04;  0.0000000E+00;  4.0000000E+04;  5.6233797E-03;  0.0000000E+00; -8.7819085E-04;  1.2332776E+05;
  1.9000000E-01;  9.9999998E-03; -4.4000000E-01;2391;  0.0000000E+00;  0.0000000E+00;  0.0000000E+00;  1.0000082E+03;  1.0000000E-01;  6.8146219E+00;0;  0.0000000E+00;  0.0000000E+00;  0.0000000E+00;0;  2.8835722E-05;  4.0000000E+04;  0.0000000E+00;  0.0000000E+00;  4.0000000E+04;  0.0000000E+00;  4.0000000E+04;  1.4127832E-05;  0.0000000E+00;  1.4707891E-05;  6.3323818E+03;
  1.9000000E-01;  9.9999998E-03; -4.3000001E-01;2392;  0.0000000E+00;  0.0000000E+00;  0.0000000E+00;  1.0001091E+03;  1.0000000E-01;  9.0367813E+01;0;  0.0000000E+00;  0.0000000E+00;  0.0000000E+00;0;  8.4274143E-05;  4.0000000E+04;  0.0000000E+00;  0.0000000E+00;  4.0000000E+04;  0.0000000E+00;  4.0000000E+04;  4.4042612E-05;  0.0000000E+00;  4.0231527E-05;  1.2665602E+04;
  1.9000000E-01;  9.9999998E-03; -4.1999999E-01;2393;  0.0000000E+00;  0.0000000E+00;  0.0000000E+00;  1.0003076E+03;  1.0000000E-01;  2.5480760E+02;0;  0.0000000E+00;  0.0000000E+00;  0.0000000E+00;0;  1.8021253E-04;  4.0000000E+04;  0.0000000E+00;  0.0000000E+00;  4.0000000E+04;  0.0000000E+00;  4.0000000E+04;  1.0754413E-04;  0.0000000E+00;  7.2668408E-05;  1.8847764E+04;
  1.9000000E-01;  9.9999998E-03; -4.1000000E-01;2394;  0.0000000E+00;  0.0000000E+00;  0.0000000E+00;  1.0005662E+03;  1.0000000E-01;  4.6912253E+02;0;  0.0000000E+00;  0.0000000E+00;  0.0000000E+00;0;  3.2351931E-04;  4.0000000E+04;  0.0000000E+00;  0.0000000E+00;  4.0000000E+04;  0.0000000E+00;  4.0000000E+04;  2.2300483E-04;  0.0000000E+00;  1.0051449E-04;  2.2371668E+04;
  1.9000000E-01;  9.9999998E-03; -4.0000001E-01;2395;  0.0000000E+00;  0.0000000E+00;  0.0000000E+00;  1.0010366E+03;  1.0000000E-01;  8.5883990E+02;0;  0.0000000E+00;  0.0000000E+00;  0.0000000E+00;0;  5.2345591E-04;  4.0000000E+04;  0.0000000E+00;  0.0000000E+00;  4.0000000E+04;  0.0000000E+00;  4.0000000E+04;  4.1096358E-04;  0.0000000E+00;  1.1249235E-04;  2.1342117E+04;
  1.9000000E-01;  9.9999998E-03; -3.8999999E-01;2396;  0.0000000E+00;  0.0000000E+00;  0.0000000E+00;  1.0016687E+03;  1.0000000E-01;  1.3824794E+03;0;  0.0000000E+00;  0.0000000E+00;  0.0000000E+00;0;  7.9164846E-04;  4.0000000E+04;  0.0000000E+00;  0.0000000E+00;  4.0000000E+04;  0.0000000E+00;  4.0000000E+04;  6.9137057E-04;  0.0000000E+00;  1.0027789E-04;  1.4789194E+04;
  1.9000000E-01;  9.9999998E-03; -3.8000000E-01;2397;  0.0000000E+00;  0.0000000E+00;  0.0000000E+00;  1.0025532E+03;  1.0000000E-01;  2.1151995E+03;0;  0.0000000E+00;  0.0000000E+00;  0.0000000E+00;0;  1.1377357E-03;  4.0000000E+04;  0.0000000E+00;  0.0000000E+00;  4.0000000E+04;  0.0000000E+00;  4.0000000E+04;  1.0793888E-03;  0.0000000E+00;  5.8346886E-05;  4.5686753E+03;
  1.9000000E-01;  9.9999998E-03; -3.7000000E-01;2398;  0.0000000E+00;  0.0000000E+00;  0.0000000E+00;  1.0037231E+03;  1.0000000E-01;  3.0844561E+03;0;  0.0000000E+00;  0.0000000E+00;  0.0000000E+00;0;  1.5633887E-03;  4.0000000E+04;  0.0000000E+00;  0.0000000E+00;  4.0000000E+04;  0.0000000E+00;  4.0000000E+04;  1.5804875E-03;  0.0000000E+00; -1.7098768E-05;  1.8135893E+04;
  1.9000000E-01;  9.9999998E-03; -3.6000001E-01;2399;  0.0000000E+00;  0.0000000E+00;  0.0000000E+00;  1.0051397E+03;  1.0000000E-01;  4.2581514E+03;0;  0.0000000E+00;  0.0000000E+00;  0.0000000E+00;0;  2.0566306E-03;  4.0000000E+04;  0.0000000E+00;  0.0000000E+00;  4.0000000E+04;  0.0000000E+00;  4.0000000E+04;  2.1859417E-03;  0.0000000E+00; -1.2931117E-04;  4.1871805E+04;
  1.9000000E-01;  9.9999998E-03; -3.4999999E-01;2400;  0.0000000E+00;  0.0000000E+00;  0.0000000E+00;  1.0068084E+03;  1.0000000E-01;  5.6406304E+03;0;  0.0000000E+00;  0.0000000E+00;  0.0000000E+00;0;  2.5882698E-03;  4.0000000E+04;  0.0000000E+00;  0.0000000E+00;  4.0000000E+04;  0.0000000E+00;  4.0000000E+04;  2.8699373E-03;  0.0000000E+00; -2.8166754E-04;  6.9426828E+04;
  1.9000000E-01;  9.9999998E-03; -3.4000000E-01;2401;  0.0000000E+00;  0.0000000E+00;  0.0000000E+00;  1.0086271E+03;  1.0000000E-01;  7.1474521E+03;0;  0.0000000E+00;  0.0000000E+00;  0.0000000E+00;0;  3.1129329E-03;  4.0000000E+04;  0.0000000E+00;  0.0000000E+00;  4.0000000E+04;  0.0000000E+00;  4.0000000E+04;  3.5901146E-03;  0.0000000E+00; -4.7718178E-04;  9.7942328E+04;
  1.9000000E-01;  9.9999998E-03; -3.3000001E-01;2402;  0.0000000E+00;  0.0000000E+00;  0.0000000E+00;  1.0104745E+03;  1.0000000E-01;  8.6778779E+03;0;  0.0000000E+00;  0.0000000E+00;  0.0000000E+00;0;  3.5761721E-03;  4.0000000E+04;  0.0000000E+00;  0.0000000E+00;  4.0000000E+04;  0.0000000E+00;  4.0000000E+04;  4.2923815E-03;  0.0000000E+00; -7.1620953E-04;  1.2354409E+05;
  1.9000000E-01;  9.9999998E-03; -3.1999999E-01;2403;  0.0000000E+00;  0.0000000E+00;  0.0000000E+00;  1.0122047E+03;  1.0000000E-01;  1.0111418E+04;0;  0.0000000E+00;  0.0000000E+00;  0.0000000E+00;0;  3.9276187E-03;  4.0000000E+04;  0.0000000E+00;  0.0000000E+00;  4.0000000E+04;  0.0000000E+00;  4.0000000E+04;  4.9192347E-03;  0.0000000E+00; -9.9161605E-04;  1.4158466E+05;
  1.9000000E-01;  9.9999998E-03; -3.1000000E-01;2404;  0.0000000E+00;  0.0000000E+00;  0.0000000E+00;  1.0136580E+03;  1.0000000E-01;  1.1315334E+04;0;  0.0000000E+00;  0.0000000E+00;  0.0000000E+00;0;  4.1385759E-03;  4.0000000E+04;  0.0000000E+00;  0.0000000E+00;  4.0000000E+04;  0.0000000E+00;  4.0000000E+04;  5.4198699E-03;  0.0000000E+00; -1.2812940E-03;  1.4771375E+05;
  2.0000000E-01;  9.9999998E-03; -4.4000000E-01;2420;  0.0000000E+00;  0.0000000E+00;  0.0000000E+00;  1.0000304E+03;  1.0000000E-01;  2.5184473E+01;0;  0.0000000E+00;  0.0000000E+00;  0.0000000E+00;0;  1.2297691E-05;  4.0000000E+04;  0.0000000E+00;  0.0000000E+00;  4.0000000E+04;  0.0000000E+00;  4.0000000E+04;  1.5366562E-05;  0.0000000E+00; -3.0688720E-06;  8.7533057E+03;
  2.0000000E-01;  9.9999998E-03; -4.3000001E-01;2421;  0.0000000E+00;  0.0000000E+00;  0.0000000E+00;  1.0001221E+03;  1.0000000E-01;  1.0123170E+02;0;  0.0000000E+00;  0.0000000E+00;  0.0000000E+00;0;  4.7133282E-05;  4.0000000E+04;  0.0000000E+00;  0.0000000E+00;  4.0000000E+04;  0.0000000E+00;  4.0000000E+04;  4.3101827E-05;  0.0000000E+00;  4.0314553E-06;  1.7042811E+04;
  2.0000000E-01;  9.9999998E-03; -4.1999999E-01;2422;  0.0000000E+00;  0.0000000E+00;  0.0000000E+00;  1.0003251E+03;  1.0000000E-01;  2.6932571E+02;0;  0.0000000E+00;  0.0000000E+00;  0.0000000E+00;0;  1.1275569E-04;  4.0000000E+04;  0.0000000E+00;  0.0000000E+00;  4.0000000E+04;  0.0000000E+00;  4.0000000E+04;  9.9568038E-05;  0.0000000E+00;  1.3187654E-05;  2.4713695E+04;
  2.0000000E-01;  9.9999998E-03; -4.1000000E-01;2423;  0.0000000E+00;  0.0000000E+00;  0.0000000E+00;  1.0006157E+03;  1.0000000E-01;  5.1010904E+02;0;  0.0000000E+00;  0.0000000E+00;  0.0000000E+00;0;  2.1574562E-04;  4.0000000E+04;  0.0000000E+00;  0.0000000E+00;  4.0000000E+04;  0.0000000E+00;  4.0000000E+04;  2.0103909E-04;  0.0000000E+00;  1.4706537E-05;  2.8684209E+04;
  2.0000000E-01;  9.9999998E-03; -4.0000001E-01;2424;  0.0000000E+00;  0.0000000E+00;  0.0000000E+00;  1.0010898E+03;  1.0000000E-01;  9.0288806E+02;0;  0.0000000E+00;  0.0000000E+00;  0.0000000E+00;0;  3.6504975E-04;  4.0000000E+04;  0.0000000E+00;  0.0000000E+00;  4.0000000E+04;  0.0000000E+00;  4.0000000E+04;  3.6660553E-04;  0.0000000E+00; -1.5557641E-06;  2.6880289E+04;
  2.0000000E-01;  9.9999998E-03; -3.8999999E-01;2425;  0.0000000E+00;  0.0000000E+00;  0.0000000E+00;  1.0017397E+03;  1.0000000E-01;  1.4413419E+03;0;  0.0000000E+00;  0.0000000E+00;  0.0000000E+00;0;  5.7238818E-04;  4.0000000E+04;  0.0000000E+00;  0.0000000E+00;  4.0000000E+04;  0.0000000E+00;  4.0000000E+04;  6.1585708E-04;  0.0000000E+00; -4.3468921E-05;  1.8363334E+04;
  2.0000000E-01;  9.9999998E-03; -3.8000000E-01;2426;  0.0000000E+00;  0.0000000E+00;  0.0000000E+00;  1.0026120E+03;  1.0000000E-01;  2.1639883E+03;0;  0.0000000E+00;  0.0000000E+00;  0.0000000E+00;0;  8.4882835E-04;  4.0000000E+04;  0.0000000E+00;  0.0000000E+00;  4.0000000E+04;  0.0000000E+00;  4.0000000E+04;  9.6527231E-04;  0.0000000E+00; -1.1644397E-04;  4.2896328E+03;
  2.0000000E-01;  9.9999998E-03; -3.7000000E-01;2427;  0.0000000E+00;  0.0000000E+00;  0.0000000E+00;  1.0037791E+03;  1.0000000E-01;  3.1309731E+03;0;  0.0000000E+00;  0.0000000E+00;  0.0000000E+00;0;  1.1994857E-03;  4.0000000E+04;  0.0000000E+00;  0.0000000E+00;  4.0000000E+04;  0.0000000E+00;  4.0000000E+04;  1.4236862E-03;  0.0000000E+00; -2.2420037E-04;  2.0344869E+04;
  2.0000000E-01;  9.9999998E-03; -3.6000001E-01;2428;  0.0000000E+00;  0.0000000E+00;  0.0000000E+00;  1.0052073E+03;  1.0000000E-01;  4.3141494E+03;0;  0.0000000E+00;  0.0000000E+00;  0.0000000E+00;0;  1.6180595E-03;  4.0000000E+04;  0.0000000E+00;  0.0000000E+00;  4.0000000E+04;  0.0000000E+00;  4.0000000E+04;  1.9877348E-03;  0.0000000E+00; -3.6967531E-04;  4.8242809E+04;
  2.0000000E-01;  9.9999998E-03; -3.4999999E-01;2429;  0.0000000E+00;  0.0000000E+00;  0.0000000E+00;  1.0068624E+03;  1.0000000E-01;  5.6853701E+03;0;  0.0000000E+00;  0.0000000E+00;  0.0000000E+00;0;  2.0831723E-03;  4.0000000E+04;  0.0000000E+00;  0.0000000E+00;  4.0000000E+04;  0.0000000E+00;  4.0000000E+04;  2.6384576E-03;  0.0000000E+00; -5.5528531E-04;  8.0126758E+04;
  2.0000000E-01;  9.9999998E-03; -3.4000000E-01;2430;  0.0000000E+00;  0.0000000E+00;  0.0000000E+00;  1.0086505E+03;  1.0000000E-01;  7.1667109E+03;0;  0.0000000E+00;  0.0000000E+00;  0.0000000E+00;0;  2.5590085E-03;  4.0000000E+04;  0.0000000E+00;  0.0000000E+00;  4.0000000E+04;  0.0000000E+00;  4.0000000E+04;  3.3408708E-03;  0.0000000E+00; -7.8186224E-04;  1.1284838E+05;
  2.0000000E-01;  9.9999998E-03; -3.3000001E-01;2431;  0.0000000E+00;  0.0000000E+00;  0.0000000E+00;  1.0104558E+03;  1.0000000E-01;  8.6624707E+03;0;  0.0000000E+00;  0.0000000E+00;  0.0000000E+00;0;  3.0019919E-03;  4.0000000E+04;  0.0000000E+00;  0.0000000E+00;  4.0000000E+04;  0.0000000E+00;  4.0000000E+04;  4.0475321E-03;  0.0000000E+00; -1.0455402E-03;  1.4205691E+05;
  2.0000000E-01;  9.9999998E-03; -3.1999999E-01;2432;  0.0000000E+00;  0.0000000E+00;  0.0000000E+00;  1.0121239E+03;  1.0000000E-01;  1.0044457E+04;0;  0.0000000E+00;  0.0000000E+00;  0.0000000E+00;0;  3.3733740E-03;  4.0000000E+04;  0.0000000E+00;  0.0000000E+00;  4.0000000E+04;  0.0000000E+00;  4.0000000E+04;  4.7053550E-03;  0.0000000E+00; -1.3319810E-03;  1.6248333E+05;
  2.0000000E-01;  9.9999998E-03; -3.1000000E-01;2433;  0.0000000E+00;  0.0000000E+00;  0.0000000E+00;  1.0135000E+03;  1.0000000E-01;  1.1184474E+04;0;  0.0000000E+00;  0.0000000E+00;  0.0000000E+00;0;  3.6551473E-03;  4.0000000E+04;  0.0000000E+00;  0.0000000E+00;  4.0000000E+04;  0.0000000E+00;  4.0000000E+04;  5.2636047E-03;  0.0000000E+00; -1.6084573E-03;  1.6909653E+05;
 -1.9000000E-01;  9.9999998E-03; -2.7000001E-01;107;  0.0000000E+00;  0.0000000E+00;  0.0000000E+00;  1.0000000E+03;  1.0000000E-01;  0.0000000E+00;0;  0.0000000E+00;  0.0000000E+00;  0.0000000E+00;0;  0.0000000E+00;  4.0000000E+04;  0.0000000E+00;  0.0000000E+00;  4.0000000E+04;  0.0000000E+00;  4.0000000E+04;  0.0000000E+00;  0.0000000E+00;  0.0000000E+00;  0.0000000E+00;
 -1.9000000E-01;  9.9999998E-03; -2.5999999E-01;108;  0.0000000E+00;  0.0000000E+00;  0.0000000E+00;  1.0000000E+03;  1.0000000E-01;  0.0000000E+00;0;  0.0000000E+00;  0.0000000E+00;  0.0000000E+00;0;  0.0000000E+00;  4.0000000E+04;  0.0000000E+00;  0.0000000E+00;  4.0000000E+04;  0.0000000E+00;  4.0000000E+04;  0.0000000E+00;  0.0000000E+00;  0.0000000E+00;  0.0000000E+00;
 -1.9000000E-01;  9.9999998E-03; -2.5000000E-01;109;  0.0000000E+00;  0.0000000E+00;  0.0000000E+00;  1.0000000E+03;  1.0000000E-01;  0.0000000E+00;0;  0.0000000E+00;  0.0000000E+00;  0.0000000E+00;0;  0.0000000E+00;  4.0000000E+04;  0.0000000E+00;  0.0000000E+00;  4.0000000E+04;  0.0000000E+00;  4.0000000E+04;  0.0000000E+00;  0.0000000E+00;  0.0000000E+00;  0.0000000E+00;
 -1.9000000E-01;  9.9999998E-03; -2.3999999E-01;110;  0.0000000E+00;  0.0000000E+00;  0.0000000E+00;  1.0000000E+03;  1.0000000E-01;  0.0000000E+00;0;  0.0000000E+00;  0.0000000E+00;  0.0000000E+00;0;  0.0000000E+00;  4.0000000E+04;  0.0000000E+00;  0.0000000E+00;  4.0000000E+04;  0.0000000E+00;  4.0000000E+04;  0.0000000E+00;  0.0000000E+00;  0.0000000E+00;  0.0000000E+00;
 -1.9000000E-01;  9.9999998E-03; -2.3000000E-01;111;  0.0000000E+00;  0.0000000E+00;  0.0000000E+00;  1.0000000E+03;  1.0000000E-01;  0.0000000E+00;0;  0.0000000E+00;  0.0000000E+00;  0.0000000E+00;0;  0.0000000E+00;  4.0000000E+04;  0.0000000E+00;  0.0000000E+00;  4.0000000E+04;  0.0000000E+00;  4.0000000E+04;  0.0000000E+00;  0.0000000E+00;  0.0000000E+00;  0.0000000E+00;
 -1.9000000E-01;  9.9999998E-03; -2.2000000E-01;112;  0.0000000E+00;  0.0000000E+00;  0.0000000E+00;  1.0000000E+03;  1.0000000E-01;  0.0000000E+00;0;  0.0000000E+00;  0.0000000E+00;  0.0000000E+00;0;  0.0000000E+00;  4.0000000E+04;  0.0000000E+00;  0.0000000E+00;  4.0000000E+04;  0.0000000E+00;  4.0000000E+04;  0.0000000E+00;  0.0000000E+00;  0.0000000E+00;  0.0000000E+00;
 -1.9000000E-01;  9.9999998E-03; -2.0999999E-01;113;  0.0000000E+00;  0.0000000E+00;  0.0000000E+00;  1.0000000E+03;  1.0000000E-01;  0.0000000E+00;0;  0.0000000E+00;  0.0000000E+00;  0.0000000E+00;0;  0.0000000E+00;  4.0000000E+04;  0.0000000E+00;  0.0000000E+00;  4.0000000E+04;  0.0000000E+00;  4.0000000E+04;  0.0000000E+00;  0.0000000E+00;  0.0000000E+00;  0.0000000E+00;
 -1.9000000E-01;  9.9999998E-03; -2.0000000E-01;114;  0.0000000E+00;  0.0000000E+00;  0.0000000E+00;  1.0000000E+03;  1.0000000E-01;  0.0000000E+00;0;  0.0000000E+00;  0.0000000E+00;  0.0000000E+00;0;  0.0000000E+00;  4.0000000E+04;  0.0000000E+00;  0.0000000E+00;  4.0000000E+04;  0.0000000E+00;  4.0000000E+04;  0.0000000E+00;  0.0000000E+00;  0.0000000E+00;  0.0000000E+00;
 -1.9000000E-01;  9.9999998E-03; -1.9000000E-01;115;  0.0000000E+00;  0.0000000E+00;  0.0000000E+00;  1.0000000E+03;  1.0000000E-01;  0.0000000E+00;0;  0.0000000E+00;  0.0000000E+00;  0.0000000E+00;0;  0.0000000E+00;  4.0000000E+04;  0.0000000E+00;  0.0000000E+00;  4.0000000E+04;  0.0000000E+00;  4.0000000E+04;  0.0000000E+00;  0.0000000E+00;  0.0000000E+00;  0.0000000E+00;
 -1.9000000E-01;  9.9999998E-03; -1.8000001E-01;116;  0.0000000E+00;  0.0000000E+00;  0.0000000E+00;  1.0000000E+03;  1.0000000E-01;  0.0000000E+00;0;  0.0000000E+00;  0.0000000E+00;  0.0000000E+00;0;  0.0000000E+00;  4.0000000E+04;  0.0000000E+00;  0.0000000E+00;  4.0000000E+04;  0.0000000E+00;  4.0000000E+04;  0.0000000E+00;  0.0000000E+00;  0.0000000E+00;  0.0000000E+00;
 -1.9000000E-01;  9.9999998E-03; -1.7000000E-01;117;  0.0000000E+00;  0.0000000E+00;  0.0000000E+00;  1.0000000E+03;  1.0000000E-01;  0.0000000E+00;0;  0.0000000E+00;  0.0000000E+00;  0.0000000E+00;0;  0.0000000E+00;  4.0000000E+04;  0.0000000E+00;  0.0000000E+00;  4.0000000E+04;  0.0000000E+00;  4.0000000E+04;  0.0000000E+00;  0.0000000E+00;  0.0000000E+00;  0.0000000E+00;
 -1.9000000E-01;  9.9999998E-03; -1.6000000E-01;118;  0.0000000E+00;  0.0000000E+00;  0.0000000E+00;  1.0000000E+03;  1.0000000E-01;  0.0000000E+00;0;  0.0000000E+00;  0.0000000E+00;  0.0000000E+00;0;  0.0000000E+00;  4.0000000E+04;  0.0000000E+00;  0.0000000E+00;  4.0000000E+04;  0.0000000E+00;  4.0000000E+04;  0.0000000E+00;  0.0000000E+00;  0.0000000E+00;  0.0000000E+00;
 -1.9000000E-01;  9.9999998E-03; -1.5000001E-01;119;  0.0000000E+00;  0.0000000E+00;  0.0000000E+00;  1.0000000E+03;  1.0000000E-01;  0.0000000E+00;0;  0.0000000E+00;  0.0000000E+00;  0.0000000E+00;0;  0.0000000E+00;  4.0000000E+04;  0.0000000E+00;  0.0000000E+00;  4.0000000E+04;  0.0000000E+00;  4.0000000E+04;  0.0000000E+00;  0.0000000E+00;  0.0000000E+00;  0.0000000E+00;
 -1.9000000E-01;  9.9999998E-03; -1.4000000E-01;120;  0.0000000E+00;  0.0000000E+00;  0.0000000E+00;  1.0000000E+03;  1.0000000E-01;  0.0000000E+00;0;  0.0000000E+00;  0.0000000E+00;  0.0000000E+00;0;  0.0000000E+00;  4.0000000E+04;  0.0000000E+00;  0.0000000E+00;  4.0000000E+04;  0.0000000E+00;  4.0000000E+04;  0.0000000E+00;  0.0000000E+00;  0.0000000E+00;  0.0000000E+00;
 -1.9000000E-01;  9.9999998E-03; -1.3000000E-01;121;  0.0000000E+00;  0.0000000E+00;  0.0000000E+00;  1.0000000E+03;  1.0000000E-01;  0.0000000E+00;0;  0.0000000E+00;  0.0000000E+00;  0.0000000E+00;0;  0.0000000E+00;  4.0000000E+04;  0.0000000E+00;  0.0000000E+00;  4.0000000E+04;  0.0000000E+00;  4.0000000E+04;  0.0000000E+00;  0.0000000E+00;  0.0000000E+00;  0.0000000E+00;
 -1.9000000E-01;  9.9999998E-03; -1.2000000E-01;122;  0.0000000E+00;  0.0000000E+00;  0.0000000E+00;  1.0000000E+03;  1.0000000E-01;  0.0000000E+00;0;  0.0000000E+00;  0.0000000E+00;  0.0000000E+00;0;  0.0000000E+00;  4.0000000E+04;  0.0000000E+00;  0.0000000E+00;  4.0000000E+04;  0.0000000E+00;  4.0000000E+04;  0.0000000E+00;  0.0000000E+00;  0.0000000E+00;  0.0000000E+00;
 -1.9000000E-01;  9.9999998E-03; -1.1000000E-01;123;  0.0000000E+00;  0.0000000E+00;  0.0000000E+00;  1.0000000E+03;  1.0000000E-01;  0.0000000E+00;0;  0.0000000E+00;  0.0000000E+00;  0.0000000E+00;0;  0.0000000E+00;  4.0000000E+04;  0.0000000E+00;  0.0000000E+00;  4.0000000E+04;  0.0000000E+00;  4.0000000E+04;  0.0000000E+00;  0.0000000E+00;  0.0000000E+00;  0.0000000E+00;
 -1.8000001E-01;  9.9999998E-03; -2.7000001E-01;198;  0.0000000E+00;  0.0000000E+00;  0.0000000E+00;  1.0000000E+03;  1.0000000E-01;  0.0000000E+00;0;  0.0000000E+00;  0.0000000E+00;  0.0000000E+00;0;  0.0000000E+00;  4.0000000E+04;  0.0000000E+00;  0.0000000E+00;  4.0000000E+04;  0.0000000E+00;  4.0000000E+04;  0.0000000E+00;  0.0000000E+00;  0.0000000E+00;  0.0000000E+00;
 -1.8000001E-01;  9.9999998E-03; -2.5999999E-01;199;  0.0000000E+00;  0.0000000E+00;  0.0000000E+00;  1.0000000E+03;  1.0000000E-01;  0.0000000E+00;0;  0.0000000E+00;  0.0000000E+00;  0.0000000E+00;0;  0.0000000E+00;  4.0000000E+04;  0.0000000E+00;  0.0000000E+00;  4.0000000E+04;  0.0000000E+00;  4.0000000E+04;  0.0000000E+00;  0.0000000E+00;  0.0000000E+00;  0.0000000E+00;
 -1.8000001E-01;  9.9999998E-03; -2.5000000E-01;200;  0.0000000E+00;  0.0000000E+00;  0.0000000E+00;  1.0000000E+03;  1.0000000E-01;  0.0000000E+00;0;  0.0000000E+00;  0.0000000E+00;  0.0000000E+00;0;  0.0000000E+00;  4.0000000E+04;  0.0000000E+00;  0.0000000E+00;  4.0000000E+04;  0.0000000E+00;  4.0000000E+04;  0.0000000E+00;  0.0000000E+00;  0.0000000E+00;  0.0000000E+00;
 -1.8000001E-01;  9.9999998E-03; -2.3999999E-01;201;  0.0000000E+00;  0.0000000E+00;  0.0000000E+00;  1.0000000E+03;  1.0000000E-01;  0.0000000E+00;0;  0.0000000E+00;  0.0000000E+00;  0.0000000E+00;0;  0.0000000E+00;  4.0000000E+04;  0.0000000E+00;  0.0000000E+00;  4.0000000E+04;  0.0000000E+00;  4.0000000E+04;  0.0000000E+00;  0.0000000E+00;  0.0000000E+00;  0.0000000E+00;
 -1.8000001E-01;  9.9999998E-03; -2.3000000E-01;202;  0.0000000E+00;  0.0000000E+00;  0.0000000E+00;  1.0000000E+03;  1.0000000E-01;  0.0000000E+00;0;  0.0000000E+00;  0.0000000E+00;  0.0000000E+00;0;  0.0000000E+00;  4.0000000E+04;  0.0000000E+00;  0.0000000E+00;  4.0000000E+04;  0.0000000E+00;  4.0000000E+04;  0.0000000E+00;  0.0000000E+00;  0.0000000E+00;  0.0000000E+00;
 -1.8000001E-01;  9.9999998E-03; -2.2000000E-01;203;  0.0000000E+00;  0.0000000E+00;  0.0000000E+00;  1.0000000E+03;  1.0000000E-01;  0.0000000E+00;0;  0.0000000E+00;  0.0000000E+00;  0.0000000E+00;0;  0.0000000E+00;  4.0000000E+04;  0.0000000E+00;  0.0000000E+00;  4.0000000E+04;  0.0000000E+00;  4.0000000E+04;  0.0000000E+00;  0.0000000E+00;  0.0000000E+00;  0.0000000E+00;
 -1.8000001E-01;  9.9999998E-03; -2.0999999E-01;204;  0.0000000E+00;  0.0000000E+00;  0.0000000E+00;  1.0000000E+03;  1.0000000E-01;  0.0000000E+00;0;  0.0000000E+00;  0.0000000E+00;  0.0000000E+00;0;  0.0000000E+00;  4.0000000E+04;  0.0000000E+00;  0.0000000E+00;  4.0000000E+04;  0.0000000E+00;  4.0000000E+04;  0.0000000E+00;  0.0000000E+00;  0.0000000E+00;  0.0000000E+00;
 -1.8000001E-01;  9.9999998E-03; -2.0000000E-01;205;  0.0000000E+00;  0.0000000E+00;  0.0000000E+00;  1.0000000E+03;  1.0000000E-01;  0.0000000E+00;0;  0.0000000E+00;  0.0000000E+00;  0.0000000E+00;0;  0.0000000E+00;  4.0000000E+04;  0.0000000E+00;  0.0000000E+00;  4.0000000E+04;  0.0000000E+00;  4.0000000E+04;  0.0000000E+00;  0.0000000E+00;  0.0000000E+00;  0.0000000E+00;
 -1.8000001E-01;  9.9999998E-03; -1.9000000E-01;206;  0.0000000E+00;  0.0000000E+00;  0.0000000E+00;  1.0000000E+03;  1.0000000E-01;  0.0000000E+00;0;  0.0000000E+00;  0.0000000E+00;  0.0000000E+00;0;  0.0000000E+00;  4.0000000E+04;  0.0000000E+00;  0.0000000E+00;  4.0000000E+04;  0.0000000E+00;  4.0000000E+04;  0.0000000E+00;  0.0000000E+00;  0.0000000E+00;  0.0000000E+00;
 -1.8000001E-01;  9.9999998E-03; -1.8000001E-01;207;  0.0000000E+00;  0.0000000E+00;  0.0000000E+00;  1.0000000E+03;  1.0000000E-01;  0.0000000E+00;0;  0.0000000E+00;  0.0000000E+00;  0.0000000E+00;0;  0.0000000E+00;  4.0000000E+04;  0.0000000E+00;  0.0000000E+00;  4.0000000E+04;  0.0000000E+00;  4.0000000E+04;  0.0000000E+00;  0.0000000E+00;  0.0000000E+00;  0.0000000E+00;
 -1.8000001E-01;  9.9999998E-03; -1.7000000E-01;208;  0.0000000E+00;  0.0000000E+00;  0.0000000E+00;  1.0000000E+03;  1.0000000E-01;  0.0000000E+00;0;  0.0000000E+00;  0.0000000E+00;  0.0000000E+00;0;  0.0000000E+00;  4.0000000E+04;  0.0000000E+00;  0.0000000E+00;  4.0000000E+04;  0.0000000E+00;  4.0000000E+04;  0.0000000E+00;  0.0000000E+00;  0.0000000E+00;  0.0000000E+00;
 -1.8000001E-01;  9.9999998E-03; -1.6000000E-01;209;  0.0000000E+00;  0.0000000E+00;  0.0000000E+00;  1.0000000E+03;  1.0000000E-01;  0.0000000E+00;0;  0.0000000E+00;  0.0000000E+00;  0.0000000E+00;0;  0.0000000E+00;  4.0000000E+04;  0.0000000E+00;  0.0000000E+00;  4.0000000E+04;  0.0000000E+00;  4.0000000E+04;  0.0000000E+00;  0.0000000E+00;  0.0000000E+00;  0.0000000E+00;
 -1.8000001E-01;  9.9999998E-03; -1.5000001E-01;210;  0.0000000E+00;  0.0000000E+00;  0.0000000E+00;  1.0000000E+03;  1.0000000E-01;  0.0000000E+00;0;  0.0000000E+00;  0.0000000E+00;  0.0000000E+00;0;  0.0000000E+00;  4.0000000E+04;  0.0000000E+00;  0.0000000E+00;  4.0000000E+04;  0.0000000E+00;  4.0000000E+04;  0.0000000E+00;  0.0000000E+00;  0.0000000E+00;  0.0000000E+00;
 -1.8000001E-01;  9.9999998E-03; -1.4000000E-01;211;  0.0000000E+00;  0.0000000E+00;  0.0000000E+00;  1.0000000E+03;  1.0000000E-01;  0.0000000E+00;0;  0.0000000E+00;  0.0000000E+00;  0.0000000E+00;0;  0.0000000E+00;  4.0000000E+04;  0.0000000E+00;  0.0000000E+00;  4.0000000E+04;  0.0000000E+00;  4.0000000E+04;  0.0000000E+00;  0.0000000E+00;  0.0000000E+00;  0.0000000E+00;
 -1.8000001E-01;  9.9999998E-03; -1.3000000E-01;212;  0.0000000E+00;  0.0000000E+00;  0.0000000E+00;  1.0000000E+03;  1.0000000E-01;  0.0000000E+00;0;  0.0000000E+00;  0.0000000E+00;  0.0000000E+00;0;  0.0000000E+00;  4.0000000E+04;  0.0000000E+00;  0.0000000E+00;  4.0000000E+04;  0.0000000E+00;  4.0000000E+04;  0.0000000E+00;  0.0000000E+00;  0.0000000E+00;  0.0000000E+00;
 -1.8000001E-01;  9.9999998E-03; -1.2000000E-01;213;  0.0000000E+00;  0.0000000E+00;  0.0000000E+00;  1.0000000E+03;  1.0000000E-01;  0.0000000E+00;0;  0.0000000E+00;  0.0000000E+00;  0.0000000E+00;0;  0.0000000E+00;  4.0000000E+04;  0.0000000E+00;  0.0000000E+00;  4.0000000E+04;  0.0000000E+00;  4.0000000E+04;  0.0000000E+00;  0.0000000E+00;  0.0000000E+00;  0.0000000E+00;
 -1.8000001E-01;  9.9999998E-03; -1.1000000E-01;214;  0.0000000E+00;  0.0000000E+00;  0.0000000E+00;  1.0000000E+03;  1.0000000E-01;  0.0000000E+00;0;  0.0000000E+00;  0.0000000E+00;  0.0000000E+00;0;  0.0000000E+00;  4.0000000E+04;  0.0000000E+00;  0.0000000E+00;  4.0000000E+04;  0.0000000E+00;  4.0000000E+04;  0.0000000E+00;  0.0000000E+00;  0.0000000E+00;  0.0000000E+00;
 -1.7000000E-01;  9.9999998E-03; -2.7000001E-01;289;  0.0000000E+00;  0.0000000E+00;  0.0000000E+00;  1.0000000E+03;  1.0000000E-01;  0.0000000E+00;0;  0.0000000E+00;  0.0000000E+00;  0.0000000E+00;0;  0.0000000E+00;  4.0000000E+04;  0.0000000E+00;  0.0000000E+00;  4.0000000E+04;  0.0000000E+00;  4.0000000E+04;  0.0000000E+00;  0.0000000E+00;  0.0000000E+00;  9.0627929E-11;
 -1.7000000E-01;  9.9999998E-03; -2.5999999E-01;290;  0.0000000E+00;  0.0000000E+00;  0.0000000E+00;  1.0000000E+03;  1.0000000E-01;  0.0000000E+00;0;  0.0000000E+00;  0.0000000E+00;  0.0000000E+00;0;  0.0000000E+00;  4.0000000E+04;  0.0000000E+00;  0.0000000E+00;  4.0000000E+04;  0.0000000E+00;  4.0000000E+04;  0.0000000E+00;  0.0000000E+00;  0.0000000E+00;  2.4658295E-10;
 -1.7000000E-01;  9.9999998E-03; -2.5000000E-01;291;  0.0000000E+00;  0.0000000E+00;  0.0000000E+00;  1.0000000E+03;  1.0000000E-01;  0.0000000E+00;0;  0.0000000E+00;  0.0000000E+00;  0.0000000E+00;0;  0.0000000E+00;  4.0000000E+04;  0.0000000E+00;  0.0000000E+00;  4.0000000E+04;  0.0000000E+00;  4.0000000E+04;  0.0000000E+00;  0.0000000E+00;  0.0000000E+00;  4.6683907E-10;
 -1.7000000E-01;  9.9999998E-03; -2.3999999E-01;292;  0.0000000E+00;  0.0000000E+00;  0.0000000E+00;  1.0000000E+03;  1.0000000E-01;  0.0000000E+00;0;  0.0000000E+00;  0.0000000E+00;  0.0000000E+00;0;  0.0000000E+00;  4.0000000E+04;  0.0000000E+00;  0.0000000E+00;  4.0000000E+04;  0.0000000E+00;  4.0000000E+04;  0.0000000E+00;  0.0000000E+00;  0.0000000E+00;  7.1558121E-10;
 -1.7000000E-01;  9.9999998E-03; -2.3000000E-01;293;  0.0000000E+00;  0.0000000E+00;  0.0000000E+00;  1.0000000E+03;  1.0000000E-01;  0.0000000E+00;0;  0.0000000E+00;  0.0000000E+00;  0.0000000E+00;0;  0.0000000E+00;  4.0000000E+04;  0.0000000E+00;  0.0000000E+00;  4.0000000E+04;  0.0000000E+00;  4.0000000E+04;  0.0000000E+00;  0.0000000E+00;  0.0000000E+00;  9.6112662E-10;
 -1.7000000E-01;  9.9999998E-03; -2.2000000E-01;294;  0.0000000E+00;  0.0000000E+00;  0.0000000E+00;  1.0000000E+03;  1.0000000E-01;  0.0000000E+00;0;  0.0000000E+00;  0.0000000E+00;  0.0000000E+00;0;  0.0000000E+00;  4.0000000E+04;  0.0000000E+00;  0.0000000E+00;  4.0000000E+04;  0.0000000E+00;  4.0000000E+04;  0.0000000E+00;  0.0000000E+00;  0.0000000E+00;  1.1699183E-09;
 -1.7000000E-01;  9.9999998E-03; -2.0999999E-01;295;  0.0000000E+00;  0.0000000E+00;  0.0000000E+00;  1.0000000E+03;  1.0000000E-01;  0.0000000E+00;0;  0.0000000E+00;  0.0000000E+00;  0.0000000E+00;0;  0.0000000E+00;  4.0000000E+04;  0.0000000E+00;  0.0000000E+00;  4.0000000E+04;  0.0000000E+00;  4.0000000E+04;  0.0000000E+00;  0.0000000E+00;  0.0000000E+00;  1.3086691E-09;
 -1.7000000E-01;  9.9999998E-03; -2.0000000E-01;296;  0.0000000E+00;  0.0000000E+00;  0.0000000E+00;  1.0000000E+03;  1.0000000E-01;  0.0000000E+00;0;  0.0000000E+00;  0.0000000E+00;  0.0000000E+00;0;  0.0000000E+00;  4.0000000E+04;  0.0000000E+00;  0.0000000E+00;  4.0000000E+04;  0.0000000E+00;  4.0000000E+04;  0.0000000E+00;  0.0000000E+00;  0.0000000E+00;  1.3572687E-09;
 -1.7000000E-01;  9.9999998E-03; -1.9000000E-01;297;  0.0000000E+00;  0.0000000E+00;  0.0000000E+00;  1.0000000E+03;  1.0000000E-01;  0.0000000E+00;0;  0.0000000E+00;  0.0000000E+00;  0.0000000E+00;0;  0.0000000E+00;  4.0000000E+04;  0.0000000E+00;  0.0000000E+00;  4.0000000E+04;  0.0000000E+00;  4.0000000E+04;  0.0000000E+00;  0.0000000E+00;  0.0000000E+00;  1.3804570E-09;
 -1.7000000E-01;  9.9999998E-03; -1.8000001E-01;298;  0.0000000E+00;  0.0000000E+00;  0.0000000E+00;  1.0000000E+03;  1.0000000E-01;  0.0000000E+00;0;  0.0000000E+00;  0.0000000E+00;  0.0000000E+00;0;  0.0000000E+00;  4.0000000E+04;  0.0000000E+00;  0.0000000E+00;  4.0000000E+04;  0.0000000E+00;  4.0000000E+04;  0.0000000E+00;  0.0000000E+00;  0.0000000E+00;  1.4541069E-09;
 -1.7000000E-01;  9.9999998E-03; -1.7000000E-01;299;  0.0000000E+00;  0.0000000E+00;  0.0000000E+00;  1.0000000E+03;  1.0000000E-01;  0.0000000E+00;0;  0.0000000E+00;  0.0000000E+00;  0.0000000E+00;0;  0.0000000E+00;  4.0000000E+04;  0.0000000E+00;  0.0000000E+00;  4.0000000E+04;  0.0000000E+00;  4.0000000E+04;  0.0000000E+00;  0.0000000E+00;  0.0000000E+00;  1.5733465E-09;
 -1.7000000E-01;  9.9999998E-03; -1.6000000E-01;300;  0.0000000E+00;  0.0000000E+00;  0.0000000E+00;  1.0000000E+03;  1.0000000E-01;  0.0000000E+00;0;  0.0000000E+00;  0.0000000E+00;  0.0000000E+00;0;  0.0000000E+00;  4.0000000E+04;  0.0000000E+00;  0.0000000E+00;  4.0000000E+04;  0.0000000E+00;  4.0000000E+04;  0.0000000E+00;  0.0000000E+00;  0.0000000E+00;  1.7068523E-09;
 -1.7000000E-01;  9.9999998E-03; -1.5000001E-01;301;  0.0000000E+00;  0.0000000E+00;  0.0000000E+00;  1.0000000E+03;  1.0000000E-01;  0.0000000E+00;0;  0.0000000E+00;  0.0000000E+00;  0.0000000E+00;0;  0.0000000E+00;  4.0000000E+04;  0.0000000E+00;  0.0000000E+00;  4.0000000E+04;  0.0000000E+00;  4.0000000E+04;  0.0000000E+00;  0.0000000E+00;  0.0000000E+00;  1.8278684E-09;
 -1.7000000E-01;  9.9999998E-03; -1.4000000E-01;302;  0.0000000E+00;  0.0000000E+00;  0.0000000E+00;  1.0000000E+03;  1.0000000E-01;  0.0000000E+00;0;  0.0000000E+00;  0.0000000E+00;  0.0000000E+00;0;  0.0000000E+00;  4.0000000E+04;  0.0000000E+00;  0.0000000E+00;  4.0000000E+04;  0.0000000E+00;  4.0000000E+04;  0.0000000E+00;  0.0000000E+00;  0.0000000E+00;  1.9071082E-09;
 -1.7000000E-01;  9.9999998E-03; -1.3000000E-01;303;  0.0000000E+00;  0.0000000E+00;  0.0000000E+00;  1.0000000E+03;  1.0000000E-01;  0.0000000E+00;0;  0.0000000E+00;  0.0000000E+00;  0.0000000E+00;0;  0.0000000E+00;  4.0000000E+04;  0.0000000E+00;  0.0000000E+00;  4.0000000E+04;  0.0000000E+00;  4.0000000E+04;  0.0000000E+00;  0.0000000E+00;  0.0000000E+00;  1.9297872E-09;
 -1.7000000E-01;  9.9999998E-03; -1.2000000E-01;304;  0.0000000E+00;  0.0000000E+00;  0.0000000E+00;  1.0000000E+03;  1.0000000E-01;  0.0000000E+00;0;  0.0000000E+00;  0.0000000E+00;  0.0000000E+00;0;  0.0000000E+00;  4.0000000E+04;  0.0000000E+00;  0.0000000E+00;  4.0000000E+04;  0.0000000E+00;  4.0000000E+04;  0.0000000E+00;  0.0000000E+00;  0.0000000E+00;  1.9547151E-09;
 -1.7000000E-01;  9.9999998E-03; -1.1000000E-01;305;  0.0000000E+00;  0.0000000E+00;  0.0000000E+00;  1.0000000E+03;  1.0000000E-01;  0.0000000E+00;0;  0.0000000E+00;  0.0000000E+00;  0.0000000E+00;0;  0.0000000E+00;  4.0000000E+04;  0.0000000E+00;  0.0000000E+00;  4.0000000E+04;  0.0000000E+00;  4.0000000E+04;  0.0000000E+00;  0.0000000E+00;  0.0000000E+00;  1.9624904E-09;
 -1.6000000E-01;  9.9999998E-03; -2.7000001E-01;380;  0.0000000E+00;  0.0000000E+00;  0.0000000E+00;  1.0000000E+03;  1.0000000E-01;  0.0000000E+00;0;  0.0000000E+00;  0.0000000E+00;  0.0000000E+00;0;  1.7885859E-06;  4.0000000E+04;  0.0000000E+00;  0.0000000E+00;  4.0000000E+04;  0.0000000E+00;  4.0000000E+04;  1.7790337E-06;  0.0000000E+00;  9.5521528E-09;  5.7815351E-02;
 -1.6000000E-01;  9.9999998E-03; -2.5999999E-01;381;  0.0000000E+00;  0.0000000E+00;  0.0000000E+00;  1.0000000E+03;  1.0000000E-01;  0.0000000E+00;0;  0.0000000E+00;  0.0000000E+00;  0.0000000E+00;0;  2.0216055E-06;  4.0000000E+04;  0.0000000E+00;  0.0000000E+00;  4.0000000E+04;  0.0000000E+00;  4.0000000E+04;  2.0238413E-06;  0.0000000E+00; -2.2356748E-09;  1.2314171E-01;
 -1.6000000E-01;  9.9999998E-03; -2.5000000E-01;382;  0.0000000E+00;  0.0000000E+00;  0.0000000E+00;  1.0000000E+03;  1.0000000E-01;  0.0000000E+00;0;  0.0000000E+00;  0.0000000E+00;  0.0000000E+00;0;  2.0767311E-06;  4.0000000E+04;  0.0000000E+00;  0.0000000E+00;  4.0000000E+04;  0.0000000E+00;  4.0000000E+04;  2.0878267E-06;  0.0000000E+00; -1.1095667E-08;  1.7624639E-01;
 -1.6000000E-01;  9.9999998E-03; -2.3999999E-01;383;  0.0000000E+00;  0.0000000E+00;  0.0000000E+00;  1.0000000E+03;  1.0000000E-01;  0.0000000E+00;0;  0.0000000E+00;  0.0000000E+00;  0.0000000E+00;0;  1.9862075E-06;  4.0000000E+04;  0.0000000E+00;  0.0000000E+00;  4.0000000E+04;  0.0000000E+00;  4.0000000E+04;  1.9991337E-06;  0.0000000E+00; -1.2926236E-08;  2.0978132E-01;
 -1.6000000E-01;  9.9999998E-03; -2.3000000E-01;384;  0.0000000E+00;  0.0000000E+00;  0.0000000E+00;  1.0000000E+03;  1.0000000E-01;  0.0000000E+00;0;  0.0000000E+00;  0.0000000E+00;  0.0000000E+00;0;  1.8225463E-06;  4.0000000E+04;  0.0000000E+00;  0.0000000E+00;  4.0000000E+04;  0.0000000E+00;  4.0000000E+04;  1.8322893E-06;  0.0000000E+00; -9.7430028E-09;  2.2973637E-01;
 -1.6000000E-01;  9.9999998E-03; -2.2000000E-01;385;  0.0000000E+00;  0.0000000E+00;  0.0000000E+00;  1.0000000E+03;  1.0000000E-01;  0.0000000E+00;0;  0.0000000E+00;  0.0000000E+00;  0.0000000E+00;0;  1.6474083E-06;  4.0000000E+04;  0.0000000E+00;  0.0000000E+00;  4.0000000E+04;  0.0000000E+00;  4.0000000E+04;  1.6537221E-06;  0.0000000E+00; -6.3137571E-09;  2.4457392E-01;
 -1.6000000E-01;  9.9999998E-03; -2.0999999E-01;386;  0.0000000E+00;  0.0000000E+00;  0.0000000E+00;  1.0000000E+03;  1.0000000E-01;  0.0000000E+00;0;  0.0000000E+00;  0.0000000E+00;  0.0000000E+00;0;  1.4922668E-06;  4.0000000E+04;  0.0000000E+00;  0.0000000E+00;  4.0000000E+04;  0.0000000E+00;  4.0000000E+04;  1.4961040E-06;  0.0000000E+00; -3.8371182E-09;  2.5807619E-01;
 -1.6000000E-01;  9.9999998E-03; -2.0000000E-01;387;  0.0000000E+00;  0.0000000E+00;  0.0000000E+00;  1.0000000E+03;  1.0000000E-01;  0.0000000E+00;0;  0.0000000E+00;  0.0000000E+00;  0.0000000E+00;0;  1.3695411E-06;  4.0000000E+04;  0.0000000E+00;  0.0000000E+00;  4.0000000E+04;  0.0000000E+00;  4.0000000E+04;  1.3717759E-06;  0.0000000E+00; -2.2347684E-09;  2.7074534E-01;
 -1.6000000E-01;  9.9999998E-03; -1.9000000E-01;388;  0.0000000E+00;  0.0000000E+00;  0.0000000E+00;  1.0000000E+03;  1.0000000E-01;  0.0000000E+00;0;  0.0000000E+00;  0.0000000E+00;  0.0000000E+00;0;  1.2805800E-06;  4.0000000E+04;  0.0000000E+00;  0.0000000E+00;  4.0000000E+04;  0.0000000E+00;  4.0000000E+04;  1.2818480E-06;  0.0000000E+00; -1.2679666E-09;  2.8169346E-01;
 -1.6000000E-01;  9.9999998E-03; -1.8000001E-01;389;  0.0000000E+00;  0.0000000E+00;  0.0000000E+00;  1.0000000E+03;  1.0000000E-01;  0.0000000E+00;0;  0.0000000E+00;  0.0000000E+00;  0.0000000E+00;0;  1.2212798E-06;  4.0000000E+04;  0.0000000E+00;  0.0000000E+00;  4.0000000E+04;  0.0000000E+00;  4.0000000E+04;  1.2220363E-06;  0.0000000E+00; -7.5651507E-10;  2.9000509E-01;
 -1.6000000E-01;  9.9999998E-03; -1.7000000E-01;390;  0.0000000E+00;  0.0000000E+00;  0.0000000E+00;  1.0000000E+03;  1.0000000E-01;  0.0000000E+00;0;  0.0000000E+00;  0.0000000E+00;  0.0000000E+00;0;  1.1852802E-06;  4.0000000E+04;  0.0000000E+00;  0.0000000E+00;  4.0000000E+04;  0.0000000E+00;  4.0000000E+04;  1.1858434E-06;  0.0000000E+00; -5.6321353E-10;  2.9526570E-01;
 -1.6000000E-01;  9.9999998E-03; -1.6000000E-01;391;  0.0000000E+00;  0.0000000E+00;  0.0000000E+00;  1.0000000E+03;  1.0000000E-01;  0.0000000E+00;0;  0.0000000E+00;  0.0000000E+00;  0.0000000E+00;0;  1.1661257E-06;  4.0000000E+04;  0.0000000E+00;  0.0000000E+00;  4.0000000E+04;  0.0000000E+00;  4.0000000E+04;  1.1666996E-06;  0.0000000E+00; -5.7388883E-10;  2.9755086E-01;
 -1.6000000E-01;  9.9999998E-03; -1.5000001E-01;392;  0.0000000E+00;  0.0000000E+00;  0.0000000E+00;  1.0000000E+03;  1.0000000E-01;  0.0000000E+00;0;  0.0000000E+00;  0.0000000E+00;  0.0000000E+00;0;  1.1583107E-06;  4.0000000E+04;  0.0000000E+00;  0.0000000E+00;  4.0000000E+04;  0.0000000E+00;  4.0000000E+04;  1.1590022E-06;  0.0000000E+00; -6.9142292E-10;  2.9725921E-01;
 -1.6000000E-01;  9.9999998E-03; -1.4000000E-01;393;  0.0000000E+00;  0.0000000E+00;  0.0000000E+00;  1.0000000E+03;  1.0000000E-01;  0.0000000E+00;0;  0.0000000E+00;  0.0000000E+00;  0.0000000E+00;0;  1.1575385E-06;  4.0000000E+04;  0.0000000E+00;  0.0000000E+00;  4.0000000E+04;  0.0000000E+00;  4.0000000E+04;  1.1583788E-06;  0.0000000E+00; -8.4042101E-10;  2.9493788E-01;
 -1.6000000E-01;  9.9999998E-03; -1.3000000E-01;394;  0.0000000E+00;  0.0000000E+00;  0.0000000E+00;  1.0000000E+03;  1.0000000E-01;  0.0000000E+00;0;  0.0000000E+00;  0.0000000E+00;  0.0000000E+00;0;  1.1608038E-06;  4.0000000E+04;  0.0000000E+00;  0.0000000E+00;  4.0000000E+04;  0.0000000E+00;  4.0000000E+04;  1.1617757E-06;  0.0000000E+00; -9.7196529E-10;  2.9124039E-01;
 -1.6000000E-01;  9.9999998E-03; -1.2000000E-01;395;  0.0000000E+00;  0.0000000E+00;  0.0000000E+00;  1.0000000E+03;  1.0000000E-01;  0.0000000E+00;0;  0.0000000E+00;  0.0000000E+00;  0.0000000E+00;0;  1.1662435E-06;  4.0000000E+04;  0.0000000E+00;  0.0000000E+00;  4.0000000E+04;  0.0000000E+00;  4.0000000E+04;  1.1673046E-06;  0.0000000E+00; -1.0611420E-09;  2.8692451E-01;
 -1.6000000E-01;  9.9999998E-03; -1.1000000E-01;396;  0.0000000E+00;  0.0000000E+00;  0.0000000E+00;  1.0000000E+03;  1.0000000E-01;  0.0000000E+00;0;  0.0000000E+00;  0.0000000E+00;  0.0000000E+00;0;  1.1728708E-06;  4.0000000E+04;  0.0000000E+00;  0.0000000E+00;  4.0000000E+04;  0.0000000E+00;  4.0000000E+04;  1.1739712E-06;  0.0000000E+00; -1.1003818E-09;  2.8279212E-01;
 -1.5000001E-01;  9.9999998E-03; -2.7000001E-01;471;  0.0000000E+00;  0.0000000E+00;  0.0000000E+00;  1.0000000E+03;  1.0000000E-01;  0.0000000E+00;0;  0.0000000E+00;  0.0000000E+00;  0.0000000E+00;0;  2.5832842E-05;  4.0000000E+04;  0.0000000E+00;  0.0000000E+00;  4.0000000E+04;  0.0000000E+00;  4.0000000E+04;  2.5562736E-05;  0.0000000E+00;  2.7010464E-07;  7.9700214E-01;
 -1.5000001E-01;  9.9999998E-03; -2.5999999E-01;472;  0.0000000E+00;  0.0000000E+00;  0.0000000E+00;  1.0000000E+03;  1.0000000E-01;  0.0000000E+00;0;  0.0000000E+00;  0.0000000E+00;  0.0000000E+00;0;  3.0612056E-05;  4.0000000E+04;  0.0000000E+00;  0.0000000E+00;  4.0000000E+04;  0.0000000E+00;  4.0000000E+04;  3.0487885E-05;  0.0000000E+00;  1.2417298E-07;  1.6244937E+00;
 -1.5000001E-01;  9.9999998E-03; -2.5000000E-01;473;  0.0000000E+00;  0.0000000E+00;  0.0000000E+00;  1.0000000E+03;  1.0000000E-01;  0.0000000E+00;0;  0.0000000E+00;  0.0000000E+00;  0.0000000E+00;0;  3.4365461E-05;  4.0000000E+04;  0.0000000E+00;  0.0000000E+00;  4.0000000E+04;  0.0000000E+00;  4.0000000E+04;  3.4391021E-05;  0.0000000E+00; -2.5561326E-08;  2.4085555E+00;
 -1.5000001E-01;  9.9999998E-03; -2.3999999E-01;474;  0.0000000E+00;  0.0000000E+00;  0.0000000E+00;  1.0000000E+03;  1.0000000E-01;  0.0000000E+00;0;  0.0000000E+00;  0.0000000E+00;  0.0000000E+00;0;  3.6910926E-05;  4.0000000E+04;  0.0000000E+00;  0.0000000E+00;  4.0000000E+04;  0.0000000E+00;  4.0000000E+04;  3.7048878E-05;  0.0000000E+00; -1.3795275E-07;  3.0485234E+00;
 -1.5000001E-01;  9.9999998E-03; -2.3000000E-01;475;  0.0000000E+00;  0.0000000E+00;  0.0000000E+00;  1.0000000E+03;  1.0000000E-01;  0.0000000E+00;0;  0.0000000E+00;  0.0000000E+00;  0.0000000E+00;0;  3.8318347E-05;  4.0000000E+04;  0.0000000E+00;  0.0000000E+00;  4.0000000E+04;  0.0000000E+00;  4.0000000E+04;  3.8508122E-05;  0.0000000E+00; -1.8977359E-07;  3.4982965E+00;
 -1.5000001E-01;  9.9999998E-03; -2.2000000E-01;476;  0.0000000E+00;  0.0000000E+00;  0.0000000E+00;  1.0000000E+03;  1.0000000E-01;  0.0000000E+00;0;  0.0000000E+00;  0.0000000E+00;  0.0000000E+00;0;  3.8848106E-05;  4.0000000E+04;  0.0000000E+00;  0.0000000E+00;  4.0000000E+04;  0.0000000E+00;  4.0000000E+04;  3.9029321E-05;  0.0000000E+00; -1.8121547E-07;  3.7753825E+00;
 -1.5000001E-01;  9.9999998E-03; -2.0999999E-01;477;  0.0000000E+00;  0.0000000E+00;  0.0000000E+00;  1.0000000E+03;  1.0000000E-01;  0.0000000E+00;0;  0.0000000E+00;  0.0000000E+00;  0.0000000E+00;0;  3.8851616E-05;  4.0000000E+04;  0.0000000E+00;  0.0000000E+00;  4.0000000E+04;  0.0000000E+00;  4.0000000E+04;  3.8988175E-05;  0.0000000E+00; -1.3655919E-07;  3.9439366E+00;
 -1.5000001E-01;  9.9999998E-03; -2.0000000E-01;478;  0.0000000E+00;  0.0000000E+00;  0.0000000E+00;  1.0000000E+03;  1.0000000E-01;  0.0000000E+00;0;  0.0000000E+00;  0.0000000E+00;  0.0000000E+00;0;  3.8641636E-05;  4.0000000E+04;  0.0000000E+00;  0.0000000E+00;  4.0000000E+04;  0.0000000E+00;  4.0000000E+04;  3.8731629E-05;  0.0000000E+00; -8.9991012E-08;  4.0661459E+00;
 -1.5000001E-01;  9.9999998E-03; -1.9000000E-01;479;  0.0000000E+00;  0.0000000E+00;  0.0000000E+00;  1.0000000E+03;  1.0000000E-01;  0.0000000E+00;0;  0.0000000E+00;  0.0000000E+00;  0.0000000E+00;0;  3.8426853E-05;  4.0000000E+04;  0.0000000E+00;  0.0000000E+00;  4.0000000E+04;  0.0000000E+00;  4.0000000E+04;  3.8482627E-05;  0.0000000E+00; -5.5773317E-08;  4.1707859E+00;
 -1.5000001E-01;  9.9999998E-03; -1.8000001E-01;480;  0.0000000E+00;  0.0000000E+00;  0.0000000E+00;  1.0000000E+03;  1.0000000E-01;  0.0000000E+00;0;  0.0000000E+00;  0.0000000E+00;  0.0000000E+00;0;  3.8329847E-05;  4.0000000E+04;  0.0000000E+00;  0.0000000E+00;  4.0000000E+04;  0.0000000E+00;  4.0000000E+04;  3.8366266E-05;  0.0000000E+00; -3.6418474E-08;  4.2638907E+00;
 -1.5000001E-01;  9.9999998E-03; -1.7000000E-01;481;  0.0000000E+00;  0.0000000E+00;  0.0000000E+00;  1.0000000E+03;  1.0000000E-01;  0.0000000E+00;0;  0.0000000E+00;  0.0000000E+00;  0.0000000E+00;0;  3.8404502E-05;  4.0000000E+04;  0.0000000E+00;  0.0000000E+00;  4.0000000E+04;  0.0000000E+00;  4.0000000E+04;  3.8435148E-05;  0.0000000E+00; -3.0646593E-08;  4.3420372E+00;
 -1.5000001E-01;  9.9999998E-03; -1.6000000E-01;482;  0.0000000E+00;  0.0000000E+00;  0.0000000E+00;  1.0000000E+03;  1.0000000E-01;  0.0000000E+00;0;  0.0000000E+00;  0.0000000E+00;  0.0000000E+00;0;  3.8652604E-05;  4.0000000E+04;  0.0000000E+00;  0.0000000E+00;  4.0000000E+04;  0.0000000E+00;  4.0000000E+04;  3.8688195E-05;  0.0000000E+00; -3.5590297E-08;  4.4001479E+00;
 -1.5000001E-01;  9.9999998E-03; -1.5000001E-01;483;  0.0000000E+00;  0.0000000E+00;  0.0000000E+00;  1.0000000E+03;  1.0000000E-01;  0.0000000E+00;0;  0.0000000E+00;  0.0000000E+00;  0.0000000E+00;0;  3.9041250E-05;  4.0000000E+04;  0.0000000E+00;  0.0000000E+00;  4.0000000E+04;  0.0000000E+00;  4.0000000E+04;  3.9088871E-05;  0.0000000E+00; -4.7620446E-08;  4.4351830E+00;
 -1.5000001E-01;  9.9999998E-03; -1.4000000E-01;484;  0.0000000E+00;  0.0000000E+00;  0.0000000E+00;  1.0000000E+03;  1.0000000E-01;  0.0000000E+00;0;  0.0000000E+00;  0.0000000E+00;  0.0000000E+00;0;  3.9518800E-05;  4.0000000E+04;  0.0000000E+00;  0.0000000E+00;  4.0000000E+04;  0.0000000E+00;  4.0000000E+04;  3.9581719E-05;  0.0000000E+00; -6.2920044E-08;  4.4472899E+00;
 -1.5000001E-01;  9.9999998E-03; -1.3000000E-01;485;  0.0000000E+00;  0.0000000E+00;  0.0000000E+00;  1.0000000E+03;  1.0000000E-01;  0.0000000E+00;0;  0.0000000E+00;  0.0000000E+00;  0.0000000E+00;0;  4.0028870E-05;  4.0000000E+04;  0.0000000E+00;  0.0000000E+00;  4.0000000E+04;  0.0000000E+00;  4.0000000E+04;  4.0106934E-05;  0.0000000E+00; -7.8063763E-08;  4.4403615E+00;
 -1.5000001E-01;  9.9999998E-03; -1.2000000E-01;486;  0.0000000E+00;  0.0000000E+00;  0.0000000E+00;  1.0000000E+03;  1.0000000E-01;  0.0000000E+00;0;  0.0000000E+00;  0.0000000E+00;  0.0000000E+00;0;  4.0520066E-05;  4.0000000E+04;  0.0000000E+00;  0.0000000E+00;  4.0000000E+04;  0.0000000E+00;  4.0000000E+04;  4.0610510E-05;  0.0000000E+00; -9.0445134E-08;  4.4216919E+00;
 -1.5000001E-01;  9.9999998E-03; -1.1000000E-01;487;  0.0000000E+00;  0.0000000E+00;  0.0000000E+00;  1.0000000E+03;  1.0000000E-01;  0.0000000E+00;0;  0.0000000E+00;  0.0000000E+00;  0.0000000E+00;0;  4.0952571E-05;  4.0000000E+04;  0.0000000E+00;  0.0000000E+00;  4.0000000E+04;  0.0000000E+00;  4.0000000E+04;  4.1051015E-05;  0.0000000E+00; -9.8444602E-08;  4.4001994E+00;
 -1.4000000E-01;  9.9999998E-03; -2.7000001E-01;562;  0.0000000E+00;  0.0000000E+00;  0.0000000E+00;  1.0000000E+03;  1.0000000E-01;  0.0000000E+00;0;  0.0000000E+00;  0.0000000E+00;  0.0000000E+00;0;  1.1735113E-04;  4.0000000E+04;  0.0000000E+00;  0.0000000E+00;  4.0000000E+04;  0.0000000E+00;  4.0000000E+04;  1.1566656E-04;  0.0000000E+00;  1.6845670E-06;  3.9570189E+00;
 -1.4000000E-01;  9.9999998E-03; -2.5999999E-01;563;  0.0000000E+00;  0.0000000E+00;  0.0000000E+00;  1.0000000E+03;  1.0000000E-01;  0.0000000E+00;0;  0.0000000E+00;  0.0000000E+00;  0.0000000E+00;0;  1.3902938E-04;  4.0000000E+04;  0.0000000E+00;  0.0000000E+00;  4.0000000E+04;  0.0000000E+00;  4.0000000E+04;  1.3801148E-04;  0.0000000E+00;  1.0178932E-06;  7.7206664E+00;
 -1.4000000E-01;  9.9999998E-03; -2.5000000E-01;564;  0.0000000E+00;  0.0000000E+00;  0.0000000E+00;  1.0000000E+03;  1.0000000E-01;  0.0000000E+00;0;  0.0000000E+00;  0.0000000E+00;  0.0000000E+00;0;  1.5809498E-04;  4.0000000E+04;  0.0000000E+00;  0.0000000E+00;  4.0000000E+04;  0.0000000E+00;  4.0000000E+04;  1.5779343E-04;  0.0000000E+00;  3.0154101E-07;  1.1291248E+01;
 -1.4000000E-01;  9.9999998E-03; -2.3999999E-01;565;  0.0000000E+00;  0.0000000E+00;  0.0000000E+00;  1.0000000E+03;  1.0000000E-01;  0.0000000E+00;0;  0.0000000E+00;  0.0000000E+00;  0.0000000E+00;0;  1.7364205E-04;  4.0000000E+04;  0.0000000E+00;  0.0000000E+00;  4.0000000E+04;  0.0000000E+00;  4.0000000E+04;  1.7395482E-04;  0.0000000E+00; -3.1276286E-07;  1.4267382E+01;
 -1.4000000E-01;  9.9999998E-03; -2.3000000E-01;566;  0.0000000E+00;  0.0000000E+00;  0.0000000E+00;  1.0000000E+03;  1.0000000E-01;  0.0000000E+00;0;  0.0000000E+00;  0.0000000E+00;  0.0000000E+00;0;  1.8536313E-04;  4.0000000E+04;  0.0000000E+00;  0.0000000E+00;  4.0000000E+04;  0.0000000E+00;  4.0000000E+04;  1.8607870E-04;  0.0000000E+00; -7.1557349E-07;  1.6433439E+01;
 -1.4000000E-01;  9.9999998E-03; -2.2000000E-01;567;  0.0000000E+00;  0.0000000E+00;  0.0000000E+00;  1.0000000E+03;  1.0000000E-01;  0.0000000E+00;0;  0.0000000E+00;  0.0000000E+00;  0.0000000E+00;0;  1.9353411E-04;  4.0000000E+04;  0.0000000E+00;  0.0000000E+00;  4.0000000E+04;  0.0000000E+00;  4.0000000E+04;  1.9440342E-04;  0.0000000E+00; -8.6929947E-07;  1.7787695E+01;
 -1.4000000E-01;  9.9999998E-03; -2.0999999E-01;568;  0.0000000E+00;  0.0000000E+00;  0.0000000E+00;  1.0000000E+03;  1.0000000E-01;  0.0000000E+00;0;  0.0000000E+00;  0.0000000E+00;  0.0000000E+00;0;  1.9888964E-04;  4.0000000E+04;  0.0000000E+00;  0.0000000E+00;  4.0000000E+04;  0.0000000E+00;  4.0000000E+04;  1.9970423E-04;  0.0000000E+00; -8.1458683E-07;  1.8488363E+01;
 -1.4000000E-01;  9.9999998E-03; -2.0000000E-01;569;  0.0000000E+00;  0.0000000E+00;  0.0000000E+00;  1.0000000E+03;  1.0000000E-01;  0.0000000E+00;0;  0.0000000E+00;  0.0000000E+00;  0.0000000E+00;0;  2.0238037E-04;  4.0000000E+04;  0.0000000E+00;  0.0000000E+00;  4.0000000E+04;  0.0000000E+00;  4.0000000E+04;  2.0302254E-04;  0.0000000E+00; -6.4217971E-07;  1.8785744E+01;
 -1.4000000E-01;  9.9999998E-03; -1.9000000E-01;570;  0.0000000E+00;  0.0000000E+00;  0.0000000E+00;  1.0000000E+03;  1.0000000E-01;  0.0000000E+00;0;  0.0000000E+00;  0.0000000E+00;  0.0000000E+00;0;  2.0491275E-04;  4.0000000E+04;  0.0000000E+00;  0.0000000E+00;  4.0000000E+04;  0.0000000E+00;  4.0000000E+04;  2.0537239E-04;  0.0000000E+00; -4.5963657E-07;  1.8927412E+01;
 -1.4000000E-01;  9.9999998E-03; -1.8000001E-01;571;  0.0000000E+00;  0.0000000E+00;  0.0000000E+00;  1.0000000E+03;  1.0000000E-01;  0.0000000E+00;0;  0.0000000E+00;  0.0000000E+00;  0.0000000E+00;0;  2.0716271E-04;  4.0000000E+04;  0.0000000E+00;  0.0000000E+00;  4.0000000E+04;  0.0000000E+00;  4.0000000E+04;  2.0750542E-04;  0.0000000E+00; -3.4271812E-07;  1.9061405E+01;
 -1.4000000E-01;  9.9999998E-03; -1.7000000E-01;572;  0.0000000E+00;  0.0000000E+00;  0.0000000E+00;  1.0000000E+03;  1.0000000E-01;  0.0000000E+00;0;  0.0000000E+00;  0.0000000E+00;  0.0000000E+00;0;  2.0954080E-04;  4.0000000E+04;  0.0000000E+00;  0.0000000E+00;  4.0000000E+04;  0.0000000E+00;  4.0000000E+04;  2.0984822E-04;  0.0000000E+00; -3.0742646E-07;  1.9229092E+01;
 -1.4000000E-01;  9.9999998E-03; -1.6000000E-01;573;  0.0000000E+00;  0.0000000E+00;  0.0000000E+00;  1.0000000E+03;  1.0000000E-01;  0.0000000E+00;0;  0.0000000E+00;  0.0000000E+00;  0.0000000E+00;0;  2.1223052E-04;  4.0000000E+04;  0.0000000E+00;  0.0000000E+00;  4.0000000E+04;  0.0000000E+00;  4.0000000E+04;  2.1257496E-04;  0.0000000E+00; -3.4443795E-07;  1.9418114E+01;
 -1.4000000E-01;  9.9999998E-03; -1.5000001E-01;574;  0.0000000E+00;  0.0000000E+00;  0.0000000E+00;  1.0000000E+03;  1.0000000E-01;  0.0000000E+00;0;  0.0000000E+00;  0.0000000E+00;  0.0000000E+00;0;  2.1523199E-04;  4.0000000E+04;  0.0000000E+00;  0.0000000E+00;  4.0000000E+04;  0.0000000E+00;  4.0000000E+04;  2.1566563E-04;  0.0000000E+00; -4.3363758E-07;  1.9601025E+01;
 -1.4000000E-01;  9.9999998E-03; -1.4000000E-01;575;  0.0000000E+00;  0.0000000E+00;  0.0000000E+00;  1.0000000E+03;  1.0000000E-01;  0.0000000E+00;0;  0.0000000E+00;  0.0000000E+00;  0.0000000E+00;0;  2.1841929E-04;  4.0000000E+04;  0.0000000E+00;  0.0000000E+00;  4.0000000E+04;  0.0000000E+00;  4.0000000E+04;  2.1897003E-04;  0.0000000E+00; -5.5075293E-07;  1.9756880E+01;
 -1.4000000E-01;  9.9999998E-03; -1.3000000E-01;576;  0.0000000E+00;  0.0000000E+00;  0.0000000E+00;  1.0000000E+03;  1.0000000E-01;  0.0000000E+00;0;  0.0000000E+00;  0.0000000E+00;  0.0000000E+00;0;  2.2159741E-04;  4.0000000E+04;  0.0000000E+00;  0.0000000E+00;  4.0000000E+04;  0.0000000E+00;  4.0000000E+04;  2.2226905E-04;  0.0000000E+00; -6.7163961E-07;  1.9879286E+01;
 -1.4000000E-01;  9.9999998E-03; -1.2000000E-01;577;  0.0000000E+00;  0.0000000E+00;  0.0000000E+00;  1.0000000E+03;  1.0000000E-01;  0.0000000E+00;0;  0.0000000E+00;  0.0000000E+00;  0.0000000E+00;0;  2.2455909E-04;  4.0000000E+04;  0.0000000E+00;  0.0000000E+00;  4.0000000E+04;  0.0000000E+00;  4.0000000E+04;  2.2533466E-04;  0.0000000E+00; -7.7557866E-07;  1.9975338E+01;
 -1.4000000E-01;  9.9999998E-03; -1.1000000E-01;578;  0.0000000E+00;  0.0000000E+00;  0.0000000E+00;  1.0000000E+03;  1.0000000E-01;  0.0000000E+00;0;  0.0000000E+00;  0.0000000E+00;  0.0000000E+00;0;  2.2712436E-04;  4.0000000E+04;  0.0000000E+00;  0.0000000E+00;  4.0000000E+04;  0.0000000E+00;  4.0000000E+04;  2.2797190E-04;  0.0000000E+00; -8.4754043E-07;  2.0059818E+01;
 -1.3000000E-01;  9.9999998E-03; -2.7000001E-01;653;  0.0000000E+00;  0.0000000E+00;  0.0000000E+00;  1.0000000E+03;  1.0000000E-01;  0.0000000E+00;0;  0.0000000E+00;  0.0000000E+00;  0.0000000E+00;0;  3.3022606E-04;  4.0000000E+04;  0.0000000E+00;  0.0000000E+00;  4.0000000E+04;  0.0000000E+00;  4.0000000E+04;  3.2411463E-04;  0.0000000E+00;  6.1114119E-06;  1.2031941E+01;
 -1.3000000E-01;  9.9999998E-03; -2.5999999E-01;654;  0.0000000E+00;  0.0000000E+00;  0.0000000E+00;  1.0000000E+03;  1.0000000E-01;  0.0000000E+00;0;  0.0000000E+00;  0.0000000E+00;  0.0000000E+00;0;  3.8897467E-04;  4.0000000E+04;  0.0000000E+00;  0.0000000E+00;  4.0000000E+04;  0.0000000E+00;  4.0000000E+04;  3.8486382E-04;  0.0000000E+00;  4.1108597E-06;  2.3026419E+01;
 -1.3000000E-01;  9.9999998E-03; -2.5000000E-01;655;  0.0000000E+00;  0.0000000E+00;  0.0000000E+00;  1.0000000E+03;  1.0000000E-01;  0.0000000E+00;0;  0.0000000E+00;  0.0000000E+00;  0.0000000E+00;0;  4.4289263E-04;  4.0000000E+04;  0.0000000E+00;  0.0000000E+00;  4.0000000E+04;  0.0000000E+00;  4.0000000E+04;  4.4096337E-04;  0.0000000E+00;  1.9292584E-06;  3.3354145E+01;
 -1.3000000E-01;  9.9999998E-03; -2.3999999E-01;656;  0.0000000E+00;  0.0000000E+00;  0.0000000E+00;  1.0000000E+03;  1.0000000E-01;  0.0000000E+00;0;  0.0000000E+00;  0.0000000E+00;  0.0000000E+00;0;  4.8976380E-04;  4.0000000E+04;  0.0000000E+00;  0.0000000E+00;  4.0000000E+04;  0.0000000E+00;  4.0000000E+04;  4.8981595E-04;  0.0000000E+00; -5.2168279E-08;  4.1931602E+01;
 -1.3000000E-01;  9.9999998E-03; -2.3000000E-01;657;  0.0000000E+00;  0.0000000E+00;  0.0000000E+00;  1.0000000E+03;  1.0000000E-01;  0.0000000E+00;0;  0.0000000E+00;  0.0000000E+00;  0.0000000E+00;0;  5.2841986E-04;  4.0000000E+04;  0.0000000E+00;  0.0000000E+00;  4.0000000E+04;  0.0000000E+00;  4.0000000E+04;  5.2995537E-04;  0.0000000E+00; -1.5355074E-06;  4.8137039E+01;
 -1.3000000E-01;  9.9999998E-03; -2.2000000E-01;658;  0.0000000E+00;  0.0000000E+00;  0.0000000E+00;  1.0000000E+03;  1.0000000E-01;  0.0000000E+00;0;  0.0000000E+00;  0.0000000E+00;  0.0000000E+00;0;  5.5880891E-04;  4.0000000E+04;  0.0000000E+00;  0.0000000E+00;  4.0000000E+04;  0.0000000E+00;  4.0000000E+04;  5.6118442E-04;  0.0000000E+00; -2.3755194E-06;  5.1896591E+01;
 -1.3000000E-01;  9.9999998E-03; -2.0999999E-01;659;  0.0000000E+00;  0.0000000E+00;  0.0000000E+00;  1.0000000E+03;  1.0000000E-01;  0.0000000E+00;0;  0.0000000E+00;  0.0000000E+00;  0.0000000E+00;0;  5.8188057E-04;  4.0000000E+04;  0.0000000E+00;  0.0000000E+00;  4.0000000E+04;  0.0000000E+00;  4.0000000E+04;  5.8448344E-04;  0.0000000E+00; -2.6028808E-06;  5.3597321E+01;
 -1.3000000E-01;  9.9999998E-03; -2.0000000E-01;660;  0.0000000E+00;  0.0000000E+00;  0.0000000E+00;  1.0000000E+03;  1.0000000E-01;  0.0000000E+00;0;  0.0000000E+00;  0.0000000E+00;  0.0000000E+00;0;  5.9927063E-04;  4.0000000E+04;  0.0000000E+00;  0.0000000E+00;  4.0000000E+04;  0.0000000E+00;  4.0000000E+04;  6.0166552E-04;  0.0000000E+00; -2.3948737E-06;  5.3903522E+01;
 -1.3000000E-01;  9.9999998E-03; -1.9000000E-01;661;  0.0000000E+00;  0.0000000E+00;  0.0000000E+00;  1.0000000E+03;  1.0000000E-01;  0.0000000E+00;0;  0.0000000E+00;  0.0000000E+00;  0.0000000E+00;0;  6.1287388E-04;  4.0000000E+04;  0.0000000E+00;  0.0000000E+00;  4.0000000E+04;  0.0000000E+00;  4.0000000E+04;  6.1487872E-04;  0.0000000E+00; -2.0048299E-06;  5.3527222E+01;
 -1.3000000E-01;  9.9999998E-03; -1.8000001E-01;662;  0.0000000E+00;  0.0000000E+00;  0.0000000E+00;  1.0000000E+03;  1.0000000E-01;  0.0000000E+00;0;  0.0000000E+00;  0.0000000E+00;  0.0000000E+00;0;  6.2441034E-04;  4.0000000E+04;  0.0000000E+00;  0.0000000E+00;  4.0000000E+04;  0.0000000E+00;  4.0000000E+04;  6.2608422E-04;  0.0000000E+00; -1.6738968E-06;  5.3060509E+01;
 -1.3000000E-01;  9.9999998E-03; -1.7000000E-01;663;  0.0000000E+00;  0.0000000E+00;  0.0000000E+00;  1.0000000E+03;  1.0000000E-01;  0.0000000E+00;0;  0.0000000E+00;  0.0000000E+00;  0.0000000E+00;0;  6.3512690E-04;  4.0000000E+04;  0.0000000E+00;  0.0000000E+00;  4.0000000E+04;  0.0000000E+00;  4.0000000E+04;  6.3668838E-04;  0.0000000E+00; -1.5614985E-06;  5.2840328E+01;
 -1.3000000E-01;  9.9999998E-03; -1.6000000E-01;664;  0.0000000E+00;  0.0000000E+00;  0.0000000E+00;  1.0000000E+03;  1.0000000E-01;  0.0000000E+00;0;  0.0000000E+00;  0.0000000E+00;  0.0000000E+00;0;  6.4572337E-04;  4.0000000E+04;  0.0000000E+00;  0.0000000E+00;  4.0000000E+04;  0.0000000E+00;  4.0000000E+04;  6.4741320E-04;  0.0000000E+00; -1.6898446E-06;  5.2943077E+01;
 -1.3000000E-01;  9.9999998E-03; -1.5000001E-01;665;  0.0000000E+00;  0.0000000E+00;  0.0000000E+00;  1.0000000E+03;  1.0000000E-01;  0.0000000E+00;0;  0.0000000E+00;  0.0000000E+00;  0.0000000E+00;0;  6.5642624E-04;  4.0000000E+04;  0.0000000E+00;  0.0000000E+00;  4.0000000E+04;  0.0000000E+00;  4.0000000E+04;  6.5843435E-04;  0.0000000E+00; -2.0081052E-06;  5.3311405E+01;
 -1.3000000E-01;  9.9999998E-03; -1.4000000E-01;666;  0.0000000E+00;  0.0000000E+00;  0.0000000E+00;  1.0000000E+03;  1.0000000E-01;  0.0000000E+00;0;  0.0000000E+00;  0.0000000E+00;  0.0000000E+00;0;  6.6709862E-04;  4.0000000E+04;  0.0000000E+00;  0.0000000E+00;  4.0000000E+04;  0.0000000E+00;  4.0000000E+04;  6.6953612E-04;  0.0000000E+00; -2.4374958E-06;  5.3851948E+01;
 -1.3000000E-01;  9.9999998E-03; -1.3000000E-01;667;  0.0000000E+00;  0.0000000E+00;  0.0000000E+00;  1.0000000E+03;  1.0000000E-01;  0.0000000E+00;0;  0.0000000E+00;  0.0000000E+00;  0.0000000E+00;0;  6.7736959E-04;  4.0000000E+04;  0.0000000E+00;  0.0000000E+00;  4.0000000E+04;  0.0000000E+00;  4.0000000E+04;  6.8026234E-04;  0.0000000E+00; -2.8927582E-06;  5.4484909E+01;
 -1.3000000E-01;  9.9999998E-03; -1.2000000E-01;668;  0.0000000E+00;  0.0000000E+00;  0.0000000E+00;  1.0000000E+03;  1.0000000E-01;  0.0000000E+00;0;  0.0000000E+00;  0.0000000E+00;  0.0000000E+00;0;  6.8677589E-04;  4.0000000E+04;  0.0000000E+00;  0.0000000E+00;  4.0000000E+04;  0.0000000E+00;  4.0000000E+04;  6.9007196E-04;  0.0000000E+00; -3.2960504E-06;  5.5157330E+01;
 -1.3000000E-01;  9.9999998E-03; -1.1000000E-01;669;  0.0000000E+00;  0.0000000E+00;  0.0000000E+00;  1.0000000E+03;  1.0000000E-01;  0.0000000E+00;0;  0.0000000E+00;  0.0000000E+00;  0.0000000E+00;0;  6.9488061E-04;  4.0000000E+04;  0.0000000E+00;  0.0000000E+00;  4.0000000E+04;  0.0000000E+00;  4.0000000E+04;  6.9846696E-04;  0.0000000E+00; -3.5863557E-06;  5.5835461E+01;
 -1.2000000E-01;  9.9999998E-03; -2.7000001E-01;744;  0.0000000E+00;  0.0000000E+00;  0.0000000E+00;  1.0000000E+03;  1.0000000E-01;  0.0000000E+00;0;  0.0000000E+00;  0.0000000E+00;  0.0000000E+00;0;  7.1283191E-04;  4.0000000E+04;  0.0000000E+00;  0.0000000E+00;  4.0000000E+04;  0.0000000E+00;  4.0000000E+04;  6.9630460E-04;  0.0000000E+00;  1.6527303E-05;  2.7781874E+01;
 -1.2000000E-01;  9.9999998E-03; -2.5999999E-01;745;  0.0000000E+00;  0.0000000E+00;  0.0000000E+00;  1.0000000E+03;  1.0000000E-01;  0.0000000E+00;0;  0.0000000E+00;  0.0000000E+00;  0.0000000E+00;0;  8.3434163E-04;  4.0000000E+04;  0.0000000E+00;  0.0000000E+00;  4.0000000E+04;  0.0000000E+00;  4.0000000E+04;  8.2255073E-04;  0.0000000E+00;  1.1790893E-05;  5.2699459E+01;
 -1.2000000E-01;  9.9999998E-03; -2.5000000E-01;746;  0.0000000E+00;  0.0000000E+00;  0.0000000E+00;  1.0000000E+03;  1.0000000E-01;  0.0000000E+00;0;  0.0000000E+00;  0.0000000E+00;  0.0000000E+00;0;  9.4826712E-04;  4.0000000E+04;  0.0000000E+00;  0.0000000E+00;  4.0000000E+04;  0.0000000E+00;  4.0000000E+04;  9.4168453E-04;  0.0000000E+00;  6.5825616E-06;  7.5873604E+01;
 -1.2000000E-01;  9.9999998E-03; -2.3999999E-01;747;  0.0000000E+00;  0.0000000E+00;  0.0000000E+00;  1.0000000E+03;  1.0000000E-01;  0.0000000E+00;0;  0.0000000E+00;  0.0000000E+00;  0.0000000E+00;0;  1.0505309E-03;  4.0000000E+04;  0.0000000E+00;  0.0000000E+00;  4.0000000E+04;  0.0000000E+00;  4.0000000E+04;  1.0488456E-03;  0.0000000E+00;  1.6853497E-06;  9.4991737E+01;
 -1.2000000E-01;  9.9999998E-03; -2.3000000E-01;748;  0.0000000E+00;  0.0000000E+00;  0.0000000E+00;  1.0000000E+03;  1.0000000E-01;  0.0000000E+00;0;  0.0000000E+00;  0.0000000E+00;  0.0000000E+00;0;  1.1386524E-03;  4.0000000E+04;  0.0000000E+00;  0.0000000E+00;  4.0000000E+04;  0.0000000E+00;  4.0000000E+04;  1.1409143E-03;  0.0000000E+00; -2.2617760E-06;  1.0867048E+02;
 -1.2000000E-01;  9.9999998E-03; -2.2000000E-01;749;  0.0000000E+00;  0.0000000E+00;  0.0000000E+00;  1.0000000E+03;  1.0000000E-01;  0.0000000E+00;0;  0.0000000E+00;  0.0000000E+00;  0.0000000E+00;0;  1.2118970E-03;  4.0000000E+04;  0.0000000E+00;  0.0000000E+00;  4.0000000E+04;  0.0000000E+00;  4.0000000E+04;  1.2167933E-03;  0.0000000E+00; -4.8962993E-06;  1.1664960E+02;
 -1.2000000E-01;  9.9999998E-03; -2.0999999E-01;750;  0.0000000E+00;  0.0000000E+00;  0.0000000E+00;  1.0000000E+03;  1.0000000E-01;  0.0000000E+00;0;  0.0000000E+00;  0.0000000E+00;  0.0000000E+00;0;  1.2711900E-03;  4.0000000E+04;  0.0000000E+00;  0.0000000E+00;  4.0000000E+04;  0.0000000E+00;  4.0000000E+04;  1.2773770E-03;  0.0000000E+00; -6.1869528E-06;  1.1968993E+02;
 -1.2000000E-01;  9.9999998E-03; -2.0000000E-01;751;  0.0000000E+00;  0.0000000E+00;  0.0000000E+00;  1.0000000E+03;  1.0000000E-01;  0.0000000E+00;0;  0.0000000E+00;  0.0000000E+00;  0.0000000E+00;0;  1.3187305E-03;  4.0000000E+04;  0.0000000E+00;  0.0000000E+00;  4.0000000E+04;  0.0000000E+00;  4.0000000E+04;  1.3251348E-03;  0.0000000E+00; -6.4042301E-06;  1.1923334E+02;
 -1.2000000E-01;  9.9999998E-03; -1.9000000E-01;752;  0.0000000E+00;  0.0000000E+00;  0.0000000E+00;  1.0000000E+03;  1.0000000E-01;  0.0000000E+00;0;  0.0000000E+00;  0.0000000E+00;  0.0000000E+00;0;  1.3574384E-03;  4.0000000E+04;  0.0000000E+00;  0.0000000E+00;  4.0000000E+04;  0.0000000E+00;  4.0000000E+04;  1.3634512E-03;  0.0000000E+00; -6.0128459E-06;  1.1693012E+02;
 -1.2000000E-01;  9.9999998E-03; -1.8000001E-01;753;  0.0000000E+00;  0.0000000E+00;  0.0000000E+00;  1.0000000E+03;  1.0000000E-01;  0.0000000E+00;0;  0.0000000E+00;  0.0000000E+00;  0.0000000E+00;0;  1.3902965E-03;  4.0000000E+04;  0.0000000E+00;  0.0000000E+00;  4.0000000E+04;  0.0000000E+00;  4.0000000E+04;  1.3958191E-03;  0.0000000E+00; -5.5226424E-06;  1.1423582E+02;
 -1.2000000E-01;  9.9999998E-03; -1.7000000E-01;754;  0.0000000E+00;  0.0000000E+00;  0.0000000E+00;  1.0000000E+03;  1.0000000E-01;  0.0000000E+00;0;  0.0000000E+00;  0.0000000E+00;  0.0000000E+00;0;  1.4197773E-03;  4.0000000E+04;  0.0000000E+00;  0.0000000E+00;  4.0000000E+04;  0.0000000E+00;  4.0000000E+04;  1.4251139E-03;  0.0000000E+00; -5.3365707E-06;  1.1217923E+02;
 -1.2000000E-01;  9.9999998E-03; -1.6000000E-01;755;  0.0000000E+00;  0.0000000E+00;  0.0000000E+00;  1.0000000E+03;  1.0000000E-01;  0.0000000E+00;0;  0.0000000E+00;  0.0000000E+00;  0.0000000E+00;0;  1.4474944E-03;  4.0000000E+04;  0.0000000E+00;  0.0000000E+00;  4.0000000E+04;  0.0000000E+00;  4.0000000E+04;  1.4531548E-03;  0.0000000E+00; -5.6604354E-06;  1.1124811E+02;
 -1.2000000E-01;  9.9999998E-03; -1.5000001E-01;756;  0.0000000E+00;  0.0000000E+00;  0.0000000E+00;  1.0000000E+03;  1.0000000E-01;  0.0000000E+00;0;  0.0000000E+00;  0.0000000E+00;  0.0000000E+00;0;  1.4741743E-03;  4.0000000E+04;  0.0000000E+00;  0.0000000E+00;  4.0000000E+04;  0.0000000E+00;  4.0000000E+04;  1.4806275E-03;  0.0000000E+00; -6.4530836E-06;  1.1145554E+02;
 -1.2000000E-01;  9.9999998E-03; -1.4000000E-01;757;  0.0000000E+00;  0.0000000E+00;  0.0000000E+00;  1.0000000E+03;  1.0000000E-01;  0.0000000E+00;0;  0.0000000E+00;  0.0000000E+00;  0.0000000E+00;0;  1.4998269E-03;  4.0000000E+04;  0.0000000E+00;  0.0000000E+00;  4.0000000E+04;  0.0000000E+00;  4.0000000E+04;  1.5073711E-03;  0.0000000E+00; -7.5441744E-06;  1.1257923E+02;
 -1.2000000E-01;  9.9999998E-03; -1.3000000E-01;758;  0.0000000E+00;  0.0000000E+00;  0.0000000E+00;  1.0000000E+03;  1.0000000E-01;  0.0000000E+00;0;  0.0000000E+00;  0.0000000E+00;  0.0000000E+00;0;  1.5239461E-03;  4.0000000E+04;  0.0000000E+00;  0.0000000E+00;  4.0000000E+04;  0.0000000E+00;  4.0000000E+04;  1.5326707E-03;  0.0000000E+00; -8.7246417E-06;  1.1433720E+02;
 -1.2000000E-01;  9.9999998E-03; -1.2000000E-01;759;  0.0000000E+00;  0.0000000E+00;  0.0000000E+00;  1.0000000E+03;  1.0000000E-01;  0.0000000E+00;0;  0.0000000E+00;  0.0000000E+00;  0.0000000E+00;0;  1.5457743E-03;  4.0000000E+04;  0.0000000E+00;  0.0000000E+00;  4.0000000E+04;  0.0000000E+00;  4.0000000E+04;  1.5555666E-03;  0.0000000E+00; -9.7922311E-06;  1.1646429E+02;
 -1.2000000E-01;  9.9999998E-03; -1.1000000E-01;760;  0.0000000E+00;  0.0000000E+00;  0.0000000E+00;  1.0000000E+03;  1.0000000E-01;  0.0000000E+00;0;  0.0000000E+00;  0.0000000E+00;  0.0000000E+00;0;  1.5645316E-03;  4.0000000E+04;  0.0000000E+00;  0.0000000E+00;  4.0000000E+04;  0.0000000E+00;  4.0000000E+04;  1.5751120E-03;  0.0000000E+00; -1.0580457E-05;  1.1873345E+02;
 -1.1000000E-01;  9.9999998E-03; -2.7000001E-01;835;  0.0000000E+00;  0.0000000E+00;  0.0000000E+00;  1.0000000E+03;  1.0000000E-01;  0.0000000E+00;0;  0.0000000E+00;  0.0000000E+00;  0.0000000E+00;0;  1.3026969E-03;  4.0000000E+04;  0.0000000E+00;  0.0000000E+00;  4.0000000E+04;  0.0000000E+00;  4.0000000E+04;  1.2656414E-03;  0.0000000E+00;  3.7055437E-05;  5.4130829E+01;
 -1.1000000E-01;  9.9999998E-03; -2.5999999E-01;836;  0.0000000E+00;  0.0000000E+00;  0.0000000E+00;  1.0000000E+03;  1.0000000E-01;  0.0000000E+00;0;  0.0000000E+00;  0.0000000E+00;  0.0000000E+00;0;  1.5158518E-03;  4.0000000E+04;  0.0000000E+00;  0.0000000E+00;  4.0000000E+04;  0.0000000E+00;  4.0000000E+04;  1.4884045E-03;  0.0000000E+00;  2.7447330E-05;  1.0200340E+02;
 -1.1000000E-01;  9.9999998E-03; -2.5000000E-01;837;  0.0000000E+00;  0.0000000E+00;  0.0000000E+00;  1.0000000E+03;  1.0000000E-01;  0.0000000E+00;0;  0.0000000E+00;  0.0000000E+00;  0.0000000E+00;0;  1.7181112E-03;  4.0000000E+04;  0.0000000E+00;  0.0000000E+00;  4.0000000E+04;  0.0000000E+00;  4.0000000E+04;  1.7013056E-03;  0.0000000E+00;  1.6805656E-05;  1.4617610E+02;
 -1.1000000E-01;  9.9999998E-03; -2.3999999E-01;838;  0.0000000E+00;  0.0000000E+00;  0.0000000E+00;  1.0000000E+03;  1.0000000E-01;  0.0000000E+00;0;  0.0000000E+00;  0.0000000E+00;  0.0000000E+00;0;  1.9030803E-03;  4.0000000E+04;  0.0000000E+00;  0.0000000E+00;  4.0000000E+04;  0.0000000E+00;  4.0000000E+04;  1.8965334E-03;  0.0000000E+00;  6.5468917E-06;  1.8238702E+02;
 -1.1000000E-01;  9.9999998E-03; -2.3000000E-01;839;  0.0000000E+00;  0.0000000E+00;  0.0000000E+00;  1.0000000E+03;  1.0000000E-01;  0.0000000E+00;0;  0.0000000E+00;  0.0000000E+00;  0.0000000E+00;0;  2.0665838E-03;  4.0000000E+04;  0.0000000E+00;  0.0000000E+00;  4.0000000E+04;  0.0000000E+00;  4.0000000E+04;  2.0687201E-03;  0.0000000E+00; -2.1362489E-06;  2.0803859E+02;
 -1.1000000E-01;  9.9999998E-03; -2.2000000E-01;840;  0.0000000E+00;  0.0000000E+00;  0.0000000E+00;  1.0000000E+03;  1.0000000E-01;  0.0000000E+00;0;  0.0000000E+00;  0.0000000E+00;  0.0000000E+00;0;  2.2069255E-03;  4.0000000E+04;  0.0000000E+00;  0.0000000E+00;  4.0000000E+04;  0.0000000E+00;  4.0000000E+04;  2.2154257E-03;  0.0000000E+00; -8.5002166E-06;  2.2251082E+02;
 -1.1000000E-01;  9.9999998E-03; -2.0999999E-01;841;  0.0000000E+00;  0.0000000E+00;  0.0000000E+00;  1.0000000E+03;  1.0000000E-01;  0.0000000E+00;0;  0.0000000E+00;  0.0000000E+00;  0.0000000E+00;0;  2.3248070E-03;  4.0000000E+04;  0.0000000E+00;  0.0000000E+00;  4.0000000E+04;  0.0000000E+00;  4.0000000E+04;  2.3371673E-03;  0.0000000E+00; -1.2360218E-05;  2.2705789E+02;
 -1.1000000E-01;  9.9999998E-03; -2.0000000E-01;842;  0.0000000E+00;  0.0000000E+00;  0.0000000E+00;  1.0000000E+03;  1.0000000E-01;  0.0000000E+00;0;  0.0000000E+00;  0.0000000E+00;  0.0000000E+00;0;  2.4228541E-03;  4.0000000E+04;  0.0000000E+00;  0.0000000E+00;  4.0000000E+04;  0.0000000E+00;  4.0000000E+04;  2.4369201E-03;  0.0000000E+00; -1.4065914E-05;  2.2431105E+02;
 -1.1000000E-01;  9.9999998E-03; -1.9000000E-01;843;  0.0000000E+00;  0.0000000E+00;  0.0000000E+00;  1.0000000E+03;  1.0000000E-01;  0.0000000E+00;0;  0.0000000E+00;  0.0000000E+00;  0.0000000E+00;0;  2.5049369E-03;  4.0000000E+04;  0.0000000E+00;  0.0000000E+00;  4.0000000E+04;  0.0000000E+00;  4.0000000E+04;  2.5192844E-03;  0.0000000E+00; -1.4347477E-05;  2.1750182E+02;
 -1.1000000E-01;  9.9999998E-03; -1.8000001E-01;844;  0.0000000E+00;  0.0000000E+00;  0.0000000E+00;  1.0000000E+03;  1.0000000E-01;  0.0000000E+00;0;  0.0000000E+00;  0.0000000E+00;  0.0000000E+00;0;  2.5753095E-03;  4.0000000E+04;  0.0000000E+00;  0.0000000E+00;  4.0000000E+04;  0.0000000E+00;  4.0000000E+04;  2.5893988E-03;  0.0000000E+00; -1.4089295E-05;  2.0966696E+02;
 -1.1000000E-01;  9.9999998E-03; -1.7000000E-01;845;  0.0000000E+00;  0.0000000E+00;  0.0000000E+00;  1.0000000E+03;  1.0000000E-01;  0.0000000E+00;0;  0.0000000E+00;  0.0000000E+00;  0.0000000E+00;0;  2.6378206E-03;  4.0000000E+04;  0.0000000E+00;  0.0000000E+00;  4.0000000E+04;  0.0000000E+00;  4.0000000E+04;  2.6519015E-03;  0.0000000E+00; -1.4080931E-05;  2.0309648E+02;
 -1.1000000E-01;  9.9999998E-03; -1.6000000E-01;846;  0.0000000E+00;  0.0000000E+00;  0.0000000E+00;  1.0000000E+03;  1.0000000E-01;  0.0000000E+00;0;  0.0000000E+00;  0.0000000E+00;  0.0000000E+00;0;  2.6952699E-03;  4.0000000E+04;  0.0000000E+00;  0.0000000E+00;  4.0000000E+04;  0.0000000E+00;  4.0000000E+04;  2.7100886E-03;  0.0000000E+00; -1.4818722E-05;  1.9912407E+02;
 -1.1000000E-01;  9.9999998E-03; -1.5000001E-01;847;  0.0000000E+00;  0.0000000E+00;  0.0000000E+00;  1.0000000E+03;  1.0000000E-01;  0.0000000E+00;0;  0.0000000E+00;  0.0000000E+00;  0.0000000E+00;0;  2.7491513E-03;  4.0000000E+04;  0.0000000E+00;  0.0000000E+00;  4.0000000E+04;  0.0000000E+00;  4.0000000E+04;  2.7655745E-03;  0.0000000E+00; -1.6423124E-05;  1.9812061E+02;
 -1.1000000E-01;  9.9999998E-03; -1.4000000E-01;848;  0.0000000E+00;  0.0000000E+00;  0.0000000E+00;  1.0000000E+03;  1.0000000E-01;  0.0000000E+00;0;  0.0000000E+00;  0.0000000E+00;  0.0000000E+00;0;  2.7997929E-03;  4.0000000E+04;  0.0000000E+00;  0.0000000E+00;  4.0000000E+04;  0.0000000E+00;  4.0000000E+04;  2.8184399E-03;  0.0000000E+00; -1.8646941E-05;  1.9974522E+02;
 -1.1000000E-01;  9.9999998E-03; -1.3000000E-01;849;  0.0000000E+00;  0.0000000E+00;  0.0000000E+00;  1.0000000E+03;  1.0000000E-01;  0.0000000E+00;0;  0.0000000E+00;  0.0000000E+00;  0.0000000E+00;0;  2.8466498E-03;  4.0000000E+04;  0.0000000E+00;  0.0000000E+00;  4.0000000E+04;  0.0000000E+00;  4.0000000E+04;  2.8677389E-03;  0.0000000E+00; -2.1089114E-05;  2.0333310E+02;
 -1.1000000E-01;  9.9999998E-03; -1.2000000E-01;850;  0.0000000E+00;  0.0000000E+00;  0.0000000E+00;  1.0000000E+03;  1.0000000E-01;  0.0000000E+00;0;  0.0000000E+00;  0.0000000E+00;  0.0000000E+00;0;  2.8886783E-03;  4.0000000E+04;  0.0000000E+00;  0.0000000E+00;  4.0000000E+04;  0.0000000E+00;  4.0000000E+04;  2.9120115E-03;  0.0000000E+00; -2.3333103E-05;  2.0815601E+02;
 -1.1000000E-01;  9.9999998E-03; -1.1000000E-01;851;  0.0000000E+00;  0.0000000E+00;  0.0000000E+00;  1.0000000E+03;  1.0000000E-01;  0.0000000E+00;0;  0.0000000E+00;  0.0000000E+00;  0.0000000E+00;0;  2.9247282E-03;  4.0000000E+04;  0.0000000E+00;  0.0000000E+00;  4.0000000E+04;  0.0000000E+00;  4.0000000E+04;  2.9497484E-03;  0.0000000E+00; -2.5020143E-05;  2.1353290E+02;
 -1.0000000E-01;  9.9999998E-03; -2.7000001E-01;926;  0.0000000E+00;  0.0000000E+00;  0.0000000E+00;  1.0000000E+03;  1.0000000E-01;  0.0000000E+00;0;  0.0000000E+00;  0.0000000E+00;  0.0000000E+00;0;  2.1257459E-03;  4.0000000E+04;  0.0000000E+00;  0.0000000E+00;  4.0000000E+04;  0.0000000E+00;  4.0000000E+04;  2.0529355E-03;  0.0000000E+00;  7.2810239E-05;  9.4405594E+01;
 -1.0000000E-01;  9.9999998E-03; -2.5999999E-01;927;  0.0000000E+00;  0.0000000E+00;  0.0000000E+00;  1.0000000E+03;  1.0000000E-01;  0.0000000E+00;0;  0.0000000E+00;  0.0000000E+00;  0.0000000E+00;0;  2.4607962E-03;  4.0000000E+04;  0.0000000E+00;  0.0000000E+00;  4.0000000E+04;  0.0000000E+00;  4.0000000E+04;  2.4054388E-03;  0.0000000E+00;  5.5357257E-05;  1.7618997E+02;
 -1.0000000E-01;  9.9999998E-03; -2.5000000E-01;928;  0.0000000E+00;  0.0000000E+00;  0.0000000E+00;  1.0000000E+03;  1.0000000E-01;  0.0000000E+00;0;  0.0000000E+00;  0.0000000E+00;  0.0000000E+00;0;  2.7809367E-03;  4.0000000E+04;  0.0000000E+00;  0.0000000E+00;  4.0000000E+04;  0.0000000E+00;  4.0000000E+04;  2.7450435E-03;  0.0000000E+00;  3.5893067E-05;  2.5127251E+02;
 -1.0000000E-01;  9.9999998E-03; -2.3999999E-01;929;  0.0000000E+00;  0.0000000E+00;  0.0000000E+00;  1.0000000E+03;  1.0000000E-01;  0.0000000E+00;0;  0.0000000E+00;  0.0000000E+00;  0.0000000E+00;0;  3.0770472E-03;  4.0000000E+04;  0.0000000E+00;  0.0000000E+00;  4.0000000E+04;  0.0000000E+00;  4.0000000E+04;  3.0602855E-03;  0.0000000E+00;  1.6761627E-05;  3.1248096E+02;
 -1.0000000E-01;  9.9999998E-03; -2.3000000E-01;930;  0.0000000E+00;  0.0000000E+00;  0.0000000E+00;  1.0000000E+03;  1.0000000E-01;  0.0000000E+00;0;  0.0000000E+00;  0.0000000E+00;  0.0000000E+00;0;  3.3429998E-03;  4.0000000E+04;  0.0000000E+00;  0.0000000E+00;  4.0000000E+04;  0.0000000E+00;  4.0000000E+04;  3.3430157E-03;  0.0000000E+00; -1.5831393E-08;  3.5546225E+02;
 -1.0000000E-01;  9.9999998E-03; -2.2000000E-01;931;  0.0000000E+00;  0.0000000E+00;  0.0000000E+00;  1.0000000E+03;  1.0000000E-01;  0.0000000E+00;0;  0.0000000E+00;  0.0000000E+00;  0.0000000E+00;0;  3.5759811E-03;  4.0000000E+04;  0.0000000E+00;  0.0000000E+00;  4.0000000E+04;  0.0000000E+00;  4.0000000E+04;  3.5890732E-03;  0.0000000E+00; -1.3092170E-05;  3.7903934E+02;
 -1.0000000E-01;  9.9999998E-03; -2.0999999E-01;932;  0.0000000E+00;  0.0000000E+00;  0.0000000E+00;  1.0000000E+03;  1.0000000E-01;  0.0000000E+00;0;  0.0000000E+00;  0.0000000E+00;  0.0000000E+00;0;  3.7763664E-03;  4.0000000E+04;  0.0000000E+00;  0.0000000E+00;  4.0000000E+04;  0.0000000E+00;  4.0000000E+04;  3.7983491E-03;  0.0000000E+00; -2.1982660E-05;  3.8508423E+02;
 -1.0000000E-01;  9.9999998E-03; -2.0000000E-01;933;  0.0000000E+00;  0.0000000E+00;  0.0000000E+00;  1.0000000E+03;  1.0000000E-01;  0.0000000E+00;0;  0.0000000E+00;  0.0000000E+00;  0.0000000E+00;0;  3.9471560E-03;  4.0000000E+04;  0.0000000E+00;  0.0000000E+00;  4.0000000E+04;  0.0000000E+00;  4.0000000E+04;  3.9742137E-03;  0.0000000E+00; -2.7057586E-05;  3.7783450E+02;
 -1.0000000E-01;  9.9999998E-03; -1.9000000E-01;934;  0.0000000E+00;  0.0000000E+00;  0.0000000E+00;  1.0000000E+03;  1.0000000E-01;  0.0000000E+00;0;  0.0000000E+00;  0.0000000E+00;  0.0000000E+00;0;  4.0931078E-03;  4.0000000E+04;  0.0000000E+00;  0.0000000E+00;  4.0000000E+04;  0.0000000E+00;  4.0000000E+04;  4.1224561E-03;  0.0000000E+00; -2.9348488E-05;  3.6280695E+02;
 -1.0000000E-01;  9.9999998E-03; -1.8000001E-01;935;  0.0000000E+00;  0.0000000E+00;  0.0000000E+00;  1.0000000E+03;  1.0000000E-01;  0.0000000E+00;0;  0.0000000E+00;  0.0000000E+00;  0.0000000E+00;0;  4.2197099E-03;  4.0000000E+04;  0.0000000E+00;  0.0000000E+00;  4.0000000E+04;  0.0000000E+00;  4.0000000E+04;  4.2499295E-03;  0.0000000E+00; -3.0219684E-05;  3.4552014E+02;
 -1.0000000E-01;  9.9999998E-03; -1.7000000E-01;936;  0.0000000E+00;  0.0000000E+00;  0.0000000E+00;  1.0000000E+03;  1.0000000E-01;  0.0000000E+00;0;  0.0000000E+00;  0.0000000E+00;  0.0000000E+00;0;  4.3321555E-03;  4.0000000E+04;  0.0000000E+00;  0.0000000E+00;  4.0000000E+04;  0.0000000E+00;  4.0000000E+04;  4.3631480E-03;  0.0000000E+00; -3.0992669E-05;  3.3039175E+02;
 -1.0000000E-01;  9.9999998E-03; -1.6000000E-01;937;  0.0000000E+00;  0.0000000E+00;  0.0000000E+00;  1.0000000E+03;  1.0000000E-01;  0.0000000E+00;0;  0.0000000E+00;  0.0000000E+00;  0.0000000E+00;0;  4.4344971E-03;  4.0000000E+04;  0.0000000E+00;  0.0000000E+00;  4.0000000E+04;  0.0000000E+00;  4.0000000E+04;  4.4671153E-03;  0.0000000E+00; -3.2618376E-05;  3.2019647E+02;
 -1.0000000E-01;  9.9999998E-03; -1.5000001E-01;938;  0.0000000E+00;  0.0000000E+00;  0.0000000E+00;  1.0000000E+03;  1.0000000E-01;  0.0000000E+00;0;  0.0000000E+00;  0.0000000E+00;  0.0000000E+00;0;  4.5291521E-03;  4.0000000E+04;  0.0000000E+00;  0.0000000E+00;  4.0000000E+04;  0.0000000E+00;  4.0000000E+04;  4.5646373E-03;  0.0000000E+00; -3.5485107E-05;  3.1601871E+02;
 -1.0000000E-01;  9.9999998E-03; -1.4000000E-01;939;  0.0000000E+00;  0.0000000E+00;  0.0000000E+00;  1.0000000E+03;  1.0000000E-01;  0.0000000E+00;0;  0.0000000E+00;  0.0000000E+00;  0.0000000E+00;0;  4.6168747E-03;  4.0000000E+04;  0.0000000E+00;  0.0000000E+00;  4.0000000E+04;  0.0000000E+00;  4.0000000E+04;  4.6562743E-03;  0.0000000E+00; -3.9399423E-05;  3.1753088E+02;
 -1.0000000E-01;  9.9999998E-03; -1.3000000E-01;940;  0.0000000E+00;  0.0000000E+00;  0.0000000E+00;  1.0000000E+03;  1.0000000E-01;  0.0000000E+00;0;  0.0000000E+00;  0.0000000E+00;  0.0000000E+00;0;  4.6971622E-03;  4.0000000E+04;  0.0000000E+00;  0.0000000E+00;  4.0000000E+04;  0.0000000E+00;  4.0000000E+04;  4.7408999E-03;  0.0000000E+00; -4.3737633E-05;  3.2351990E+02;
 -1.0000000E-01;  9.9999998E-03; -1.2000000E-01;941;  0.0000000E+00;  0.0000000E+00;  0.0000000E+00;  1.0000000E+03;  1.0000000E-01;  0.0000000E+00;0;  0.0000000E+00;  0.0000000E+00;  0.0000000E+00;0;  4.7687232E-03;  4.0000000E+04;  0.0000000E+00;  0.0000000E+00;  4.0000000E+04;  0.0000000E+00;  4.0000000E+04;  4.8164958E-03;  0.0000000E+00; -4.7772668E-05;  3.3245847E+02;
 -1.0000000E-01;  9.9999998E-03; -1.1000000E-01;942;  0.0000000E+00;  0.0000000E+00;  0.0000000E+00;  1.0000000E+03;  1.0000000E-01;  0.0000000E+00;0;  0.0000000E+00;  0.0000000E+00;  0.0000000E+00;0;  4.8300233E-03;  4.0000000E+04;  0.0000000E+00;  0.0000000E+00;  4.0000000E+04;  0.0000000E+00;  4.0000000E+04;  4.8808721E-03;  0.0000000E+00; -5.0848630E-05;  3.4285324E+02;
 -9.0000004E-02;  9.9999998E-03; -2.7000001E-01;1017;  0.0000000E+00;  0.0000000E+00;  0.0000000E+00;  1.0000000E+03;  1.0000000E-01;  0.0000000E+00;0;  0.0000000E+00;  0.0000000E+00;  0.0000000E+00;0;  3.1948390E-03;  4.0000000E+04;  0.0000000E+00;  0.0000000E+00;  4.0000000E+04;  0.0000000E+00;  4.0000000E+04;  3.0653155E-03;  0.0000000E+00;  1.2952356E-04;  1.5250204E+02;
 -9.0000004E-02;  9.9999998E-03; -2.5999999E-01;1018;  0.0000000E+00;  0.0000000E+00;  0.0000000E+00;  1.0000000E+03;  1.0000000E-01;  0.0000000E+00;0;  0.0000000E+00;  0.0000000E+00;  0.0000000E+00;0;  3.6817838E-03;  4.0000000E+04;  0.0000000E+00;  0.0000000E+00;  4.0000000E+04;  0.0000000E+00;  4.0000000E+04;  3.5814170E-03;  0.0000000E+00;  1.0036681E-04;  2.8033798E+02;
 -9.0000004E-02;  9.9999998E-03; -2.5000000E-01;1019;  0.0000000E+00;  0.0000000E+00;  0.0000000E+00;  1.0000000E+03;  1.0000000E-01;  0.0000000E+00;0;  0.0000000E+00;  0.0000000E+00;  0.0000000E+00;0;  4.1488013E-03;  4.0000000E+04;  0.0000000E+00;  0.0000000E+00;  4.0000000E+04;  0.0000000E+00;  4.0000000E+04;  4.0811659E-03;  0.0000000E+00;  6.7635570E-05;  3.9746677E+02;
 -9.0000004E-02;  9.9999998E-03; -2.3999999E-01;1020;  0.0000000E+00;  0.0000000E+00;  0.0000000E+00;  1.0000000E+03;  1.0000000E-01;  0.0000000E+00;0;  0.0000000E+00;  0.0000000E+00;  0.0000000E+00;0;  4.5837280E-03;  4.0000000E+04;  0.0000000E+00;  0.0000000E+00;  4.0000000E+04;  0.0000000E+00;  4.0000000E+04;  4.5487634E-03;  0.0000000E+00;  3.4964429E-05;  4.9244327E+02;
 -9.0000004E-02;  9.9999998E-03; -2.3000000E-01;1021;  0.0000000E+00;  0.0000000E+00;  0.0000000E+00;  1.0000000E+03;  1.0000000E-01;  0.0000000E+00;0;  0.0000000E+00;  0.0000000E+00;  0.0000000E+00;0;  4.9783392E-03;  4.0000000E+04;  0.0000000E+00;  0.0000000E+00;  4.0000000E+04;  0.0000000E+00;  4.0000000E+04;  4.9727950E-03;  0.0000000E+00;  5.5441383E-06;  5.5856744E+02;
 -9.0000004E-02;  9.9999998E-03; -2.2000000E-01;1022;  0.0000000E+00;  0.0000000E+00;  0.0000000E+00;  1.0000000E+03;  1.0000000E-01;  0.0000000E+00;0;  0.0000000E+00;  0.0000000E+00;  0.0000000E+00;0;  5.3286781E-03;  4.0000000E+04;  0.0000000E+00;  0.0000000E+00;  4.0000000E+04;  0.0000000E+00;  4.0000000E+04;  5.3470735E-03;  0.0000000E+00; -1.8395527E-05;  5.9391937E+02;
 -9.0000004E-02;  9.9999998E-03; -2.0999999E-01;1023;  0.0000000E+00;  0.0000000E+00;  0.0000000E+00;  1.0000000E+03;  1.0000000E-01;  0.0000000E+00;0;  0.0000000E+00;  0.0000000E+00;  0.0000000E+00;0;  5.6348839E-03;  4.0000000E+04;  0.0000000E+00;  0.0000000E+00;  4.0000000E+04;  0.0000000E+00;  4.0000000E+04;  5.6707580E-03;  0.0000000E+00; -3.5873894E-05;  6.0117426E+02;
 -9.0000004E-02;  9.9999998E-03; -2.0000000E-01;1024;  0.0000000E+00;  0.0000000E+00;  0.0000000E+00;  1.0000000E+03;  1.0000000E-01;  0.0000000E+00;0;  0.0000000E+00;  0.0000000E+00;  0.0000000E+00;0;  5.9003886E-03;  4.0000000E+04;  0.0000000E+00;  0.0000000E+00;  4.0000000E+04;  0.0000000E+00;  4.0000000E+04;  5.9475671E-03;  0.0000000E+00; -4.7178295E-05;  5.8664716E+02;
 -9.0000004E-02;  9.9999998E-03; -1.9000000E-01;1025;  0.0000000E+00;  0.0000000E+00;  0.0000000E+00;  1.0000000E+03;  1.0000000E-01;  0.0000000E+00;0;  0.0000000E+00;  0.0000000E+00;  0.0000000E+00;0;  6.1309021E-03;  4.0000000E+04;  0.0000000E+00;  0.0000000E+00;  4.0000000E+04;  0.0000000E+00;  4.0000000E+04;  6.1845323E-03;  0.0000000E+00; -5.3630440E-05;  5.5882617E+02;
 -9.0000004E-02;  9.9999998E-03; -1.8000001E-01;1026;  0.0000000E+00;  0.0000000E+00;  0.0000000E+00;  1.0000187E+03;  1.0000000E-01;  1.5505734E+01;0;  0.0000000E+00;  0.0000000E+00;  0.0000000E+00;0;  6.3331081E-03;  4.0000000E+04;  0.0000000E+00;  0.0000000E+00;  4.0000000E+04;  0.0000000E+00;  4.0000000E+04;  6.3902652E-03;  0.0000000E+00; -5.7157155E-05;  5.2663092E+02;
 -9.0000004E-02;  9.9999998E-03; -1.7000000E-01;1027;  0.0000000E+00;  0.0000000E+00;  0.0000000E+00;  1.0000527E+03;  1.0000000E-01;  4.3653088E+01;0;  0.0000000E+00;  0.0000000E+00;  0.0000000E+00;0;  6.5134922E-03;  4.0000000E+04;  0.0000000E+00;  0.0000000E+00;  4.0000000E+04;  0.0000000E+00;  4.0000000E+04;  6.5732570E-03;  0.0000000E+00; -5.9765047E-05;  4.9762759E+02;
 -9.0000004E-02;  9.9999998E-03; -1.6000000E-01;1028;  0.0000000E+00;  0.0000000E+00;  0.0000000E+00;  1.0000813E+03;  1.0000000E-01;  6.7356117E+01;0;  0.0000000E+00;  0.0000000E+00;  0.0000000E+00;0;  6.6772536E-03;  4.0000000E+04;  0.0000000E+00;  0.0000000E+00;  4.0000000E+04;  0.0000000E+00;  4.0000000E+04;  6.7402921E-03;  0.0000000E+00; -6.3038533E-05;  4.7684872E+02;
 -9.0000004E-02;  9.9999998E-03; -1.5000001E-01;1029;  0.0000000E+00;  0.0000000E+00;  0.0000000E+00;  1.0001035E+03;  1.0000000E-01;  8.5725967E+01;0;  0.0000000E+00;  0.0000000E+00;  0.0000000E+00;0;  6.8276986E-03;  4.0000000E+04;  0.0000000E+00;  0.0000000E+00;  4.0000000E+04;  0.0000000E+00;  4.0000000E+04;  6.8954951E-03;  0.0000000E+00; -6.7796784E-05;  4.6656244E+02;
 -9.0000004E-02;  9.9999998E-03; -1.4000000E-01;1030;  0.0000000E+00;  0.0000000E+00;  0.0000000E+00;  1.0001187E+03;  1.0000000E-01;  9.8268829E+01;0;  0.0000000E+00;  0.0000000E+00;  0.0000000E+00;0;  6.9660447E-03;  4.0000000E+04;  0.0000000E+00;  0.0000000E+00;  4.0000000E+04;  0.0000000E+00;  4.0000000E+04;  7.0400531E-03;  0.0000000E+00; -7.4008356E-05;  4.6662244E+02;
 -9.0000004E-02;  9.9999998E-03; -1.3000000E-01;1031;  0.0000000E+00;  0.0000000E+00;  0.0000000E+00;  1.0001281E+03;  1.0000000E-01;  1.0616984E+02;0;  0.0000000E+00;  0.0000000E+00;  0.0000000E+00;0;  7.0917970E-03;  4.0000000E+04;  0.0000000E+00;  0.0000000E+00;  4.0000000E+04;  0.0000000E+00;  4.0000000E+04;  7.1727047E-03;  0.0000000E+00; -8.0907674E-05;  4.7517679E+02;
 -9.0000004E-02;  9.9999998E-03; -1.2000000E-01;1032;  0.0000000E+00;  0.0000000E+00;  0.0000000E+00;  1.0001260E+03;  1.0000000E-01;  1.0439211E+02;0;  0.0000000E+00;  0.0000000E+00;  0.0000000E+00;0;  7.2034099E-03;  4.0000000E+04;  0.0000000E+00;  0.0000000E+00;  4.0000000E+04;  0.0000000E+00;  4.0000000E+04;  7.2907950E-03;  0.0000000E+00; -8.7385262E-05;  4.8955176E+02;
 -9.0000004E-02;  9.9999998E-03; -1.1000000E-01;1033;  0.0000000E+00;  0.0000000E+00;  0.0000000E+00;  1.0001169E+03;  1.0000000E-01;  9.6886147E+01;0;  0.0000000E+00;  0.0000000E+00;  0.0000000E+00;0;  7.2989347E-03;  4.0000000E+04;  0.0000000E+00;  0.0000000E+00;  4.0000000E+04;  0.0000000E+00;  4.0000000E+04;  7.3913150E-03;  0.0000000E+00; -9.2380367E-05;  5.0700723E+02;
 -7.9999998E-02;  9.9999998E-03; -2.7000001E-01;1108;  0.0000000E+00;  0.0000000E+00;  0.0000000E+00;  1.0001041E+03;  1.0000000E-01;  8.6219780E+01;0;  0.0000000E+00;  0.0000000E+00;  0.0000000E+00;0;  4.5052506E-03;  4.0000000E+04;  0.0000000E+00;  0.0000000E+00;  4.0000000E+04;  0.0000000E+00;  4.0000000E+04;  4.2923409E-03;  0.0000000E+00;  2.1290960E-04;  2.3229639E+02;
 -7.9999998E-02;  9.9999998E-03; -2.5999999E-01;1109;  0.0000000E+00;  0.0000000E+00;  0.0000000E+00;  1.0000756E+03;  1.0000000E-01;  6.2615513E+01;0;  0.0000000E+00;  0.0000000E+00;  0.0000000E+00;0;  5.1718452E-03;  4.0000000E+04;  0.0000000E+00;  0.0000000E+00;  4.0000000E+04;  0.0000000E+00;  4.0000000E+04;  5.0045312E-03;  0.0000000E+00;  1.6731383E-04;  4.1872650E+02;
 -7.9999998E-02;  9.9999998E-03; -2.5000000E-01;1110;  0.0000000E+00;  0.0000000E+00;  0.0000000E+00;  1.0000731E+03;  1.0000000E-01;  6.0541496E+01;0;  0.0000000E+00;  0.0000000E+00;  0.0000000E+00;0;  5.8120950E-03;  4.0000000E+04;  0.0000000E+00;  0.0000000E+00;  4.0000000E+04;  0.0000000E+00;  4.0000000E+04;  5.6962739E-03;  0.0000000E+00;  1.1582094E-04;  5.8955475E+02;
 -7.9999998E-02;  9.9999998E-03; -2.3999999E-01;1111;  0.0000000E+00;  0.0000000E+00;  0.0000000E+00;  1.0000734E+03;  1.0000000E-01;  6.0837784E+01;0;  0.0000000E+00;  0.0000000E+00;  0.0000000E+00;0;  6.4105731E-03;  4.0000000E+04;  0.0000000E+00;  0.0000000E+00;  4.0000000E+04;  0.0000000E+00;  4.0000000E+04;  6.3467668E-03;  0.0000000E+00;  6.3806401E-05;  7.2727509E+02;
 -7.9999998E-02;  9.9999998E-03; -2.3000000E-01;1112;  0.0000000E+00;  0.0000000E+00;  0.0000000E+00;  1.0000885E+03;  1.0000000E-01;  7.3281876E+01;0;  0.0000000E+00;  0.0000000E+00;  0.0000000E+00;0;  6.9569428E-03;  4.0000000E+04;  0.0000000E+00;  0.0000000E+00;  4.0000000E+04;  0.0000000E+00;  4.0000000E+04;  6.9409003E-03;  0.0000000E+00;  1.6042513E-05;  8.2217261E+02;
 -7.9999998E-02;  9.9999998E-03; -2.2000000E-01;1113;  0.0000000E+00;  0.0000000E+00;  0.0000000E+00;  1.0001135E+03;  1.0000000E-01;  9.4022034E+01;0;  0.0000000E+00;  0.0000000E+00;  0.0000000E+00;0;  7.4462937E-03;  4.0000000E+04;  0.0000000E+00;  0.0000000E+00;  4.0000000E+04;  0.0000000E+00;  4.0000000E+04;  7.4703246E-03;  0.0000000E+00; -2.4031076E-05;  8.7156506E+02;
 -7.9999998E-02;  9.9999998E-03; -2.0999999E-01;1114;  0.0000000E+00;  0.0000000E+00;  0.0000000E+00;  1.0001508E+03;  1.0000000E-01;  1.2493474E+02;0;  0.0000000E+00;  0.0000000E+00;  0.0000000E+00;0;  7.8787412E-03;  4.0000000E+04;  0.0000000E+00;  0.0000000E+00;  4.0000000E+04;  0.0000000E+00;  4.0000000E+04;  7.9334537E-03;  0.0000000E+00; -5.4712054E-05;  8.7922272E+02;
 -7.9999998E-02;  9.9999998E-03; -2.0000000E-01;1115;  0.0000000E+00;  0.0000000E+00;  0.0000000E+00;  1.0002045E+03;  1.0000000E-01;  1.6947668E+02;0;  0.0000000E+00;  0.0000000E+00;  0.0000000E+00;0;  8.2584405E-03;  4.0000000E+04;  0.0000000E+00;  0.0000000E+00;  4.0000000E+04;  0.0000000E+00;  4.0000000E+04;  8.3345156E-03;  0.0000000E+00; -7.6075448E-05;  8.5409698E+02;
 -7.9999998E-02;  9.9999998E-03; -1.9000000E-01;1116;  0.0000000E+00;  0.0000000E+00;  0.0000000E+00;  1.0002657E+03;  1.0000000E-01;  2.2014192E+02;0;  0.0000000E+00;  0.0000000E+00;  0.0000000E+00;0;  8.5922303E-03;  4.0000000E+04;  0.0000000E+00;  0.0000000E+00;  4.0000000E+04;  0.0000000E+00;  4.0000000E+04;  8.6819194E-03;  0.0000000E+00; -8.9688998E-05;  8.0838306E+02;
 -7.9999998E-02;  9.9999998E-03; -1.8000001E-01;1117;  0.0000000E+00;  0.0000000E+00;  0.0000000E+00;  1.0003257E+03;  1.0000000E-01;  2.6981952E+02;0;  0.0000000E+00;  0.0000000E+00;  0.0000000E+00;0;  8.8880835E-03;  4.0000000E+04;  0.0000000E+00;  0.0000000E+00;  4.0000000E+04;  0.0000000E+00;  4.0000000E+04;  8.9861630E-03;  0.0000000E+00; -9.8079370E-05;  7.5515613E+02;
 -7.9999998E-02;  9.9999998E-03; -1.7000000E-01;1118;  0.0000000E+00;  0.0000000E+00;  0.0000000E+00;  1.0003829E+03;  1.0000000E-01;  3.1722559E+02;0;  0.0000000E+00;  0.0000000E+00;  0.0000000E+00;0;  9.1537144E-03;  4.0000000E+04;  0.0000000E+00;  0.0000000E+00;  4.0000000E+04;  0.0000000E+00;  4.0000000E+04;  9.2577720E-03;  0.0000000E+00; -1.0405726E-04;  7.0606152E+02;
 -7.9999998E-02;  9.9999998E-03; -1.6000000E-01;1119;  0.0000000E+00;  0.0000000E+00;  0.0000000E+00;  1.0004343E+03;  1.0000000E-01;  3.5979230E+02;0;  0.0000000E+00;  0.0000000E+00;  0.0000000E+00;0;  9.3953200E-03;  4.0000000E+04;  0.0000000E+00;  0.0000000E+00;  4.0000000E+04;  0.0000000E+00;  4.0000000E+04;  9.5053501E-03;  0.0000000E+00; -1.1003015E-04;  6.6938110E+02;
 -7.9999998E-02;  9.9999998E-03; -1.5000001E-01;1120;  0.0000000E+00;  0.0000000E+00;  0.0000000E+00;  1.0004760E+03;  1.0000000E-01;  3.9435922E+02;0;  0.0000000E+00;  0.0000000E+00;  0.0000000E+00;0;  9.6169105E-03;  4.0000000E+04;  0.0000000E+00;  0.0000000E+00;  4.0000000E+04;  0.0000000E+00;  4.0000000E+04;  9.7343689E-03;  0.0000000E+00; -1.1745845E-04;  6.4914368E+02;
 -7.9999998E-02;  9.9999998E-03; -1.4000000E-01;1121;  0.0000000E+00;  0.0000000E+00;  0.0000000E+00;  1.0004951E+03;  1.0000000E-01;  4.1016122E+02;0;  0.0000000E+00;  0.0000000E+00;  0.0000000E+00;0;  9.8199723E-03;  4.0000000E+04;  0.0000000E+00;  0.0000000E+00;  4.0000000E+04;  0.0000000E+00;  4.0000000E+04;  9.9465847E-03;  0.0000000E+00; -1.2661233E-04;  6.4560376E+02;
 -7.9999998E-02;  9.9999998E-03; -1.3000000E-01;1122;  0.0000000E+00;  0.0000000E+00;  0.0000000E+00;  1.0005083E+03;  1.0000000E-01;  4.2112390E+02;0;  0.0000000E+00;  0.0000000E+00;  0.0000000E+00;0;  1.0003879E-02;  4.0000000E+04;  0.0000000E+00;  0.0000000E+00;  4.0000000E+04;  0.0000000E+00;  4.0000000E+04;  1.0140585E-02;  0.0000000E+00; -1.3670647E-04;  6.5623566E+02;
 -7.9999998E-02;  9.9999998E-03; -1.2000000E-01;1123;  0.0000000E+00;  0.0000000E+00;  0.0000000E+00;  1.0005096E+03;  1.0000000E-01;  4.2221027E+02;0;  0.0000000E+00;  0.0000000E+00;  0.0000000E+00;0;  1.0166676E-02;  4.0000000E+04;  0.0000000E+00;  0.0000000E+00;  4.0000000E+04;  0.0000000E+00;  4.0000000E+04;  1.0312930E-02;  0.0000000E+00; -1.4625378E-04;  6.7692761E+02;
 -7.9999998E-02;  9.9999998E-03; -1.1000000E-01;1124;  0.0000000E+00;  0.0000000E+00;  0.0000000E+00;  1.0005018E+03;  1.0000000E-01;  4.1569196E+02;0;  0.0000000E+00;  0.0000000E+00;  0.0000000E+00;0;  1.0305963E-02;  4.0000000E+04;  0.0000000E+00;  0.0000000E+00;  4.0000000E+04;  0.0000000E+00;  4.0000000E+04;  1.0459660E-02;  0.0000000E+00; -1.5369747E-04;  7.0325299E+02;
 -7.0000000E-02;  9.9999998E-03; -2.7000001E-01;1199;  0.0000000E+00;  0.0000000E+00;  0.0000000E+00;  1.0003757E+03;  1.0000000E-01;  3.1129984E+02;0;  0.0000000E+00;  0.0000000E+00;  0.0000000E+00;0;  6.0272687E-03;  4.0000000E+04;  0.0000000E+00;  0.0000000E+00;  4.0000000E+04;  0.0000000E+00;  4.0000000E+04;  5.6994911E-03;  0.0000000E+00;  3.2777750E-04;  3.3576434E+02;
 -7.0000000E-02;  9.9999998E-03; -2.5999999E-01;1200;  0.0000000E+00;  0.0000000E+00;  0.0000000E+00;  1.0003837E+03;  1.0000000E-01;  3.1781818E+02;0;  0.0000000E+00;  0.0000000E+00;  0.0000000E+00;0;  6.8961685E-03;  4.0000000E+04;  0.0000000E+00;  0.0000000E+00;  4.0000000E+04;  0.0000000E+00;  4.0000000E+04;  6.6359676E-03;  0.0000000E+00;  2.6020073E-04;  5.9339154E+02;
 -7.0000000E-02;  9.9999998E-03; -2.5000000E-01;1201;  0.0000000E+00;  0.0000000E+00;  0.0000000E+00;  1.0003988E+03;  1.0000000E-01;  3.3036102E+02;0;  0.0000000E+00;  0.0000000E+00;  0.0000000E+00;0;  7.7304435E-03;  4.0000000E+04;  0.0000000E+00;  0.0000000E+00;  4.0000000E+04;  0.0000000E+00;  4.0000000E+04;  7.5469385E-03;  0.0000000E+00;  1.8350496E-04;  8.2942529E+02;
 -7.0000000E-02;  9.9999998E-03; -2.3999999E-01;1202;  0.0000000E+00;  0.0000000E+00;  0.0000000E+00;  1.0004264E+03;  1.0000000E-01;  3.5327396E+02;0;  0.0000000E+00;  0.0000000E+00;  0.0000000E+00;0;  8.5112927E-03;  4.0000000E+04;  0.0000000E+00;  0.0000000E+00;  4.0000000E+04;  0.0000000E+00;  4.0000000E+04;  8.4059266E-03;  0.0000000E+00;  1.0536565E-04;  1.0182539E+03;
 -7.0000000E-02;  9.9999998E-03; -2.3000000E-01;1203;  0.0000000E+00;  0.0000000E+00;  0.0000000E+00;  1.0004694E+03;  1.0000000E-01;  3.8882852E+02;0;  0.0000000E+00;  0.0000000E+00;  0.0000000E+00;0;  9.2264628E-03;  4.0000000E+04;  0.0000000E+00;  0.0000000E+00;  4.0000000E+04;  0.0000000E+00;  4.0000000E+04;  9.1938395E-03;  0.0000000E+00;  3.2623095E-05;  1.1466174E+03;
 -7.0000000E-02;  9.9999998E-03; -2.2000000E-01;1204;  0.0000000E+00;  0.0000000E+00;  0.0000000E+00;  1.0005200E+03;  1.0000000E-01;  4.3080264E+02;0;  0.0000000E+00;  0.0000000E+00;  0.0000000E+00;0;  9.8704882E-03;  4.0000000E+04;  0.0000000E+00;  0.0000000E+00;  4.0000000E+04;  0.0000000E+00;  4.0000000E+04;  9.9002020E-03;  0.0000000E+00; -2.9713754E-05;  1.2111918E+03;
 -7.0000000E-02;  9.9999998E-03; -2.0999999E-01;1205;  0.0000000E+00;  0.0000000E+00;  0.0000000E+00;  1.0005966E+03;  1.0000000E-01;  4.9420825E+02;0;  0.0000000E+00;  0.0000000E+00;  0.0000000E+00;0;  1.0443967E-02;  4.0000000E+04;  0.0000000E+00;  0.0000000E+00;  4.0000000E+04;  0.0000000E+00;  4.0000000E+04;  1.0522961E-02;  0.0000000E+00; -7.8993966E-05;  1.2174552E+03;
 -7.0000000E-02;  9.9999998E-03; -2.0000000E-01;1206;  0.0000000E+00;  0.0000000E+00;  0.0000000E+00;  1.0006845E+03;  1.0000000E-01;  5.6709509E+02;0;  0.0000000E+00;  0.0000000E+00;  0.0000000E+00;0;  1.0952227E-02;  4.0000000E+04;  0.0000000E+00;  0.0000000E+00;  4.0000000E+04;  0.0000000E+00;  4.0000000E+04;  1.1067187E-02;  0.0000000E+00; -1.1496085E-04;  1.1777546E+03;
 -7.0000000E-02;  9.9999998E-03; -1.9000000E-01;1207;  0.0000000E+00;  0.0000000E+00;  0.0000000E+00;  1.0007787E+03;  1.0000000E-01;  6.4521631E+02;0;  0.0000000E+00;  0.0000000E+00;  0.0000000E+00;0;  1.1403641E-02;  4.0000000E+04;  0.0000000E+00;  0.0000000E+00;  4.0000000E+04;  0.0000000E+00;  4.0000000E+04;  1.1543025E-02;  0.0000000E+00; -1.3938485E-04;  1.1086694E+03;
 -7.0000000E-02;  9.9999998E-03; -1.8000001E-01;1208;  0.0000000E+00;  0.0000000E+00;  0.0000000E+00;  1.0008735E+03;  1.0000000E-01;  7.2363385E+02;0;  0.0000000E+00;  0.0000000E+00;  0.0000000E+00;0;  1.1807649E-02;  4.0000000E+04;  0.0000000E+00;  0.0000000E+00;  4.0000000E+04;  0.0000000E+00;  4.0000000E+04;  1.1963054E-02;  0.0000000E+00; -1.5540421E-04;  1.0281722E+03;
 -7.0000000E-02;  9.9999998E-03; -1.7000000E-01;1209;  0.0000000E+00;  0.0000000E+00;  0.0000000E+00;  1.0009588E+03;  1.0000000E-01;  7.9434790E+02;0;  0.0000000E+00;  0.0000000E+00;  0.0000000E+00;0;  1.2173182E-02;  4.0000000E+04;  0.0000000E+00;  0.0000000E+00;  4.0000000E+04;  0.0000000E+00;  4.0000000E+04;  1.2339888E-02;  0.0000000E+00; -1.6670614E-04;  9.5259552E+02;
 -7.0000000E-02;  9.9999998E-03; -1.6000000E-01;1210;  0.0000000E+00;  0.0000000E+00;  0.0000000E+00;  1.0010411E+03;  1.0000000E-01;  8.6249414E+02;0;  0.0000000E+00;  0.0000000E+00;  0.0000000E+00;0;  1.2507298E-02;  4.0000000E+04;  0.0000000E+00;  0.0000000E+00;  4.0000000E+04;  0.0000000E+00;  4.0000000E+04;  1.2683971E-02;  0.0000000E+00; -1.7667261E-04;  8.9421637E+02;
 -7.0000000E-02;  9.9999998E-03; -1.5000001E-01;1211;  0.0000000E+00;  0.0000000E+00;  0.0000000E+00;  1.0010972E+03;  1.0000000E-01;  9.0901135E+02;0;  0.0000000E+00;  0.0000000E+00;  0.0000000E+00;0;  1.2814290E-02;  4.0000000E+04;  0.0000000E+00;  0.0000000E+00;  4.0000000E+04;  0.0000000E+00;  4.0000000E+04;  1.3001920E-02;  0.0000000E+00; -1.8762944E-04;  8.5954907E+02;
 -7.0000000E-02;  9.9999998E-03; -1.4000000E-01;1212;  0.0000000E+00;  0.0000000E+00;  0.0000000E+00;  1.0011382E+03;  1.0000000E-01;  9.4298566E+02;0;  0.0000000E+00;  0.0000000E+00;  0.0000000E+00;0;  1.3095545E-02;  4.0000000E+04;  0.0000000E+00;  0.0000000E+00;  4.0000000E+04;  0.0000000E+00;  4.0000000E+04;  1.3295926E-02;  0.0000000E+00; -2.0038175E-04;  8.4952795E+02;
 -7.0000000E-02;  9.9999998E-03; -1.3000000E-01;1213;  0.0000000E+00;  0.0000000E+00;  0.0000000E+00;  1.0011630E+03;  1.0000000E-01;  9.6352832E+02;0;  0.0000000E+00;  0.0000000E+00;  0.0000000E+00;0;  1.3349975E-02;  4.0000000E+04;  0.0000000E+00;  0.0000000E+00;  4.0000000E+04;  0.0000000E+00;  4.0000000E+04;  1.3564211E-02;  0.0000000E+00; -2.1423670E-04;  8.6093994E+02;
 -7.0000000E-02;  9.9999998E-03; -1.2000000E-01;1214;  0.0000000E+00;  0.0000000E+00;  0.0000000E+00;  1.0011640E+03;  1.0000000E-01;  9.6431842E+02;0;  0.0000000E+00;  0.0000000E+00;  0.0000000E+00;0;  1.3574936E-02;  4.0000000E+04;  0.0000000E+00;  0.0000000E+00;  4.0000000E+04;  0.0000000E+00;  4.0000000E+04;  1.3802364E-02;  0.0000000E+00; -2.2742788E-04;  8.8807184E+02;
 -7.0000000E-02;  9.9999998E-03; -1.1000000E-01;1215;  0.0000000E+00;  0.0000000E+00;  0.0000000E+00;  1.0011569E+03;  1.0000000E-01;  9.5849139E+02;0;  0.0000000E+00;  0.0000000E+00;  0.0000000E+00;0;  1.3767340E-02;  4.0000000E+04;  0.0000000E+00;  0.0000000E+00;  4.0000000E+04;  0.0000000E+00;  4.0000000E+04;  1.4005185E-02;  0.0000000E+00; -2.3784461E-04;  9.2444562E+02;
 -5.9999999E-02;  9.9999998E-03; -2.7000001E-01;1290;  0.0000000E+00;  0.0000000E+00;  0.0000000E+00;  1.0008201E+03;  1.0000000E-01;  6.7948694E+02;0;  0.0000000E+00;  0.0000000E+00;  0.0000000E+00;0;  7.6984894E-03;  4.0000000E+04;  0.0000000E+00;  0.0000000E+00;  4.0000000E+04;  0.0000000E+00;  4.0000000E+04;  7.2214692E-03;  0.0000000E+00;  4.7702031E-04;  4.6032565E+02;
 -5.9999999E-02;  9.9999998E-03; -2.5999999E-01;1291;  0.0000000E+00;  0.0000000E+00;  0.0000000E+00;  1.0008711E+03;  1.0000000E-01;  7.2165863E+02;0;  0.0000000E+00;  0.0000000E+00;  0.0000000E+00;0;  8.7832576E-03;  4.0000000E+04;  0.0000000E+00;  0.0000000E+00;  4.0000000E+04;  0.0000000E+00;  4.0000000E+04;  8.4020132E-03;  0.0000000E+00;  3.8124432E-04;  8.0212836E+02;
 -5.9999999E-02;  9.9999998E-03; -2.5000000E-01;1292;  0.0000000E+00;  0.0000000E+00;  0.0000000E+00;  1.0009255E+03;  1.0000000E-01;  7.6669434E+02;0;  0.0000000E+00;  0.0000000E+00;  0.0000000E+00;0;  9.8227235E-03;  4.0000000E+04;  0.0000000E+00;  0.0000000E+00;  4.0000000E+04;  0.0000000E+00;  4.0000000E+04;  9.5505659E-03;  0.0000000E+00;  2.7215725E-04;  1.1142168E+03;
 -5.9999999E-02;  9.9999998E-03; -2.3999999E-01;1293;  0.0000000E+00;  0.0000000E+00;  0.0000000E+00;  1.0010006E+03;  1.0000000E-01;  8.2901361E+02;0;  0.0000000E+00;  0.0000000E+00;  0.0000000E+00;0;  1.0794883E-02;  4.0000000E+04;  0.0000000E+00;  0.0000000E+00;  4.0000000E+04;  0.0000000E+00;  4.0000000E+04;  1.0634449E-02;  0.0000000E+00;  1.6043338E-04;  1.3611143E+03;
 -5.9999999E-02;  9.9999998E-03; -2.3000000E-01;1294;  0.0000000E+00;  0.0000000E+00;  0.0000000E+00;  1.0010908E+03;  1.0000000E-01;  9.0367816E+02;0;  0.0000000E+00;  0.0000000E+00;  0.0000000E+00;0;  1.1686082E-02;  4.0000000E+04;  0.0000000E+00;  0.0000000E+00;  4.0000000E+04;  0.0000000E+00;  4.0000000E+04;  1.1630543E-02;  0.0000000E+00;  5.5539538E-05;  1.5257267E+03;
 -5.9999999E-02;  9.9999998E-03; -2.2000000E-01;1295;  0.0000000E+00;  0.0000000E+00;  0.0000000E+00;  1.0012016E+03;  1.0000000E-01;  9.9552740E+02;0;  0.0000000E+00;  0.0000000E+00;  0.0000000E+00;0;  1.2490940E-02;  4.0000000E+04;  0.0000000E+00;  0.0000000E+00;  4.0000000E+04;  0.0000000E+00;  4.0000000E+04;  1.2526519E-02;  0.0000000E+00; -3.5578043E-05;  1.6046624E+03;
 -5.9999999E-02;  9.9999998E-03; -2.0999999E-01;1296;  0.0000000E+00;  0.0000000E+00;  0.0000000E+00;  1.0013229E+03;  1.0000000E-01;  1.0959690E+03;0;  0.0000000E+00;  0.0000000E+00;  0.0000000E+00;0;  1.3211317E-02;  4.0000000E+04;  0.0000000E+00;  0.0000000E+00;  4.0000000E+04;  0.0000000E+00;  4.0000000E+04;  1.3320439E-02;  0.0000000E+00; -1.0912253E-04;  1.6060743E+03;
 -5.9999999E-02;  9.9999998E-03; -2.0000000E-01;1297;  0.0000000E+00;  0.0000000E+00;  0.0000000E+00;  1.0014628E+03;  1.0000000E-01;  1.2119164E+03;0;  0.0000000E+00;  0.0000000E+00;  0.0000000E+00;0;  1.3854457E-02;  4.0000000E+04;  0.0000000E+00;  0.0000000E+00;  4.0000000E+04;  0.0000000E+00;  4.0000000E+04;  1.4018887E-02;  0.0000000E+00; -1.6442919E-04;  1.5467156E+03;
 -5.9999999E-02;  9.9999998E-03; -1.9000000E-01;1298;  0.0000000E+00;  0.0000000E+00;  0.0000000E+00;  1.0016053E+03;  1.0000000E-01;  1.3300365E+03;0;  0.0000000E+00;  0.0000000E+00;  0.0000000E+00;0;  1.4430795E-02;  4.0000000E+04;  0.0000000E+00;  0.0000000E+00;  4.0000000E+04;  0.0000000E+00;  4.0000000E+04;  1.4634262E-02;  0.0000000E+00; -2.0346718E-04;  1.4484773E+03;
 -5.9999999E-02;  9.9999998E-03; -1.8000001E-01;1299;  0.0000000E+00;  0.0000000E+00;  0.0000000E+00;  1.0017483E+03;  1.0000000E-01;  1.4484529E+03;0;  0.0000000E+00;  0.0000000E+00;  0.0000000E+00;0;  1.4951618E-02;  4.0000000E+04;  0.0000000E+00;  0.0000000E+00;  4.0000000E+04;  0.0000000E+00;  4.0000000E+04;  1.5181647E-02;  0.0000000E+00; -2.3002806E-04;  1.3347056E+03;
 -5.9999999E-02;  9.9999998E-03; -1.7000000E-01;1300;  0.0000000E+00;  0.0000000E+00;  0.0000000E+00;  1.0018754E+03;  1.0000000E-01;  1.5537339E+03;0;  0.0000000E+00;  0.0000000E+00;  0.0000000E+00;0;  1.5427075E-02;  4.0000000E+04;  0.0000000E+00;  0.0000000E+00;  4.0000000E+04;  0.0000000E+00;  4.0000000E+04;  1.5675826E-02;  0.0000000E+00; -2.4875047E-04;  1.2268138E+03;
 -5.9999999E-02;  9.9999998E-03; -1.6000000E-01;1301;  0.0000000E+00;  0.0000000E+00;  0.0000000E+00;  1.0019903E+03;  1.0000000E-01;  1.6489410E+03;0;  0.0000000E+00;  0.0000000E+00;  0.0000000E+00;0;  1.5864650E-02;  4.0000000E+04;  0.0000000E+00;  0.0000000E+00;  4.0000000E+04;  0.0000000E+00;  4.0000000E+04;  1.6128756E-02;  0.0000000E+00; -2.6410623E-04;  1.1413248E+03;
 -5.9999999E-02;  9.9999998E-03; -1.5000001E-01;1302;  0.0000000E+00;  0.0000000E+00;  0.0000000E+00;  1.0020762E+03;  1.0000000E-01;  1.7200502E+03;0;  0.0000000E+00;  0.0000000E+00;  0.0000000E+00;0;  1.6268538E-02;  4.0000000E+04;  0.0000000E+00;  0.0000000E+00;  4.0000000E+04;  0.0000000E+00;  4.0000000E+04;  1.6548010E-02;  0.0000000E+00; -2.7947192E-04;  1.0876815E+03;
 -5.9999999E-02;  9.9999998E-03; -1.4000000E-01;1303;  0.0000000E+00;  0.0000000E+00;  0.0000000E+00;  1.0021388E+03;  1.0000000E-01;  1.7719993E+03;0;  0.0000000E+00;  0.0000000E+00;  0.0000000E+00;0;  1.6639380E-02;  4.0000000E+04;  0.0000000E+00;  0.0000000E+00;  4.0000000E+04;  0.0000000E+00;  4.0000000E+04;  1.6935818E-02;  0.0000000E+00; -2.9643875E-04;  1.0678976E+03;
 -5.9999999E-02;  9.9999998E-03; -1.3000000E-01;1304;  0.0000000E+00;  0.0000000E+00;  0.0000000E+00;  1.0021688E+03;  1.0000000E-01;  1.7967887E+03;0;  0.0000000E+00;  0.0000000E+00;  0.0000000E+00;0;  1.6975060E-02;  4.0000000E+04;  0.0000000E+00;  0.0000000E+00;  4.0000000E+04;  0.0000000E+00;  4.0000000E+04;  1.7289653E-02;  0.0000000E+00; -3.1459349E-04;  1.0780992E+03;
 -5.9999999E-02;  9.9999998E-03; -1.2000000E-01;1305;  0.0000000E+00;  0.0000000E+00;  0.0000000E+00;  1.0021817E+03;  1.0000000E-01;  1.8074551E+03;0;  0.0000000E+00;  0.0000000E+00;  0.0000000E+00;0;  1.7271779E-02;  4.0000000E+04;  0.0000000E+00;  0.0000000E+00;  4.0000000E+04;  0.0000000E+00;  4.0000000E+04;  1.7603770E-02;  0.0000000E+00; -3.3198949E-04;  1.1108728E+03;
 -5.9999999E-02;  9.9999998E-03; -1.1000000E-01;1306;  0.0000000E+00;  0.0000000E+00;  0.0000000E+00;  1.0021780E+03;  1.0000000E-01;  1.8043934E+03;0;  0.0000000E+00;  0.0000000E+00;  0.0000000E+00;0;  1.7525373E-02;  4.0000000E+04;  0.0000000E+00;  0.0000000E+00;  4.0000000E+04;  0.0000000E+00;  4.0000000E+04;  1.7871326E-02;  0.0000000E+00; -3.4595365E-04;  1.1575049E+03;
 -5.0000001E-02;  9.9999998E-03; -2.7000001E-01;1381;  0.0000000E+00;  0.0000000E+00;  0.0000000E+00;  1.0014792E+03;  1.0000000E-01;  1.2254468E+03;0;  0.0000000E+00;  0.0000000E+00;  0.0000000E+00;0;  9.4197113E-03;  4.0000000E+04;  0.0000000E+00;  0.0000000E+00;  4.0000000E+04;  0.0000000E+00;  4.0000000E+04;  8.7590059E-03;  0.0000000E+00;  6.6070573E-04;  5.9746930E+02;
 -5.0000001E-02;  9.9999998E-03; -2.5999999E-01;1382;  0.0000000E+00;  0.0000000E+00;  0.0000000E+00;  1.0015866E+03;  1.0000000E-01;  1.3144320E+03;0;  0.0000000E+00;  0.0000000E+00;  0.0000000E+00;0;  1.0719933E-02;  4.0000000E+04;  0.0000000E+00;  0.0000000E+00;  4.0000000E+04;  0.0000000E+00;  4.0000000E+04;  1.0189916E-02;  0.0000000E+00;  5.3001614E-04;  1.0372577E+03;
 -5.0000001E-02;  9.9999998E-03; -2.5000000E-01;1383;  0.0000000E+00;  0.0000000E+00;  0.0000000E+00;  1.0017169E+03;  1.0000000E-01;  1.4224783E+03;0;  0.0000000E+00;  0.0000000E+00;  0.0000000E+00;0;  1.1961448E-02;  4.0000000E+04;  0.0000000E+00;  0.0000000E+00;  4.0000000E+04;  0.0000000E+00;  4.0000000E+04;  1.1580543E-02;  0.0000000E+00;  3.8090511E-04;  1.4351010E+03;
 -5.0000001E-02;  9.9999998E-03; -2.3999999E-01;1384;  0.0000000E+00;  0.0000000E+00;  0.0000000E+00;  1.0018514E+03;  1.0000000E-01;  1.5337838E+03;0;  0.0000000E+00;  0.0000000E+00;  0.0000000E+00;0;  1.3119623E-02;  4.0000000E+04;  0.0000000E+00;  0.0000000E+00;  4.0000000E+04;  0.0000000E+00;  4.0000000E+04;  1.2891718E-02;  0.0000000E+00;  2.2790494E-04;  1.7446937E+03;
 -5.0000001E-02;  9.9999998E-03; -2.3000000E-01;1385;  0.0000000E+00;  0.0000000E+00;  0.0000000E+00;  1.0020105E+03;  1.0000000E-01;  1.6656320E+03;0;  0.0000000E+00;  0.0000000E+00;  0.0000000E+00;0;  1.4180287E-02;  4.0000000E+04;  0.0000000E+00;  0.0000000E+00;  4.0000000E+04;  0.0000000E+00;  4.0000000E+04;  1.4096563E-02;  0.0000000E+00;  8.3724248E-05;  1.9453643E+03;
 -5.0000001E-02;  9.9999998E-03; -2.2000000E-01;1386;  0.0000000E+00;  0.0000000E+00;  0.0000000E+00;  1.0021899E+03;  1.0000000E-01;  1.8143684E+03;0;  0.0000000E+00;  0.0000000E+00;  0.0000000E+00;0;  1.5139199E-02;  4.0000000E+04;  0.0000000E+00;  0.0000000E+00;  4.0000000E+04;  0.0000000E+00;  4.0000000E+04;  1.5181611E-02;  0.0000000E+00; -4.2412219E-05;  2.0347782E+03;
 -5.0000001E-02;  9.9999998E-03; -2.0999999E-01;1387;  0.0000000E+00;  0.0000000E+00;  0.0000000E+00;  1.0023869E+03;  1.0000000E-01;  1.9775243E+03;0;  0.0000000E+00;  0.0000000E+00;  0.0000000E+00;0;  1.6000455E-02;  4.0000000E+04;  0.0000000E+00;  0.0000000E+00;  4.0000000E+04;  0.0000000E+00;  4.0000000E+04;  1.6145891E-02;  0.0000000E+00; -1.4543576E-04;  2.0253402E+03;
 -5.0000001E-02;  9.9999998E-03; -2.0000000E-01;1388;  0.0000000E+00;  0.0000000E+00;  0.0000000E+00;  1.0025977E+03;  1.0000000E-01;  2.1521367E+03;0;  0.0000000E+00;  0.0000000E+00;  0.0000000E+00;0;  1.6774081E-02;  4.0000000E+04;  0.0000000E+00;  0.0000000E+00;  4.0000000E+04;  0.0000000E+00;  4.0000000E+04;  1.6998364E-02;  0.0000000E+00; -2.2428352E-04;  1.9396451E+03;
 -5.0000001E-02;  9.9999998E-03; -1.9000000E-01;1389;  0.0000000E+00;  0.0000000E+00;  0.0000000E+00;  1.0028104E+03;  1.0000000E-01;  2.3283291E+03;0;  0.0000000E+00;  0.0000000E+00;  0.0000000E+00;0;  1.7473208E-02;  4.0000000E+04;  0.0000000E+00;  0.0000000E+00;  4.0000000E+04;  0.0000000E+00;  4.0000000E+04;  1.7754419E-02;  0.0000000E+00; -2.8121180E-04;  1.8058783E+03;
 -5.0000001E-02;  9.9999998E-03; -1.8000001E-01;1390;  0.0000000E+00;  0.0000000E+00;  0.0000000E+00;  1.0030100E+03;  1.0000000E-01;  2.4937566E+03;0;  0.0000000E+00;  0.0000000E+00;  0.0000000E+00;0;  1.8111138E-02;  4.0000000E+04;  0.0000000E+00;  0.0000000E+00;  4.0000000E+04;  0.0000000E+00;  4.0000000E+04;  1.8431926E-02;  0.0000000E+00; -3.2078792E-04;  1.6532904E+03;
 -5.0000001E-02;  9.9999998E-03; -1.7000000E-01;1391;  0.0000000E+00;  0.0000000E+00;  0.0000000E+00;  1.0031931E+03;  1.0000000E-01;  2.6454561E+03;0;  0.0000000E+00;  0.0000000E+00;  0.0000000E+00;0;  1.8699251E-02;  4.0000000E+04;  0.0000000E+00;  0.0000000E+00;  4.0000000E+04;  0.0000000E+00;  4.0000000E+04;  1.9047983E-02;  0.0000000E+00; -3.4873147E-04;  1.5083590E+03;
 -5.0000001E-02;  9.9999998E-03; -1.6000000E-01;1392;  0.0000000E+00;  0.0000000E+00;  0.0000000E+00;  1.0033458E+03;  1.0000000E-01;  2.7718723E+03;0;  0.0000000E+00;  0.0000000E+00;  0.0000000E+00;0;  1.9245192E-02;  4.0000000E+04;  0.0000000E+00;  0.0000000E+00;  4.0000000E+04;  0.0000000E+00;  4.0000000E+04;  1.9615915E-02;  0.0000000E+00; -3.7072314E-04;  1.3916152E+03;
 -5.0000001E-02;  9.9999998E-03; -1.5000001E-01;1393;  0.0000000E+00;  0.0000000E+00;  0.0000000E+00;  1.0034666E+03;  1.0000000E-01;  2.8720176E+03;0;  0.0000000E+00;  0.0000000E+00;  0.0000000E+00;0;  1.9752258E-02;  4.0000000E+04;  0.0000000E+00;  0.0000000E+00;  4.0000000E+04;  0.0000000E+00;  4.0000000E+04;  2.0143569E-02;  0.0000000E+00; -3.9131043E-04;  1.3153636E+03;
 -5.0000001E-02;  9.9999998E-03; -1.4000000E-01;1394;  0.0000000E+00;  0.0000000E+00;  0.0000000E+00;  1.0035503E+03;  1.0000000E-01;  2.9413489E+03;0;  0.0000000E+00;  0.0000000E+00;  0.0000000E+00;0;  2.0219674E-02;  4.0000000E+04;  0.0000000E+00;  0.0000000E+00;  4.0000000E+04;  0.0000000E+00;  4.0000000E+04;  2.0632723E-02;  0.0000000E+00; -4.1304980E-04;  1.2828195E+03;
 -5.0000001E-02;  9.9999998E-03; -1.3000000E-01;1395;  0.0000000E+00;  0.0000000E+00;  0.0000000E+00;  1.0036051E+03;  1.0000000E-01;  2.9867798E+03;0;  0.0000000E+00;  0.0000000E+00;  0.0000000E+00;0;  2.0643512E-02;  4.0000000E+04;  0.0000000E+00;  0.0000000E+00;  4.0000000E+04;  0.0000000E+00;  4.0000000E+04;  2.1079555E-02;  0.0000000E+00; -4.3604255E-04;  1.2895066E+03;
 -5.0000001E-02;  9.9999998E-03; -1.2000000E-01;1396;  0.0000000E+00;  0.0000000E+00;  0.0000000E+00;  1.0036276E+03;  1.0000000E-01;  3.0053472E+03;0;  0.0000000E+00;  0.0000000E+00;  0.0000000E+00;0;  2.1018246E-02;  4.0000000E+04;  0.0000000E+00;  0.0000000E+00;  4.0000000E+04;  0.0000000E+00;  4.0000000E+04;  2.1476494E-02;  0.0000000E+00; -4.5824825E-04;  1.3263030E+03;
 -5.0000001E-02;  9.9999998E-03; -1.1000000E-01;1397;  0.0000000E+00;  0.0000000E+00;  0.0000000E+00;  1.0036308E+03;  1.0000000E-01;  3.0080137E+03;0;  0.0000000E+00;  0.0000000E+00;  0.0000000E+00;0;  2.1338357E-02;  4.0000000E+04;  0.0000000E+00;  0.0000000E+00;  4.0000000E+04;  0.0000000E+00;  4.0000000E+04;  2.1814816E-02;  0.0000000E+00; -4.7645983E-04;  1.3822635E+03;
 -3.9999999E-02;  9.9999998E-03; -2.7000001E-01;1472;  0.0000000E+00;  0.0000000E+00;  0.0000000E+00;  1.0023619E+03;  1.0000000E-01;  1.9567842E+03;0;  0.0000000E+00;  0.0000000E+00;  0.0000000E+00;0;  1.1058031E-02;  4.0000000E+04;  0.0000000E+00;  0.0000000E+00;  4.0000000E+04;  0.0000000E+00;  4.0000000E+04;  1.0182721E-02;  0.0000000E+00;  8.7531045E-04;  7.3527826E+02;
 -3.9999999E-02;  9.9999998E-03; -2.5999999E-01;1473;  0.0000000E+00;  0.0000000E+00;  0.0000000E+00;  1.0025665E+03;  1.0000000E-01;  2.1262607E+03;0;  0.0000000E+00;  0.0000000E+00;  0.0000000E+00;0;  1.2554010E-02;  4.0000000E+04;  0.0000000E+00;  0.0000000E+00;  4.0000000E+04;  0.0000000E+00;  4.0000000E+04;  1.1851259E-02;  0.0000000E+00;  7.0275221E-04;  1.2871394E+03;
 -3.9999999E-02;  9.9999998E-03; -2.5000000E-01;1474;  0.0000000E+00;  0.0000000E+00;  0.0000000E+00;  1.0027797E+03;  1.0000000E-01;  2.3029473E+03;0;  0.0000000E+00;  0.0000000E+00;  0.0000000E+00;0;  1.3975245E-02;  4.0000000E+04;  0.0000000E+00;  0.0000000E+00;  4.0000000E+04;  0.0000000E+00;  4.0000000E+04;  1.3469242E-02;  0.0000000E+00;  5.0600310E-04;  1.7779673E+03;
 -3.9999999E-02;  9.9999998E-03; -2.3999999E-01;1475;  0.0000000E+00;  0.0000000E+00;  0.0000000E+00;  1.0030099E+03;  1.0000000E-01;  2.4936580E+03;0;  0.0000000E+00;  0.0000000E+00;  0.0000000E+00;0;  1.5295794E-02;  4.0000000E+04;  0.0000000E+00;  0.0000000E+00;  4.0000000E+04;  0.0000000E+00;  4.0000000E+04;  1.4991323E-02;  0.0000000E+00;  3.0447199E-04;  2.1510498E+03;
 -3.9999999E-02;  9.9999998E-03; -2.3000000E-01;1476;  0.0000000E+00;  0.0000000E+00;  0.0000000E+00;  1.0032627E+03;  1.0000000E-01;  2.7030347E+03;0;  0.0000000E+00;  0.0000000E+00;  0.0000000E+00;0;  1.6502295E-02;  4.0000000E+04;  0.0000000E+00;  0.0000000E+00;  4.0000000E+04;  0.0000000E+00;  4.0000000E+04;  1.6387584E-02;  0.0000000E+00;  1.1471184E-04;  2.3831404E+03;
 -3.9999999E-02;  9.9999998E-03; -2.2000000E-01;1477;  0.0000000E+00;  0.0000000E+00;  0.0000000E+00;  1.0035319E+03;  1.0000000E-01;  2.9261394E+03;0;  0.0000000E+00;  0.0000000E+00;  0.0000000E+00;0;  1.7592888E-02;  4.0000000E+04;  0.0000000E+00;  0.0000000E+00;  4.0000000E+04;  0.0000000E+00;  4.0000000E+04;  1.7644439E-02;  0.0000000E+00; -5.1551324E-05;  2.4749204E+03;
 -3.9999999E-02;  9.9999998E-03; -2.0999999E-01;1478;  0.0000000E+00;  0.0000000E+00;  0.0000000E+00;  1.0038245E+03;  1.0000000E-01;  3.1685029E+03;0;  0.0000000E+00;  0.0000000E+00;  0.0000000E+00;0;  1.8574892E-02;  4.0000000E+04;  0.0000000E+00;  0.0000000E+00;  4.0000000E+04;  0.0000000E+00;  4.0000000E+04;  1.8762887E-02;  0.0000000E+00; -1.8799554E-04;  2.4451814E+03;
 -3.9999999E-02;  9.9999998E-03; -2.0000000E-01;1479;  0.0000000E+00;  0.0000000E+00;  0.0000000E+00;  1.0041188E+03;  1.0000000E-01;  3.4123479E+03;0;  0.0000000E+00;  0.0000000E+00;  0.0000000E+00;0;  1.9461859E-02;  4.0000000E+04;  0.0000000E+00;  0.0000000E+00;  4.0000000E+04;  0.0000000E+00;  4.0000000E+04;  1.9755173E-02;  0.0000000E+00; -2.9331411E-04;  2.3243025E+03;
 -3.9999999E-02;  9.9999998E-03; -1.9000000E-01;1480;  0.0000000E+00;  0.0000000E+00;  0.0000000E+00;  1.0044072E+03;  1.0000000E-01;  3.6512546E+03;0;  0.0000000E+00;  0.0000000E+00;  0.0000000E+00;0;  2.0269997E-02;  4.0000000E+04;  0.0000000E+00;  0.0000000E+00;  4.0000000E+04;  0.0000000E+00;  4.0000000E+04;  2.0640260E-02;  0.0000000E+00; -3.7026312E-04;  2.1479309E+03;
 -3.9999999E-02;  9.9999998E-03; -1.8000001E-01;1481;  0.0000000E+00;  0.0000000E+00;  0.0000000E+00;  1.0046940E+03;  1.0000000E-01;  3.8888777E+03;0;  0.0000000E+00;  0.0000000E+00;  0.0000000E+00;0;  2.1014918E-02;  4.0000000E+04;  0.0000000E+00;  0.0000000E+00;  4.0000000E+04;  0.0000000E+00;  4.0000000E+04;  2.1439310E-02;  0.0000000E+00; -4.2439179E-04;  1.9516023E+03;
 -3.9999999E-02;  9.9999998E-03; -1.7000000E-01;1482;  0.0000000E+00;  0.0000000E+00;  0.0000000E+00;  1.0049379E+03;  1.0000000E-01;  4.0909460E+03;0;  0.0000000E+00;  0.0000000E+00;  0.0000000E+00;0;  2.1708969E-02;  4.0000000E+04;  0.0000000E+00;  0.0000000E+00;  4.0000000E+04;  0.0000000E+00;  4.0000000E+04;  2.2171622E-02;  0.0000000E+00; -4.6265396E-04;  1.7664934E+03;
 -3.9999999E-02;  9.9999998E-03; -1.6000000E-01;1483;  0.0000000E+00;  0.0000000E+00;  0.0000000E+00;  1.0051411E+03;  1.0000000E-01;  4.2593364E+03;0;  0.0000000E+00;  0.0000000E+00;  0.0000000E+00;0;  2.2359494E-02;  4.0000000E+04;  0.0000000E+00;  0.0000000E+00;  4.0000000E+04;  0.0000000E+00;  4.0000000E+04;  2.2851549E-02;  0.0000000E+00; -4.9205433E-04;  1.6164446E+03;
 -3.9999999E-02;  9.9999998E-03; -1.5000001E-01;1484;  0.0000000E+00;  0.0000000E+00;  0.0000000E+00;  1.0053066E+03;  1.0000000E-01;  4.3964189E+03;0;  0.0000000E+00;  0.0000000E+00;  0.0000000E+00;0;  2.2968341E-02;  4.0000000E+04;  0.0000000E+00;  0.0000000E+00;  4.0000000E+04;  0.0000000E+00;  4.0000000E+04;  2.3486748E-02;  0.0000000E+00; -5.1840703E-04;  1.5157712E+03;
 -3.9999999E-02;  9.9999998E-03; -1.4000000E-01;1485;  0.0000000E+00;  0.0000000E+00;  0.0000000E+00;  1.0054274E+03;  1.0000000E-01;  4.4964653E+03;0;  0.0000000E+00;  0.0000000E+00;  0.0000000E+00;0;  2.3532510E-02;  4.0000000E+04;  0.0000000E+00;  0.0000000E+00;  4.0000000E+04;  0.0000000E+00;  4.0000000E+04;  2.4077835E-02;  0.0000000E+00; -5.4532546E-04;  1.4685884E+03;
 -3.9999999E-02;  9.9999998E-03; -1.3000000E-01;1486;  0.0000000E+00;  0.0000000E+00;  0.0000000E+00;  1.0055046E+03;  1.0000000E-01;  4.5604634E+03;0;  0.0000000E+00;  0.0000000E+00;  0.0000000E+00;0;  2.4045411E-02;  4.0000000E+04;  0.0000000E+00;  0.0000000E+00;  4.0000000E+04;  0.0000000E+00;  4.0000000E+04;  2.4619021E-02;  0.0000000E+00; -5.7360850E-04;  1.4697498E+03;
 -3.9999999E-02;  9.9999998E-03; -1.2000000E-01;1487;  0.0000000E+00;  0.0000000E+00;  0.0000000E+00;  1.0055388E+03;  1.0000000E-01;  4.5888086E+03;0;  0.0000000E+00;  0.0000000E+00;  0.0000000E+00;0;  2.4499120E-02;  4.0000000E+04;  0.0000000E+00;  0.0000000E+00;  4.0000000E+04;  0.0000000E+00;  4.0000000E+04;  2.5100376E-02;  0.0000000E+00; -6.0125551E-04;  1.5084945E+03;
 -3.9999999E-02;  9.9999998E-03; -1.1000000E-01;1488;  0.0000000E+00;  0.0000000E+00;  0.0000000E+00;  1.0055383E+03;  1.0000000E-01;  4.5883145E+03;0;  0.0000000E+00;  0.0000000E+00;  0.0000000E+00;0;  2.4886318E-02;  4.0000000E+04;  0.0000000E+00;  0.0000000E+00;  4.0000000E+04;  0.0000000E+00;  4.0000000E+04;  2.5510870E-02;  0.0000000E+00; -6.2455266E-04;  1.5717936E+03;
 -2.9999999E-02;  9.9999998E-03; -2.7000001E-01;1563;  0.0000000E+00;  0.0000000E+00;  0.0000000E+00;  1.0034990E+03;  1.0000000E-01;  2.8987822E+03;0;  0.0000000E+00;  0.0000000E+00;  0.0000000E+00;0;  1.2459151E-02;  4.0000000E+04;  0.0000000E+00;  0.0000000E+00;  4.0000000E+04;  0.0000000E+00;  4.0000000E+04;  1.1346198E-02;  0.0000000E+00;  1.1129535E-03;  8.6523517E+02;
 -2.9999999E-02;  9.9999998E-03; -2.5999999E-01;1564;  0.0000000E+00;  0.0000000E+00;  0.0000000E+00;  1.0038132E+03;  1.0000000E-01;  3.1592192E+03;0;  0.0000000E+00;  0.0000000E+00;  0.0000000E+00;0;  1.4107374E-02;  4.0000000E+04;  0.0000000E+00;  0.0000000E+00;  4.0000000E+04;  0.0000000E+00;  4.0000000E+04;  1.3215616E-02;  0.0000000E+00;  8.9175726E-04;  1.5403331E+03;
 -2.9999999E-02;  9.9999998E-03; -2.5000000E-01;1565;  0.0000000E+00;  0.0000000E+00;  0.0000000E+00;  1.0041316E+03;  1.0000000E-01;  3.4229155E+03;0;  0.0000000E+00;  0.0000000E+00;  0.0000000E+00;0;  1.5663225E-02;  4.0000000E+04;  0.0000000E+00;  0.0000000E+00;  4.0000000E+04;  0.0000000E+00;  4.0000000E+04;  1.5022713E-02;  0.0000000E+00;  6.4051291E-04;  2.1259519E+03;
 -2.9999999E-02;  9.9999998E-03; -2.3999999E-01;1566;  0.0000000E+00;  0.0000000E+00;  0.0000000E+00;  1.0044794E+03;  1.0000000E-01;  3.7111050E+03;0;  0.0000000E+00;  0.0000000E+00;  0.0000000E+00;0;  1.7101556E-02;  4.0000000E+04;  0.0000000E+00;  0.0000000E+00;  4.0000000E+04;  0.0000000E+00;  4.0000000E+04;  1.6716972E-02;  0.0000000E+00;  3.8458430E-04;  2.5569131E+03;
 -2.9999999E-02;  9.9999998E-03; -2.3000000E-01;1567;  0.0000000E+00;  0.0000000E+00;  0.0000000E+00;  1.0048468E+03;  1.0000000E-01;  4.0154915E+03;0;  0.0000000E+00;  0.0000000E+00;  0.0000000E+00;0;  1.8411480E-02;  4.0000000E+04;  0.0000000E+00;  0.0000000E+00;  4.0000000E+04;  0.0000000E+00;  4.0000000E+04;  1.8266683E-02;  0.0000000E+00;  1.4479626E-04;  2.8094758E+03;
 -2.9999999E-02;  9.9999998E-03; -2.2000000E-01;1568;  0.0000000E+00;  0.0000000E+00;  0.0000000E+00;  1.0052311E+03;  1.0000000E-01;  4.3339023E+03;0;  0.0000000E+00;  0.0000000E+00;  0.0000000E+00;0;  1.9594640E-02;  4.0000000E+04;  0.0000000E+00;  0.0000000E+00;  4.0000000E+04;  0.0000000E+00;  4.0000000E+04;  1.9659275E-02;  0.0000000E+00; -6.4635555E-05;  2.8901038E+03;
 -2.9999999E-02;  9.9999998E-03; -2.0999999E-01;1569;  0.0000000E+00;  0.0000000E+00;  0.0000000E+00;  1.0056308E+03;  1.0000000E-01;  4.6650532E+03;0;  0.0000000E+00;  0.0000000E+00;  0.0000000E+00;0;  2.0662315E-02;  4.0000000E+04;  0.0000000E+00;  0.0000000E+00;  4.0000000E+04;  0.0000000E+00;  4.0000000E+04;  2.0898698E-02;  0.0000000E+00; -2.3638220E-04;  2.8267434E+03;
 -2.9999999E-02;  9.9999998E-03; -2.0000000E-01;1570;  0.0000000E+00;  0.0000000E+00;  0.0000000E+00;  1.0060324E+03;  1.0000000E-01;  4.9977847E+03;0;  0.0000000E+00;  0.0000000E+00;  0.0000000E+00;0;  2.1632001E-02;  4.0000000E+04;  0.0000000E+00;  0.0000000E+00;  4.0000000E+04;  0.0000000E+00;  4.0000000E+04;  2.2001235E-02;  0.0000000E+00; -3.6923349E-04;  2.6597568E+03;
 -2.9999999E-02;  9.9999998E-03; -1.9000000E-01;1571;  0.0000000E+00;  0.0000000E+00;  0.0000000E+00;  1.0064230E+03;  1.0000000E-01;  5.3213311E+03;0;  0.0000000E+00;  0.0000000E+00;  0.0000000E+00;0;  2.2523170E-02;  4.0000000E+04;  0.0000000E+00;  0.0000000E+00;  4.0000000E+04;  0.0000000E+00;  4.0000000E+04;  2.2989908E-02;  0.0000000E+00; -4.6673763E-04;  2.4334705E+03;
 -2.9999999E-02;  9.9999998E-03; -1.8000001E-01;1572;  0.0000000E+00;  0.0000000E+00;  0.0000000E+00;  1.0067820E+03;  1.0000000E-01;  5.6187051E+03;0;  0.0000000E+00;  0.0000000E+00;  0.0000000E+00;0;  2.3353590E-02;  4.0000000E+04;  0.0000000E+00;  0.0000000E+00;  4.0000000E+04;  0.0000000E+00;  4.0000000E+04;  2.3889221E-02;  0.0000000E+00; -5.3563202E-04;  2.1896814E+03;
 -2.9999999E-02;  9.9999998E-03; -1.7000000E-01;1573;  0.0000000E+00;  0.0000000E+00;  0.0000000E+00;  1.0071085E+03;  1.0000000E-01;  5.8893149E+03;0;  0.0000000E+00;  0.0000000E+00;  0.0000000E+00;0;  2.4136271E-02;  4.0000000E+04;  0.0000000E+00;  0.0000000E+00;  4.0000000E+04;  0.0000000E+00;  4.0000000E+04;  2.4720533E-02;  0.0000000E+00; -5.8426091E-04;  1.9635410E+03;
 -2.9999999E-02;  9.9999998E-03; -1.6000000E-01;1574;  0.0000000E+00;  0.0000000E+00;  0.0000000E+00;  1.0073749E+03;  1.0000000E-01;  6.1099507E+03;0;  0.0000000E+00;  0.0000000E+00;  0.0000000E+00;0;  2.4877800E-02;  4.0000000E+04;  0.0000000E+00;  0.0000000E+00;  4.0000000E+04;  0.0000000E+00;  4.0000000E+04;  2.5498848E-02;  0.0000000E+00; -6.2104873E-04;  1.7807589E+03;
 -2.9999999E-02;  9.9999998E-03; -1.5000001E-01;1575;  0.0000000E+00;  0.0000000E+00;  0.0000000E+00;  1.0075895E+03;  1.0000000E-01;  6.2877236E+03;0;  0.0000000E+00;  0.0000000E+00;  0.0000000E+00;0;  2.5577838E-02;  4.0000000E+04;  0.0000000E+00;  0.0000000E+00;  4.0000000E+04;  0.0000000E+00;  4.0000000E+04;  2.6230972E-02;  0.0000000E+00; -6.5313524E-04;  1.6563549E+03;
 -2.9999999E-02;  9.9999998E-03; -1.4000000E-01;1576;  0.0000000E+00;  0.0000000E+00;  0.0000000E+00;  1.0077471E+03;  1.0000000E-01;  6.4182876E+03;0;  0.0000000E+00;  0.0000000E+00;  0.0000000E+00;0;  2.6230285E-02;  4.0000000E+04;  0.0000000E+00;  0.0000000E+00;  4.0000000E+04;  0.0000000E+00;  4.0000000E+04;  2.6915539E-02;  0.0000000E+00; -6.8525405E-04;  1.5944121E+03;
 -2.9999999E-02;  9.9999998E-03; -1.3000000E-01;1577;  0.0000000E+00;  0.0000000E+00;  0.0000000E+00;  1.0078442E+03;  1.0000000E-01;  6.4987793E+03;0;  0.0000000E+00;  0.0000000E+00;  0.0000000E+00;0;  2.6825344E-02;  4.0000000E+04;  0.0000000E+00;  0.0000000E+00;  4.0000000E+04;  0.0000000E+00;  4.0000000E+04;  2.7544333E-02;  0.0000000E+00; -7.1898923E-04;  1.5888705E+03;
 -2.9999999E-02;  9.9999998E-03; -1.2000000E-01;1578;  0.0000000E+00;  0.0000000E+00;  0.0000000E+00;  1.0078889E+03;  1.0000000E-01;  6.5358149E+03;0;  0.0000000E+00;  0.0000000E+00;  0.0000000E+00;0;  2.7352002E-02;  4.0000000E+04;  0.0000000E+00;  0.0000000E+00;  4.0000000E+04;  0.0000000E+00;  4.0000000E+04;  2.8104572E-02;  0.0000000E+00; -7.5257057E-04;  1.6274194E+03;
 -2.9999999E-02;  9.9999998E-03; -1.1000000E-01;1579;  0.0000000E+00;  0.0000000E+00;  0.0000000E+00;  1.0078852E+03;  1.0000000E-01;  6.5327534E+03;0;  0.0000000E+00;  0.0000000E+00;  0.0000000E+00;0;  2.7800787E-02;  4.0000000E+04;  0.0000000E+00;  0.0000000E+00;  4.0000000E+04;  0.0000000E+00;  4.0000000E+04;  2.8582599E-02;  0.0000000E+00; -7.8181113E-04;  1.6952561E+03;
 -2.0000000E-02;  9.9999998E-03; -2.7000001E-01;1654;  0.0000000E+00;  0.0000000E+00;  0.0000000E+00;  1.0048417E+03;  1.0000000E-01;  4.0112446E+03;0;  0.0000000E+00;  0.0000000E+00;  0.0000000E+00;0;  1.3467913E-02;  4.0000000E+04;  0.0000000E+00;  0.0000000E+00;  4.0000000E+04;  0.0000000E+00;  4.0000000E+04;  1.2107272E-02;  0.0000000E+00;  1.3606420E-03;  9.8900830E+02;
 -2.0000000E-02;  9.9999998E-03; -2.5999999E-01;1655;  0.0000000E+00;  0.0000000E+00;  0.0000000E+00;  1.0052950E+03;  1.0000000E-01;  4.3868389E+03;0;  0.0000000E+00;  0.0000000E+00;  0.0000000E+00;0;  1.5198587E-02;  4.0000000E+04;  0.0000000E+00;  0.0000000E+00;  4.0000000E+04;  0.0000000E+00;  4.0000000E+04;  1.4113558E-02;  0.0000000E+00;  1.0850288E-03;  1.7891136E+03;
 -2.0000000E-02;  9.9999998E-03; -2.5000000E-01;1656;  0.0000000E+00;  0.0000000E+00;  0.0000000E+00;  1.0057549E+03;  1.0000000E-01;  4.7677666E+03;0;  0.0000000E+00;  0.0000000E+00;  0.0000000E+00;0;  1.6820176E-02;  4.0000000E+04;  0.0000000E+00;  0.0000000E+00;  4.0000000E+04;  0.0000000E+00;  4.0000000E+04;  1.6045811E-02;  0.0000000E+00;  7.7436486E-04;  2.4613369E+03;
 -2.0000000E-02;  9.9999998E-03; -2.3999999E-01;1657;  0.0000000E+00;  0.0000000E+00;  0.0000000E+00;  1.0062326E+03;  1.0000000E-01;  5.1636069E+03;0;  0.0000000E+00;  0.0000000E+00;  0.0000000E+00;0;  1.8310929E-02;  4.0000000E+04;  0.0000000E+00;  0.0000000E+00;  4.0000000E+04;  0.0000000E+00;  4.0000000E+04;  1.7850135E-02;  0.0000000E+00;  4.6079370E-04;  2.9351260E+03;
 -2.0000000E-02;  9.9999998E-03; -2.3000000E-01;1658;  0.0000000E+00;  0.0000000E+00;  0.0000000E+00;  1.0067321E+03;  1.0000000E-01;  5.5774224E+03;0;  0.0000000E+00;  0.0000000E+00;  0.0000000E+00;0;  1.9663949E-02;  4.0000000E+04;  0.0000000E+00;  0.0000000E+00;  4.0000000E+04;  0.0000000E+00;  4.0000000E+04;  1.9494498E-02;  0.0000000E+00;  1.6944979E-04;  3.1894041E+03;
 -2.0000000E-02;  9.9999998E-03; -2.2000000E-01;1659;  0.0000000E+00;  0.0000000E+00;  0.0000000E+00;  1.0072451E+03;  1.0000000E-01;  6.0023979E+03;0;  0.0000000E+00;  0.0000000E+00;  0.0000000E+00;0;  2.0885110E-02;  4.0000000E+04;  0.0000000E+00;  0.0000000E+00;  4.0000000E+04;  0.0000000E+00;  4.0000000E+04;  2.0968426E-02;  0.0000000E+00; -8.3315404E-05;  3.2398472E+03;
 -2.0000000E-02;  9.9999998E-03; -2.0999999E-01;1660;  0.0000000E+00;  0.0000000E+00;  0.0000000E+00;  1.0077747E+03;  1.0000000E-01;  6.4412007E+03;0;  0.0000000E+00;  0.0000000E+00;  0.0000000E+00;0;  2.1989947E-02;  4.0000000E+04;  0.0000000E+00;  0.0000000E+00;  4.0000000E+04;  0.0000000E+00;  4.0000000E+04;  2.2279590E-02;  0.0000000E+00; -2.8964315E-04;  3.1266511E+03;
 -2.0000000E-02;  9.9999998E-03; -2.0000000E-01;1661;  0.0000000E+00;  0.0000000E+00;  0.0000000E+00;  1.0082890E+03;  1.0000000E-01;  6.8672627E+03;0;  0.0000000E+00;  0.0000000E+00;  0.0000000E+00;0;  2.2999698E-02;  4.0000000E+04;  0.0000000E+00;  0.0000000E+00;  4.0000000E+04;  0.0000000E+00;  4.0000000E+04;  2.3448521E-02;  0.0000000E+00; -4.4882306E-04;  2.9020786E+03;
 -2.0000000E-02;  9.9999998E-03; -1.9000000E-01;1662;  0.0000000E+00;  0.0000000E+00;  0.0000000E+00;  1.0087870E+03;  1.0000000E-01;  7.2798931E+03;0;  0.0000000E+00;  0.0000000E+00;  0.0000000E+00;0;  2.3936782E-02;  4.0000000E+04;  0.0000000E+00;  0.0000000E+00;  4.0000000E+04;  0.0000000E+00;  4.0000000E+04;  2.4502279E-02;  0.0000000E+00; -5.6549738E-04;  2.6196538E+03;
 -2.0000000E-02;  9.9999998E-03; -1.8000001E-01;1663;  0.0000000E+00;  0.0000000E+00;  0.0000000E+00;  1.0092391E+03;  1.0000000E-01;  7.6544009E+03;0;  0.0000000E+00;  0.0000000E+00;  0.0000000E+00;0;  2.4820685E-02;  4.0000000E+04;  0.0000000E+00;  0.0000000E+00;  4.0000000E+04;  0.0000000E+00;  4.0000000E+04;  2.5468478E-02;  0.0000000E+00; -6.4779166E-04;  2.3270251E+03;
 -2.0000000E-02;  9.9999998E-03; -1.7000000E-01;1664;  0.0000000E+00;  0.0000000E+00;  0.0000000E+00;  1.0096422E+03;  1.0000000E-01;  7.9883174E+03;0;  0.0000000E+00;  0.0000000E+00;  0.0000000E+00;0;  2.5664549E-02;  4.0000000E+04;  0.0000000E+00;  0.0000000E+00;  4.0000000E+04;  0.0000000E+00;  4.0000000E+04;  2.6370056E-02;  0.0000000E+00; -7.0550648E-04;  2.0618066E+03;
 -2.0000000E-02;  9.9999998E-03; -1.6000000E-01;1665;  0.0000000E+00;  0.0000000E+00;  0.0000000E+00;  1.0099843E+03;  1.0000000E-01;  8.2717656E+03;0;  0.0000000E+00;  0.0000000E+00;  0.0000000E+00;0;  2.6473483E-02;  4.0000000E+04;  0.0000000E+00;  0.0000000E+00;  4.0000000E+04;  0.0000000E+00;  4.0000000E+04;  2.7222011E-02;  0.0000000E+00; -7.4852811E-04;  1.8498395E+03;
 -2.0000000E-02;  9.9999998E-03; -1.5000001E-01;1666;  0.0000000E+00;  0.0000000E+00;  0.0000000E+00;  1.0102515E+03;  1.0000000E-01;  8.4931914E+03;0;  0.0000000E+00;  0.0000000E+00;  0.0000000E+00;0;  2.7244363E-02;  4.0000000E+04;  0.0000000E+00;  0.0000000E+00;  4.0000000E+04;  0.0000000E+00;  4.0000000E+04;  2.8029736E-02;  0.0000000E+00; -7.8537321E-04;  1.7051342E+03;
 -2.0000000E-02;  9.9999998E-03; -1.4000000E-01;1667;  0.0000000E+00;  0.0000000E+00;  0.0000000E+00;  1.0104388E+03;  1.0000000E-01;  8.6483477E+03;0;  0.0000000E+00;  0.0000000E+00;  0.0000000E+00;0;  2.7967446E-02;  4.0000000E+04;  0.0000000E+00;  0.0000000E+00;  4.0000000E+04;  0.0000000E+00;  4.0000000E+04;  2.8789395E-02;  0.0000000E+00; -8.2195073E-04;  1.6303794E+03;
 -2.0000000E-02;  9.9999998E-03; -1.3000000E-01;1668;  0.0000000E+00;  0.0000000E+00;  0.0000000E+00;  1.0105505E+03;  1.0000000E-01;  8.7408887E+03;0;  0.0000000E+00;  0.0000000E+00;  0.0000000E+00;0;  2.8628949E-02;  4.0000000E+04;  0.0000000E+00;  0.0000000E+00;  4.0000000E+04;  0.0000000E+00;  4.0000000E+04;  2.9489657E-02;  0.0000000E+00; -8.6070714E-04;  1.6181100E+03;
 -2.0000000E-02;  9.9999998E-03; -1.2000000E-01;1669;  0.0000000E+00;  0.0000000E+00;  0.0000000E+00;  1.0105970E+03;  1.0000000E-01;  8.7794062E+03;0;  0.0000000E+00;  0.0000000E+00;  0.0000000E+00;0;  2.9214509E-02;  4.0000000E+04;  0.0000000E+00;  0.0000000E+00;  4.0000000E+04;  0.0000000E+00;  4.0000000E+04;  3.0114776E-02;  0.0000000E+00; -9.0026727E-04;  1.6543800E+03;
 -2.0000000E-02;  9.9999998E-03; -1.1000000E-01;1670;  0.0000000E+00;  0.0000000E+00;  0.0000000E+00;  1.0105916E+03;  1.0000000E-01;  8.7749619E+03;0;  0.0000000E+00;  0.0000000E+00;  0.0000000E+00;0;  2.9712280E-02;  4.0000000E+04;  0.0000000E+00;  0.0000000E+00;  4.0000000E+04;  0.0000000E+00;  4.0000000E+04;  3.0648360E-02;  0.0000000E+00; -9.3608006E-04;  1.7231335E+03;
 -9.9999998E-03;  9.9999998E-03; -2.7000001E-01;1745;  0.0000000E+00;  0.0000000E+00;  0.0000000E+00;  1.0063666E+03;  1.0000000E-01;  5.2746162E+03;0;  0.0000000E+00;  0.0000000E+00;  0.0000000E+00;0;  1.3947593E-02;  4.0000000E+04;  0.0000000E+00;  0.0000000E+00;  4.0000000E+04;  0.0000000E+00;  4.0000000E+04;  1.2348060E-02;  0.0000000E+00;  1.5995330E-03;  1.1172756E+03;
 -9.9999998E-03;  9.9999998E-03; -2.5999999E-01;1746;  0.0000000E+00;  0.0000000E+00;  0.0000000E+00;  1.0069722E+03;  1.0000000E-01;  5.7763306E+03;0;  0.0000000E+00;  0.0000000E+00;  0.0000000E+00;0;  1.5664758E-02;  4.0000000E+04;  0.0000000E+00;  0.0000000E+00;  4.0000000E+04;  0.0000000E+00;  4.0000000E+04;  1.4398259E-02;  0.0000000E+00;  1.2664995E-03;  2.0270568E+03;
 -9.9999998E-03;  9.9999998E-03; -2.5000000E-01;1747;  0.0000000E+00;  0.0000000E+00;  0.0000000E+00;  1.0075850E+03;  1.0000000E-01;  6.2840693E+03;0;  0.0000000E+00;  0.0000000E+00;  0.0000000E+00;0;  1.7261205E-02;  4.0000000E+04;  0.0000000E+00;  0.0000000E+00;  4.0000000E+04;  0.0000000E+00;  4.0000000E+04;  1.6365914E-02;  0.0000000E+00;  8.9529215E-04;  2.7633499E+03;
 -9.9999998E-03;  9.9999998E-03; -2.3999999E-01;1748;  0.0000000E+00;  0.0000000E+00;  0.0000000E+00;  1.0082130E+03;  1.0000000E-01;  6.8042520E+03;0;  0.0000000E+00;  0.0000000E+00;  0.0000000E+00;0;  1.8721052E-02;  4.0000000E+04;  0.0000000E+00;  0.0000000E+00;  4.0000000E+04;  0.0000000E+00;  4.0000000E+04;  1.8196194E-02;  0.0000000E+00;  5.2485842E-04;  3.2537676E+03;
 -9.9999998E-03;  9.9999998E-03; -2.3000000E-01;1749;  0.0000000E+00;  0.0000000E+00;  0.0000000E+00;  1.0088573E+03;  1.0000000E-01;  7.3380640E+03;0;  0.0000000E+00;  0.0000000E+00;  0.0000000E+00;0;  2.0042211E-02;  4.0000000E+04;  0.0000000E+00;  0.0000000E+00;  4.0000000E+04;  0.0000000E+00;  4.0000000E+04;  1.9858036E-02;  0.0000000E+00;  1.8417473E-04;  3.4839565E+03;
 -9.9999998E-03;  9.9999998E-03; -2.2000000E-01;1750;  0.0000000E+00;  0.0000000E+00;  0.0000000E+00;  1.0095099E+03;  1.0000000E-01;  7.8787896E+03;0;  0.0000000E+00;  0.0000000E+00;  0.0000000E+00;0;  2.1234728E-02;  4.0000000E+04;  0.0000000E+00;  0.0000000E+00;  4.0000000E+04;  0.0000000E+00;  4.0000000E+04;  2.1343550E-02;  0.0000000E+00; -1.0882062E-04;  3.4822966E+03;
 -9.9999998E-03;  9.9999998E-03; -2.0999999E-01;1751;  0.0000000E+00;  0.0000000E+00;  0.0000000E+00;  1.0101676E+03;  1.0000000E-01;  8.4236631E+03;0;  0.0000000E+00;  0.0000000E+00;  0.0000000E+00;0;  2.2317810E-02;  4.0000000E+04;  0.0000000E+00;  0.0000000E+00;  4.0000000E+04;  0.0000000E+00;  4.0000000E+04;  2.2664037E-02;  0.0000000E+00; -3.4622586E-04;  3.3035269E+03;
 -9.9999998E-03;  9.9999998E-03; -2.0000000E-01;1752;  0.0000000E+00;  0.0000000E+00;  0.0000000E+00;  1.0108074E+03;  1.0000000E-01;  8.9537217E+03;0;  0.0000000E+00;  0.0000000E+00;  0.0000000E+00;0;  2.3315620E-02;  4.0000000E+04;  0.0000000E+00;  0.0000000E+00;  4.0000000E+04;  0.0000000E+00;  4.0000000E+04;  2.3843827E-02;  0.0000000E+00; -5.2820717E-04;  3.0124399E+03;
 -9.9999998E-03;  9.9999998E-03; -1.9000000E-01;1753;  0.0000000E+00;  0.0000000E+00;  0.0000000E+00;  1.0114153E+03;  1.0000000E-01;  9.4573125E+03;0;  0.0000000E+00;  0.0000000E+00;  0.0000000E+00;0;  2.4252646E-02;  4.0000000E+04;  0.0000000E+00;  0.0000000E+00;  4.0000000E+04;  0.0000000E+00;  4.0000000E+04;  2.4913359E-02;  0.0000000E+00; -6.6071440E-04;  2.6713406E+03;
 -9.9999998E-03;  9.9999998E-03; -1.8000001E-01;1754;  0.0000000E+00;  0.0000000E+00;  0.0000000E+00;  1.0119730E+03;  1.0000000E-01;  9.9193242E+03;0;  0.0000000E+00;  0.0000000E+00;  0.0000000E+00;0;  2.5149083E-02;  4.0000000E+04;  0.0000000E+00;  0.0000000E+00;  4.0000000E+04;  0.0000000E+00;  4.0000000E+04;  2.5902394E-02;  0.0000000E+00; -7.5331063E-04;  2.3321799E+03;
 -9.9999998E-03;  9.9999998E-03; -1.7000000E-01;1755;  0.0000000E+00;  0.0000000E+00;  0.0000000E+00;  1.0124567E+03;  1.0000000E-01;  1.0320202E+04;0;  0.0000000E+00;  0.0000000E+00;  0.0000000E+00;0;  2.6017446E-02;  4.0000000E+04;  0.0000000E+00;  0.0000000E+00;  4.0000000E+04;  0.0000000E+00;  4.0000000E+04;  2.6834724E-02;  0.0000000E+00; -8.1727904E-04;  2.0331298E+03;
 -9.9999998E-03;  9.9999998E-03; -1.6000000E-01;1756;  0.0000000E+00;  0.0000000E+00;  0.0000000E+00;  1.0128627E+03;  1.0000000E-01;  1.0656488E+04;0;  0.0000000E+00;  0.0000000E+00;  0.0000000E+00;0;  2.6860671E-02;  4.0000000E+04;  0.0000000E+00;  0.0000000E+00;  4.0000000E+04;  0.0000000E+00;  4.0000000E+04;  2.7724601E-02;  0.0000000E+00; -8.6393068E-04;  1.7983120E+03;
 -9.9999998E-03;  9.9999998E-03; -1.5000001E-01;1757;  0.0000000E+00;  0.0000000E+00;  0.0000000E+00;  1.0131703E+03;  1.0000000E-01;  1.0911396E+04;0;  0.0000000E+00;  0.0000000E+00;  0.0000000E+00;0;  2.7672280E-02;  4.0000000E+04;  0.0000000E+00;  0.0000000E+00;  4.0000000E+04;  0.0000000E+00;  4.0000000E+04;  2.8575461E-02;  0.0000000E+00; -9.0318243E-04;  1.6389009E+03;
 -9.9999998E-03;  9.9999998E-03; -1.4000000E-01;1758;  0.0000000E+00;  0.0000000E+00;  0.0000000E+00;  1.0133769E+03;  1.0000000E-01;  1.1082551E+04;0;  0.0000000E+00;  0.0000000E+00;  0.0000000E+00;0;  2.8438484E-02;  4.0000000E+04;  0.0000000E+00;  0.0000000E+00;  4.0000000E+04;  0.0000000E+00;  4.0000000E+04;  2.9380722E-02;  0.0000000E+00; -9.4223744E-04;  1.5548070E+03;
 -9.9999998E-03;  9.9999998E-03; -1.3000000E-01;1759;  0.0000000E+00;  0.0000000E+00;  0.0000000E+00;  1.0135031E+03;  1.0000000E-01;  1.1187042E+04;0;  0.0000000E+00;  0.0000000E+00;  0.0000000E+00;0;  2.9141374E-02;  4.0000000E+04;  0.0000000E+00;  0.0000000E+00;  4.0000000E+04;  0.0000000E+00;  4.0000000E+04;  3.0125914E-02;  0.0000000E+00; -9.8453998E-04;  1.5363687E+03;
 -9.9999998E-03;  9.9999998E-03; -1.2000000E-01;1760;  0.0000000E+00;  0.0000000E+00;  0.0000000E+00;  1.0135473E+03;  1.0000000E-01;  1.1223683E+04;0;  0.0000000E+00;  0.0000000E+00;  0.0000000E+00;0;  2.9763106E-02;  4.0000000E+04;  0.0000000E+00;  0.0000000E+00;  4.0000000E+04;  0.0000000E+00;  4.0000000E+04;  3.0792393E-02;  0.0000000E+00; -1.0292864E-03;  1.5679847E+03;
 -9.9999998E-03;  9.9999998E-03; -1.1000000E-01;1761;  0.0000000E+00;  0.0000000E+00;  0.0000000E+00;  1.0135248E+03;  1.0000000E-01;  1.1205115E+04;0;  0.0000000E+00;  0.0000000E+00;  0.0000000E+00;0;  3.0289549E-02;  4.0000000E+04;  0.0000000E+00;  0.0000000E+00;  4.0000000E+04;  0.0000000E+00;  4.0000000E+04;  3.1361297E-02;  0.0000000E+00; -1.0717465E-03;  1.6328457E+03;
 -1.9000000E-01;  9.9999998E-03; -1.0000000E-01;124;  0.0000000E+00;  0.0000000E+00;  0.0000000E+00;  1.0000000E+03;  1.0000000E-01;  0.0000000E+00;0;  0.0000000E+00;  0.0000000E+00;  0.0000000E+00;0;  0.0000000E+00;  4.0000000E+04;  0.0000000E+00;  0.0000000E+00;  4.0000000E+04;  0.0000000E+00;  4.0000000E+04;  0.0000000E+00;  0.0000000E+00;  0.0000000E+00;  0.0000000E+00;
 -1.9000000E-01;  9.9999998E-03; -9.0000004E-02;125;  0.0000000E+00;  0.0000000E+00;  0.0000000E+00;  1.0000000E+03;  1.0000000E-01;  0.0000000E+00;0;  0.0000000E+00;  0.0000000E+00;  0.0000000E+00;0;  0.0000000E+00;  4.0000000E+04;  0.0000000E+00;  0.0000000E+00;  4.0000000E+04;  0.0000000E+00;  4.0000000E+04;  0.0000000E+00;  0.0000000E+00;  0.0000000E+00;  0.0000000E+00;
 -1.9000000E-01;  9.9999998E-03; -7.9999998E-02;126;  0.0000000E+00;  0.0000000E+00;  0.0000000E+00;  1.0000000E+03;  1.0000000E-01;  0.0000000E+00;0;  0.0000000E+00;  0.0000000E+00;  0.0000000E+00;0;  0.0000000E+00;  4.0000000E+04;  0.0000000E+00;  0.0000000E+00;  4.0000000E+04;  0.0000000E+00;  4.0000000E+04;  0.0000000E+00;  0.0000000E+00;  0.0000000E+00;  0.0000000E+00;
 -1.9000000E-01;  9.9999998E-03; -7.0000000E-02;127;  0.0000000E+00;  0.0000000E+00;  0.0000000E+00;  1.0000000E+03;  1.0000000E-01;  0.0000000E+00;0;  0.0000000E+00;  0.0000000E+00;  0.0000000E+00;0;  0.0000000E+00;  4.0000000E+04;  0.0000000E+00;  0.0000000E+00;  4.0000000E+04;  0.0000000E+00;  4.0000000E+04;  0.0000000E+00;  0.0000000E+00;  0.0000000E+00;  0.0000000E+00;
 -1.9000000E-01;  9.9999998E-03; -5.9999999E-02;128;  0.0000000E+00;  0.0000000E+00;  0.0000000E+00;  1.0000000E+03;  1.0000000E-01;  0.0000000E+00;0;  0.0000000E+00;  0.0000000E+00;  0.0000000E+00;0;  0.0000000E+00;  4.0000000E+04;  0.0000000E+00;  0.0000000E+00;  4.0000000E+04;  0.0000000E+00;  4.0000000E+04;  0.0000000E+00;  0.0000000E+00;  0.0000000E+00;  0.0000000E+00;
 -1.9000000E-01;  9.9999998E-03; -5.0000001E-02;129;  0.0000000E+00;  0.0000000E+00;  0.0000000E+00;  1.0000000E+03;  1.0000000E-01;  0.0000000E+00;0;  0.0000000E+00;  0.0000000E+00;  0.0000000E+00;0;  0.0000000E+00;  4.0000000E+04;  0.0000000E+00;  0.0000000E+00;  4.0000000E+04;  0.0000000E+00;  4.0000000E+04;  0.0000000E+00;  0.0000000E+00;  0.0000000E+00;  0.0000000E+00;
 -1.9000000E-01;  9.9999998E-03; -3.9999999E-02;130;  0.0000000E+00;  0.0000000E+00;  0.0000000E+00;  1.0000000E+03;  1.0000000E-01;  0.0000000E+00;0;  0.0000000E+00;  0.0000000E+00;  0.0000000E+00;0;  0.0000000E+00;  4.0000000E+04;  0.0000000E+00;  0.0000000E+00;  4.0000000E+04;  0.0000000E+00;  4.0000000E+04;  0.0000000E+00;  0.0000000E+00;  0.0000000E+00;  0.0000000E+00;
 -1.9000000E-01;  9.9999998E-03; -2.9999999E-02;131;  0.0000000E+00;  0.0000000E+00;  0.0000000E+00;  1.0000000E+03;  1.0000000E-01;  0.0000000E+00;0;  0.0000000E+00;  0.0000000E+00;  0.0000000E+00;0;  0.0000000E+00;  4.0000000E+04;  0.0000000E+00;  0.0000000E+00;  4.0000000E+04;  0.0000000E+00;  4.0000000E+04;  0.0000000E+00;  0.0000000E+00;  0.0000000E+00;  0.0000000E+00;
 -1.9000000E-01;  9.9999998E-03; -2.0000000E-02;132;  0.0000000E+00;  0.0000000E+00;  0.0000000E+00;  1.0000000E+03;  1.0000000E-01;  0.0000000E+00;0;  0.0000000E+00;  0.0000000E+00;  0.0000000E+00;0;  0.0000000E+00;  4.0000000E+04;  0.0000000E+00;  0.0000000E+00;  4.0000000E+04;  0.0000000E+00;  4.0000000E+04;  0.0000000E+00;  0.0000000E+00;  0.0000000E+00;  0.0000000E+00;
 -1.9000000E-01;  9.9999998E-03; -9.9999998E-03;133;  0.0000000E+00;  0.0000000E+00;  0.0000000E+00;  1.0000000E+03;  1.0000000E-01;  0.0000000E+00;0;  0.0000000E+00;  0.0000000E+00;  0.0000000E+00;0;  0.0000000E+00;  4.0000000E+04;  0.0000000E+00;  0.0000000E+00;  4.0000000E+04;  0.0000000E+00;  4.0000000E+04;  0.0000000E+00;  0.0000000E+00;  0.0000000E+00;  0.0000000E+00;
 -1.9000000E-01;  9.9999998E-03;  0.0000000E+00;134;  0.0000000E+00;  0.0000000E+00;  0.0000000E+00;  1.0000000E+03;  1.0000000E-01;  0.0000000E+00;0;  0.0000000E+00;  0.0000000E+00;  0.0000000E+00;0;  0.0000000E+00;  4.0000000E+04;  0.0000000E+00;  0.0000000E+00;  4.0000000E+04;  0.0000000E+00;  4.0000000E+04;  0.0000000E+00;  0.0000000E+00;  0.0000000E+00;  0.0000000E+00;
 -1.9000000E-01;  9.9999998E-03;  9.9999998E-03;135;  0.0000000E+00;  0.0000000E+00;  0.0000000E+00;  1.0000000E+03;  1.0000000E-01;  0.0000000E+00;0;  0.0000000E+00;  0.0000000E+00;  0.0000000E+00;0;  0.0000000E+00;  4.0000000E+04;  0.0000000E+00;  0.0000000E+00;  4.0000000E+04;  0.0000000E+00;  4.0000000E+04;  0.0000000E+00;  0.0000000E+00;  0.0000000E+00;  0.0000000E+00;
 -1.9000000E-01;  9.9999998E-03;  2.0000000E-02;136;  0.0000000E+00;  0.0000000E+00;  0.0000000E+00;  1.0000000E+03;  1.0000000E-01;  0.0000000E+00;0;  0.0000000E+00;  0.0000000E+00;  0.0000000E+00;0;  0.0000000E+00;  4.0000000E+04;  0.0000000E+00;  0.0000000E+00;  4.0000000E+04;  0.0000000E+00;  4.0000000E+04;  0.0000000E+00;  0.0000000E+00;  0.0000000E+00;  0.0000000E+00;
 -1.9000000E-01;  9.9999998E-03;  2.9999999E-02;137;  0.0000000E+00;  0.0000000E+00;  0.0000000E+00;  1.0000000E+03;  1.0000000E-01;  0.0000000E+00;0;  0.0000000E+00;  0.0000000E+00;  0.0000000E+00;0;  0.0000000E+00;  4.0000000E+04;  0.0000000E+00;  0.0000000E+00;  4.0000000E+04;  0.0000000E+00;  4.0000000E+04;  0.0000000E+00;  0.0000000E+00;  0.0000000E+00;  0.0000000E+00;
 -1.9000000E-01;  9.9999998E-03;  3.9999999E-02;138;  0.0000000E+00;  0.0000000E+00;  0.0000000E+00;  1.0000000E+03;  1.0000000E-01;  0.0000000E+00;0;  0.0000000E+00;  0.0000000E+00;  0.0000000E+00;0;  0.0000000E+00;  4.0000000E+04;  0.0000000E+00;  0.0000000E+00;  4.0000000E+04;  0.0000000E+00;  4.0000000E+04;  0.0000000E+00;  0.0000000E+00;  0.0000000E+00;  0.0000000E+00;
 -1.9000000E-01;  9.9999998E-03;  5.0000001E-02;139;  0.0000000E+00;  0.0000000E+00;  0.0000000E+00;  1.0000000E+03;  1.0000000E-01;  0.0000000E+00;0;  0.0000000E+00;  0.0000000E+00;  0.0000000E+00;0;  0.0000000E+00;  4.0000000E+04;  0.0000000E+00;  0.0000000E+00;  4.0000000E+04;  0.0000000E+00;  4.0000000E+04;  0.0000000E+00;  0.0000000E+00;  0.0000000E+00;  0.0000000E+00;
 -1.9000000E-01;  9.9999998E-03;  5.9999999E-02;140;  0.0000000E+00;  0.0000000E+00;  0.0000000E+00;  1.0000000E+03;  1.0000000E-01;  0.0000000E+00;0;  0.0000000E+00;  0.0000000E+00;  0.0000000E+00;0;  0.0000000E+00;  4.0000000E+04;  0.0000000E+00;  0.0000000E+00;  4.0000000E+04;  0.0000000E+00;  4.0000000E+04;  0.0000000E+00;  0.0000000E+00;  0.0000000E+00;  0.0000000E+00;
 -1.8000001E-01;  9.9999998E-03; -1.0000000E-01;215;  0.0000000E+00;  0.0000000E+00;  0.0000000E+00;  1.0000000E+03;  1.0000000E-01;  0.0000000E+00;0;  0.0000000E+00;  0.0000000E+00;  0.0000000E+00;0;  0.0000000E+00;  4.0000000E+04;  0.0000000E+00;  0.0000000E+00;  4.0000000E+04;  0.0000000E+00;  4.0000000E+04;  0.0000000E+00;  0.0000000E+00;  0.0000000E+00;  0.0000000E+00;
 -1.8000001E-01;  9.9999998E-03; -9.0000004E-02;216;  0.0000000E+00;  0.0000000E+00;  0.0000000E+00;  1.0000000E+03;  1.0000000E-01;  0.0000000E+00;0;  0.0000000E+00;  0.0000000E+00;  0.0000000E+00;0;  0.0000000E+00;  4.0000000E+04;  0.0000000E+00;  0.0000000E+00;  4.0000000E+04;  0.0000000E+00;  4.0000000E+04;  0.0000000E+00;  0.0000000E+00;  0.0000000E+00;  0.0000000E+00;
 -1.8000001E-01;  9.9999998E-03; -7.9999998E-02;217;  0.0000000E+00;  0.0000000E+00;  0.0000000E+00;  1.0000000E+03;  1.0000000E-01;  0.0000000E+00;0;  0.0000000E+00;  0.0000000E+00;  0.0000000E+00;0;  0.0000000E+00;  4.0000000E+04;  0.0000000E+00;  0.0000000E+00;  4.0000000E+04;  0.0000000E+00;  4.0000000E+04;  0.0000000E+00;  0.0000000E+00;  0.0000000E+00;  0.0000000E+00;
 -1.8000001E-01;  9.9999998E-03; -7.0000000E-02;218;  0.0000000E+00;  0.0000000E+00;  0.0000000E+00;  1.0000000E+03;  1.0000000E-01;  0.0000000E+00;0;  0.0000000E+00;  0.0000000E+00;  0.0000000E+00;0;  0.0000000E+00;  4.0000000E+04;  0.0000000E+00;  0.0000000E+00;  4.0000000E+04;  0.0000000E+00;  4.0000000E+04;  0.0000000E+00;  0.0000000E+00;  0.0000000E+00;  0.0000000E+00;
 -1.8000001E-01;  9.9999998E-03; -5.9999999E-02;219;  0.0000000E+00;  0.0000000E+00;  0.0000000E+00;  1.0000000E+03;  1.0000000E-01;  0.0000000E+00;0;  0.0000000E+00;  0.0000000E+00;  0.0000000E+00;0;  0.0000000E+00;  4.0000000E+04;  0.0000000E+00;  0.0000000E+00;  4.0000000E+04;  0.0000000E+00;  4.0000000E+04;  0.0000000E+00;  0.0000000E+00;  0.0000000E+00;  0.0000000E+00;
 -1.8000001E-01;  9.9999998E-03; -5.0000001E-02;220;  0.0000000E+00;  0.0000000E+00;  0.0000000E+00;  1.0000000E+03;  1.0000000E-01;  0.0000000E+00;0;  0.0000000E+00;  0.0000000E+00;  0.0000000E+00;0;  0.0000000E+00;  4.0000000E+04;  0.0000000E+00;  0.0000000E+00;  4.0000000E+04;  0.0000000E+00;  4.0000000E+04;  0.0000000E+00;  0.0000000E+00;  0.0000000E+00;  0.0000000E+00;
 -1.8000001E-01;  9.9999998E-03; -3.9999999E-02;221;  0.0000000E+00;  0.0000000E+00;  0.0000000E+00;  1.0000000E+03;  1.0000000E-01;  0.0000000E+00;0;  0.0000000E+00;  0.0000000E+00;  0.0000000E+00;0;  0.0000000E+00;  4.0000000E+04;  0.0000000E+00;  0.0000000E+00;  4.0000000E+04;  0.0000000E+00;  4.0000000E+04;  0.0000000E+00;  0.0000000E+00;  0.0000000E+00;  0.0000000E+00;
 -1.8000001E-01;  9.9999998E-03; -2.9999999E-02;222;  0.0000000E+00;  0.0000000E+00;  0.0000000E+00;  1.0000000E+03;  1.0000000E-01;  0.0000000E+00;0;  0.0000000E+00;  0.0000000E+00;  0.0000000E+00;0;  0.0000000E+00;  4.0000000E+04;  0.0000000E+00;  0.0000000E+00;  4.0000000E+04;  0.0000000E+00;  4.0000000E+04;  0.0000000E+00;  0.0000000E+00;  0.0000000E+00;  0.0000000E+00;
 -1.8000001E-01;  9.9999998E-03; -2.0000000E-02;223;  0.0000000E+00;  0.0000000E+00;  0.0000000E+00;  1.0000000E+03;  1.0000000E-01;  0.0000000E+00;0;  0.0000000E+00;  0.0000000E+00;  0.0000000E+00;0;  0.0000000E+00;  4.0000000E+04;  0.0000000E+00;  0.0000000E+00;  4.0000000E+04;  0.0000000E+00;  4.0000000E+04;  0.0000000E+00;  0.0000000E+00;  0.0000000E+00;  0.0000000E+00;
 -1.8000001E-01;  9.9999998E-03; -9.9999998E-03;224;  0.0000000E+00;  0.0000000E+00;  0.0000000E+00;  1.0000000E+03;  1.0000000E-01;  0.0000000E+00;0;  0.0000000E+00;  0.0000000E+00;  0.0000000E+00;0;  0.0000000E+00;  4.0000000E+04;  0.0000000E+00;  0.0000000E+00;  4.0000000E+04;  0.0000000E+00;  4.0000000E+04;  0.0000000E+00;  0.0000000E+00;  0.0000000E+00;  0.0000000E+00;
 -1.8000001E-01;  9.9999998E-03;  0.0000000E+00;225;  0.0000000E+00;  0.0000000E+00;  0.0000000E+00;  1.0000000E+03;  1.0000000E-01;  0.0000000E+00;0;  0.0000000E+00;  0.0000000E+00;  0.0000000E+00;0;  0.0000000E+00;  4.0000000E+04;  0.0000000E+00;  0.0000000E+00;  4.0000000E+04;  0.0000000E+00;  4.0000000E+04;  0.0000000E+00;  0.0000000E+00;  0.0000000E+00;  0.0000000E+00;
 -1.8000001E-01;  9.9999998E-03;  9.9999998E-03;226;  0.0000000E+00;  0.0000000E+00;  0.0000000E+00;  1.0000000E+03;  1.0000000E-01;  0.0000000E+00;0;  0.0000000E+00;  0.0000000E+00;  0.0000000E+00;0;  0.0000000E+00;  4.0000000E+04;  0.0000000E+00;  0.0000000E+00;  4.0000000E+04;  0.0000000E+00;  4.0000000E+04;  0.0000000E+00;  0.0000000E+00;  0.0000000E+00;  0.0000000E+00;
 -1.8000001E-01;  9.9999998E-03;  2.0000000E-02;227;  0.0000000E+00;  0.0000000E+00;  0.0000000E+00;  1.0000000E+03;  1.0000000E-01;  0.0000000E+00;0;  0.0000000E+00;  0.0000000E+00;  0.0000000E+00;0;  0.0000000E+00;  4.0000000E+04;  0.0000000E+00;  0.0000000E+00;  4.0000000E+04;  0.0000000E+00;  4.0000000E+04;  0.0000000E+00;  0.0000000E+00;  0.0000000E+00;  0.0000000E+00;
 -1.8000001E-01;  9.9999998E-03;  2.9999999E-02;228;  0.0000000E+00;  0.0000000E+00;  0.0000000E+00;  1.0000000E+03;  1.0000000E-01;  0.0000000E+00;0;  0.0000000E+00;  0.0000000E+00;  0.0000000E+00;0;  0.0000000E+00;  4.0000000E+04;  0.0000000E+00;  0.0000000E+00;  4.0000000E+04;  0.0000000E+00;  4.0000000E+04;  0.0000000E+00;  0.0000000E+00;  0.0000000E+00;  0.0000000E+00;
 -1.8000001E-01;  9.9999998E-03;  3.9999999E-02;229;  0.0000000E+00;  0.0000000E+00;  0.0000000E+00;  1.0000000E+03;  1.0000000E-01;  0.0000000E+00;0;  0.0000000E+00;  0.0000000E+00;  0.0000000E+00;0;  0.0000000E+00;  4.0000000E+04;  0.0000000E+00;  0.0000000E+00;  4.0000000E+04;  0.0000000E+00;  4.0000000E+04;  0.0000000E+00;  0.0000000E+00;  0.0000000E+00;  0.0000000E+00;
 -1.8000001E-01;  9.9999998E-03;  5.0000001E-02;230;  0.0000000E+00;  0.0000000E+00;  0.0000000E+00;  1.0000000E+03;  1.0000000E-01;  0.0000000E+00;0;  0.0000000E+00;  0.0000000E+00;  0.0000000E+00;0;  0.0000000E+00;  4.0000000E+04;  0.0000000E+00;  0.0000000E+00;  4.0000000E+04;  0.0000000E+00;  4.0000000E+04;  0.0000000E+00;  0.0000000E+00;  0.0000000E+00;  0.0000000E+00;
 -1.8000001E-01;  9.9999998E-03;  5.9999999E-02;231;  0.0000000E+00;  0.0000000E+00;  0.0000000E+00;  1.0000000E+03;  1.0000000E-01;  0.0000000E+00;0;  0.0000000E+00;  0.0000000E+00;  0.0000000E+00;0;  0.0000000E+00;  4.0000000E+04;  0.0000000E+00;  0.0000000E+00;  4.0000000E+04;  0.0000000E+00;  4.0000000E+04;  0.0000000E+00;  0.0000000E+00;  0.0000000E+00;  0.0000000E+00;
 -1.7000000E-01;  9.9999998E-03; -1.0000000E-01;306;  0.0000000E+00;  0.0000000E+00;  0.0000000E+00;  1.0000000E+03;  1.0000000E-01;  0.0000000E+00;0;  0.0000000E+00;  0.0000000E+00;  0.0000000E+00;0;  0.0000000E+00;  4.0000000E+04;  0.0000000E+00;  0.0000000E+00;  4.0000000E+04;  0.0000000E+00;  4.0000000E+04;  0.0000000E+00;  0.0000000E+00;  0.0000000E+00;  1.9801023E-09;
 -1.7000000E-01;  9.9999998E-03; -9.0000004E-02;307;  0.0000000E+00;  0.0000000E+00;  0.0000000E+00;  1.0000000E+03;  1.0000000E-01;  0.0000000E+00;0;  0.0000000E+00;  0.0000000E+00;  0.0000000E+00;0;  0.0000000E+00;  4.0000000E+04;  0.0000000E+00;  0.0000000E+00;  4.0000000E+04;  0.0000000E+00;  4.0000000E+04;  0.0000000E+00;  0.0000000E+00;  0.0000000E+00;  1.9974504E-09;
 -1.7000000E-01;  9.9999998E-03; -7.9999998E-02;308;  0.0000000E+00;  0.0000000E+00;  0.0000000E+00;  1.0000000E+03;  1.0000000E-01;  0.0000000E+00;0;  0.0000000E+00;  0.0000000E+00;  0.0000000E+00;0;  0.0000000E+00;  4.0000000E+04;  0.0000000E+00;  0.0000000E+00;  4.0000000E+04;  0.0000000E+00;  4.0000000E+04;  0.0000000E+00;  0.0000000E+00;  0.0000000E+00;  2.0288866E-09;
 -1.7000000E-01;  9.9999998E-03; -7.0000000E-02;309;  0.0000000E+00;  0.0000000E+00;  0.0000000E+00;  1.0000000E+03;  1.0000000E-01;  0.0000000E+00;0;  0.0000000E+00;  0.0000000E+00;  0.0000000E+00;0;  0.0000000E+00;  4.0000000E+04;  0.0000000E+00;  0.0000000E+00;  4.0000000E+04;  0.0000000E+00;  4.0000000E+04;  0.0000000E+00;  0.0000000E+00;  0.0000000E+00;  2.0664868E-09;
 -1.7000000E-01;  9.9999998E-03; -5.9999999E-02;310;  0.0000000E+00;  0.0000000E+00;  0.0000000E+00;  1.0000000E+03;  1.0000000E-01;  0.0000000E+00;0;  0.0000000E+00;  0.0000000E+00;  0.0000000E+00;0;  0.0000000E+00;  4.0000000E+04;  0.0000000E+00;  0.0000000E+00;  4.0000000E+04;  0.0000000E+00;  4.0000000E+04;  0.0000000E+00;  0.0000000E+00;  0.0000000E+00;  2.0963358E-09;
 -1.7000000E-01;  9.9999998E-03; -5.0000001E-02;311;  0.0000000E+00;  0.0000000E+00;  0.0000000E+00;  1.0000000E+03;  1.0000000E-01;  0.0000000E+00;0;  0.0000000E+00;  0.0000000E+00;  0.0000000E+00;0;  0.0000000E+00;  4.0000000E+04;  0.0000000E+00;  0.0000000E+00;  4.0000000E+04;  0.0000000E+00;  4.0000000E+04;  0.0000000E+00;  0.0000000E+00;  0.0000000E+00;  2.0985100E-09;
 -1.7000000E-01;  9.9999998E-03; -3.9999999E-02;312;  0.0000000E+00;  0.0000000E+00;  0.0000000E+00;  1.0000000E+03;  1.0000000E-01;  0.0000000E+00;0;  0.0000000E+00;  0.0000000E+00;  0.0000000E+00;0;  0.0000000E+00;  4.0000000E+04;  0.0000000E+00;  0.0000000E+00;  4.0000000E+04;  0.0000000E+00;  4.0000000E+04;  0.0000000E+00;  0.0000000E+00;  0.0000000E+00;  2.0709305E-09;
 -1.7000000E-01;  9.9999998E-03; -2.9999999E-02;313;  0.0000000E+00;  0.0000000E+00;  0.0000000E+00;  1.0000000E+03;  1.0000000E-01;  0.0000000E+00;0;  0.0000000E+00;  0.0000000E+00;  0.0000000E+00;0;  0.0000000E+00;  4.0000000E+04;  0.0000000E+00;  0.0000000E+00;  4.0000000E+04;  0.0000000E+00;  4.0000000E+04;  0.0000000E+00;  0.0000000E+00;  0.0000000E+00;  2.0022204E-09;
 -1.7000000E-01;  9.9999998E-03; -2.0000000E-02;314;  0.0000000E+00;  0.0000000E+00;  0.0000000E+00;  1.0000000E+03;  1.0000000E-01;  0.0000000E+00;0;  0.0000000E+00;  0.0000000E+00;  0.0000000E+00;0;  0.0000000E+00;  4.0000000E+04;  0.0000000E+00;  0.0000000E+00;  4.0000000E+04;  0.0000000E+00;  4.0000000E+04;  0.0000000E+00;  0.0000000E+00;  0.0000000E+00;  1.8807096E-09;
 -1.7000000E-01;  9.9999998E-03; -9.9999998E-03;315;  0.0000000E+00;  0.0000000E+00;  0.0000000E+00;  1.0000000E+03;  1.0000000E-01;  0.0000000E+00;0;  0.0000000E+00;  0.0000000E+00;  0.0000000E+00;0;  0.0000000E+00;  4.0000000E+04;  0.0000000E+00;  0.0000000E+00;  4.0000000E+04;  0.0000000E+00;  4.0000000E+04;  0.0000000E+00;  0.0000000E+00;  0.0000000E+00;  1.7538491E-09;
 -1.7000000E-01;  9.9999998E-03;  0.0000000E+00;316;  0.0000000E+00;  0.0000000E+00;  0.0000000E+00;  1.0000000E+03;  1.0000000E-01;  0.0000000E+00;0;  0.0000000E+00;  0.0000000E+00;  0.0000000E+00;0;  0.0000000E+00;  4.0000000E+04;  0.0000000E+00;  0.0000000E+00;  4.0000000E+04;  0.0000000E+00;  4.0000000E+04;  0.0000000E+00;  0.0000000E+00;  0.0000000E+00;  1.6940426E-09;
 -1.7000000E-01;  9.9999998E-03;  9.9999998E-03;317;  0.0000000E+00;  0.0000000E+00;  0.0000000E+00;  1.0000000E+03;  1.0000000E-01;  0.0000000E+00;0;  0.0000000E+00;  0.0000000E+00;  0.0000000E+00;0;  0.0000000E+00;  4.0000000E+04;  0.0000000E+00;  0.0000000E+00;  4.0000000E+04;  0.0000000E+00;  4.0000000E+04;  0.0000000E+00;  0.0000000E+00;  0.0000000E+00;  1.7541210E-09;
 -1.7000000E-01;  9.9999998E-03;  2.0000000E-02;318;  0.0000000E+00;  0.0000000E+00;  0.0000000E+00;  1.0000000E+03;  1.0000000E-01;  0.0000000E+00;0;  0.0000000E+00;  0.0000000E+00;  0.0000000E+00;0;  0.0000000E+00;  4.0000000E+04;  0.0000000E+00;  0.0000000E+00;  4.0000000E+04;  0.0000000E+00;  4.0000000E+04;  0.0000000E+00;  0.0000000E+00;  0.0000000E+00;  1.8806892E-09;
 -1.7000000E-01;  9.9999998E-03;  2.9999999E-02;319;  0.0000000E+00;  0.0000000E+00;  0.0000000E+00;  1.0000000E+03;  1.0000000E-01;  0.0000000E+00;0;  0.0000000E+00;  0.0000000E+00;  0.0000000E+00;0;  0.0000000E+00;  4.0000000E+04;  0.0000000E+00;  0.0000000E+00;  4.0000000E+04;  0.0000000E+00;  4.0000000E+04;  0.0000000E+00;  0.0000000E+00;  0.0000000E+00;  2.0024555E-09;
 -1.7000000E-01;  9.9999998E-03;  3.9999999E-02;320;  0.0000000E+00;  0.0000000E+00;  0.0000000E+00;  1.0000000E+03;  1.0000000E-01;  0.0000000E+00;0;  0.0000000E+00;  0.0000000E+00;  0.0000000E+00;0;  0.0000000E+00;  4.0000000E+04;  0.0000000E+00;  0.0000000E+00;  4.0000000E+04;  0.0000000E+00;  4.0000000E+04;  0.0000000E+00;  0.0000000E+00;  0.0000000E+00;  2.0701814E-09;
 -1.7000000E-01;  9.9999998E-03;  5.0000001E-02;321;  0.0000000E+00;  0.0000000E+00;  0.0000000E+00;  1.0000000E+03;  1.0000000E-01;  0.0000000E+00;0;  0.0000000E+00;  0.0000000E+00;  0.0000000E+00;0;  0.0000000E+00;  4.0000000E+04;  0.0000000E+00;  0.0000000E+00;  4.0000000E+04;  0.0000000E+00;  4.0000000E+04;  0.0000000E+00;  0.0000000E+00;  0.0000000E+00;  2.0988598E-09;
 -1.7000000E-01;  9.9999998E-03;  5.9999999E-02;322;  0.0000000E+00;  0.0000000E+00;  0.0000000E+00;  1.0000000E+03;  1.0000000E-01;  0.0000000E+00;0;  0.0000000E+00;  0.0000000E+00;  0.0000000E+00;0;  0.0000000E+00;  4.0000000E+04;  0.0000000E+00;  0.0000000E+00;  4.0000000E+04;  0.0000000E+00;  4.0000000E+04;  0.0000000E+00;  0.0000000E+00;  0.0000000E+00;  2.0959194E-09;
 -1.6000000E-01;  9.9999998E-03; -1.0000000E-01;397;  0.0000000E+00;  0.0000000E+00;  0.0000000E+00;  1.0000000E+03;  1.0000000E-01;  0.0000000E+00;0;  0.0000000E+00;  0.0000000E+00;  0.0000000E+00;0;  1.1802045E-06;  4.0000000E+04;  0.0000000E+00;  0.0000000E+00;  4.0000000E+04;  0.0000000E+00;  4.0000000E+04;  1.1812964E-06;  0.0000000E+00; -1.0917963E-09;  2.7948883E-01;
 -1.6000000E-01;  9.9999998E-03; -9.0000004E-02;398;  0.0000000E+00;  0.0000000E+00;  0.0000000E+00;  1.0000000E+03;  1.0000000E-01;  0.0000000E+00;0;  0.0000000E+00;  0.0000000E+00;  0.0000000E+00;0;  1.1880080E-06;  4.0000000E+04;  0.0000000E+00;  0.0000000E+00;  4.0000000E+04;  0.0000000E+00;  4.0000000E+04;  1.1890496E-06;  0.0000000E+00; -1.0415989E-09;  2.7732581E-01;
 -1.6000000E-01;  9.9999998E-03; -7.9999998E-02;399;  0.0000000E+00;  0.0000000E+00;  0.0000000E+00;  1.0000000E+03;  1.0000000E-01;  0.0000000E+00;0;  0.0000000E+00;  0.0000000E+00;  0.0000000E+00;0;  1.1960877E-06;  4.0000000E+04;  0.0000000E+00;  0.0000000E+00;  4.0000000E+04;  0.0000000E+00;  4.0000000E+04;  1.1970437E-06;  0.0000000E+00; -9.5602026E-10;  2.7623612E-01;
 -1.6000000E-01;  9.9999998E-03; -7.0000000E-02;400;  0.0000000E+00;  0.0000000E+00;  0.0000000E+00;  1.0000000E+03;  1.0000000E-01;  0.0000000E+00;0;  0.0000000E+00;  0.0000000E+00;  0.0000000E+00;0;  1.2042152E-06;  4.0000000E+04;  0.0000000E+00;  0.0000000E+00;  4.0000000E+04;  0.0000000E+00;  4.0000000E+04;  1.2050557E-06;  0.0000000E+00; -8.4052176E-10;  2.7590245E-01;
 -1.6000000E-01;  9.9999998E-03; -5.9999999E-02;401;  0.0000000E+00;  0.0000000E+00;  0.0000000E+00;  1.0000000E+03;  1.0000000E-01;  0.0000000E+00;0;  0.0000000E+00;  0.0000000E+00;  0.0000000E+00;0;  1.2121301E-06;  4.0000000E+04;  0.0000000E+00;  0.0000000E+00;  4.0000000E+04;  0.0000000E+00;  4.0000000E+04;  1.2128315E-06;  0.0000000E+00; -7.0139511E-10;  2.7591246E-01;
 -1.6000000E-01;  9.9999998E-03; -5.0000001E-02;402;  0.0000000E+00;  0.0000000E+00;  0.0000000E+00;  1.0000000E+03;  1.0000000E-01;  0.0000000E+00;0;  0.0000000E+00;  0.0000000E+00;  0.0000000E+00;0;  1.2195159E-06;  4.0000000E+04;  0.0000000E+00;  0.0000000E+00;  4.0000000E+04;  0.0000000E+00;  4.0000000E+04;  1.2200633E-06;  0.0000000E+00; -5.4745719E-10;  2.7591005E-01;
 -1.6000000E-01;  9.9999998E-03; -3.9999999E-02;403;  0.0000000E+00;  0.0000000E+00;  0.0000000E+00;  1.0000000E+03;  1.0000000E-01;  0.0000000E+00;0;  0.0000000E+00;  0.0000000E+00;  0.0000000E+00;0;  1.2260524E-06;  4.0000000E+04;  0.0000000E+00;  0.0000000E+00;  4.0000000E+04;  0.0000000E+00;  4.0000000E+04;  1.2264431E-06;  0.0000000E+00; -3.9078352E-10;  2.7568460E-01;
 -1.6000000E-01;  9.9999998E-03; -2.9999999E-02;404;  0.0000000E+00;  0.0000000E+00;  0.0000000E+00;  1.0000000E+03;  1.0000000E-01;  0.0000000E+00;0;  0.0000000E+00;  0.0000000E+00;  0.0000000E+00;0;  1.2314381E-06;  4.0000000E+04;  0.0000000E+00;  0.0000000E+00;  4.0000000E+04;  0.0000000E+00;  4.0000000E+04;  1.2316841E-06;  0.0000000E+00; -2.4599181E-10;  2.7520549E-01;
 -1.6000000E-01;  9.9999998E-03; -2.0000000E-02;405;  0.0000000E+00;  0.0000000E+00;  0.0000000E+00;  1.0000000E+03;  1.0000000E-01;  0.0000000E+00;0;  0.0000000E+00;  0.0000000E+00;  0.0000000E+00;0;  1.2354387E-06;  4.0000000E+04;  0.0000000E+00;  0.0000000E+00;  4.0000000E+04;  0.0000000E+00;  4.0000000E+04;  1.2355671E-06;  0.0000000E+00; -1.2834882E-10;  2.7460539E-01;
 -1.6000000E-01;  9.9999998E-03; -9.9999998E-03;406;  0.0000000E+00;  0.0000000E+00;  0.0000000E+00;  1.0000000E+03;  1.0000000E-01;  0.0000000E+00;0;  0.0000000E+00;  0.0000000E+00;  0.0000000E+00;0;  1.2378946E-06;  4.0000000E+04;  0.0000000E+00;  0.0000000E+00;  4.0000000E+04;  0.0000000E+00;  4.0000000E+04;  1.2379460E-06;  0.0000000E+00; -5.1435058E-11;  2.7410412E-01;
 -1.6000000E-01;  9.9999998E-03;  0.0000000E+00;407;  0.0000000E+00;  0.0000000E+00;  0.0000000E+00;  1.0000000E+03;  1.0000000E-01;  0.0000000E+00;0;  0.0000000E+00;  0.0000000E+00;  0.0000000E+00;0;  1.2387281E-06;  4.0000000E+04;  0.0000000E+00;  0.0000000E+00;  4.0000000E+04;  0.0000000E+00;  4.0000000E+04;  1.2387528E-06;  0.0000000E+00; -2.4670911E-11;  2.7391136E-01;
 -1.6000000E-01;  9.9999998E-03;  9.9999998E-03;408;  0.0000000E+00;  0.0000000E+00;  0.0000000E+00;  1.0000000E+03;  1.0000000E-01;  0.0000000E+00;0;  0.0000000E+00;  0.0000000E+00;  0.0000000E+00;0;  1.2378955E-06;  4.0000000E+04;  0.0000000E+00;  0.0000000E+00;  4.0000000E+04;  0.0000000E+00;  4.0000000E+04;  1.2379469E-06;  0.0000000E+00; -5.1432310E-11;  2.7410397E-01;
 -1.6000000E-01;  9.9999998E-03;  2.0000000E-02;409;  0.0000000E+00;  0.0000000E+00;  0.0000000E+00;  1.0000000E+03;  1.0000000E-01;  0.0000000E+00;0;  0.0000000E+00;  0.0000000E+00;  0.0000000E+00;0;  1.2354388E-06;  4.0000000E+04;  0.0000000E+00;  0.0000000E+00;  4.0000000E+04;  0.0000000E+00;  4.0000000E+04;  1.2355672E-06;  0.0000000E+00; -1.2835126E-10;  2.7460539E-01;
 -1.6000000E-01;  9.9999998E-03;  2.9999999E-02;410;  0.0000000E+00;  0.0000000E+00;  0.0000000E+00;  1.0000000E+03;  1.0000000E-01;  0.0000000E+00;0;  0.0000000E+00;  0.0000000E+00;  0.0000000E+00;0;  1.2314373E-06;  4.0000000E+04;  0.0000000E+00;  0.0000000E+00;  4.0000000E+04;  0.0000000E+00;  4.0000000E+04;  1.2316833E-06;  0.0000000E+00; -2.4600458E-10;  2.7520537E-01;
 -1.6000000E-01;  9.9999998E-03;  3.9999999E-02;411;  0.0000000E+00;  0.0000000E+00;  0.0000000E+00;  1.0000000E+03;  1.0000000E-01;  0.0000000E+00;0;  0.0000000E+00;  0.0000000E+00;  0.0000000E+00;0;  1.2260517E-06;  4.0000000E+04;  0.0000000E+00;  0.0000000E+00;  4.0000000E+04;  0.0000000E+00;  4.0000000E+04;  1.2264426E-06;  0.0000000E+00; -3.9080519E-10;  2.7568451E-01;
 -1.6000000E-01;  9.9999998E-03;  5.0000001E-02;412;  0.0000000E+00;  0.0000000E+00;  0.0000000E+00;  1.0000000E+03;  1.0000000E-01;  0.0000000E+00;0;  0.0000000E+00;  0.0000000E+00;  0.0000000E+00;0;  1.2195167E-06;  4.0000000E+04;  0.0000000E+00;  0.0000000E+00;  4.0000000E+04;  0.0000000E+00;  4.0000000E+04;  1.2200642E-06;  0.0000000E+00; -5.4747140E-10;  2.7590990E-01;
 -1.6000000E-01;  9.9999998E-03;  5.9999999E-02;413;  0.0000000E+00;  0.0000000E+00;  0.0000000E+00;  1.0000000E+03;  1.0000000E-01;  0.0000000E+00;0;  0.0000000E+00;  0.0000000E+00;  0.0000000E+00;0;  1.2121283E-06;  4.0000000E+04;  0.0000000E+00;  0.0000000E+00;  4.0000000E+04;  0.0000000E+00;  4.0000000E+04;  1.2128297E-06;  0.0000000E+00; -7.0139966E-10;  2.7591240E-01;
 -1.5000001E-01;  9.9999998E-03; -1.0000000E-01;488;  0.0000000E+00;  0.0000000E+00;  0.0000000E+00;  1.0000000E+03;  1.0000000E-01;  0.0000000E+00;0;  0.0000000E+00;  0.0000000E+00;  0.0000000E+00;0;  4.1301195E-05;  4.0000000E+04;  0.0000000E+00;  0.0000000E+00;  4.0000000E+04;  0.0000000E+00;  4.0000000E+04;  4.1402556E-05;  0.0000000E+00; -1.0136061E-07;  4.3839674E+00;
 -1.5000001E-01;  9.9999998E-03; -9.0000004E-02;489;  0.0000000E+00;  0.0000000E+00;  0.0000000E+00;  1.0000000E+03;  1.0000000E-01;  0.0000000E+00;0;  0.0000000E+00;  0.0000000E+00;  0.0000000E+00;0;  4.1555639E-05;  4.0000000E+04;  0.0000000E+00;  0.0000000E+00;  4.0000000E+04;  0.0000000E+00;  4.0000000E+04;  4.1654846E-05;  0.0000000E+00; -9.9207156E-08;  4.3776231E+00;
 -1.5000001E-01;  9.9999998E-03; -7.9999998E-02;490;  0.0000000E+00;  0.0000000E+00;  0.0000000E+00;  1.0000000E+03;  1.0000000E-01;  0.0000000E+00;0;  0.0000000E+00;  0.0000000E+00;  0.0000000E+00;0;  4.1718511E-05;  4.0000000E+04;  0.0000000E+00;  0.0000000E+00;  4.0000000E+04;  0.0000000E+00;  4.0000000E+04;  4.1811021E-05;  0.0000000E+00; -9.2509694E-08;  4.3808503E+00;
 -1.5000001E-01;  9.9999998E-03; -7.0000000E-02;491;  0.0000000E+00;  0.0000000E+00;  0.0000000E+00;  1.0000000E+03;  1.0000000E-01;  0.0000000E+00;0;  0.0000000E+00;  0.0000000E+00;  0.0000000E+00;0;  4.1801217E-05;  4.0000000E+04;  0.0000000E+00;  0.0000000E+00;  4.0000000E+04;  0.0000000E+00;  4.0000000E+04;  4.1883362E-05;  0.0000000E+00; -8.2146265E-08;  4.3886614E+00;
 -1.5000001E-01;  9.9999998E-03; -5.9999999E-02;492;  0.0000000E+00;  0.0000000E+00;  0.0000000E+00;  1.0000000E+03;  1.0000000E-01;  0.0000000E+00;0;  0.0000000E+00;  0.0000000E+00;  0.0000000E+00;0;  4.1820917E-05;  4.0000000E+04;  0.0000000E+00;  0.0000000E+00;  4.0000000E+04;  0.0000000E+00;  4.0000000E+04;  4.1890151E-05;  0.0000000E+00; -6.9233685E-08;  4.3940287E+00;
 -1.5000001E-01;  9.9999998E-03; -5.0000001E-02;493;  0.0000000E+00;  0.0000000E+00;  0.0000000E+00;  1.0000000E+03;  1.0000000E-01;  0.0000000E+00;0;  0.0000000E+00;  0.0000000E+00;  0.0000000E+00;0;  4.1796844E-05;  4.0000000E+04;  0.0000000E+00;  0.0000000E+00;  4.0000000E+04;  0.0000000E+00;  4.0000000E+04;  4.1851887E-05;  0.0000000E+00; -5.5041053E-08;  4.3910913E+00;
 -1.5000001E-01;  9.9999998E-03; -3.9999999E-02;494;  0.0000000E+00;  0.0000000E+00;  0.0000000E+00;  1.0000000E+03;  1.0000000E-01;  0.0000000E+00;0;  0.0000000E+00;  0.0000000E+00;  0.0000000E+00;0;  4.1748161E-05;  4.0000000E+04;  0.0000000E+00;  0.0000000E+00;  4.0000000E+04;  0.0000000E+00;  4.0000000E+04;  4.1789077E-05;  0.0000000E+00; -4.0917030E-08;  4.3777518E+00;
 -1.5000001E-01;  9.9999998E-03; -2.9999999E-02;495;  0.0000000E+00;  0.0000000E+00;  0.0000000E+00;  1.0000000E+03;  1.0000000E-01;  0.0000000E+00;0;  0.0000000E+00;  0.0000000E+00;  0.0000000E+00;0;  4.1691765E-05;  4.0000000E+04;  0.0000000E+00;  0.0000000E+00;  4.0000000E+04;  0.0000000E+00;  4.0000000E+04;  4.1719966E-05;  0.0000000E+00; -2.8201095E-08;  4.3565621E+00;
 -1.5000001E-01;  9.9999998E-03; -2.0000000E-02;496;  0.0000000E+00;  0.0000000E+00;  0.0000000E+00;  1.0000000E+03;  1.0000000E-01;  0.0000000E+00;0;  0.0000000E+00;  0.0000000E+00;  0.0000000E+00;0;  4.1641553E-05;  4.0000000E+04;  0.0000000E+00;  0.0000000E+00;  4.0000000E+04;  0.0000000E+00;  4.0000000E+04;  4.1659667E-05;  0.0000000E+00; -1.8112980E-08;  4.3334942E+00;
 -1.5000001E-01;  9.9999998E-03; -9.9999998E-03;497;  0.0000000E+00;  0.0000000E+00;  0.0000000E+00;  1.0000000E+03;  1.0000000E-01;  0.0000000E+00;0;  0.0000000E+00;  0.0000000E+00;  0.0000000E+00;0;  4.1607360E-05;  4.0000000E+04;  0.0000000E+00;  0.0000000E+00;  4.0000000E+04;  0.0000000E+00;  4.0000000E+04;  4.1618994E-05;  0.0000000E+00; -1.1633676E-08;  4.3157892E+00;
 -1.5000001E-01;  9.9999998E-03;  0.0000000E+00;498;  0.0000000E+00;  0.0000000E+00;  0.0000000E+00;  1.0000000E+03;  1.0000000E-01;  0.0000000E+00;0;  0.0000000E+00;  0.0000000E+00;  0.0000000E+00;0;  4.1595344E-05;  4.0000000E+04;  0.0000000E+00;  0.0000000E+00;  4.0000000E+04;  0.0000000E+00;  4.0000000E+04;  4.1604744E-05;  0.0000000E+00; -9.4004067E-09;  4.3091793E+00;
 -1.5000001E-01;  9.9999998E-03;  9.9999998E-03;499;  0.0000000E+00;  0.0000000E+00;  0.0000000E+00;  1.0000000E+03;  1.0000000E-01;  0.0000000E+00;0;  0.0000000E+00;  0.0000000E+00;  0.0000000E+00;0;  4.1607367E-05;  4.0000000E+04;  0.0000000E+00;  0.0000000E+00;  4.0000000E+04;  0.0000000E+00;  4.0000000E+04;  4.1619001E-05;  0.0000000E+00; -1.1634016E-08;  4.3157930E+00;
 -1.5000001E-01;  9.9999998E-03;  2.0000000E-02;500;  0.0000000E+00;  0.0000000E+00;  0.0000000E+00;  1.0000000E+03;  1.0000000E-01;  0.0000000E+00;0;  0.0000000E+00;  0.0000000E+00;  0.0000000E+00;0;  4.1641590E-05;  4.0000000E+04;  0.0000000E+00;  0.0000000E+00;  4.0000000E+04;  0.0000000E+00;  4.0000000E+04;  4.1659703E-05;  0.0000000E+00; -1.8113598E-08;  4.3334994E+00;
 -1.5000001E-01;  9.9999998E-03;  2.9999999E-02;501;  0.0000000E+00;  0.0000000E+00;  0.0000000E+00;  1.0000000E+03;  1.0000000E-01;  0.0000000E+00;0;  0.0000000E+00;  0.0000000E+00;  0.0000000E+00;0;  4.1691772E-05;  4.0000000E+04;  0.0000000E+00;  0.0000000E+00;  4.0000000E+04;  0.0000000E+00;  4.0000000E+04;  4.1719974E-05;  0.0000000E+00; -2.8201956E-08;  4.3565669E+00;
 -1.5000001E-01;  9.9999998E-03;  3.9999999E-02;502;  0.0000000E+00;  0.0000000E+00;  0.0000000E+00;  1.0000000E+03;  1.0000000E-01;  0.0000000E+00;0;  0.0000000E+00;  0.0000000E+00;  0.0000000E+00;0;  4.1748153E-05;  4.0000000E+04;  0.0000000E+00;  0.0000000E+00;  4.0000000E+04;  0.0000000E+00;  4.0000000E+04;  4.1789070E-05;  0.0000000E+00; -4.0918039E-08;  4.3777537E+00;
 -1.5000001E-01;  9.9999998E-03;  5.0000001E-02;503;  0.0000000E+00;  0.0000000E+00;  0.0000000E+00;  1.0000000E+03;  1.0000000E-01;  0.0000000E+00;0;  0.0000000E+00;  0.0000000E+00;  0.0000000E+00;0;  4.1796869E-05;  4.0000000E+04;  0.0000000E+00;  0.0000000E+00;  4.0000000E+04;  0.0000000E+00;  4.0000000E+04;  4.1851912E-05;  0.0000000E+00; -5.5042065E-08;  4.3910913E+00;
 -1.5000001E-01;  9.9999998E-03;  5.9999999E-02;504;  0.0000000E+00;  0.0000000E+00;  0.0000000E+00;  1.0000000E+03;  1.0000000E-01;  0.0000000E+00;0;  0.0000000E+00;  0.0000000E+00;  0.0000000E+00;0;  4.1820957E-05;  4.0000000E+04;  0.0000000E+00;  0.0000000E+00;  4.0000000E+04;  0.0000000E+00;  4.0000000E+04;  4.1890191E-05;  0.0000000E+00; -6.9234552E-08;  4.3940287E+00;
 -1.4000000E-01;  9.9999998E-03; -1.0000000E-01;579;  0.0000000E+00;  0.0000000E+00;  0.0000000E+00;  1.0000000E+03;  1.0000000E-01;  0.0000000E+00;0;  0.0000000E+00;  0.0000000E+00;  0.0000000E+00;0;  2.2916876E-04;  4.0000000E+04;  0.0000000E+00;  0.0000000E+00;  4.0000000E+04;  0.0000000E+00;  4.0000000E+04;  2.3004787E-04;  0.0000000E+00; -8.7911695E-07;  2.0146927E+01;
 -1.4000000E-01;  9.9999998E-03; -9.0000004E-02;580;  0.0000000E+00;  0.0000000E+00;  0.0000000E+00;  1.0000000E+03;  1.0000000E-01;  0.0000000E+00;0;  0.0000000E+00;  0.0000000E+00;  0.0000000E+00;0;  2.3063614E-04;  4.0000000E+04;  0.0000000E+00;  0.0000000E+00;  4.0000000E+04;  0.0000000E+00;  4.0000000E+04;  2.3150437E-04;  0.0000000E+00; -8.6821910E-07;  2.0242140E+01;
 -1.4000000E-01;  9.9999998E-03; -7.9999998E-02;581;  0.0000000E+00;  0.0000000E+00;  0.0000000E+00;  1.0000000E+03;  1.0000000E-01;  0.0000000E+00;0;  0.0000000E+00;  0.0000000E+00;  0.0000000E+00;0;  2.3153577E-04;  4.0000000E+04;  0.0000000E+00;  0.0000000E+00;  4.0000000E+04;  0.0000000E+00;  4.0000000E+04;  2.3235375E-04;  0.0000000E+00; -8.1798197E-07;  2.0338453E+01;
 -1.4000000E-01;  9.9999998E-03; -7.0000000E-02;582;  0.0000000E+00;  0.0000000E+00;  0.0000000E+00;  1.0000000E+03;  1.0000000E-01;  0.0000000E+00;0;  0.0000000E+00;  0.0000000E+00;  0.0000000E+00;0;  2.3193282E-04;  4.0000000E+04;  0.0000000E+00;  0.0000000E+00;  4.0000000E+04;  0.0000000E+00;  4.0000000E+04;  2.3266823E-04;  0.0000000E+00; -7.3541628E-07;  2.0417471E+01;
 -1.4000000E-01;  9.9999998E-03; -5.9999999E-02;583;  0.0000000E+00;  0.0000000E+00;  0.0000000E+00;  1.0000000E+03;  1.0000000E-01;  0.0000000E+00;0;  0.0000000E+00;  0.0000000E+00;  0.0000000E+00;0;  2.3193084E-04;  4.0000000E+04;  0.0000000E+00;  0.0000000E+00;  4.0000000E+04;  0.0000000E+00;  4.0000000E+04;  2.3256100E-04;  0.0000000E+00; -6.3015841E-07;  2.0456137E+01;
 -1.4000000E-01;  9.9999998E-03; -5.0000001E-02;584;  0.0000000E+00;  0.0000000E+00;  0.0000000E+00;  1.0000000E+03;  1.0000000E-01;  0.0000000E+00;0;  0.0000000E+00;  0.0000000E+00;  0.0000000E+00;0;  2.3165235E-04;  4.0000000E+04;  0.0000000E+00;  0.0000000E+00;  4.0000000E+04;  0.0000000E+00;  4.0000000E+04;  2.3216575E-04;  0.0000000E+00; -5.1340214E-07;  2.0438086E+01;
 -1.4000000E-01;  9.9999998E-03; -3.9999999E-02;585;  0.0000000E+00;  0.0000000E+00;  0.0000000E+00;  1.0000000E+03;  1.0000000E-01;  0.0000000E+00;0;  0.0000000E+00;  0.0000000E+00;  0.0000000E+00;0;  2.3122344E-04;  4.0000000E+04;  0.0000000E+00;  0.0000000E+00;  4.0000000E+04;  0.0000000E+00;  4.0000000E+04;  2.3162036E-04;  0.0000000E+00; -3.9691710E-07;  2.0361771E+01;
 -1.4000000E-01;  9.9999998E-03; -2.9999999E-02;586;  0.0000000E+00;  0.0000000E+00;  0.0000000E+00;  1.0000000E+03;  1.0000000E-01;  0.0000000E+00;0;  0.0000000E+00;  0.0000000E+00;  0.0000000E+00;0;  2.3075937E-04;  4.0000000E+04;  0.0000000E+00;  0.0000000E+00;  4.0000000E+04;  0.0000000E+00;  4.0000000E+04;  2.3105147E-04;  0.0000000E+00; -2.9210199E-07;  2.0245462E+01;
 -1.4000000E-01;  9.9999998E-03; -2.0000000E-02;587;  0.0000000E+00;  0.0000000E+00;  0.0000000E+00;  1.0000000E+03;  1.0000000E-01;  0.0000000E+00;0;  0.0000000E+00;  0.0000000E+00;  0.0000000E+00;0;  2.3035625E-04;  4.0000000E+04;  0.0000000E+00;  0.0000000E+00;  4.0000000E+04;  0.0000000E+00;  4.0000000E+04;  2.3056533E-04;  0.0000000E+00; -2.0908050E-07;  2.0121883E+01;
 -1.4000000E-01;  9.9999998E-03; -9.9999998E-03;588;  0.0000000E+00;  0.0000000E+00;  0.0000000E+00;  1.0000000E+03;  1.0000000E-01;  0.0000000E+00;0;  0.0000000E+00;  0.0000000E+00;  0.0000000E+00;0;  2.3008513E-04;  4.0000000E+04;  0.0000000E+00;  0.0000000E+00;  4.0000000E+04;  0.0000000E+00;  4.0000000E+04;  2.3024097E-04;  0.0000000E+00; -1.5584138E-07;  2.0028286E+01;
 -1.4000000E-01;  9.9999998E-03;  0.0000000E+00;589;  0.0000000E+00;  0.0000000E+00;  0.0000000E+00;  1.0000000E+03;  1.0000000E-01;  0.0000000E+00;0;  0.0000000E+00;  0.0000000E+00;  0.0000000E+00;0;  2.2998999E-04;  4.0000000E+04;  0.0000000E+00;  0.0000000E+00;  4.0000000E+04;  0.0000000E+00;  4.0000000E+04;  2.3012749E-04;  0.0000000E+00; -1.3750751E-07;  1.9993494E+01;
 -1.4000000E-01;  9.9999998E-03;  9.9999998E-03;590;  0.0000000E+00;  0.0000000E+00;  0.0000000E+00;  1.0000000E+03;  1.0000000E-01;  0.0000000E+00;0;  0.0000000E+00;  0.0000000E+00;  0.0000000E+00;0;  2.3008528E-04;  4.0000000E+04;  0.0000000E+00;  0.0000000E+00;  4.0000000E+04;  0.0000000E+00;  4.0000000E+04;  2.3024113E-04;  0.0000000E+00; -1.5584411E-07;  2.0028307E+01;
 -1.4000000E-01;  9.9999998E-03;  2.0000000E-02;591;  0.0000000E+00;  0.0000000E+00;  0.0000000E+00;  1.0000000E+03;  1.0000000E-01;  0.0000000E+00;0;  0.0000000E+00;  0.0000000E+00;  0.0000000E+00;0;  2.3035637E-04;  4.0000000E+04;  0.0000000E+00;  0.0000000E+00;  4.0000000E+04;  0.0000000E+00;  4.0000000E+04;  2.3056545E-04;  0.0000000E+00; -2.0908551E-07;  2.0121910E+01;
 -1.4000000E-01;  9.9999998E-03;  2.9999999E-02;592;  0.0000000E+00;  0.0000000E+00;  0.0000000E+00;  1.0000000E+03;  1.0000000E-01;  0.0000000E+00;0;  0.0000000E+00;  0.0000000E+00;  0.0000000E+00;0;  2.3075951E-04;  4.0000000E+04;  0.0000000E+00;  0.0000000E+00;  4.0000000E+04;  0.0000000E+00;  4.0000000E+04;  2.3105163E-04;  0.0000000E+00; -2.9210867E-07;  2.0245506E+01;
 -1.4000000E-01;  9.9999998E-03;  3.9999999E-02;593;  0.0000000E+00;  0.0000000E+00;  0.0000000E+00;  1.0000000E+03;  1.0000000E-01;  0.0000000E+00;0;  0.0000000E+00;  0.0000000E+00;  0.0000000E+00;0;  2.3122369E-04;  4.0000000E+04;  0.0000000E+00;  0.0000000E+00;  4.0000000E+04;  0.0000000E+00;  4.0000000E+04;  2.3162061E-04;  0.0000000E+00; -3.9692480E-07;  2.0361801E+01;
 -1.4000000E-01;  9.9999998E-03;  5.0000001E-02;594;  0.0000000E+00;  0.0000000E+00;  0.0000000E+00;  1.0000000E+03;  1.0000000E-01;  0.0000000E+00;0;  0.0000000E+00;  0.0000000E+00;  0.0000000E+00;0;  2.3165242E-04;  4.0000000E+04;  0.0000000E+00;  0.0000000E+00;  4.0000000E+04;  0.0000000E+00;  4.0000000E+04;  2.3216582E-04;  0.0000000E+00; -5.1341038E-07;  2.0438118E+01;
 -1.4000000E-01;  9.9999998E-03;  5.9999999E-02;595;  0.0000000E+00;  0.0000000E+00;  0.0000000E+00;  1.0000000E+03;  1.0000000E-01;  0.0000000E+00;0;  0.0000000E+00;  0.0000000E+00;  0.0000000E+00;0;  2.3193094E-04;  4.0000000E+04;  0.0000000E+00;  0.0000000E+00;  4.0000000E+04;  0.0000000E+00;  4.0000000E+04;  2.3256111E-04;  0.0000000E+00; -6.3016597E-07;  2.0456154E+01;
 -1.3000000E-01;  9.9999998E-03; -1.0000000E-01;670;  0.0000000E+00;  0.0000000E+00;  0.0000000E+00;  1.0000000E+03;  1.0000000E-01;  0.0000000E+00;0;  0.0000000E+00;  0.0000000E+00;  0.0000000E+00;0;  7.0136454E-04;  4.0000000E+04;  0.0000000E+00;  0.0000000E+00;  4.0000000E+04;  0.0000000E+00;  4.0000000E+04;  7.0508959E-04;  0.0000000E+00; -3.7250836E-06;  5.6492592E+01;
 -1.3000000E-01;  9.9999998E-03; -9.0000004E-02;671;  0.0000000E+00;  0.0000000E+00;  0.0000000E+00;  1.0000000E+03;  1.0000000E-01;  0.0000000E+00;0;  0.0000000E+00;  0.0000000E+00;  0.0000000E+00;0;  7.0607086E-04;  4.0000000E+04;  0.0000000E+00;  0.0000000E+00;  4.0000000E+04;  0.0000000E+00;  4.0000000E+04;  7.0976850E-04;  0.0000000E+00; -3.6976285E-06;  5.7095562E+01;
 -1.3000000E-01;  9.9999998E-03; -7.9999998E-02;672;  0.0000000E+00;  0.0000000E+00;  0.0000000E+00;  1.0000000E+03;  1.0000000E-01;  0.0000000E+00;0;  0.0000000E+00;  0.0000000E+00;  0.0000000E+00;0;  7.0902176E-04;  4.0000000E+04;  0.0000000E+00;  0.0000000E+00;  4.0000000E+04;  0.0000000E+00;  4.0000000E+04;  7.1253325E-04;  0.0000000E+00; -3.5114863E-06;  5.7601425E+01;
 -1.3000000E-01;  9.9999998E-03; -7.0000000E-02;673;  0.0000000E+00;  0.0000000E+00;  0.0000000E+00;  1.0000000E+03;  1.0000000E-01;  0.0000000E+00;0;  0.0000000E+00;  0.0000000E+00;  0.0000000E+00;0;  7.1039709E-04;  4.0000000E+04;  0.0000000E+00;  0.0000000E+00;  4.0000000E+04;  0.0000000E+00;  4.0000000E+04;  7.1358908E-04;  0.0000000E+00; -3.1920072E-06;  5.7960625E+01;
 -1.3000000E-01;  9.9999998E-03; -5.9999999E-02;674;  0.0000000E+00;  0.0000000E+00;  0.0000000E+00;  1.0000000E+03;  1.0000000E-01;  0.0000000E+00;0;  0.0000000E+00;  0.0000000E+00;  0.0000000E+00;0;  7.1049936E-04;  4.0000000E+04;  0.0000000E+00;  0.0000000E+00;  4.0000000E+04;  0.0000000E+00;  4.0000000E+04;  7.1327656E-04;  0.0000000E+00; -2.7771941E-06;  5.8132095E+01;
 -1.3000000E-01;  9.9999998E-03; -5.0000001E-02;675;  0.0000000E+00;  0.0000000E+00;  0.0000000E+00;  1.0000000E+03;  1.0000000E-01;  0.0000000E+00;0;  0.0000000E+00;  0.0000000E+00;  0.0000000E+00;0;  7.0969982E-04;  4.0000000E+04;  0.0000000E+00;  0.0000000E+00;  4.0000000E+04;  0.0000000E+00;  4.0000000E+04;  7.1201241E-04;  0.0000000E+00; -2.3125981E-06;  5.8100349E+01;
 -1.3000000E-01;  9.9999998E-03; -3.9999999E-02;676;  0.0000000E+00;  0.0000000E+00;  0.0000000E+00;  1.0000000E+03;  1.0000000E-01;  0.0000000E+00;0;  0.0000000E+00;  0.0000000E+00;  0.0000000E+00;0;  7.0839032E-04;  4.0000000E+04;  0.0000000E+00;  0.0000000E+00;  4.0000000E+04;  0.0000000E+00;  4.0000000E+04;  7.1023696E-04;  0.0000000E+00; -1.8466121E-06;  5.7888439E+01;
 -1.3000000E-01;  9.9999998E-03; -2.9999999E-02;677;  0.0000000E+00;  0.0000000E+00;  0.0000000E+00;  1.0000000E+03;  1.0000000E-01;  0.0000000E+00;0;  0.0000000E+00;  0.0000000E+00;  0.0000000E+00;0;  7.0694101E-04;  4.0000000E+04;  0.0000000E+00;  0.0000000E+00;  4.0000000E+04;  0.0000000E+00;  4.0000000E+04;  7.0836715E-04;  0.0000000E+00; -1.4261511E-06;  5.7561520E+01;
 -1.3000000E-01;  9.9999998E-03; -2.0000000E-02;678;  0.0000000E+00;  0.0000000E+00;  0.0000000E+00;  1.0000000E+03;  1.0000000E-01;  0.0000000E+00;0;  0.0000000E+00;  0.0000000E+00;  0.0000000E+00;0;  7.0566550E-04;  4.0000000E+04;  0.0000000E+00;  0.0000000E+00;  4.0000000E+04;  0.0000000E+00;  4.0000000E+04;  7.0675818E-04;  0.0000000E+00; -1.0926782E-06;  5.7216629E+01;
 -1.3000000E-01;  9.9999998E-03; -9.9999998E-03;679;  0.0000000E+00;  0.0000000E+00;  0.0000000E+00;  1.0000000E+03;  1.0000000E-01;  0.0000000E+00;0;  0.0000000E+00;  0.0000000E+00;  0.0000000E+00;0;  7.0480275E-04;  4.0000000E+04;  0.0000000E+00;  0.0000000E+00;  4.0000000E+04;  0.0000000E+00;  4.0000000E+04;  7.0568145E-04;  0.0000000E+00; -8.7871274E-07;  5.6956322E+01;
 -1.3000000E-01;  9.9999998E-03;  0.0000000E+00;680;  0.0000000E+00;  0.0000000E+00;  0.0000000E+00;  1.0000000E+03;  1.0000000E-01;  0.0000000E+00;0;  0.0000000E+00;  0.0000000E+00;  0.0000000E+00;0;  7.0449855E-04;  4.0000000E+04;  0.0000000E+00;  0.0000000E+00;  4.0000000E+04;  0.0000000E+00;  4.0000000E+04;  7.0530357E-04;  0.0000000E+00; -8.0501513E-07;  5.6859856E+01;
 -1.3000000E-01;  9.9999998E-03;  9.9999998E-03;681;  0.0000000E+00;  0.0000000E+00;  0.0000000E+00;  1.0000000E+03;  1.0000000E-01;  0.0000000E+00;0;  0.0000000E+00;  0.0000000E+00;  0.0000000E+00;0;  7.0480286E-04;  4.0000000E+04;  0.0000000E+00;  0.0000000E+00;  4.0000000E+04;  0.0000000E+00;  4.0000000E+04;  7.0568157E-04;  0.0000000E+00; -8.7872195E-07;  5.6956387E+01;
 -1.3000000E-01;  9.9999998E-03;  2.0000000E-02;682;  0.0000000E+00;  0.0000000E+00;  0.0000000E+00;  1.0000000E+03;  1.0000000E-01;  0.0000000E+00;0;  0.0000000E+00;  0.0000000E+00;  0.0000000E+00;0;  7.0566632E-04;  4.0000000E+04;  0.0000000E+00;  0.0000000E+00;  4.0000000E+04;  0.0000000E+00;  4.0000000E+04;  7.0675899E-04;  0.0000000E+00; -1.0926965E-06;  5.7216713E+01;
 -1.3000000E-01;  9.9999998E-03;  2.9999999E-02;683;  0.0000000E+00;  0.0000000E+00;  0.0000000E+00;  1.0000000E+03;  1.0000000E-01;  0.0000000E+00;0;  0.0000000E+00;  0.0000000E+00;  0.0000000E+00;0;  7.0694165E-04;  4.0000000E+04;  0.0000000E+00;  0.0000000E+00;  4.0000000E+04;  0.0000000E+00;  4.0000000E+04;  7.0836785E-04;  0.0000000E+00; -1.4261763E-06;  5.7561649E+01;
 -1.3000000E-01;  9.9999998E-03;  3.9999999E-02;684;  0.0000000E+00;  0.0000000E+00;  0.0000000E+00;  1.0000000E+03;  1.0000000E-01;  0.0000000E+00;0;  0.0000000E+00;  0.0000000E+00;  0.0000000E+00;0;  7.0839125E-04;  4.0000000E+04;  0.0000000E+00;  0.0000000E+00;  4.0000000E+04;  0.0000000E+00;  4.0000000E+04;  7.1023789E-04;  0.0000000E+00; -1.8466424E-06;  5.7888584E+01;
 -1.3000000E-01;  9.9999998E-03;  5.0000001E-02;685;  0.0000000E+00;  0.0000000E+00;  0.0000000E+00;  1.0000000E+03;  1.0000000E-01;  0.0000000E+00;0;  0.0000000E+00;  0.0000000E+00;  0.0000000E+00;0;  7.0970075E-04;  4.0000000E+04;  0.0000000E+00;  0.0000000E+00;  4.0000000E+04;  0.0000000E+00;  4.0000000E+04;  7.1201340E-04;  0.0000000E+00; -2.3126299E-06;  5.8100510E+01;
 -1.3000000E-01;  9.9999998E-03;  5.9999999E-02;686;  0.0000000E+00;  0.0000000E+00;  0.0000000E+00;  1.0000000E+03;  1.0000000E-01;  0.0000000E+00;0;  0.0000000E+00;  0.0000000E+00;  0.0000000E+00;0;  7.1050058E-04;  4.0000000E+04;  0.0000000E+00;  0.0000000E+00;  4.0000000E+04;  0.0000000E+00;  4.0000000E+04;  7.1327778E-04;  0.0000000E+00; -2.7772228E-06;  5.8132168E+01;
 -1.2000000E-01;  9.9999998E-03; -1.0000000E-01;761;  0.0000000E+00;  0.0000000E+00;  0.0000000E+00;  1.0000000E+03;  1.0000000E-01;  0.0000000E+00;0;  0.0000000E+00;  0.0000000E+00;  0.0000000E+00;0;  1.5796174E-03;  4.0000000E+04;  0.0000000E+00;  0.0000000E+00;  4.0000000E+04;  0.0000000E+00;  4.0000000E+04;  1.5905935E-03;  0.0000000E+00; -1.0976160E-05;  1.2094944E+02;
 -1.2000000E-01;  9.9999998E-03; -9.0000004E-02;762;  0.0000000E+00;  0.0000000E+00;  0.0000000E+00;  1.0000000E+03;  1.0000000E-01;  0.0000000E+00;0;  0.0000000E+00;  0.0000000E+00;  0.0000000E+00;0;  1.5907321E-03;  4.0000000E+04;  0.0000000E+00;  0.0000000E+00;  4.0000000E+04;  0.0000000E+00;  4.0000000E+04;  1.6016597E-03;  0.0000000E+00; -1.0927582E-05;  1.2293874E+02;
 -1.2000000E-01;  9.9999998E-03; -7.9999998E-02;763;  0.0000000E+00;  0.0000000E+00;  0.0000000E+00;  1.0000000E+03;  1.0000000E-01;  0.0000000E+00;0;  0.0000000E+00;  0.0000000E+00;  0.0000000E+00;0;  1.5979173E-03;  4.0000000E+04;  0.0000000E+00;  0.0000000E+00;  4.0000000E+04;  0.0000000E+00;  4.0000000E+04;  1.6083609E-03;  0.0000000E+00; -1.0443593E-05;  1.2455045E+02;
 -1.2000000E-01;  9.9999998E-03; -7.0000000E-02;764;  0.0000000E+00;  0.0000000E+00;  0.0000000E+00;  1.0000000E+03;  1.0000000E-01;  0.0000000E+00;0;  0.0000000E+00;  0.0000000E+00;  0.0000000E+00;0;  1.6015481E-03;  4.0000000E+04;  0.0000000E+00;  0.0000000E+00;  4.0000000E+04;  0.0000000E+00;  4.0000000E+04;  1.6111336E-03;  0.0000000E+00; -9.5855348E-06;  1.2567174E+02;
 -1.2000000E-01;  9.9999998E-03; -5.9999999E-02;765;  0.0000000E+00;  0.0000000E+00;  0.0000000E+00;  1.0000000E+03;  1.0000000E-01;  0.0000000E+00;0;  0.0000000E+00;  0.0000000E+00;  0.0000000E+00;0;  1.6022631E-03;  4.0000000E+04;  0.0000000E+00;  0.0000000E+00;  4.0000000E+04;  0.0000000E+00;  4.0000000E+04;  1.6107175E-03;  0.0000000E+00; -8.4543899E-06;  1.2624490E+02;
 -1.2000000E-01;  9.9999998E-03; -5.0000001E-02;766;  0.0000000E+00;  0.0000000E+00;  0.0000000E+00;  1.0000000E+03;  1.0000000E-01;  0.0000000E+00;0;  0.0000000E+00;  0.0000000E+00;  0.0000000E+00;0;  1.6008632E-03;  4.0000000E+04;  0.0000000E+00;  0.0000000E+00;  4.0000000E+04;  0.0000000E+00;  4.0000000E+04;  1.6080391E-03;  0.0000000E+00; -7.1759882E-06;  1.2628664E+02;
 -1.2000000E-01;  9.9999998E-03; -3.9999999E-02;767;  0.0000000E+00;  0.0000000E+00;  0.0000000E+00;  1.0000000E+03;  1.0000000E-01;  0.0000000E+00;0;  0.0000000E+00;  0.0000000E+00;  0.0000000E+00;0;  1.5982167E-03;  4.0000000E+04;  0.0000000E+00;  0.0000000E+00;  4.0000000E+04;  0.0000000E+00;  4.0000000E+04;  1.6041031E-03;  0.0000000E+00; -5.8864407E-06;  1.2589835E+02;
 -1.2000000E-01;  9.9999998E-03; -2.9999999E-02;768;  0.0000000E+00;  0.0000000E+00;  0.0000000E+00;  1.0000000E+03;  1.0000000E-01;  0.0000000E+00;0;  0.0000000E+00;  0.0000000E+00;  0.0000000E+00;0;  1.5951641E-03;  4.0000000E+04;  0.0000000E+00;  0.0000000E+00;  4.0000000E+04;  0.0000000E+00;  4.0000000E+04;  1.5998827E-03;  0.0000000E+00; -4.7186941E-06;  1.2525028E+02;
 -1.2000000E-01;  9.9999998E-03; -2.0000000E-02;769;  0.0000000E+00;  0.0000000E+00;  0.0000000E+00;  1.0000000E+03;  1.0000000E-01;  0.0000000E+00;0;  0.0000000E+00;  0.0000000E+00;  0.0000000E+00;0;  1.5924219E-03;  4.0000000E+04;  0.0000000E+00;  0.0000000E+00;  4.0000000E+04;  0.0000000E+00;  4.0000000E+04;  1.5962124E-03;  0.0000000E+00; -3.7905304E-06;  1.2455882E+02;
 -1.2000000E-01;  9.9999998E-03; -9.9999998E-03;770;  0.0000000E+00;  0.0000000E+00;  0.0000000E+00;  1.0000000E+03;  1.0000000E-01;  0.0000000E+00;0;  0.0000000E+00;  0.0000000E+00;  0.0000000E+00;0;  1.5905461E-03;  4.0000000E+04;  0.0000000E+00;  0.0000000E+00;  4.0000000E+04;  0.0000000E+00;  4.0000000E+04;  1.5937404E-03;  0.0000000E+00; -3.1942807E-06;  1.2403811E+02;
 -1.2000000E-01;  9.9999998E-03;  0.0000000E+00;771;  0.0000000E+00;  0.0000000E+00;  0.0000000E+00;  1.0000000E+03;  1.0000000E-01;  0.0000000E+00;0;  0.0000000E+00;  0.0000000E+00;  0.0000000E+00;0;  1.5898806E-03;  4.0000000E+04;  0.0000000E+00;  0.0000000E+00;  4.0000000E+04;  0.0000000E+00;  4.0000000E+04;  1.5928694E-03;  0.0000000E+00; -2.9887997E-06;  1.2384509E+02;
 -1.2000000E-01;  9.9999998E-03;  9.9999998E-03;772;  0.0000000E+00;  0.0000000E+00;  0.0000000E+00;  1.0000000E+03;  1.0000000E-01;  0.0000000E+00;0;  0.0000000E+00;  0.0000000E+00;  0.0000000E+00;0;  1.5905472E-03;  4.0000000E+04;  0.0000000E+00;  0.0000000E+00;  4.0000000E+04;  0.0000000E+00;  4.0000000E+04;  1.5937415E-03;  0.0000000E+00; -3.1943055E-06;  1.2403821E+02;
 -1.2000000E-01;  9.9999998E-03;  2.0000000E-02;773;  0.0000000E+00;  0.0000000E+00;  0.0000000E+00;  1.0000000E+03;  1.0000000E-01;  0.0000000E+00;0;  0.0000000E+00;  0.0000000E+00;  0.0000000E+00;0;  1.5924228E-03;  4.0000000E+04;  0.0000000E+00;  0.0000000E+00;  4.0000000E+04;  0.0000000E+00;  4.0000000E+04;  1.5962134E-03;  0.0000000E+00; -3.7905761E-06;  1.2455900E+02;
 -1.2000000E-01;  9.9999998E-03;  2.9999999E-02;774;  0.0000000E+00;  0.0000000E+00;  0.0000000E+00;  1.0000000E+03;  1.0000000E-01;  0.0000000E+00;0;  0.0000000E+00;  0.0000000E+00;  0.0000000E+00;0;  1.5951656E-03;  4.0000000E+04;  0.0000000E+00;  0.0000000E+00;  4.0000000E+04;  0.0000000E+00;  4.0000000E+04;  1.5998844E-03;  0.0000000E+00; -4.7187596E-06;  1.2525047E+02;
 -1.2000000E-01;  9.9999998E-03;  3.9999999E-02;775;  0.0000000E+00;  0.0000000E+00;  0.0000000E+00;  1.0000000E+03;  1.0000000E-01;  0.0000000E+00;0;  0.0000000E+00;  0.0000000E+00;  0.0000000E+00;0;  1.5982193E-03;  4.0000000E+04;  0.0000000E+00;  0.0000000E+00;  4.0000000E+04;  0.0000000E+00;  4.0000000E+04;  1.6041058E-03;  0.0000000E+00; -5.8865166E-06;  1.2589864E+02;
 -1.2000000E-01;  9.9999998E-03;  5.0000001E-02;776;  0.0000000E+00;  0.0000000E+00;  0.0000000E+00;  1.0000000E+03;  1.0000000E-01;  0.0000000E+00;0;  0.0000000E+00;  0.0000000E+00;  0.0000000E+00;0;  1.6008661E-03;  4.0000000E+04;  0.0000000E+00;  0.0000000E+00;  4.0000000E+04;  0.0000000E+00;  4.0000000E+04;  1.6080422E-03;  0.0000000E+00; -7.1760733E-06;  1.2628699E+02;
 -1.2000000E-01;  9.9999998E-03;  5.9999999E-02;777;  0.0000000E+00;  0.0000000E+00;  0.0000000E+00;  1.0000000E+03;  1.0000000E-01;  0.0000000E+00;0;  0.0000000E+00;  0.0000000E+00;  0.0000000E+00;0;  1.6022658E-03;  4.0000000E+04;  0.0000000E+00;  0.0000000E+00;  4.0000000E+04;  0.0000000E+00;  4.0000000E+04;  1.6107202E-03;  0.0000000E+00; -8.4544827E-06;  1.2624514E+02;
 -1.1000000E-01;  9.9999998E-03; -1.0000000E-01;852;  0.0000000E+00;  0.0000000E+00;  0.0000000E+00;  1.0000000E+03;  1.0000000E-01;  0.0000000E+00;0;  0.0000000E+00;  0.0000000E+00;  0.0000000E+00;0;  2.9538721E-03;  4.0000000E+04;  0.0000000E+00;  0.0000000E+00;  4.0000000E+04;  0.0000000E+00;  4.0000000E+04;  2.9797661E-03;  0.0000000E+00; -2.5893944E-05;  2.1887393E+02;
 -1.1000000E-01;  9.9999998E-03; -9.0000004E-02;853;  0.0000000E+00;  0.0000000E+00;  0.0000000E+00;  1.0000000E+03;  1.0000000E-01;  0.0000000E+00;0;  0.0000000E+00;  0.0000000E+00;  0.0000000E+00;0;  2.9756336E-03;  4.0000000E+04;  0.0000000E+00;  0.0000000E+00;  4.0000000E+04;  0.0000000E+00;  4.0000000E+04;  3.0014568E-03;  0.0000000E+00; -2.5823292E-05;  2.2368486E+02;
 -1.1000000E-01;  9.9999998E-03; -7.9999998E-02;854;  0.0000000E+00;  0.0000000E+00;  0.0000000E+00;  1.0000000E+03;  1.0000000E-01;  0.0000000E+00;0;  0.0000000E+00;  0.0000000E+00;  0.0000000E+00;0;  2.9901043E-03;  4.0000000E+04;  0.0000000E+00;  0.0000000E+00;  4.0000000E+04;  0.0000000E+00;  4.0000000E+04;  3.0149112E-03;  0.0000000E+00; -2.4806961E-05;  2.2758630E+02;
 -1.1000000E-01;  9.9999998E-03; -7.0000000E-02;855;  0.0000000E+00;  0.0000000E+00;  0.0000000E+00;  1.0000000E+03;  1.0000000E-01;  0.0000000E+00;0;  0.0000000E+00;  0.0000000E+00;  0.0000000E+00;0;  2.9979427E-03;  4.0000000E+04;  0.0000000E+00;  0.0000000E+00;  4.0000000E+04;  0.0000000E+00;  4.0000000E+04;  3.0209047E-03;  0.0000000E+00; -2.2962018E-05;  2.3033910E+02;
 -1.1000000E-01;  9.9999998E-03; -5.9999999E-02;856;  0.0000000E+00;  0.0000000E+00;  0.0000000E+00;  1.0000000E+03;  1.0000000E-01;  0.0000000E+00;0;  0.0000000E+00;  0.0000000E+00;  0.0000000E+00;0;  3.0002741E-03;  4.0000000E+04;  0.0000000E+00;  0.0000000E+00;  4.0000000E+04;  0.0000000E+00;  4.0000000E+04;  3.0207739E-03;  0.0000000E+00; -2.0499838E-05;  2.3186247E+02;
 -1.1000000E-01;  9.9999998E-03; -5.0000001E-02;857;  0.0000000E+00;  0.0000000E+00;  0.0000000E+00;  1.0000000E+03;  1.0000000E-01;  0.0000000E+00;0;  0.0000000E+00;  0.0000000E+00;  0.0000000E+00;0;  2.9985430E-03;  4.0000000E+04;  0.0000000E+00;  0.0000000E+00;  4.0000000E+04;  0.0000000E+00;  4.0000000E+04;  3.0162374E-03;  0.0000000E+00; -1.7694507E-05;  2.3224553E+02;
 -1.1000000E-01;  9.9999998E-03; -3.9999999E-02;858;  0.0000000E+00;  0.0000000E+00;  0.0000000E+00;  1.0000000E+03;  1.0000000E-01;  0.0000000E+00;0;  0.0000000E+00;  0.0000000E+00;  0.0000000E+00;0;  2.9943287E-03;  4.0000000E+04;  0.0000000E+00;  0.0000000E+00;  4.0000000E+04;  0.0000000E+00;  4.0000000E+04;  3.0091777E-03;  0.0000000E+00; -1.4849023E-05;  2.3174240E+02;
 -1.1000000E-01;  9.9999998E-03; -2.9999999E-02;859;  0.0000000E+00;  0.0000000E+00;  0.0000000E+00;  1.0000000E+03;  1.0000000E-01;  0.0000000E+00;0;  0.0000000E+00;  0.0000000E+00;  0.0000000E+00;0;  2.9891757E-03;  4.0000000E+04;  0.0000000E+00;  0.0000000E+00;  4.0000000E+04;  0.0000000E+00;  4.0000000E+04;  3.0014385E-03;  0.0000000E+00; -1.2262703E-05;  2.3071513E+02;
 -1.1000000E-01;  9.9999998E-03; -2.0000000E-02;860;  0.0000000E+00;  0.0000000E+00;  0.0000000E+00;  1.0000000E+03;  1.0000000E-01;  0.0000000E+00;0;  0.0000000E+00;  0.0000000E+00;  0.0000000E+00;0;  2.9844297E-03;  4.0000000E+04;  0.0000000E+00;  0.0000000E+00;  4.0000000E+04;  0.0000000E+00;  4.0000000E+04;  2.9946319E-03;  0.0000000E+00; -1.0202068E-05;  2.2957791E+02;
 -1.1000000E-01;  9.9999998E-03; -9.9999998E-03;861;  0.0000000E+00;  0.0000000E+00;  0.0000000E+00;  1.0000000E+03;  1.0000000E-01;  0.0000000E+00;0;  0.0000000E+00;  0.0000000E+00;  0.0000000E+00;0;  2.9811456E-03;  4.0000000E+04;  0.0000000E+00;  0.0000000E+00;  4.0000000E+04;  0.0000000E+00;  4.0000000E+04;  2.9900221E-03;  0.0000000E+00; -8.8764873E-06;  2.2871486E+02;
 -1.1000000E-01;  9.9999998E-03;  0.0000000E+00;862;  0.0000000E+00;  0.0000000E+00;  0.0000000E+00;  1.0000000E+03;  1.0000000E-01;  0.0000000E+00;0;  0.0000000E+00;  0.0000000E+00;  0.0000000E+00;0;  2.9799759E-03;  4.0000000E+04;  0.0000000E+00;  0.0000000E+00;  4.0000000E+04;  0.0000000E+00;  4.0000000E+04;  2.9883953E-03;  0.0000000E+00; -8.4193689E-06;  2.2839342E+02;
 -1.1000000E-01;  9.9999998E-03;  9.9999998E-03;863;  0.0000000E+00;  0.0000000E+00;  0.0000000E+00;  1.0000000E+03;  1.0000000E-01;  0.0000000E+00;0;  0.0000000E+00;  0.0000000E+00;  0.0000000E+00;0;  2.9811473E-03;  4.0000000E+04;  0.0000000E+00;  0.0000000E+00;  4.0000000E+04;  0.0000000E+00;  4.0000000E+04;  2.9900237E-03;  0.0000000E+00; -8.8765337E-06;  2.2871516E+02;
 -1.1000000E-01;  9.9999998E-03;  2.0000000E-02;864;  0.0000000E+00;  0.0000000E+00;  0.0000000E+00;  1.0000000E+03;  1.0000000E-01;  0.0000000E+00;0;  0.0000000E+00;  0.0000000E+00;  0.0000000E+00;0;  2.9844318E-03;  4.0000000E+04;  0.0000000E+00;  0.0000000E+00;  4.0000000E+04;  0.0000000E+00;  4.0000000E+04;  2.9946340E-03;  0.0000000E+00; -1.0202158E-05;  2.2957848E+02;
 -1.1000000E-01;  9.9999998E-03;  2.9999999E-02;865;  0.0000000E+00;  0.0000000E+00;  0.0000000E+00;  1.0000000E+03;  1.0000000E-01;  0.0000000E+00;0;  0.0000000E+00;  0.0000000E+00;  0.0000000E+00;0;  2.9891785E-03;  4.0000000E+04;  0.0000000E+00;  0.0000000E+00;  4.0000000E+04;  0.0000000E+00;  4.0000000E+04;  3.0014412E-03;  0.0000000E+00; -1.2262820E-05;  2.3071602E+02;
 -1.1000000E-01;  9.9999998E-03;  3.9999999E-02;866;  0.0000000E+00;  0.0000000E+00;  0.0000000E+00;  1.0000000E+03;  1.0000000E-01;  0.0000000E+00;0;  0.0000000E+00;  0.0000000E+00;  0.0000000E+00;0;  2.9943318E-03;  4.0000000E+04;  0.0000000E+00;  0.0000000E+00;  4.0000000E+04;  0.0000000E+00;  4.0000000E+04;  3.0091810E-03;  0.0000000E+00; -1.4849170E-05;  2.3174323E+02;
 -1.1000000E-01;  9.9999998E-03;  5.0000001E-02;867;  0.0000000E+00;  0.0000000E+00;  0.0000000E+00;  1.0000000E+03;  1.0000000E-01;  0.0000000E+00;0;  0.0000000E+00;  0.0000000E+00;  0.0000000E+00;0;  2.9985495E-03;  4.0000000E+04;  0.0000000E+00;  0.0000000E+00;  4.0000000E+04;  0.0000000E+00;  4.0000000E+04;  3.0162442E-03;  0.0000000E+00; -1.7694671E-05;  2.3224658E+02;
 -1.1000000E-01;  9.9999998E-03;  5.9999999E-02;868;  0.0000000E+00;  0.0000000E+00;  0.0000000E+00;  1.0000000E+03;  1.0000000E-01;  0.0000000E+00;0;  0.0000000E+00;  0.0000000E+00;  0.0000000E+00;0;  3.0002806E-03;  4.0000000E+04;  0.0000000E+00;  0.0000000E+00;  4.0000000E+04;  0.0000000E+00;  4.0000000E+04;  3.0207806E-03;  0.0000000E+00; -2.0500036E-05;  2.3186325E+02;
 -1.0000000E-01;  9.9999998E-03; -1.0000000E-01;943;  0.0000000E+00;  0.0000000E+00;  0.0000000E+00;  1.0000000E+03;  1.0000000E-01;  0.0000000E+00;0;  0.0000000E+00;  0.0000000E+00;  0.0000000E+00;0;  4.8797838E-03;  4.0000000E+04;  0.0000000E+00;  0.0000000E+00;  4.0000000E+04;  0.0000000E+00;  4.0000000E+04;  4.9322601E-03;  0.0000000E+00; -5.2476353E-05;  3.5338712E+02;
 -1.0000000E-01;  9.9999998E-03; -9.0000004E-02;944;  0.0000000E+00;  0.0000000E+00;  0.0000000E+00;  1.0000000E+03;  1.0000000E-01;  0.0000000E+00;0;  0.0000000E+00;  0.0000000E+00;  0.0000000E+00;0;  4.9173604E-03;  4.0000000E+04;  0.0000000E+00;  0.0000000E+00;  4.0000000E+04;  0.0000000E+00;  4.0000000E+04;  4.9697459E-03;  0.0000000E+00; -5.2385516E-05;  3.6299008E+02;
 -1.0000000E-01;  9.9999998E-03; -7.9999998E-02;945;  0.0000000E+00;  0.0000000E+00;  0.0000000E+00;  1.0000000E+03;  1.0000000E-01;  0.0000000E+00;0;  0.0000000E+00;  0.0000000E+00;  0.0000000E+00;0;  4.9429308E-03;  4.0000000E+04;  0.0000000E+00;  0.0000000E+00;  4.0000000E+04;  0.0000000E+00;  4.0000000E+04;  4.9934727E-03;  0.0000000E+00; -5.0541883E-05;  3.7087244E+02;
 -1.0000000E-01;  9.9999998E-03; -7.0000000E-02;946;  0.0000000E+00;  0.0000000E+00;  0.0000000E+00;  1.0000000E+03;  1.0000000E-01;  0.0000000E+00;0;  0.0000000E+00;  0.0000000E+00;  0.0000000E+00;0;  4.9575637E-03;  4.0000000E+04;  0.0000000E+00;  0.0000000E+00;  4.0000000E+04;  0.0000000E+00;  4.0000000E+04;  5.0046989E-03;  0.0000000E+00; -4.7135232E-05;  3.7656937E+02;
 -1.0000000E-01;  9.9999998E-03; -5.9999999E-02;947;  0.0000000E+00;  0.0000000E+00;  0.0000000E+00;  1.0000000E+03;  1.0000000E-01;  0.0000000E+00;0;  0.0000000E+00;  0.0000000E+00;  0.0000000E+00;0;  4.9630152E-03;  4.0000000E+04;  0.0000000E+00;  0.0000000E+00;  4.0000000E+04;  0.0000000E+00;  4.0000000E+04;  5.0055576E-03;  0.0000000E+00; -4.2542179E-05;  3.7994470E+02;
 -1.0000000E-01;  9.9999998E-03; -5.0000001E-02;948;  0.0000000E+00;  0.0000000E+00;  0.0000000E+00;  1.0000000E+03;  1.0000000E-01;  0.0000000E+00;0;  0.0000000E+00;  0.0000000E+00;  0.0000000E+00;0;  4.9615945E-03;  4.0000000E+04;  0.0000000E+00;  0.0000000E+00;  4.0000000E+04;  0.0000000E+00;  4.0000000E+04;  4.9988651E-03;  0.0000000E+00; -3.7270678E-05;  3.8120224E+02;
 -1.0000000E-01;  9.9999998E-03; -3.9999999E-02;949;  0.0000000E+00;  0.0000000E+00;  0.0000000E+00;  1.0000000E+03;  1.0000000E-01;  0.0000000E+00;0;  0.0000000E+00;  0.0000000E+00;  0.0000000E+00;0;  4.9558431E-03;  4.0000000E+04;  0.0000000E+00;  0.0000000E+00;  4.0000000E+04;  0.0000000E+00;  4.0000000E+04;  4.9877381E-03;  0.0000000E+00; -3.1895015E-05;  3.8081766E+02;
 -1.0000000E-01;  9.9999998E-03; -2.9999999E-02;950;  0.0000000E+00;  0.0000000E+00;  0.0000000E+00;  1.0000000E+03;  1.0000000E-01;  0.0000000E+00;0;  0.0000000E+00;  0.0000000E+00;  0.0000000E+00;0;  4.9482770E-03;  4.0000000E+04;  0.0000000E+00;  0.0000000E+00;  4.0000000E+04;  0.0000000E+00;  4.0000000E+04;  4.9752672E-03;  0.0000000E+00; -2.6990254E-05;  3.7944699E+02;
 -1.0000000E-01;  9.9999998E-03; -2.0000000E-02;951;  0.0000000E+00;  0.0000000E+00;  0.0000000E+00;  1.0000000E+03;  1.0000000E-01;  0.0000000E+00;0;  0.0000000E+00;  0.0000000E+00;  0.0000000E+00;0;  4.9411235E-03;  4.0000000E+04;  0.0000000E+00;  0.0000000E+00;  4.0000000E+04;  0.0000000E+00;  4.0000000E+04;  4.9641957E-03;  0.0000000E+00; -2.3072287E-05;  3.7780899E+02;
 -1.0000000E-01;  9.9999998E-03; -9.9999998E-03;952;  0.0000000E+00;  0.0000000E+00;  0.0000000E+00;  1.0000000E+03;  1.0000000E-01;  0.0000000E+00;0;  0.0000000E+00;  0.0000000E+00;  0.0000000E+00;0;  4.9360902E-03;  4.0000000E+04;  0.0000000E+00;  0.0000000E+00;  4.0000000E+04;  0.0000000E+00;  4.0000000E+04;  4.9566380E-03;  0.0000000E+00; -2.0547808E-05;  3.7653317E+02;
 -1.0000000E-01;  9.9999998E-03;  0.0000000E+00;953;  0.0000000E+00;  0.0000000E+00;  0.0000000E+00;  1.0000000E+03;  1.0000000E-01;  0.0000000E+00;0;  0.0000000E+00;  0.0000000E+00;  0.0000000E+00;0;  4.9342932E-03;  4.0000000E+04;  0.0000000E+00;  0.0000000E+00;  4.0000000E+04;  0.0000000E+00;  4.0000000E+04;  4.9539697E-03;  0.0000000E+00; -1.9676601E-05;  3.7605743E+02;
 -1.0000000E-01;  9.9999998E-03;  9.9999998E-03;954;  0.0000000E+00;  0.0000000E+00;  0.0000000E+00;  1.0000000E+03;  1.0000000E-01;  0.0000000E+00;0;  0.0000000E+00;  0.0000000E+00;  0.0000000E+00;0;  4.9360907E-03;  4.0000000E+04;  0.0000000E+00;  0.0000000E+00;  4.0000000E+04;  0.0000000E+00;  4.0000000E+04;  4.9566384E-03;  0.0000000E+00; -2.0547886E-05;  3.7653354E+02;
 -1.0000000E-01;  9.9999998E-03;  2.0000000E-02;955;  0.0000000E+00;  0.0000000E+00;  0.0000000E+00;  1.0000000E+03;  1.0000000E-01;  0.0000000E+00;0;  0.0000000E+00;  0.0000000E+00;  0.0000000E+00;0;  4.9411249E-03;  4.0000000E+04;  0.0000000E+00;  0.0000000E+00;  4.0000000E+04;  0.0000000E+00;  4.0000000E+04;  4.9641975E-03;  0.0000000E+00; -2.3072440E-05;  3.7780969E+02;
 -1.0000000E-01;  9.9999998E-03;  2.9999999E-02;956;  0.0000000E+00;  0.0000000E+00;  0.0000000E+00;  1.0000000E+03;  1.0000000E-01;  0.0000000E+00;0;  0.0000000E+00;  0.0000000E+00;  0.0000000E+00;0;  4.9482812E-03;  4.0000000E+04;  0.0000000E+00;  0.0000000E+00;  4.0000000E+04;  0.0000000E+00;  4.0000000E+04;  4.9752719E-03;  0.0000000E+00; -2.6990463E-05;  3.7944830E+02;
 -1.0000000E-01;  9.9999998E-03;  3.9999999E-02;957;  0.0000000E+00;  0.0000000E+00;  0.0000000E+00;  1.0000000E+03;  1.0000000E-01;  0.0000000E+00;0;  0.0000000E+00;  0.0000000E+00;  0.0000000E+00;0;  4.9558487E-03;  4.0000000E+04;  0.0000000E+00;  0.0000000E+00;  4.0000000E+04;  0.0000000E+00;  4.0000000E+04;  4.9877441E-03;  0.0000000E+00; -3.1895281E-05;  3.8081921E+02;
 -1.0000000E-01;  9.9999998E-03;  5.0000001E-02;958;  0.0000000E+00;  0.0000000E+00;  0.0000000E+00;  1.0000000E+03;  1.0000000E-01;  0.0000000E+00;0;  0.0000000E+00;  0.0000000E+00;  0.0000000E+00;0;  4.9616010E-03;  4.0000000E+04;  0.0000000E+00;  0.0000000E+00;  4.0000000E+04;  0.0000000E+00;  4.0000000E+04;  4.9988721E-03;  0.0000000E+00; -3.7270984E-05;  3.8120355E+02;
 -1.0000000E-01;  9.9999998E-03;  5.9999999E-02;959;  0.0000000E+00;  0.0000000E+00;  0.0000000E+00;  1.0000000E+03;  1.0000000E-01;  0.0000000E+00;0;  0.0000000E+00;  0.0000000E+00;  0.0000000E+00;0;  4.9630268E-03;  4.0000000E+04;  0.0000000E+00;  0.0000000E+00;  4.0000000E+04;  0.0000000E+00;  4.0000000E+04;  5.0055692E-03;  0.0000000E+00; -4.2542561E-05;  3.7994614E+02;
 -9.0000004E-02;  9.9999998E-03; -1.0000000E-01;1034;  0.0000000E+00;  0.0000000E+00;  0.0000000E+00;  1.0001077E+03;  1.0000000E-01;  8.9182663E+01;0;  0.0000000E+00;  0.0000000E+00;  0.0000000E+00;0;  7.3767416E-03;  4.0000000E+04;  0.0000000E+00;  0.0000000E+00;  4.0000000E+04;  0.0000000E+00;  4.0000000E+04;  7.4718115E-03;  0.0000000E+00; -9.5069954E-05;  5.2509747E+02;
 -9.0000004E-02;  9.9999998E-03; -9.0000004E-02;1035;  0.0000000E+00;  0.0000000E+00;  0.0000000E+00;  1.0000976E+03;  1.0000000E-01;  8.0886604E+01;0;  0.0000000E+00;  0.0000000E+00;  0.0000000E+00;0;  7.4360101E-03;  4.0000000E+04;  0.0000000E+00;  0.0000000E+00;  4.0000000E+04;  0.0000000E+00;  4.0000000E+04;  7.5309807E-03;  0.0000000E+00; -9.4970463E-05;  5.4184399E+02;
 -9.0000004E-02;  9.9999998E-03; -7.9999998E-02;1036;  0.0000000E+00;  0.0000000E+00;  0.0000000E+00;  1.0000850E+03;  1.0000000E-01;  7.0417763E+01;0;  0.0000000E+00;  0.0000000E+00;  0.0000000E+00;0;  7.4770916E-03;  4.0000000E+04;  0.0000000E+00;  0.0000000E+00;  4.0000000E+04;  0.0000000E+00;  4.0000000E+04;  7.5690709E-03;  0.0000000E+00; -9.1979149E-05;  5.5582074E+02;
 -9.0000004E-02;  9.9999998E-03; -7.0000000E-02;1037;  0.0000000E+00;  0.0000000E+00;  0.0000000E+00;  1.0000736E+03;  1.0000000E-01;  6.0936546E+01;0;  0.0000000E+00;  0.0000000E+00;  0.0000000E+00;0;  7.5015458E-03;  4.0000000E+04;  0.0000000E+00;  0.0000000E+00;  4.0000000E+04;  0.0000000E+00;  4.0000000E+04;  7.5879125E-03;  0.0000000E+00; -8.6366643E-05;  5.6618317E+02;
 -9.0000004E-02;  9.9999998E-03; -5.9999999E-02;1038;  0.0000000E+00;  0.0000000E+00;  0.0000000E+00;  1.0000645E+03;  1.0000000E-01;  5.3430588E+01;0;  0.0000000E+00;  0.0000000E+00;  0.0000000E+00;0;  7.5119874E-03;  4.0000000E+04;  0.0000000E+00;  0.0000000E+00;  4.0000000E+04;  0.0000000E+00;  4.0000000E+04;  7.5907158E-03;  0.0000000E+00; -7.8728444E-05;  5.7268311E+02;
 -9.0000004E-02;  9.9999998E-03; -5.0000001E-02;1039;  0.0000000E+00;  0.0000000E+00;  0.0000000E+00;  1.0000544E+03;  1.0000000E-01;  4.5134525E+01;0;  0.0000000E+00;  0.0000000E+00;  0.0000000E+00;0;  7.5118085E-03;  4.0000000E+04;  0.0000000E+00;  0.0000000E+00;  4.0000000E+04;  0.0000000E+00;  4.0000000E+04;  7.5817080E-03;  0.0000000E+00; -6.9899259E-05;  5.7564227E+02;
 -9.0000004E-02;  9.9999998E-03; -3.9999999E-02;1040;  0.0000000E+00;  0.0000000E+00;  0.0000000E+00;  1.0000474E+03;  1.0000000E-01;  3.9208767E+01;0;  0.0000000E+00;  0.0000000E+00;  0.0000000E+00;0;  7.5047836E-03;  4.0000000E+04;  0.0000000E+00;  0.0000000E+00;  4.0000000E+04;  0.0000000E+00;  4.0000000E+04;  7.5656292E-03;  0.0000000E+00; -6.0845672E-05;  5.7582312E+02;
 -9.0000004E-02;  9.9999998E-03; -2.9999999E-02;1041;  0.0000000E+00;  0.0000000E+00;  0.0000000E+00;  1.0000424E+03;  1.0000000E-01;  3.5159500E+01;0;  0.0000000E+00;  0.0000000E+00;  0.0000000E+00;0;  7.4946471E-03;  4.0000000E+04;  0.0000000E+00;  0.0000000E+00;  4.0000000E+04;  0.0000000E+00;  4.0000000E+04;  7.5471979E-03;  0.0000000E+00; -5.2551019E-05;  5.7428430E+02;
 -9.0000004E-02;  9.9999998E-03; -2.0000000E-02;1042;  0.0000000E+00;  0.0000000E+00;  0.0000000E+00;  1.0000394E+03;  1.0000000E-01;  3.2591671E+01;0;  0.0000000E+00;  0.0000000E+00;  0.0000000E+00;0;  7.4847634E-03;  4.0000000E+04;  0.0000000E+00;  0.0000000E+00;  4.0000000E+04;  0.0000000E+00;  4.0000000E+04;  7.5306692E-03;  0.0000000E+00; -4.5906017E-05;  5.7215668E+02;
 -9.0000004E-02;  9.9999998E-03; -9.9999998E-03;1043;  0.0000000E+00;  0.0000000E+00;  0.0000000E+00;  1.0000371E+03;  1.0000000E-01;  3.0715181E+01;0;  0.0000000E+00;  0.0000000E+00;  0.0000000E+00;0;  7.4777105E-03;  4.0000000E+04;  0.0000000E+00;  0.0000000E+00;  4.0000000E+04;  0.0000000E+00;  4.0000000E+04;  7.5193271E-03;  0.0000000E+00; -4.1616517E-05;  5.7043146E+02;
 -9.0000004E-02;  9.9999998E-03;  0.0000000E+00;1044;  0.0000000E+00;  0.0000000E+00;  0.0000000E+00;  1.0000358E+03;  1.0000000E-01;  2.9727554E+01;0;  0.0000000E+00;  0.0000000E+00;  0.0000000E+00;0;  7.4751750E-03;  4.0000000E+04;  0.0000000E+00;  0.0000000E+00;  4.0000000E+04;  0.0000000E+00;  4.0000000E+04;  7.5153098E-03;  0.0000000E+00; -4.0134855E-05;  5.6977759E+02;
 -9.0000004E-02;  9.9999998E-03;  9.9999998E-03;1045;  0.0000000E+00;  0.0000000E+00;  0.0000000E+00;  1.0000371E+03;  1.0000000E-01;  3.0715181E+01;0;  0.0000000E+00;  0.0000000E+00;  0.0000000E+00;0;  7.4777147E-03;  4.0000000E+04;  0.0000000E+00;  0.0000000E+00;  4.0000000E+04;  0.0000000E+00;  4.0000000E+04;  7.5193313E-03;  0.0000000E+00; -4.1616644E-05;  5.7043237E+02;
 -9.0000004E-02;  9.9999998E-03;  2.0000000E-02;1046;  0.0000000E+00;  0.0000000E+00;  0.0000000E+00;  1.0000394E+03;  1.0000000E-01;  3.2591671E+01;0;  0.0000000E+00;  0.0000000E+00;  0.0000000E+00;0;  7.4847681E-03;  4.0000000E+04;  0.0000000E+00;  0.0000000E+00;  4.0000000E+04;  0.0000000E+00;  4.0000000E+04;  7.5306743E-03;  0.0000000E+00; -4.5906247E-05;  5.7215759E+02;
 -9.0000004E-02;  9.9999998E-03;  2.9999999E-02;1047;  0.0000000E+00;  0.0000000E+00;  0.0000000E+00;  1.0000424E+03;  1.0000000E-01;  3.5159500E+01;0;  0.0000000E+00;  0.0000000E+00;  0.0000000E+00;0;  7.4946587E-03;  4.0000000E+04;  0.0000000E+00;  0.0000000E+00;  4.0000000E+04;  0.0000000E+00;  4.0000000E+04;  7.5472100E-03;  0.0000000E+00; -5.2551426E-05;  5.7428705E+02;
 -9.0000004E-02;  9.9999998E-03;  3.9999999E-02;1048;  0.0000000E+00;  0.0000000E+00;  0.0000000E+00;  1.0000473E+03;  1.0000000E-01;  3.9208767E+01;0;  0.0000000E+00;  0.0000000E+00;  0.0000000E+00;0;  7.5047878E-03;  4.0000000E+04;  0.0000000E+00;  0.0000000E+00;  4.0000000E+04;  0.0000000E+00;  4.0000000E+04;  7.5656339E-03;  0.0000000E+00; -6.0846123E-05;  5.7582532E+02;
 -9.0000004E-02;  9.9999998E-03;  5.0000001E-02;1049;  0.0000000E+00;  0.0000000E+00;  0.0000000E+00;  1.0000544E+03;  1.0000000E-01;  4.5134525E+01;0;  0.0000000E+00;  0.0000000E+00;  0.0000000E+00;0;  7.5118248E-03;  4.0000000E+04;  0.0000000E+00;  0.0000000E+00;  4.0000000E+04;  0.0000000E+00;  4.0000000E+04;  7.5817248E-03;  0.0000000E+00; -6.9899790E-05;  5.7564423E+02;
 -9.0000004E-02;  9.9999998E-03;  5.9999999E-02;1050;  0.0000000E+00;  0.0000000E+00;  0.0000000E+00;  1.0000645E+03;  1.0000000E-01;  5.3430588E+01;0;  0.0000000E+00;  0.0000000E+00;  0.0000000E+00;0;  7.5120004E-03;  4.0000000E+04;  0.0000000E+00;  0.0000000E+00;  4.0000000E+04;  0.0000000E+00;  4.0000000E+04;  7.5907293E-03;  0.0000000E+00; -7.8729114E-05;  5.7268384E+02;
 -7.9999998E-02;  9.9999998E-03; -1.0000000E-01;1125;  0.0000000E+00;  0.0000000E+00;  0.0000000E+00;  1.0004851E+03;  1.0000000E-01;  4.0186517E+02;0;  0.0000000E+00;  0.0000000E+00;  0.0000000E+00;0;  1.0419667E-02;  4.0000000E+04;  0.0000000E+00;  0.0000000E+00;  4.0000000E+04;  0.0000000E+00;  4.0000000E+04;  1.0577446E-02;  0.0000000E+00; -1.5777930E-04;  7.3121057E+02;
 -7.9999998E-02;  9.9999998E-03; -9.0000004E-02;1126;  0.0000000E+00;  0.0000000E+00;  0.0000000E+00;  1.0004678E+03;  1.0000000E-01;  3.8754459E+02;0;  0.0000000E+00;  0.0000000E+00;  0.0000000E+00;0;  1.0506847E-02;  4.0000000E+04;  0.0000000E+00;  0.0000000E+00;  4.0000000E+04;  0.0000000E+00;  4.0000000E+04;  1.0664565E-02;  0.0000000E+00; -1.5771823E-04;  7.5755426E+02;
 -7.9999998E-02;  9.9999998E-03; -7.9999998E-02;1127;  0.0000000E+00;  0.0000000E+00;  0.0000000E+00;  1.0004506E+03;  1.0000000E-01;  3.7332278E+02;0;  0.0000000E+00;  0.0000000E+00;  0.0000000E+00;0;  1.0568067E-02;  4.0000000E+04;  0.0000000E+00;  0.0000000E+00;  4.0000000E+04;  0.0000000E+00;  4.0000000E+04;  1.0721362E-02;  0.0000000E+00; -1.5329455E-04;  7.7993860E+02;
 -7.9999998E-02;  9.9999998E-03; -7.0000000E-02;1128;  0.0000000E+00;  0.0000000E+00;  0.0000000E+00;  1.0004343E+03;  1.0000000E-01;  3.5979230E+02;0;  0.0000000E+00;  0.0000000E+00;  0.0000000E+00;0;  1.0605546E-02;  4.0000000E+04;  0.0000000E+00;  0.0000000E+00;  4.0000000E+04;  0.0000000E+00;  4.0000000E+04;  1.0750402E-02;  0.0000000E+00; -1.4485573E-04;  7.9696356E+02;
 -7.9999998E-02;  9.9999998E-03; -5.9999999E-02;1129;  0.0000000E+00;  0.0000000E+00;  0.0000000E+00;  1.0004184E+03;  1.0000000E-01;  3.4665686E+02;0;  0.0000000E+00;  0.0000000E+00;  0.0000000E+00;0;  1.0622959E-02;  4.0000000E+04;  0.0000000E+00;  0.0000000E+00;  4.0000000E+04;  0.0000000E+00;  4.0000000E+04;  1.0756216E-02;  0.0000000E+00; -1.3325755E-04;  8.0815625E+02;
 -7.9999998E-02;  9.9999998E-03; -5.0000001E-02;1130;  0.0000000E+00;  0.0000000E+00;  0.0000000E+00;  1.0004060E+03;  1.0000000E-01;  3.3638556E+02;0;  0.0000000E+00;  0.0000000E+00;  0.0000000E+00;0;  1.0625019E-02;  4.0000000E+04;  0.0000000E+00;  0.0000000E+00;  4.0000000E+04;  0.0000000E+00;  4.0000000E+04;  1.0744768E-02;  0.0000000E+00; -1.1974947E-04;  8.1392126E+02;
 -7.9999998E-02;  9.9999998E-03; -3.9999999E-02;1131;  0.0000000E+00;  0.0000000E+00;  0.0000000E+00;  1.0003972E+03;  1.0000000E-01;  3.2907712E+02;0;  0.0000000E+00;  0.0000000E+00;  0.0000000E+00;0;  1.0617031E-02;  4.0000000E+04;  0.0000000E+00;  0.0000000E+00;  4.0000000E+04;  0.0000000E+00;  4.0000000E+04;  1.0722845E-02;  0.0000000E+00; -1.0581376E-04;  8.1534869E+02;
 -7.9999998E-02;  9.9999998E-03; -2.9999999E-02;1132;  0.0000000E+00;  0.0000000E+00;  0.0000000E+00;  1.0003907E+03;  1.0000000E-01;  3.2374393E+02;0;  0.0000000E+00;  0.0000000E+00;  0.0000000E+00;0;  1.0604229E-02;  4.0000000E+04;  0.0000000E+00;  0.0000000E+00;  4.0000000E+04;  0.0000000E+00;  4.0000000E+04;  1.0697215E-02;  0.0000000E+00; -9.2986273E-05;  8.1398035E+02;
 -7.9999998E-02;  9.9999998E-03; -2.0000000E-02;1133;  0.0000000E+00;  0.0000000E+00;  0.0000000E+00;  1.0003862E+03;  1.0000000E-01;  3.1989218E+02;0;  0.0000000E+00;  0.0000000E+00;  0.0000000E+00;0;  1.0591325E-02;  4.0000000E+04;  0.0000000E+00;  0.0000000E+00;  4.0000000E+04;  0.0000000E+00;  4.0000000E+04;  1.0674001E-02;  0.0000000E+00; -8.2675258E-05;  8.1147845E+02;
 -7.9999998E-02;  9.9999998E-03; -9.9999998E-03;1134;  0.0000000E+00;  0.0000000E+00;  0.0000000E+00;  1.0003840E+03;  1.0000000E-01;  3.1821323E+02;0;  0.0000000E+00;  0.0000000E+00;  0.0000000E+00;0;  1.0582000E-02;  4.0000000E+04;  0.0000000E+00;  0.0000000E+00;  4.0000000E+04;  0.0000000E+00;  4.0000000E+04;  1.0658005E-02;  0.0000000E+00; -7.6005148E-05;  8.0930505E+02;
 -7.9999998E-02;  9.9999998E-03;  0.0000000E+00;1135;  0.0000000E+00;  0.0000000E+00;  0.0000000E+00;  1.0003835E+03;  1.0000000E-01;  3.1771942E+02;0;  0.0000000E+00;  0.0000000E+00;  0.0000000E+00;0;  1.0578641E-02;  4.0000000E+04;  0.0000000E+00;  0.0000000E+00;  4.0000000E+04;  0.0000000E+00;  4.0000000E+04;  1.0652340E-02;  0.0000000E+00; -7.3698837E-05;  8.0846759E+02;
 -7.9999998E-02;  9.9999998E-03;  9.9999998E-03;1136;  0.0000000E+00;  0.0000000E+00;  0.0000000E+00;  1.0003840E+03;  1.0000000E-01;  3.1821323E+02;0;  0.0000000E+00;  0.0000000E+00;  0.0000000E+00;0;  1.0582011E-02;  4.0000000E+04;  0.0000000E+00;  0.0000000E+00;  4.0000000E+04;  0.0000000E+00;  4.0000000E+04;  1.0658016E-02;  0.0000000E+00; -7.6005330E-05;  8.0930597E+02;
 -7.9999998E-02;  9.9999998E-03;  2.0000000E-02;1137;  0.0000000E+00;  0.0000000E+00;  0.0000000E+00;  1.0003862E+03;  1.0000000E-01;  3.1989218E+02;0;  0.0000000E+00;  0.0000000E+00;  0.0000000E+00;0;  1.0591338E-02;  4.0000000E+04;  0.0000000E+00;  0.0000000E+00;  4.0000000E+04;  0.0000000E+00;  4.0000000E+04;  1.0674014E-02;  0.0000000E+00; -8.2675535E-05;  8.1148114E+02;
 -7.9999998E-02;  9.9999998E-03;  2.9999999E-02;1138;  0.0000000E+00;  0.0000000E+00;  0.0000000E+00;  1.0003907E+03;  1.0000000E-01;  3.2374393E+02;0;  0.0000000E+00;  0.0000000E+00;  0.0000000E+00;0;  1.0604240E-02;  4.0000000E+04;  0.0000000E+00;  0.0000000E+00;  4.0000000E+04;  0.0000000E+00;  4.0000000E+04;  1.0697227E-02;  0.0000000E+00; -9.2986738E-05;  8.1398315E+02;
 -7.9999998E-02;  9.9999998E-03;  3.9999999E-02;1139;  0.0000000E+00;  0.0000000E+00;  0.0000000E+00;  1.0003972E+03;  1.0000000E-01;  3.2907712E+02;0;  0.0000000E+00;  0.0000000E+00;  0.0000000E+00;0;  1.0617048E-02;  4.0000000E+04;  0.0000000E+00;  0.0000000E+00;  4.0000000E+04;  0.0000000E+00;  4.0000000E+04;  1.0722862E-02;  0.0000000E+00; -1.0581427E-04;  8.1535040E+02;
 -7.9999998E-02;  9.9999998E-03;  5.0000001E-02;1140;  0.0000000E+00;  0.0000000E+00;  0.0000000E+00;  1.0004060E+03;  1.0000000E-01;  3.3638556E+02;0;  0.0000000E+00;  0.0000000E+00;  0.0000000E+00;0;  1.0625042E-02;  4.0000000E+04;  0.0000000E+00;  0.0000000E+00;  4.0000000E+04;  0.0000000E+00;  4.0000000E+04;  1.0744792E-02;  0.0000000E+00; -1.1975020E-04;  8.1392365E+02;
 -7.9999998E-02;  9.9999998E-03;  5.9999999E-02;1141;  0.0000000E+00;  0.0000000E+00;  0.0000000E+00;  1.0004184E+03;  1.0000000E-01;  3.4665686E+02;0;  0.0000000E+00;  0.0000000E+00;  0.0000000E+00;0;  1.0622979E-02;  4.0000000E+04;  0.0000000E+00;  0.0000000E+00;  4.0000000E+04;  0.0000000E+00;  4.0000000E+04;  1.0756237E-02;  0.0000000E+00; -1.3325863E-04;  8.0816003E+02;
 -7.0000000E-02;  9.9999998E-03; -1.0000000E-01;1216;  0.0000000E+00;  0.0000000E+00;  0.0000000E+00;  1.0011373E+03;  1.0000000E-01;  9.4219556E+02;0;  0.0000000E+00;  0.0000000E+00;  0.0000000E+00;0;  1.3924606E-02;  4.0000000E+04;  0.0000000E+00;  0.0000000E+00;  4.0000000E+04;  0.0000000E+00;  4.0000000E+04;  1.4168303E-02;  0.0000000E+00; -2.4369624E-04;  9.6410382E+02;
 -7.0000000E-02;  9.9999998E-03; -9.0000004E-02;1217;  0.0000000E+00;  0.0000000E+00;  0.0000000E+00;  1.0011159E+03;  1.0000000E-01;  9.2451709E+02;0;  0.0000000E+00;  0.0000000E+00;  0.0000000E+00;0;  1.4045634E-02;  4.0000000E+04;  0.0000000E+00;  0.0000000E+00;  4.0000000E+04;  0.0000000E+00;  4.0000000E+04;  1.4289451E-02;  0.0000000E+00; -2.4381686E-04;  1.0021943E+03;
 -7.0000000E-02;  9.9999998E-03; -7.9999998E-02;1218;  0.0000000E+00;  0.0000000E+00;  0.0000000E+00;  1.0010895E+03;  1.0000000E-01;  9.0269049E+02;0;  0.0000000E+00;  0.0000000E+00;  0.0000000E+00;0;  1.4131304E-02;  4.0000000E+04;  0.0000000E+00;  0.0000000E+00;  4.0000000E+04;  0.0000000E+00;  4.0000000E+04;  1.4369112E-02;  0.0000000E+00; -2.3780743E-04;  1.0351643E+03;
 -7.0000000E-02;  9.9999998E-03; -7.0000000E-02;1219;  0.0000000E+00;  0.0000000E+00;  0.0000000E+00;  1.0010656E+03;  1.0000000E-01;  8.8274048E+02;0;  0.0000000E+00;  0.0000000E+00;  0.0000000E+00;0;  1.4184674E-02;  4.0000000E+04;  0.0000000E+00;  0.0000000E+00;  4.0000000E+04;  0.0000000E+00;  4.0000000E+04;  1.4410743E-02;  0.0000000E+00; -2.2606942E-04;  1.0608503E+03;
 -7.0000000E-02;  9.9999998E-03; -5.9999999E-02;1220;  0.0000000E+00;  0.0000000E+00;  0.0000000E+00;  1.0010468E+03;  1.0000000E-01;  8.6723474E+02;0;  0.0000000E+00;  0.0000000E+00;  0.0000000E+00;0;  1.4210692E-02;  4.0000000E+04;  0.0000000E+00;  0.0000000E+00;  4.0000000E+04;  0.0000000E+00;  4.0000000E+04;  1.4420434E-02;  0.0000000E+00; -2.0974188E-04;  1.0784141E+03;
 -7.0000000E-02;  9.9999998E-03; -5.0000001E-02;1221;  0.0000000E+00;  0.0000000E+00;  0.0000000E+00;  1.0010294E+03;  1.0000000E-01;  8.5281537E+02;0;  0.0000000E+00;  0.0000000E+00;  0.0000000E+00;0;  1.4215729E-02;  4.0000000E+04;  0.0000000E+00;  0.0000000E+00;  4.0000000E+04;  0.0000000E+00;  4.0000000E+04;  1.4406287E-02;  0.0000000E+00; -1.9055765E-04;  1.0882533E+03;
 -7.0000000E-02;  9.9999998E-03; -3.9999999E-02;1222;  0.0000000E+00;  0.0000000E+00;  0.0000000E+00;  1.0010131E+03;  1.0000000E-01;  8.3938367E+02;0;  0.0000000E+00;  0.0000000E+00;  0.0000000E+00;0;  1.4206867E-02;  4.0000000E+04;  0.0000000E+00;  0.0000000E+00;  4.0000000E+04;  0.0000000E+00;  4.0000000E+04;  1.4377494E-02;  0.0000000E+00; -1.7062787E-04;  1.0917827E+03;
 -7.0000000E-02;  9.9999998E-03; -2.9999999E-02;1223;  0.0000000E+00;  0.0000000E+00;  0.0000000E+00;  1.0010037E+03;  1.0000000E-01;  8.3148267E+02;0;  0.0000000E+00;  0.0000000E+00;  0.0000000E+00;0;  1.4191127E-02;  4.0000000E+04;  0.0000000E+00;  0.0000000E+00;  4.0000000E+04;  0.0000000E+00;  4.0000000E+04;  1.4343308E-02;  0.0000000E+00; -1.5218084E-04;  1.0910768E+03;
 -7.0000000E-02;  9.9999998E-03; -2.0000000E-02;1224;  0.0000000E+00;  0.0000000E+00;  0.0000000E+00;  1.0009966E+03;  1.0000000E-01;  8.2565564E+02;0;  0.0000000E+00;  0.0000000E+00;  0.0000000E+00;0;  1.4174841E-02;  4.0000000E+04;  0.0000000E+00;  0.0000000E+00;  4.0000000E+04;  0.0000000E+00;  4.0000000E+04;  1.4312132E-02;  0.0000000E+00; -1.3729079E-04;  1.0884180E+03;
 -7.0000000E-02;  9.9999998E-03; -9.9999998E-03;1225;  0.0000000E+00;  0.0000000E+00;  0.0000000E+00;  1.0009934E+03;  1.0000000E-01;  8.2298907E+02;0;  0.0000000E+00;  0.0000000E+00;  0.0000000E+00;0;  1.4162942E-02;  4.0000000E+04;  0.0000000E+00;  0.0000000E+00;  4.0000000E+04;  0.0000000E+00;  4.0000000E+04;  1.4290574E-02;  0.0000000E+00; -1.2763178E-04;  1.0858779E+03;
 -7.0000000E-02;  9.9999998E-03;  0.0000000E+00;1226;  0.0000000E+00;  0.0000000E+00;  0.0000000E+00;  1.0009924E+03;  1.0000000E-01;  8.2219897E+02;0;  0.0000000E+00;  0.0000000E+00;  0.0000000E+00;0;  1.4158620E-02;  4.0000000E+04;  0.0000000E+00;  0.0000000E+00;  4.0000000E+04;  0.0000000E+00;  4.0000000E+04;  1.4282907E-02;  0.0000000E+00; -1.2428734E-04;  1.0848616E+03;
 -7.0000000E-02;  9.9999998E-03;  9.9999998E-03;1227;  0.0000000E+00;  0.0000000E+00;  0.0000000E+00;  1.0009934E+03;  1.0000000E-01;  8.2298907E+02;0;  0.0000000E+00;  0.0000000E+00;  0.0000000E+00;0;  1.4162956E-02;  4.0000000E+04;  0.0000000E+00;  0.0000000E+00;  4.0000000E+04;  0.0000000E+00;  4.0000000E+04;  1.4290588E-02;  0.0000000E+00; -1.2763189E-04;  1.0858787E+03;
 -7.0000000E-02;  9.9999998E-03;  2.0000000E-02;1228;  0.0000000E+00;  0.0000000E+00;  0.0000000E+00;  1.0009966E+03;  1.0000000E-01;  8.2565564E+02;0;  0.0000000E+00;  0.0000000E+00;  0.0000000E+00;0;  1.4174856E-02;  4.0000000E+04;  0.0000000E+00;  0.0000000E+00;  4.0000000E+04;  0.0000000E+00;  4.0000000E+04;  1.4312147E-02;  0.0000000E+00; -1.3729106E-04;  1.0884207E+03;
 -7.0000000E-02;  9.9999998E-03;  2.9999999E-02;1229;  0.0000000E+00;  0.0000000E+00;  0.0000000E+00;  1.0010037E+03;  1.0000000E-01;  8.3148267E+02;0;  0.0000000E+00;  0.0000000E+00;  0.0000000E+00;0;  1.4191149E-02;  4.0000000E+04;  0.0000000E+00;  0.0000000E+00;  4.0000000E+04;  0.0000000E+00;  4.0000000E+04;  1.4343331E-02;  0.0000000E+00; -1.5218143E-04;  1.0910784E+03;
 -7.0000000E-02;  9.9999998E-03;  3.9999999E-02;1230;  0.0000000E+00;  0.0000000E+00;  0.0000000E+00;  1.0010131E+03;  1.0000000E-01;  8.3938367E+02;0;  0.0000000E+00;  0.0000000E+00;  0.0000000E+00;0;  1.4206897E-02;  4.0000000E+04;  0.0000000E+00;  0.0000000E+00;  4.0000000E+04;  0.0000000E+00;  4.0000000E+04;  1.4377525E-02;  0.0000000E+00; -1.7062870E-04;  1.0917849E+03;
 -7.0000000E-02;  9.9999998E-03;  5.0000001E-02;1231;  0.0000000E+00;  0.0000000E+00;  0.0000000E+00;  1.0010294E+03;  1.0000000E-01;  8.5281537E+02;0;  0.0000000E+00;  0.0000000E+00;  0.0000000E+00;0;  1.4215757E-02;  4.0000000E+04;  0.0000000E+00;  0.0000000E+00;  4.0000000E+04;  0.0000000E+00;  4.0000000E+04;  1.4406316E-02;  0.0000000E+00; -1.9055874E-04;  1.0882577E+03;
 -7.0000000E-02;  9.9999998E-03;  5.9999999E-02;1232;  0.0000000E+00;  0.0000000E+00;  0.0000000E+00;  1.0010468E+03;  1.0000000E-01;  8.6723474E+02;0;  0.0000000E+00;  0.0000000E+00;  0.0000000E+00;0;  1.4210723E-02;  4.0000000E+04;  0.0000000E+00;  0.0000000E+00;  4.0000000E+04;  0.0000000E+00;  4.0000000E+04;  1.4420466E-02;  0.0000000E+00; -2.0974329E-04;  1.0784169E+03;
 -5.9999999E-02;  9.9999998E-03; -1.0000000E-01;1307;  0.0000000E+00;  0.0000000E+00;  0.0000000E+00;  1.0021583E+03;  1.0000000E-01;  1.7880975E+03;0;  0.0000000E+00;  0.0000000E+00;  0.0000000E+00;0;  1.7732691E-02;  4.0000000E+04;  0.0000000E+00;  0.0000000E+00;  4.0000000E+04;  0.0000000E+00;  4.0000000E+04;  1.8086767E-02;  0.0000000E+00; -3.5407668E-04;  1.2097936E+03;
 -5.9999999E-02;  9.9999998E-03; -9.0000004E-02;1308;  0.0000000E+00;  0.0000000E+00;  0.0000000E+00;  1.0021310E+03;  1.0000000E-01;  1.7654810E+03;0;  0.0000000E+00;  0.0000000E+00;  0.0000000E+00;0;  1.7892422E-02;  4.0000000E+04;  0.0000000E+00;  0.0000000E+00;  4.0000000E+04;  0.0000000E+00;  4.0000000E+04;  1.8247135E-02;  0.0000000E+00; -3.5471251E-04;  1.2610133E+03;
 -5.9999999E-02;  9.9999998E-03; -7.9999998E-02;1309;  0.0000000E+00;  0.0000000E+00;  0.0000000E+00;  1.0021006E+03;  1.0000000E-01;  1.7403953E+03;0;  0.0000000E+00;  0.0000000E+00;  0.0000000E+00;0;  1.8005865E-02;  4.0000000E+04;  0.0000000E+00;  0.0000000E+00;  4.0000000E+04;  0.0000000E+00;  4.0000000E+04;  1.8353075E-02;  0.0000000E+00; -3.4720957E-04;  1.3061942E+03;
 -5.9999999E-02;  9.9999998E-03; -7.0000000E-02;1310;  0.0000000E+00;  0.0000000E+00;  0.0000000E+00;  1.0020677E+03;  1.0000000E-01;  1.7131367E+03;0;  0.0000000E+00;  0.0000000E+00;  0.0000000E+00;0;  1.8077085E-02;  4.0000000E+04;  0.0000000E+00;  0.0000000E+00;  4.0000000E+04;  0.0000000E+00;  4.0000000E+04;  1.8409066E-02;  0.0000000E+00; -3.3198134E-04;  1.3421835E+03;
 -5.9999999E-02;  9.9999998E-03; -5.9999999E-02;1311;  0.0000000E+00;  0.0000000E+00;  0.0000000E+00;  1.0020391E+03;  1.0000000E-01;  1.6893350E+03;0;  0.0000000E+00;  0.0000000E+00;  0.0000000E+00;0;  1.8112600E-02;  4.0000000E+04;  0.0000000E+00;  0.0000000E+00;  4.0000000E+04;  0.0000000E+00;  4.0000000E+04;  1.8423049E-02;  0.0000000E+00; -3.1044896E-04;  1.3676049E+03;
 -5.9999999E-02;  9.9999998E-03; -5.0000001E-02;1312;  0.0000000E+00;  0.0000000E+00;  0.0000000E+00;  1.0020178E+03;  1.0000000E-01;  1.6717552E+03;0;  0.0000000E+00;  0.0000000E+00;  0.0000000E+00;0;  1.8120728E-02;  4.0000000E+04;  0.0000000E+00;  0.0000000E+00;  4.0000000E+04;  0.0000000E+00;  4.0000000E+04;  1.8405598E-02;  0.0000000E+00; -2.8486946E-04;  1.3827405E+03;
 -5.9999999E-02;  9.9999998E-03; -3.9999999E-02;1313;  0.0000000E+00;  0.0000000E+00;  0.0000000E+00;  1.0019977E+03;  1.0000000E-01;  1.6550643E+03;0;  0.0000000E+00;  0.0000000E+00;  0.0000000E+00;0;  1.8110653E-02;  4.0000000E+04;  0.0000000E+00;  0.0000000E+00;  4.0000000E+04;  0.0000000E+00;  4.0000000E+04;  1.8368719E-02;  0.0000000E+00; -2.5806532E-04;  1.3892341E+03;
 -5.9999999E-02;  9.9999998E-03; -2.9999999E-02;1314;  0.0000000E+00;  0.0000000E+00;  0.0000000E+00;  1.0019832E+03;  1.0000000E-01;  1.6430153E+03;0;  0.0000000E+00;  0.0000000E+00;  0.0000000E+00;0;  1.8091451E-02;  4.0000000E+04;  0.0000000E+00;  0.0000000E+00;  4.0000000E+04;  0.0000000E+00;  4.0000000E+04;  1.8324533E-02;  0.0000000E+00; -2.3308194E-04;  1.3897220E+03;
 -5.9999999E-02;  9.9999998E-03; -2.0000000E-02;1315;  0.0000000E+00;  0.0000000E+00;  0.0000000E+00;  1.0019737E+03;  1.0000000E-01;  1.6352130E+03;0;  0.0000000E+00;  0.0000000E+00;  0.0000000E+00;0;  1.8071255E-02;  4.0000000E+04;  0.0000000E+00;  0.0000000E+00;  4.0000000E+04;  0.0000000E+00;  4.0000000E+04;  1.8284062E-02;  0.0000000E+00; -2.1280674E-04;  1.3871748E+03;
 -5.9999999E-02;  9.9999998E-03; -9.9999998E-03;1316;  0.0000000E+00;  0.0000000E+00;  0.0000000E+00;  1.0019680E+03;  1.0000000E-01;  1.6303737E+03;0;  0.0000000E+00;  0.0000000E+00;  0.0000000E+00;0;  1.8056437E-02;  4.0000000E+04;  0.0000000E+00;  0.0000000E+00;  4.0000000E+04;  0.0000000E+00;  4.0000000E+04;  1.8256042E-02;  0.0000000E+00; -1.9960552E-04;  1.3843572E+03;
 -5.9999999E-02;  9.9999998E-03;  0.0000000E+00;1317;  0.0000000E+00;  0.0000000E+00;  0.0000000E+00;  1.0019662E+03;  1.0000000E-01;  1.6289910E+03;0;  0.0000000E+00;  0.0000000E+00;  0.0000000E+00;0;  1.8051047E-02;  4.0000000E+04;  0.0000000E+00;  0.0000000E+00;  4.0000000E+04;  0.0000000E+00;  4.0000000E+04;  1.8246073E-02;  0.0000000E+00; -1.9502589E-04;  1.3831947E+03;
 -5.9999999E-02;  9.9999998E-03;  9.9999998E-03;1318;  0.0000000E+00;  0.0000000E+00;  0.0000000E+00;  1.0019680E+03;  1.0000000E-01;  1.6303737E+03;0;  0.0000000E+00;  0.0000000E+00;  0.0000000E+00;0;  1.8056449E-02;  4.0000000E+04;  0.0000000E+00;  0.0000000E+00;  4.0000000E+04;  0.0000000E+00;  4.0000000E+04;  1.8256053E-02;  0.0000000E+00; -1.9960557E-04;  1.3843602E+03;
 -5.9999999E-02;  9.9999998E-03;  2.0000000E-02;1319;  0.0000000E+00;  0.0000000E+00;  0.0000000E+00;  1.0019737E+03;  1.0000000E-01;  1.6352130E+03;0;  0.0000000E+00;  0.0000000E+00;  0.0000000E+00;0;  1.8071288E-02;  4.0000000E+04;  0.0000000E+00;  0.0000000E+00;  4.0000000E+04;  0.0000000E+00;  4.0000000E+04;  1.8284095E-02;  0.0000000E+00; -2.1280722E-04;  1.3871765E+03;
 -5.9999999E-02;  9.9999998E-03;  2.9999999E-02;1320;  0.0000000E+00;  0.0000000E+00;  0.0000000E+00;  1.0019832E+03;  1.0000000E-01;  1.6430153E+03;0;  0.0000000E+00;  0.0000000E+00;  0.0000000E+00;0;  1.8091470E-02;  4.0000000E+04;  0.0000000E+00;  0.0000000E+00;  4.0000000E+04;  0.0000000E+00;  4.0000000E+04;  1.8324552E-02;  0.0000000E+00; -2.3308267E-04;  1.3897261E+03;
 -5.9999999E-02;  9.9999998E-03;  3.9999999E-02;1321;  0.0000000E+00;  0.0000000E+00;  0.0000000E+00;  1.0019976E+03;  1.0000000E-01;  1.6549656E+03;0;  0.0000000E+00;  0.0000000E+00;  0.0000000E+00;0;  1.8110674E-02;  4.0000000E+04;  0.0000000E+00;  0.0000000E+00;  4.0000000E+04;  0.0000000E+00;  4.0000000E+04;  1.8368740E-02;  0.0000000E+00; -2.5806637E-04;  1.3892397E+03;
 -5.9999999E-02;  9.9999998E-03;  5.0000001E-02;1322;  0.0000000E+00;  0.0000000E+00;  0.0000000E+00;  1.0020178E+03;  1.0000000E-01;  1.6717552E+03;0;  0.0000000E+00;  0.0000000E+00;  0.0000000E+00;0;  1.8120755E-02;  4.0000000E+04;  0.0000000E+00;  0.0000000E+00;  4.0000000E+04;  0.0000000E+00;  4.0000000E+04;  1.8405626E-02;  0.0000000E+00; -2.8487071E-04;  1.3827458E+03;
 -5.9999999E-02;  9.9999998E-03;  5.9999999E-02;1323;  0.0000000E+00;  0.0000000E+00;  0.0000000E+00;  1.0020391E+03;  1.0000000E-01;  1.6893350E+03;0;  0.0000000E+00;  0.0000000E+00;  0.0000000E+00;0;  1.8112632E-02;  4.0000000E+04;  0.0000000E+00;  0.0000000E+00;  4.0000000E+04;  0.0000000E+00;  4.0000000E+04;  1.8423082E-02;  0.0000000E+00; -3.1045085E-04;  1.3676097E+03;
 -5.0000001E-02;  9.9999998E-03; -1.0000000E-01;1398;  0.0000000E+00;  0.0000000E+00;  0.0000000E+00;  1.0036092E+03;  1.0000000E-01;  2.9901377E+03;0;  0.0000000E+00;  0.0000000E+00;  0.0000000E+00;0;  2.1599766E-02;  4.0000000E+04;  0.0000000E+00;  0.0000000E+00;  4.0000000E+04;  0.0000000E+00;  4.0000000E+04;  2.2087336E-02;  0.0000000E+00; -4.8756879E-04;  1.4468883E+03;
 -5.0000001E-02;  9.9999998E-03; -9.0000004E-02;1399;  0.0000000E+00;  0.0000000E+00;  0.0000000E+00;  1.0035731E+03;  1.0000000E-01;  2.9603113E+03;0;  0.0000000E+00;  0.0000000E+00;  0.0000000E+00;0;  2.1800950E-02;  4.0000000E+04;  0.0000000E+00;  0.0000000E+00;  4.0000000E+04;  0.0000000E+00;  4.0000000E+04;  2.2290301E-02;  0.0000000E+00; -4.8935041E-04;  1.5114612E+03;
 -5.0000001E-02;  9.9999998E-03; -7.9999998E-02;1400;  0.0000000E+00;  0.0000000E+00;  0.0000000E+00;  1.0035328E+03;  1.0000000E-01;  2.9268308E+03;0;  0.0000000E+00;  0.0000000E+00;  0.0000000E+00;0;  2.1943709E-02;  4.0000000E+04;  0.0000000E+00;  0.0000000E+00;  4.0000000E+04;  0.0000000E+00;  4.0000000E+04;  2.2424515E-02;  0.0000000E+00; -4.8080707E-04;  1.5694790E+03;
 -5.0000001E-02;  9.9999998E-03; -7.0000000E-02;1401;  0.0000000E+00;  0.0000000E+00;  0.0000000E+00;  1.0034919E+03;  1.0000000E-01;  2.8929553E+03;0;  0.0000000E+00;  0.0000000E+00;  0.0000000E+00;0;  2.2033338E-02;  4.0000000E+04;  0.0000000E+00;  0.0000000E+00;  4.0000000E+04;  0.0000000E+00;  4.0000000E+04;  2.2495631E-02;  0.0000000E+00; -4.6229330E-04;  1.6166548E+03;
 -5.0000001E-02;  9.9999998E-03; -5.9999999E-02;1402;  0.0000000E+00;  0.0000000E+00;  0.0000000E+00;  1.0034574E+03;  1.0000000E-01;  2.8644128E+03;0;  0.0000000E+00;  0.0000000E+00;  0.0000000E+00;0;  2.2078253E-02;  4.0000000E+04;  0.0000000E+00;  0.0000000E+00;  4.0000000E+04;  0.0000000E+00;  4.0000000E+04;  2.2513734E-02;  0.0000000E+00; -4.3548082E-04;  1.6508929E+03;
 -5.0000001E-02;  9.9999998E-03; -5.0000001E-02;1403;  0.0000000E+00;  0.0000000E+00;  0.0000000E+00;  1.0034235E+03;  1.0000000E-01;  2.8363643E+03;0;  0.0000000E+00;  0.0000000E+00;  0.0000000E+00;0;  2.2088919E-02;  4.0000000E+04;  0.0000000E+00;  0.0000000E+00;  4.0000000E+04;  0.0000000E+00;  4.0000000E+04;  2.2492087E-02;  0.0000000E+00; -4.0316858E-04;  1.6721766E+03;
 -5.0000001E-02;  9.9999998E-03; -3.9999999E-02;1404;  0.0000000E+00;  0.0000000E+00;  0.0000000E+00;  1.0033968E+03;  1.0000000E-01;  2.8141426E+03;0;  0.0000000E+00;  0.0000000E+00;  0.0000000E+00;0;  2.2076908E-02;  4.0000000E+04;  0.0000000E+00;  0.0000000E+00;  4.0000000E+04;  0.0000000E+00;  4.0000000E+04;  2.2445865E-02;  0.0000000E+00; -3.6895566E-04;  1.6822970E+03;
 -5.0000001E-02;  9.9999998E-03; -2.9999999E-02;1405;  0.0000000E+00;  0.0000000E+00;  0.0000000E+00;  1.0033773E+03;  1.0000000E-01;  2.7980444E+03;0;  0.0000000E+00;  0.0000000E+00;  0.0000000E+00;0;  2.2053534E-02;  4.0000000E+04;  0.0000000E+00;  0.0000000E+00;  4.0000000E+04;  0.0000000E+00;  4.0000000E+04;  2.2390340E-02;  0.0000000E+00; -3.3680594E-04;  1.6843599E+03;
 -5.0000001E-02;  9.9999998E-03; -2.0000000E-02;1406;  0.0000000E+00;  0.0000000E+00;  0.0000000E+00;  1.0033645E+03;  1.0000000E-01;  2.7873779E+03;0;  0.0000000E+00;  0.0000000E+00;  0.0000000E+00;0;  2.2028890E-02;  4.0000000E+04;  0.0000000E+00;  0.0000000E+00;  4.0000000E+04;  0.0000000E+00;  4.0000000E+04;  2.2339439E-02;  0.0000000E+00; -3.1054995E-04;  1.6821255E+03;
 -5.0000001E-02;  9.9999998E-03; -9.9999998E-03;1407;  0.0000000E+00;  0.0000000E+00;  0.0000000E+00;  1.0033589E+03;  1.0000000E-01;  2.7828350E+03;0;  0.0000000E+00;  0.0000000E+00;  0.0000000E+00;0;  2.2010779E-02;  4.0000000E+04;  0.0000000E+00;  0.0000000E+00;  4.0000000E+04;  0.0000000E+00;  4.0000000E+04;  2.2304159E-02;  0.0000000E+00; -2.9337895E-04;  1.6790947E+03;
 -5.0000001E-02;  9.9999998E-03;  0.0000000E+00;1408;  0.0000000E+00;  0.0000000E+00;  0.0000000E+00;  1.0033572E+03;  1.0000000E-01;  2.7813535E+03;0;  0.0000000E+00;  0.0000000E+00;  0.0000000E+00;0;  2.2004165E-02;  4.0000000E+04;  0.0000000E+00;  0.0000000E+00;  4.0000000E+04;  0.0000000E+00;  4.0000000E+04;  2.2291573E-02;  0.0000000E+00; -2.8740847E-04;  1.6777877E+03;
 -5.0000001E-02;  9.9999998E-03;  9.9999998E-03;1409;  0.0000000E+00;  0.0000000E+00;  0.0000000E+00;  1.0033589E+03;  1.0000000E-01;  2.7828350E+03;0;  0.0000000E+00;  0.0000000E+00;  0.0000000E+00;0;  2.2010785E-02;  4.0000000E+04;  0.0000000E+00;  0.0000000E+00;  4.0000000E+04;  0.0000000E+00;  4.0000000E+04;  2.2304164E-02;  0.0000000E+00; -2.9337901E-04;  1.6790957E+03;
 -5.0000001E-02;  9.9999998E-03;  2.0000000E-02;1410;  0.0000000E+00;  0.0000000E+00;  0.0000000E+00;  1.0033645E+03;  1.0000000E-01;  2.7873779E+03;0;  0.0000000E+00;  0.0000000E+00;  0.0000000E+00;0;  2.2028914E-02;  4.0000000E+04;  0.0000000E+00;  0.0000000E+00;  4.0000000E+04;  0.0000000E+00;  4.0000000E+04;  2.2339463E-02;  0.0000000E+00; -3.1055007E-04;  1.6821268E+03;
 -5.0000001E-02;  9.9999998E-03;  2.9999999E-02;1411;  0.0000000E+00;  0.0000000E+00;  0.0000000E+00;  1.0033773E+03;  1.0000000E-01;  2.7980444E+03;0;  0.0000000E+00;  0.0000000E+00;  0.0000000E+00;0;  2.2053562E-02;  4.0000000E+04;  0.0000000E+00;  0.0000000E+00;  4.0000000E+04;  0.0000000E+00;  4.0000000E+04;  2.2390369E-02;  0.0000000E+00; -3.3680649E-04;  1.6843684E+03;
 -5.0000001E-02;  9.9999998E-03;  3.9999999E-02;1412;  0.0000000E+00;  0.0000000E+00;  0.0000000E+00;  1.0033968E+03;  1.0000000E-01;  2.8141426E+03;0;  0.0000000E+00;  0.0000000E+00;  0.0000000E+00;0;  2.2076946E-02;  4.0000000E+04;  0.0000000E+00;  0.0000000E+00;  4.0000000E+04;  0.0000000E+00;  4.0000000E+04;  2.2445902E-02;  0.0000000E+00; -3.6895613E-04;  1.6823021E+03;
 -5.0000001E-02;  9.9999998E-03;  5.0000001E-02;1413;  0.0000000E+00;  0.0000000E+00;  0.0000000E+00;  1.0034235E+03;  1.0000000E-01;  2.8363643E+03;0;  0.0000000E+00;  0.0000000E+00;  0.0000000E+00;0;  2.2088964E-02;  4.0000000E+04;  0.0000000E+00;  0.0000000E+00;  4.0000000E+04;  0.0000000E+00;  4.0000000E+04;  2.2492133E-02;  0.0000000E+00; -4.0316998E-04;  1.6721818E+03;
 -5.0000001E-02;  9.9999998E-03;  5.9999999E-02;1414;  0.0000000E+00;  0.0000000E+00;  0.0000000E+00;  1.0034573E+03;  1.0000000E-01;  2.8643140E+03;0;  0.0000000E+00;  0.0000000E+00;  0.0000000E+00;0;  2.2078294E-02;  4.0000000E+04;  0.0000000E+00;  0.0000000E+00;  4.0000000E+04;  0.0000000E+00;  4.0000000E+04;  2.2513777E-02;  0.0000000E+00; -4.3548277E-04;  1.6508983E+03;
 -3.9999999E-02;  9.9999998E-03; -1.0000000E-01;1489;  0.0000000E+00;  0.0000000E+00;  0.0000000E+00;  1.0055112E+03;  1.0000000E-01;  4.5658955E+03;0;  0.0000000E+00;  0.0000000E+00;  0.0000000E+00;0;  2.5201861E-02;  4.0000000E+04;  0.0000000E+00;  0.0000000E+00;  4.0000000E+04;  0.0000000E+00;  4.0000000E+04;  2.5841465E-02;  0.0000000E+00; -6.3960435E-04;  1.6470659E+03;
 -3.9999999E-02;  9.9999998E-03; -9.0000004E-02;1490;  0.0000000E+00;  0.0000000E+00;  0.0000000E+00;  1.0054655E+03;  1.0000000E-01;  4.5280693E+03;0;  0.0000000E+00;  0.0000000E+00;  0.0000000E+00;0;  2.5444025E-02;  4.0000000E+04;  0.0000000E+00;  0.0000000E+00;  4.0000000E+04;  0.0000000E+00;  4.0000000E+04;  2.6087524E-02;  0.0000000E+00; -6.4349896E-04;  1.7237965E+03;
 -3.9999999E-02;  9.9999998E-03; -7.9999998E-02;1491;  0.0000000E+00;  0.0000000E+00;  0.0000000E+00;  1.0054147E+03;  1.0000000E-01;  4.4859966E+03;0;  0.0000000E+00;  0.0000000E+00;  0.0000000E+00;0;  2.5615184E-02;  4.0000000E+04;  0.0000000E+00;  0.0000000E+00;  4.0000000E+04;  0.0000000E+00;  4.0000000E+04;  2.6249964E-02;  0.0000000E+00; -6.3477986E-04;  1.7939745E+03;
 -3.9999999E-02;  9.9999998E-03; -7.0000000E-02;1492;  0.0000000E+00;  0.0000000E+00;  0.0000000E+00;  1.0053636E+03;  1.0000000E-01;  4.4437261E+03;0;  0.0000000E+00;  0.0000000E+00;  0.0000000E+00;0;  2.5722086E-02;  4.0000000E+04;  0.0000000E+00;  0.0000000E+00;  4.0000000E+04;  0.0000000E+00;  4.0000000E+04;  2.6335739E-02;  0.0000000E+00; -6.1365252E-04;  1.8521130E+03;
 -3.9999999E-02;  9.9999998E-03; -5.9999999E-02;1493;  0.0000000E+00;  0.0000000E+00;  0.0000000E+00;  1.0053145E+03;  1.0000000E-01;  4.4029370E+03;0;  0.0000000E+00;  0.0000000E+00;  0.0000000E+00;0;  2.5775105E-02;  4.0000000E+04;  0.0000000E+00;  0.0000000E+00;  4.0000000E+04;  0.0000000E+00;  4.0000000E+04;  2.6357085E-02;  0.0000000E+00; -5.8198045E-04;  1.8952672E+03;
 -3.9999999E-02;  9.9999998E-03; -5.0000001E-02;1494;  0.0000000E+00;  0.0000000E+00;  0.0000000E+00;  1.0052733E+03;  1.0000000E-01;  4.3687651E+03;0;  0.0000000E+00;  0.0000000E+00;  0.0000000E+00;0;  2.5787143E-02;  4.0000000E+04;  0.0000000E+00;  0.0000000E+00;  4.0000000E+04;  0.0000000E+00;  4.0000000E+04;  2.6330238E-02;  0.0000000E+00; -5.4309447E-04;  1.9229517E+03;
 -3.9999999E-02;  9.9999998E-03; -3.9999999E-02;1495;  0.0000000E+00;  0.0000000E+00;  0.0000000E+00;  1.0052409E+03;  1.0000000E-01;  4.3420005E+03;0;  0.0000000E+00;  0.0000000E+00;  0.0000000E+00;0;  2.5772214E-02;  4.0000000E+04;  0.0000000E+00;  0.0000000E+00;  4.0000000E+04;  0.0000000E+00;  4.0000000E+04;  2.6273625E-02;  0.0000000E+00; -5.0141069E-04;  1.9369343E+03;
 -3.9999999E-02;  9.9999998E-03; -2.9999999E-02;1496;  0.0000000E+00;  0.0000000E+00;  0.0000000E+00;  1.0052161E+03;  1.0000000E-01;  4.3214580E+03;0;  0.0000000E+00;  0.0000000E+00;  0.0000000E+00;0;  2.5743971E-02;  4.0000000E+04;  0.0000000E+00;  0.0000000E+00;  4.0000000E+04;  0.0000000E+00;  4.0000000E+04;  2.6205864E-02;  0.0000000E+00; -4.6189234E-04;  1.9407982E+03;
 -3.9999999E-02;  9.9999998E-03; -2.0000000E-02;1497;  0.0000000E+00;  0.0000000E+00;  0.0000000E+00;  1.0052001E+03;  1.0000000E-01;  4.3082236E+03;0;  0.0000000E+00;  0.0000000E+00;  0.0000000E+00;0;  2.5714397E-02;  4.0000000E+04;  0.0000000E+00;  0.0000000E+00;  4.0000000E+04;  0.0000000E+00;  4.0000000E+04;  2.6143808E-02;  0.0000000E+00; -4.2941116E-04;  1.9389668E+03;
 -3.9999999E-02;  9.9999998E-03; -9.9999998E-03;1498;  0.0000000E+00;  0.0000000E+00;  0.0000000E+00;  1.0051907E+03;  1.0000000E-01;  4.3004214E+03;0;  0.0000000E+00;  0.0000000E+00;  0.0000000E+00;0;  2.5692733E-02;  4.0000000E+04;  0.0000000E+00;  0.0000000E+00;  4.0000000E+04;  0.0000000E+00;  4.0000000E+04;  2.6100809E-02;  0.0000000E+00; -4.0807665E-04;  1.9357911E+03;
 -3.9999999E-02;  9.9999998E-03;  0.0000000E+00;1499;  0.0000000E+00;  0.0000000E+00;  0.0000000E+00;  1.0051886E+03;  1.0000000E-01;  4.2986440E+03;0;  0.0000000E+00;  0.0000000E+00;  0.0000000E+00;0;  2.5684865E-02;  4.0000000E+04;  0.0000000E+00;  0.0000000E+00;  4.0000000E+04;  0.0000000E+00;  4.0000000E+04;  2.6085507E-02;  0.0000000E+00; -4.0064158E-04;  1.9343304E+03;
 -3.9999999E-02;  9.9999998E-03;  9.9999998E-03;1500;  0.0000000E+00;  0.0000000E+00;  0.0000000E+00;  1.0051907E+03;  1.0000000E-01;  4.3004214E+03;0;  0.0000000E+00;  0.0000000E+00;  0.0000000E+00;0;  2.5692774E-02;  4.0000000E+04;  0.0000000E+00;  0.0000000E+00;  4.0000000E+04;  0.0000000E+00;  4.0000000E+04;  2.6100850E-02;  0.0000000E+00; -4.0807651E-04;  1.9357921E+03;
 -3.9999999E-02;  9.9999998E-03;  2.0000000E-02;1501;  0.0000000E+00;  0.0000000E+00;  0.0000000E+00;  1.0052001E+03;  1.0000000E-01;  4.3082236E+03;0;  0.0000000E+00;  0.0000000E+00;  0.0000000E+00;0;  2.5714422E-02;  4.0000000E+04;  0.0000000E+00;  0.0000000E+00;  4.0000000E+04;  0.0000000E+00;  4.0000000E+04;  2.6143832E-02;  0.0000000E+00; -4.2941139E-04;  1.9389730E+03;
 -3.9999999E-02;  9.9999998E-03;  2.9999999E-02;1502;  0.0000000E+00;  0.0000000E+00;  0.0000000E+00;  1.0052161E+03;  1.0000000E-01;  4.3214580E+03;0;  0.0000000E+00;  0.0000000E+00;  0.0000000E+00;0;  2.5744010E-02;  4.0000000E+04;  0.0000000E+00;  0.0000000E+00;  4.0000000E+04;  0.0000000E+00;  4.0000000E+04;  2.6205903E-02;  0.0000000E+00; -4.6189266E-04;  1.9408054E+03;
 -3.9999999E-02;  9.9999998E-03;  3.9999999E-02;1503;  0.0000000E+00;  0.0000000E+00;  0.0000000E+00;  1.0052408E+03;  1.0000000E-01;  4.3419019E+03;0;  0.0000000E+00;  0.0000000E+00;  0.0000000E+00;0;  2.5772262E-02;  4.0000000E+04;  0.0000000E+00;  0.0000000E+00;  4.0000000E+04;  0.0000000E+00;  4.0000000E+04;  2.6273673E-02;  0.0000000E+00; -5.0141115E-04;  1.9369445E+03;
 -3.9999999E-02;  9.9999998E-03;  5.0000001E-02;1504;  0.0000000E+00;  0.0000000E+00;  0.0000000E+00;  1.0052733E+03;  1.0000000E-01;  4.3687651E+03;0;  0.0000000E+00;  0.0000000E+00;  0.0000000E+00;0;  2.5787188E-02;  4.0000000E+04;  0.0000000E+00;  0.0000000E+00;  4.0000000E+04;  0.0000000E+00;  4.0000000E+04;  2.6330283E-02;  0.0000000E+00; -5.4309575E-04;  1.9229575E+03;
 -3.9999999E-02;  9.9999998E-03;  5.9999999E-02;1505;  0.0000000E+00;  0.0000000E+00;  0.0000000E+00;  1.0053145E+03;  1.0000000E-01;  4.4029370E+03;0;  0.0000000E+00;  0.0000000E+00;  0.0000000E+00;0;  2.5775163E-02;  4.0000000E+04;  0.0000000E+00;  0.0000000E+00;  4.0000000E+04;  0.0000000E+00;  4.0000000E+04;  2.6357146E-02;  0.0000000E+00; -5.8198260E-04;  1.8952737E+03;
 -2.9999999E-02;  9.9999998E-03; -1.0000000E-01;1580;  0.0000000E+00;  0.0000000E+00;  0.0000000E+00;  1.0078506E+03;  1.0000000E-01;  6.5040137E+03;0;  0.0000000E+00;  0.0000000E+00;  0.0000000E+00;0;  2.8165361E-02;  4.0000000E+04;  0.0000000E+00;  0.0000000E+00;  4.0000000E+04;  0.0000000E+00;  4.0000000E+04;  2.8967308E-02;  0.0000000E+00; -8.0194644E-04;  1.7781505E+03;
 -2.9999999E-02;  9.9999998E-03; -9.0000004E-02;1581;  0.0000000E+00;  0.0000000E+00;  0.0000000E+00;  1.0077996E+03;  1.0000000E-01;  6.4618418E+03;0;  0.0000000E+00;  0.0000000E+00;  0.0000000E+00;0;  2.8443824E-02;  4.0000000E+04;  0.0000000E+00;  0.0000000E+00;  4.0000000E+04;  0.0000000E+00;  4.0000000E+04;  2.9253062E-02;  0.0000000E+00; -8.0923794E-04;  1.8642191E+03;
 -2.9999999E-02;  9.9999998E-03; -7.9999998E-02;1582;  0.0000000E+00;  0.0000000E+00;  0.0000000E+00;  1.0077344E+03;  1.0000000E-01;  6.4078188E+03;0;  0.0000000E+00;  0.0000000E+00;  0.0000000E+00;0;  2.8639331E-02;  4.0000000E+04;  0.0000000E+00;  0.0000000E+00;  4.0000000E+04;  0.0000000E+00;  4.0000000E+04;  2.9440979E-02;  0.0000000E+00; -8.0164615E-04;  1.9442513E+03;
 -2.9999999E-02;  9.9999998E-03; -7.0000000E-02;1583;  0.0000000E+00;  0.0000000E+00;  0.0000000E+00;  1.0076674E+03;  1.0000000E-01;  6.3522153E+03;0;  0.0000000E+00;  0.0000000E+00;  0.0000000E+00;0;  2.8760148E-02;  4.0000000E+04;  0.0000000E+00;  0.0000000E+00;  4.0000000E+04;  0.0000000E+00;  4.0000000E+04;  2.9539263E-02;  0.0000000E+00; -7.7911431E-04;  2.0117145E+03;
 -2.9999999E-02;  9.9999998E-03; -5.9999999E-02;1584;  0.0000000E+00;  0.0000000E+00;  0.0000000E+00;  1.0076039E+03;  1.0000000E-01;  6.2996738E+03;0;  0.0000000E+00;  0.0000000E+00;  0.0000000E+00;0;  2.8818727E-02;  4.0000000E+04;  0.0000000E+00;  0.0000000E+00;  4.0000000E+04;  0.0000000E+00;  4.0000000E+04;  2.9562347E-02;  0.0000000E+00; -7.4361940E-04;  2.0627986E+03;
 -2.9999999E-02;  9.9999998E-03; -5.0000001E-02;1585;  0.0000000E+00;  0.0000000E+00;  0.0000000E+00;  1.0075554E+03;  1.0000000E-01;  6.2594771E+03;0;  0.0000000E+00;  0.0000000E+00;  0.0000000E+00;0;  2.8830379E-02;  4.0000000E+04;  0.0000000E+00;  0.0000000E+00;  4.0000000E+04;  0.0000000E+00;  4.0000000E+04;  2.9529350E-02;  0.0000000E+00; -6.9897092E-04;  2.0964233E+03;
 -2.9999999E-02;  9.9999998E-03; -3.9999999E-02;1586;  0.0000000E+00;  0.0000000E+00;  0.0000000E+00;  1.0075137E+03;  1.0000000E-01;  6.2249102E+03;0;  0.0000000E+00;  0.0000000E+00;  0.0000000E+00;0;  2.8811464E-02;  4.0000000E+04;  0.0000000E+00;  0.0000000E+00;  4.0000000E+04;  0.0000000E+00;  4.0000000E+04;  2.9461859E-02;  0.0000000E+00; -6.5039471E-04;  2.1141580E+03;
 -2.9999999E-02;  9.9999998E-03; -2.9999999E-02;1587;  0.0000000E+00;  0.0000000E+00;  0.0000000E+00;  1.0074828E+03;  1.0000000E-01;  6.1993311E+03;0;  0.0000000E+00;  0.0000000E+00;  0.0000000E+00;0;  2.8777786E-02;  4.0000000E+04;  0.0000000E+00;  0.0000000E+00;  4.0000000E+04;  0.0000000E+00;  4.0000000E+04;  2.9381674E-02;  0.0000000E+00; -6.0388900E-04;  2.1198511E+03;
 -2.9999999E-02;  9.9999998E-03; -2.0000000E-02;1588;  0.0000000E+00;  0.0000000E+00;  0.0000000E+00;  1.0074614E+03;  1.0000000E-01;  6.1816523E+03;0;  0.0000000E+00;  0.0000000E+00;  0.0000000E+00;0;  2.8743098E-02;  4.0000000E+04;  0.0000000E+00;  0.0000000E+00;  4.0000000E+04;  0.0000000E+00;  4.0000000E+04;  2.9308513E-02;  0.0000000E+00; -5.6541467E-04;  2.1185220E+03;
 -2.9999999E-02;  9.9999998E-03; -9.9999998E-03;1589;  0.0000000E+00;  0.0000000E+00;  0.0000000E+00;  1.0074490E+03;  1.0000000E-01;  6.1713809E+03;0;  0.0000000E+00;  0.0000000E+00;  0.0000000E+00;0;  2.8717855E-02;  4.0000000E+04;  0.0000000E+00;  0.0000000E+00;  4.0000000E+04;  0.0000000E+00;  4.0000000E+04;  2.9257899E-02;  0.0000000E+00; -5.4004457E-04;  2.1152620E+03;
 -2.9999999E-02;  9.9999998E-03;  0.0000000E+00;1590;  0.0000000E+00;  0.0000000E+00;  0.0000000E+00;  1.0074451E+03;  1.0000000E-01;  6.1681221E+03;0;  0.0000000E+00;  0.0000000E+00;  0.0000000E+00;0;  2.8708689E-02;  4.0000000E+04;  0.0000000E+00;  0.0000000E+00;  4.0000000E+04;  0.0000000E+00;  4.0000000E+04;  2.9239876E-02;  0.0000000E+00; -5.3118734E-04;  2.1137109E+03;
 -2.9999999E-02;  9.9999998E-03;  9.9999998E-03;1591;  0.0000000E+00;  0.0000000E+00;  0.0000000E+00;  1.0074490E+03;  1.0000000E-01;  6.1713809E+03;0;  0.0000000E+00;  0.0000000E+00;  0.0000000E+00;0;  2.8717875E-02;  4.0000000E+04;  0.0000000E+00;  0.0000000E+00;  4.0000000E+04;  0.0000000E+00;  4.0000000E+04;  2.9257920E-02;  0.0000000E+00; -5.4004422E-04;  2.1152634E+03;
 -2.9999999E-02;  9.9999998E-03;  2.0000000E-02;1592;  0.0000000E+00;  0.0000000E+00;  0.0000000E+00;  1.0074614E+03;  1.0000000E-01;  6.1816523E+03;0;  0.0000000E+00;  0.0000000E+00;  0.0000000E+00;0;  2.8743116E-02;  4.0000000E+04;  0.0000000E+00;  0.0000000E+00;  4.0000000E+04;  0.0000000E+00;  4.0000000E+04;  2.9308530E-02;  0.0000000E+00; -5.6541408E-04;  2.1185291E+03;
 -2.9999999E-02;  9.9999998E-03;  2.9999999E-02;1593;  0.0000000E+00;  0.0000000E+00;  0.0000000E+00;  1.0074828E+03;  1.0000000E-01;  6.1993311E+03;0;  0.0000000E+00;  0.0000000E+00;  0.0000000E+00;0;  2.8777819E-02;  4.0000000E+04;  0.0000000E+00;  0.0000000E+00;  4.0000000E+04;  0.0000000E+00;  4.0000000E+04;  2.9381707E-02;  0.0000000E+00; -6.0388807E-04;  2.1198596E+03;
 -2.9999999E-02;  9.9999998E-03;  3.9999999E-02;1594;  0.0000000E+00;  0.0000000E+00;  0.0000000E+00;  1.0075137E+03;  1.0000000E-01;  6.2249102E+03;0;  0.0000000E+00;  0.0000000E+00;  0.0000000E+00;0;  2.8811498E-02;  4.0000000E+04;  0.0000000E+00;  0.0000000E+00;  4.0000000E+04;  0.0000000E+00;  4.0000000E+04;  2.9461892E-02;  0.0000000E+00; -6.5039494E-04;  2.1141675E+03;
 -2.9999999E-02;  9.9999998E-03;  5.0000001E-02;1595;  0.0000000E+00;  0.0000000E+00;  0.0000000E+00;  1.0075554E+03;  1.0000000E-01;  6.2594771E+03;0;  0.0000000E+00;  0.0000000E+00;  0.0000000E+00;0;  2.8830430E-02;  4.0000000E+04;  0.0000000E+00;  0.0000000E+00;  4.0000000E+04;  0.0000000E+00;  4.0000000E+04;  2.9529400E-02;  0.0000000E+00; -6.9897115E-04;  2.0964336E+03;
 -2.9999999E-02;  9.9999998E-03;  5.9999999E-02;1596;  0.0000000E+00;  0.0000000E+00;  0.0000000E+00;  1.0076039E+03;  1.0000000E-01;  6.2996738E+03;0;  0.0000000E+00;  0.0000000E+00;  0.0000000E+00;0;  2.8818814E-02;  4.0000000E+04;  0.0000000E+00;  0.0000000E+00;  4.0000000E+04;  0.0000000E+00;  4.0000000E+04;  2.9562436E-02;  0.0000000E+00; -7.4362138E-04;  2.0627971E+03;
 -2.0000000E-02;  9.9999998E-03; -1.0000000E-01;1671;  0.0000000E+00;  0.0000000E+00;  0.0000000E+00;  1.0105417E+03;  1.0000000E-01;  8.7335801E+03;0;  0.0000000E+00;  0.0000000E+00;  0.0000000E+00;0;  3.0114736E-02;  4.0000000E+04;  0.0000000E+00;  0.0000000E+00;  4.0000000E+04;  0.0000000E+00;  4.0000000E+04;  3.1077197E-02;  0.0000000E+00; -9.6245983E-04;  1.8091830E+03;
 -2.0000000E-02;  9.9999998E-03; -9.0000004E-02;1672;  0.0000000E+00;  0.0000000E+00;  0.0000000E+00;  1.0104729E+03;  1.0000000E-01;  8.6765938E+03;0;  0.0000000E+00;  0.0000000E+00;  0.0000000E+00;0;  3.0420164E-02;  4.0000000E+04;  0.0000000E+00;  0.0000000E+00;  4.0000000E+04;  0.0000000E+00;  4.0000000E+04;  3.1394865E-02;  0.0000000E+00; -9.7470218E-04;  1.8999623E+03;
 -2.0000000E-02;  9.9999998E-03; -7.9999998E-02;1673;  0.0000000E+00;  0.0000000E+00;  0.0000000E+00;  1.0103889E+03;  1.0000000E-01;  8.6069668E+03;0;  0.0000000E+00;  0.0000000E+00;  0.0000000E+00;0;  3.0632453E-02;  4.0000000E+04;  0.0000000E+00;  0.0000000E+00;  4.0000000E+04;  0.0000000E+00;  4.0000000E+04;  3.1602476E-02;  0.0000000E+00; -9.7002304E-04;  1.9857179E+03;
 -2.0000000E-02;  9.9999998E-03; -7.0000000E-02;1674;  0.0000000E+00;  0.0000000E+00;  0.0000000E+00;  1.0103068E+03;  1.0000000E-01;  8.5390176E+03;0;  0.0000000E+00;  0.0000000E+00;  0.0000000E+00;0;  3.0761538E-02;  4.0000000E+04;  0.0000000E+00;  0.0000000E+00;  4.0000000E+04;  0.0000000E+00;  4.0000000E+04;  3.1709492E-02;  0.0000000E+00; -9.4795501E-04;  2.0592981E+03;
 -2.0000000E-02;  9.9999998E-03; -5.9999999E-02;1675;  0.0000000E+00;  0.0000000E+00;  0.0000000E+00;  1.0102308E+03;  1.0000000E-01;  8.4760068E+03;0;  0.0000000E+00;  0.0000000E+00;  0.0000000E+00;0;  3.0821910E-02;  4.0000000E+04;  0.0000000E+00;  0.0000000E+00;  4.0000000E+04;  0.0000000E+00;  4.0000000E+04;  3.1732351E-02;  0.0000000E+00; -9.1044098E-04;  2.1161387E+03;
 -2.0000000E-02;  9.9999998E-03; -5.0000001E-02;1676;  0.0000000E+00;  0.0000000E+00;  0.0000000E+00;  1.0101691E+03;  1.0000000E-01;  8.4248486E+03;0;  0.0000000E+00;  0.0000000E+00;  0.0000000E+00;0;  3.0830966E-02;  4.0000000E+04;  0.0000000E+00;  0.0000000E+00;  4.0000000E+04;  0.0000000E+00;  4.0000000E+04;  3.1692639E-02;  0.0000000E+00; -8.6167292E-04;  2.1545112E+03;
 -2.0000000E-02;  9.9999998E-03; -3.9999999E-02;1677;  0.0000000E+00;  0.0000000E+00;  0.0000000E+00;  1.0101171E+03;  1.0000000E-01;  8.3818867E+03;0;  0.0000000E+00;  0.0000000E+00;  0.0000000E+00;0;  3.0807050E-02;  4.0000000E+04;  0.0000000E+00;  0.0000000E+00;  4.0000000E+04;  0.0000000E+00;  4.0000000E+04;  3.1614661E-02;  0.0000000E+00; -8.0761191E-04;  2.1755977E+03;
 -2.0000000E-02;  9.9999998E-03; -2.9999999E-02;1678;  0.0000000E+00;  0.0000000E+00;  0.0000000E+00;  1.0100803E+03;  1.0000000E-01;  8.3512695E+03;0;  0.0000000E+00;  0.0000000E+00;  0.0000000E+00;0;  3.0767815E-02;  4.0000000E+04;  0.0000000E+00;  0.0000000E+00;  4.0000000E+04;  0.0000000E+00;  4.0000000E+04;  3.1523060E-02;  0.0000000E+00; -7.5524527E-04;  2.1831624E+03;
 -2.0000000E-02;  9.9999998E-03; -2.0000000E-02;1679;  0.0000000E+00;  0.0000000E+00;  0.0000000E+00;  1.0100538E+03;  1.0000000E-01;  8.3294434E+03;0;  0.0000000E+00;  0.0000000E+00;  0.0000000E+00;0;  3.0728161E-02;  4.0000000E+04;  0.0000000E+00;  0.0000000E+00;  4.0000000E+04;  0.0000000E+00;  4.0000000E+04;  3.1439766E-02;  0.0000000E+00; -7.1160460E-04;  2.1825903E+03;
 -2.0000000E-02;  9.9999998E-03; -9.9999998E-03;1680;  0.0000000E+00;  0.0000000E+00;  0.0000000E+00;  1.0100389E+03;  1.0000000E-01;  8.3170977E+03;0;  0.0000000E+00;  0.0000000E+00;  0.0000000E+00;0;  3.0699681E-02;  4.0000000E+04;  0.0000000E+00;  0.0000000E+00;  4.0000000E+04;  0.0000000E+00;  4.0000000E+04;  3.1382389E-02;  0.0000000E+00; -6.8270823E-04;  2.1794592E+03;
 -2.0000000E-02;  9.9999998E-03;  0.0000000E+00;1681;  0.0000000E+00;  0.0000000E+00;  0.0000000E+00;  1.0100334E+03;  1.0000000E-01;  8.3125547E+03;0;  0.0000000E+00;  0.0000000E+00;  0.0000000E+00;0;  3.0689389E-02;  4.0000000E+04;  0.0000000E+00;  0.0000000E+00;  4.0000000E+04;  0.0000000E+00;  4.0000000E+04;  3.1361990E-02;  0.0000000E+00; -6.7260052E-04;  2.1778894E+03;
 -2.0000000E-02;  9.9999998E-03;  9.9999998E-03;1682;  0.0000000E+00;  0.0000000E+00;  0.0000000E+00;  1.0100389E+03;  1.0000000E-01;  8.3170977E+03;0;  0.0000000E+00;  0.0000000E+00;  0.0000000E+00;0;  3.0699687E-02;  4.0000000E+04;  0.0000000E+00;  0.0000000E+00;  4.0000000E+04;  0.0000000E+00;  4.0000000E+04;  3.1382393E-02;  0.0000000E+00; -6.8270683E-04;  2.1794629E+03;
 -2.0000000E-02;  9.9999998E-03;  2.0000000E-02;1683;  0.0000000E+00;  0.0000000E+00;  0.0000000E+00;  1.0100538E+03;  1.0000000E-01;  8.3294434E+03;0;  0.0000000E+00;  0.0000000E+00;  0.0000000E+00;0;  3.0728230E-02;  4.0000000E+04;  0.0000000E+00;  0.0000000E+00;  4.0000000E+04;  0.0000000E+00;  4.0000000E+04;  3.1439833E-02;  0.0000000E+00; -7.1160286E-04;  2.1825950E+03;
 -2.0000000E-02;  9.9999998E-03;  2.9999999E-02;1684;  0.0000000E+00;  0.0000000E+00;  0.0000000E+00;  1.0100801E+03;  1.0000000E-01;  8.3511709E+03;0;  0.0000000E+00;  0.0000000E+00;  0.0000000E+00;0;  3.0767845E-02;  4.0000000E+04;  0.0000000E+00;  0.0000000E+00;  4.0000000E+04;  0.0000000E+00;  4.0000000E+04;  3.1523090E-02;  0.0000000E+00; -7.5524417E-04;  2.1831743E+03;
 -2.0000000E-02;  9.9999998E-03;  3.9999999E-02;1685;  0.0000000E+00;  0.0000000E+00;  0.0000000E+00;  1.0101171E+03;  1.0000000E-01;  8.3817881E+03;0;  0.0000000E+00;  0.0000000E+00;  0.0000000E+00;0;  3.0807132E-02;  4.0000000E+04;  0.0000000E+00;  0.0000000E+00;  4.0000000E+04;  0.0000000E+00;  4.0000000E+04;  3.1614743E-02;  0.0000000E+00; -8.0761092E-04;  2.1756033E+03;
 -2.0000000E-02;  9.9999998E-03;  5.0000001E-02;1686;  0.0000000E+00;  0.0000000E+00;  0.0000000E+00;  1.0101691E+03;  1.0000000E-01;  8.4248486E+03;0;  0.0000000E+00;  0.0000000E+00;  0.0000000E+00;0;  3.0830977E-02;  4.0000000E+04;  0.0000000E+00;  0.0000000E+00;  4.0000000E+04;  0.0000000E+00;  4.0000000E+04;  3.1692650E-02;  0.0000000E+00; -8.6167298E-04;  2.1545176E+03;
 -2.0000000E-02;  9.9999998E-03;  5.9999999E-02;1687;  0.0000000E+00;  0.0000000E+00;  0.0000000E+00;  1.0102308E+03;  1.0000000E-01;  8.4760068E+03;0;  0.0000000E+00;  0.0000000E+00;  0.0000000E+00;0;  3.0821979E-02;  4.0000000E+04;  0.0000000E+00;  0.0000000E+00;  4.0000000E+04;  0.0000000E+00;  4.0000000E+04;  3.1732421E-02;  0.0000000E+00; -9.1044250E-04;  2.1161423E+03;
 -9.9999998E-03;  9.9999998E-03; -1.0000000E-01;1762;  0.0000000E+00;  0.0000000E+00;  0.0000000E+00;  1.0134597E+03;  1.0000000E-01;  1.1151092E+04;0;  0.0000000E+00;  0.0000000E+00;  0.0000000E+00;0;  3.0712545E-02;  4.0000000E+04;  0.0000000E+00;  0.0000000E+00;  4.0000000E+04;  0.0000000E+00;  4.0000000E+04;  3.1817887E-02;  0.0000000E+00; -1.1053430E-03;  1.7158159E+03;
 -9.9999998E-03;  9.9999998E-03; -9.0000004E-02;1763;  0.0000000E+00;  0.0000000E+00;  0.0000000E+00;  1.0133662E+03;  1.0000000E-01;  1.1073662E+04;0;  0.0000000E+00;  0.0000000E+00;  0.0000000E+00;0;  3.1030497E-02;  4.0000000E+04;  0.0000000E+00;  0.0000000E+00;  4.0000000E+04;  0.0000000E+00;  4.0000000E+04;  3.2154784E-02;  0.0000000E+00; -1.1242871E-03;  1.8047073E+03;
 -9.9999998E-03;  9.9999998E-03; -7.9999998E-02;1764;  0.0000000E+00;  0.0000000E+00;  0.0000000E+00;  1.0132632E+03;  1.0000000E-01;  1.0988331E+04;0;  0.0000000E+00;  0.0000000E+00;  0.0000000E+00;0;  3.1248573E-02;  4.0000000E+04;  0.0000000E+00;  0.0000000E+00;  4.0000000E+04;  0.0000000E+00;  4.0000000E+04;  3.2373417E-02;  0.0000000E+00; -1.1248444E-03;  1.8901128E+03;
 -9.9999998E-03;  9.9999998E-03; -7.0000000E-02;1765;  0.0000000E+00;  0.0000000E+00;  0.0000000E+00;  1.0131581E+03;  1.0000000E-01;  1.0901223E+04;0;  0.0000000E+00;  0.0000000E+00;  0.0000000E+00;0;  3.1378195E-02;  4.0000000E+04;  0.0000000E+00;  0.0000000E+00;  4.0000000E+04;  0.0000000E+00;  4.0000000E+04;  3.2484092E-02;  0.0000000E+00; -1.1058981E-03;  1.9649861E+03;
 -9.9999998E-03;  9.9999998E-03; -5.9999999E-02;1766;  0.0000000E+00;  0.0000000E+00;  0.0000000E+00;  1.0130665E+03;  1.0000000E-01;  1.0825274E+04;0;  0.0000000E+00;  0.0000000E+00;  0.0000000E+00;0;  3.1435564E-02;  4.0000000E+04;  0.0000000E+00;  0.0000000E+00;  4.0000000E+04;  0.0000000E+00;  4.0000000E+04;  3.2504708E-02;  0.0000000E+00; -1.0691429E-03;  2.0243604E+03;
 -9.9999998E-03;  9.9999998E-03; -5.0000001E-02;1767;  0.0000000E+00;  0.0000000E+00;  0.0000000E+00;  1.0129893E+03;  1.0000000E-01;  1.0761375E+04;0;  0.0000000E+00;  0.0000000E+00;  0.0000000E+00;0;  3.1439744E-02;  4.0000000E+04;  0.0000000E+00;  0.0000000E+00;  4.0000000E+04;  0.0000000E+00;  4.0000000E+04;  3.2458685E-02;  0.0000000E+00; -1.0189409E-03;  2.0657786E+03;
 -9.9999998E-03;  9.9999998E-03; -3.9999999E-02;1768;  0.0000000E+00;  0.0000000E+00;  0.0000000E+00;  1.0129279E+03;  1.0000000E-01;  1.0710512E+04;0;  0.0000000E+00;  0.0000000E+00;  0.0000000E+00;0;  3.1410567E-02;  4.0000000E+04;  0.0000000E+00;  0.0000000E+00;  4.0000000E+04;  0.0000000E+00;  4.0000000E+04;  3.2372393E-02;  0.0000000E+00; -9.6182455E-04;  2.0897532E+03;
 -9.9999998E-03;  9.9999998E-03; -2.9999999E-02;1769;  0.0000000E+00;  0.0000000E+00;  0.0000000E+00;  1.0128842E+03;  1.0000000E-01;  1.0674365E+04;0;  0.0000000E+00;  0.0000000E+00;  0.0000000E+00;0;  3.1366423E-02;  4.0000000E+04;  0.0000000E+00;  0.0000000E+00;  4.0000000E+04;  0.0000000E+00;  4.0000000E+04;  3.2272059E-02;  0.0000000E+00; -9.0563495E-04;  2.0995698E+03;
 -9.9999998E-03;  9.9999998E-03; -2.0000000E-02;1770;  0.0000000E+00;  0.0000000E+00;  0.0000000E+00;  1.0128524E+03;  1.0000000E-01;  1.0647995E+04;0;  0.0000000E+00;  0.0000000E+00;  0.0000000E+00;0;  3.1323027E-02;  4.0000000E+04;  0.0000000E+00;  0.0000000E+00;  4.0000000E+04;  0.0000000E+00;  4.0000000E+04;  3.2181390E-02;  0.0000000E+00; -8.5836137E-04;  2.1004280E+03;
 -9.9999998E-03;  9.9999998E-03; -9.9999998E-03;1771;  0.0000000E+00;  0.0000000E+00;  0.0000000E+00;  1.0128347E+03;  1.0000000E-01;  1.0633279E+04;0;  0.0000000E+00;  0.0000000E+00;  0.0000000E+00;0;  3.1292111E-02;  4.0000000E+04;  0.0000000E+00;  0.0000000E+00;  4.0000000E+04;  0.0000000E+00;  4.0000000E+04;  3.2118998E-02;  0.0000000E+00; -8.2688750E-04;  2.0980300E+03;
 -9.9999998E-03;  9.9999998E-03;  0.0000000E+00;1772;  0.0000000E+00;  0.0000000E+00;  0.0000000E+00;  1.0128297E+03;  1.0000000E-01;  1.0629132E+04;0;  0.0000000E+00;  0.0000000E+00;  0.0000000E+00;0;  3.1281032E-02;  4.0000000E+04;  0.0000000E+00;  0.0000000E+00;  4.0000000E+04;  0.0000000E+00;  4.0000000E+04;  3.2096881E-02;  0.0000000E+00; -8.1585045E-04;  2.0966902E+03;
 -9.9999998E-03;  9.9999998E-03;  9.9999998E-03;1773;  0.0000000E+00;  0.0000000E+00;  0.0000000E+00;  1.0128346E+03;  1.0000000E-01;  1.0633181E+04;0;  0.0000000E+00;  0.0000000E+00;  0.0000000E+00;0;  3.1292129E-02;  4.0000000E+04;  0.0000000E+00;  0.0000000E+00;  4.0000000E+04;  0.0000000E+00;  4.0000000E+04;  3.2119017E-02;  0.0000000E+00; -8.2688639E-04;  2.0980371E+03;
 -9.9999998E-03;  9.9999998E-03;  2.0000000E-02;1774;  0.0000000E+00;  0.0000000E+00;  0.0000000E+00;  1.0128524E+03;  1.0000000E-01;  1.0647995E+04;0;  0.0000000E+00;  0.0000000E+00;  0.0000000E+00;0;  3.1323068E-02;  4.0000000E+04;  0.0000000E+00;  0.0000000E+00;  4.0000000E+04;  0.0000000E+00;  4.0000000E+04;  3.2181427E-02;  0.0000000E+00; -8.5835950E-04;  2.1004377E+03;
 -9.9999998E-03;  9.9999998E-03;  2.9999999E-02;1775;  0.0000000E+00;  0.0000000E+00;  0.0000000E+00;  1.0128842E+03;  1.0000000E-01;  1.0674365E+04;0;  0.0000000E+00;  0.0000000E+00;  0.0000000E+00;0;  3.1366494E-02;  4.0000000E+04;  0.0000000E+00;  0.0000000E+00;  4.0000000E+04;  0.0000000E+00;  4.0000000E+04;  3.2272127E-02;  0.0000000E+00; -9.0563222E-04;  2.0995811E+03;
 -9.9999998E-03;  9.9999998E-03;  3.9999999E-02;1776;  0.0000000E+00;  0.0000000E+00;  0.0000000E+00;  1.0129279E+03;  1.0000000E-01;  1.0710512E+04;0;  0.0000000E+00;  0.0000000E+00;  0.0000000E+00;0;  3.1410657E-02;  4.0000000E+04;  0.0000000E+00;  0.0000000E+00;  4.0000000E+04;  0.0000000E+00;  4.0000000E+04;  3.2372478E-02;  0.0000000E+00; -9.6182281E-04;  2.0897629E+03;
 -9.9999998E-03;  9.9999998E-03;  5.0000001E-02;1777;  0.0000000E+00;  0.0000000E+00;  0.0000000E+00;  1.0129893E+03;  1.0000000E-01;  1.0761375E+04;0;  0.0000000E+00;  0.0000000E+00;  0.0000000E+00;0;  3.1439867E-02;  4.0000000E+04;  0.0000000E+00;  0.0000000E+00;  4.0000000E+04;  0.0000000E+00;  4.0000000E+04;  3.2458805E-02;  0.0000000E+00; -1.0189386E-03;  2.0657878E+03;
 -9.9999998E-03;  9.9999998E-03;  5.9999999E-02;1778;  0.0000000E+00;  0.0000000E+00;  0.0000000E+00;  1.0130665E+03;  1.0000000E-01;  1.0825274E+04;0;  0.0000000E+00;  0.0000000E+00;  0.0000000E+00;0;  3.1435691E-02;  4.0000000E+04;  0.0000000E+00;  0.0000000E+00;  4.0000000E+04;  0.0000000E+00;  4.0000000E+04;  3.2504834E-02;  0.0000000E+00; -1.0691426E-03;  2.0243668E+03;
 -1.9000000E-01;  9.9999998E-03;  7.0000000E-02;141;  0.0000000E+00;  0.0000000E+00;  0.0000000E+00;  1.0000000E+03;  1.0000000E-01;  0.0000000E+00;0;  0.0000000E+00;  0.0000000E+00;  0.0000000E+00;0;  0.0000000E+00;  4.0000000E+04;  0.0000000E+00;  0.0000000E+00;  4.0000000E+04;  0.0000000E+00;  4.0000000E+04;  0.0000000E+00;  0.0000000E+00;  0.0000000E+00;  0.0000000E+00;
 -1.9000000E-01;  9.9999998E-03;  7.9999998E-02;142;  0.0000000E+00;  0.0000000E+00;  0.0000000E+00;  1.0000000E+03;  1.0000000E-01;  0.0000000E+00;0;  0.0000000E+00;  0.0000000E+00;  0.0000000E+00;0;  0.0000000E+00;  4.0000000E+04;  0.0000000E+00;  0.0000000E+00;  4.0000000E+04;  0.0000000E+00;  4.0000000E+04;  0.0000000E+00;  0.0000000E+00;  0.0000000E+00;  0.0000000E+00;
 -1.9000000E-01;  9.9999998E-03;  9.0000004E-02;143;  0.0000000E+00;  0.0000000E+00;  0.0000000E+00;  1.0000000E+03;  1.0000000E-01;  0.0000000E+00;0;  0.0000000E+00;  0.0000000E+00;  0.0000000E+00;0;  0.0000000E+00;  4.0000000E+04;  0.0000000E+00;  0.0000000E+00;  4.0000000E+04;  0.0000000E+00;  4.0000000E+04;  0.0000000E+00;  0.0000000E+00;  0.0000000E+00;  0.0000000E+00;
 -1.9000000E-01;  9.9999998E-03;  1.0000000E-01;144;  0.0000000E+00;  0.0000000E+00;  0.0000000E+00;  1.0000000E+03;  1.0000000E-01;  0.0000000E+00;0;  0.0000000E+00;  0.0000000E+00;  0.0000000E+00;0;  0.0000000E+00;  4.0000000E+04;  0.0000000E+00;  0.0000000E+00;  4.0000000E+04;  0.0000000E+00;  4.0000000E+04;  0.0000000E+00;  0.0000000E+00;  0.0000000E+00;  0.0000000E+00;
 -1.9000000E-01;  9.9999998E-03;  1.1000000E-01;145;  0.0000000E+00;  0.0000000E+00;  0.0000000E+00;  1.0000000E+03;  1.0000000E-01;  0.0000000E+00;0;  0.0000000E+00;  0.0000000E+00;  0.0000000E+00;0;  0.0000000E+00;  4.0000000E+04;  0.0000000E+00;  0.0000000E+00;  4.0000000E+04;  0.0000000E+00;  4.0000000E+04;  0.0000000E+00;  0.0000000E+00;  0.0000000E+00;  0.0000000E+00;
 -1.9000000E-01;  9.9999998E-03;  1.2000000E-01;146;  0.0000000E+00;  0.0000000E+00;  0.0000000E+00;  1.0000000E+03;  1.0000000E-01;  0.0000000E+00;0;  0.0000000E+00;  0.0000000E+00;  0.0000000E+00;0;  0.0000000E+00;  4.0000000E+04;  0.0000000E+00;  0.0000000E+00;  4.0000000E+04;  0.0000000E+00;  4.0000000E+04;  0.0000000E+00;  0.0000000E+00;  0.0000000E+00;  0.0000000E+00;
 -1.9000000E-01;  9.9999998E-03;  1.3000000E-01;147;  0.0000000E+00;  0.0000000E+00;  0.0000000E+00;  1.0000000E+03;  1.0000000E-01;  0.0000000E+00;0;  0.0000000E+00;  0.0000000E+00;  0.0000000E+00;0;  0.0000000E+00;  4.0000000E+04;  0.0000000E+00;  0.0000000E+00;  4.0000000E+04;  0.0000000E+00;  4.0000000E+04;  0.0000000E+00;  0.0000000E+00;  0.0000000E+00;  0.0000000E+00;
 -1.9000000E-01;  9.9999998E-03;  1.4000000E-01;148;  0.0000000E+00;  0.0000000E+00;  0.0000000E+00;  1.0000000E+03;  1.0000000E-01;  0.0000000E+00;0;  0.0000000E+00;  0.0000000E+00;  0.0000000E+00;0;  0.0000000E+00;  4.0000000E+04;  0.0000000E+00;  0.0000000E+00;  4.0000000E+04;  0.0000000E+00;  4.0000000E+04;  0.0000000E+00;  0.0000000E+00;  0.0000000E+00;  0.0000000E+00;
 -1.9000000E-01;  9.9999998E-03;  1.5000001E-01;149;  0.0000000E+00;  0.0000000E+00;  0.0000000E+00;  1.0000000E+03;  1.0000000E-01;  0.0000000E+00;0;  0.0000000E+00;  0.0000000E+00;  0.0000000E+00;0;  0.0000000E+00;  4.0000000E+04;  0.0000000E+00;  0.0000000E+00;  4.0000000E+04;  0.0000000E+00;  4.0000000E+04;  0.0000000E+00;  0.0000000E+00;  0.0000000E+00;  0.0000000E+00;
 -1.9000000E-01;  9.9999998E-03;  1.6000000E-01;150;  0.0000000E+00;  0.0000000E+00;  0.0000000E+00;  1.0000000E+03;  1.0000000E-01;  0.0000000E+00;0;  0.0000000E+00;  0.0000000E+00;  0.0000000E+00;0;  0.0000000E+00;  4.0000000E+04;  0.0000000E+00;  0.0000000E+00;  4.0000000E+04;  0.0000000E+00;  4.0000000E+04;  0.0000000E+00;  0.0000000E+00;  0.0000000E+00;  0.0000000E+00;
 -1.9000000E-01;  9.9999998E-03;  1.7000000E-01;151;  0.0000000E+00;  0.0000000E+00;  0.0000000E+00;  1.0000000E+03;  1.0000000E-01;  0.0000000E+00;0;  0.0000000E+00;  0.0000000E+00;  0.0000000E+00;0;  0.0000000E+00;  4.0000000E+04;  0.0000000E+00;  0.0000000E+00;  4.0000000E+04;  0.0000000E+00;  4.0000000E+04;  0.0000000E+00;  0.0000000E+00;  0.0000000E+00;  0.0000000E+00;
 -1.9000000E-01;  9.9999998E-03;  1.8000001E-01;152;  0.0000000E+00;  0.0000000E+00;  0.0000000E+00;  1.0000000E+03;  1.0000000E-01;  0.0000000E+00;0;  0.0000000E+00;  0.0000000E+00;  0.0000000E+00;0;  0.0000000E+00;  4.0000000E+04;  0.0000000E+00;  0.0000000E+00;  4.0000000E+04;  0.0000000E+00;  4.0000000E+04;  0.0000000E+00;  0.0000000E+00;  0.0000000E+00;  0.0000000E+00;
 -1.9000000E-01;  9.9999998E-03;  1.9000000E-01;153;  0.0000000E+00;  0.0000000E+00;  0.0000000E+00;  1.0000000E+03;  1.0000000E-01;  0.0000000E+00;0;  0.0000000E+00;  0.0000000E+00;  0.0000000E+00;0;  0.0000000E+00;  4.0000000E+04;  0.0000000E+00;  0.0000000E+00;  4.0000000E+04;  0.0000000E+00;  4.0000000E+04;  0.0000000E+00;  0.0000000E+00;  0.0000000E+00;  0.0000000E+00;
 -1.9000000E-01;  9.9999998E-03;  2.0000000E-01;154;  0.0000000E+00;  0.0000000E+00;  0.0000000E+00;  1.0000000E+03;  1.0000000E-01;  0.0000000E+00;0;  0.0000000E+00;  0.0000000E+00;  0.0000000E+00;0;  0.0000000E+00;  4.0000000E+04;  0.0000000E+00;  0.0000000E+00;  4.0000000E+04;  0.0000000E+00;  4.0000000E+04;  0.0000000E+00;  0.0000000E+00;  0.0000000E+00;  0.0000000E+00;
 -1.9000000E-01;  9.9999998E-03;  2.0999999E-01;155;  0.0000000E+00;  0.0000000E+00;  0.0000000E+00;  1.0000000E+03;  1.0000000E-01;  0.0000000E+00;0;  0.0000000E+00;  0.0000000E+00;  0.0000000E+00;0;  0.0000000E+00;  4.0000000E+04;  0.0000000E+00;  0.0000000E+00;  4.0000000E+04;  0.0000000E+00;  4.0000000E+04;  0.0000000E+00;  0.0000000E+00;  0.0000000E+00;  0.0000000E+00;
 -1.9000000E-01;  9.9999998E-03;  2.2000000E-01;156;  0.0000000E+00;  0.0000000E+00;  0.0000000E+00;  1.0000000E+03;  1.0000000E-01;  0.0000000E+00;0;  0.0000000E+00;  0.0000000E+00;  0.0000000E+00;0;  0.0000000E+00;  4.0000000E+04;  0.0000000E+00;  0.0000000E+00;  4.0000000E+04;  0.0000000E+00;  4.0000000E+04;  0.0000000E+00;  0.0000000E+00;  0.0000000E+00;  0.0000000E+00;
 -1.9000000E-01;  9.9999998E-03;  2.3000000E-01;157;  0.0000000E+00;  0.0000000E+00;  0.0000000E+00;  1.0000000E+03;  1.0000000E-01;  0.0000000E+00;0;  0.0000000E+00;  0.0000000E+00;  0.0000000E+00;0;  0.0000000E+00;  4.0000000E+04;  0.0000000E+00;  0.0000000E+00;  4.0000000E+04;  0.0000000E+00;  4.0000000E+04;  0.0000000E+00;  0.0000000E+00;  0.0000000E+00;  0.0000000E+00;
 -1.8000001E-01;  9.9999998E-03;  7.0000000E-02;232;  0.0000000E+00;  0.0000000E+00;  0.0000000E+00;  1.0000000E+03;  1.0000000E-01;  0.0000000E+00;0;  0.0000000E+00;  0.0000000E+00;  0.0000000E+00;0;  0.0000000E+00;  4.0000000E+04;  0.0000000E+00;  0.0000000E+00;  4.0000000E+04;  0.0000000E+00;  4.0000000E+04;  0.0000000E+00;  0.0000000E+00;  0.0000000E+00;  0.0000000E+00;
 -1.8000001E-01;  9.9999998E-03;  7.9999998E-02;233;  0.0000000E+00;  0.0000000E+00;  0.0000000E+00;  1.0000000E+03;  1.0000000E-01;  0.0000000E+00;0;  0.0000000E+00;  0.0000000E+00;  0.0000000E+00;0;  0.0000000E+00;  4.0000000E+04;  0.0000000E+00;  0.0000000E+00;  4.0000000E+04;  0.0000000E+00;  4.0000000E+04;  0.0000000E+00;  0.0000000E+00;  0.0000000E+00;  0.0000000E+00;
 -1.8000001E-01;  9.9999998E-03;  9.0000004E-02;234;  0.0000000E+00;  0.0000000E+00;  0.0000000E+00;  1.0000000E+03;  1.0000000E-01;  0.0000000E+00;0;  0.0000000E+00;  0.0000000E+00;  0.0000000E+00;0;  0.0000000E+00;  4.0000000E+04;  0.0000000E+00;  0.0000000E+00;  4.0000000E+04;  0.0000000E+00;  4.0000000E+04;  0.0000000E+00;  0.0000000E+00;  0.0000000E+00;  0.0000000E+00;
 -1.8000001E-01;  9.9999998E-03;  1.0000000E-01;235;  0.0000000E+00;  0.0000000E+00;  0.0000000E+00;  1.0000000E+03;  1.0000000E-01;  0.0000000E+00;0;  0.0000000E+00;  0.0000000E+00;  0.0000000E+00;0;  0.0000000E+00;  4.0000000E+04;  0.0000000E+00;  0.0000000E+00;  4.0000000E+04;  0.0000000E+00;  4.0000000E+04;  0.0000000E+00;  0.0000000E+00;  0.0000000E+00;  0.0000000E+00;
 -1.8000001E-01;  9.9999998E-03;  1.1000000E-01;236;  0.0000000E+00;  0.0000000E+00;  0.0000000E+00;  1.0000000E+03;  1.0000000E-01;  0.0000000E+00;0;  0.0000000E+00;  0.0000000E+00;  0.0000000E+00;0;  0.0000000E+00;  4.0000000E+04;  0.0000000E+00;  0.0000000E+00;  4.0000000E+04;  0.0000000E+00;  4.0000000E+04;  0.0000000E+00;  0.0000000E+00;  0.0000000E+00;  0.0000000E+00;
 -1.8000001E-01;  9.9999998E-03;  1.2000000E-01;237;  0.0000000E+00;  0.0000000E+00;  0.0000000E+00;  1.0000000E+03;  1.0000000E-01;  0.0000000E+00;0;  0.0000000E+00;  0.0000000E+00;  0.0000000E+00;0;  0.0000000E+00;  4.0000000E+04;  0.0000000E+00;  0.0000000E+00;  4.0000000E+04;  0.0000000E+00;  4.0000000E+04;  0.0000000E+00;  0.0000000E+00;  0.0000000E+00;  0.0000000E+00;
 -1.8000001E-01;  9.9999998E-03;  1.3000000E-01;238;  0.0000000E+00;  0.0000000E+00;  0.0000000E+00;  1.0000000E+03;  1.0000000E-01;  0.0000000E+00;0;  0.0000000E+00;  0.0000000E+00;  0.0000000E+00;0;  0.0000000E+00;  4.0000000E+04;  0.0000000E+00;  0.0000000E+00;  4.0000000E+04;  0.0000000E+00;  4.0000000E+04;  0.0000000E+00;  0.0000000E+00;  0.0000000E+00;  0.0000000E+00;
 -1.8000001E-01;  9.9999998E-03;  1.4000000E-01;239;  0.0000000E+00;  0.0000000E+00;  0.0000000E+00;  1.0000000E+03;  1.0000000E-01;  0.0000000E+00;0;  0.0000000E+00;  0.0000000E+00;  0.0000000E+00;0;  0.0000000E+00;  4.0000000E+04;  0.0000000E+00;  0.0000000E+00;  4.0000000E+04;  0.0000000E+00;  4.0000000E+04;  0.0000000E+00;  0.0000000E+00;  0.0000000E+00;  0.0000000E+00;
 -1.8000001E-01;  9.9999998E-03;  1.5000001E-01;240;  0.0000000E+00;  0.0000000E+00;  0.0000000E+00;  1.0000000E+03;  1.0000000E-01;  0.0000000E+00;0;  0.0000000E+00;  0.0000000E+00;  0.0000000E+00;0;  0.0000000E+00;  4.0000000E+04;  0.0000000E+00;  0.0000000E+00;  4.0000000E+04;  0.0000000E+00;  4.0000000E+04;  0.0000000E+00;  0.0000000E+00;  0.0000000E+00;  0.0000000E+00;
 -1.8000001E-01;  9.9999998E-03;  1.6000000E-01;241;  0.0000000E+00;  0.0000000E+00;  0.0000000E+00;  1.0000000E+03;  1.0000000E-01;  0.0000000E+00;0;  0.0000000E+00;  0.0000000E+00;  0.0000000E+00;0;  0.0000000E+00;  4.0000000E+04;  0.0000000E+00;  0.0000000E+00;  4.0000000E+04;  0.0000000E+00;  4.0000000E+04;  0.0000000E+00;  0.0000000E+00;  0.0000000E+00;  0.0000000E+00;
 -1.8000001E-01;  9.9999998E-03;  1.7000000E-01;242;  0.0000000E+00;  0.0000000E+00;  0.0000000E+00;  1.0000000E+03;  1.0000000E-01;  0.0000000E+00;0;  0.0000000E+00;  0.0000000E+00;  0.0000000E+00;0;  0.0000000E+00;  4.0000000E+04;  0.0000000E+00;  0.0000000E+00;  4.0000000E+04;  0.0000000E+00;  4.0000000E+04;  0.0000000E+00;  0.0000000E+00;  0.0000000E+00;  0.0000000E+00;
 -1.8000001E-01;  9.9999998E-03;  1.8000001E-01;243;  0.0000000E+00;  0.0000000E+00;  0.0000000E+00;  1.0000000E+03;  1.0000000E-01;  0.0000000E+00;0;  0.0000000E+00;  0.0000000E+00;  0.0000000E+00;0;  0.0000000E+00;  4.0000000E+04;  0.0000000E+00;  0.0000000E+00;  4.0000000E+04;  0.0000000E+00;  4.0000000E+04;  0.0000000E+00;  0.0000000E+00;  0.0000000E+00;  0.0000000E+00;
 -1.8000001E-01;  9.9999998E-03;  1.9000000E-01;244;  0.0000000E+00;  0.0000000E+00;  0.0000000E+00;  1.0000000E+03;  1.0000000E-01;  0.0000000E+00;0;  0.0000000E+00;  0.0000000E+00;  0.0000000E+00;0;  0.0000000E+00;  4.0000000E+04;  0.0000000E+00;  0.0000000E+00;  4.0000000E+04;  0.0000000E+00;  4.0000000E+04;  0.0000000E+00;  0.0000000E+00;  0.0000000E+00;  0.0000000E+00;
 -1.8000001E-01;  9.9999998E-03;  2.0000000E-01;245;  0.0000000E+00;  0.0000000E+00;  0.0000000E+00;  1.0000000E+03;  1.0000000E-01;  0.0000000E+00;0;  0.0000000E+00;  0.0000000E+00;  0.0000000E+00;0;  0.0000000E+00;  4.0000000E+04;  0.0000000E+00;  0.0000000E+00;  4.0000000E+04;  0.0000000E+00;  4.0000000E+04;  0.0000000E+00;  0.0000000E+00;  0.0000000E+00;  0.0000000E+00;
 -1.8000001E-01;  9.9999998E-03;  2.0999999E-01;246;  0.0000000E+00;  0.0000000E+00;  0.0000000E+00;  1.0000000E+03;  1.0000000E-01;  0.0000000E+00;0;  0.0000000E+00;  0.0000000E+00;  0.0000000E+00;0;  0.0000000E+00;  4.0000000E+04;  0.0000000E+00;  0.0000000E+00;  4.0000000E+04;  0.0000000E+00;  4.0000000E+04;  0.0000000E+00;  0.0000000E+00;  0.0000000E+00;  0.0000000E+00;
 -1.8000001E-01;  9.9999998E-03;  2.2000000E-01;247;  0.0000000E+00;  0.0000000E+00;  0.0000000E+00;  1.0000000E+03;  1.0000000E-01;  0.0000000E+00;0;  0.0000000E+00;  0.0000000E+00;  0.0000000E+00;0;  0.0000000E+00;  4.0000000E+04;  0.0000000E+00;  0.0000000E+00;  4.0000000E+04;  0.0000000E+00;  4.0000000E+04;  0.0000000E+00;  0.0000000E+00;  0.0000000E+00;  0.0000000E+00;
 -1.8000001E-01;  9.9999998E-03;  2.3000000E-01;248;  0.0000000E+00;  0.0000000E+00;  0.0000000E+00;  1.0000000E+03;  1.0000000E-01;  0.0000000E+00;0;  0.0000000E+00;  0.0000000E+00;  0.0000000E+00;0;  0.0000000E+00;  4.0000000E+04;  0.0000000E+00;  0.0000000E+00;  4.0000000E+04;  0.0000000E+00;  4.0000000E+04;  0.0000000E+00;  0.0000000E+00;  0.0000000E+00;  0.0000000E+00;
 -1.7000000E-01;  9.9999998E-03;  7.0000000E-02;323;  0.0000000E+00;  0.0000000E+00;  0.0000000E+00;  1.0000000E+03;  1.0000000E-01;  0.0000000E+00;0;  0.0000000E+00;  0.0000000E+00;  0.0000000E+00;0;  0.0000000E+00;  4.0000000E+04;  0.0000000E+00;  0.0000000E+00;  4.0000000E+04;  0.0000000E+00;  4.0000000E+04;  0.0000000E+00;  0.0000000E+00;  0.0000000E+00;  2.0677076E-09;
 -1.7000000E-01;  9.9999998E-03;  7.9999998E-02;324;  0.0000000E+00;  0.0000000E+00;  0.0000000E+00;  1.0000000E+03;  1.0000000E-01;  0.0000000E+00;0;  0.0000000E+00;  0.0000000E+00;  0.0000000E+00;0;  0.0000000E+00;  4.0000000E+04;  0.0000000E+00;  0.0000000E+00;  4.0000000E+04;  0.0000000E+00;  4.0000000E+04;  0.0000000E+00;  0.0000000E+00;  0.0000000E+00;  2.0276110E-09;
 -1.7000000E-01;  9.9999998E-03;  9.0000004E-02;325;  0.0000000E+00;  0.0000000E+00;  0.0000000E+00;  1.0000000E+03;  1.0000000E-01;  0.0000000E+00;0;  0.0000000E+00;  0.0000000E+00;  0.0000000E+00;0;  0.0000000E+00;  4.0000000E+04;  0.0000000E+00;  0.0000000E+00;  4.0000000E+04;  0.0000000E+00;  4.0000000E+04;  0.0000000E+00;  0.0000000E+00;  0.0000000E+00;  1.9964661E-09;
 -1.7000000E-01;  9.9999998E-03;  1.0000000E-01;326;  0.0000000E+00;  0.0000000E+00;  0.0000000E+00;  1.0000000E+03;  1.0000000E-01;  0.0000000E+00;0;  0.0000000E+00;  0.0000000E+00;  0.0000000E+00;0;  0.0000000E+00;  4.0000000E+04;  0.0000000E+00;  0.0000000E+00;  4.0000000E+04;  0.0000000E+00;  4.0000000E+04;  0.0000000E+00;  0.0000000E+00;  0.0000000E+00;  1.9806543E-09;
 -1.7000000E-01;  9.9999998E-03;  1.1000000E-01;327;  0.0000000E+00;  0.0000000E+00;  0.0000000E+00;  1.0000000E+03;  1.0000000E-01;  0.0000000E+00;0;  0.0000000E+00;  0.0000000E+00;  0.0000000E+00;0;  0.0000000E+00;  4.0000000E+04;  0.0000000E+00;  0.0000000E+00;  4.0000000E+04;  0.0000000E+00;  4.0000000E+04;  0.0000000E+00;  0.0000000E+00;  0.0000000E+00;  1.9613826E-09;
 -1.7000000E-01;  9.9999998E-03;  1.2000000E-01;328;  0.0000000E+00;  0.0000000E+00;  0.0000000E+00;  1.0000000E+03;  1.0000000E-01;  0.0000000E+00;0;  0.0000000E+00;  0.0000000E+00;  0.0000000E+00;0;  0.0000000E+00;  4.0000000E+04;  0.0000000E+00;  0.0000000E+00;  4.0000000E+04;  0.0000000E+00;  4.0000000E+04;  0.0000000E+00;  0.0000000E+00;  0.0000000E+00;  1.9547131E-09;
 -1.7000000E-01;  9.9999998E-03;  1.3000000E-01;329;  0.0000000E+00;  0.0000000E+00;  0.0000000E+00;  1.0000000E+03;  1.0000000E-01;  0.0000000E+00;0;  0.0000000E+00;  0.0000000E+00;  0.0000000E+00;0;  0.0000000E+00;  4.0000000E+04;  0.0000000E+00;  0.0000000E+00;  4.0000000E+04;  0.0000000E+00;  4.0000000E+04;  0.0000000E+00;  0.0000000E+00;  0.0000000E+00;  1.9304123E-09;
 -1.7000000E-01;  9.9999998E-03;  1.4000000E-01;330;  0.0000000E+00;  0.0000000E+00;  0.0000000E+00;  1.0000000E+03;  1.0000000E-01;  0.0000000E+00;0;  0.0000000E+00;  0.0000000E+00;  0.0000000E+00;0;  0.0000000E+00;  4.0000000E+04;  0.0000000E+00;  0.0000000E+00;  4.0000000E+04;  0.0000000E+00;  4.0000000E+04;  0.0000000E+00;  0.0000000E+00;  0.0000000E+00;  1.9071280E-09;
 -1.7000000E-01;  9.9999998E-03;  1.5000001E-01;331;  0.0000000E+00;  0.0000000E+00;  0.0000000E+00;  1.0000000E+03;  1.0000000E-01;  0.0000000E+00;0;  0.0000000E+00;  0.0000000E+00;  0.0000000E+00;0;  0.0000000E+00;  4.0000000E+04;  0.0000000E+00;  0.0000000E+00;  4.0000000E+04;  0.0000000E+00;  4.0000000E+04;  0.0000000E+00;  0.0000000E+00;  0.0000000E+00;  1.8279691E-09;
 -1.7000000E-01;  9.9999998E-03;  1.6000000E-01;332;  0.0000000E+00;  0.0000000E+00;  0.0000000E+00;  1.0000000E+03;  1.0000000E-01;  0.0000000E+00;0;  0.0000000E+00;  0.0000000E+00;  0.0000000E+00;0;  0.0000000E+00;  4.0000000E+04;  0.0000000E+00;  0.0000000E+00;  4.0000000E+04;  0.0000000E+00;  4.0000000E+04;  0.0000000E+00;  0.0000000E+00;  0.0000000E+00;  1.7068014E-09;
 -1.7000000E-01;  9.9999998E-03;  1.7000000E-01;333;  0.0000000E+00;  0.0000000E+00;  0.0000000E+00;  1.0000000E+03;  1.0000000E-01;  0.0000000E+00;0;  0.0000000E+00;  0.0000000E+00;  0.0000000E+00;0;  0.0000000E+00;  4.0000000E+04;  0.0000000E+00;  0.0000000E+00;  4.0000000E+04;  0.0000000E+00;  4.0000000E+04;  0.0000000E+00;  0.0000000E+00;  0.0000000E+00;  1.5737418E-09;
 -1.7000000E-01;  9.9999998E-03;  1.8000001E-01;334;  0.0000000E+00;  0.0000000E+00;  0.0000000E+00;  1.0000000E+03;  1.0000000E-01;  0.0000000E+00;0;  0.0000000E+00;  0.0000000E+00;  0.0000000E+00;0;  0.0000000E+00;  4.0000000E+04;  0.0000000E+00;  0.0000000E+00;  4.0000000E+04;  0.0000000E+00;  4.0000000E+04;  0.0000000E+00;  0.0000000E+00;  0.0000000E+00;  1.4536757E-09;
 -1.7000000E-01;  9.9999998E-03;  1.9000000E-01;335;  0.0000000E+00;  0.0000000E+00;  0.0000000E+00;  1.0000000E+03;  1.0000000E-01;  0.0000000E+00;0;  0.0000000E+00;  0.0000000E+00;  0.0000000E+00;0;  0.0000000E+00;  4.0000000E+04;  0.0000000E+00;  0.0000000E+00;  4.0000000E+04;  0.0000000E+00;  4.0000000E+04;  0.0000000E+00;  0.0000000E+00;  0.0000000E+00;  1.3804979E-09;
 -1.7000000E-01;  9.9999998E-03;  2.0000000E-01;336;  0.0000000E+00;  0.0000000E+00;  0.0000000E+00;  1.0000000E+03;  1.0000000E-01;  0.0000000E+00;0;  0.0000000E+00;  0.0000000E+00;  0.0000000E+00;0;  0.0000000E+00;  4.0000000E+04;  0.0000000E+00;  0.0000000E+00;  4.0000000E+04;  0.0000000E+00;  4.0000000E+04;  0.0000000E+00;  0.0000000E+00;  0.0000000E+00;  1.3572699E-09;
 -1.7000000E-01;  9.9999998E-03;  2.0999999E-01;337;  0.0000000E+00;  0.0000000E+00;  0.0000000E+00;  1.0000000E+03;  1.0000000E-01;  0.0000000E+00;0;  0.0000000E+00;  0.0000000E+00;  0.0000000E+00;0;  0.0000000E+00;  4.0000000E+04;  0.0000000E+00;  0.0000000E+00;  4.0000000E+04;  0.0000000E+00;  4.0000000E+04;  0.0000000E+00;  0.0000000E+00;  0.0000000E+00;  1.3090043E-09;
 -1.7000000E-01;  9.9999998E-03;  2.2000000E-01;338;  0.0000000E+00;  0.0000000E+00;  0.0000000E+00;  1.0000000E+03;  1.0000000E-01;  0.0000000E+00;0;  0.0000000E+00;  0.0000000E+00;  0.0000000E+00;0;  0.0000000E+00;  4.0000000E+04;  0.0000000E+00;  0.0000000E+00;  4.0000000E+04;  0.0000000E+00;  4.0000000E+04;  0.0000000E+00;  0.0000000E+00;  0.0000000E+00;  1.1702984E-09;
 -1.7000000E-01;  9.9999998E-03;  2.3000000E-01;339;  0.0000000E+00;  0.0000000E+00;  0.0000000E+00;  1.0000000E+03;  1.0000000E-01;  0.0000000E+00;0;  0.0000000E+00;  0.0000000E+00;  0.0000000E+00;0;  0.0000000E+00;  4.0000000E+04;  0.0000000E+00;  0.0000000E+00;  4.0000000E+04;  0.0000000E+00;  4.0000000E+04;  0.0000000E+00;  0.0000000E+00;  0.0000000E+00;  9.6134622E-10;
 -1.6000000E-01;  9.9999998E-03;  7.0000000E-02;414;  0.0000000E+00;  0.0000000E+00;  0.0000000E+00;  1.0000000E+03;  1.0000000E-01;  0.0000000E+00;0;  0.0000000E+00;  0.0000000E+00;  0.0000000E+00;0;  1.2042146E-06;  4.0000000E+04;  0.0000000E+00;  0.0000000E+00;  4.0000000E+04;  0.0000000E+00;  4.0000000E+04;  1.2050551E-06;  0.0000000E+00; -8.4052687E-10;  2.7590221E-01;
 -1.6000000E-01;  9.9999998E-03;  7.9999998E-02;415;  0.0000000E+00;  0.0000000E+00;  0.0000000E+00;  1.0000000E+03;  1.0000000E-01;  0.0000000E+00;0;  0.0000000E+00;  0.0000000E+00;  0.0000000E+00;0;  1.1960893E-06;  4.0000000E+04;  0.0000000E+00;  0.0000000E+00;  4.0000000E+04;  0.0000000E+00;  4.0000000E+04;  1.1970453E-06;  0.0000000E+00; -9.5603248E-10;  2.7623603E-01;
 -1.6000000E-01;  9.9999998E-03;  9.0000004E-02;416;  0.0000000E+00;  0.0000000E+00;  0.0000000E+00;  1.0000000E+03;  1.0000000E-01;  0.0000000E+00;0;  0.0000000E+00;  0.0000000E+00;  0.0000000E+00;0;  1.1880118E-06;  4.0000000E+04;  0.0000000E+00;  0.0000000E+00;  4.0000000E+04;  0.0000000E+00;  4.0000000E+04;  1.1890534E-06;  0.0000000E+00; -1.0416167E-09;  2.7732575E-01;
 -1.6000000E-01;  9.9999998E-03;  1.0000000E-01;417;  0.0000000E+00;  0.0000000E+00;  0.0000000E+00;  1.0000000E+03;  1.0000000E-01;  0.0000000E+00;0;  0.0000000E+00;  0.0000000E+00;  0.0000000E+00;0;  1.1802108E-06;  4.0000000E+04;  0.0000000E+00;  0.0000000E+00;  4.0000000E+04;  0.0000000E+00;  4.0000000E+04;  1.1813027E-06;  0.0000000E+00; -1.0918165E-09;  2.7948892E-01;
 -1.6000000E-01;  9.9999998E-03;  1.1000000E-01;418;  0.0000000E+00;  0.0000000E+00;  0.0000000E+00;  1.0000000E+03;  1.0000000E-01;  0.0000000E+00;0;  0.0000000E+00;  0.0000000E+00;  0.0000000E+00;0;  1.1728762E-06;  4.0000000E+04;  0.0000000E+00;  0.0000000E+00;  4.0000000E+04;  0.0000000E+00;  4.0000000E+04;  1.1739766E-06;  0.0000000E+00; -1.1004111E-09;  2.8279218E-01;
 -1.6000000E-01;  9.9999998E-03;  1.2000000E-01;419;  0.0000000E+00;  0.0000000E+00;  0.0000000E+00;  1.0000000E+03;  1.0000000E-01;  0.0000000E+00;0;  0.0000000E+00;  0.0000000E+00;  0.0000000E+00;0;  1.1662564E-06;  4.0000000E+04;  0.0000000E+00;  0.0000000E+00;  4.0000000E+04;  0.0000000E+00;  4.0000000E+04;  1.1673176E-06;  0.0000000E+00; -1.0611830E-09;  2.8692457E-01;
 -1.6000000E-01;  9.9999998E-03;  1.3000000E-01;420;  0.0000000E+00;  0.0000000E+00;  0.0000000E+00;  1.0000000E+03;  1.0000000E-01;  0.0000000E+00;0;  0.0000000E+00;  0.0000000E+00;  0.0000000E+00;0;  1.1608132E-06;  4.0000000E+04;  0.0000000E+00;  0.0000000E+00;  4.0000000E+04;  0.0000000E+00;  4.0000000E+04;  1.1617852E-06;  0.0000000E+00; -9.7198960E-10;  2.9124025E-01;
 -1.6000000E-01;  9.9999998E-03;  1.4000000E-01;421;  0.0000000E+00;  0.0000000E+00;  0.0000000E+00;  1.0000000E+03;  1.0000000E-01;  0.0000000E+00;0;  0.0000000E+00;  0.0000000E+00;  0.0000000E+00;0;  1.1575444E-06;  4.0000000E+04;  0.0000000E+00;  0.0000000E+00;  4.0000000E+04;  0.0000000E+00;  4.0000000E+04;  1.1583849E-06;  0.0000000E+00; -8.4043866E-10;  2.9493773E-01;
 -1.6000000E-01;  9.9999998E-03;  1.5000001E-01;422;  0.0000000E+00;  0.0000000E+00;  0.0000000E+00;  1.0000000E+03;  1.0000000E-01;  0.0000000E+00;0;  0.0000000E+00;  0.0000000E+00;  0.0000000E+00;0;  1.1583179E-06;  4.0000000E+04;  0.0000000E+00;  0.0000000E+00;  4.0000000E+04;  0.0000000E+00;  4.0000000E+04;  1.1590093E-06;  0.0000000E+00; -6.9142403E-10;  2.9725918E-01;
 -1.6000000E-01;  9.9999998E-03;  1.6000000E-01;423;  0.0000000E+00;  0.0000000E+00;  0.0000000E+00;  1.0000000E+03;  1.0000000E-01;  0.0000000E+00;0;  0.0000000E+00;  0.0000000E+00;  0.0000000E+00;0;  1.1661316E-06;  4.0000000E+04;  0.0000000E+00;  0.0000000E+00;  4.0000000E+04;  0.0000000E+00;  4.0000000E+04;  1.1667055E-06;  0.0000000E+00; -5.7389316E-10;  2.9755074E-01;
 -1.6000000E-01;  9.9999998E-03;  1.7000000E-01;424;  0.0000000E+00;  0.0000000E+00;  0.0000000E+00;  1.0000000E+03;  1.0000000E-01;  0.0000000E+00;0;  0.0000000E+00;  0.0000000E+00;  0.0000000E+00;0;  1.1852851E-06;  4.0000000E+04;  0.0000000E+00;  0.0000000E+00;  4.0000000E+04;  0.0000000E+00;  4.0000000E+04;  1.1858483E-06;  0.0000000E+00; -5.6323041E-10;  2.9526556E-01;
 -1.6000000E-01;  9.9999998E-03;  1.8000001E-01;425;  0.0000000E+00;  0.0000000E+00;  0.0000000E+00;  1.0000000E+03;  1.0000000E-01;  0.0000000E+00;0;  0.0000000E+00;  0.0000000E+00;  0.0000000E+00;0;  1.2212863E-06;  4.0000000E+04;  0.0000000E+00;  0.0000000E+00;  4.0000000E+04;  0.0000000E+00;  4.0000000E+04;  1.2220429E-06;  0.0000000E+00; -7.5654805E-10;  2.9000521E-01;
 -1.6000000E-01;  9.9999998E-03;  1.9000000E-01;426;  0.0000000E+00;  0.0000000E+00;  0.0000000E+00;  1.0000000E+03;  1.0000000E-01;  0.0000000E+00;0;  0.0000000E+00;  0.0000000E+00;  0.0000000E+00;0;  1.2805848E-06;  4.0000000E+04;  0.0000000E+00;  0.0000000E+00;  4.0000000E+04;  0.0000000E+00;  4.0000000E+04;  1.2818529E-06;  0.0000000E+00; -1.2680125E-09;  2.8169343E-01;
 -1.6000000E-01;  9.9999998E-03;  2.0000000E-01;427;  0.0000000E+00;  0.0000000E+00;  0.0000000E+00;  1.0000000E+03;  1.0000000E-01;  0.0000000E+00;0;  0.0000000E+00;  0.0000000E+00;  0.0000000E+00;0;  1.3695490E-06;  4.0000000E+04;  0.0000000E+00;  0.0000000E+00;  4.0000000E+04;  0.0000000E+00;  4.0000000E+04;  1.3717838E-06;  0.0000000E+00; -2.2348179E-09;  2.7074528E-01;
 -1.6000000E-01;  9.9999998E-03;  2.0999999E-01;428;  0.0000000E+00;  0.0000000E+00;  0.0000000E+00;  1.0000000E+03;  1.0000000E-01;  0.0000000E+00;0;  0.0000000E+00;  0.0000000E+00;  0.0000000E+00;0;  1.4922763E-06;  4.0000000E+04;  0.0000000E+00;  0.0000000E+00;  4.0000000E+04;  0.0000000E+00;  4.0000000E+04;  1.4961134E-06;  0.0000000E+00; -3.8371395E-09;  2.5807619E-01;
 -1.6000000E-01;  9.9999998E-03;  2.2000000E-01;429;  0.0000000E+00;  0.0000000E+00;  0.0000000E+00;  1.0000000E+03;  1.0000000E-01;  0.0000000E+00;0;  0.0000000E+00;  0.0000000E+00;  0.0000000E+00;0;  1.6474153E-06;  4.0000000E+04;  0.0000000E+00;  0.0000000E+00;  4.0000000E+04;  0.0000000E+00;  4.0000000E+04;  1.6537291E-06;  0.0000000E+00; -6.3137802E-09;  2.4457377E-01;
 -1.6000000E-01;  9.9999998E-03;  2.3000000E-01;430;  0.0000000E+00;  0.0000000E+00;  0.0000000E+00;  1.0000000E+03;  1.0000000E-01;  0.0000000E+00;0;  0.0000000E+00;  0.0000000E+00;  0.0000000E+00;0;  1.8225526E-06;  4.0000000E+04;  0.0000000E+00;  0.0000000E+00;  4.0000000E+04;  0.0000000E+00;  4.0000000E+04;  1.8322957E-06;  0.0000000E+00; -9.7430615E-09;  2.2973594E-01;
 -1.5000001E-01;  9.9999998E-03;  7.0000000E-02;505;  0.0000000E+00;  0.0000000E+00;  0.0000000E+00;  1.0000000E+03;  1.0000000E-01;  0.0000000E+00;0;  0.0000000E+00;  0.0000000E+00;  0.0000000E+00;0;  4.1801275E-05;  4.0000000E+04;  0.0000000E+00;  0.0000000E+00;  4.0000000E+04;  0.0000000E+00;  4.0000000E+04;  4.1883421E-05;  0.0000000E+00; -8.2146890E-08;  4.3886614E+00;
 -1.5000001E-01;  9.9999998E-03;  7.9999998E-02;506;  0.0000000E+00;  0.0000000E+00;  0.0000000E+00;  1.0000000E+03;  1.0000000E-01;  0.0000000E+00;0;  0.0000000E+00;  0.0000000E+00;  0.0000000E+00;0;  4.1718584E-05;  4.0000000E+04;  0.0000000E+00;  0.0000000E+00;  4.0000000E+04;  0.0000000E+00;  4.0000000E+04;  4.1811094E-05;  0.0000000E+00; -9.2510270E-08;  4.3808494E+00;
 -1.5000001E-01;  9.9999998E-03;  9.0000004E-02;507;  0.0000000E+00;  0.0000000E+00;  0.0000000E+00;  1.0000000E+03;  1.0000000E-01;  0.0000000E+00;0;  0.0000000E+00;  0.0000000E+00;  0.0000000E+00;0;  4.1555752E-05;  4.0000000E+04;  0.0000000E+00;  0.0000000E+00;  4.0000000E+04;  0.0000000E+00;  4.0000000E+04;  4.1654959E-05;  0.0000000E+00; -9.9207789E-08;  4.3776221E+00;
 -1.5000001E-01;  9.9999998E-03;  1.0000000E-01;508;  0.0000000E+00;  0.0000000E+00;  0.0000000E+00;  1.0000000E+03;  1.0000000E-01;  0.0000000E+00;0;  0.0000000E+00;  0.0000000E+00;  0.0000000E+00;0;  4.1301308E-05;  4.0000000E+04;  0.0000000E+00;  0.0000000E+00;  4.0000000E+04;  0.0000000E+00;  4.0000000E+04;  4.1402669E-05;  0.0000000E+00; -1.0136159E-07;  4.3839612E+00;
 -1.5000001E-01;  9.9999998E-03;  1.1000000E-01;509;  0.0000000E+00;  0.0000000E+00;  0.0000000E+00;  1.0000000E+03;  1.0000000E-01;  0.0000000E+00;0;  0.0000000E+00;  0.0000000E+00;  0.0000000E+00;0;  4.0952666E-05;  4.0000000E+04;  0.0000000E+00;  0.0000000E+00;  4.0000000E+04;  0.0000000E+00;  4.0000000E+04;  4.1051113E-05;  0.0000000E+00; -9.8446115E-08;  4.4002023E+00;
 -1.5000001E-01;  9.9999998E-03;  1.2000000E-01;510;  0.0000000E+00;  0.0000000E+00;  0.0000000E+00;  1.0000000E+03;  1.0000000E-01;  0.0000000E+00;0;  0.0000000E+00;  0.0000000E+00;  0.0000000E+00;0;  4.0520179E-05;  4.0000000E+04;  0.0000000E+00;  0.0000000E+00;  4.0000000E+04;  0.0000000E+00;  4.0000000E+04;  4.0610626E-05;  0.0000000E+00; -9.0446932E-08;  4.4216886E+00;
 -1.5000001E-01;  9.9999998E-03;  1.3000000E-01;511;  0.0000000E+00;  0.0000000E+00;  0.0000000E+00;  1.0000000E+03;  1.0000000E-01;  0.0000000E+00;0;  0.0000000E+00;  0.0000000E+00;  0.0000000E+00;0;  4.0028986E-05;  4.0000000E+04;  0.0000000E+00;  0.0000000E+00;  4.0000000E+04;  0.0000000E+00;  4.0000000E+04;  4.0107054E-05;  0.0000000E+00; -7.8066023E-08;  4.4403558E+00;
 -1.5000001E-01;  9.9999998E-03;  1.4000000E-01;512;  0.0000000E+00;  0.0000000E+00;  0.0000000E+00;  1.0000000E+03;  1.0000000E-01;  0.0000000E+00;0;  0.0000000E+00;  0.0000000E+00;  0.0000000E+00;0;  3.9518931E-05;  4.0000000E+04;  0.0000000E+00;  0.0000000E+00;  4.0000000E+04;  0.0000000E+00;  4.0000000E+04;  3.9581853E-05;  0.0000000E+00; -6.2922204E-08;  4.4472795E+00;
 -1.5000001E-01;  9.9999998E-03;  1.5000001E-01;513;  0.0000000E+00;  0.0000000E+00;  0.0000000E+00;  1.0000000E+03;  1.0000000E-01;  0.0000000E+00;0;  0.0000000E+00;  0.0000000E+00;  0.0000000E+00;0;  3.9041352E-05;  4.0000000E+04;  0.0000000E+00;  0.0000000E+00;  4.0000000E+04;  0.0000000E+00;  4.0000000E+04;  3.9088973E-05;  0.0000000E+00; -4.7622297E-08;  4.4351730E+00;
 -1.5000001E-01;  9.9999998E-03;  1.6000000E-01;514;  0.0000000E+00;  0.0000000E+00;  0.0000000E+00;  1.0000000E+03;  1.0000000E-01;  0.0000000E+00;0;  0.0000000E+00;  0.0000000E+00;  0.0000000E+00;0;  3.8652732E-05;  4.0000000E+04;  0.0000000E+00;  0.0000000E+00;  4.0000000E+04;  0.0000000E+00;  4.0000000E+04;  3.8688322E-05;  0.0000000E+00; -3.5591963E-08;  4.4001374E+00;
 -1.5000001E-01;  9.9999998E-03;  1.7000000E-01;515;  0.0000000E+00;  0.0000000E+00;  0.0000000E+00;  1.0000000E+03;  1.0000000E-01;  0.0000000E+00;0;  0.0000000E+00;  0.0000000E+00;  0.0000000E+00;0;  3.8404629E-05;  4.0000000E+04;  0.0000000E+00;  0.0000000E+00;  4.0000000E+04;  0.0000000E+00;  4.0000000E+04;  3.8435275E-05;  0.0000000E+00; -3.0648035E-08;  4.3420320E+00;
 -1.5000001E-01;  9.9999998E-03;  1.8000001E-01;516;  0.0000000E+00;  0.0000000E+00;  0.0000000E+00;  1.0000000E+03;  1.0000000E-01;  0.0000000E+00;0;  0.0000000E+00;  0.0000000E+00;  0.0000000E+00;0;  3.8330003E-05;  4.0000000E+04;  0.0000000E+00;  0.0000000E+00;  4.0000000E+04;  0.0000000E+00;  4.0000000E+04;  3.8366423E-05;  0.0000000E+00; -3.6420019E-08;  4.2638869E+00;
 -1.5000001E-01;  9.9999998E-03;  1.9000000E-01;517;  0.0000000E+00;  0.0000000E+00;  0.0000000E+00;  1.0000000E+03;  1.0000000E-01;  0.0000000E+00;0;  0.0000000E+00;  0.0000000E+00;  0.0000000E+00;0;  3.8426992E-05;  4.0000000E+04;  0.0000000E+00;  0.0000000E+00;  4.0000000E+04;  0.0000000E+00;  4.0000000E+04;  3.8482765E-05;  0.0000000E+00; -5.5774652E-08;  4.1707883E+00;
 -1.5000001E-01;  9.9999998E-03;  2.0000000E-01;518;  0.0000000E+00;  0.0000000E+00;  0.0000000E+00;  1.0000000E+03;  1.0000000E-01;  0.0000000E+00;0;  0.0000000E+00;  0.0000000E+00;  0.0000000E+00;0;  3.8641756E-05;  4.0000000E+04;  0.0000000E+00;  0.0000000E+00;  4.0000000E+04;  0.0000000E+00;  4.0000000E+04;  3.8731749E-05;  0.0000000E+00; -8.9992248E-08;  4.0661407E+00;
 -1.5000001E-01;  9.9999998E-03;  2.0999999E-01;519;  0.0000000E+00;  0.0000000E+00;  0.0000000E+00;  1.0000000E+03;  1.0000000E-01;  0.0000000E+00;0;  0.0000000E+00;  0.0000000E+00;  0.0000000E+00;0;  3.8851686E-05;  4.0000000E+04;  0.0000000E+00;  0.0000000E+00;  4.0000000E+04;  0.0000000E+00;  4.0000000E+04;  3.8988244E-05;  0.0000000E+00; -1.3656050E-07;  3.9439352E+00;
 -1.5000001E-01;  9.9999998E-03;  2.2000000E-01;520;  0.0000000E+00;  0.0000000E+00;  0.0000000E+00;  1.0000000E+03;  1.0000000E-01;  0.0000000E+00;0;  0.0000000E+00;  0.0000000E+00;  0.0000000E+00;0;  3.8848189E-05;  4.0000000E+04;  0.0000000E+00;  0.0000000E+00;  4.0000000E+04;  0.0000000E+00;  4.0000000E+04;  3.9029404E-05;  0.0000000E+00; -1.8121669E-07;  3.7753763E+00;
 -1.5000001E-01;  9.9999998E-03;  2.3000000E-01;521;  0.0000000E+00;  0.0000000E+00;  0.0000000E+00;  1.0000000E+03;  1.0000000E-01;  0.0000000E+00;0;  0.0000000E+00;  0.0000000E+00;  0.0000000E+00;0;  3.8318449E-05;  4.0000000E+04;  0.0000000E+00;  0.0000000E+00;  4.0000000E+04;  0.0000000E+00;  4.0000000E+04;  3.8508224E-05;  0.0000000E+00; -1.8977512E-07;  3.4982862E+00;
 -1.4000000E-01;  9.9999998E-03;  7.0000000E-02;596;  0.0000000E+00;  0.0000000E+00;  0.0000000E+00;  1.0000000E+03;  1.0000000E-01;  0.0000000E+00;0;  0.0000000E+00;  0.0000000E+00;  0.0000000E+00;0;  2.3193320E-04;  4.0000000E+04;  0.0000000E+00;  0.0000000E+00;  4.0000000E+04;  0.0000000E+00;  4.0000000E+04;  2.3266862E-04;  0.0000000E+00; -7.3542367E-07;  2.0417480E+01;
 -1.4000000E-01;  9.9999998E-03;  7.9999998E-02;597;  0.0000000E+00;  0.0000000E+00;  0.0000000E+00;  1.0000000E+03;  1.0000000E-01;  0.0000000E+00;0;  0.0000000E+00;  0.0000000E+00;  0.0000000E+00;0;  2.3153613E-04;  4.0000000E+04;  0.0000000E+00;  0.0000000E+00;  4.0000000E+04;  0.0000000E+00;  4.0000000E+04;  2.3235413E-04;  0.0000000E+00; -8.1798936E-07;  2.0338449E+01;
 -1.4000000E-01;  9.9999998E-03;  9.0000004E-02;598;  0.0000000E+00;  0.0000000E+00;  0.0000000E+00;  1.0000000E+03;  1.0000000E-01;  0.0000000E+00;0;  0.0000000E+00;  0.0000000E+00;  0.0000000E+00;0;  2.3063659E-04;  4.0000000E+04;  0.0000000E+00;  0.0000000E+00;  4.0000000E+04;  0.0000000E+00;  4.0000000E+04;  2.3150482E-04;  0.0000000E+00; -8.6822604E-07;  2.0242140E+01;
 -1.4000000E-01;  9.9999998E-03;  1.0000000E-01;599;  0.0000000E+00;  0.0000000E+00;  0.0000000E+00;  1.0000000E+03;  1.0000000E-01;  0.0000000E+00;0;  0.0000000E+00;  0.0000000E+00;  0.0000000E+00;0;  2.2916932E-04;  4.0000000E+04;  0.0000000E+00;  0.0000000E+00;  4.0000000E+04;  0.0000000E+00;  4.0000000E+04;  2.3004845E-04;  0.0000000E+00; -8.7912480E-07;  2.0146887E+01;
 -1.4000000E-01;  9.9999998E-03;  1.1000000E-01;600;  0.0000000E+00;  0.0000000E+00;  0.0000000E+00;  1.0000000E+03;  1.0000000E-01;  0.0000000E+00;0;  0.0000000E+00;  0.0000000E+00;  0.0000000E+00;0;  2.2712504E-04;  4.0000000E+04;  0.0000000E+00;  0.0000000E+00;  4.0000000E+04;  0.0000000E+00;  4.0000000E+04;  2.2797259E-04;  0.0000000E+00; -8.4755106E-07;  2.0059786E+01;
 -1.4000000E-01;  9.9999998E-03;  1.2000000E-01;601;  0.0000000E+00;  0.0000000E+00;  0.0000000E+00;  1.0000000E+03;  1.0000000E-01;  0.0000000E+00;0;  0.0000000E+00;  0.0000000E+00;  0.0000000E+00;0;  2.2455974E-04;  4.0000000E+04;  0.0000000E+00;  0.0000000E+00;  4.0000000E+04;  0.0000000E+00;  4.0000000E+04;  2.2533533E-04;  0.0000000E+00; -7.7559082E-07;  1.9975292E+01;
 -1.4000000E-01;  9.9999998E-03;  1.3000000E-01;602;  0.0000000E+00;  0.0000000E+00;  0.0000000E+00;  1.0000000E+03;  1.0000000E-01;  0.0000000E+00;0;  0.0000000E+00;  0.0000000E+00;  0.0000000E+00;0;  2.2159796E-04;  4.0000000E+04;  0.0000000E+00;  0.0000000E+00;  4.0000000E+04;  0.0000000E+00;  4.0000000E+04;  2.2226962E-04;  0.0000000E+00; -6.7165234E-07;  1.9879250E+01;
 -1.4000000E-01;  9.9999998E-03;  1.4000000E-01;603;  0.0000000E+00;  0.0000000E+00;  0.0000000E+00;  1.0000000E+03;  1.0000000E-01;  0.0000000E+00;0;  0.0000000E+00;  0.0000000E+00;  0.0000000E+00;0;  2.1841966E-04;  4.0000000E+04;  0.0000000E+00;  0.0000000E+00;  4.0000000E+04;  0.0000000E+00;  4.0000000E+04;  2.1897042E-04;  0.0000000E+00; -5.5076708E-07;  1.9756834E+01;
 -1.4000000E-01;  9.9999998E-03;  1.5000001E-01;604;  0.0000000E+00;  0.0000000E+00;  0.0000000E+00;  1.0000000E+03;  1.0000000E-01;  0.0000000E+00;0;  0.0000000E+00;  0.0000000E+00;  0.0000000E+00;0;  2.1523242E-04;  4.0000000E+04;  0.0000000E+00;  0.0000000E+00;  4.0000000E+04;  0.0000000E+00;  4.0000000E+04;  2.1566606E-04;  0.0000000E+00; -4.3365122E-07;  1.9600977E+01;
 -1.4000000E-01;  9.9999998E-03;  1.6000000E-01;605;  0.0000000E+00;  0.0000000E+00;  0.0000000E+00;  1.0000000E+03;  1.0000000E-01;  0.0000000E+00;0;  0.0000000E+00;  0.0000000E+00;  0.0000000E+00;0;  2.1223098E-04;  4.0000000E+04;  0.0000000E+00;  0.0000000E+00;  4.0000000E+04;  0.0000000E+00;  4.0000000E+04;  2.1257544E-04;  0.0000000E+00; -3.4445219E-07;  1.9418060E+01;
 -1.4000000E-01;  9.9999998E-03;  1.7000000E-01;606;  0.0000000E+00;  0.0000000E+00;  0.0000000E+00;  1.0000000E+03;  1.0000000E-01;  0.0000000E+00;0;  0.0000000E+00;  0.0000000E+00;  0.0000000E+00;0;  2.0954134E-04;  4.0000000E+04;  0.0000000E+00;  0.0000000E+00;  4.0000000E+04;  0.0000000E+00;  4.0000000E+04;  2.0984877E-04;  0.0000000E+00; -3.0743962E-07;  1.9229059E+01;
 -1.4000000E-01;  9.9999998E-03;  1.8000001E-01;607;  0.0000000E+00;  0.0000000E+00;  0.0000000E+00;  1.0000000E+03;  1.0000000E-01;  0.0000000E+00;0;  0.0000000E+00;  0.0000000E+00;  0.0000000E+00;0;  2.0716331E-04;  4.0000000E+04;  0.0000000E+00;  0.0000000E+00;  4.0000000E+04;  0.0000000E+00;  4.0000000E+04;  2.0750603E-04;  0.0000000E+00; -3.4273108E-07;  1.9061369E+01;
 -1.4000000E-01;  9.9999998E-03;  1.9000000E-01;608;  0.0000000E+00;  0.0000000E+00;  0.0000000E+00;  1.0000000E+03;  1.0000000E-01;  0.0000000E+00;0;  0.0000000E+00;  0.0000000E+00;  0.0000000E+00;0;  2.0491322E-04;  4.0000000E+04;  0.0000000E+00;  0.0000000E+00;  4.0000000E+04;  0.0000000E+00;  4.0000000E+04;  2.0537287E-04;  0.0000000E+00; -4.5964956E-07;  1.8927410E+01;
 -1.4000000E-01;  9.9999998E-03;  2.0000000E-01;609;  0.0000000E+00;  0.0000000E+00;  0.0000000E+00;  1.0000000E+03;  1.0000000E-01;  0.0000000E+00;0;  0.0000000E+00;  0.0000000E+00;  0.0000000E+00;0;  2.0238085E-04;  4.0000000E+04;  0.0000000E+00;  0.0000000E+00;  4.0000000E+04;  0.0000000E+00;  4.0000000E+04;  2.0302304E-04;  0.0000000E+00; -6.4219307E-07;  1.8785734E+01;
 -1.4000000E-01;  9.9999998E-03;  2.0999999E-01;610;  0.0000000E+00;  0.0000000E+00;  0.0000000E+00;  1.0000000E+03;  1.0000000E-01;  0.0000000E+00;0;  0.0000000E+00;  0.0000000E+00;  0.0000000E+00;0;  1.9889028E-04;  4.0000000E+04;  0.0000000E+00;  0.0000000E+00;  4.0000000E+04;  0.0000000E+00;  4.0000000E+04;  1.9970488E-04;  0.0000000E+00; -8.1460064E-07;  1.8488361E+01;
 -1.4000000E-01;  9.9999998E-03;  2.2000000E-01;611;  0.0000000E+00;  0.0000000E+00;  0.0000000E+00;  1.0000000E+03;  1.0000000E-01;  0.0000000E+00;0;  0.0000000E+00;  0.0000000E+00;  0.0000000E+00;0;  1.9353448E-04;  4.0000000E+04;  0.0000000E+00;  0.0000000E+00;  4.0000000E+04;  0.0000000E+00;  4.0000000E+04;  1.9440379E-04;  0.0000000E+00; -8.6931095E-07;  1.7787647E+01;
 -1.4000000E-01;  9.9999998E-03;  2.3000000E-01;612;  0.0000000E+00;  0.0000000E+00;  0.0000000E+00;  1.0000000E+03;  1.0000000E-01;  0.0000000E+00;0;  0.0000000E+00;  0.0000000E+00;  0.0000000E+00;0;  1.8536359E-04;  4.0000000E+04;  0.0000000E+00;  0.0000000E+00;  4.0000000E+04;  0.0000000E+00;  4.0000000E+04;  1.8607917E-04;  0.0000000E+00; -7.1558276E-07;  1.6433413E+01;
 -1.3000000E-01;  9.9999998E-03;  7.0000000E-02;687;  0.0000000E+00;  0.0000000E+00;  0.0000000E+00;  1.0000000E+03;  1.0000000E-01;  0.0000000E+00;0;  0.0000000E+00;  0.0000000E+00;  0.0000000E+00;0;  7.1039883E-04;  4.0000000E+04;  0.0000000E+00;  0.0000000E+00;  4.0000000E+04;  0.0000000E+00;  4.0000000E+04;  7.1359088E-04;  0.0000000E+00; -3.1920390E-06;  5.7960655E+01;
 -1.3000000E-01;  9.9999998E-03;  7.9999998E-02;688;  0.0000000E+00;  0.0000000E+00;  0.0000000E+00;  1.0000000E+03;  1.0000000E-01;  0.0000000E+00;0;  0.0000000E+00;  0.0000000E+00;  0.0000000E+00;0;  7.0902286E-04;  4.0000000E+04;  0.0000000E+00;  0.0000000E+00;  4.0000000E+04;  0.0000000E+00;  4.0000000E+04;  7.1253435E-04;  0.0000000E+00; -3.5115195E-06;  5.7601433E+01;
 -1.3000000E-01;  9.9999998E-03;  9.0000004E-02;689;  0.0000000E+00;  0.0000000E+00;  0.0000000E+00;  1.0000000E+03;  1.0000000E-01;  0.0000000E+00;0;  0.0000000E+00;  0.0000000E+00;  0.0000000E+00;0;  7.0607220E-04;  4.0000000E+04;  0.0000000E+00;  0.0000000E+00;  4.0000000E+04;  0.0000000E+00;  4.0000000E+04;  7.0976984E-04;  0.0000000E+00; -3.6976653E-06;  5.7095562E+01;
 -1.3000000E-01;  9.9999998E-03;  1.0000000E-01;690;  0.0000000E+00;  0.0000000E+00;  0.0000000E+00;  1.0000000E+03;  1.0000000E-01;  0.0000000E+00;0;  0.0000000E+00;  0.0000000E+00;  0.0000000E+00;0;  7.0136593E-04;  4.0000000E+04;  0.0000000E+00;  0.0000000E+00;  4.0000000E+04;  0.0000000E+00;  4.0000000E+04;  7.0509105E-04;  0.0000000E+00; -3.7251289E-06;  5.6492519E+01;
 -1.3000000E-01;  9.9999998E-03;  1.1000000E-01;691;  0.0000000E+00;  0.0000000E+00;  0.0000000E+00;  1.0000000E+03;  1.0000000E-01;  0.0000000E+00;0;  0.0000000E+00;  0.0000000E+00;  0.0000000E+00;0;  6.9488247E-04;  4.0000000E+04;  0.0000000E+00;  0.0000000E+00;  4.0000000E+04;  0.0000000E+00;  4.0000000E+04;  6.9846888E-04;  0.0000000E+00; -3.5864082E-06;  5.5835316E+01;
 -1.3000000E-01;  9.9999998E-03;  1.2000000E-01;692;  0.0000000E+00;  0.0000000E+00;  0.0000000E+00;  1.0000000E+03;  1.0000000E-01;  0.0000000E+00;0;  0.0000000E+00;  0.0000000E+00;  0.0000000E+00;0;  6.8677694E-04;  4.0000000E+04;  0.0000000E+00;  0.0000000E+00;  4.0000000E+04;  0.0000000E+00;  4.0000000E+04;  6.9007307E-04;  0.0000000E+00; -3.2961038E-06;  5.5157131E+01;
 -1.3000000E-01;  9.9999998E-03;  1.3000000E-01;693;  0.0000000E+00;  0.0000000E+00;  0.0000000E+00;  1.0000000E+03;  1.0000000E-01;  0.0000000E+00;0;  0.0000000E+00;  0.0000000E+00;  0.0000000E+00;0;  6.7737105E-04;  4.0000000E+04;  0.0000000E+00;  0.0000000E+00;  4.0000000E+04;  0.0000000E+00;  4.0000000E+04;  6.8026385E-04;  0.0000000E+00; -2.8928177E-06;  5.4484699E+01;
 -1.3000000E-01;  9.9999998E-03;  1.4000000E-01;694;  0.0000000E+00;  0.0000000E+00;  0.0000000E+00;  1.0000000E+03;  1.0000000E-01;  0.0000000E+00;0;  0.0000000E+00;  0.0000000E+00;  0.0000000E+00;0;  6.6710007E-04;  4.0000000E+04;  0.0000000E+00;  0.0000000E+00;  4.0000000E+04;  0.0000000E+00;  4.0000000E+04;  6.6953764E-04;  0.0000000E+00; -2.4375597E-06;  5.3851776E+01;
 -1.3000000E-01;  9.9999998E-03;  1.5000001E-01;695;  0.0000000E+00;  0.0000000E+00;  0.0000000E+00;  1.0000000E+03;  1.0000000E-01;  0.0000000E+00;0;  0.0000000E+00;  0.0000000E+00;  0.0000000E+00;0;  6.5642793E-04;  4.0000000E+04;  0.0000000E+00;  0.0000000E+00;  4.0000000E+04;  0.0000000E+00;  4.0000000E+04;  6.5843610E-04;  0.0000000E+00; -2.0081698E-06;  5.3311298E+01;
 -1.3000000E-01;  9.9999998E-03;  1.6000000E-01;696;  0.0000000E+00;  0.0000000E+00;  0.0000000E+00;  1.0000000E+03;  1.0000000E-01;  0.0000000E+00;0;  0.0000000E+00;  0.0000000E+00;  0.0000000E+00;0;  6.4572471E-04;  4.0000000E+04;  0.0000000E+00;  0.0000000E+00;  4.0000000E+04;  0.0000000E+00;  4.0000000E+04;  6.4741459E-04;  0.0000000E+00; -1.6899074E-06;  5.2942970E+01;
 -1.3000000E-01;  9.9999998E-03;  1.7000000E-01;697;  0.0000000E+00;  0.0000000E+00;  0.0000000E+00;  1.0000000E+03;  1.0000000E-01;  0.0000000E+00;0;  0.0000000E+00;  0.0000000E+00;  0.0000000E+00;0;  6.3512888E-04;  4.0000000E+04;  0.0000000E+00;  0.0000000E+00;  4.0000000E+04;  0.0000000E+00;  4.0000000E+04;  6.3669041E-04;  0.0000000E+00; -1.5615587E-06;  5.2840221E+01;
 -1.3000000E-01;  9.9999998E-03;  1.8000001E-01;698;  0.0000000E+00;  0.0000000E+00;  0.0000000E+00;  1.0000000E+03;  1.0000000E-01;  0.0000000E+00;0;  0.0000000E+00;  0.0000000E+00;  0.0000000E+00;0;  6.2441244E-04;  4.0000000E+04;  0.0000000E+00;  0.0000000E+00;  4.0000000E+04;  0.0000000E+00;  4.0000000E+04;  6.2608637E-04;  0.0000000E+00; -1.6739523E-06;  5.3060471E+01;
 -1.3000000E-01;  9.9999998E-03;  1.9000000E-01;699;  0.0000000E+00;  0.0000000E+00;  0.0000000E+00;  1.0000000E+03;  1.0000000E-01;  0.0000000E+00;0;  0.0000000E+00;  0.0000000E+00;  0.0000000E+00;0;  6.1287562E-04;  4.0000000E+04;  0.0000000E+00;  0.0000000E+00;  4.0000000E+04;  0.0000000E+00;  4.0000000E+04;  6.1488053E-04;  0.0000000E+00; -2.0048817E-06;  5.3527187E+01;
 -1.3000000E-01;  9.9999998E-03;  2.0000000E-01;700;  0.0000000E+00;  0.0000000E+00;  0.0000000E+00;  1.0000000E+03;  1.0000000E-01;  0.0000000E+00;0;  0.0000000E+00;  0.0000000E+00;  0.0000000E+00;0;  5.9927278E-04;  4.0000000E+04;  0.0000000E+00;  0.0000000E+00;  4.0000000E+04;  0.0000000E+00;  4.0000000E+04;  6.0166768E-04;  0.0000000E+00; -2.3949212E-06;  5.3903450E+01;
 -1.3000000E-01;  9.9999998E-03;  2.0999999E-01;701;  0.0000000E+00;  0.0000000E+00;  0.0000000E+00;  1.0000000E+03;  1.0000000E-01;  0.0000000E+00;0;  0.0000000E+00;  0.0000000E+00;  0.0000000E+00;0;  5.8188272E-04;  4.0000000E+04;  0.0000000E+00;  0.0000000E+00;  4.0000000E+04;  0.0000000E+00;  4.0000000E+04;  5.8448565E-04;  0.0000000E+00; -2.6029229E-06;  5.3597309E+01;
 -1.3000000E-01;  9.9999998E-03;  2.2000000E-01;702;  0.0000000E+00;  0.0000000E+00;  0.0000000E+00;  1.0000000E+03;  1.0000000E-01;  0.0000000E+00;0;  0.0000000E+00;  0.0000000E+00;  0.0000000E+00;0;  5.5881072E-04;  4.0000000E+04;  0.0000000E+00;  0.0000000E+00;  4.0000000E+04;  0.0000000E+00;  4.0000000E+04;  5.6118629E-04;  0.0000000E+00; -2.3755551E-06;  5.1896538E+01;
 -1.3000000E-01;  9.9999998E-03;  2.3000000E-01;703;  0.0000000E+00;  0.0000000E+00;  0.0000000E+00;  1.0000000E+03;  1.0000000E-01;  0.0000000E+00;0;  0.0000000E+00;  0.0000000E+00;  0.0000000E+00;0;  5.2842189E-04;  4.0000000E+04;  0.0000000E+00;  0.0000000E+00;  4.0000000E+04;  0.0000000E+00;  4.0000000E+04;  5.2995741E-04;  0.0000000E+00; -1.5355280E-06;  4.8136986E+01;
 -1.2000000E-01;  9.9999998E-03;  7.0000000E-02;778;  0.0000000E+00;  0.0000000E+00;  0.0000000E+00;  1.0000000E+03;  1.0000000E-01;  0.0000000E+00;0;  0.0000000E+00;  0.0000000E+00;  0.0000000E+00;0;  1.6015518E-03;  4.0000000E+04;  0.0000000E+00;  0.0000000E+00;  4.0000000E+04;  0.0000000E+00;  4.0000000E+04;  1.6111374E-03;  0.0000000E+00; -9.5856403E-06;  1.2567187E+02;
 -1.2000000E-01;  9.9999998E-03;  7.9999998E-02;779;  0.0000000E+00;  0.0000000E+00;  0.0000000E+00;  1.0000000E+03;  1.0000000E-01;  0.0000000E+00;0;  0.0000000E+00;  0.0000000E+00;  0.0000000E+00;0;  1.5979205E-03;  4.0000000E+04;  0.0000000E+00;  0.0000000E+00;  4.0000000E+04;  0.0000000E+00;  4.0000000E+04;  1.6083643E-03;  0.0000000E+00; -1.0443699E-05;  1.2455038E+02;
 -1.2000000E-01;  9.9999998E-03;  9.0000004E-02;780;  0.0000000E+00;  0.0000000E+00;  0.0000000E+00;  1.0000000E+03;  1.0000000E-01;  0.0000000E+00;0;  0.0000000E+00;  0.0000000E+00;  0.0000000E+00;0;  1.5907352E-03;  4.0000000E+04;  0.0000000E+00;  0.0000000E+00;  4.0000000E+04;  0.0000000E+00;  4.0000000E+04;  1.6016628E-03;  0.0000000E+00; -1.0927701E-05;  1.2293871E+02;
 -1.2000000E-01;  9.9999998E-03;  1.0000000E-01;781;  0.0000000E+00;  0.0000000E+00;  0.0000000E+00;  1.0000000E+03;  1.0000000E-01;  0.0000000E+00;0;  0.0000000E+00;  0.0000000E+00;  0.0000000E+00;0;  1.5796210E-03;  4.0000000E+04;  0.0000000E+00;  0.0000000E+00;  4.0000000E+04;  0.0000000E+00;  4.0000000E+04;  1.5905973E-03;  0.0000000E+00; -1.0976286E-05;  1.2094910E+02;
 -1.2000000E-01;  9.9999998E-03;  1.1000000E-01;782;  0.0000000E+00;  0.0000000E+00;  0.0000000E+00;  1.0000000E+03;  1.0000000E-01;  0.0000000E+00;0;  0.0000000E+00;  0.0000000E+00;  0.0000000E+00;0;  1.5645340E-03;  4.0000000E+04;  0.0000000E+00;  0.0000000E+00;  4.0000000E+04;  0.0000000E+00;  4.0000000E+04;  1.5751147E-03;  0.0000000E+00; -1.0580596E-05;  1.1873308E+02;
 -1.2000000E-01;  9.9999998E-03;  1.2000000E-01;783;  0.0000000E+00;  0.0000000E+00;  0.0000000E+00;  1.0000000E+03;  1.0000000E-01;  0.0000000E+00;0;  0.0000000E+00;  0.0000000E+00;  0.0000000E+00;0;  1.5457779E-03;  4.0000000E+04;  0.0000000E+00;  0.0000000E+00;  4.0000000E+04;  0.0000000E+00;  4.0000000E+04;  1.5555703E-03;  0.0000000E+00; -9.7923930E-06;  1.1646397E+02;
 -1.2000000E-01;  9.9999998E-03;  1.3000000E-01;784;  0.0000000E+00;  0.0000000E+00;  0.0000000E+00;  1.0000000E+03;  1.0000000E-01;  0.0000000E+00;0;  0.0000000E+00;  0.0000000E+00;  0.0000000E+00;0;  1.5239491E-03;  4.0000000E+04;  0.0000000E+00;  0.0000000E+00;  4.0000000E+04;  0.0000000E+00;  4.0000000E+04;  1.5326740E-03;  0.0000000E+00; -8.7248118E-06;  1.1433671E+02;
 -1.2000000E-01;  9.9999998E-03;  1.4000000E-01;785;  0.0000000E+00;  0.0000000E+00;  0.0000000E+00;  1.0000000E+03;  1.0000000E-01;  0.0000000E+00;0;  0.0000000E+00;  0.0000000E+00;  0.0000000E+00;0;  1.4998299E-03;  4.0000000E+04;  0.0000000E+00;  0.0000000E+00;  4.0000000E+04;  0.0000000E+00;  4.0000000E+04;  1.5073743E-03;  0.0000000E+00; -7.5443577E-06;  1.1257877E+02;
 -1.2000000E-01;  9.9999998E-03;  1.5000001E-01;786;  0.0000000E+00;  0.0000000E+00;  0.0000000E+00;  1.0000000E+03;  1.0000000E-01;  0.0000000E+00;0;  0.0000000E+00;  0.0000000E+00;  0.0000000E+00;0;  1.4741773E-03;  4.0000000E+04;  0.0000000E+00;  0.0000000E+00;  4.0000000E+04;  0.0000000E+00;  4.0000000E+04;  1.4806306E-03;  0.0000000E+00; -6.4532751E-06;  1.1145517E+02;
 -1.2000000E-01;  9.9999998E-03;  1.6000000E-01;787;  0.0000000E+00;  0.0000000E+00;  0.0000000E+00;  1.0000000E+03;  1.0000000E-01;  0.0000000E+00;0;  0.0000000E+00;  0.0000000E+00;  0.0000000E+00;0;  1.4474975E-03;  4.0000000E+04;  0.0000000E+00;  0.0000000E+00;  4.0000000E+04;  0.0000000E+00;  4.0000000E+04;  1.4531581E-03;  0.0000000E+00; -5.6606204E-06;  1.1124781E+02;
 -1.2000000E-01;  9.9999998E-03;  1.7000000E-01;788;  0.0000000E+00;  0.0000000E+00;  0.0000000E+00;  1.0000000E+03;  1.0000000E-01;  0.0000000E+00;0;  0.0000000E+00;  0.0000000E+00;  0.0000000E+00;0;  1.4197808E-03;  4.0000000E+04;  0.0000000E+00;  0.0000000E+00;  4.0000000E+04;  0.0000000E+00;  4.0000000E+04;  1.4251175E-03;  0.0000000E+00; -5.3367471E-06;  1.1217908E+02;
 -1.2000000E-01;  9.9999998E-03;  1.8000001E-01;789;  0.0000000E+00;  0.0000000E+00;  0.0000000E+00;  1.0000000E+03;  1.0000000E-01;  0.0000000E+00;0;  0.0000000E+00;  0.0000000E+00;  0.0000000E+00;0;  1.3903007E-03;  4.0000000E+04;  0.0000000E+00;  0.0000000E+00;  4.0000000E+04;  0.0000000E+00;  4.0000000E+04;  1.3958236E-03;  0.0000000E+00; -5.5228197E-06;  1.1423565E+02;
 -1.2000000E-01;  9.9999998E-03;  1.9000000E-01;790;  0.0000000E+00;  0.0000000E+00;  0.0000000E+00;  1.0000000E+03;  1.0000000E-01;  0.0000000E+00;0;  0.0000000E+00;  0.0000000E+00;  0.0000000E+00;0;  1.3574430E-03;  4.0000000E+04;  0.0000000E+00;  0.0000000E+00;  4.0000000E+04;  0.0000000E+00;  4.0000000E+04;  1.3634560E-03;  0.0000000E+00; -6.0130133E-06;  1.1692983E+02;
 -1.2000000E-01;  9.9999998E-03;  2.0000000E-01;791;  0.0000000E+00;  0.0000000E+00;  0.0000000E+00;  1.0000000E+03;  1.0000000E-01;  0.0000000E+00;0;  0.0000000E+00;  0.0000000E+00;  0.0000000E+00;0;  1.3187351E-03;  4.0000000E+04;  0.0000000E+00;  0.0000000E+00;  4.0000000E+04;  0.0000000E+00;  4.0000000E+04;  1.3251394E-03;  0.0000000E+00; -6.4043707E-06;  1.1923316E+02;
 -1.2000000E-01;  9.9999998E-03;  2.0999999E-01;792;  0.0000000E+00;  0.0000000E+00;  0.0000000E+00;  1.0000000E+03;  1.0000000E-01;  0.0000000E+00;0;  0.0000000E+00;  0.0000000E+00;  0.0000000E+00;0;  1.2711945E-03;  4.0000000E+04;  0.0000000E+00;  0.0000000E+00;  4.0000000E+04;  0.0000000E+00;  4.0000000E+04;  1.2773817E-03;  0.0000000E+00; -6.1870755E-06;  1.1968998E+02;
 -1.2000000E-01;  9.9999998E-03;  2.2000000E-01;793;  0.0000000E+00;  0.0000000E+00;  0.0000000E+00;  1.0000000E+03;  1.0000000E-01;  0.0000000E+00;0;  0.0000000E+00;  0.0000000E+00;  0.0000000E+00;0;  1.2119014E-03;  4.0000000E+04;  0.0000000E+00;  0.0000000E+00;  4.0000000E+04;  0.0000000E+00;  4.0000000E+04;  1.2167979E-03;  0.0000000E+00; -4.8963971E-06;  1.1664939E+02;
 -1.2000000E-01;  9.9999998E-03;  2.3000000E-01;794;  0.0000000E+00;  0.0000000E+00;  0.0000000E+00;  1.0000000E+03;  1.0000000E-01;  0.0000000E+00;0;  0.0000000E+00;  0.0000000E+00;  0.0000000E+00;0;  1.1386576E-03;  4.0000000E+04;  0.0000000E+00;  0.0000000E+00;  4.0000000E+04;  0.0000000E+00;  4.0000000E+04;  1.1409194E-03;  0.0000000E+00; -2.2618256E-06;  1.0867027E+02;
 -1.1000000E-01;  9.9999998E-03;  7.0000000E-02;869;  0.0000000E+00;  0.0000000E+00;  0.0000000E+00;  1.0000000E+03;  1.0000000E-01;  0.0000000E+00;0;  0.0000000E+00;  0.0000000E+00;  0.0000000E+00;0;  2.9979497E-03;  4.0000000E+04;  0.0000000E+00;  0.0000000E+00;  4.0000000E+04;  0.0000000E+00;  4.0000000E+04;  3.0209119E-03;  0.0000000E+00; -2.2962235E-05;  2.3033940E+02;
 -1.1000000E-01;  9.9999998E-03;  7.9999998E-02;870;  0.0000000E+00;  0.0000000E+00;  0.0000000E+00;  1.0000000E+03;  1.0000000E-01;  0.0000000E+00;0;  0.0000000E+00;  0.0000000E+00;  0.0000000E+00;0;  2.9901098E-03;  4.0000000E+04;  0.0000000E+00;  0.0000000E+00;  4.0000000E+04;  0.0000000E+00;  4.0000000E+04;  3.0149170E-03;  0.0000000E+00; -2.4807205E-05;  2.2758655E+02;
 -1.1000000E-01;  9.9999998E-03;  9.0000004E-02;871;  0.0000000E+00;  0.0000000E+00;  0.0000000E+00;  1.0000000E+03;  1.0000000E-01;  0.0000000E+00;0;  0.0000000E+00;  0.0000000E+00;  0.0000000E+00;0;  2.9756397E-03;  4.0000000E+04;  0.0000000E+00;  0.0000000E+00;  4.0000000E+04;  0.0000000E+00;  4.0000000E+04;  3.0014631E-03;  0.0000000E+00; -2.5823587E-05;  2.2368451E+02;
 -1.1000000E-01;  9.9999998E-03;  1.0000000E-01;872;  0.0000000E+00;  0.0000000E+00;  0.0000000E+00;  1.0000000E+03;  1.0000000E-01;  0.0000000E+00;0;  0.0000000E+00;  0.0000000E+00;  0.0000000E+00;0;  2.9538772E-03;  4.0000000E+04;  0.0000000E+00;  0.0000000E+00;  4.0000000E+04;  0.0000000E+00;  4.0000000E+04;  2.9797715E-03;  0.0000000E+00; -2.5894249E-05;  2.1887325E+02;
 -1.1000000E-01;  9.9999998E-03;  1.1000000E-01;873;  0.0000000E+00;  0.0000000E+00;  0.0000000E+00;  1.0000000E+03;  1.0000000E-01;  0.0000000E+00;0;  0.0000000E+00;  0.0000000E+00;  0.0000000E+00;0;  2.9247364E-03;  4.0000000E+04;  0.0000000E+00;  0.0000000E+00;  4.0000000E+04;  0.0000000E+00;  4.0000000E+04;  2.9497568E-03;  0.0000000E+00; -2.5020523E-05;  2.1353203E+02;
 -1.1000000E-01;  9.9999998E-03;  1.2000000E-01;874;  0.0000000E+00;  0.0000000E+00;  0.0000000E+00;  1.0000000E+03;  1.0000000E-01;  0.0000000E+00;0;  0.0000000E+00;  0.0000000E+00;  0.0000000E+00;0;  2.8886853E-03;  4.0000000E+04;  0.0000000E+00;  0.0000000E+00;  4.0000000E+04;  0.0000000E+00;  4.0000000E+04;  2.9120189E-03;  0.0000000E+00; -2.3333492E-05;  2.0815524E+02;
 -1.1000000E-01;  9.9999998E-03;  1.3000000E-01;875;  0.0000000E+00;  0.0000000E+00;  0.0000000E+00;  1.0000000E+03;  1.0000000E-01;  0.0000000E+00;0;  0.0000000E+00;  0.0000000E+00;  0.0000000E+00;0;  2.8466547E-03;  4.0000000E+04;  0.0000000E+00;  0.0000000E+00;  4.0000000E+04;  0.0000000E+00;  4.0000000E+04;  2.8677443E-03;  0.0000000E+00; -2.1089552E-05;  2.0333188E+02;
 -1.1000000E-01;  9.9999998E-03;  1.4000000E-01;876;  0.0000000E+00;  0.0000000E+00;  0.0000000E+00;  1.0000000E+03;  1.0000000E-01;  0.0000000E+00;0;  0.0000000E+00;  0.0000000E+00;  0.0000000E+00;0;  2.7997973E-03;  4.0000000E+04;  0.0000000E+00;  0.0000000E+00;  4.0000000E+04;  0.0000000E+00;  4.0000000E+04;  2.8184447E-03;  0.0000000E+00; -1.8647379E-05;  1.9974417E+02;
 -1.1000000E-01;  9.9999998E-03;  1.5000001E-01;877;  0.0000000E+00;  0.0000000E+00;  0.0000000E+00;  1.0000000E+03;  1.0000000E-01;  0.0000000E+00;0;  0.0000000E+00;  0.0000000E+00;  0.0000000E+00;0;  2.7491564E-03;  4.0000000E+04;  0.0000000E+00;  0.0000000E+00;  4.0000000E+04;  0.0000000E+00;  4.0000000E+04;  2.7655801E-03;  0.0000000E+00; -1.6423575E-05;  1.9811952E+02;
 -1.1000000E-01;  9.9999998E-03;  1.6000000E-01;878;  0.0000000E+00;  0.0000000E+00;  0.0000000E+00;  1.0000000E+03;  1.0000000E-01;  0.0000000E+00;0;  0.0000000E+00;  0.0000000E+00;  0.0000000E+00;0;  2.6952764E-03;  4.0000000E+04;  0.0000000E+00;  0.0000000E+00;  4.0000000E+04;  0.0000000E+00;  4.0000000E+04;  2.7100956E-03;  0.0000000E+00; -1.4819180E-05;  1.9912337E+02;
 -1.1000000E-01;  9.9999998E-03;  1.7000000E-01;879;  0.0000000E+00;  0.0000000E+00;  0.0000000E+00;  1.0000000E+03;  1.0000000E-01;  0.0000000E+00;0;  0.0000000E+00;  0.0000000E+00;  0.0000000E+00;0;  2.6378266E-03;  4.0000000E+04;  0.0000000E+00;  0.0000000E+00;  4.0000000E+04;  0.0000000E+00;  4.0000000E+04;  2.6519080E-03;  0.0000000E+00; -1.4081371E-05;  2.0309605E+02;
 -1.1000000E-01;  9.9999998E-03;  1.8000001E-01;880;  0.0000000E+00;  0.0000000E+00;  0.0000000E+00;  1.0000000E+03;  1.0000000E-01;  0.0000000E+00;0;  0.0000000E+00;  0.0000000E+00;  0.0000000E+00;0;  2.5753181E-03;  4.0000000E+04;  0.0000000E+00;  0.0000000E+00;  4.0000000E+04;  0.0000000E+00;  4.0000000E+04;  2.5894078E-03;  0.0000000E+00; -1.4089710E-05;  2.0966653E+02;
 -1.1000000E-01;  9.9999998E-03;  1.9000000E-01;881;  0.0000000E+00;  0.0000000E+00;  0.0000000E+00;  1.0000000E+03;  1.0000000E-01;  0.0000000E+00;0;  0.0000000E+00;  0.0000000E+00;  0.0000000E+00;0;  2.5049453E-03;  4.0000000E+04;  0.0000000E+00;  0.0000000E+00;  4.0000000E+04;  0.0000000E+00;  4.0000000E+04;  2.5192932E-03;  0.0000000E+00; -1.4347869E-05;  2.1750159E+02;
 -1.1000000E-01;  9.9999998E-03;  2.0000000E-01;882;  0.0000000E+00;  0.0000000E+00;  0.0000000E+00;  1.0000000E+03;  1.0000000E-01;  0.0000000E+00;0;  0.0000000E+00;  0.0000000E+00;  0.0000000E+00;0;  2.4228620E-03;  4.0000000E+04;  0.0000000E+00;  0.0000000E+00;  4.0000000E+04;  0.0000000E+00;  4.0000000E+04;  2.4369282E-03;  0.0000000E+00; -1.4066248E-05;  2.2431094E+02;
 -1.1000000E-01;  9.9999998E-03;  2.0999999E-01;883;  0.0000000E+00;  0.0000000E+00;  0.0000000E+00;  1.0000000E+03;  1.0000000E-01;  0.0000000E+00;0;  0.0000000E+00;  0.0000000E+00;  0.0000000E+00;0;  2.3248163E-03;  4.0000000E+04;  0.0000000E+00;  0.0000000E+00;  4.0000000E+04;  0.0000000E+00;  4.0000000E+04;  2.3371768E-03;  0.0000000E+00; -1.2360493E-05;  2.2705760E+02;
 -1.1000000E-01;  9.9999998E-03;  2.2000000E-01;884;  0.0000000E+00;  0.0000000E+00;  0.0000000E+00;  1.0000000E+03;  1.0000000E-01;  0.0000000E+00;0;  0.0000000E+00;  0.0000000E+00;  0.0000000E+00;0;  2.2069342E-03;  4.0000000E+04;  0.0000000E+00;  0.0000000E+00;  4.0000000E+04;  0.0000000E+00;  4.0000000E+04;  2.2154346E-03;  0.0000000E+00; -8.5004149E-06;  2.2251060E+02;
 -1.1000000E-01;  9.9999998E-03;  2.3000000E-01;885;  0.0000000E+00;  0.0000000E+00;  0.0000000E+00;  1.0000000E+03;  1.0000000E-01;  0.0000000E+00;0;  0.0000000E+00;  0.0000000E+00;  0.0000000E+00;0;  2.0665906E-03;  4.0000000E+04;  0.0000000E+00;  0.0000000E+00;  4.0000000E+04;  0.0000000E+00;  4.0000000E+04;  2.0687270E-03;  0.0000000E+00; -2.1363505E-06;  2.0803818E+02;
 -1.0000000E-01;  9.9999998E-03;  7.0000000E-02;960;  0.0000000E+00;  0.0000000E+00;  0.0000000E+00;  1.0000000E+03;  1.0000000E-01;  0.0000000E+00;0;  0.0000000E+00;  0.0000000E+00;  0.0000000E+00;0;  4.9575735E-03;  4.0000000E+04;  0.0000000E+00;  0.0000000E+00;  4.0000000E+04;  0.0000000E+00;  4.0000000E+04;  5.0047091E-03;  0.0000000E+00; -4.7135665E-05;  3.7656998E+02;
 -1.0000000E-01;  9.9999998E-03;  7.9999998E-02;961;  0.0000000E+00;  0.0000000E+00;  0.0000000E+00;  1.0000000E+03;  1.0000000E-01;  0.0000000E+00;0;  0.0000000E+00;  0.0000000E+00;  0.0000000E+00;0;  4.9429457E-03;  4.0000000E+04;  0.0000000E+00;  0.0000000E+00;  4.0000000E+04;  0.0000000E+00;  4.0000000E+04;  4.9934881E-03;  0.0000000E+00; -5.0542400E-05;  3.7087332E+02;
 -1.0000000E-01;  9.9999998E-03;  9.0000004E-02;962;  0.0000000E+00;  0.0000000E+00;  0.0000000E+00;  1.0000000E+03;  1.0000000E-01;  0.0000000E+00;0;  0.0000000E+00;  0.0000000E+00;  0.0000000E+00;0;  4.9173711E-03;  4.0000000E+04;  0.0000000E+00;  0.0000000E+00;  4.0000000E+04;  0.0000000E+00;  4.0000000E+04;  4.9697571E-03;  0.0000000E+00; -5.2386109E-05;  3.6298978E+02;
 -1.0000000E-01;  9.9999998E-03;  1.0000000E-01;963;  0.0000000E+00;  0.0000000E+00;  0.0000000E+00;  1.0000000E+03;  1.0000000E-01;  0.0000000E+00;0;  0.0000000E+00;  0.0000000E+00;  0.0000000E+00;0;  4.8797936E-03;  4.0000000E+04;  0.0000000E+00;  0.0000000E+00;  4.0000000E+04;  0.0000000E+00;  4.0000000E+04;  4.9322709E-03;  0.0000000E+00; -5.2477029E-05;  3.5338647E+02;
 -1.0000000E-01;  9.9999998E-03;  1.1000000E-01;964;  0.0000000E+00;  0.0000000E+00;  0.0000000E+00;  1.0000000E+03;  1.0000000E-01;  0.0000000E+00;0;  0.0000000E+00;  0.0000000E+00;  0.0000000E+00;0;  4.8300354E-03;  4.0000000E+04;  0.0000000E+00;  0.0000000E+00;  4.0000000E+04;  0.0000000E+00;  4.0000000E+04;  4.8808847E-03;  0.0000000E+00; -5.0849329E-05;  3.4285214E+02;
 -1.0000000E-01;  9.9999998E-03;  1.2000000E-01;965;  0.0000000E+00;  0.0000000E+00;  0.0000000E+00;  1.0000000E+03;  1.0000000E-01;  0.0000000E+00;0;  0.0000000E+00;  0.0000000E+00;  0.0000000E+00;0;  4.7687329E-03;  4.0000000E+04;  0.0000000E+00;  0.0000000E+00;  4.0000000E+04;  0.0000000E+00;  4.0000000E+04;  4.8165065E-03;  0.0000000E+00; -4.7773519E-05;  3.3245718E+02;
 -1.0000000E-01;  9.9999998E-03;  1.3000000E-01;966;  0.0000000E+00;  0.0000000E+00;  0.0000000E+00;  1.0000000E+03;  1.0000000E-01;  0.0000000E+00;0;  0.0000000E+00;  0.0000000E+00;  0.0000000E+00;0;  4.6971720E-03;  4.0000000E+04;  0.0000000E+00;  0.0000000E+00;  4.0000000E+04;  0.0000000E+00;  4.0000000E+04;  4.7409106E-03;  0.0000000E+00; -4.3738542E-05;  3.2351797E+02;
 -1.0000000E-01;  9.9999998E-03;  1.4000000E-01;967;  0.0000000E+00;  0.0000000E+00;  0.0000000E+00;  1.0000000E+03;  1.0000000E-01;  0.0000000E+00;0;  0.0000000E+00;  0.0000000E+00;  0.0000000E+00;0;  4.6168854E-03;  4.0000000E+04;  0.0000000E+00;  0.0000000E+00;  4.0000000E+04;  0.0000000E+00;  4.0000000E+04;  4.6562860E-03;  0.0000000E+00; -3.9400351E-05;  3.1752939E+02;
 -1.0000000E-01;  9.9999998E-03;  1.5000001E-01;968;  0.0000000E+00;  0.0000000E+00;  0.0000000E+00;  1.0000000E+03;  1.0000000E-01;  0.0000000E+00;0;  0.0000000E+00;  0.0000000E+00;  0.0000000E+00;0;  4.5291632E-03;  4.0000000E+04;  0.0000000E+00;  0.0000000E+00;  4.0000000E+04;  0.0000000E+00;  4.0000000E+04;  4.5646494E-03;  0.0000000E+00; -3.5486039E-05;  3.1601721E+02;
 -1.0000000E-01;  9.9999998E-03;  1.6000000E-01;969;  0.0000000E+00;  0.0000000E+00;  0.0000000E+00;  1.0000000E+03;  1.0000000E-01;  0.0000000E+00;0;  0.0000000E+00;  0.0000000E+00;  0.0000000E+00;0;  4.4345097E-03;  4.0000000E+04;  0.0000000E+00;  0.0000000E+00;  4.0000000E+04;  0.0000000E+00;  4.0000000E+04;  4.4671288E-03;  0.0000000E+00; -3.2619315E-05;  3.2019458E+02;
 -1.0000000E-01;  9.9999998E-03;  1.7000000E-01;970;  0.0000000E+00;  0.0000000E+00;  0.0000000E+00;  1.0000000E+03;  1.0000000E-01;  0.0000000E+00;0;  0.0000000E+00;  0.0000000E+00;  0.0000000E+00;0;  4.3321694E-03;  4.0000000E+04;  0.0000000E+00;  0.0000000E+00;  4.0000000E+04;  0.0000000E+00;  4.0000000E+04;  4.3631629E-03;  0.0000000E+00; -3.0993589E-05;  3.3039105E+02;
 -1.0000000E-01;  9.9999998E-03;  1.8000001E-01;971;  0.0000000E+00;  0.0000000E+00;  0.0000000E+00;  1.0000000E+03;  1.0000000E-01;  0.0000000E+00;0;  0.0000000E+00;  0.0000000E+00;  0.0000000E+00;0;  4.2197225E-03;  4.0000000E+04;  0.0000000E+00;  0.0000000E+00;  4.0000000E+04;  0.0000000E+00;  4.0000000E+04;  4.2499430E-03;  0.0000000E+00; -3.0220550E-05;  3.4551938E+02;
 -1.0000000E-01;  9.9999998E-03;  1.9000000E-01;972;  0.0000000E+00;  0.0000000E+00;  0.0000000E+00;  1.0000000E+03;  1.0000000E-01;  0.0000000E+00;0;  0.0000000E+00;  0.0000000E+00;  0.0000000E+00;0;  4.0931217E-03;  4.0000000E+04;  0.0000000E+00;  0.0000000E+00;  4.0000000E+04;  0.0000000E+00;  4.0000000E+04;  4.1224710E-03;  0.0000000E+00; -2.9349267E-05;  3.6280536E+02;
 -1.0000000E-01;  9.9999998E-03;  2.0000000E-01;973;  0.0000000E+00;  0.0000000E+00;  0.0000000E+00;  1.0000000E+03;  1.0000000E-01;  0.0000000E+00;0;  0.0000000E+00;  0.0000000E+00;  0.0000000E+00;0;  3.9471677E-03;  4.0000000E+04;  0.0000000E+00;  0.0000000E+00;  4.0000000E+04;  0.0000000E+00;  4.0000000E+04;  3.9742258E-03;  0.0000000E+00; -2.7058293E-05;  3.7783398E+02;
 -1.0000000E-01;  9.9999998E-03;  2.0999999E-01;974;  0.0000000E+00;  0.0000000E+00;  0.0000000E+00;  1.0000000E+03;  1.0000000E-01;  0.0000000E+00;0;  0.0000000E+00;  0.0000000E+00;  0.0000000E+00;0;  3.7763806E-03;  4.0000000E+04;  0.0000000E+00;  0.0000000E+00;  4.0000000E+04;  0.0000000E+00;  4.0000000E+04;  3.7983637E-03;  0.0000000E+00; -2.1983187E-05;  3.8508374E+02;
 -1.0000000E-01;  9.9999998E-03;  2.2000000E-01;975;  0.0000000E+00;  0.0000000E+00;  0.0000000E+00;  1.0000000E+03;  1.0000000E-01;  0.0000000E+00;0;  0.0000000E+00;  0.0000000E+00;  0.0000000E+00;0;  3.5759930E-03;  4.0000000E+04;  0.0000000E+00;  0.0000000E+00;  4.0000000E+04;  0.0000000E+00;  4.0000000E+04;  3.5890855E-03;  0.0000000E+00; -1.3092561E-05;  3.7903891E+02;
 -1.0000000E-01;  9.9999998E-03;  2.3000000E-01;976;  0.0000000E+00;  0.0000000E+00;  0.0000000E+00;  1.0000000E+03;  1.0000000E-01;  0.0000000E+00;0;  0.0000000E+00;  0.0000000E+00;  0.0000000E+00;0;  3.3430124E-03;  4.0000000E+04;  0.0000000E+00;  0.0000000E+00;  4.0000000E+04;  0.0000000E+00;  4.0000000E+04;  3.3430285E-03;  0.0000000E+00; -1.5980822E-08;  3.5546133E+02;
 -9.0000004E-02;  9.9999998E-03;  7.0000000E-02;1051;  0.0000000E+00;  0.0000000E+00;  0.0000000E+00;  1.0000736E+03;  1.0000000E-01;  6.0936546E+01;0;  0.0000000E+00;  0.0000000E+00;  0.0000000E+00;0;  7.5015645E-03;  4.0000000E+04;  0.0000000E+00;  0.0000000E+00;  4.0000000E+04;  0.0000000E+00;  4.0000000E+04;  7.5879321E-03;  0.0000000E+00; -8.6367480E-05;  5.6618408E+02;
 -9.0000004E-02;  9.9999998E-03;  7.9999998E-02;1052;  0.0000000E+00;  0.0000000E+00;  0.0000000E+00;  1.0000850E+03;  1.0000000E-01;  7.0417763E+01;0;  0.0000000E+00;  0.0000000E+00;  0.0000000E+00;0;  7.4771103E-03;  4.0000000E+04;  0.0000000E+00;  0.0000000E+00;  4.0000000E+04;  0.0000000E+00;  4.0000000E+04;  7.5690905E-03;  0.0000000E+00; -9.1980015E-05;  5.5582123E+02;
 -9.0000004E-02;  9.9999998E-03;  9.0000004E-02;1053;  0.0000000E+00;  0.0000000E+00;  0.0000000E+00;  1.0000976E+03;  1.0000000E-01;  8.0886604E+01;0;  0.0000000E+00;  0.0000000E+00;  0.0000000E+00;0;  7.4360268E-03;  4.0000000E+04;  0.0000000E+00;  0.0000000E+00;  4.0000000E+04;  0.0000000E+00;  4.0000000E+04;  7.5309984E-03;  0.0000000E+00; -9.4971612E-05;  5.4184338E+02;
 -9.0000004E-02;  9.9999998E-03;  1.0000000E-01;1054;  0.0000000E+00;  0.0000000E+00;  0.0000000E+00;  1.0001077E+03;  1.0000000E-01;  8.9182663E+01;0;  0.0000000E+00;  0.0000000E+00;  0.0000000E+00;0;  7.3767565E-03;  4.0000000E+04;  0.0000000E+00;  0.0000000E+00;  4.0000000E+04;  0.0000000E+00;  4.0000000E+04;  7.4718278E-03;  0.0000000E+00; -9.5071147E-05;  5.2509650E+02;
 -9.0000004E-02;  9.9999998E-03;  1.1000000E-01;1055;  0.0000000E+00;  0.0000000E+00;  0.0000000E+00;  1.0001169E+03;  1.0000000E-01;  9.6886147E+01;0;  0.0000000E+00;  0.0000000E+00;  0.0000000E+00;0;  7.2989510E-03;  4.0000000E+04;  0.0000000E+00;  0.0000000E+00;  4.0000000E+04;  0.0000000E+00;  4.0000000E+04;  7.3913326E-03;  0.0000000E+00; -9.2381713E-05;  5.0700574E+02;
 -9.0000004E-02;  9.9999998E-03;  1.2000000E-01;1056;  0.0000000E+00;  0.0000000E+00;  0.0000000E+00;  1.0001260E+03;  1.0000000E-01;  1.0439211E+02;0;  0.0000000E+00;  0.0000000E+00;  0.0000000E+00;0;  7.2034253E-03;  4.0000000E+04;  0.0000000E+00;  0.0000000E+00;  4.0000000E+04;  0.0000000E+00;  4.0000000E+04;  7.2908122E-03;  0.0000000E+00; -8.7386819E-05;  4.8954883E+02;
 -9.0000004E-02;  9.9999998E-03;  1.3000000E-01;1057;  0.0000000E+00;  0.0000000E+00;  0.0000000E+00;  1.0001281E+03;  1.0000000E-01;  1.0616984E+02;0;  0.0000000E+00;  0.0000000E+00;  0.0000000E+00;0;  7.0918184E-03;  4.0000000E+04;  0.0000000E+00;  0.0000000E+00;  4.0000000E+04;  0.0000000E+00;  4.0000000E+04;  7.1727275E-03;  0.0000000E+00; -8.0909282E-05;  4.7517444E+02;
 -9.0000004E-02;  9.9999998E-03;  1.4000000E-01;1058;  0.0000000E+00;  0.0000000E+00;  0.0000000E+00;  1.0001187E+03;  1.0000000E-01;  9.8268829E+01;0;  0.0000000E+00;  0.0000000E+00;  0.0000000E+00;0;  6.9660610E-03;  4.0000000E+04;  0.0000000E+00;  0.0000000E+00;  4.0000000E+04;  0.0000000E+00;  4.0000000E+04;  7.0400708E-03;  0.0000000E+00; -7.4010008E-05;  4.6661978E+02;
 -9.0000004E-02;  9.9999998E-03;  1.5000001E-01;1059;  0.0000000E+00;  0.0000000E+00;  0.0000000E+00;  1.0001035E+03;  1.0000000E-01;  8.5725967E+01;0;  0.0000000E+00;  0.0000000E+00;  0.0000000E+00;0;  6.8277181E-03;  4.0000000E+04;  0.0000000E+00;  0.0000000E+00;  4.0000000E+04;  0.0000000E+00;  4.0000000E+04;  6.8955165E-03;  0.0000000E+00; -6.7798486E-05;  4.6655960E+02;
 -9.0000004E-02;  9.9999998E-03;  1.6000000E-01;1060;  0.0000000E+00;  0.0000000E+00;  0.0000000E+00;  1.0000813E+03;  1.0000000E-01;  6.7356117E+01;0;  0.0000000E+00;  0.0000000E+00;  0.0000000E+00;0;  6.6772681E-03;  4.0000000E+04;  0.0000000E+00;  0.0000000E+00;  4.0000000E+04;  0.0000000E+00;  4.0000000E+04;  6.7403084E-03;  0.0000000E+00; -6.3040221E-05;  4.7684625E+02;
 -9.0000004E-02;  9.9999998E-03;  1.7000000E-01;1061;  0.0000000E+00;  0.0000000E+00;  0.0000000E+00;  1.0000527E+03;  1.0000000E-01;  4.3653088E+01;0;  0.0000000E+00;  0.0000000E+00;  0.0000000E+00;0;  6.5135164E-03;  4.0000000E+04;  0.0000000E+00;  0.0000000E+00;  4.0000000E+04;  0.0000000E+00;  4.0000000E+04;  6.5732831E-03;  0.0000000E+00; -5.9766728E-05;  4.9762512E+02;
 -9.0000004E-02;  9.9999998E-03;  1.8000001E-01;1062;  0.0000000E+00;  0.0000000E+00;  0.0000000E+00;  1.0000187E+03;  1.0000000E-01;  1.5505734E+01;0;  0.0000000E+00;  0.0000000E+00;  0.0000000E+00;0;  6.3331281E-03;  4.0000000E+04;  0.0000000E+00;  0.0000000E+00;  4.0000000E+04;  0.0000000E+00;  4.0000000E+04;  6.3902866E-03;  0.0000000E+00; -5.7158715E-05;  5.2662982E+02;
 -9.0000004E-02;  9.9999998E-03;  1.9000000E-01;1063;  0.0000000E+00;  0.0000000E+00;  0.0000000E+00;  1.0000000E+03;  1.0000000E-01;  0.0000000E+00;0;  0.0000000E+00;  0.0000000E+00;  0.0000000E+00;0;  6.1309235E-03;  4.0000000E+04;  0.0000000E+00;  0.0000000E+00;  4.0000000E+04;  0.0000000E+00;  4.0000000E+04;  6.1845556E-03;  0.0000000E+00; -5.3631844E-05;  5.5882507E+02;
 -9.0000004E-02;  9.9999998E-03;  2.0000000E-01;1064;  0.0000000E+00;  0.0000000E+00;  0.0000000E+00;  1.0000000E+03;  1.0000000E-01;  0.0000000E+00;0;  0.0000000E+00;  0.0000000E+00;  0.0000000E+00;0;  5.9004179E-03;  4.0000000E+04;  0.0000000E+00;  0.0000000E+00;  4.0000000E+04;  0.0000000E+00;  4.0000000E+04;  5.9475973E-03;  0.0000000E+00; -4.7179510E-05;  5.8664624E+02;
 -9.0000004E-02;  9.9999998E-03;  2.0999999E-01;1065;  0.0000000E+00;  0.0000000E+00;  0.0000000E+00;  1.0000000E+03;  1.0000000E-01;  0.0000000E+00;0;  0.0000000E+00;  0.0000000E+00;  0.0000000E+00;0;  5.6349048E-03;  4.0000000E+04;  0.0000000E+00;  0.0000000E+00;  4.0000000E+04;  0.0000000E+00;  4.0000000E+04;  5.6707799E-03;  0.0000000E+00; -3.5874851E-05;  6.0117279E+02;
 -9.0000004E-02;  9.9999998E-03;  2.2000000E-01;1066;  0.0000000E+00;  0.0000000E+00;  0.0000000E+00;  1.0000000E+03;  1.0000000E-01;  0.0000000E+00;0;  0.0000000E+00;  0.0000000E+00;  0.0000000E+00;0;  5.3287037E-03;  4.0000000E+04;  0.0000000E+00;  0.0000000E+00;  4.0000000E+04;  0.0000000E+00;  4.0000000E+04;  5.3470996E-03;  0.0000000E+00; -1.8396169E-05;  5.9391766E+02;
 -9.0000004E-02;  9.9999998E-03;  2.3000000E-01;1067;  0.0000000E+00;  0.0000000E+00;  0.0000000E+00;  1.0000000E+03;  1.0000000E-01;  0.0000000E+00;0;  0.0000000E+00;  0.0000000E+00;  0.0000000E+00;0;  4.9783583E-03;  4.0000000E+04;  0.0000000E+00;  0.0000000E+00;  4.0000000E+04;  0.0000000E+00;  4.0000000E+04;  4.9728146E-03;  0.0000000E+00;  5.5438240E-06;  5.5856555E+02;
 -7.9999998E-02;  9.9999998E-03;  7.0000000E-02;1142;  0.0000000E+00;  0.0000000E+00;  0.0000000E+00;  1.0004344E+03;  1.0000000E-01;  3.5989105E+02;0;  0.0000000E+00;  0.0000000E+00;  0.0000000E+00;0;  1.0605568E-02;  4.0000000E+04;  0.0000000E+00;  0.0000000E+00;  4.0000000E+04;  0.0000000E+00;  4.0000000E+04;  1.0750425E-02;  0.0000000E+00; -1.4485687E-04;  7.9696570E+02;
 -7.9999998E-02;  9.9999998E-03;  7.9999998E-02;1143;  0.0000000E+00;  0.0000000E+00;  0.0000000E+00;  1.0004506E+03;  1.0000000E-01;  3.7332278E+02;0;  0.0000000E+00;  0.0000000E+00;  0.0000000E+00;0;  1.0568094E-02;  4.0000000E+04;  0.0000000E+00;  0.0000000E+00;  4.0000000E+04;  0.0000000E+00;  4.0000000E+04;  1.0721390E-02;  0.0000000E+00; -1.5329606E-04;  7.7993909E+02;
 -7.9999998E-02;  9.9999998E-03;  9.0000004E-02;1144;  0.0000000E+00;  0.0000000E+00;  0.0000000E+00;  1.0004678E+03;  1.0000000E-01;  3.8754459E+02;0;  0.0000000E+00;  0.0000000E+00;  0.0000000E+00;0;  1.0506871E-02;  4.0000000E+04;  0.0000000E+00;  0.0000000E+00;  4.0000000E+04;  0.0000000E+00;  4.0000000E+04;  1.0664592E-02;  0.0000000E+00; -1.5772000E-04;  7.5755292E+02;
 -7.9999998E-02;  9.9999998E-03;  1.0000000E-01;1145;  0.0000000E+00;  0.0000000E+00;  0.0000000E+00;  1.0004851E+03;  1.0000000E-01;  4.0186517E+02;0;  0.0000000E+00;  0.0000000E+00;  0.0000000E+00;0;  1.0419703E-02;  4.0000000E+04;  0.0000000E+00;  0.0000000E+00;  4.0000000E+04;  0.0000000E+00;  4.0000000E+04;  1.0577484E-02;  0.0000000E+00; -1.5778128E-04;  7.3120691E+02;
 -7.9999998E-02;  9.9999998E-03;  1.1000000E-01;1146;  0.0000000E+00;  0.0000000E+00;  0.0000000E+00;  1.0005018E+03;  1.0000000E-01;  4.1569196E+02;0;  0.0000000E+00;  0.0000000E+00;  0.0000000E+00;0;  1.0305986E-02;  4.0000000E+04;  0.0000000E+00;  0.0000000E+00;  4.0000000E+04;  0.0000000E+00;  4.0000000E+04;  1.0459686E-02;  0.0000000E+00; -1.5369979E-04;  7.0325043E+02;
 -7.9999998E-02;  9.9999998E-03;  1.2000000E-01;1147;  0.0000000E+00;  0.0000000E+00;  0.0000000E+00;  1.0005096E+03;  1.0000000E-01;  4.2221027E+02;0;  0.0000000E+00;  0.0000000E+00;  0.0000000E+00;0;  1.0166705E-02;  4.0000000E+04;  0.0000000E+00;  0.0000000E+00;  4.0000000E+04;  0.0000000E+00;  4.0000000E+04;  1.0312961E-02;  0.0000000E+00; -1.4625637E-04;  6.7692340E+02;
 -7.9999998E-02;  9.9999998E-03;  1.3000000E-01;1148;  0.0000000E+00;  0.0000000E+00;  0.0000000E+00;  1.0005084E+03;  1.0000000E-01;  4.2112390E+02;0;  0.0000000E+00;  0.0000000E+00;  0.0000000E+00;0;  1.0003900E-02;  4.0000000E+04;  0.0000000E+00;  0.0000000E+00;  4.0000000E+04;  0.0000000E+00;  4.0000000E+04;  1.0140609E-02;  0.0000000E+00; -1.3670925E-04;  6.5623315E+02;
 -7.9999998E-02;  9.9999998E-03;  1.4000000E-01;1149;  0.0000000E+00;  0.0000000E+00;  0.0000000E+00;  1.0004951E+03;  1.0000000E-01;  4.1016122E+02;0;  0.0000000E+00;  0.0000000E+00;  0.0000000E+00;0;  9.8199993E-03;  4.0000000E+04;  0.0000000E+00;  0.0000000E+00;  4.0000000E+04;  0.0000000E+00;  4.0000000E+04;  9.9466145E-03;  0.0000000E+00; -1.2661530E-04;  6.4560046E+02;
 -7.9999998E-02;  9.9999998E-03;  1.5000001E-01;1150;  0.0000000E+00;  0.0000000E+00;  0.0000000E+00;  1.0004760E+03;  1.0000000E-01;  3.9435922E+02;0;  0.0000000E+00;  0.0000000E+00;  0.0000000E+00;0;  9.6169366E-03;  4.0000000E+04;  0.0000000E+00;  0.0000000E+00;  4.0000000E+04;  0.0000000E+00;  4.0000000E+04;  9.7343978E-03;  0.0000000E+00; -1.1746154E-04;  6.4913989E+02;
 -7.9999998E-02;  9.9999998E-03;  1.6000000E-01;1151;  0.0000000E+00;  0.0000000E+00;  0.0000000E+00;  1.0004343E+03;  1.0000000E-01;  3.5979230E+02;0;  0.0000000E+00;  0.0000000E+00;  0.0000000E+00;0;  9.3953498E-03;  4.0000000E+04;  0.0000000E+00;  0.0000000E+00;  4.0000000E+04;  0.0000000E+00;  4.0000000E+04;  9.5053827E-03;  0.0000000E+00; -1.1003310E-04;  6.6937708E+02;
 -7.9999998E-02;  9.9999998E-03;  1.7000000E-01;1152;  0.0000000E+00;  0.0000000E+00;  0.0000000E+00;  1.0003829E+03;  1.0000000E-01;  3.1722559E+02;0;  0.0000000E+00;  0.0000000E+00;  0.0000000E+00;0;  9.1537405E-03;  4.0000000E+04;  0.0000000E+00;  0.0000000E+00;  4.0000000E+04;  0.0000000E+00;  4.0000000E+04;  9.2578009E-03;  0.0000000E+00; -1.0406012E-04;  7.0605798E+02;
 -7.9999998E-02;  9.9999998E-03;  1.8000001E-01;1153;  0.0000000E+00;  0.0000000E+00;  0.0000000E+00;  1.0003257E+03;  1.0000000E-01;  2.6981952E+02;0;  0.0000000E+00;  0.0000000E+00;  0.0000000E+00;0;  8.8881236E-03;  4.0000000E+04;  0.0000000E+00;  0.0000000E+00;  4.0000000E+04;  0.0000000E+00;  4.0000000E+04;  8.9862058E-03;  0.0000000E+00; -9.8082055E-05;  7.5515228E+02;
 -7.9999998E-02;  9.9999998E-03;  1.9000000E-01;1154;  0.0000000E+00;  0.0000000E+00;  0.0000000E+00;  1.0002657E+03;  1.0000000E-01;  2.2014192E+02;0;  0.0000000E+00;  0.0000000E+00;  0.0000000E+00;0;  8.5922629E-03;  4.0000000E+04;  0.0000000E+00;  0.0000000E+00;  4.0000000E+04;  0.0000000E+00;  4.0000000E+04;  8.6819539E-03;  0.0000000E+00; -8.9691428E-05;  8.0838074E+02;
 -7.9999998E-02;  9.9999998E-03;  2.0000000E-01;1155;  0.0000000E+00;  0.0000000E+00;  0.0000000E+00;  1.0002045E+03;  1.0000000E-01;  1.6947668E+02;0;  0.0000000E+00;  0.0000000E+00;  0.0000000E+00;0;  8.2584787E-03;  4.0000000E+04;  0.0000000E+00;  0.0000000E+00;  4.0000000E+04;  0.0000000E+00;  4.0000000E+04;  8.3345566E-03;  0.0000000E+00; -7.6077486E-05;  8.5409552E+02;
 -7.9999998E-02;  9.9999998E-03;  2.0999999E-01;1156;  0.0000000E+00;  0.0000000E+00;  0.0000000E+00;  1.0001508E+03;  1.0000000E-01;  1.2493474E+02;0;  0.0000000E+00;  0.0000000E+00;  0.0000000E+00;0;  7.8787720E-03;  4.0000000E+04;  0.0000000E+00;  0.0000000E+00;  4.0000000E+04;  0.0000000E+00;  4.0000000E+04;  7.9334853E-03;  0.0000000E+00; -5.4713662E-05;  8.7922052E+02;
 -7.9999998E-02;  9.9999998E-03;  2.2000000E-01;1157;  0.0000000E+00;  0.0000000E+00;  0.0000000E+00;  1.0001135E+03;  1.0000000E-01;  9.4022034E+01;0;  0.0000000E+00;  0.0000000E+00;  0.0000000E+00;0;  7.4463296E-03;  4.0000000E+04;  0.0000000E+00;  0.0000000E+00;  4.0000000E+04;  0.0000000E+00;  4.0000000E+04;  7.4703619E-03;  0.0000000E+00; -2.4032106E-05;  8.7156299E+02;
 -7.9999998E-02;  9.9999998E-03;  2.3000000E-01;1158;  0.0000000E+00;  0.0000000E+00;  0.0000000E+00;  1.0000885E+03;  1.0000000E-01;  7.3281876E+01;0;  0.0000000E+00;  0.0000000E+00;  0.0000000E+00;0;  6.9569750E-03;  4.0000000E+04;  0.0000000E+00;  0.0000000E+00;  4.0000000E+04;  0.0000000E+00;  4.0000000E+04;  6.9409329E-03;  0.0000000E+00;  1.6042079E-05;  8.2217017E+02;
 -7.0000000E-02;  9.9999998E-03;  7.0000000E-02;1233;  0.0000000E+00;  0.0000000E+00;  0.0000000E+00;  1.0010656E+03;  1.0000000E-01;  8.8274048E+02;0;  0.0000000E+00;  0.0000000E+00;  0.0000000E+00;0;  1.4184701E-02;  4.0000000E+04;  0.0000000E+00;  0.0000000E+00;  4.0000000E+04;  0.0000000E+00;  4.0000000E+04;  1.4410772E-02;  0.0000000E+00; -2.2607119E-04;  1.0608529E+03;
 -7.0000000E-02;  9.9999998E-03;  7.9999998E-02;1234;  0.0000000E+00;  0.0000000E+00;  0.0000000E+00;  1.0010895E+03;  1.0000000E-01;  9.0269049E+02;0;  0.0000000E+00;  0.0000000E+00;  0.0000000E+00;0;  1.4131340E-02;  4.0000000E+04;  0.0000000E+00;  0.0000000E+00;  4.0000000E+04;  0.0000000E+00;  4.0000000E+04;  1.4369150E-02;  0.0000000E+00; -2.3780954E-04;  1.0351652E+03;
 -7.0000000E-02;  9.9999998E-03;  9.0000004E-02;1235;  0.0000000E+00;  0.0000000E+00;  0.0000000E+00;  1.0011159E+03;  1.0000000E-01;  9.2451709E+02;0;  0.0000000E+00;  0.0000000E+00;  0.0000000E+00;0;  1.4045666E-02;  4.0000000E+04;  0.0000000E+00;  0.0000000E+00;  4.0000000E+04;  0.0000000E+00;  4.0000000E+04;  1.4289485E-02;  0.0000000E+00; -2.4381957E-04;  1.0021925E+03;
 -7.0000000E-02;  9.9999998E-03;  1.0000000E-01;1236;  0.0000000E+00;  0.0000000E+00;  0.0000000E+00;  1.0011373E+03;  1.0000000E-01;  9.4219556E+02;0;  0.0000000E+00;  0.0000000E+00;  0.0000000E+00;0;  1.3924642E-02;  4.0000000E+04;  0.0000000E+00;  0.0000000E+00;  4.0000000E+04;  0.0000000E+00;  4.0000000E+04;  1.4168341E-02;  0.0000000E+00; -2.4369943E-04;  9.6410150E+02;
 -7.0000000E-02;  9.9999998E-03;  1.1000000E-01;1237;  0.0000000E+00;  0.0000000E+00;  0.0000000E+00;  1.0011569E+03;  1.0000000E-01;  9.5849139E+02;0;  0.0000000E+00;  0.0000000E+00;  0.0000000E+00;0;  1.3767385E-02;  4.0000000E+04;  0.0000000E+00;  0.0000000E+00;  4.0000000E+04;  0.0000000E+00;  4.0000000E+04;  1.4005233E-02;  0.0000000E+00; -2.3784810E-04;  9.2444110E+02;
 -7.0000000E-02;  9.9999998E-03;  1.2000000E-01;1238;  0.0000000E+00;  0.0000000E+00;  0.0000000E+00;  1.0011640E+03;  1.0000000E-01;  9.6431842E+02;0;  0.0000000E+00;  0.0000000E+00;  0.0000000E+00;0;  1.3574976E-02;  4.0000000E+04;  0.0000000E+00;  0.0000000E+00;  4.0000000E+04;  0.0000000E+00;  4.0000000E+04;  1.3802407E-02;  0.0000000E+00; -2.2743191E-04;  8.8806616E+02;
 -7.0000000E-02;  9.9999998E-03;  1.3000000E-01;1239;  0.0000000E+00;  0.0000000E+00;  0.0000000E+00;  1.0011630E+03;  1.0000000E-01;  9.6352832E+02;0;  0.0000000E+00;  0.0000000E+00;  0.0000000E+00;0;  1.3350009E-02;  4.0000000E+04;  0.0000000E+00;  0.0000000E+00;  4.0000000E+04;  0.0000000E+00;  4.0000000E+04;  1.3564250E-02;  0.0000000E+00; -2.1424114E-04;  8.6093420E+02;
 -7.0000000E-02;  9.9999998E-03;  1.4000000E-01;1240;  0.0000000E+00;  0.0000000E+00;  0.0000000E+00;  1.0011382E+03;  1.0000000E-01;  9.4298566E+02;0;  0.0000000E+00;  0.0000000E+00;  0.0000000E+00;0;  1.3095569E-02;  4.0000000E+04;  0.0000000E+00;  0.0000000E+00;  4.0000000E+04;  0.0000000E+00;  4.0000000E+04;  1.3295955E-02;  0.0000000E+00; -2.0038641E-04;  8.4952167E+02;
 -7.0000000E-02;  9.9999998E-03;  1.5000001E-01;1241;  0.0000000E+00;  0.0000000E+00;  0.0000000E+00;  1.0010972E+03;  1.0000000E-01;  9.0901135E+02;0;  0.0000000E+00;  0.0000000E+00;  0.0000000E+00;0;  1.2814318E-02;  4.0000000E+04;  0.0000000E+00;  0.0000000E+00;  4.0000000E+04;  0.0000000E+00;  4.0000000E+04;  1.3001952E-02;  0.0000000E+00; -1.8763426E-04;  8.5954321E+02;
 -7.0000000E-02;  9.9999998E-03;  1.6000000E-01;1242;  0.0000000E+00;  0.0000000E+00;  0.0000000E+00;  1.0010411E+03;  1.0000000E-01;  8.6249414E+02;0;  0.0000000E+00;  0.0000000E+00;  0.0000000E+00;0;  1.2507337E-02;  4.0000000E+04;  0.0000000E+00;  0.0000000E+00;  4.0000000E+04;  0.0000000E+00;  4.0000000E+04;  1.2684015E-02;  0.0000000E+00; -1.7667729E-04;  8.9420990E+02;
 -7.0000000E-02;  9.9999998E-03;  1.7000000E-01;1243;  0.0000000E+00;  0.0000000E+00;  0.0000000E+00;  1.0009588E+03;  1.0000000E-01;  7.9434790E+02;0;  0.0000000E+00;  0.0000000E+00;  0.0000000E+00;0;  1.2173224E-02;  4.0000000E+04;  0.0000000E+00;  0.0000000E+00;  4.0000000E+04;  0.0000000E+00;  4.0000000E+04;  1.2339935E-02;  0.0000000E+00; -1.6671080E-04;  9.5259119E+02;
 -7.0000000E-02;  9.9999998E-03;  1.8000001E-01;1244;  0.0000000E+00;  0.0000000E+00;  0.0000000E+00;  1.0008735E+03;  1.0000000E-01;  7.2363385E+02;0;  0.0000000E+00;  0.0000000E+00;  0.0000000E+00;0;  1.1807692E-02;  4.0000000E+04;  0.0000000E+00;  0.0000000E+00;  4.0000000E+04;  0.0000000E+00;  4.0000000E+04;  1.1963101E-02;  0.0000000E+00; -1.5540846E-04;  1.0281655E+03;
 -7.0000000E-02;  9.9999998E-03;  1.9000000E-01;1245;  0.0000000E+00;  0.0000000E+00;  0.0000000E+00;  1.0007788E+03;  1.0000000E-01;  6.4521631E+02;0;  0.0000000E+00;  0.0000000E+00;  0.0000000E+00;0;  1.1403673E-02;  4.0000000E+04;  0.0000000E+00;  0.0000000E+00;  4.0000000E+04;  0.0000000E+00;  4.0000000E+04;  1.1543062E-02;  0.0000000E+00; -1.3938865E-04;  1.1086649E+03;
 -7.0000000E-02;  9.9999998E-03;  2.0000000E-01;1246;  0.0000000E+00;  0.0000000E+00;  0.0000000E+00;  1.0006845E+03;  1.0000000E-01;  5.6709509E+02;0;  0.0000000E+00;  0.0000000E+00;  0.0000000E+00;0;  1.0952276E-02;  4.0000000E+04;  0.0000000E+00;  0.0000000E+00;  4.0000000E+04;  0.0000000E+00;  4.0000000E+04;  1.1067240E-02;  0.0000000E+00; -1.1496418E-04;  1.1777518E+03;
 -7.0000000E-02;  9.9999998E-03;  2.0999999E-01;1247;  0.0000000E+00;  0.0000000E+00;  0.0000000E+00;  1.0005966E+03;  1.0000000E-01;  4.9420825E+02;0;  0.0000000E+00;  0.0000000E+00;  0.0000000E+00;0;  1.0444008E-02;  4.0000000E+04;  0.0000000E+00;  0.0000000E+00;  4.0000000E+04;  0.0000000E+00;  4.0000000E+04;  1.0523004E-02;  0.0000000E+00; -7.8996447E-05;  1.2174529E+03;
 -7.0000000E-02;  9.9999998E-03;  2.2000000E-01;1248;  0.0000000E+00;  0.0000000E+00;  0.0000000E+00;  1.0005200E+03;  1.0000000E-01;  4.3080264E+02;0;  0.0000000E+00;  0.0000000E+00;  0.0000000E+00;0;  9.8705338E-03;  4.0000000E+04;  0.0000000E+00;  0.0000000E+00;  4.0000000E+04;  0.0000000E+00;  4.0000000E+04;  9.9002486E-03;  0.0000000E+00; -2.9715226E-05;  1.2111877E+03;
 -7.0000000E-02;  9.9999998E-03;  2.3000000E-01;1249;  0.0000000E+00;  0.0000000E+00;  0.0000000E+00;  1.0004694E+03;  1.0000000E-01;  3.8882852E+02;0;  0.0000000E+00;  0.0000000E+00;  0.0000000E+00;0;  9.2265084E-03;  4.0000000E+04;  0.0000000E+00;  0.0000000E+00;  4.0000000E+04;  0.0000000E+00;  4.0000000E+04;  9.1938861E-03;  0.0000000E+00;  3.2622524E-05;  1.1466130E+03;
 -5.9999999E-02;  9.9999998E-03;  7.0000000E-02;1324;  0.0000000E+00;  0.0000000E+00;  0.0000000E+00;  1.0020677E+03;  1.0000000E-01;  1.7131367E+03;0;  0.0000000E+00;  0.0000000E+00;  0.0000000E+00;0;  1.8077124E-02;  4.0000000E+04;  0.0000000E+00;  0.0000000E+00;  4.0000000E+04;  0.0000000E+00;  4.0000000E+04;  1.8409107E-02;  0.0000000E+00; -3.3198338E-04;  1.3421863E+03;
 -5.9999999E-02;  9.9999998E-03;  7.9999998E-02;1325;  0.0000000E+00;  0.0000000E+00;  0.0000000E+00;  1.0021006E+03;  1.0000000E-01;  1.7403953E+03;0;  0.0000000E+00;  0.0000000E+00;  0.0000000E+00;0;  1.8005906E-02;  4.0000000E+04;  0.0000000E+00;  0.0000000E+00;  4.0000000E+04;  0.0000000E+00;  4.0000000E+04;  1.8353118E-02;  0.0000000E+00; -3.4721277E-04;  1.3061925E+03;
 -5.9999999E-02;  9.9999998E-03;  9.0000004E-02;1326;  0.0000000E+00;  0.0000000E+00;  0.0000000E+00;  1.0021309E+03;  1.0000000E-01;  1.7653822E+03;0;  0.0000000E+00;  0.0000000E+00;  0.0000000E+00;0;  1.7892467E-02;  4.0000000E+04;  0.0000000E+00;  0.0000000E+00;  4.0000000E+04;  0.0000000E+00;  4.0000000E+04;  1.8247183E-02;  0.0000000E+00; -3.5471647E-04;  1.2610110E+03;
 -5.9999999E-02;  9.9999998E-03;  1.0000000E-01;1327;  0.0000000E+00;  0.0000000E+00;  0.0000000E+00;  1.0021583E+03;  1.0000000E-01;  1.7880975E+03;0;  0.0000000E+00;  0.0000000E+00;  0.0000000E+00;0;  1.7732747E-02;  4.0000000E+04;  0.0000000E+00;  0.0000000E+00;  4.0000000E+04;  0.0000000E+00;  4.0000000E+04;  1.8086828E-02;  0.0000000E+00; -3.5408107E-04;  1.2097893E+03;
 -5.9999999E-02;  9.9999998E-03;  1.1000000E-01;1328;  0.0000000E+00;  0.0000000E+00;  0.0000000E+00;  1.0021780E+03;  1.0000000E-01;  1.8043934E+03;0;  0.0000000E+00;  0.0000000E+00;  0.0000000E+00;0;  1.7525420E-02;  4.0000000E+04;  0.0000000E+00;  0.0000000E+00;  4.0000000E+04;  0.0000000E+00;  4.0000000E+04;  1.7871378E-02;  0.0000000E+00; -3.4595872E-04;  1.1574983E+03;
 -5.9999999E-02;  9.9999998E-03;  1.2000000E-01;1329;  0.0000000E+00;  0.0000000E+00;  0.0000000E+00;  1.0021817E+03;  1.0000000E-01;  1.8074551E+03;0;  0.0000000E+00;  0.0000000E+00;  0.0000000E+00;0;  1.7271804E-02;  4.0000000E+04;  0.0000000E+00;  0.0000000E+00;  4.0000000E+04;  0.0000000E+00;  4.0000000E+04;  1.7603800E-02;  0.0000000E+00; -3.3199554E-04;  1.1108666E+03;
 -5.9999999E-02;  9.9999998E-03;  1.3000000E-01;1330;  0.0000000E+00;  0.0000000E+00;  0.0000000E+00;  1.0021688E+03;  1.0000000E-01;  1.7967887E+03;0;  0.0000000E+00;  0.0000000E+00;  0.0000000E+00;0;  1.6975103E-02;  4.0000000E+04;  0.0000000E+00;  0.0000000E+00;  4.0000000E+04;  0.0000000E+00;  4.0000000E+04;  1.7289704E-02;  0.0000000E+00; -3.1460024E-04;  1.0780922E+03;
 -5.9999999E-02;  9.9999998E-03;  1.4000000E-01;1331;  0.0000000E+00;  0.0000000E+00;  0.0000000E+00;  1.0021389E+03;  1.0000000E-01;  1.7719993E+03;0;  0.0000000E+00;  0.0000000E+00;  0.0000000E+00;0;  1.6639441E-02;  4.0000000E+04;  0.0000000E+00;  0.0000000E+00;  4.0000000E+04;  0.0000000E+00;  4.0000000E+04;  1.6935887E-02;  0.0000000E+00; -2.9644588E-04;  1.0678912E+03;
 -5.9999999E-02;  9.9999998E-03;  1.5000001E-01;1332;  0.0000000E+00;  0.0000000E+00;  0.0000000E+00;  1.0020762E+03;  1.0000000E-01;  1.7200502E+03;0;  0.0000000E+00;  0.0000000E+00;  0.0000000E+00;0;  1.6268590E-02;  4.0000000E+04;  0.0000000E+00;  0.0000000E+00;  4.0000000E+04;  0.0000000E+00;  4.0000000E+04;  1.6548069E-02;  0.0000000E+00; -2.7947899E-04;  1.0876742E+03;
 -5.9999999E-02;  9.9999998E-03;  1.6000000E-01;1333;  0.0000000E+00;  0.0000000E+00;  0.0000000E+00;  1.0019904E+03;  1.0000000E-01;  1.6489410E+03;0;  0.0000000E+00;  0.0000000E+00;  0.0000000E+00;0;  1.5864696E-02;  4.0000000E+04;  0.0000000E+00;  0.0000000E+00;  4.0000000E+04;  0.0000000E+00;  4.0000000E+04;  1.6128810E-02;  0.0000000E+00; -2.6411336E-04;  1.1413157E+03;
 -5.9999999E-02;  9.9999998E-03;  1.7000000E-01;1334;  0.0000000E+00;  0.0000000E+00;  0.0000000E+00;  1.0018754E+03;  1.0000000E-01;  1.5537339E+03;0;  0.0000000E+00;  0.0000000E+00;  0.0000000E+00;0;  1.5427119E-02;  4.0000000E+04;  0.0000000E+00;  0.0000000E+00;  4.0000000E+04;  0.0000000E+00;  4.0000000E+04;  1.5675876E-02;  0.0000000E+00; -2.4875728E-04;  1.2268064E+03;
 -5.9999999E-02;  9.9999998E-03;  1.8000001E-01;1335;  0.0000000E+00;  0.0000000E+00;  0.0000000E+00;  1.0017483E+03;  1.0000000E-01;  1.4484529E+03;0;  0.0000000E+00;  0.0000000E+00;  0.0000000E+00;0;  1.4951680E-02;  4.0000000E+04;  0.0000000E+00;  0.0000000E+00;  4.0000000E+04;  0.0000000E+00;  4.0000000E+04;  1.5181715E-02;  0.0000000E+00; -2.3003446E-04;  1.3346993E+03;
 -5.9999999E-02;  9.9999998E-03;  1.9000000E-01;1336;  0.0000000E+00;  0.0000000E+00;  0.0000000E+00;  1.0016053E+03;  1.0000000E-01;  1.3299377E+03;0;  0.0000000E+00;  0.0000000E+00;  0.0000000E+00;0;  1.4430852E-02;  4.0000000E+04;  0.0000000E+00;  0.0000000E+00;  4.0000000E+04;  0.0000000E+00;  4.0000000E+04;  1.4634324E-02;  0.0000000E+00; -2.0347282E-04;  1.4484719E+03;
 -5.9999999E-02;  9.9999998E-03;  2.0000000E-01;1337;  0.0000000E+00;  0.0000000E+00;  0.0000000E+00;  1.0014628E+03;  1.0000000E-01;  1.2119164E+03;0;  0.0000000E+00;  0.0000000E+00;  0.0000000E+00;0;  1.3854522E-02;  4.0000000E+04;  0.0000000E+00;  0.0000000E+00;  4.0000000E+04;  0.0000000E+00;  4.0000000E+04;  1.4018956E-02;  0.0000000E+00; -1.6443379E-04;  1.5467120E+03;
 -5.9999999E-02;  9.9999998E-03;  2.0999999E-01;1338;  0.0000000E+00;  0.0000000E+00;  0.0000000E+00;  1.0013229E+03;  1.0000000E-01;  1.0959690E+03;0;  0.0000000E+00;  0.0000000E+00;  0.0000000E+00;0;  1.3211376E-02;  4.0000000E+04;  0.0000000E+00;  0.0000000E+00;  4.0000000E+04;  0.0000000E+00;  4.0000000E+04;  1.3320502E-02;  0.0000000E+00; -1.0912610E-04;  1.6060699E+03;
 -5.9999999E-02;  9.9999998E-03;  2.2000000E-01;1339;  0.0000000E+00;  0.0000000E+00;  0.0000000E+00;  1.0012016E+03;  1.0000000E-01;  9.9552740E+02;0;  0.0000000E+00;  0.0000000E+00;  0.0000000E+00;0;  1.2490993E-02;  4.0000000E+04;  0.0000000E+00;  0.0000000E+00;  4.0000000E+04;  0.0000000E+00;  4.0000000E+04;  1.2526574E-02;  0.0000000E+00; -3.5580426E-05;  1.6046558E+03;
 -5.9999999E-02;  9.9999998E-03;  2.3000000E-01;1340;  0.0000000E+00;  0.0000000E+00;  0.0000000E+00;  1.0010908E+03;  1.0000000E-01;  9.0367816E+02;0;  0.0000000E+00;  0.0000000E+00;  0.0000000E+00;0;  1.1686139E-02;  4.0000000E+04;  0.0000000E+00;  0.0000000E+00;  4.0000000E+04;  0.0000000E+00;  4.0000000E+04;  1.1630600E-02;  0.0000000E+00;  5.5538520E-05;  1.5257228E+03;
 -5.0000001E-02;  9.9999998E-03;  7.0000000E-02;1415;  0.0000000E+00;  0.0000000E+00;  0.0000000E+00;  1.0034919E+03;  1.0000000E-01;  2.8929553E+03;0;  0.0000000E+00;  0.0000000E+00;  0.0000000E+00;0;  2.2033393E-02;  4.0000000E+04;  0.0000000E+00;  0.0000000E+00;  4.0000000E+04;  0.0000000E+00;  4.0000000E+04;  2.2495689E-02;  0.0000000E+00; -4.6229616E-04;  1.6166554E+03;
 -5.0000001E-02;  9.9999998E-03;  7.9999998E-02;1416;  0.0000000E+00;  0.0000000E+00;  0.0000000E+00;  1.0035328E+03;  1.0000000E-01;  2.9268308E+03;0;  0.0000000E+00;  0.0000000E+00;  0.0000000E+00;0;  2.1943746E-02;  4.0000000E+04;  0.0000000E+00;  0.0000000E+00;  4.0000000E+04;  0.0000000E+00;  4.0000000E+04;  2.2424556E-02;  0.0000000E+00; -4.8081097E-04;  1.5694773E+03;
 -5.0000001E-02;  9.9999998E-03;  9.0000004E-02;1417;  0.0000000E+00;  0.0000000E+00;  0.0000000E+00;  1.0035731E+03;  1.0000000E-01;  2.9603113E+03;0;  0.0000000E+00;  0.0000000E+00;  0.0000000E+00;0;  2.1801008E-02;  4.0000000E+04;  0.0000000E+00;  0.0000000E+00;  4.0000000E+04;  0.0000000E+00;  4.0000000E+04;  2.2290364E-02;  0.0000000E+00; -4.8935553E-04;  1.5114619E+03;
 -5.0000001E-02;  9.9999998E-03;  1.0000000E-01;1418;  0.0000000E+00;  0.0000000E+00;  0.0000000E+00;  1.0036092E+03;  1.0000000E-01;  2.9901377E+03;0;  0.0000000E+00;  0.0000000E+00;  0.0000000E+00;0;  2.1599842E-02;  4.0000000E+04;  0.0000000E+00;  0.0000000E+00;  4.0000000E+04;  0.0000000E+00;  4.0000000E+04;  2.2087418E-02;  0.0000000E+00; -4.8757502E-04;  1.4468828E+03;
 -5.0000001E-02;  9.9999998E-03;  1.1000000E-01;1419;  0.0000000E+00;  0.0000000E+00;  0.0000000E+00;  1.0036308E+03;  1.0000000E-01;  3.0080137E+03;0;  0.0000000E+00;  0.0000000E+00;  0.0000000E+00;0;  2.1338418E-02;  4.0000000E+04;  0.0000000E+00;  0.0000000E+00;  4.0000000E+04;  0.0000000E+00;  4.0000000E+04;  2.1814886E-02;  0.0000000E+00; -4.7646769E-04;  1.3822543E+03;
 -5.0000001E-02;  9.9999998E-03;  1.2000000E-01;1420;  0.0000000E+00;  0.0000000E+00;  0.0000000E+00;  1.0036276E+03;  1.0000000E-01;  3.0053472E+03;0;  0.0000000E+00;  0.0000000E+00;  0.0000000E+00;0;  2.1018317E-02;  4.0000000E+04;  0.0000000E+00;  0.0000000E+00;  4.0000000E+04;  0.0000000E+00;  4.0000000E+04;  2.1476574E-02;  0.0000000E+00; -4.5825672E-04;  1.3262942E+03;
 -5.0000001E-02;  9.9999998E-03;  1.3000000E-01;1421;  0.0000000E+00;  0.0000000E+00;  0.0000000E+00;  1.0036051E+03;  1.0000000E-01;  2.9867798E+03;0;  0.0000000E+00;  0.0000000E+00;  0.0000000E+00;0;  2.0643586E-02;  4.0000000E+04;  0.0000000E+00;  0.0000000E+00;  4.0000000E+04;  0.0000000E+00;  4.0000000E+04;  2.1079639E-02;  0.0000000E+00; -4.3605178E-04;  1.2894950E+03;
 -5.0000001E-02;  9.9999998E-03;  1.4000000E-01;1422;  0.0000000E+00;  0.0000000E+00;  0.0000000E+00;  1.0035503E+03;  1.0000000E-01;  2.9413489E+03;0;  0.0000000E+00;  0.0000000E+00;  0.0000000E+00;0;  2.0219734E-02;  4.0000000E+04;  0.0000000E+00;  0.0000000E+00;  4.0000000E+04;  0.0000000E+00;  4.0000000E+04;  2.0632794E-02;  0.0000000E+00; -4.1305990E-04;  1.2828059E+03;
 -5.0000001E-02;  9.9999998E-03;  1.5000001E-01;1423;  0.0000000E+00;  0.0000000E+00;  0.0000000E+00;  1.0034666E+03;  1.0000000E-01;  2.8720176E+03;0;  0.0000000E+00;  0.0000000E+00;  0.0000000E+00;0;  1.9752325E-02;  4.0000000E+04;  0.0000000E+00;  0.0000000E+00;  4.0000000E+04;  0.0000000E+00;  4.0000000E+04;  2.0143647E-02;  0.0000000E+00; -3.9132062E-04;  1.3153549E+03;
 -5.0000001E-02;  9.9999998E-03;  1.6000000E-01;1424;  0.0000000E+00;  0.0000000E+00;  0.0000000E+00;  1.0033458E+03;  1.0000000E-01;  2.7719709E+03;0;  0.0000000E+00;  0.0000000E+00;  0.0000000E+00;0;  1.9245271E-02;  4.0000000E+04;  0.0000000E+00;  0.0000000E+00;  4.0000000E+04;  0.0000000E+00;  4.0000000E+04;  1.9616004E-02;  0.0000000E+00; -3.7073347E-04;  1.3916052E+03;
 -5.0000001E-02;  9.9999998E-03;  1.7000000E-01;1425;  0.0000000E+00;  0.0000000E+00;  0.0000000E+00;  1.0031932E+03;  1.0000000E-01;  2.6454561E+03;0;  0.0000000E+00;  0.0000000E+00;  0.0000000E+00;0;  1.8699305E-02;  4.0000000E+04;  0.0000000E+00;  0.0000000E+00;  4.0000000E+04;  0.0000000E+00;  4.0000000E+04;  1.9048046E-02;  0.0000000E+00; -3.4874139E-04;  1.5083496E+03;
 -5.0000001E-02;  9.9999998E-03;  1.8000001E-01;1426;  0.0000000E+00;  0.0000000E+00;  0.0000000E+00;  1.0030100E+03;  1.0000000E-01;  2.4937566E+03;0;  0.0000000E+00;  0.0000000E+00;  0.0000000E+00;0;  1.8111216E-02;  4.0000000E+04;  0.0000000E+00;  0.0000000E+00;  4.0000000E+04;  0.0000000E+00;  4.0000000E+04;  1.8432014E-02;  0.0000000E+00; -3.2079691E-04;  1.6532836E+03;
 -5.0000001E-02;  9.9999998E-03;  1.9000000E-01;1427;  0.0000000E+00;  0.0000000E+00;  0.0000000E+00;  1.0028104E+03;  1.0000000E-01;  2.3284280E+03;0;  0.0000000E+00;  0.0000000E+00;  0.0000000E+00;0;  1.7473269E-02;  4.0000000E+04;  0.0000000E+00;  0.0000000E+00;  4.0000000E+04;  0.0000000E+00;  4.0000000E+04;  1.7754490E-02;  0.0000000E+00; -2.8121975E-04;  1.8058707E+03;
 -5.0000001E-02;  9.9999998E-03;  2.0000000E-01;1428;  0.0000000E+00;  0.0000000E+00;  0.0000000E+00;  1.0025977E+03;  1.0000000E-01;  2.1521367E+03;0;  0.0000000E+00;  0.0000000E+00;  0.0000000E+00;0;  1.6774176E-02;  4.0000000E+04;  0.0000000E+00;  0.0000000E+00;  4.0000000E+04;  0.0000000E+00;  4.0000000E+04;  1.6998466E-02;  0.0000000E+00; -2.2429027E-04;  1.9396390E+03;
 -5.0000001E-02;  9.9999998E-03;  2.0999999E-01;1429;  0.0000000E+00;  0.0000000E+00;  0.0000000E+00;  1.0023869E+03;  1.0000000E-01;  1.9775243E+03;0;  0.0000000E+00;  0.0000000E+00;  0.0000000E+00;0;  1.6000533E-02;  4.0000000E+04;  0.0000000E+00;  0.0000000E+00;  4.0000000E+04;  0.0000000E+00;  4.0000000E+04;  1.6145974E-02;  0.0000000E+00; -1.4544057E-04;  2.0253314E+03;
 -5.0000001E-02;  9.9999998E-03;  2.2000000E-01;1430;  0.0000000E+00;  0.0000000E+00;  0.0000000E+00;  1.0021899E+03;  1.0000000E-01;  1.8143684E+03;0;  0.0000000E+00;  0.0000000E+00;  0.0000000E+00;0;  1.5139266E-02;  4.0000000E+04;  0.0000000E+00;  0.0000000E+00;  4.0000000E+04;  0.0000000E+00;  4.0000000E+04;  1.5181681E-02;  0.0000000E+00; -4.2415228E-05;  2.0347733E+03;
 -5.0000001E-02;  9.9999998E-03;  2.3000000E-01;1431;  0.0000000E+00;  0.0000000E+00;  0.0000000E+00;  1.0020105E+03;  1.0000000E-01;  1.6656320E+03;0;  0.0000000E+00;  0.0000000E+00;  0.0000000E+00;0;  1.4180363E-02;  4.0000000E+04;  0.0000000E+00;  0.0000000E+00;  4.0000000E+04;  0.0000000E+00;  4.0000000E+04;  1.4096640E-02;  0.0000000E+00;  8.3723156E-05;  1.9453595E+03;
 -3.9999999E-02;  9.9999998E-03;  7.0000000E-02;1506;  0.0000000E+00;  0.0000000E+00;  0.0000000E+00;  1.0053636E+03;  1.0000000E-01;  4.4437261E+03;0;  0.0000000E+00;  0.0000000E+00;  0.0000000E+00;0;  2.5722150E-02;  4.0000000E+04;  0.0000000E+00;  0.0000000E+00;  4.0000000E+04;  0.0000000E+00;  4.0000000E+04;  2.6335806E-02;  0.0000000E+00; -6.1365520E-04;  1.8521163E+03;
 -3.9999999E-02;  9.9999998E-03;  7.9999998E-02;1507;  0.0000000E+00;  0.0000000E+00;  0.0000000E+00;  1.0054147E+03;  1.0000000E-01;  4.4859966E+03;0;  0.0000000E+00;  0.0000000E+00;  0.0000000E+00;0;  2.5615245E-02;  4.0000000E+04;  0.0000000E+00;  0.0000000E+00;  4.0000000E+04;  0.0000000E+00;  4.0000000E+04;  2.6250029E-02;  0.0000000E+00; -6.3478429E-04;  1.7939761E+03;
 -3.9999999E-02;  9.9999998E-03;  9.0000004E-02;1508;  0.0000000E+00;  0.0000000E+00;  0.0000000E+00;  1.0054655E+03;  1.0000000E-01;  4.5280693E+03;0;  0.0000000E+00;  0.0000000E+00;  0.0000000E+00;0;  2.5444079E-02;  4.0000000E+04;  0.0000000E+00;  0.0000000E+00;  4.0000000E+04;  0.0000000E+00;  4.0000000E+04;  2.6087584E-02;  0.0000000E+00; -6.4350507E-04;  1.7237926E+03;
 -3.9999999E-02;  9.9999998E-03;  1.0000000E-01;1509;  0.0000000E+00;  0.0000000E+00;  0.0000000E+00;  1.0055112E+03;  1.0000000E-01;  4.5659941E+03;0;  0.0000000E+00;  0.0000000E+00;  0.0000000E+00;0;  2.5201935E-02;  4.0000000E+04;  0.0000000E+00;  0.0000000E+00;  4.0000000E+04;  0.0000000E+00;  4.0000000E+04;  2.5841549E-02;  0.0000000E+00; -6.3961296E-04;  1.6470579E+03;
 -3.9999999E-02;  9.9999998E-03;  1.1000000E-01;1510;  0.0000000E+00;  0.0000000E+00;  0.0000000E+00;  1.0055383E+03;  1.0000000E-01;  4.5883145E+03;0;  0.0000000E+00;  0.0000000E+00;  0.0000000E+00;0;  2.4886372E-02;  4.0000000E+04;  0.0000000E+00;  0.0000000E+00;  4.0000000E+04;  0.0000000E+00;  4.0000000E+04;  2.5510933E-02;  0.0000000E+00; -6.2456209E-04;  1.5717838E+03;
 -3.9999999E-02;  9.9999998E-03;  1.2000000E-01;1511;  0.0000000E+00;  0.0000000E+00;  0.0000000E+00;  1.0055388E+03;  1.0000000E-01;  4.5888086E+03;0;  0.0000000E+00;  0.0000000E+00;  0.0000000E+00;0;  2.4499206E-02;  4.0000000E+04;  0.0000000E+00;  0.0000000E+00;  4.0000000E+04;  0.0000000E+00;  4.0000000E+04;  2.5100473E-02;  0.0000000E+00; -6.0126686E-04;  1.5084795E+03;
 -3.9999999E-02;  9.9999998E-03;  1.3000000E-01;1512;  0.0000000E+00;  0.0000000E+00;  0.0000000E+00;  1.0055046E+03;  1.0000000E-01;  4.5604634E+03;0;  0.0000000E+00;  0.0000000E+00;  0.0000000E+00;0;  2.4045475E-02;  4.0000000E+04;  0.0000000E+00;  0.0000000E+00;  4.0000000E+04;  0.0000000E+00;  4.0000000E+04;  2.4619095E-02;  0.0000000E+00; -5.7362049E-04;  1.4697355E+03;
 -3.9999999E-02;  9.9999998E-03;  1.4000000E-01;1513;  0.0000000E+00;  0.0000000E+00;  0.0000000E+00;  1.0054274E+03;  1.0000000E-01;  4.4964653E+03;0;  0.0000000E+00;  0.0000000E+00;  0.0000000E+00;0;  2.3532590E-02;  4.0000000E+04;  0.0000000E+00;  0.0000000E+00;  4.0000000E+04;  0.0000000E+00;  4.0000000E+04;  2.4077930E-02;  0.0000000E+00; -5.4533913E-04;  1.4685735E+03;
 -3.9999999E-02;  9.9999998E-03;  1.5000001E-01;1514;  0.0000000E+00;  0.0000000E+00;  0.0000000E+00;  1.0053065E+03;  1.0000000E-01;  4.3963203E+03;0;  0.0000000E+00;  0.0000000E+00;  0.0000000E+00;0;  2.2968464E-02;  4.0000000E+04;  0.0000000E+00;  0.0000000E+00;  4.0000000E+04;  0.0000000E+00;  4.0000000E+04;  2.3486884E-02;  0.0000000E+00; -5.1842112E-04;  1.5157599E+03;
 -3.9999999E-02;  9.9999998E-03;  1.6000000E-01;1515;  0.0000000E+00;  0.0000000E+00;  0.0000000E+00;  1.0051411E+03;  1.0000000E-01;  4.2593364E+03;0;  0.0000000E+00;  0.0000000E+00;  0.0000000E+00;0;  2.2359597E-02;  4.0000000E+04;  0.0000000E+00;  0.0000000E+00;  4.0000000E+04;  0.0000000E+00;  4.0000000E+04;  2.2851665E-02;  0.0000000E+00; -4.9206842E-04;  1.6164324E+03;
 -3.9999999E-02;  9.9999998E-03;  1.7000000E-01;1516;  0.0000000E+00;  0.0000000E+00;  0.0000000E+00;  1.0049380E+03;  1.0000000E-01;  4.0910447E+03;0;  0.0000000E+00;  0.0000000E+00;  0.0000000E+00;0;  2.1709064E-02;  4.0000000E+04;  0.0000000E+00;  0.0000000E+00;  4.0000000E+04;  0.0000000E+00;  4.0000000E+04;  2.2171732E-02;  0.0000000E+00; -4.6266726E-04;  1.7664882E+03;
 -3.9999999E-02;  9.9999998E-03;  1.8000001E-01;1517;  0.0000000E+00;  0.0000000E+00;  0.0000000E+00;  1.0046940E+03;  1.0000000E-01;  3.8888777E+03;0;  0.0000000E+00;  0.0000000E+00;  0.0000000E+00;0;  2.1015007E-02;  4.0000000E+04;  0.0000000E+00;  0.0000000E+00;  4.0000000E+04;  0.0000000E+00;  4.0000000E+04;  2.1439411E-02;  0.0000000E+00; -4.2440381E-04;  1.9515923E+03;
 -3.9999999E-02;  9.9999998E-03;  1.9000000E-01;1518;  0.0000000E+00;  0.0000000E+00;  0.0000000E+00;  1.0044072E+03;  1.0000000E-01;  3.6512546E+03;0;  0.0000000E+00;  0.0000000E+00;  0.0000000E+00;0;  2.0270094E-02;  4.0000000E+04;  0.0000000E+00;  0.0000000E+00;  4.0000000E+04;  0.0000000E+00;  4.0000000E+04;  2.0640368E-02;  0.0000000E+00; -3.7027409E-04;  2.1479224E+03;
 -3.9999999E-02;  9.9999998E-03;  2.0000000E-01;1519;  0.0000000E+00;  0.0000000E+00;  0.0000000E+00;  1.0041188E+03;  1.0000000E-01;  3.4123479E+03;0;  0.0000000E+00;  0.0000000E+00;  0.0000000E+00;0;  1.9461950E-02;  4.0000000E+04;  0.0000000E+00;  0.0000000E+00;  4.0000000E+04;  0.0000000E+00;  4.0000000E+04;  1.9755274E-02;  0.0000000E+00; -2.9332328E-04;  2.3242959E+03;
 -3.9999999E-02;  9.9999998E-03;  2.0999999E-01;1520;  0.0000000E+00;  0.0000000E+00;  0.0000000E+00;  1.0038245E+03;  1.0000000E-01;  3.1685029E+03;0;  0.0000000E+00;  0.0000000E+00;  0.0000000E+00;0;  1.8574990E-02;  4.0000000E+04;  0.0000000E+00;  0.0000000E+00;  4.0000000E+04;  0.0000000E+00;  4.0000000E+04;  1.8762993E-02;  0.0000000E+00; -1.8800239E-04;  2.4451738E+03;
 -3.9999999E-02;  9.9999998E-03;  2.2000000E-01;1521;  0.0000000E+00;  0.0000000E+00;  0.0000000E+00;  1.0035319E+03;  1.0000000E-01;  2.9261394E+03;0;  0.0000000E+00;  0.0000000E+00;  0.0000000E+00;0;  1.7592981E-02;  4.0000000E+04;  0.0000000E+00;  0.0000000E+00;  4.0000000E+04;  0.0000000E+00;  4.0000000E+04;  1.7644538E-02;  0.0000000E+00; -5.1555387E-05;  2.4749138E+03;
 -3.9999999E-02;  9.9999998E-03;  2.3000000E-01;1522;  0.0000000E+00;  0.0000000E+00;  0.0000000E+00;  1.0032627E+03;  1.0000000E-01;  2.7030347E+03;0;  0.0000000E+00;  0.0000000E+00;  0.0000000E+00;0;  1.6502390E-02;  4.0000000E+04;  0.0000000E+00;  0.0000000E+00;  4.0000000E+04;  0.0000000E+00;  4.0000000E+04;  1.6387679E-02;  0.0000000E+00;  1.1471022E-04;  2.3831335E+03;
 -2.9999999E-02;  9.9999998E-03;  7.0000000E-02;1597;  0.0000000E+00;  0.0000000E+00;  0.0000000E+00;  1.0076674E+03;  1.0000000E-01;  6.3522153E+03;0;  0.0000000E+00;  0.0000000E+00;  0.0000000E+00;0;  2.8760217E-02;  4.0000000E+04;  0.0000000E+00;  0.0000000E+00;  4.0000000E+04;  0.0000000E+00;  4.0000000E+04;  2.9539336E-02;  0.0000000E+00; -7.7911868E-04;  2.0117188E+03;
 -2.9999999E-02;  9.9999998E-03;  7.9999998E-02;1598;  0.0000000E+00;  0.0000000E+00;  0.0000000E+00;  1.0077344E+03;  1.0000000E-01;  6.4078188E+03;0;  0.0000000E+00;  0.0000000E+00;  0.0000000E+00;0;  2.8639436E-02;  4.0000000E+04;  0.0000000E+00;  0.0000000E+00;  4.0000000E+04;  0.0000000E+00;  4.0000000E+04;  2.9441087E-02;  0.0000000E+00; -8.0165127E-04;  1.9442496E+03;
 -2.9999999E-02;  9.9999998E-03;  9.0000004E-02;1599;  0.0000000E+00;  0.0000000E+00;  0.0000000E+00;  1.0077996E+03;  1.0000000E-01;  6.4618418E+03;0;  0.0000000E+00;  0.0000000E+00;  0.0000000E+00;0;  2.8443906E-02;  4.0000000E+04;  0.0000000E+00;  0.0000000E+00;  4.0000000E+04;  0.0000000E+00;  4.0000000E+04;  2.9253153E-02;  0.0000000E+00; -8.0924574E-04;  1.8642170E+03;
 -2.9999999E-02;  9.9999998E-03;  1.0000000E-01;1600;  0.0000000E+00;  0.0000000E+00;  0.0000000E+00;  1.0078506E+03;  1.0000000E-01;  6.5041123E+03;0;  0.0000000E+00;  0.0000000E+00;  0.0000000E+00;0;  2.8165447E-02;  4.0000000E+04;  0.0000000E+00;  0.0000000E+00;  4.0000000E+04;  0.0000000E+00;  4.0000000E+04;  2.8967403E-02;  0.0000000E+00; -8.0195646E-04;  1.7781434E+03;
 -2.9999999E-02;  9.9999998E-03;  1.1000000E-01;1601;  0.0000000E+00;  0.0000000E+00;  0.0000000E+00;  1.0078852E+03;  1.0000000E-01;  6.5327534E+03;0;  0.0000000E+00;  0.0000000E+00;  0.0000000E+00;0;  2.7800847E-02;  4.0000000E+04;  0.0000000E+00;  0.0000000E+00;  4.0000000E+04;  0.0000000E+00;  4.0000000E+04;  2.8582670E-02;  0.0000000E+00; -7.8182365E-04;  1.6952454E+03;
 -2.9999999E-02;  9.9999998E-03;  1.2000000E-01;1602;  0.0000000E+00;  0.0000000E+00;  0.0000000E+00;  1.0078889E+03;  1.0000000E-01;  6.5358149E+03;0;  0.0000000E+00;  0.0000000E+00;  0.0000000E+00;0;  2.7352108E-02;  4.0000000E+04;  0.0000000E+00;  0.0000000E+00;  4.0000000E+04;  0.0000000E+00;  4.0000000E+04;  2.8104695E-02;  0.0000000E+00; -7.5258606E-04;  1.6274038E+03;
 -2.9999999E-02;  9.9999998E-03;  1.3000000E-01;1603;  0.0000000E+00;  0.0000000E+00;  0.0000000E+00;  1.0078442E+03;  1.0000000E-01;  6.4987793E+03;0;  0.0000000E+00;  0.0000000E+00;  0.0000000E+00;0;  2.6825445E-02;  4.0000000E+04;  0.0000000E+00;  0.0000000E+00;  4.0000000E+04;  0.0000000E+00;  4.0000000E+04;  2.7544450E-02;  0.0000000E+00; -7.1900565E-04;  1.5888607E+03;
 -2.9999999E-02;  9.9999998E-03;  1.4000000E-01;1604;  0.0000000E+00;  0.0000000E+00;  0.0000000E+00;  1.0077471E+03;  1.0000000E-01;  6.4183862E+03;0;  0.0000000E+00;  0.0000000E+00;  0.0000000E+00;0;  2.6230376E-02;  4.0000000E+04;  0.0000000E+00;  0.0000000E+00;  4.0000000E+04;  0.0000000E+00;  4.0000000E+04;  2.6915647E-02;  0.0000000E+00; -6.8527088E-04;  1.5943973E+03;
 -2.9999999E-02;  9.9999998E-03;  1.5000001E-01;1605;  0.0000000E+00;  0.0000000E+00;  0.0000000E+00;  1.0075895E+03;  1.0000000E-01;  6.2877236E+03;0;  0.0000000E+00;  0.0000000E+00;  0.0000000E+00;0;  2.5577901E-02;  4.0000000E+04;  0.0000000E+00;  0.0000000E+00;  4.0000000E+04;  0.0000000E+00;  4.0000000E+04;  2.6231054E-02;  0.0000000E+00; -6.5315299E-04;  1.6563394E+03;
 -2.9999999E-02;  9.9999998E-03;  1.6000000E-01;1606;  0.0000000E+00;  0.0000000E+00;  0.0000000E+00;  1.0073749E+03;  1.0000000E-01;  6.1099507E+03;0;  0.0000000E+00;  0.0000000E+00;  0.0000000E+00;0;  2.4877902E-02;  4.0000000E+04;  0.0000000E+00;  0.0000000E+00;  4.0000000E+04;  0.0000000E+00;  4.0000000E+04;  2.5498969E-02;  0.0000000E+00; -6.2106660E-04;  1.7807458E+03;
 -2.9999999E-02;  9.9999998E-03;  1.7000000E-01;1607;  0.0000000E+00;  0.0000000E+00;  0.0000000E+00;  1.0071086E+03;  1.0000000E-01;  5.8893149E+03;0;  0.0000000E+00;  0.0000000E+00;  0.0000000E+00;0;  2.4136398E-02;  4.0000000E+04;  0.0000000E+00;  0.0000000E+00;  4.0000000E+04;  0.0000000E+00;  4.0000000E+04;  2.4720676E-02;  0.0000000E+00; -5.8427796E-04;  1.9635294E+03;
 -2.9999999E-02;  9.9999998E-03;  1.8000001E-01;1608;  0.0000000E+00;  0.0000000E+00;  0.0000000E+00;  1.0067820E+03;  1.0000000E-01;  5.6188042E+03;0;  0.0000000E+00;  0.0000000E+00;  0.0000000E+00;0;  2.3353683E-02;  4.0000000E+04;  0.0000000E+00;  0.0000000E+00;  4.0000000E+04;  0.0000000E+00;  4.0000000E+04;  2.3889331E-02;  0.0000000E+00; -5.3564843E-04;  2.1896753E+03;
 -2.9999999E-02;  9.9999998E-03;  1.9000000E-01;1609;  0.0000000E+00;  0.0000000E+00;  0.0000000E+00;  1.0064230E+03;  1.0000000E-01;  5.3213311E+03;0;  0.0000000E+00;  0.0000000E+00;  0.0000000E+00;0;  2.2523263E-02;  4.0000000E+04;  0.0000000E+00;  0.0000000E+00;  4.0000000E+04;  0.0000000E+00;  4.0000000E+04;  2.2990014E-02;  0.0000000E+00; -4.6675169E-04;  2.4334614E+03;
 -2.9999999E-02;  9.9999998E-03;  2.0000000E-01;1610;  0.0000000E+00;  0.0000000E+00;  0.0000000E+00;  1.0060324E+03;  1.0000000E-01;  4.9977847E+03;0;  0.0000000E+00;  0.0000000E+00;  0.0000000E+00;0;  2.1632101E-02;  4.0000000E+04;  0.0000000E+00;  0.0000000E+00;  4.0000000E+04;  0.0000000E+00;  4.0000000E+04;  2.2001347E-02;  0.0000000E+00; -3.6924472E-04;  2.6597502E+03;
 -2.9999999E-02;  9.9999998E-03;  2.0999999E-01;1611;  0.0000000E+00;  0.0000000E+00;  0.0000000E+00;  1.0056308E+03;  1.0000000E-01;  4.6650532E+03;0;  0.0000000E+00;  0.0000000E+00;  0.0000000E+00;0;  2.0662438E-02;  4.0000000E+04;  0.0000000E+00;  0.0000000E+00;  4.0000000E+04;  0.0000000E+00;  4.0000000E+04;  2.0898828E-02;  0.0000000E+00; -2.3639097E-04;  2.8267312E+03;
 -2.9999999E-02;  9.9999998E-03;  2.2000000E-01;1612;  0.0000000E+00;  0.0000000E+00;  0.0000000E+00;  1.0052311E+03;  1.0000000E-01;  4.3339023E+03;0;  0.0000000E+00;  0.0000000E+00;  0.0000000E+00;0;  1.9594736E-02;  4.0000000E+04;  0.0000000E+00;  0.0000000E+00;  4.0000000E+04;  0.0000000E+00;  4.0000000E+04;  1.9659378E-02;  0.0000000E+00; -6.4640481E-05;  2.8900940E+03;
 -2.9999999E-02;  9.9999998E-03;  2.3000000E-01;1613;  0.0000000E+00;  0.0000000E+00;  0.0000000E+00;  1.0048468E+03;  1.0000000E-01;  4.0154915E+03;0;  0.0000000E+00;  0.0000000E+00;  0.0000000E+00;0;  1.8411584E-02;  4.0000000E+04;  0.0000000E+00;  0.0000000E+00;  4.0000000E+04;  0.0000000E+00;  4.0000000E+04;  1.8266790E-02;  0.0000000E+00;  1.4479511E-04;  2.8094697E+03;
 -2.0000000E-02;  9.9999998E-03;  7.0000000E-02;1688;  0.0000000E+00;  0.0000000E+00;  0.0000000E+00;  1.0103068E+03;  1.0000000E-01;  8.5389189E+03;0;  0.0000000E+00;  0.0000000E+00;  0.0000000E+00;0;  3.0761624E-02;  4.0000000E+04;  0.0000000E+00;  0.0000000E+00;  4.0000000E+04;  0.0000000E+00;  4.0000000E+04;  3.1709582E-02;  0.0000000E+00; -9.4795815E-04;  2.0592959E+03;
 -2.0000000E-02;  9.9999998E-03;  7.9999998E-02;1689;  0.0000000E+00;  0.0000000E+00;  0.0000000E+00;  1.0103889E+03;  1.0000000E-01;  8.6069668E+03;0;  0.0000000E+00;  0.0000000E+00;  0.0000000E+00;0;  3.0632555E-02;  4.0000000E+04;  0.0000000E+00;  0.0000000E+00;  4.0000000E+04;  0.0000000E+00;  4.0000000E+04;  3.1602584E-02;  0.0000000E+00; -9.7002869E-04;  1.9857208E+03;
 -2.0000000E-02;  9.9999998E-03;  9.0000004E-02;1690;  0.0000000E+00;  0.0000000E+00;  0.0000000E+00;  1.0104729E+03;  1.0000000E-01;  8.6765938E+03;0;  0.0000000E+00;  0.0000000E+00;  0.0000000E+00;0;  3.0420240E-02;  4.0000000E+04;  0.0000000E+00;  0.0000000E+00;  4.0000000E+04;  0.0000000E+00;  4.0000000E+04;  3.1394951E-02;  0.0000000E+00; -9.7471173E-04;  1.8999583E+03;
 -2.0000000E-02;  9.9999998E-03;  1.0000000E-01;1691;  0.0000000E+00;  0.0000000E+00;  0.0000000E+00;  1.0105417E+03;  1.0000000E-01;  8.7335801E+03;0;  0.0000000E+00;  0.0000000E+00;  0.0000000E+00;0;  3.0114850E-02;  4.0000000E+04;  0.0000000E+00;  0.0000000E+00;  4.0000000E+04;  0.0000000E+00;  4.0000000E+04;  3.1077322E-02;  0.0000000E+00; -9.6247240E-04;  1.8091755E+03;
 -2.0000000E-02;  9.9999998E-03;  1.1000000E-01;1692;  0.0000000E+00;  0.0000000E+00;  0.0000000E+00;  1.0105916E+03;  1.0000000E-01;  8.7749619E+03;0;  0.0000000E+00;  0.0000000E+00;  0.0000000E+00;0;  2.9712360E-02;  4.0000000E+04;  0.0000000E+00;  0.0000000E+00;  4.0000000E+04;  0.0000000E+00;  4.0000000E+04;  3.0648457E-02;  0.0000000E+00; -9.3609560E-04;  1.7231178E+03;
 -2.0000000E-02;  9.9999998E-03;  1.2000000E-01;1693;  0.0000000E+00;  0.0000000E+00;  0.0000000E+00;  1.0105970E+03;  1.0000000E-01;  8.7794062E+03;0;  0.0000000E+00;  0.0000000E+00;  0.0000000E+00;0;  2.9214621E-02;  4.0000000E+04;  0.0000000E+00;  0.0000000E+00;  4.0000000E+04;  0.0000000E+00;  4.0000000E+04;  3.0114908E-02;  0.0000000E+00; -9.0028648E-04;  1.6543582E+03;
 -2.0000000E-02;  9.9999998E-03;  1.3000000E-01;1694;  0.0000000E+00;  0.0000000E+00;  0.0000000E+00;  1.0105505E+03;  1.0000000E-01;  8.7408887E+03;0;  0.0000000E+00;  0.0000000E+00;  0.0000000E+00;0;  2.8629065E-02;  4.0000000E+04;  0.0000000E+00;  0.0000000E+00;  4.0000000E+04;  0.0000000E+00;  4.0000000E+04;  2.9489793E-02;  0.0000000E+00; -8.6072821E-04;  1.6180907E+03;
 -2.0000000E-02;  9.9999998E-03;  1.4000000E-01;1695;  0.0000000E+00;  0.0000000E+00;  0.0000000E+00;  1.0104388E+03;  1.0000000E-01;  8.6483477E+03;0;  0.0000000E+00;  0.0000000E+00;  0.0000000E+00;0;  2.7967576E-02;  4.0000000E+04;  0.0000000E+00;  0.0000000E+00;  4.0000000E+04;  0.0000000E+00;  4.0000000E+04;  2.8789550E-02;  0.0000000E+00; -8.2197343E-04;  1.6303618E+03;
 -2.0000000E-02;  9.9999998E-03;  1.5000001E-01;1696;  0.0000000E+00;  0.0000000E+00;  0.0000000E+00;  1.0102515E+03;  1.0000000E-01;  8.4931914E+03;0;  0.0000000E+00;  0.0000000E+00;  0.0000000E+00;0;  2.7244464E-02;  4.0000000E+04;  0.0000000E+00;  0.0000000E+00;  4.0000000E+04;  0.0000000E+00;  4.0000000E+04;  2.8029859E-02;  0.0000000E+00; -7.8539632E-04;  1.7051106E+03;
 -2.0000000E-02;  9.9999998E-03;  1.6000000E-01;1697;  0.0000000E+00;  0.0000000E+00;  0.0000000E+00;  1.0099844E+03;  1.0000000E-01;  8.2718652E+03;0;  0.0000000E+00;  0.0000000E+00;  0.0000000E+00;0;  2.6473584E-02;  4.0000000E+04;  0.0000000E+00;  0.0000000E+00;  4.0000000E+04;  0.0000000E+00;  4.0000000E+04;  2.7222134E-02;  0.0000000E+00; -7.4855099E-04;  1.8498203E+03;
 -2.0000000E-02;  9.9999998E-03;  1.7000000E-01;1698;  0.0000000E+00;  0.0000000E+00;  0.0000000E+00;  1.0096422E+03;  1.0000000E-01;  7.9883174E+03;0;  0.0000000E+00;  0.0000000E+00;  0.0000000E+00;0;  2.5664661E-02;  4.0000000E+04;  0.0000000E+00;  0.0000000E+00;  4.0000000E+04;  0.0000000E+00;  4.0000000E+04;  2.6370190E-02;  0.0000000E+00; -7.0552866E-04;  2.0617952E+03;
 -2.0000000E-02;  9.9999998E-03;  1.8000001E-01;1699;  0.0000000E+00;  0.0000000E+00;  0.0000000E+00;  1.0092391E+03;  1.0000000E-01;  7.6544009E+03;0;  0.0000000E+00;  0.0000000E+00;  0.0000000E+00;0;  2.4820803E-02;  4.0000000E+04;  0.0000000E+00;  0.0000000E+00;  4.0000000E+04;  0.0000000E+00;  4.0000000E+04;  2.5468614E-02;  0.0000000E+00; -6.4781203E-04;  2.3270195E+03;
 -2.0000000E-02;  9.9999998E-03;  1.9000000E-01;1700;  0.0000000E+00;  0.0000000E+00;  0.0000000E+00;  1.0087870E+03;  1.0000000E-01;  7.2798931E+03;0;  0.0000000E+00;  0.0000000E+00;  0.0000000E+00;0;  2.3936914E-02;  4.0000000E+04;  0.0000000E+00;  0.0000000E+00;  4.0000000E+04;  0.0000000E+00;  4.0000000E+04;  2.4502430E-02;  0.0000000E+00; -5.6551571E-04;  2.6196494E+03;
 -2.0000000E-02;  9.9999998E-03;  2.0000000E-01;1701;  0.0000000E+00;  0.0000000E+00;  0.0000000E+00;  1.0082890E+03;  1.0000000E-01;  6.8672627E+03;0;  0.0000000E+00;  0.0000000E+00;  0.0000000E+00;0;  2.2999857E-02;  4.0000000E+04;  0.0000000E+00;  0.0000000E+00;  4.0000000E+04;  0.0000000E+00;  4.0000000E+04;  2.3448694E-02;  0.0000000E+00; -4.4883753E-04;  2.9020715E+03;
 -2.0000000E-02;  9.9999998E-03;  2.0999999E-01;1702;  0.0000000E+00;  0.0000000E+00;  0.0000000E+00;  1.0077747E+03;  1.0000000E-01;  6.4412007E+03;0;  0.0000000E+00;  0.0000000E+00;  0.0000000E+00;0;  2.1990076E-02;  4.0000000E+04;  0.0000000E+00;  0.0000000E+00;  4.0000000E+04;  0.0000000E+00;  4.0000000E+04;  2.2279730E-02;  0.0000000E+00; -2.8965401E-04;  3.1266387E+03;
 -2.0000000E-02;  9.9999998E-03;  2.2000000E-01;1703;  0.0000000E+00;  0.0000000E+00;  0.0000000E+00;  1.0072451E+03;  1.0000000E-01;  6.0023979E+03;0;  0.0000000E+00;  0.0000000E+00;  0.0000000E+00;0;  2.0885238E-02;  4.0000000E+04;  0.0000000E+00;  0.0000000E+00;  4.0000000E+04;  0.0000000E+00;  4.0000000E+04;  2.0968560E-02;  0.0000000E+00; -8.3322084E-05;  3.2398391E+03;
 -2.0000000E-02;  9.9999998E-03;  2.3000000E-01;1704;  0.0000000E+00;  0.0000000E+00;  0.0000000E+00;  1.0067321E+03;  1.0000000E-01;  5.5774224E+03;0;  0.0000000E+00;  0.0000000E+00;  0.0000000E+00;0;  1.9664085E-02;  4.0000000E+04;  0.0000000E+00;  0.0000000E+00;  4.0000000E+04;  0.0000000E+00;  4.0000000E+04;  1.9494636E-02;  0.0000000E+00;  1.6944845E-04;  3.1893943E+03;
 -9.9999998E-03;  9.9999998E-03;  7.0000000E-02;1779;  0.0000000E+00;  0.0000000E+00;  0.0000000E+00;  1.0131581E+03;  1.0000000E-01;  1.0901223E+04;0;  0.0000000E+00;  0.0000000E+00;  0.0000000E+00;0;  3.1378336E-02;  4.0000000E+04;  0.0000000E+00;  0.0000000E+00;  4.0000000E+04;  0.0000000E+00;  4.0000000E+04;  3.2484237E-02;  0.0000000E+00; -1.1059012E-03;  1.9649828E+03;
 -9.9999998E-03;  9.9999998E-03;  7.9999998E-02;1780;  0.0000000E+00;  0.0000000E+00;  0.0000000E+00;  1.0132632E+03;  1.0000000E-01;  1.0988331E+04;0;  0.0000000E+00;  0.0000000E+00;  0.0000000E+00;0;  3.1248685E-02;  4.0000000E+04;  0.0000000E+00;  0.0000000E+00;  4.0000000E+04;  0.0000000E+00;  4.0000000E+04;  3.2373536E-02;  0.0000000E+00; -1.1248511E-03;  1.8901133E+03;
 -9.9999998E-03;  9.9999998E-03;  9.0000004E-02;1781;  0.0000000E+00;  0.0000000E+00;  0.0000000E+00;  1.0133662E+03;  1.0000000E-01;  1.1073662E+04;0;  0.0000000E+00;  0.0000000E+00;  0.0000000E+00;0;  3.1030621E-02;  4.0000000E+04;  0.0000000E+00;  0.0000000E+00;  4.0000000E+04;  0.0000000E+00;  4.0000000E+04;  3.2154918E-02;  0.0000000E+00; -1.1242969E-03;  1.8047094E+03;
 -9.9999998E-03;  9.9999998E-03;  1.0000000E-01;1782;  0.0000000E+00;  0.0000000E+00;  0.0000000E+00;  1.0134597E+03;  1.0000000E-01;  1.1151092E+04;0;  0.0000000E+00;  0.0000000E+00;  0.0000000E+00;0;  3.0712623E-02;  4.0000000E+04;  0.0000000E+00;  0.0000000E+00;  4.0000000E+04;  0.0000000E+00;  4.0000000E+04;  3.1817980E-02;  0.0000000E+00; -1.1053566E-03;  1.7157983E+03;
 -9.9999998E-03;  9.9999998E-03;  1.1000000E-01;1783;  0.0000000E+00;  0.0000000E+00;  0.0000000E+00;  1.0135249E+03;  1.0000000E-01;  1.1205115E+04;0;  0.0000000E+00;  0.0000000E+00;  0.0000000E+00;0;  3.0289657E-02;  4.0000000E+04;  0.0000000E+00;  0.0000000E+00;  4.0000000E+04;  0.0000000E+00;  4.0000000E+04;  3.1361423E-02;  0.0000000E+00; -1.0717653E-03;  1.6328315E+03;
 -9.9999998E-03;  9.9999998E-03;  1.2000000E-01;1784;  0.0000000E+00;  0.0000000E+00;  0.0000000E+00;  1.0135473E+03;  1.0000000E-01;  1.1223683E+04;0;  0.0000000E+00;  0.0000000E+00;  0.0000000E+00;0;  2.9763209E-02;  4.0000000E+04;  0.0000000E+00;  0.0000000E+00;  4.0000000E+04;  0.0000000E+00;  4.0000000E+04;  3.0792516E-02;  0.0000000E+00; -1.0293074E-03;  1.5679647E+03;
 -9.9999998E-03;  9.9999998E-03;  1.3000000E-01;1785;  0.0000000E+00;  0.0000000E+00;  0.0000000E+00;  1.0135031E+03;  1.0000000E-01;  1.1187042E+04;0;  0.0000000E+00;  0.0000000E+00;  0.0000000E+00;0;  2.9141497E-02;  4.0000000E+04;  0.0000000E+00;  0.0000000E+00;  4.0000000E+04;  0.0000000E+00;  4.0000000E+04;  3.0126063E-02;  0.0000000E+00; -9.8456570E-04;  1.5363477E+03;
 -9.9999998E-03;  9.9999998E-03;  1.4000000E-01;1786;  0.0000000E+00;  0.0000000E+00;  0.0000000E+00;  1.0133769E+03;  1.0000000E-01;  1.1082551E+04;0;  0.0000000E+00;  0.0000000E+00;  0.0000000E+00;0;  2.8438570E-02;  4.0000000E+04;  0.0000000E+00;  0.0000000E+00;  4.0000000E+04;  0.0000000E+00;  4.0000000E+04;  2.9380836E-02;  0.0000000E+00; -9.4226561E-04;  1.5547820E+03;
 -9.9999998E-03;  9.9999998E-03;  1.5000001E-01;1787;  0.0000000E+00;  0.0000000E+00;  0.0000000E+00;  1.0131704E+03;  1.0000000E-01;  1.0911396E+04;0;  0.0000000E+00;  0.0000000E+00;  0.0000000E+00;0;  2.7672375E-02;  4.0000000E+04;  0.0000000E+00;  0.0000000E+00;  4.0000000E+04;  0.0000000E+00;  4.0000000E+04;  2.8575586E-02;  0.0000000E+00; -9.0321078E-04;  1.6388873E+03;
 -9.9999998E-03;  9.9999998E-03;  1.6000000E-01;1788;  0.0000000E+00;  0.0000000E+00;  0.0000000E+00;  1.0128628E+03;  1.0000000E-01;  1.0656588E+04;0;  0.0000000E+00;  0.0000000E+00;  0.0000000E+00;0;  2.6860790E-02;  4.0000000E+04;  0.0000000E+00;  0.0000000E+00;  4.0000000E+04;  0.0000000E+00;  4.0000000E+04;  2.7724750E-02;  0.0000000E+00; -8.6395966E-04;  1.7982898E+03;
 -9.9999998E-03;  9.9999998E-03;  1.7000000E-01;1789;  0.0000000E+00;  0.0000000E+00;  0.0000000E+00;  1.0124567E+03;  1.0000000E-01;  1.0320202E+04;0;  0.0000000E+00;  0.0000000E+00;  0.0000000E+00;0;  2.6017554E-02;  4.0000000E+04;  0.0000000E+00;  0.0000000E+00;  4.0000000E+04;  0.0000000E+00;  4.0000000E+04;  2.6834860E-02;  0.0000000E+00; -8.1730669E-04;  2.0331091E+03;
 -9.9999998E-03;  9.9999998E-03;  1.8000001E-01;1790;  0.0000000E+00;  0.0000000E+00;  0.0000000E+00;  1.0119730E+03;  1.0000000E-01;  9.9193242E+03;0;  0.0000000E+00;  0.0000000E+00;  0.0000000E+00;0;  2.5149215E-02;  4.0000000E+04;  0.0000000E+00;  0.0000000E+00;  4.0000000E+04;  0.0000000E+00;  4.0000000E+04;  2.5902551E-02;  0.0000000E+00; -7.5333589E-04;  2.3321719E+03;
 -9.9999998E-03;  9.9999998E-03;  1.9000000E-01;1791;  0.0000000E+00;  0.0000000E+00;  0.0000000E+00;  1.0114153E+03;  1.0000000E-01;  9.4573125E+03;0;  0.0000000E+00;  0.0000000E+00;  0.0000000E+00;0;  2.4252763E-02;  4.0000000E+04;  0.0000000E+00;  0.0000000E+00;  4.0000000E+04;  0.0000000E+00;  4.0000000E+04;  2.4913499E-02;  0.0000000E+00; -6.6073606E-04;  2.6713357E+03;
 -9.9999998E-03;  9.9999998E-03;  2.0000000E-01;1792;  0.0000000E+00;  0.0000000E+00;  0.0000000E+00;  1.0108074E+03;  1.0000000E-01;  8.9537217E+03;0;  0.0000000E+00;  0.0000000E+00;  0.0000000E+00;0;  2.3315752E-02;  4.0000000E+04;  0.0000000E+00;  0.0000000E+00;  4.0000000E+04;  0.0000000E+00;  4.0000000E+04;  2.3843976E-02;  0.0000000E+00; -5.2822457E-04;  3.0124275E+03;
 -9.9999998E-03;  9.9999998E-03;  2.0999999E-01;1793;  0.0000000E+00;  0.0000000E+00;  0.0000000E+00;  1.0101676E+03;  1.0000000E-01;  8.4236631E+03;0;  0.0000000E+00;  0.0000000E+00;  0.0000000E+00;0;  2.2317952E-02;  4.0000000E+04;  0.0000000E+00;  0.0000000E+00;  4.0000000E+04;  0.0000000E+00;  4.0000000E+04;  2.2664189E-02;  0.0000000E+00; -3.4623794E-04;  3.3035269E+03;
 -9.9999998E-03;  9.9999998E-03;  2.2000000E-01;1794;  0.0000000E+00;  0.0000000E+00;  0.0000000E+00;  1.0095099E+03;  1.0000000E-01;  7.8787896E+03;0;  0.0000000E+00;  0.0000000E+00;  0.0000000E+00;0;  2.1234864E-02;  4.0000000E+04;  0.0000000E+00;  0.0000000E+00;  4.0000000E+04;  0.0000000E+00;  4.0000000E+04;  2.1343693E-02;  0.0000000E+00; -1.0882850E-04;  3.4822883E+03;
 -9.9999998E-03;  9.9999998E-03;  2.3000000E-01;1795;  0.0000000E+00;  0.0000000E+00;  0.0000000E+00;  1.0088573E+03;  1.0000000E-01;  7.3380640E+03;0;  0.0000000E+00;  0.0000000E+00;  0.0000000E+00;0;  2.0042345E-02;  4.0000000E+04;  0.0000000E+00;  0.0000000E+00;  4.0000000E+04;  0.0000000E+00;  4.0000000E+04;  1.9858172E-02;  0.0000000E+00;  1.8417306E-04;  3.4839458E+03;
 -1.9000000E-01;  9.9999998E-03;  2.3999999E-01;158;  0.0000000E+00;  0.0000000E+00;  0.0000000E+00;  1.0000000E+03;  1.0000000E-01;  0.0000000E+00;0;  0.0000000E+00;  0.0000000E+00;  0.0000000E+00;0;  0.0000000E+00;  4.0000000E+04;  0.0000000E+00;  0.0000000E+00;  4.0000000E+04;  0.0000000E+00;  4.0000000E+04;  0.0000000E+00;  0.0000000E+00;  0.0000000E+00;  0.0000000E+00;
 -1.9000000E-01;  9.9999998E-03;  2.5000000E-01;159;  0.0000000E+00;  0.0000000E+00;  0.0000000E+00;  1.0000000E+03;  1.0000000E-01;  0.0000000E+00;0;  0.0000000E+00;  0.0000000E+00;  0.0000000E+00;0;  0.0000000E+00;  4.0000000E+04;  0.0000000E+00;  0.0000000E+00;  4.0000000E+04;  0.0000000E+00;  4.0000000E+04;  0.0000000E+00;  0.0000000E+00;  0.0000000E+00;  0.0000000E+00;
 -1.9000000E-01;  9.9999998E-03;  2.5999999E-01;160;  0.0000000E+00;  0.0000000E+00;  0.0000000E+00;  1.0000000E+03;  1.0000000E-01;  0.0000000E+00;0;  0.0000000E+00;  0.0000000E+00;  0.0000000E+00;0;  0.0000000E+00;  4.0000000E+04;  0.0000000E+00;  0.0000000E+00;  4.0000000E+04;  0.0000000E+00;  4.0000000E+04;  0.0000000E+00;  0.0000000E+00;  0.0000000E+00;  0.0000000E+00;
 -1.9000000E-01;  9.9999998E-03;  2.7000001E-01;161;  0.0000000E+00;  0.0000000E+00;  0.0000000E+00;  1.0000000E+03;  1.0000000E-01;  0.0000000E+00;0;  0.0000000E+00;  0.0000000E+00;  0.0000000E+00;0;  0.0000000E+00;  4.0000000E+04;  0.0000000E+00;  0.0000000E+00;  4.0000000E+04;  0.0000000E+00;  4.0000000E+04;  0.0000000E+00;  0.0000000E+00;  0.0000000E+00;  0.0000000E+00;
 -1.9000000E-01;  9.9999998E-03;  2.8000000E-01;162;  0.0000000E+00;  0.0000000E+00;  0.0000000E+00;  1.0000000E+03;  1.0000000E-01;  0.0000000E+00;0;  0.0000000E+00;  0.0000000E+00;  0.0000000E+00;0;  0.0000000E+00;  4.0000000E+04;  0.0000000E+00;  0.0000000E+00;  4.0000000E+04;  0.0000000E+00;  4.0000000E+04;  0.0000000E+00;  0.0000000E+00;  0.0000000E+00;  0.0000000E+00;
 -1.9000000E-01;  9.9999998E-03;  2.8999999E-01;163;  0.0000000E+00;  0.0000000E+00;  0.0000000E+00;  1.0000000E+03;  1.0000000E-01;  0.0000000E+00;0;  0.0000000E+00;  0.0000000E+00;  0.0000000E+00;0;  0.0000000E+00;  4.0000000E+04;  0.0000000E+00;  0.0000000E+00;  4.0000000E+04;  0.0000000E+00;  4.0000000E+04;  0.0000000E+00;  0.0000000E+00;  0.0000000E+00;  0.0000000E+00;
 -1.9000000E-01;  9.9999998E-03;  3.0000001E-01;164;  0.0000000E+00;  0.0000000E+00;  0.0000000E+00;  1.0000000E+03;  1.0000000E-01;  0.0000000E+00;0;  0.0000000E+00;  0.0000000E+00;  0.0000000E+00;0;  0.0000000E+00;  4.0000000E+04;  0.0000000E+00;  0.0000000E+00;  4.0000000E+04;  0.0000000E+00;  4.0000000E+04;  0.0000000E+00;  0.0000000E+00;  0.0000000E+00;  0.0000000E+00;
 -1.9000000E-01;  9.9999998E-03;  3.1000000E-01;165;  0.0000000E+00;  0.0000000E+00;  0.0000000E+00;  1.0000000E+03;  1.0000000E-01;  0.0000000E+00;0;  0.0000000E+00;  0.0000000E+00;  0.0000000E+00;0;  0.0000000E+00;  4.0000000E+04;  0.0000000E+00;  0.0000000E+00;  4.0000000E+04;  0.0000000E+00;  4.0000000E+04;  0.0000000E+00;  0.0000000E+00;  0.0000000E+00;  0.0000000E+00;
 -1.9000000E-01;  9.9999998E-03;  3.1999999E-01;166;  0.0000000E+00;  0.0000000E+00;  0.0000000E+00;  1.0000000E+03;  1.0000000E-01;  0.0000000E+00;0;  0.0000000E+00;  0.0000000E+00;  0.0000000E+00;0;  0.0000000E+00;  4.0000000E+04;  0.0000000E+00;  0.0000000E+00;  4.0000000E+04;  0.0000000E+00;  4.0000000E+04;  0.0000000E+00;  0.0000000E+00;  0.0000000E+00;  0.0000000E+00;
 -1.9000000E-01;  9.9999998E-03;  3.3000001E-01;167;  0.0000000E+00;  0.0000000E+00;  0.0000000E+00;  1.0000000E+03;  1.0000000E-01;  0.0000000E+00;0;  0.0000000E+00;  0.0000000E+00;  0.0000000E+00;0;  0.0000000E+00;  4.0000000E+04;  0.0000000E+00;  0.0000000E+00;  4.0000000E+04;  0.0000000E+00;  4.0000000E+04;  0.0000000E+00;  0.0000000E+00;  0.0000000E+00;  0.0000000E+00;
 -1.9000000E-01;  9.9999998E-03;  3.4000000E-01;168;  0.0000000E+00;  0.0000000E+00;  0.0000000E+00;  1.0000000E+03;  1.0000000E-01;  0.0000000E+00;0;  0.0000000E+00;  0.0000000E+00;  0.0000000E+00;0;  0.0000000E+00;  4.0000000E+04;  0.0000000E+00;  0.0000000E+00;  4.0000000E+04;  0.0000000E+00;  4.0000000E+04;  0.0000000E+00;  0.0000000E+00;  0.0000000E+00;  0.0000000E+00;
 -1.9000000E-01;  9.9999998E-03;  3.4999999E-01;169;  0.0000000E+00;  0.0000000E+00;  0.0000000E+00;  1.0000000E+03;  1.0000000E-01;  0.0000000E+00;0;  0.0000000E+00;  0.0000000E+00;  0.0000000E+00;0;  0.0000000E+00;  4.0000000E+04;  0.0000000E+00;  0.0000000E+00;  4.0000000E+04;  0.0000000E+00;  4.0000000E+04;  0.0000000E+00;  0.0000000E+00;  0.0000000E+00;  0.0000000E+00;
 -1.9000000E-01;  9.9999998E-03;  3.6000001E-01;170;  0.0000000E+00;  0.0000000E+00;  0.0000000E+00;  1.0000000E+03;  1.0000000E-01;  0.0000000E+00;0;  0.0000000E+00;  0.0000000E+00;  0.0000000E+00;0;  0.0000000E+00;  4.0000000E+04;  0.0000000E+00;  0.0000000E+00;  4.0000000E+04;  0.0000000E+00;  4.0000000E+04;  0.0000000E+00;  0.0000000E+00;  0.0000000E+00;  0.0000000E+00;
 -1.9000000E-01;  9.9999998E-03;  3.7000000E-01;171;  0.0000000E+00;  0.0000000E+00;  0.0000000E+00;  1.0000000E+03;  1.0000000E-01;  0.0000000E+00;0;  0.0000000E+00;  0.0000000E+00;  0.0000000E+00;0;  0.0000000E+00;  4.0000000E+04;  0.0000000E+00;  0.0000000E+00;  4.0000000E+04;  0.0000000E+00;  4.0000000E+04;  0.0000000E+00;  0.0000000E+00;  0.0000000E+00;  0.0000000E+00;
 -1.9000000E-01;  9.9999998E-03;  3.8000000E-01;172;  0.0000000E+00;  0.0000000E+00;  0.0000000E+00;  1.0000000E+03;  1.0000000E-01;  0.0000000E+00;0;  0.0000000E+00;  0.0000000E+00;  0.0000000E+00;0;  0.0000000E+00;  4.0000000E+04;  0.0000000E+00;  0.0000000E+00;  4.0000000E+04;  0.0000000E+00;  4.0000000E+04;  0.0000000E+00;  0.0000000E+00;  0.0000000E+00;  0.0000000E+00;
 -1.9000000E-01;  9.9999998E-03;  3.8999999E-01;173;  0.0000000E+00;  0.0000000E+00;  0.0000000E+00;  1.0000000E+03;  1.0000000E-01;  0.0000000E+00;0;  0.0000000E+00;  0.0000000E+00;  0.0000000E+00;0;  0.0000000E+00;  4.0000000E+04;  0.0000000E+00;  0.0000000E+00;  4.0000000E+04;  0.0000000E+00;  4.0000000E+04;  0.0000000E+00;  0.0000000E+00;  0.0000000E+00;  0.0000000E+00;
 -1.9000000E-01;  9.9999998E-03;  4.0000001E-01;174;  0.0000000E+00;  0.0000000E+00;  0.0000000E+00;  1.0000000E+03;  1.0000000E-01;  0.0000000E+00;0;  0.0000000E+00;  0.0000000E+00;  0.0000000E+00;0;  0.0000000E+00;  4.0000000E+04;  0.0000000E+00;  0.0000000E+00;  4.0000000E+04;  0.0000000E+00;  4.0000000E+04;  0.0000000E+00;  0.0000000E+00;  0.0000000E+00;  0.0000000E+00;
 -1.8000001E-01;  9.9999998E-03;  2.3999999E-01;249;  0.0000000E+00;  0.0000000E+00;  0.0000000E+00;  1.0000000E+03;  1.0000000E-01;  0.0000000E+00;0;  0.0000000E+00;  0.0000000E+00;  0.0000000E+00;0;  0.0000000E+00;  4.0000000E+04;  0.0000000E+00;  0.0000000E+00;  4.0000000E+04;  0.0000000E+00;  4.0000000E+04;  0.0000000E+00;  0.0000000E+00;  0.0000000E+00;  0.0000000E+00;
 -1.8000001E-01;  9.9999998E-03;  2.5000000E-01;250;  0.0000000E+00;  0.0000000E+00;  0.0000000E+00;  1.0000000E+03;  1.0000000E-01;  0.0000000E+00;0;  0.0000000E+00;  0.0000000E+00;  0.0000000E+00;0;  0.0000000E+00;  4.0000000E+04;  0.0000000E+00;  0.0000000E+00;  4.0000000E+04;  0.0000000E+00;  4.0000000E+04;  0.0000000E+00;  0.0000000E+00;  0.0000000E+00;  0.0000000E+00;
 -1.8000001E-01;  9.9999998E-03;  2.5999999E-01;251;  0.0000000E+00;  0.0000000E+00;  0.0000000E+00;  1.0000000E+03;  1.0000000E-01;  0.0000000E+00;0;  0.0000000E+00;  0.0000000E+00;  0.0000000E+00;0;  0.0000000E+00;  4.0000000E+04;  0.0000000E+00;  0.0000000E+00;  4.0000000E+04;  0.0000000E+00;  4.0000000E+04;  0.0000000E+00;  0.0000000E+00;  0.0000000E+00;  0.0000000E+00;
 -1.8000001E-01;  9.9999998E-03;  2.7000001E-01;252;  0.0000000E+00;  0.0000000E+00;  0.0000000E+00;  1.0000000E+03;  1.0000000E-01;  0.0000000E+00;0;  0.0000000E+00;  0.0000000E+00;  0.0000000E+00;0;  0.0000000E+00;  4.0000000E+04;  0.0000000E+00;  0.0000000E+00;  4.0000000E+04;  0.0000000E+00;  4.0000000E+04;  0.0000000E+00;  0.0000000E+00;  0.0000000E+00;  0.0000000E+00;
 -1.8000001E-01;  9.9999998E-03;  2.8000000E-01;253;  0.0000000E+00;  0.0000000E+00;  0.0000000E+00;  1.0000000E+03;  1.0000000E-01;  0.0000000E+00;0;  0.0000000E+00;  0.0000000E+00;  0.0000000E+00;0;  0.0000000E+00;  4.0000000E+04;  0.0000000E+00;  0.0000000E+00;  4.0000000E+04;  0.0000000E+00;  4.0000000E+04;  0.0000000E+00;  0.0000000E+00;  0.0000000E+00;  0.0000000E+00;
 -1.8000001E-01;  9.9999998E-03;  2.8999999E-01;254;  0.0000000E+00;  0.0000000E+00;  0.0000000E+00;  1.0000000E+03;  1.0000000E-01;  0.0000000E+00;0;  0.0000000E+00;  0.0000000E+00;  0.0000000E+00;0;  0.0000000E+00;  4.0000000E+04;  0.0000000E+00;  0.0000000E+00;  4.0000000E+04;  0.0000000E+00;  4.0000000E+04;  0.0000000E+00;  0.0000000E+00;  0.0000000E+00;  0.0000000E+00;
 -1.8000001E-01;  9.9999998E-03;  3.0000001E-01;255;  0.0000000E+00;  0.0000000E+00;  0.0000000E+00;  1.0000000E+03;  1.0000000E-01;  0.0000000E+00;0;  0.0000000E+00;  0.0000000E+00;  0.0000000E+00;0;  0.0000000E+00;  4.0000000E+04;  0.0000000E+00;  0.0000000E+00;  4.0000000E+04;  0.0000000E+00;  4.0000000E+04;  0.0000000E+00;  0.0000000E+00;  0.0000000E+00;  0.0000000E+00;
 -1.8000001E-01;  9.9999998E-03;  3.1000000E-01;256;  0.0000000E+00;  0.0000000E+00;  0.0000000E+00;  1.0000000E+03;  1.0000000E-01;  0.0000000E+00;0;  0.0000000E+00;  0.0000000E+00;  0.0000000E+00;0;  0.0000000E+00;  4.0000000E+04;  0.0000000E+00;  0.0000000E+00;  4.0000000E+04;  0.0000000E+00;  4.0000000E+04;  0.0000000E+00;  0.0000000E+00;  0.0000000E+00;  0.0000000E+00;
 -1.8000001E-01;  9.9999998E-03;  3.1999999E-01;257;  0.0000000E+00;  0.0000000E+00;  0.0000000E+00;  1.0000000E+03;  1.0000000E-01;  0.0000000E+00;0;  0.0000000E+00;  0.0000000E+00;  0.0000000E+00;0;  0.0000000E+00;  4.0000000E+04;  0.0000000E+00;  0.0000000E+00;  4.0000000E+04;  0.0000000E+00;  4.0000000E+04;  0.0000000E+00;  0.0000000E+00;  0.0000000E+00;  0.0000000E+00;
 -1.8000001E-01;  9.9999998E-03;  3.3000001E-01;258;  0.0000000E+00;  0.0000000E+00;  0.0000000E+00;  1.0000000E+03;  1.0000000E-01;  0.0000000E+00;0;  0.0000000E+00;  0.0000000E+00;  0.0000000E+00;0;  0.0000000E+00;  4.0000000E+04;  0.0000000E+00;  0.0000000E+00;  4.0000000E+04;  0.0000000E+00;  4.0000000E+04;  0.0000000E+00;  0.0000000E+00;  0.0000000E+00;  0.0000000E+00;
 -1.8000001E-01;  9.9999998E-03;  3.4000000E-01;259;  0.0000000E+00;  0.0000000E+00;  0.0000000E+00;  1.0000000E+03;  1.0000000E-01;  0.0000000E+00;0;  0.0000000E+00;  0.0000000E+00;  0.0000000E+00;0;  0.0000000E+00;  4.0000000E+04;  0.0000000E+00;  0.0000000E+00;  4.0000000E+04;  0.0000000E+00;  4.0000000E+04;  0.0000000E+00;  0.0000000E+00;  0.0000000E+00;  0.0000000E+00;
 -1.8000001E-01;  9.9999998E-03;  3.4999999E-01;260;  0.0000000E+00;  0.0000000E+00;  0.0000000E+00;  1.0000000E+03;  1.0000000E-01;  0.0000000E+00;0;  0.0000000E+00;  0.0000000E+00;  0.0000000E+00;0;  0.0000000E+00;  4.0000000E+04;  0.0000000E+00;  0.0000000E+00;  4.0000000E+04;  0.0000000E+00;  4.0000000E+04;  0.0000000E+00;  0.0000000E+00;  0.0000000E+00;  0.0000000E+00;
 -1.8000001E-01;  9.9999998E-03;  3.6000001E-01;261;  0.0000000E+00;  0.0000000E+00;  0.0000000E+00;  1.0000000E+03;  1.0000000E-01;  0.0000000E+00;0;  0.0000000E+00;  0.0000000E+00;  0.0000000E+00;0;  0.0000000E+00;  4.0000000E+04;  0.0000000E+00;  0.0000000E+00;  4.0000000E+04;  0.0000000E+00;  4.0000000E+04;  0.0000000E+00;  0.0000000E+00;  0.0000000E+00;  0.0000000E+00;
 -1.8000001E-01;  9.9999998E-03;  3.7000000E-01;262;  0.0000000E+00;  0.0000000E+00;  0.0000000E+00;  1.0000000E+03;  1.0000000E-01;  0.0000000E+00;0;  0.0000000E+00;  0.0000000E+00;  0.0000000E+00;0;  0.0000000E+00;  4.0000000E+04;  0.0000000E+00;  0.0000000E+00;  4.0000000E+04;  0.0000000E+00;  4.0000000E+04;  0.0000000E+00;  0.0000000E+00;  0.0000000E+00;  0.0000000E+00;
 -1.8000001E-01;  9.9999998E-03;  3.8000000E-01;263;  0.0000000E+00;  0.0000000E+00;  0.0000000E+00;  1.0000000E+03;  1.0000000E-01;  0.0000000E+00;0;  0.0000000E+00;  0.0000000E+00;  0.0000000E+00;0;  0.0000000E+00;  4.0000000E+04;  0.0000000E+00;  0.0000000E+00;  4.0000000E+04;  0.0000000E+00;  4.0000000E+04;  0.0000000E+00;  0.0000000E+00;  0.0000000E+00;  0.0000000E+00;
 -1.8000001E-01;  9.9999998E-03;  3.8999999E-01;264;  0.0000000E+00;  0.0000000E+00;  0.0000000E+00;  1.0000000E+03;  1.0000000E-01;  0.0000000E+00;0;  0.0000000E+00;  0.0000000E+00;  0.0000000E+00;0;  0.0000000E+00;  4.0000000E+04;  0.0000000E+00;  0.0000000E+00;  4.0000000E+04;  0.0000000E+00;  4.0000000E+04;  0.0000000E+00;  0.0000000E+00;  0.0000000E+00;  0.0000000E+00;
 -1.8000001E-01;  9.9999998E-03;  4.0000001E-01;265;  0.0000000E+00;  0.0000000E+00;  0.0000000E+00;  1.0000000E+03;  1.0000000E-01;  0.0000000E+00;0;  0.0000000E+00;  0.0000000E+00;  0.0000000E+00;0;  0.0000000E+00;  4.0000000E+04;  0.0000000E+00;  0.0000000E+00;  4.0000000E+04;  0.0000000E+00;  4.0000000E+04;  0.0000000E+00;  0.0000000E+00;  0.0000000E+00;  0.0000000E+00;
 -1.7000000E-01;  9.9999998E-03;  2.3999999E-01;340;  0.0000000E+00;  0.0000000E+00;  0.0000000E+00;  1.0000000E+03;  1.0000000E-01;  0.0000000E+00;0;  0.0000000E+00;  0.0000000E+00;  0.0000000E+00;0;  0.0000000E+00;  4.0000000E+04;  0.0000000E+00;  0.0000000E+00;  4.0000000E+04;  0.0000000E+00;  4.0000000E+04;  0.0000000E+00;  0.0000000E+00;  0.0000000E+00;  7.1569556E-10;
 -1.7000000E-01;  9.9999998E-03;  2.5000000E-01;341;  0.0000000E+00;  0.0000000E+00;  0.0000000E+00;  1.0000000E+03;  1.0000000E-01;  0.0000000E+00;0;  0.0000000E+00;  0.0000000E+00;  0.0000000E+00;0;  0.0000000E+00;  4.0000000E+04;  0.0000000E+00;  0.0000000E+00;  4.0000000E+04;  0.0000000E+00;  4.0000000E+04;  0.0000000E+00;  0.0000000E+00;  0.0000000E+00;  4.6691867E-10;
 -1.7000000E-01;  9.9999998E-03;  2.5999999E-01;342;  0.0000000E+00;  0.0000000E+00;  0.0000000E+00;  1.0000000E+03;  1.0000000E-01;  0.0000000E+00;0;  0.0000000E+00;  0.0000000E+00;  0.0000000E+00;0;  0.0000000E+00;  4.0000000E+04;  0.0000000E+00;  0.0000000E+00;  4.0000000E+04;  0.0000000E+00;  4.0000000E+04;  0.0000000E+00;  0.0000000E+00;  0.0000000E+00;  2.4656574E-10;
 -1.7000000E-01;  9.9999998E-03;  2.7000001E-01;343;  0.0000000E+00;  0.0000000E+00;  0.0000000E+00;  1.0000000E+03;  1.0000000E-01;  0.0000000E+00;0;  0.0000000E+00;  0.0000000E+00;  0.0000000E+00;0;  0.0000000E+00;  4.0000000E+04;  0.0000000E+00;  0.0000000E+00;  4.0000000E+04;  0.0000000E+00;  4.0000000E+04;  0.0000000E+00;  0.0000000E+00;  0.0000000E+00;  9.0626097E-11;
 -1.7000000E-01;  9.9999998E-03;  2.8000000E-01;344;  0.0000000E+00;  0.0000000E+00;  0.0000000E+00;  1.0000000E+03;  1.0000000E-01;  0.0000000E+00;0;  0.0000000E+00;  0.0000000E+00;  0.0000000E+00;0;  0.0000000E+00;  4.0000000E+04;  0.0000000E+00;  0.0000000E+00;  4.0000000E+04;  0.0000000E+00;  4.0000000E+04;  0.0000000E+00;  0.0000000E+00;  0.0000000E+00;  1.4966250E-11;
 -1.7000000E-01;  9.9999998E-03;  2.8999999E-01;345;  0.0000000E+00;  0.0000000E+00;  0.0000000E+00;  1.0000000E+03;  1.0000000E-01;  0.0000000E+00;0;  0.0000000E+00;  0.0000000E+00;  0.0000000E+00;0;  0.0000000E+00;  4.0000000E+04;  0.0000000E+00;  0.0000000E+00;  4.0000000E+04;  0.0000000E+00;  4.0000000E+04;  0.0000000E+00;  0.0000000E+00;  0.0000000E+00;  6.8908875E-14;
 -1.7000000E-01;  9.9999998E-03;  3.0000001E-01;346;  0.0000000E+00;  0.0000000E+00;  0.0000000E+00;  1.0000000E+03;  1.0000000E-01;  0.0000000E+00;0;  0.0000000E+00;  0.0000000E+00;  0.0000000E+00;0;  0.0000000E+00;  4.0000000E+04;  0.0000000E+00;  0.0000000E+00;  4.0000000E+04;  0.0000000E+00;  4.0000000E+04;  0.0000000E+00;  0.0000000E+00;  0.0000000E+00;  0.0000000E+00;
 -1.7000000E-01;  9.9999998E-03;  3.1000000E-01;347;  0.0000000E+00;  0.0000000E+00;  0.0000000E+00;  1.0000000E+03;  1.0000000E-01;  0.0000000E+00;0;  0.0000000E+00;  0.0000000E+00;  0.0000000E+00;0;  0.0000000E+00;  4.0000000E+04;  0.0000000E+00;  0.0000000E+00;  4.0000000E+04;  0.0000000E+00;  4.0000000E+04;  0.0000000E+00;  0.0000000E+00;  0.0000000E+00;  0.0000000E+00;
 -1.7000000E-01;  9.9999998E-03;  3.1999999E-01;348;  0.0000000E+00;  0.0000000E+00;  0.0000000E+00;  1.0000000E+03;  1.0000000E-01;  0.0000000E+00;0;  0.0000000E+00;  0.0000000E+00;  0.0000000E+00;0;  0.0000000E+00;  4.0000000E+04;  0.0000000E+00;  0.0000000E+00;  4.0000000E+04;  0.0000000E+00;  4.0000000E+04;  0.0000000E+00;  0.0000000E+00;  0.0000000E+00;  0.0000000E+00;
 -1.7000000E-01;  9.9999998E-03;  3.3000001E-01;349;  0.0000000E+00;  0.0000000E+00;  0.0000000E+00;  1.0000000E+03;  1.0000000E-01;  0.0000000E+00;0;  0.0000000E+00;  0.0000000E+00;  0.0000000E+00;0;  0.0000000E+00;  4.0000000E+04;  0.0000000E+00;  0.0000000E+00;  4.0000000E+04;  0.0000000E+00;  4.0000000E+04;  0.0000000E+00;  0.0000000E+00;  0.0000000E+00;  0.0000000E+00;
 -1.7000000E-01;  9.9999998E-03;  3.4000000E-01;350;  0.0000000E+00;  0.0000000E+00;  0.0000000E+00;  1.0000000E+03;  1.0000000E-01;  0.0000000E+00;0;  0.0000000E+00;  0.0000000E+00;  0.0000000E+00;0;  0.0000000E+00;  4.0000000E+04;  0.0000000E+00;  0.0000000E+00;  4.0000000E+04;  0.0000000E+00;  4.0000000E+04;  0.0000000E+00;  0.0000000E+00;  0.0000000E+00;  0.0000000E+00;
 -1.7000000E-01;  9.9999998E-03;  3.4999999E-01;351;  0.0000000E+00;  0.0000000E+00;  0.0000000E+00;  1.0000000E+03;  1.0000000E-01;  0.0000000E+00;0;  0.0000000E+00;  0.0000000E+00;  0.0000000E+00;0;  0.0000000E+00;  4.0000000E+04;  0.0000000E+00;  0.0000000E+00;  4.0000000E+04;  0.0000000E+00;  4.0000000E+04;  0.0000000E+00;  0.0000000E+00;  0.0000000E+00;  0.0000000E+00;
 -1.7000000E-01;  9.9999998E-03;  3.6000001E-01;352;  0.0000000E+00;  0.0000000E+00;  0.0000000E+00;  1.0000000E+03;  1.0000000E-01;  0.0000000E+00;0;  0.0000000E+00;  0.0000000E+00;  0.0000000E+00;0;  0.0000000E+00;  4.0000000E+04;  0.0000000E+00;  0.0000000E+00;  4.0000000E+04;  0.0000000E+00;  4.0000000E+04;  0.0000000E+00;  0.0000000E+00;  0.0000000E+00;  0.0000000E+00;
 -1.7000000E-01;  9.9999998E-03;  3.7000000E-01;353;  0.0000000E+00;  0.0000000E+00;  0.0000000E+00;  1.0000000E+03;  1.0000000E-01;  0.0000000E+00;0;  0.0000000E+00;  0.0000000E+00;  0.0000000E+00;0;  0.0000000E+00;  4.0000000E+04;  0.0000000E+00;  0.0000000E+00;  4.0000000E+04;  0.0000000E+00;  4.0000000E+04;  0.0000000E+00;  0.0000000E+00;  0.0000000E+00;  0.0000000E+00;
 -1.7000000E-01;  9.9999998E-03;  3.8000000E-01;354;  0.0000000E+00;  0.0000000E+00;  0.0000000E+00;  1.0000000E+03;  1.0000000E-01;  0.0000000E+00;0;  0.0000000E+00;  0.0000000E+00;  0.0000000E+00;0;  0.0000000E+00;  4.0000000E+04;  0.0000000E+00;  0.0000000E+00;  4.0000000E+04;  0.0000000E+00;  4.0000000E+04;  0.0000000E+00;  0.0000000E+00;  0.0000000E+00;  0.0000000E+00;
 -1.7000000E-01;  9.9999998E-03;  3.8999999E-01;355;  0.0000000E+00;  0.0000000E+00;  0.0000000E+00;  1.0000000E+03;  1.0000000E-01;  0.0000000E+00;0;  0.0000000E+00;  0.0000000E+00;  0.0000000E+00;0;  0.0000000E+00;  4.0000000E+04;  0.0000000E+00;  0.0000000E+00;  4.0000000E+04;  0.0000000E+00;  4.0000000E+04;  0.0000000E+00;  0.0000000E+00;  0.0000000E+00;  0.0000000E+00;
 -1.7000000E-01;  9.9999998E-03;  4.0000001E-01;356;  0.0000000E+00;  0.0000000E+00;  0.0000000E+00;  1.0000000E+03;  1.0000000E-01;  0.0000000E+00;0;  0.0000000E+00;  0.0000000E+00;  0.0000000E+00;0;  0.0000000E+00;  4.0000000E+04;  0.0000000E+00;  0.0000000E+00;  4.0000000E+04;  0.0000000E+00;  4.0000000E+04;  0.0000000E+00;  0.0000000E+00;  0.0000000E+00;  0.0000000E+00;
 -1.6000000E-01;  9.9999998E-03;  2.3999999E-01;431;  0.0000000E+00;  0.0000000E+00;  0.0000000E+00;  1.0000000E+03;  1.0000000E-01;  0.0000000E+00;0;  0.0000000E+00;  0.0000000E+00;  0.0000000E+00;0;  1.9862134E-06;  4.0000000E+04;  0.0000000E+00;  0.0000000E+00;  4.0000000E+04;  0.0000000E+00;  4.0000000E+04;  1.9991398E-06;  0.0000000E+00; -1.2926344E-08;  2.0978101E-01;
 -1.6000000E-01;  9.9999998E-03;  2.5000000E-01;432;  0.0000000E+00;  0.0000000E+00;  0.0000000E+00;  1.0000000E+03;  1.0000000E-01;  0.0000000E+00;0;  0.0000000E+00;  0.0000000E+00;  0.0000000E+00;0;  2.0767361E-06;  4.0000000E+04;  0.0000000E+00;  0.0000000E+00;  4.0000000E+04;  0.0000000E+00;  4.0000000E+04;  2.0878319E-06;  0.0000000E+00; -1.1095819E-08;  1.7624611E-01;
 -1.6000000E-01;  9.9999998E-03;  2.5999999E-01;433;  0.0000000E+00;  0.0000000E+00;  0.0000000E+00;  1.0000000E+03;  1.0000000E-01;  0.0000000E+00;0;  0.0000000E+00;  0.0000000E+00;  0.0000000E+00;0;  2.0216114E-06;  4.0000000E+04;  0.0000000E+00;  0.0000000E+00;  4.0000000E+04;  0.0000000E+00;  4.0000000E+04;  2.0238472E-06;  0.0000000E+00; -2.2357818E-09;  1.2314145E-01;
 -1.6000000E-01;  9.9999998E-03;  2.7000001E-01;434;  0.0000000E+00;  0.0000000E+00;  0.0000000E+00;  1.0000000E+03;  1.0000000E-01;  0.0000000E+00;0;  0.0000000E+00;  0.0000000E+00;  0.0000000E+00;0;  1.7885902E-06;  4.0000000E+04;  0.0000000E+00;  0.0000000E+00;  4.0000000E+04;  0.0000000E+00;  4.0000000E+04;  1.7790380E-06;  0.0000000E+00;  9.5521955E-09;  5.7815101E-02;
 -1.6000000E-01;  9.9999998E-03;  2.8000000E-01;435;  0.0000000E+00;  0.0000000E+00;  0.0000000E+00;  1.0000000E+03;  1.0000000E-01;  0.0000000E+00;0;  0.0000000E+00;  0.0000000E+00;  0.0000000E+00;0;  1.4094943E-06;  4.0000000E+04;  0.0000000E+00;  0.0000000E+00;  4.0000000E+04;  0.0000000E+00;  4.0000000E+04;  1.3916540E-06;  0.0000000E+00;  1.7840360E-08;  2.6120429E-03;
 -1.6000000E-01;  9.9999998E-03;  2.8999999E-01;436;  0.0000000E+00;  0.0000000E+00;  0.0000000E+00;  1.0000000E+03;  1.0000000E-01;  0.0000000E+00;0;  0.0000000E+00;  0.0000000E+00;  0.0000000E+00;0;  9.6621238E-07;  4.0000000E+04;  0.0000000E+00;  0.0000000E+00;  4.0000000E+04;  0.0000000E+00;  4.0000000E+04;  9.4761941E-07;  0.0000000E+00;  1.8592981E-08;  4.0366445E-02;
 -1.6000000E-01;  9.9999998E-03;  3.0000001E-01;437;  0.0000000E+00;  0.0000000E+00;  0.0000000E+00;  1.0000000E+03;  1.0000000E-01;  0.0000000E+00;0;  0.0000000E+00;  0.0000000E+00;  0.0000000E+00;0;  5.5568700E-07;  4.0000000E+04;  0.0000000E+00;  0.0000000E+00;  4.0000000E+04;  0.0000000E+00;  4.0000000E+04;  5.4302473E-07;  0.0000000E+00;  1.2662289E-08;  5.0333872E-02;
 -1.6000000E-01;  9.9999998E-03;  3.1000000E-01;438;  0.0000000E+00;  0.0000000E+00;  0.0000000E+00;  1.0000000E+03;  1.0000000E-01;  0.0000000E+00;0;  0.0000000E+00;  0.0000000E+00;  0.0000000E+00;0;  2.5171002E-07;  4.0000000E+04;  0.0000000E+00;  0.0000000E+00;  4.0000000E+04;  0.0000000E+00;  4.0000000E+04;  2.4694083E-07;  0.0000000E+00;  4.7692010E-09;  3.9021123E-02;
 -1.6000000E-01;  9.9999998E-03;  3.1999999E-01;439;  0.0000000E+00;  0.0000000E+00;  0.0000000E+00;  1.0000000E+03;  1.0000000E-01;  0.0000000E+00;0;  0.0000000E+00;  0.0000000E+00;  0.0000000E+00;0;  7.9611404E-08;  4.0000000E+04;  0.0000000E+00;  0.0000000E+00;  4.0000000E+04;  0.0000000E+00;  4.0000000E+04;  7.9814242E-08;  0.0000000E+00; -2.0283553E-10;  2.0508045E-02;
 -1.6000000E-01;  9.9999998E-03;  3.3000001E-01;440;  0.0000000E+00;  0.0000000E+00;  0.0000000E+00;  1.0000000E+03;  1.0000000E-01;  0.0000000E+00;0;  0.0000000E+00;  0.0000000E+00;  0.0000000E+00;0;  1.3751062E-08;  4.0000000E+04;  0.0000000E+00;  0.0000000E+00;  4.0000000E+04;  0.0000000E+00;  4.0000000E+04;  1.4672253E-08;  0.0000000E+00; -9.2119101E-10;  6.6597117E-03;
 -1.6000000E-01;  9.9999998E-03;  3.4000000E-01;441;  0.0000000E+00;  0.0000000E+00;  0.0000000E+00;  1.0000000E+03;  1.0000000E-01;  0.0000000E+00;0;  0.0000000E+00;  0.0000000E+00;  0.0000000E+00;0;  7.6363871E-10;  4.0000000E+04;  0.0000000E+00;  0.0000000E+00;  4.0000000E+04;  0.0000000E+00;  4.0000000E+04;  8.4391738E-10;  0.0000000E+00; -8.0278700E-11;  9.1897848E-04;
 -1.6000000E-01;  9.9999998E-03;  3.4999999E-01;442;  0.0000000E+00;  0.0000000E+00;  0.0000000E+00;  1.0000000E+03;  1.0000000E-01;  0.0000000E+00;0;  0.0000000E+00;  0.0000000E+00;  0.0000000E+00;0;  0.0000000E+00;  4.0000000E+04;  0.0000000E+00;  0.0000000E+00;  4.0000000E+04;  0.0000000E+00;  4.0000000E+04;  0.0000000E+00;  0.0000000E+00;  0.0000000E+00;  0.0000000E+00;
 -1.6000000E-01;  9.9999998E-03;  3.6000001E-01;443;  0.0000000E+00;  0.0000000E+00;  0.0000000E+00;  1.0000000E+03;  1.0000000E-01;  0.0000000E+00;0;  0.0000000E+00;  0.0000000E+00;  0.0000000E+00;0;  0.0000000E+00;  4.0000000E+04;  0.0000000E+00;  0.0000000E+00;  4.0000000E+04;  0.0000000E+00;  4.0000000E+04;  0.0000000E+00;  0.0000000E+00;  0.0000000E+00;  0.0000000E+00;
 -1.6000000E-01;  9.9999998E-03;  3.7000000E-01;444;  0.0000000E+00;  0.0000000E+00;  0.0000000E+00;  1.0000000E+03;  1.0000000E-01;  0.0000000E+00;0;  0.0000000E+00;  0.0000000E+00;  0.0000000E+00;0;  0.0000000E+00;  4.0000000E+04;  0.0000000E+00;  0.0000000E+00;  4.0000000E+04;  0.0000000E+00;  4.0000000E+04;  0.0000000E+00;  0.0000000E+00;  0.0000000E+00;  0.0000000E+00;
 -1.6000000E-01;  9.9999998E-03;  3.8000000E-01;445;  0.0000000E+00;  0.0000000E+00;  0.0000000E+00;  1.0000000E+03;  1.0000000E-01;  0.0000000E+00;0;  0.0000000E+00;  0.0000000E+00;  0.0000000E+00;0;  0.0000000E+00;  4.0000000E+04;  0.0000000E+00;  0.0000000E+00;  4.0000000E+04;  0.0000000E+00;  4.0000000E+04;  0.0000000E+00;  0.0000000E+00;  0.0000000E+00;  0.0000000E+00;
 -1.6000000E-01;  9.9999998E-03;  3.8999999E-01;446;  0.0000000E+00;  0.0000000E+00;  0.0000000E+00;  1.0000000E+03;  1.0000000E-01;  0.0000000E+00;0;  0.0000000E+00;  0.0000000E+00;  0.0000000E+00;0;  0.0000000E+00;  4.0000000E+04;  0.0000000E+00;  0.0000000E+00;  4.0000000E+04;  0.0000000E+00;  4.0000000E+04;  0.0000000E+00;  0.0000000E+00;  0.0000000E+00;  0.0000000E+00;
 -1.6000000E-01;  9.9999998E-03;  4.0000001E-01;447;  0.0000000E+00;  0.0000000E+00;  0.0000000E+00;  1.0000000E+03;  1.0000000E-01;  0.0000000E+00;0;  0.0000000E+00;  0.0000000E+00;  0.0000000E+00;0;  0.0000000E+00;  4.0000000E+04;  0.0000000E+00;  0.0000000E+00;  4.0000000E+04;  0.0000000E+00;  4.0000000E+04;  0.0000000E+00;  0.0000000E+00;  0.0000000E+00;  0.0000000E+00;
 -1.5000001E-01;  9.9999998E-03;  2.3999999E-01;522;  0.0000000E+00;  0.0000000E+00;  0.0000000E+00;  1.0000000E+03;  1.0000000E-01;  0.0000000E+00;0;  0.0000000E+00;  0.0000000E+00;  0.0000000E+00;0;  3.6911042E-05;  4.0000000E+04;  0.0000000E+00;  0.0000000E+00;  4.0000000E+04;  0.0000000E+00;  4.0000000E+04;  3.7048998E-05;  0.0000000E+00; -1.3795417E-07;  3.0485189E+00;
 -1.5000001E-01;  9.9999998E-03;  2.5000000E-01;523;  0.0000000E+00;  0.0000000E+00;  0.0000000E+00;  1.0000000E+03;  1.0000000E-01;  0.0000000E+00;0;  0.0000000E+00;  0.0000000E+00;  0.0000000E+00;0;  3.4365548E-05;  4.0000000E+04;  0.0000000E+00;  0.0000000E+00;  4.0000000E+04;  0.0000000E+00;  4.0000000E+04;  3.4391109E-05;  0.0000000E+00; -2.5562013E-08;  2.4085500E+00;
 -1.5000001E-01;  9.9999998E-03;  2.5999999E-01;524;  0.0000000E+00;  0.0000000E+00;  0.0000000E+00;  1.0000000E+03;  1.0000000E-01;  0.0000000E+00;0;  0.0000000E+00;  0.0000000E+00;  0.0000000E+00;0;  3.0612144E-05;  4.0000000E+04;  0.0000000E+00;  0.0000000E+00;  4.0000000E+04;  0.0000000E+00;  4.0000000E+04;  3.0487969E-05;  0.0000000E+00;  1.2417347E-07;  1.6244870E+00;
 -1.5000001E-01;  9.9999998E-03;  2.7000001E-01;525;  0.0000000E+00;  0.0000000E+00;  0.0000000E+00;  1.0000000E+03;  1.0000000E-01;  0.0000000E+00;0;  0.0000000E+00;  0.0000000E+00;  0.0000000E+00;0;  2.5832926E-05;  4.0000000E+04;  0.0000000E+00;  0.0000000E+00;  4.0000000E+04;  0.0000000E+00;  4.0000000E+04;  2.5562818E-05;  0.0000000E+00;  2.7010680E-07;  7.9699636E-01;
 -1.5000001E-01;  9.9999998E-03;  2.8000000E-01;526;  0.0000000E+00;  0.0000000E+00;  0.0000000E+00;  1.0000000E+03;  1.0000000E-01;  0.0000000E+00;0;  0.0000000E+00;  0.0000000E+00;  0.0000000E+00;0;  2.0440781E-05;  4.0000000E+04;  0.0000000E+00;  0.0000000E+00;  4.0000000E+04;  0.0000000E+00;  4.0000000E+04;  2.0072088E-05;  0.0000000E+00;  3.6869272E-07;  5.9430216E-02;
 -1.5000001E-01;  9.9999998E-03;  2.8999999E-01;527;  0.0000000E+00;  0.0000000E+00;  0.0000000E+00;  1.0000000E+03;  1.0000000E-01;  0.0000000E+00;0;  0.0000000E+00;  0.0000000E+00;  0.0000000E+00;0;  1.4984123E-05;  4.0000000E+04;  0.0000000E+00;  0.0000000E+00;  4.0000000E+04;  0.0000000E+00;  4.0000000E+04;  1.4591929E-05;  0.0000000E+00;  3.9219367E-07;  4.7425413E-01;
 -1.5000001E-01;  9.9999998E-03;  3.0000001E-01;528;  0.0000000E+00;  0.0000000E+00;  0.0000000E+00;  1.0000000E+03;  1.0000000E-01;  0.0000000E+00;0;  0.0000000E+00;  0.0000000E+00;  0.0000000E+00;0;  1.0017282E-05;  4.0000000E+04;  0.0000000E+00;  0.0000000E+00;  4.0000000E+04;  0.0000000E+00;  4.0000000E+04;  9.6772228E-06;  0.0000000E+00;  3.4005930E-07;  7.3324043E-01;
 -1.5000001E-01;  9.9999998E-03;  3.1000000E-01;529;  0.0000000E+00;  0.0000000E+00;  0.0000000E+00;  1.0000000E+03;  1.0000000E-01;  0.0000000E+00;0;  0.0000000E+00;  0.0000000E+00;  0.0000000E+00;0;  5.9735994E-06;  4.0000000E+04;  0.0000000E+00;  0.0000000E+00;  4.0000000E+04;  0.0000000E+00;  4.0000000E+04;  5.7350053E-06;  0.0000000E+00;  2.3859414E-07;  7.3594463E-01;
 -1.5000001E-01;  9.9999998E-03;  3.1999999E-01;530;  0.0000000E+00;  0.0000000E+00;  0.0000000E+00;  1.0000000E+03;  1.0000000E-01;  0.0000000E+00;0;  0.0000000E+00;  0.0000000E+00;  0.0000000E+00;0;  3.0734627E-06;  4.0000000E+04;  0.0000000E+00;  0.0000000E+00;  4.0000000E+04;  0.0000000E+00;  4.0000000E+04;  2.9453124E-06;  0.0000000E+00;  1.2815040E-07;  5.6735188E-01;
 -1.5000001E-01;  9.9999998E-03;  3.3000001E-01;531;  0.0000000E+00;  0.0000000E+00;  0.0000000E+00;  1.0000000E+03;  1.0000000E-01;  0.0000000E+00;0;  0.0000000E+00;  0.0000000E+00;  0.0000000E+00;0;  1.2926890E-06;  4.0000000E+04;  0.0000000E+00;  0.0000000E+00;  4.0000000E+04;  0.0000000E+00;  4.0000000E+04;  1.2484539E-06;  0.0000000E+00;  4.4235129E-08;  3.4175283E-01;
 -1.5000001E-01;  9.9999998E-03;  3.4000000E-01;532;  0.0000000E+00;  0.0000000E+00;  0.0000000E+00;  1.0000000E+03;  1.0000000E-01;  0.0000000E+00;0;  0.0000000E+00;  0.0000000E+00;  0.0000000E+00;0;  4.0341126E-07;  4.0000000E+04;  0.0000000E+00;  0.0000000E+00;  4.0000000E+04;  0.0000000E+00;  4.0000000E+04;  4.0112045E-07;  0.0000000E+00;  2.2908266E-09;  1.5436910E-01;
 -1.5000001E-01;  9.9999998E-03;  3.4999999E-01;533;  0.0000000E+00;  0.0000000E+00;  0.0000000E+00;  1.0000000E+03;  1.0000000E-01;  0.0000000E+00;0;  0.0000000E+00;  0.0000000E+00;  0.0000000E+00;0;  7.7031181E-08;  4.0000000E+04;  0.0000000E+00;  0.0000000E+00;  4.0000000E+04;  0.0000000E+00;  4.0000000E+04;  8.2740861E-08;  0.0000000E+00; -5.7096767E-09;  4.7167305E-02;
 -1.5000001E-01;  9.9999998E-03;  3.6000001E-01;534;  0.0000000E+00;  0.0000000E+00;  0.0000000E+00;  1.0000000E+03;  1.0000000E-01;  0.0000000E+00;0;  0.0000000E+00;  0.0000000E+00;  0.0000000E+00;0;  6.5815713E-09;  4.0000000E+04;  0.0000000E+00;  0.0000000E+00;  4.0000000E+04;  0.0000000E+00;  4.0000000E+04;  7.7655304E-09;  0.0000000E+00; -1.1839593E-09;  7.5754612E-03;
 -1.5000001E-01;  9.9999998E-03;  3.7000000E-01;535;  0.0000000E+00;  0.0000000E+00;  0.0000000E+00;  1.0000000E+03;  1.0000000E-01;  0.0000000E+00;0;  0.0000000E+00;  0.0000000E+00;  0.0000000E+00;0;  0.0000000E+00;  4.0000000E+04;  0.0000000E+00;  0.0000000E+00;  4.0000000E+04;  0.0000000E+00;  4.0000000E+04;  0.0000000E+00;  0.0000000E+00;  0.0000000E+00;  3.0836869E-09;
 -1.5000001E-01;  9.9999998E-03;  3.8000000E-01;536;  0.0000000E+00;  0.0000000E+00;  0.0000000E+00;  1.0000000E+03;  1.0000000E-01;  0.0000000E+00;0;  0.0000000E+00;  0.0000000E+00;  0.0000000E+00;0;  0.0000000E+00;  4.0000000E+04;  0.0000000E+00;  0.0000000E+00;  4.0000000E+04;  0.0000000E+00;  4.0000000E+04;  0.0000000E+00;  0.0000000E+00;  0.0000000E+00;  0.0000000E+00;
 -1.5000001E-01;  9.9999998E-03;  3.8999999E-01;537;  0.0000000E+00;  0.0000000E+00;  0.0000000E+00;  1.0000000E+03;  1.0000000E-01;  0.0000000E+00;0;  0.0000000E+00;  0.0000000E+00;  0.0000000E+00;0;  0.0000000E+00;  4.0000000E+04;  0.0000000E+00;  0.0000000E+00;  4.0000000E+04;  0.0000000E+00;  4.0000000E+04;  0.0000000E+00;  0.0000000E+00;  0.0000000E+00;  0.0000000E+00;
 -1.5000001E-01;  9.9999998E-03;  4.0000001E-01;538;  0.0000000E+00;  0.0000000E+00;  0.0000000E+00;  1.0000000E+03;  1.0000000E-01;  0.0000000E+00;0;  0.0000000E+00;  0.0000000E+00;  0.0000000E+00;0;  0.0000000E+00;  4.0000000E+04;  0.0000000E+00;  0.0000000E+00;  4.0000000E+04;  0.0000000E+00;  4.0000000E+04;  0.0000000E+00;  0.0000000E+00;  0.0000000E+00;  0.0000000E+00;
 -1.4000000E-01;  9.9999998E-03;  2.3999999E-01;613;  0.0000000E+00;  0.0000000E+00;  0.0000000E+00;  1.0000000E+03;  1.0000000E-01;  0.0000000E+00;0;  0.0000000E+00;  0.0000000E+00;  0.0000000E+00;0;  1.7364272E-04;  4.0000000E+04;  0.0000000E+00;  0.0000000E+00;  4.0000000E+04;  0.0000000E+00;  4.0000000E+04;  1.7395549E-04;  0.0000000E+00; -3.1276872E-07;  1.4267347E+01;
 -1.4000000E-01;  9.9999998E-03;  2.5000000E-01;614;  0.0000000E+00;  0.0000000E+00;  0.0000000E+00;  1.0000000E+03;  1.0000000E-01;  0.0000000E+00;0;  0.0000000E+00;  0.0000000E+00;  0.0000000E+00;0;  1.5809541E-04;  4.0000000E+04;  0.0000000E+00;  0.0000000E+00;  4.0000000E+04;  0.0000000E+00;  4.0000000E+04;  1.5779387E-04;  0.0000000E+00;  3.0154166E-07;  1.1291214E+01;
 -1.4000000E-01;  9.9999998E-03;  2.5999999E-01;615;  0.0000000E+00;  0.0000000E+00;  0.0000000E+00;  1.0000000E+03;  1.0000000E-01;  0.0000000E+00;0;  0.0000000E+00;  0.0000000E+00;  0.0000000E+00;0;  1.3902984E-04;  4.0000000E+04;  0.0000000E+00;  0.0000000E+00;  4.0000000E+04;  0.0000000E+00;  4.0000000E+04;  1.3801194E-04;  0.0000000E+00;  1.0179009E-06;  7.7206306E+00;
 -1.4000000E-01;  9.9999998E-03;  2.7000001E-01;616;  0.0000000E+00;  0.0000000E+00;  0.0000000E+00;  1.0000000E+03;  1.0000000E-01;  0.0000000E+00;0;  0.0000000E+00;  0.0000000E+00;  0.0000000E+00;0;  1.1735161E-04;  4.0000000E+04;  0.0000000E+00;  0.0000000E+00;  4.0000000E+04;  0.0000000E+00;  4.0000000E+04;  1.1566703E-04;  0.0000000E+00;  1.6845822E-06;  3.9569836E+00;
 -1.4000000E-01;  9.9999998E-03;  2.8000000E-01;617;  0.0000000E+00;  0.0000000E+00;  0.0000000E+00;  1.0000000E+03;  1.0000000E-01;  0.0000000E+00;0;  0.0000000E+00;  0.0000000E+00;  0.0000000E+00;0;  9.4434683E-05;  4.0000000E+04;  0.0000000E+00;  0.0000000E+00;  4.0000000E+04;  0.0000000E+00;  4.0000000E+04;  9.2282382E-05;  0.0000000E+00;  2.1523019E-06;  5.0121540E-01;
 -1.4000000E-01;  9.9999998E-03;  2.8999999E-01;618;  0.0000000E+00;  0.0000000E+00;  0.0000000E+00;  1.0000000E+03;  1.0000000E-01;  0.0000000E+00;0;  0.0000000E+00;  0.0000000E+00;  0.0000000E+00;0;  7.1884424E-05;  4.0000000E+04;  0.0000000E+00;  0.0000000E+00;  4.0000000E+04;  0.0000000E+00;  4.0000000E+04;  6.9564026E-05;  0.0000000E+00;  2.3204009E-06;  2.1861110E+00;
 -1.4000000E-01;  9.9999998E-03;  3.0000001E-01;619;  0.0000000E+00;  0.0000000E+00;  0.0000000E+00;  1.0000000E+03;  1.0000000E-01;  0.0000000E+00;0;  0.0000000E+00;  0.0000000E+00;  0.0000000E+00;0;  5.1257670E-05;  4.0000000E+04;  0.0000000E+00;  0.0000000E+00;  4.0000000E+04;  0.0000000E+00;  4.0000000E+04;  4.9089453E-05;  0.0000000E+00;  2.1682165E-06;  3.7981308E+00;
 -1.4000000E-01;  9.9999998E-03;  3.1000000E-01;620;  0.0000000E+00;  0.0000000E+00;  0.0000000E+00;  1.0000000E+03;  1.0000000E-01;  0.0000000E+00;0;  0.0000000E+00;  0.0000000E+00;  0.0000000E+00;0;  3.3800428E-05;  4.0000000E+04;  0.0000000E+00;  0.0000000E+00;  4.0000000E+04;  0.0000000E+00;  4.0000000E+04;  3.2038930E-05;  0.0000000E+00;  1.7614994E-06;  4.2919459E+00;
 -1.4000000E-01;  9.9999998E-03;  3.1999999E-01;621;  0.0000000E+00;  0.0000000E+00;  0.0000000E+00;  1.0000000E+03;  1.0000000E-01;  0.0000000E+00;0;  0.0000000E+00;  0.0000000E+00;  0.0000000E+00;0;  2.0248110E-05;  4.0000000E+04;  0.0000000E+00;  0.0000000E+00;  4.0000000E+04;  0.0000000E+00;  4.0000000E+04;  1.9021378E-05;  0.0000000E+00;  1.2267324E-06;  3.8748107E+00;
 -1.4000000E-01;  9.9999998E-03;  3.3000001E-01;622;  0.0000000E+00;  0.0000000E+00;  0.0000000E+00;  1.0000000E+03;  1.0000000E-01;  0.0000000E+00;0;  0.0000000E+00;  0.0000000E+00;  0.0000000E+00;0;  1.0733002E-05;  4.0000000E+04;  0.0000000E+00;  0.0000000E+00;  4.0000000E+04;  0.0000000E+00;  4.0000000E+04;  1.0028401E-05;  0.0000000E+00;  7.0460214E-07;  2.9186456E+00;
 -1.4000000E-01;  9.9999998E-03;  3.4000000E-01;623;  0.0000000E+00;  0.0000000E+00;  0.0000000E+00;  1.0000000E+03;  1.0000000E-01;  0.0000000E+00;0;  0.0000000E+00;  0.0000000E+00;  0.0000000E+00;0;  4.8276638E-06;  4.0000000E+04;  0.0000000E+00;  0.0000000E+00;  4.0000000E+04;  0.0000000E+00;  4.0000000E+04;  4.5237057E-06;  0.0000000E+00;  3.0395825E-07;  1.8297708E+00;
 -1.4000000E-01;  9.9999998E-03;  3.4999999E-01;624;  0.0000000E+00;  0.0000000E+00;  0.0000000E+00;  1.0000000E+03;  1.0000000E-01;  0.0000000E+00;0;  0.0000000E+00;  0.0000000E+00;  0.0000000E+00;0;  1.7135908E-06;  4.0000000E+04;  0.0000000E+00;  0.0000000E+00;  4.0000000E+04;  0.0000000E+00;  4.0000000E+04;  1.6414276E-06;  0.0000000E+00;  7.2163196E-08;  9.2328590E-01;
 -1.4000000E-01;  9.9999998E-03;  3.6000001E-01;625;  0.0000000E+00;  0.0000000E+00;  0.0000000E+00;  1.0000000E+03;  1.0000000E-01;  0.0000000E+00;0;  0.0000000E+00;  0.0000000E+00;  0.0000000E+00;0;  4.1859806E-07;  4.0000000E+04;  0.0000000E+00;  0.0000000E+00;  4.0000000E+04;  0.0000000E+00;  4.0000000E+04;  4.2941357E-07;  0.0000000E+00; -1.0815519E-08;  3.4570053E-01;
 -1.4000000E-01;  9.9999998E-03;  3.7000000E-01;626;  0.0000000E+00;  0.0000000E+00;  0.0000000E+00;  1.0000000E+03;  1.0000000E-01;  0.0000000E+00;0;  0.0000000E+00;  0.0000000E+00;  0.0000000E+00;0;  5.4010847E-08;  4.0000000E+04;  0.0000000E+00;  0.0000000E+00;  4.0000000E+04;  0.0000000E+00;  4.0000000E+04;  6.6114623E-08;  0.0000000E+00; -1.2103778E-08;  7.8902788E-02;
 -1.4000000E-01;  9.9999998E-03;  3.8000000E-01;627;  0.0000000E+00;  0.0000000E+00;  0.0000000E+00;  1.0000000E+03;  1.0000000E-01;  0.0000000E+00;0;  0.0000000E+00;  0.0000000E+00;  0.0000000E+00;0;  2.3877915E-09;  4.0000000E+04;  0.0000000E+00;  0.0000000E+00;  4.0000000E+04;  0.0000000E+00;  4.0000000E+04;  3.1431386E-09;  0.0000000E+00; -7.5534717E-10;  6.1434689E-03;
 -1.4000000E-01;  9.9999998E-03;  3.8999999E-01;628;  0.0000000E+00;  0.0000000E+00;  0.0000000E+00;  1.0000000E+03;  1.0000000E-01;  0.0000000E+00;0;  0.0000000E+00;  0.0000000E+00;  0.0000000E+00;0;  0.0000000E+00;  4.0000000E+04;  0.0000000E+00;  0.0000000E+00;  4.0000000E+04;  0.0000000E+00;  4.0000000E+04;  0.0000000E+00;  0.0000000E+00;  0.0000000E+00;  0.0000000E+00;
 -1.4000000E-01;  9.9999998E-03;  4.0000001E-01;629;  0.0000000E+00;  0.0000000E+00;  0.0000000E+00;  1.0000000E+03;  1.0000000E-01;  0.0000000E+00;0;  0.0000000E+00;  0.0000000E+00;  0.0000000E+00;0;  0.0000000E+00;  4.0000000E+04;  0.0000000E+00;  0.0000000E+00;  4.0000000E+04;  0.0000000E+00;  4.0000000E+04;  0.0000000E+00;  0.0000000E+00;  0.0000000E+00;  0.0000000E+00;
 -1.3000000E-01;  9.9999998E-03;  2.3999999E-01;704;  0.0000000E+00;  0.0000000E+00;  0.0000000E+00;  1.0000000E+03;  1.0000000E-01;  0.0000000E+00;0;  0.0000000E+00;  0.0000000E+00;  0.0000000E+00;0;  4.8976549E-04;  4.0000000E+04;  0.0000000E+00;  0.0000000E+00;  4.0000000E+04;  0.0000000E+00;  4.0000000E+04;  4.8981764E-04;  0.0000000E+00; -5.2176254E-08;  4.1931515E+01;
 -1.3000000E-01;  9.9999998E-03;  2.5000000E-01;705;  0.0000000E+00;  0.0000000E+00;  0.0000000E+00;  1.0000000E+03;  1.0000000E-01;  0.0000000E+00;0;  0.0000000E+00;  0.0000000E+00;  0.0000000E+00;0;  4.4289391E-04;  4.0000000E+04;  0.0000000E+00;  0.0000000E+00;  4.0000000E+04;  0.0000000E+00;  4.0000000E+04;  4.4096465E-04;  0.0000000E+00;  1.9292690E-06;  3.3354019E+01;
 -1.3000000E-01;  9.9999998E-03;  2.5999999E-01;706;  0.0000000E+00;  0.0000000E+00;  0.0000000E+00;  1.0000000E+03;  1.0000000E-01;  0.0000000E+00;0;  0.0000000E+00;  0.0000000E+00;  0.0000000E+00;0;  3.8897627E-04;  4.0000000E+04;  0.0000000E+00;  0.0000000E+00;  4.0000000E+04;  0.0000000E+00;  4.0000000E+04;  3.8486539E-04;  0.0000000E+00;  4.1108960E-06;  2.3026323E+01;
 -1.3000000E-01;  9.9999998E-03;  2.7000001E-01;707;  0.0000000E+00;  0.0000000E+00;  0.0000000E+00;  1.0000000E+03;  1.0000000E-01;  0.0000000E+00;0;  0.0000000E+00;  0.0000000E+00;  0.0000000E+00;0;  3.3022746E-04;  4.0000000E+04;  0.0000000E+00;  0.0000000E+00;  4.0000000E+04;  0.0000000E+00;  4.0000000E+04;  3.2411600E-04;  0.0000000E+00;  6.1114661E-06;  1.2031840E+01;
 -1.3000000E-01;  9.9999998E-03;  2.8000000E-01;708;  0.0000000E+00;  0.0000000E+00;  0.0000000E+00;  1.0000000E+03;  1.0000000E-01;  0.0000000E+00;0;  0.0000000E+00;  0.0000000E+00;  0.0000000E+00;0;  2.6963008E-04;  4.0000000E+04;  0.0000000E+00;  0.0000000E+00;  4.0000000E+04;  0.0000000E+00;  4.0000000E+04;  2.6206797E-04;  0.0000000E+00;  7.5620933E-06;  1.6937292E+00;
 -1.3000000E-01;  9.9999998E-03;  2.8999999E-01;709;  0.0000000E+00;  0.0000000E+00;  0.0000000E+00;  1.0000025E+03;  1.0000000E-01;  2.0740154E+00;0;  0.0000000E+00;  0.0000000E+00;  0.0000000E+00;0;  2.1050972E-04;  4.0000000E+04;  0.0000000E+00;  0.0000000E+00;  4.0000000E+04;  0.0000000E+00;  4.0000000E+04;  2.0230797E-04;  0.0000000E+00;  8.2017477E-06;  6.7412467E+00;
 -1.3000000E-01;  9.9999998E-03;  3.0000001E-01;710;  0.0000000E+00;  0.0000000E+00;  0.0000000E+00;  1.0000000E+03;  1.0000000E-01;  0.0000000E+00;0;  0.0000000E+00;  0.0000000E+00;  0.0000000E+00;0;  1.5605647E-04;  4.0000000E+04;  0.0000000E+00;  0.0000000E+00;  4.0000000E+04;  0.0000000E+00;  4.0000000E+04;  1.4811057E-04;  0.0000000E+00;  7.9459023E-06;  1.2368958E+01;
 -1.3000000E-01;  9.9999998E-03;  3.1000000E-01;711;  0.0000000E+00;  0.0000000E+00;  0.0000000E+00;  1.0000000E+03;  1.0000000E-01;  0.0000000E+00;0;  0.0000000E+00;  0.0000000E+00;  0.0000000E+00;0;  1.0888508E-04;  4.0000000E+04;  0.0000000E+00;  0.0000000E+00;  4.0000000E+04;  0.0000000E+00;  4.0000000E+04;  1.0197366E-04;  0.0000000E+00;  6.9114208E-06;  1.4885283E+01;
 -1.3000000E-01;  9.9999998E-03;  3.1999999E-01;712;  0.0000000E+00;  0.0000000E+00;  0.0000000E+00;  1.0000000E+03;  1.0000000E-01;  0.0000000E+00;0;  0.0000000E+00;  0.0000000E+00;  0.0000000E+00;0;  7.0681657E-05;  4.0000000E+04;  0.0000000E+00;  0.0000000E+00;  4.0000000E+04;  0.0000000E+00;  4.0000000E+04;  6.5306725E-05;  0.0000000E+00;  5.3749336E-06;  1.4607994E+01;
 -1.3000000E-01;  9.9999998E-03;  3.3000001E-01;713;  0.0000000E+00;  0.0000000E+00;  0.0000000E+00;  1.0000000E+03;  1.0000000E-01;  0.0000000E+00;0;  0.0000000E+00;  0.0000000E+00;  0.0000000E+00;0;  4.2006192E-05;  4.0000000E+04;  0.0000000E+00;  0.0000000E+00;  4.0000000E+04;  0.0000000E+00;  4.0000000E+04;  3.8324692E-05;  0.0000000E+00;  3.6814990E-06;  1.2326030E+01;
 -1.3000000E-01;  9.9999998E-03;  3.4000000E-01;714;  0.0000000E+00;  0.0000000E+00;  0.0000000E+00;  1.0000000E+03;  1.0000000E-01;  0.0000000E+00;0;  0.0000000E+00;  0.0000000E+00;  0.0000000E+00;0;  2.2314940E-05;  4.0000000E+04;  0.0000000E+00;  0.0000000E+00;  4.0000000E+04;  0.0000000E+00;  4.0000000E+04;  2.0166444E-05;  0.0000000E+00;  2.1484950E-06;  9.0415220E+00;
 -1.3000000E-01;  9.9999998E-03;  3.4999999E-01;715;  0.0000000E+00;  0.0000000E+00;  0.0000000E+00;  1.0000000E+03;  1.0000000E-01;  0.0000000E+00;0;  0.0000000E+00;  0.0000000E+00;  0.0000000E+00;0;  1.0198380E-05;  4.0000000E+04;  0.0000000E+00;  0.0000000E+00;  4.0000000E+04;  0.0000000E+00;  4.0000000E+04;  9.2041264E-06;  0.0000000E+00;  9.9425290E-07;  5.7027240E+00;
 -1.3000000E-01;  9.9999998E-03;  3.6000001E-01;716;  0.0000000E+00;  0.0000000E+00;  0.0000000E+00;  1.0000000E+03;  1.0000000E-01;  0.0000000E+00;0;  0.0000000E+00;  0.0000000E+00;  0.0000000E+00;0;  3.7528496E-06;  4.0000000E+04;  0.0000000E+00;  0.0000000E+00;  4.0000000E+04;  0.0000000E+00;  4.0000000E+04;  3.4521702E-06;  0.0000000E+00;  3.0067935E-07;  2.9903619E+00;
 -1.3000000E-01;  9.9999998E-03;  3.7000000E-01;717;  0.0000000E+00;  0.0000000E+00;  0.0000000E+00;  1.0000000E+03;  1.0000000E-01;  0.0000000E+00;0;  0.0000000E+00;  0.0000000E+00;  0.0000000E+00;0;  9.7877808E-07;  4.0000000E+04;  0.0000000E+00;  0.0000000E+00;  4.0000000E+04;  0.0000000E+00;  4.0000000E+04;  9.6808651E-07;  0.0000000E+00;  1.0691541E-08;  1.2131667E+00;
 -1.3000000E-01;  9.9999998E-03;  3.8000000E-01;718;  0.0000000E+00;  0.0000000E+00;  0.0000000E+00;  1.0000000E+03;  1.0000000E-01;  0.0000000E+00;0;  0.0000000E+00;  0.0000000E+00;  0.0000000E+00;0;  1.3599225E-07;  4.0000000E+04;  0.0000000E+00;  0.0000000E+00;  4.0000000E+04;  0.0000000E+00;  4.0000000E+04;  1.6914022E-07;  0.0000000E+00; -3.3147963E-08;  3.2621828E-01;
 -1.3000000E-01;  9.9999998E-03;  3.8999999E-01;719;  0.0000000E+00;  0.0000000E+00;  0.0000000E+00;  1.0000000E+03;  1.0000000E-01;  0.0000000E+00;0;  0.0000000E+00;  0.0000000E+00;  0.0000000E+00;0;  9.0678167E-09;  4.0000000E+04;  0.0000000E+00;  0.0000000E+00;  4.0000000E+04;  0.0000000E+00;  4.0000000E+04;  1.4798298E-08;  0.0000000E+00; -5.7304805E-09;  3.7795369E-02;
 -1.3000000E-01;  9.9999998E-03;  4.0000001E-01;720;  0.0000000E+00;  0.0000000E+00;  0.0000000E+00;  1.0000000E+03;  1.0000000E-01;  0.0000000E+00;0;  0.0000000E+00;  0.0000000E+00;  0.0000000E+00;0;  0.0000000E+00;  4.0000000E+04;  0.0000000E+00;  0.0000000E+00;  4.0000000E+04;  0.0000000E+00;  4.0000000E+04;  0.0000000E+00;  0.0000000E+00;  0.0000000E+00;  0.0000000E+00;
 -1.2000000E-01;  9.9999998E-03;  2.3999999E-01;795;  0.0000000E+00;  0.0000000E+00;  0.0000000E+00;  1.0000000E+03;  1.0000000E-01;  0.0000000E+00;0;  0.0000000E+00;  0.0000000E+00;  0.0000000E+00;0;  1.0505356E-03;  4.0000000E+04;  0.0000000E+00;  0.0000000E+00;  4.0000000E+04;  0.0000000E+00;  4.0000000E+04;  1.0488502E-03;  0.0000000E+00;  1.6853471E-06;  9.4991455E+01;
 -1.2000000E-01;  9.9999998E-03;  2.5000000E-01;796;  0.0000000E+00;  0.0000000E+00;  0.0000000E+00;  1.0000000E+03;  1.0000000E-01;  0.0000000E+00;0;  0.0000000E+00;  0.0000000E+00;  0.0000000E+00;0;  9.4827008E-04;  4.0000000E+04;  0.0000000E+00;  0.0000000E+00;  4.0000000E+04;  0.0000000E+00;  4.0000000E+04;  9.4168750E-04;  0.0000000E+00;  6.5826016E-06;  7.5873398E+01;
 -1.2000000E-01;  9.9999998E-03;  2.5999999E-01;797;  0.0000000E+00;  0.0000000E+00;  0.0000000E+00;  1.0000000E+03;  1.0000000E-01;  0.0000000E+00;0;  0.0000000E+00;  0.0000000E+00;  0.0000000E+00;0;  8.3434558E-04;  4.0000000E+04;  0.0000000E+00;  0.0000000E+00;  4.0000000E+04;  0.0000000E+00;  4.0000000E+04;  8.2255458E-04;  0.0000000E+00;  1.1790997E-05;  5.2699238E+01;
 -1.2000000E-01;  9.9999998E-03;  2.7000001E-01;798;  0.0000000E+00;  0.0000000E+00;  0.0000000E+00;  1.0000000E+03;  1.0000000E-01;  0.0000000E+00;0;  0.0000000E+00;  0.0000000E+00;  0.0000000E+00;0;  7.1283424E-04;  4.0000000E+04;  0.0000000E+00;  0.0000000E+00;  4.0000000E+04;  0.0000000E+00;  4.0000000E+04;  6.9630676E-04;  0.0000000E+00;  1.6527460E-05;  2.7781607E+01;
 -1.2000000E-01;  9.9999998E-03;  2.8000000E-01;799;  0.0000000E+00;  0.0000000E+00;  0.0000000E+00;  1.0000000E+03;  1.0000000E-01;  0.0000000E+00;0;  0.0000000E+00;  0.0000000E+00;  0.0000000E+00;0;  5.8894244E-04;  4.0000000E+04;  0.0000000E+00;  0.0000000E+00;  4.0000000E+04;  0.0000000E+00;  4.0000000E+04;  5.6890264E-04;  0.0000000E+00;  2.0039766E-05;  4.0636101E+00;
 -1.2000000E-01;  9.9999998E-03;  2.8999999E-01;800;  0.0000000E+00;  0.0000000E+00;  0.0000000E+00;  1.0000000E+03;  1.0000000E-01;  0.0000000E+00;0;  0.0000000E+00;  0.0000000E+00;  0.0000000E+00;0;  4.6836975E-04;  4.0000000E+04;  0.0000000E+00;  0.0000000E+00;  4.0000000E+04;  0.0000000E+00;  4.0000000E+04;  4.4659094E-04;  0.0000000E+00;  2.1778815E-05;  1.6341631E+01;
 -1.2000000E-01;  9.9999998E-03;  3.0000001E-01;801;  0.0000000E+00;  0.0000000E+00;  0.0000000E+00;  1.0000049E+03;  1.0000000E-01;  4.0492682E+00;0;  0.0000000E+00;  0.0000000E+00;  0.0000000E+00;0;  3.5658904E-04;  4.0000000E+04;  0.0000000E+00;  0.0000000E+00;  4.0000000E+04;  0.0000000E+00;  4.0000000E+04;  3.3506230E-04;  0.0000000E+00;  2.1526739E-05;  3.0686401E+01;
 -1.2000000E-01;  9.9999998E-03;  3.1000000E-01;802;  0.0000000E+00;  0.0000000E+00;  0.0000000E+00;  1.0000146E+03;  1.0000000E-01;  1.2049042E+01;0;  0.0000000E+00;  0.0000000E+00;  0.0000000E+00;0;  2.5818648E-04;  4.0000000E+04;  0.0000000E+00;  0.0000000E+00;  4.0000000E+04;  0.0000000E+00;  4.0000000E+04;  2.3872881E-04;  0.0000000E+00;  1.9457659E-05;  3.8326962E+01;
 -1.2000000E-01;  9.9999998E-03;  3.1999999E-01;803;  0.0000000E+00;  0.0000000E+00;  0.0000000E+00;  1.0000133E+03;  1.0000000E-01;  1.1061416E+01;0;  0.0000000E+00;  0.0000000E+00;  0.0000000E+00;0;  1.7631054E-04;  4.0000000E+04;  0.0000000E+00;  0.0000000E+00;  4.0000000E+04;  0.0000000E+00;  4.0000000E+04;  1.6023318E-04;  0.0000000E+00;  1.6077360E-05;  3.9563557E+01;
 -1.2000000E-01;  9.9999998E-03;  3.3000001E-01;804;  0.0000000E+00;  0.0000000E+00;  0.0000000E+00;  1.0000000E+03;  1.0000000E-01;  0.0000000E+00;0;  0.0000000E+00;  0.0000000E+00;  0.0000000E+00;0;  1.1231245E-04;  4.0000000E+04;  0.0000000E+00;  0.0000000E+00;  4.0000000E+04;  0.0000000E+00;  4.0000000E+04;  1.0024956E-04;  0.0000000E+00;  1.2062886E-05;  3.5722954E+01;
 -1.2000000E-01;  9.9999998E-03;  3.4000000E-01;805;  0.0000000E+00;  0.0000000E+00;  0.0000000E+00;  1.0000000E+03;  1.0000000E-01;  0.0000000E+00;0;  0.0000000E+00;  0.0000000E+00;  0.0000000E+00;0;  6.5707543E-05;  4.0000000E+04;  0.0000000E+00;  0.0000000E+00;  4.0000000E+04;  0.0000000E+00;  4.0000000E+04;  5.7618912E-05;  0.0000000E+00;  8.0886348E-06;  2.8699272E+01;
 -1.2000000E-01;  9.9999998E-03;  3.4999999E-01;806;  0.0000000E+00;  0.0000000E+00;  0.0000000E+00;  1.0000000E+03;  1.0000000E-01;  0.0000000E+00;0;  0.0000000E+00;  0.0000000E+00;  0.0000000E+00;0;  3.4479381E-05;  4.0000000E+04;  0.0000000E+00;  0.0000000E+00;  4.0000000E+04;  0.0000000E+00;  4.0000000E+04;  2.9784795E-05;  0.0000000E+00;  4.6945870E-06;  2.0484535E+01;
 -1.2000000E-01;  9.9999998E-03;  3.6000001E-01;807;  0.0000000E+00;  0.0000000E+00;  0.0000000E+00;  1.0000000E+03;  1.0000000E-01;  0.0000000E+00;0;  0.0000000E+00;  0.0000000E+00;  0.0000000E+00;0;  1.5612855E-05;  4.0000000E+04;  0.0000000E+00;  0.0000000E+00;  4.0000000E+04;  0.0000000E+00;  4.0000000E+04;  1.3403824E-05;  0.0000000E+00;  2.2090310E-06;  1.2775359E+01;
 -1.2000000E-01;  9.9999998E-03;  3.7000000E-01;808;  0.0000000E+00;  0.0000000E+00;  0.0000000E+00;  1.0000000E+03;  1.0000000E-01;  0.0000000E+00;0;  0.0000000E+00;  0.0000000E+00;  0.0000000E+00;0;  5.6933859E-06;  4.0000000E+04;  0.0000000E+00;  0.0000000E+00;  4.0000000E+04;  0.0000000E+00;  4.0000000E+04;  4.9773107E-06;  0.0000000E+00;  7.1607536E-07;  6.7103701E+00;
 -1.2000000E-01;  9.9999998E-03;  3.8000000E-01;809;  0.0000000E+00;  0.0000000E+00;  0.0000000E+00;  1.0000000E+03;  1.0000000E-01;  0.0000000E+00;0;  0.0000000E+00;  0.0000000E+00;  0.0000000E+00;0;  1.4526349E-06;  4.0000000E+04;  0.0000000E+00;  0.0000000E+00;  4.0000000E+04;  0.0000000E+00;  4.0000000E+04;  1.3854406E-06;  0.0000000E+00;  6.7194378E-08;  2.7612910E+00;
 -1.2000000E-01;  9.9999998E-03;  3.8999999E-01;810;  0.0000000E+00;  0.0000000E+00;  0.0000000E+00;  1.0000000E+03;  1.0000000E-01;  0.0000000E+00;0;  0.0000000E+00;  0.0000000E+00;  0.0000000E+00;0;  1.8338528E-07;  4.0000000E+04;  0.0000000E+00;  0.0000000E+00;  4.0000000E+04;  0.0000000E+00;  4.0000000E+04;  2.4165448E-07;  0.0000000E+00; -5.8269190E-08;  7.6648325E-01;
 -1.2000000E-01;  9.9999998E-03;  4.0000001E-01;811;  0.0000000E+00;  0.0000000E+00;  0.0000000E+00;  1.0000000E+03;  1.0000000E-01;  0.0000000E+00;0;  0.0000000E+00;  0.0000000E+00;  0.0000000E+00;0;  5.3599285E-09;  4.0000000E+04;  0.0000000E+00;  0.0000000E+00;  4.0000000E+04;  0.0000000E+00;  4.0000000E+04;  1.9747167E-08;  0.0000000E+00; -1.4387239E-08;  1.0032135E-01;
 -1.1000000E-01;  9.9999998E-03;  2.3999999E-01;886;  0.0000000E+00;  0.0000000E+00;  0.0000000E+00;  1.0000000E+03;  1.0000000E-01;  0.0000000E+00;0;  0.0000000E+00;  0.0000000E+00;  0.0000000E+00;0;  1.9030891E-03;  4.0000000E+04;  0.0000000E+00;  0.0000000E+00;  4.0000000E+04;  0.0000000E+00;  4.0000000E+04;  1.8965423E-03;  0.0000000E+00;  6.5468967E-06;  1.8238644E+02;
 -1.1000000E-01;  9.9999998E-03;  2.5000000E-01;887;  0.0000000E+00;  0.0000000E+00;  0.0000000E+00;  1.0000000E+03;  1.0000000E-01;  0.0000000E+00;0;  0.0000000E+00;  0.0000000E+00;  0.0000000E+00;0;  1.7181194E-03;  4.0000000E+04;  0.0000000E+00;  0.0000000E+00;  4.0000000E+04;  0.0000000E+00;  4.0000000E+04;  1.7013137E-03;  0.0000000E+00;  1.6805772E-05;  1.4617540E+02;
 -1.1000000E-01;  9.9999998E-03;  2.5999999E-01;888;  0.0000000E+00;  0.0000000E+00;  0.0000000E+00;  1.0000000E+03;  1.0000000E-01;  0.0000000E+00;0;  0.0000000E+00;  0.0000000E+00;  0.0000000E+00;0;  1.5158583E-03;  4.0000000E+04;  0.0000000E+00;  0.0000000E+00;  4.0000000E+04;  0.0000000E+00;  4.0000000E+04;  1.4884108E-03;  0.0000000E+00;  2.7447562E-05;  1.0200285E+02;
 -1.1000000E-01;  9.9999998E-03;  2.7000001E-01;889;  0.0000000E+00;  0.0000000E+00;  0.0000000E+00;  1.0000000E+03;  1.0000000E-01;  0.0000000E+00;0;  0.0000000E+00;  0.0000000E+00;  0.0000000E+00;0;  1.3027020E-03;  4.0000000E+04;  0.0000000E+00;  0.0000000E+00;  4.0000000E+04;  0.0000000E+00;  4.0000000E+04;  1.2656462E-03;  0.0000000E+00;  3.7055772E-05;  5.4130123E+01;
 -1.1000000E-01;  9.9999998E-03;  2.8000000E-01;890;  0.0000000E+00;  0.0000000E+00;  0.0000000E+00;  1.0000000E+03;  1.0000000E-01;  0.0000000E+00;0;  0.0000000E+00;  0.0000000E+00;  0.0000000E+00;0;  1.0866472E-03;  4.0000000E+04;  0.0000000E+00;  0.0000000E+00;  4.0000000E+04;  0.0000000E+00;  4.0000000E+04;  1.0423684E-03;  0.0000000E+00;  4.4278768E-05;  9.0241451E+00;
 -1.1000000E-01;  9.9999998E-03;  2.8999999E-01;891;  0.0000000E+00;  0.0000000E+00;  0.0000000E+00;  1.0000000E+03;  1.0000000E-01;  0.0000000E+00;0;  0.0000000E+00;  0.0000000E+00;  0.0000000E+00;0;  8.7639311E-04;  4.0000000E+04;  0.0000000E+00;  0.0000000E+00;  4.0000000E+04;  0.0000000E+00;  4.0000000E+04;  8.2828064E-04;  0.0000000E+00;  4.8112463E-05;  3.3741886E+01;
 -1.1000000E-01;  9.9999998E-03;  3.0000001E-01;892;  0.0000000E+00;  0.0000000E+00;  0.0000000E+00;  1.0000000E+03;  1.0000000E-01;  0.0000000E+00;0;  0.0000000E+00;  0.0000000E+00;  0.0000000E+00;0;  6.8034814E-04;  4.0000000E+04;  0.0000000E+00;  0.0000000E+00;  4.0000000E+04;  0.0000000E+00;  4.0000000E+04;  6.3223310E-04;  0.0000000E+00;  4.8115049E-05;  6.3683083E+01;
 -1.1000000E-01;  9.9999998E-03;  3.1000000E-01;893;  0.0000000E+00;  0.0000000E+00;  0.0000000E+00;  1.0000000E+03;  1.0000000E-01;  0.0000000E+00;0;  0.0000000E+00;  0.0000000E+00;  0.0000000E+00;0;  5.0570176E-04;  4.0000000E+04;  0.0000000E+00;  0.0000000E+00;  4.0000000E+04;  0.0000000E+00;  4.0000000E+04;  4.6117508E-04;  0.0000000E+00;  4.4526660E-05;  8.1413315E+01;
 -1.1000000E-01;  9.9999998E-03;  3.1999999E-01;894;  0.0000000E+00;  0.0000000E+00;  0.0000000E+00;  1.0000166E+03;  1.0000000E-01;  1.3728006E+01;0;  0.0000000E+00;  0.0000000E+00;  0.0000000E+00;0;  3.5762988E-04;  4.0000000E+04;  0.0000000E+00;  0.0000000E+00;  4.0000000E+04;  0.0000000E+00;  4.0000000E+04;  3.1944495E-04;  0.0000000E+00;  3.8184917E-05;  8.6883705E+01;
 -1.1000000E-01;  9.9999998E-03;  3.3000001E-01;895;  0.0000000E+00;  0.0000000E+00;  0.0000000E+00;  1.0000227E+03;  1.0000000E-01;  1.8764902E+01;0;  0.0000000E+00;  0.0000000E+00;  0.0000000E+00;0;  2.3870566E-04;  4.0000000E+04;  0.0000000E+00;  0.0000000E+00;  4.0000000E+04;  0.0000000E+00;  4.0000000E+04;  2.0844277E-04;  0.0000000E+00;  3.0262887E-05;  8.2009117E+01;
 -1.1000000E-01;  9.9999998E-03;  3.4000000E-01;896;  0.0000000E+00;  0.0000000E+00;  0.0000000E+00;  1.0000266E+03;  1.0000000E-01;  2.2024069E+01;0;  0.0000000E+00;  0.0000000E+00;  0.0000000E+00;0;  1.4874384E-04;  4.0000000E+04;  0.0000000E+00;  0.0000000E+00;  4.0000000E+04;  0.0000000E+00;  4.0000000E+04;  1.2676661E-04;  0.0000000E+00;  2.1977237E-05;  6.9866638E+01;
 -1.1000000E-01;  9.9999998E-03;  3.4999999E-01;897;  0.0000000E+00;  0.0000000E+00;  0.0000000E+00;  1.0000000E+03;  1.0000000E-01;  0.0000000E+00;0;  0.0000000E+00;  0.0000000E+00;  0.0000000E+00;0;  8.5155749E-05;  4.0000000E+04;  0.0000000E+00;  0.0000000E+00;  4.0000000E+04;  0.0000000E+00;  4.0000000E+04;  7.0786657E-05;  0.0000000E+00;  1.4369091E-05;  5.3915295E+01;
 -1.1000000E-01;  9.9999998E-03;  3.6000001E-01;898;  0.0000000E+00;  0.0000000E+00;  0.0000000E+00;  1.0000000E+03;  1.0000000E-01;  0.0000000E+00;0;  0.0000000E+00;  0.0000000E+00;  0.0000000E+00;0;  4.3677119E-05;  4.0000000E+04;  0.0000000E+00;  0.0000000E+00;  4.0000000E+04;  0.0000000E+00;  4.0000000E+04;  3.5498739E-05;  0.0000000E+00;  8.1783792E-06;  3.7369102E+01;
 -1.1000000E-01;  9.9999998E-03;  3.7000000E-01;899;  0.0000000E+00;  0.0000000E+00;  0.0000000E+00;  1.0000000E+03;  1.0000000E-01;  0.0000000E+00;0;  0.0000000E+00;  0.0000000E+00;  0.0000000E+00;0;  1.9230385E-05;  4.0000000E+04;  0.0000000E+00;  0.0000000E+00;  4.0000000E+04;  0.0000000E+00;  4.0000000E+04;  1.5441376E-05;  0.0000000E+00;  3.7890097E-06;  2.2762171E+01;
 -1.1000000E-01;  9.9999998E-03;  3.8000000E-01;900;  0.0000000E+00;  0.0000000E+00;  0.0000000E+00;  1.0000000E+03;  1.0000000E-01;  0.0000000E+00;0;  0.0000000E+00;  0.0000000E+00;  0.0000000E+00;0;  6.7096744E-06;  4.0000000E+04;  0.0000000E+00;  0.0000000E+00;  4.0000000E+04;  0.0000000E+00;  4.0000000E+04;  5.4937263E-06;  0.0000000E+00;  1.2159481E-06;  1.1684830E+01;
 -1.1000000E-01;  9.9999998E-03;  3.8999999E-01;901;  0.0000000E+00;  0.0000000E+00;  0.0000000E+00;  1.0000000E+03;  1.0000000E-01;  0.0000000E+00;0;  0.0000000E+00;  0.0000000E+00;  0.0000000E+00;0;  1.5573135E-06;  4.0000000E+04;  0.0000000E+00;  0.0000000E+00;  4.0000000E+04;  0.0000000E+00;  4.0000000E+04;  1.4356640E-06;  0.0000000E+00;  1.2164942E-07;  4.6742768E+00;
 -1.1000000E-01;  9.9999998E-03;  4.0000001E-01;902;  0.0000000E+00;  0.0000000E+00;  0.0000000E+00;  1.0000000E+03;  1.0000000E-01;  0.0000000E+00;0;  0.0000000E+00;  0.0000000E+00;  0.0000000E+00;0;  1.3522683E-07;  4.0000000E+04;  0.0000000E+00;  0.0000000E+00;  4.0000000E+04;  0.0000000E+00;  4.0000000E+04;  2.2046476E-07;  0.0000000E+00; -8.5237922E-08;  1.2478796E+00;
 -1.0000000E-01;  9.9999998E-03;  2.3999999E-01;977;  0.0000000E+00;  0.0000000E+00;  0.0000000E+00;  1.0000000E+03;  1.0000000E-01;  0.0000000E+00;0;  0.0000000E+00;  0.0000000E+00;  0.0000000E+00;0;  3.0770593E-03;  4.0000000E+04;  0.0000000E+00;  0.0000000E+00;  4.0000000E+04;  0.0000000E+00;  4.0000000E+04;  3.0602976E-03;  0.0000000E+00;  1.6761685E-05;  3.1247989E+02;
 -1.0000000E-01;  9.9999998E-03;  2.5000000E-01;978;  0.0000000E+00;  0.0000000E+00;  0.0000000E+00;  1.0000000E+03;  1.0000000E-01;  0.0000000E+00;0;  0.0000000E+00;  0.0000000E+00;  0.0000000E+00;0;  2.7809485E-03;  4.0000000E+04;  0.0000000E+00;  0.0000000E+00;  4.0000000E+04;  0.0000000E+00;  4.0000000E+04;  2.7450551E-03;  0.0000000E+00;  3.5893350E-05;  2.5127159E+02;
 -1.0000000E-01;  9.9999998E-03;  2.5999999E-01;979;  0.0000000E+00;  0.0000000E+00;  0.0000000E+00;  1.0000000E+03;  1.0000000E-01;  0.0000000E+00;0;  0.0000000E+00;  0.0000000E+00;  0.0000000E+00;0;  2.4608071E-03;  4.0000000E+04;  0.0000000E+00;  0.0000000E+00;  4.0000000E+04;  0.0000000E+00;  4.0000000E+04;  2.4054493E-03;  0.0000000E+00;  5.5357697E-05;  1.7618889E+02;
 -1.0000000E-01;  9.9999998E-03;  2.7000001E-01;980;  0.0000000E+00;  0.0000000E+00;  0.0000000E+00;  1.0000000E+03;  1.0000000E-01;  0.0000000E+00;0;  0.0000000E+00;  0.0000000E+00;  0.0000000E+00;0;  2.1257552E-03;  4.0000000E+04;  0.0000000E+00;  0.0000000E+00;  4.0000000E+04;  0.0000000E+00;  4.0000000E+04;  2.0529442E-03;  0.0000000E+00;  7.2810923E-05;  9.4404160E+01;
 -1.0000000E-01;  9.9999998E-03;  2.8000000E-01;981;  0.0000000E+00;  0.0000000E+00;  0.0000000E+00;  1.0000000E+03;  1.0000000E-01;  0.0000000E+00;0;  0.0000000E+00;  0.0000000E+00;  0.0000000E+00;0;  1.7870985E-03;  4.0000000E+04;  0.0000000E+00;  0.0000000E+00;  4.0000000E+04;  0.0000000E+00;  4.0000000E+04;  1.7010679E-03;  0.0000000E+00;  8.6030581E-05;  2.0216404E+01;
 -1.0000000E-01;  9.9999998E-03;  2.8999999E-01;982;  0.0000000E+00;  0.0000000E+00;  0.0000000E+00;  1.0000000E+03;  1.0000000E-01;  0.0000000E+00;0;  0.0000000E+00;  0.0000000E+00;  0.0000000E+00;0;  1.4571713E-03;  4.0000000E+04;  0.0000000E+00;  0.0000000E+00;  4.0000000E+04;  0.0000000E+00;  4.0000000E+04;  1.3638203E-03;  0.0000000E+00;  9.3351016E-05;  6.2296497E+01;
 -1.0000000E-01;  9.9999998E-03;  3.0000001E-01;983;  0.0000000E+00;  0.0000000E+00;  0.0000000E+00;  1.0000111E+03;  1.0000000E-01;  9.1849251E+00;0;  0.0000000E+00;  0.0000000E+00;  0.0000000E+00;0;  1.1479937E-03;  4.0000000E+04;  0.0000000E+00;  0.0000000E+00;  4.0000000E+04;  0.0000000E+00;  4.0000000E+04;  1.0539935E-03;  0.0000000E+00;  9.4000221E-05;  1.1658091E+02;
 -1.0000000E-01;  9.9999998E-03;  3.1000000E-01;984;  0.0000000E+00;  0.0000000E+00;  0.0000000E+00;  1.0000056E+03;  1.0000000E-01;  4.6418438E+00;0;  0.0000000E+00;  0.0000000E+00;  0.0000000E+00;0;  8.7004266E-04;  4.0000000E+04;  0.0000000E+00;  0.0000000E+00;  4.0000000E+04;  0.0000000E+00;  4.0000000E+04;  7.8173570E-04;  0.0000000E+00;  8.8306952E-05;  1.5122946E+02;
 -1.0000000E-01;  9.9999998E-03;  3.1999999E-01;985;  0.0000000E+00;  0.0000000E+00;  0.0000000E+00;  1.0000140E+03;  1.0000000E-01;  1.1653992E+01;0;  0.0000000E+00;  0.0000000E+00;  0.0000000E+00;0;  6.3113496E-04;  4.0000000E+04;  0.0000000E+00;  0.0000000E+00;  4.0000000E+04;  0.0000000E+00;  4.0000000E+04;  5.5355288E-04;  0.0000000E+00;  7.7582074E-05;  1.6512674E+02;
 -1.0000000E-01;  9.9999998E-03;  3.3000001E-01;986;  0.0000000E+00;  0.0000000E+00;  0.0000000E+00;  1.0000089E+03;  1.0000000E-01;  7.4071980E+00;0;  0.0000000E+00;  0.0000000E+00;  0.0000000E+00;0;  4.3553917E-04;  4.0000000E+04;  0.0000000E+00;  0.0000000E+00;  4.0000000E+04;  0.0000000E+00;  4.0000000E+04;  3.7183193E-04;  0.0000000E+00;  6.3707230E-05;  1.6072673E+02;
 -1.0000000E-01;  9.9999998E-03;  3.4000000E-01;987;  0.0000000E+00;  0.0000000E+00;  0.0000000E+00;  1.0000366E+03;  1.0000000E-01;  3.0320129E+01;0;  0.0000000E+00;  0.0000000E+00;  0.0000000E+00;0;  2.8364500E-04;  4.0000000E+04;  0.0000000E+00;  0.0000000E+00;  4.0000000E+04;  0.0000000E+00;  4.0000000E+04;  2.3497368E-04;  0.0000000E+00;  4.8671314E-05;  1.4255499E+02;
 -1.0000000E-01;  9.9999998E-03;  3.4999999E-01;988;  0.0000000E+00;  0.0000000E+00;  0.0000000E+00;  1.0000374E+03;  1.0000000E-01;  3.0912706E+01;0;  0.0000000E+00;  0.0000000E+00;  0.0000000E+00;0;  1.7234878E-04;  4.0000000E+04;  0.0000000E+00;  0.0000000E+00;  4.0000000E+04;  0.0000000E+00;  4.0000000E+04;  1.3812212E-04;  0.0000000E+00;  3.4226654E-05;  1.1597741E+02;
 -1.0000000E-01;  9.9999998E-03;  3.6000001E-01;989;  0.0000000E+00;  0.0000000E+00;  0.0000000E+00;  1.0000137E+03;  1.0000000E-01;  1.1357703E+01;0;  0.0000000E+00;  0.0000000E+00;  0.0000000E+00;0;  9.6011121E-05;  4.0000000E+04;  0.0000000E+00;  0.0000000E+00;  4.0000000E+04;  0.0000000E+00;  4.0000000E+04;  7.4305339E-05;  0.0000000E+00;  2.1705780E-05;  8.6232185E+01;
 -1.0000000E-01;  9.9999998E-03;  3.7000000E-01;990;  0.0000000E+00;  0.0000000E+00;  0.0000000E+00;  1.0000000E+03;  1.0000000E-01;  0.0000000E+00;0;  0.0000000E+00;  0.0000000E+00;  0.0000000E+00;0;  4.7646008E-05;  4.0000000E+04;  0.0000000E+00;  0.0000000E+00;  4.0000000E+04;  0.0000000E+00;  4.0000000E+04;  3.5692865E-05;  0.0000000E+00;  1.1953144E-05;  5.7789967E+01;
 -1.0000000E-01;  9.9999998E-03;  3.8000000E-01;991;  0.0000000E+00;  0.0000000E+00;  0.0000000E+00;  1.0000000E+03;  1.0000000E-01;  0.0000000E+00;0;  0.0000000E+00;  0.0000000E+00;  0.0000000E+00;0;  2.0012709E-05;  4.0000000E+04;  0.0000000E+00;  0.0000000E+00;  4.0000000E+04;  0.0000000E+00;  4.0000000E+04;  1.4708027E-05;  0.0000000E+00;  5.3046815E-06;  3.3966095E+01;
 -1.0000000E-01;  9.9999998E-03;  3.8999999E-01;992;  0.0000000E+00;  0.0000000E+00;  0.0000000E+00;  1.0000000E+03;  1.0000000E-01;  0.0000000E+00;0;  0.0000000E+00;  0.0000000E+00;  0.0000000E+00;0;  6.4280844E-06;  4.0000000E+04;  0.0000000E+00;  0.0000000E+00;  4.0000000E+04;  0.0000000E+00;  4.0000000E+04;  4.8472589E-06;  0.0000000E+00;  1.5808255E-06;  1.6668118E+01;
 -1.0000000E-01;  9.9999998E-03;  4.0000001E-01;993;  0.0000000E+00;  0.0000000E+00;  0.0000000E+00;  1.0000000E+03;  1.0000000E-01;  0.0000000E+00;0;  0.0000000E+00;  0.0000000E+00;  0.0000000E+00;0;  1.2236737E-06;  4.0000000E+04;  0.0000000E+00;  0.0000000E+00;  4.0000000E+04;  0.0000000E+00;  4.0000000E+04;  1.1115068E-06;  0.0000000E+00;  1.1216694E-07;  6.2456970E+00;
 -9.0000004E-02;  9.9999998E-03;  2.3999999E-01;1068;  0.0000000E+00;  0.0000000E+00;  0.0000000E+00;  1.0000000E+03;  1.0000000E-01;  0.0000000E+00;0;  0.0000000E+00;  0.0000000E+00;  0.0000000E+00;0;  4.5837490E-03;  4.0000000E+04;  0.0000000E+00;  0.0000000E+00;  4.0000000E+04;  0.0000000E+00;  4.0000000E+04;  4.5487843E-03;  0.0000000E+00;  3.4964545E-05;  4.9244177E+02;
 -9.0000004E-02;  9.9999998E-03;  2.5000000E-01;1069;  0.0000000E+00;  0.0000000E+00;  0.0000000E+00;  1.0000000E+03;  1.0000000E-01;  0.0000000E+00;0;  0.0000000E+00;  0.0000000E+00;  0.0000000E+00;0;  4.1488162E-03;  4.0000000E+04;  0.0000000E+00;  0.0000000E+00;  4.0000000E+04;  0.0000000E+00;  4.0000000E+04;  4.0811803E-03;  0.0000000E+00;  6.7636087E-05;  3.9746487E+02;
 -9.0000004E-02;  9.9999998E-03;  2.5999999E-01;1070;  0.0000000E+00;  0.0000000E+00;  0.0000000E+00;  1.0000000E+03;  1.0000000E-01;  0.0000000E+00;0;  0.0000000E+00;  0.0000000E+00;  0.0000000E+00;0;  3.6818017E-03;  4.0000000E+04;  0.0000000E+00;  0.0000000E+00;  4.0000000E+04;  0.0000000E+00;  4.0000000E+04;  3.5814340E-03;  0.0000000E+00;  1.0036770E-04;  2.8033609E+02;
 -9.0000004E-02;  9.9999998E-03;  2.7000001E-01;1071;  0.0000000E+00;  0.0000000E+00;  0.0000000E+00;  1.0000000E+03;  1.0000000E-01;  0.0000000E+00;0;  0.0000000E+00;  0.0000000E+00;  0.0000000E+00;0;  3.1948525E-03;  4.0000000E+04;  0.0000000E+00;  0.0000000E+00;  4.0000000E+04;  0.0000000E+00;  4.0000000E+04;  3.0653279E-03;  0.0000000E+00;  1.2952472E-04;  1.5250040E+02;
 -9.0000004E-02;  9.9999998E-03;  2.8000000E-01;1072;  0.0000000E+00;  0.0000000E+00;  0.0000000E+00;  1.0000000E+03;  1.0000000E-01;  0.0000000E+00;0;  0.0000000E+00;  0.0000000E+00;  0.0000000E+00;0;  2.7031021E-03;  4.0000000E+04;  0.0000000E+00;  0.0000000E+00;  4.0000000E+04;  0.0000000E+00;  4.0000000E+04;  2.5514215E-03;  0.0000000E+00;  1.5168055E-04;  4.2787209E+01;
 -9.0000004E-02;  9.9999998E-03;  2.8999999E-01;1073;  0.0000000E+00;  0.0000000E+00;  0.0000000E+00;  1.0000134E+03;  1.0000000E-01;  1.1061416E+01;0;  0.0000000E+00;  0.0000000E+00;  0.0000000E+00;0;  2.2231664E-03;  4.0000000E+04;  0.0000000E+00;  0.0000000E+00;  4.0000000E+04;  0.0000000E+00;  4.0000000E+04;  2.0589058E-03;  0.0000000E+00;  1.6426055E-04;  1.0601895E+02;
 -9.0000004E-02;  9.9999998E-03;  3.0000001E-01;1074;  0.0000000E+00;  0.0000000E+00;  0.0000000E+00;  1.0000559E+03;  1.0000000E-01;  4.6319679E+01;0;  0.0000000E+00;  0.0000000E+00;  0.0000000E+00;0;  1.7714243E-03;  4.0000000E+04;  0.0000000E+00;  0.0000000E+00;  4.0000000E+04;  0.0000000E+00;  4.0000000E+04;  1.6053780E-03;  0.0000000E+00;  1.6604635E-04;  1.9454999E+02;
 -9.0000004E-02;  9.9999998E-03;  3.1000000E-01;1075;  0.0000000E+00;  0.0000000E+00;  0.0000000E+00;  1.0000484E+03;  1.0000000E-01;  4.0097630E+01;0;  0.0000000E+00;  0.0000000E+00;  0.0000000E+00;0;  1.3624027E-03;  4.0000000E+04;  0.0000000E+00;  0.0000000E+00;  4.0000000E+04;  0.0000000E+00;  4.0000000E+04;  1.2048961E-03;  0.0000000E+00;  1.5750650E-04;  2.5447444E+02;
 -9.0000004E-02;  9.9999998E-03;  3.1999999E-01;1076;  0.0000000E+00;  0.0000000E+00;  0.0000000E+00;  1.0000699E+03;  1.0000000E-01;  5.7874905E+01;0;  0.0000000E+00;  0.0000000E+00;  0.0000000E+00;0;  1.0072421E-03;  4.0000000E+04;  0.0000000E+00;  0.0000000E+00;  4.0000000E+04;  0.0000000E+00;  4.0000000E+04;  8.6661713E-04;  0.0000000E+00;  1.4062499E-04;  2.8230942E+02;
 -9.0000004E-02;  9.9999998E-03;  3.3000001E-01;1077;  0.0000000E+00;  0.0000000E+00;  0.0000000E+00;  1.0000526E+03;  1.0000000E-01;  4.3554325E+01;0;  0.0000000E+00;  0.0000000E+00;  0.0000000E+00;0;  7.1240793E-04;  4.0000000E+04;  0.0000000E+00;  0.0000000E+00;  4.0000000E+04;  0.0000000E+00;  4.0000000E+04;  5.9413858E-04;  0.0000000E+00;  1.1826934E-04;  2.8085739E+02;
 -9.0000004E-02;  9.9999998E-03;  3.4000000E-01;1078;  0.0000000E+00;  0.0000000E+00;  0.0000000E+00;  1.0000413E+03;  1.0000000E-01;  3.4171871E+01;0;  0.0000000E+00;  0.0000000E+00;  0.0000000E+00;0;  4.7914081E-04;  4.0000000E+04;  0.0000000E+00;  0.0000000E+00;  4.0000000E+04;  0.0000000E+00;  4.0000000E+04;  3.8565532E-04;  0.0000000E+00;  9.3485491E-05;  2.5634653E+02;
 -9.0000004E-02;  9.9999998E-03;  3.4999999E-01;1079;  0.0000000E+00;  0.0000000E+00;  0.0000000E+00;  1.0000502E+03;  1.0000000E-01;  4.1579071E+01;0;  0.0000000E+00;  0.0000000E+00;  0.0000000E+00;0;  3.0386518E-04;  4.0000000E+04;  0.0000000E+00;  0.0000000E+00;  4.0000000E+04;  0.0000000E+00;  4.0000000E+04;  2.3488379E-04;  0.0000000E+00;  6.8981382E-05;  2.1649069E+02;
 -9.0000004E-02;  9.9999998E-03;  3.6000001E-01;1080;  0.0000000E+00;  0.0000000E+00;  0.0000000E+00;  1.0000438E+03;  1.0000000E-01;  3.6245888E+01;0;  0.0000000E+00;  0.0000000E+00;  0.0000000E+00;0;  1.7941407E-04;  4.0000000E+04;  0.0000000E+00;  0.0000000E+00;  4.0000000E+04;  0.0000000E+00;  4.0000000E+04;  1.3254177E-04;  0.0000000E+00;  4.6872297E-05;  1.6905917E+02;
 -9.0000004E-02;  9.9999998E-03;  3.7000000E-01;1081;  0.0000000E+00;  0.0000000E+00;  0.0000000E+00;  1.0000407E+03;  1.0000000E-01;  3.3776821E+01;0;  0.0000000E+00;  0.0000000E+00;  0.0000000E+00;0;  9.6622840E-05;  4.0000000E+04;  0.0000000E+00;  0.0000000E+00;  4.0000000E+04;  0.0000000E+00;  4.0000000E+04;  6.8009496E-05;  0.0000000E+00;  2.8613340E-05;  1.2097872E+02;
 -9.0000004E-02;  9.9999998E-03;  3.8000000E-01;1082;  0.0000000E+00;  0.0000000E+00;  0.0000000E+00;  1.0000000E+03;  1.0000000E-01;  0.0000000E+00;0;  0.0000000E+00;  0.0000000E+00;  0.0000000E+00;0;  4.5814420E-05;  4.0000000E+04;  0.0000000E+00;  0.0000000E+00;  4.0000000E+04;  0.0000000E+00;  4.0000000E+04;  3.0812083E-05;  0.0000000E+00;  1.5002337E-05;  7.7818237E+01;
 -9.0000004E-02;  9.9999998E-03;  3.8999999E-01;1083;  0.0000000E+00;  0.0000000E+00;  0.0000000E+00;  1.0000000E+03;  1.0000000E-01;  0.0000000E+00;0;  0.0000000E+00;  0.0000000E+00;  0.0000000E+00;0;  1.7907467E-05;  4.0000000E+04;  0.0000000E+00;  0.0000000E+00;  4.0000000E+04;  0.0000000E+00;  4.0000000E+04;  1.1729529E-05;  0.0000000E+00;  6.1779369E-06;  4.3476768E+01;
 -9.0000004E-02;  9.9999998E-03;  4.0000001E-01;1084;  0.0000000E+00;  0.0000000E+00;  0.0000000E+00;  1.0000000E+03;  1.0000000E-01;  0.0000000E+00;0;  0.0000000E+00;  0.0000000E+00;  0.0000000E+00;0;  5.0034328E-06;  4.0000000E+04;  0.0000000E+00;  0.0000000E+00;  4.0000000E+04;  0.0000000E+00;  4.0000000E+04;  3.4168020E-06;  0.0000000E+00;  1.5866309E-06;  1.9875256E+01;
 -7.9999998E-02;  9.9999998E-03;  2.3999999E-01;1159;  0.0000000E+00;  0.0000000E+00;  0.0000000E+00;  1.0000734E+03;  1.0000000E-01;  6.0837784E+01;0;  0.0000000E+00;  0.0000000E+00;  0.0000000E+00;0;  6.4106029E-03;  4.0000000E+04;  0.0000000E+00;  0.0000000E+00;  4.0000000E+04;  0.0000000E+00;  4.0000000E+04;  6.3467962E-03;  0.0000000E+00;  6.3806619E-05;  7.2727399E+02;
 -7.9999998E-02;  9.9999998E-03;  2.5000000E-01;1160;  0.0000000E+00;  0.0000000E+00;  0.0000000E+00;  1.0000731E+03;  1.0000000E-01;  6.0541496E+01;0;  0.0000000E+00;  0.0000000E+00;  0.0000000E+00;0;  5.8121234E-03;  4.0000000E+04;  0.0000000E+00;  0.0000000E+00;  4.0000000E+04;  0.0000000E+00;  4.0000000E+04;  5.6963018E-03;  0.0000000E+00;  1.1582176E-04;  5.8955219E+02;
 -7.9999998E-02;  9.9999998E-03;  2.5999999E-01;1161;  0.0000000E+00;  0.0000000E+00;  0.0000000E+00;  1.0000756E+03;  1.0000000E-01;  6.2615513E+01;0;  0.0000000E+00;  0.0000000E+00;  0.0000000E+00;0;  5.1718699E-03;  4.0000000E+04;  0.0000000E+00;  0.0000000E+00;  4.0000000E+04;  0.0000000E+00;  4.0000000E+04;  5.0045545E-03;  0.0000000E+00;  1.6731519E-04;  4.1872382E+02;
 -7.9999998E-02;  9.9999998E-03;  2.7000001E-01;1162;  0.0000000E+00;  0.0000000E+00;  0.0000000E+00;  1.0001041E+03;  1.0000000E-01;  8.6219780E+01;0;  0.0000000E+00;  0.0000000E+00;  0.0000000E+00;0;  4.5052725E-03;  4.0000000E+04;  0.0000000E+00;  0.0000000E+00;  4.0000000E+04;  0.0000000E+00;  4.0000000E+04;  4.2923610E-03;  0.0000000E+00;  2.1291153E-04;  2.3229388E+02;
 -7.9999998E-02;  9.9999998E-03;  2.8000000E-01;1163;  0.0000000E+00;  0.0000000E+00;  0.0000000E+00;  1.0001321E+03;  1.0000000E-01;  1.0942900E+02;0;  0.0000000E+00;  0.0000000E+00;  0.0000000E+00;0;  3.8317593E-03;  4.0000000E+04;  0.0000000E+00;  0.0000000E+00;  4.0000000E+04;  0.0000000E+00;  4.0000000E+04;  3.5841931E-03;  0.0000000E+00;  2.4756623E-04;  8.1240219E+01;
 -7.9999998E-02;  9.9999998E-03;  2.8999999E-01;1164;  0.0000000E+00;  0.0000000E+00;  0.0000000E+00;  1.0001470E+03;  1.0000000E-01;  1.2177433E+02;0;  0.0000000E+00;  0.0000000E+00;  0.0000000E+00;0;  3.1729434E-03;  4.0000000E+04;  0.0000000E+00;  0.0000000E+00;  4.0000000E+04;  0.0000000E+00;  4.0000000E+04;  2.9054456E-03;  0.0000000E+00;  2.6749785E-04;  1.6905626E+02;
 -7.9999998E-02;  9.9999998E-03;  3.0000001E-01;1165;  0.0000000E+00;  0.0000000E+00;  0.0000000E+00;  1.0001599E+03;  1.0000000E-01;  1.3244070E+02;0;  0.0000000E+00;  0.0000000E+00;  0.0000000E+00;0;  2.5503917E-03;  4.0000000E+04;  0.0000000E+00;  0.0000000E+00;  4.0000000E+04;  0.0000000E+00;  4.0000000E+04;  2.2794679E-03;  0.0000000E+00;  2.7092392E-04;  3.0217700E+02;
 -7.9999998E-02;  9.9999998E-03;  3.1000000E-01;1166;  0.0000000E+00;  0.0000000E+00;  0.0000000E+00;  1.0001476E+03;  1.0000000E-01;  1.2236691E+02;0;  0.0000000E+00;  0.0000000E+00;  0.0000000E+00;0;  1.9835369E-03;  4.0000000E+04;  0.0000000E+00;  0.0000000E+00;  4.0000000E+04;  0.0000000E+00;  4.0000000E+04;  1.7249832E-03;  0.0000000E+00;  2.5855360E-04;  3.9668875E+02;
 -7.9999998E-02;  9.9999998E-03;  3.1999999E-01;1167;  0.0000000E+00;  0.0000000E+00;  0.0000000E+00;  1.0001417E+03;  1.0000000E-01;  1.1742878E+02;0;  0.0000000E+00;  0.0000000E+00;  0.0000000E+00;0;  1.4875946E-03;  4.0000000E+04;  0.0000000E+00;  0.0000000E+00;  4.0000000E+04;  0.0000000E+00;  4.0000000E+04;  1.2542683E-03;  0.0000000E+00;  2.3332627E-04;  4.4485229E+02;
 -7.9999998E-02;  9.9999998E-03;  3.3000001E-01;1168;  0.0000000E+00;  0.0000000E+00;  0.0000000E+00;  1.0001354E+03;  1.0000000E-01;  1.1219436E+02;0;  0.0000000E+00;  0.0000000E+00;  0.0000000E+00;0;  1.0717548E-03;  4.0000000E+04;  0.0000000E+00;  0.0000000E+00;  4.0000000E+04;  0.0000000E+00;  4.0000000E+04;  8.7229529E-04;  0.0000000E+00;  1.9945949E-04;  4.4952924E+02;
 -7.9999998E-02;  9.9999998E-03;  3.4000000E-01;1169;  0.0000000E+00;  0.0000000E+00;  0.0000000E+00;  1.0001107E+03;  1.0000000E-01;  9.1651726E+01;0;  0.0000000E+00;  0.0000000E+00;  0.0000000E+00;0;  7.3835050E-04;  4.0000000E+04;  0.0000000E+00;  0.0000000E+00;  4.0000000E+04;  0.0000000E+00;  4.0000000E+04;  5.7694502E-04;  0.0000000E+00;  1.6140548E-04;  4.1888477E+02;
 -7.9999998E-02;  9.9999998E-03;  3.4999999E-01;1170;  0.0000000E+00;  0.0000000E+00;  0.0000000E+00;  1.0000714E+03;  1.0000000E-01;  5.9158821E+01;0;  0.0000000E+00;  0.0000000E+00;  0.0000000E+00;0;  4.8332452E-04;  4.0000000E+04;  0.0000000E+00;  0.0000000E+00;  4.0000000E+04;  0.0000000E+00;  4.0000000E+04;  3.6021625E-04;  0.0000000E+00;  1.2310827E-04;  3.6345142E+02;
 -7.9999998E-02;  9.9999998E-03;  3.6000001E-01;1171;  0.0000000E+00;  0.0000000E+00;  0.0000000E+00;  1.0000682E+03;  1.0000000E-01;  5.6492229E+01;0;  0.0000000E+00;  0.0000000E+00;  0.0000000E+00;0;  2.9778018E-04;  4.0000000E+04;  0.0000000E+00;  0.0000000E+00;  4.0000000E+04;  0.0000000E+00;  4.0000000E+04;  2.1011916E-04;  0.0000000E+00;  8.7661007E-05;  2.9403983E+02;
 -7.9999998E-02;  9.9999998E-03;  3.7000000E-01;1172;  0.0000000E+00;  0.0000000E+00;  0.0000000E+00;  1.0000494E+03;  1.0000000E-01;  4.0986496E+01;0;  0.0000000E+00;  0.0000000E+00;  0.0000000E+00;0;  1.7005816E-04;  4.0000000E+04;  0.0000000E+00;  0.0000000E+00;  4.0000000E+04;  0.0000000E+00;  4.0000000E+04;  1.1280154E-04;  0.0000000E+00;  5.7256628E-05;  2.2049580E+02;
 -7.9999998E-02;  9.9999998E-03;  3.8000000E-01;1173;  0.0000000E+00;  0.0000000E+00;  0.0000000E+00;  1.0000444E+03;  1.0000000E-01;  3.6739700E+01;0;  0.0000000E+00;  0.0000000E+00;  0.0000000E+00;0;  8.7718166E-05;  4.0000000E+04;  0.0000000E+00;  0.0000000E+00;  4.0000000E+04;  0.0000000E+00;  4.0000000E+04;  5.4460987E-05;  0.0000000E+00;  3.3257180E-05;  1.5108603E+02;
 -7.9999998E-02;  9.9999998E-03;  3.8999999E-01;1174;  0.0000000E+00;  0.0000000E+00;  0.0000000E+00;  1.0000000E+03;  1.0000000E-01;  0.0000000E+00;0;  0.0000000E+00;  0.0000000E+00;  0.0000000E+00;0;  3.9011866E-05;  4.0000000E+04;  0.0000000E+00;  0.0000000E+00;  4.0000000E+04;  0.0000000E+00;  4.0000000E+04;  2.2771766E-05;  0.0000000E+00;  1.6240097E-05;  9.2197014E+01;
 -7.9999998E-02;  9.9999998E-03;  4.0000001E-01;1175;  0.0000000E+00;  0.0000000E+00;  0.0000000E+00;  1.0000000E+03;  1.0000000E-01;  0.0000000E+00;0;  0.0000000E+00;  0.0000000E+00;  0.0000000E+00;0;  1.3646905E-05;  4.0000000E+04;  0.0000000E+00;  0.0000000E+00;  4.0000000E+04;  0.0000000E+00;  4.0000000E+04;  7.7039049E-06;  0.0000000E+00;  5.9430004E-06;  4.7960724E+01;
 -7.0000000E-02;  9.9999998E-03;  2.3999999E-01;1250;  0.0000000E+00;  0.0000000E+00;  0.0000000E+00;  1.0004264E+03;  1.0000000E-01;  3.5327396E+02;0;  0.0000000E+00;  0.0000000E+00;  0.0000000E+00;0;  8.5113319E-03;  4.0000000E+04;  0.0000000E+00;  0.0000000E+00;  4.0000000E+04;  0.0000000E+00;  4.0000000E+04;  8.4059658E-03;  0.0000000E+00;  1.0536613E-04;  1.0182501E+03;
 -7.0000000E-02;  9.9999998E-03;  2.5000000E-01;1251;  0.0000000E+00;  0.0000000E+00;  0.0000000E+00;  1.0003988E+03;  1.0000000E-01;  3.3036102E+02;0;  0.0000000E+00;  0.0000000E+00;  0.0000000E+00;0;  7.7304840E-03;  4.0000000E+04;  0.0000000E+00;  0.0000000E+00;  4.0000000E+04;  0.0000000E+00;  4.0000000E+04;  7.5469776E-03;  0.0000000E+00;  1.8350620E-04;  8.2942126E+02;
 -7.0000000E-02;  9.9999998E-03;  2.5999999E-01;1252;  0.0000000E+00;  0.0000000E+00;  0.0000000E+00;  1.0003837E+03;  1.0000000E-01;  3.1781818E+02;0;  0.0000000E+00;  0.0000000E+00;  0.0000000E+00;0;  6.8962062E-03;  4.0000000E+04;  0.0000000E+00;  0.0000000E+00;  4.0000000E+04;  0.0000000E+00;  4.0000000E+04;  6.6360035E-03;  0.0000000E+00;  2.6020291E-04;  5.9338855E+02;
 -7.0000000E-02;  9.9999998E-03;  2.7000001E-01;1253;  0.0000000E+00;  0.0000000E+00;  0.0000000E+00;  1.0003757E+03;  1.0000000E-01;  3.1129984E+02;0;  0.0000000E+00;  0.0000000E+00;  0.0000000E+00;0;  6.0273018E-03;  4.0000000E+04;  0.0000000E+00;  0.0000000E+00;  4.0000000E+04;  0.0000000E+00;  4.0000000E+04;  5.6995209E-03;  0.0000000E+00;  3.2778064E-04;  3.3576010E+02;
 -7.0000000E-02;  9.9999998E-03;  2.8000000E-01;1254;  0.0000000E+00;  0.0000000E+00;  0.0000000E+00;  1.0003718E+03;  1.0000000E-01;  3.0804068E+02;0;  0.0000000E+00;  0.0000000E+00;  0.0000000E+00;0;  5.1479451E-03;  4.0000000E+04;  0.0000000E+00;  0.0000000E+00;  4.0000000E+04;  0.0000000E+00;  4.0000000E+04;  4.7688968E-03;  0.0000000E+00;  3.7904835E-04;  1.3679143E+02;
 -7.0000000E-02;  9.9999998E-03;  2.8999999E-01;1255;  0.0000000E+00;  0.0000000E+00;  0.0000000E+00;  1.0003764E+03;  1.0000000E-01;  3.1189243E+02;0;  0.0000000E+00;  0.0000000E+00;  0.0000000E+00;0;  4.2854836E-03;  4.0000000E+04;  0.0000000E+00;  0.0000000E+00;  4.0000000E+04;  0.0000000E+00;  4.0000000E+04;  3.8768351E-03;  0.0000000E+00;  4.0864843E-04;  2.5400081E+02;
 -7.0000000E-02;  9.9999998E-03;  3.0000001E-01;1256;  0.0000000E+00;  0.0000000E+00;  0.0000000E+00;  1.0003580E+03;  1.0000000E-01;  2.9658420E+02;0;  0.0000000E+00;  0.0000000E+00;  0.0000000E+00;0;  3.4676162E-03;  4.0000000E+04;  0.0000000E+00;  0.0000000E+00;  4.0000000E+04;  0.0000000E+00;  4.0000000E+04;  3.0535005E-03;  0.0000000E+00;  4.1411564E-04;  4.4241199E+02;
 -7.0000000E-02;  9.9999998E-03;  3.1000000E-01;1257;  0.0000000E+00;  0.0000000E+00;  0.0000000E+00;  1.0003354E+03;  1.0000000E-01;  2.7781931E+02;0;  0.0000000E+00;  0.0000000E+00;  0.0000000E+00;0;  2.7196296E-03;  4.0000000E+04;  0.0000000E+00;  0.0000000E+00;  4.0000000E+04;  0.0000000E+00;  4.0000000E+04;  2.3230517E-03;  0.0000000E+00;  3.9657796E-04;  5.8117236E+02;
 -7.0000000E-02;  9.9999998E-03;  3.1999999E-01;1258;  0.0000000E+00;  0.0000000E+00;  0.0000000E+00;  1.0003077E+03;  1.0000000E-01;  2.5490637E+02;0;  0.0000000E+00;  0.0000000E+00;  0.0000000E+00;0;  2.0616332E-03;  4.0000000E+04;  0.0000000E+00;  0.0000000E+00;  4.0000000E+04;  0.0000000E+00;  4.0000000E+04;  1.7013019E-03;  0.0000000E+00;  3.6033121E-04;  6.5630927E+02;
 -7.0000000E-02;  9.9999998E-03;  3.3000001E-01;1259;  0.0000000E+00;  0.0000000E+00;  0.0000000E+00;  1.0002509E+03;  1.0000000E-01;  2.0779659E+02;0;  0.0000000E+00;  0.0000000E+00;  0.0000000E+00;0;  1.5060446E-03;  4.0000000E+04;  0.0000000E+00;  0.0000000E+00;  4.0000000E+04;  0.0000000E+00;  4.0000000E+04;  1.1946256E-03;  0.0000000E+00;  3.1141899E-04;  6.7050653E+02;
 -7.0000000E-02;  9.9999998E-03;  3.4000000E-01;1260;  0.0000000E+00;  0.0000000E+00;  0.0000000E+00;  1.0002047E+03;  1.0000000E-01;  1.6957545E+02;0;  0.0000000E+00;  0.0000000E+00;  0.0000000E+00;0;  1.0564609E-03;  4.0000000E+04;  0.0000000E+00;  0.0000000E+00;  4.0000000E+04;  0.0000000E+00;  4.0000000E+04;  8.0033723E-04;  0.0000000E+00;  2.5612372E-04;  6.3420007E+02;
 -7.0000000E-02;  9.9999998E-03;  3.4999999E-01;1261;  0.0000000E+00;  0.0000000E+00;  0.0000000E+00;  1.0001448E+03;  1.0000000E-01;  1.1989784E+02;0;  0.0000000E+00;  0.0000000E+00;  0.0000000E+00;0;  7.0823479E-04;  4.0000000E+04;  0.0000000E+00;  0.0000000E+00;  4.0000000E+04;  0.0000000E+00;  4.0000000E+04;  5.0830049E-04;  0.0000000E+00;  1.9993429E-04;  5.6125635E+02;
 -7.0000000E-02;  9.9999998E-03;  3.6000001E-01;1262;  0.0000000E+00;  0.0000000E+00;  0.0000000E+00;  1.0000938E+03;  1.0000000E-01;  7.7726196E+01;0;  0.0000000E+00;  0.0000000E+00;  0.0000000E+00;0;  4.5047281E-04;  4.0000000E+04;  0.0000000E+00;  0.0000000E+00;  4.0000000E+04;  0.0000000E+00;  4.0000000E+04;  3.0336098E-04;  0.0000000E+00;  1.4711184E-04;  4.6599927E+02;
 -7.0000000E-02;  9.9999998E-03;  3.7000000E-01;1263;  0.0000000E+00;  0.0000000E+00;  0.0000000E+00;  1.0000927E+03;  1.0000000E-01;  7.6837334E+01;0;  0.0000000E+00;  0.0000000E+00;  0.0000000E+00;0;  2.6868022E-04;  4.0000000E+04;  0.0000000E+00;  0.0000000E+00;  4.0000000E+04;  0.0000000E+00;  4.0000000E+04;  1.6799540E-04;  0.0000000E+00;  1.0068483E-04;  3.6160776E+02;
 -7.0000000E-02;  9.9999998E-03;  3.8000000E-01;1264;  0.0000000E+00;  0.0000000E+00;  0.0000000E+00;  1.0000561E+03;  1.0000000E-01;  4.6517204E+01;0;  0.0000000E+00;  0.0000000E+00;  0.0000000E+00;0;  1.4731422E-04;  4.0000000E+04;  0.0000000E+00;  0.0000000E+00;  4.0000000E+04;  0.0000000E+00;  4.0000000E+04;  8.4687061E-05;  0.0000000E+00;  6.2627158E-05;  2.5937509E+02;
 -7.0000000E-02;  9.9999998E-03;  3.8999999E-01;1265;  0.0000000E+00;  0.0000000E+00;  0.0000000E+00;  1.0000443E+03;  1.0000000E-01;  3.6739700E+01;0;  0.0000000E+00;  0.0000000E+00;  0.0000000E+00;0;  7.1695606E-05;  4.0000000E+04;  0.0000000E+00;  0.0000000E+00;  4.0000000E+04;  0.0000000E+00;  4.0000000E+04;  3.7686459E-05;  0.0000000E+00;  3.4009146E-05;  1.6850751E+02;
 -7.0000000E-02;  9.9999998E-03;  4.0000001E-01;1266;  0.0000000E+00;  0.0000000E+00;  0.0000000E+00;  1.0000000E+03;  1.0000000E-01;  0.0000000E+00;0;  0.0000000E+00;  0.0000000E+00;  0.0000000E+00;0;  2.9009016E-05;  4.0000000E+04;  0.0000000E+00;  0.0000000E+00;  4.0000000E+04;  0.0000000E+00;  4.0000000E+04;  1.4031324E-05;  0.0000000E+00;  1.4977692E-05;  9.5819893E+01;
 -5.9999999E-02;  9.9999998E-03;  2.3999999E-01;1341;  0.0000000E+00;  0.0000000E+00;  0.0000000E+00;  1.0010006E+03;  1.0000000E-01;  8.2901361E+02;0;  0.0000000E+00;  0.0000000E+00;  0.0000000E+00;0;  1.0794933E-02;  4.0000000E+04;  0.0000000E+00;  0.0000000E+00;  4.0000000E+04;  0.0000000E+00;  4.0000000E+04;  1.0634499E-02;  0.0000000E+00;  1.6043407E-04;  1.3611105E+03;
 -5.9999999E-02;  9.9999998E-03;  2.5000000E-01;1342;  0.0000000E+00;  0.0000000E+00;  0.0000000E+00;  1.0009255E+03;  1.0000000E-01;  7.6669434E+02;0;  0.0000000E+00;  0.0000000E+00;  0.0000000E+00;0;  9.8227868E-03;  4.0000000E+04;  0.0000000E+00;  0.0000000E+00;  4.0000000E+04;  0.0000000E+00;  4.0000000E+04;  9.5506273E-03;  0.0000000E+00;  2.7215958E-04;  1.1142139E+03;
 -5.9999999E-02;  9.9999998E-03;  2.5999999E-01;1343;  0.0000000E+00;  0.0000000E+00;  0.0000000E+00;  1.0008711E+03;  1.0000000E-01;  7.2165863E+02;0;  0.0000000E+00;  0.0000000E+00;  0.0000000E+00;0;  8.7833023E-03;  4.0000000E+04;  0.0000000E+00;  0.0000000E+00;  4.0000000E+04;  0.0000000E+00;  4.0000000E+04;  8.4020542E-03;  0.0000000E+00;  3.8124784E-04;  8.0212244E+02;
 -5.9999999E-02;  9.9999998E-03;  2.7000001E-01;1344;  0.0000000E+00;  0.0000000E+00;  0.0000000E+00;  1.0008201E+03;  1.0000000E-01;  6.7948694E+02;0;  0.0000000E+00;  0.0000000E+00;  0.0000000E+00;0;  7.6985299E-03;  4.0000000E+04;  0.0000000E+00;  0.0000000E+00;  4.0000000E+04;  0.0000000E+00;  4.0000000E+04;  7.2215055E-03;  0.0000000E+00;  4.7702427E-04;  4.6032071E+02;
 -5.9999999E-02;  9.9999998E-03;  2.8000000E-01;1345;  0.0000000E+00;  0.0000000E+00;  0.0000000E+00;  1.0007811E+03;  1.0000000E-01;  6.4719159E+02;0;  0.0000000E+00;  0.0000000E+00;  0.0000000E+00;0;  6.5976554E-03;  4.0000000E+04;  0.0000000E+00;  0.0000000E+00;  4.0000000E+04;  0.0000000E+00;  4.0000000E+04;  6.0481909E-03;  0.0000000E+00;  5.4946454E-04;  2.0457901E+02;
 -5.9999999E-02;  9.9999998E-03;  2.8999999E-01;1346;  0.0000000E+00;  0.0000000E+00;  0.0000000E+00;  1.0007310E+03;  1.0000000E-01;  6.0561249E+02;0;  0.0000000E+00;  0.0000000E+00;  0.0000000E+00;0;  5.5145049E-03;  4.0000000E+04;  0.0000000E+00;  0.0000000E+00;  4.0000000E+04;  0.0000000E+00;  4.0000000E+04;  4.9233576E-03;  0.0000000E+00;  5.9114705E-04;  3.5960587E+02;
 -5.9999999E-02;  9.9999998E-03;  3.0000001E-01;1347;  0.0000000E+00;  0.0000000E+00;  0.0000000E+00;  1.0006720E+03;  1.0000000E-01;  5.5672498E+02;0;  0.0000000E+00;  0.0000000E+00;  0.0000000E+00;0;  4.4839652E-03;  4.0000000E+04;  0.0000000E+00;  0.0000000E+00;  4.0000000E+04;  0.0000000E+00;  4.0000000E+04;  3.8851586E-03;  0.0000000E+00;  5.9880677E-04;  6.1504065E+02;
 -5.9999999E-02;  9.9999998E-03;  3.1000000E-01;1348;  0.0000000E+00;  0.0000000E+00;  0.0000000E+00;  1.0006005E+03;  1.0000000E-01;  4.9746741E+02;0;  0.0000000E+00;  0.0000000E+00;  0.0000000E+00;0;  3.5382910E-03;  4.0000000E+04;  0.0000000E+00;  0.0000000E+00;  4.0000000E+04;  0.0000000E+00;  4.0000000E+04;  2.9640091E-03;  0.0000000E+00;  5.7428190E-04;  8.0759161E+02;
 -5.9999999E-02;  9.9999998E-03;  3.1999999E-01;1349;  0.0000000E+00;  0.0000000E+00;  0.0000000E+00;  1.0005231E+03;  1.0000000E-01;  4.3337045E+02;0;  0.0000000E+00;  0.0000000E+00;  0.0000000E+00;0;  2.7033242E-03;  4.0000000E+04;  0.0000000E+00;  0.0000000E+00;  4.0000000E+04;  0.0000000E+00;  4.0000000E+04;  2.1795328E-03;  0.0000000E+00;  5.2379136E-04;  9.1590350E+02;
 -5.9999999E-02;  9.9999998E-03;  3.3000001E-01;1350;  0.0000000E+00;  0.0000000E+00;  0.0000000E+00;  1.0004499E+03;  1.0000000E-01;  3.7273019E+02;0;  0.0000000E+00;  0.0000000E+00;  0.0000000E+00;0;  1.9951412E-03;  4.0000000E+04;  0.0000000E+00;  0.0000000E+00;  4.0000000E+04;  0.0000000E+00;  4.0000000E+04;  1.5393179E-03;  0.0000000E+00;  4.5582320E-04;  9.4259705E+02;
 -5.9999999E-02;  9.9999998E-03;  3.4000000E-01;1351;  0.0000000E+00;  0.0000000E+00;  0.0000000E+00;  1.0003626E+03;  1.0000000E-01;  3.0043594E+02;0;  0.0000000E+00;  0.0000000E+00;  0.0000000E+00;0;  1.4186278E-03;  4.0000000E+04;  0.0000000E+00;  0.0000000E+00;  4.0000000E+04;  0.0000000E+00;  4.0000000E+04;  1.0396324E-03;  0.0000000E+00;  3.7899538E-04;  9.0099988E+02;
 -5.9999999E-02;  9.9999998E-03;  3.4999999E-01;1352;  0.0000000E+00;  0.0000000E+00;  0.0000000E+00;  1.0002797E+03;  1.0000000E-01;  2.3169714E+02;0;  0.0000000E+00;  0.0000000E+00;  0.0000000E+00;0;  9.6830935E-04;  4.0000000E+04;  0.0000000E+00;  0.0000000E+00;  4.0000000E+04;  0.0000000E+00;  4.0000000E+04;  6.6764234E-04;  0.0000000E+00;  3.0066702E-04;  8.0888660E+02;
 -5.9999999E-02;  9.9999998E-03;  3.6000001E-01;1353;  0.0000000E+00;  0.0000000E+00;  0.0000000E+00;  1.0001881E+03;  1.0000000E-01;  1.5584744E+02;0;  0.0000000E+00;  0.0000000E+00;  0.0000000E+00;0;  6.3094543E-04;  4.0000000E+04;  0.0000000E+00;  0.0000000E+00;  4.0000000E+04;  0.0000000E+00;  4.0000000E+04;  4.0451705E-04;  0.0000000E+00;  2.2642837E-04;  6.8459845E+02;
 -5.9999999E-02;  9.9999998E-03;  3.7000000E-01;1354;  0.0000000E+00;  0.0000000E+00;  0.0000000E+00;  1.0001255E+03;  1.0000000E-01;  1.0399706E+02;0;  0.0000000E+00;  0.0000000E+00;  0.0000000E+00;0;  3.8886777E-04;  4.0000000E+04;  0.0000000E+00;  0.0000000E+00;  4.0000000E+04;  0.0000000E+00;  4.0000000E+04;  2.2867507E-04;  0.0000000E+00;  1.6019271E-04;  5.4490747E+02;
 -5.9999999E-02;  9.9999998E-03;  3.8000000E-01;1355;  0.0000000E+00;  0.0000000E+00;  0.0000000E+00;  1.0000936E+03;  1.0000000E-01;  7.7528671E+01;0;  0.0000000E+00;  0.0000000E+00;  0.0000000E+00;0;  2.2314406E-04;  4.0000000E+04;  0.0000000E+00;  0.0000000E+00;  4.0000000E+04;  0.0000000E+00;  4.0000000E+04;  1.1861237E-04;  0.0000000E+00;  1.0453169E-04;  4.0431345E+02;
 -5.9999999E-02;  9.9999998E-03;  3.8999999E-01;1356;  0.0000000E+00;  0.0000000E+00;  0.0000000E+00;  1.0000620E+03;  1.0000000E-01;  5.1356571E+01;0;  0.0000000E+00;  0.0000000E+00;  0.0000000E+00;0;  1.1596158E-04;  4.0000000E+04;  0.0000000E+00;  0.0000000E+00;  4.0000000E+04;  0.0000000E+00;  4.0000000E+04;  5.4973720E-05;  0.0000000E+00;  6.0987855E-05;  2.7499310E+02;
 -5.9999999E-02;  9.9999998E-03;  4.0000001E-01;1357;  0.0000000E+00;  0.0000000E+00;  0.0000000E+00;  1.0000315E+03;  1.0000000E-01;  2.6073338E+01;0;  0.0000000E+00;  0.0000000E+00;  0.0000000E+00;0;  5.1898962E-05;  4.0000000E+04;  0.0000000E+00;  0.0000000E+00;  4.0000000E+04;  0.0000000E+00;  4.0000000E+04;  2.1751523E-05;  0.0000000E+00;  3.0147441E-05;  1.6668425E+02;
 -5.0000001E-02;  9.9999998E-03;  2.3999999E-01;1432;  0.0000000E+00;  0.0000000E+00;  0.0000000E+00;  1.0018514E+03;  1.0000000E-01;  1.5337838E+03;0;  0.0000000E+00;  0.0000000E+00;  0.0000000E+00;0;  1.3119690E-02;  4.0000000E+04;  0.0000000E+00;  0.0000000E+00;  4.0000000E+04;  0.0000000E+00;  4.0000000E+04;  1.2891784E-02;  0.0000000E+00;  2.2790604E-04;  1.7446888E+03;
 -5.0000001E-02;  9.9999998E-03;  2.5000000E-01;1433;  0.0000000E+00;  0.0000000E+00;  0.0000000E+00;  1.0017169E+03;  1.0000000E-01;  1.4224783E+03;0;  0.0000000E+00;  0.0000000E+00;  0.0000000E+00;0;  1.1961513E-02;  4.0000000E+04;  0.0000000E+00;  0.0000000E+00;  4.0000000E+04;  0.0000000E+00;  4.0000000E+04;  1.1580605E-02;  0.0000000E+00;  3.8090794E-04;  1.4350927E+03;
 -5.0000001E-02;  9.9999998E-03;  2.5999999E-01;1434;  0.0000000E+00;  0.0000000E+00;  0.0000000E+00;  1.0015866E+03;  1.0000000E-01;  1.3144320E+03;0;  0.0000000E+00;  0.0000000E+00;  0.0000000E+00;0;  1.0720001E-02;  4.0000000E+04;  0.0000000E+00;  0.0000000E+00;  4.0000000E+04;  0.0000000E+00;  4.0000000E+04;  1.0189980E-02;  0.0000000E+00;  5.3002062E-04;  1.0372533E+03;
 -5.0000001E-02;  9.9999998E-03;  2.7000001E-01;1435;  0.0000000E+00;  0.0000000E+00;  0.0000000E+00;  1.0014792E+03;  1.0000000E-01;  1.2255455E+03;0;  0.0000000E+00;  0.0000000E+00;  0.0000000E+00;0;  9.4197746E-03;  4.0000000E+04;  0.0000000E+00;  0.0000000E+00;  4.0000000E+04;  0.0000000E+00;  4.0000000E+04;  8.7590627E-03;  0.0000000E+00;  6.6071225E-04;  5.9746417E+02;
 -5.0000001E-02;  9.9999998E-03;  2.8000000E-01;1436;  0.0000000E+00;  0.0000000E+00;  0.0000000E+00;  1.0013657E+03;  1.0000000E-01;  1.1315236E+03;0;  0.0000000E+00;  0.0000000E+00;  0.0000000E+00;0;  8.0949487E-03;  4.0000000E+04;  0.0000000E+00;  0.0000000E+00;  4.0000000E+04;  0.0000000E+00;  4.0000000E+04;  7.3357485E-03;  0.0000000E+00;  7.5920002E-04;  2.7232727E+02;
 -5.0000001E-02;  9.9999998E-03;  2.8999999E-01;1437;  0.0000000E+00;  0.0000000E+00;  0.0000000E+00;  1.0012546E+03;  1.0000000E-01;  1.0393781E+03;0;  0.0000000E+00;  0.0000000E+00;  0.0000000E+00;0;  6.7863837E-03;  4.0000000E+04;  0.0000000E+00;  0.0000000E+00;  4.0000000E+04;  0.0000000E+00;  4.0000000E+04;  5.9710457E-03;  0.0000000E+00;  8.1533781E-04;  4.7963300E+02;
 -5.0000001E-02;  9.9999998E-03;  3.0000001E-01;1438;  0.0000000E+00;  0.0000000E+00;  0.0000000E+00;  1.0011330E+03;  1.0000000E-01;  9.3864014E+02;0;  0.0000000E+00;  0.0000000E+00;  0.0000000E+00;0;  5.5371928E-03;  4.0000000E+04;  0.0000000E+00;  0.0000000E+00;  4.0000000E+04;  0.0000000E+00;  4.0000000E+04;  4.7122641E-03;  0.0000000E+00;  8.2492857E-04;  8.1551318E+02;
 -5.0000001E-02;  9.9999998E-03;  3.1000000E-01;1439;  0.0000000E+00;  0.0000000E+00;  0.0000000E+00;  1.0009908E+03;  1.0000000E-01;  8.2081628E+02;0;  0.0000000E+00;  0.0000000E+00;  0.0000000E+00;0;  4.3878029E-03;  4.0000000E+04;  0.0000000E+00;  0.0000000E+00;  4.0000000E+04;  0.0000000E+00;  4.0000000E+04;  3.5968311E-03;  0.0000000E+00;  7.9097162E-04;  1.0706528E+03;
 -5.0000001E-02;  9.9999998E-03;  3.1999999E-01;1440;  0.0000000E+00;  0.0000000E+00;  0.0000000E+00;  1.0008329E+03;  1.0000000E-01;  6.9005457E+02;0;  0.0000000E+00;  0.0000000E+00;  0.0000000E+00;0;  3.3706580E-03;  4.0000000E+04;  0.0000000E+00;  0.0000000E+00;  4.0000000E+04;  0.0000000E+00;  4.0000000E+04;  2.6482607E-03;  0.0000000E+00;  7.2239724E-04;  1.2169968E+03;
 -5.0000001E-02;  9.9999998E-03;  3.3000001E-01;1441;  0.0000000E+00;  0.0000000E+00;  0.0000000E+00;  1.0006968E+03;  1.0000000E-01;  5.7726764E+02;0;  0.0000000E+00;  0.0000000E+00;  0.0000000E+00;0;  2.5058717E-03;  4.0000000E+04;  0.0000000E+00;  0.0000000E+00;  4.0000000E+04;  0.0000000E+00;  4.0000000E+04;  1.8749344E-03;  0.0000000E+00;  6.3093723E-04;  1.2580542E+03;
 -5.0000001E-02;  9.9999998E-03;  3.4000000E-01;1442;  0.0000000E+00;  0.0000000E+00;  0.0000000E+00;  1.0005662E+03;  1.0000000E-01;  4.6902377E+02;0;  0.0000000E+00;  0.0000000E+00;  0.0000000E+00;0;  1.7995348E-03;  4.0000000E+04;  0.0000000E+00;  0.0000000E+00;  4.0000000E+04;  0.0000000E+00;  4.0000000E+04;  1.2714012E-03;  0.0000000E+00;  5.2813365E-04;  1.2109711E+03;
 -5.0000001E-02;  9.9999998E-03;  3.4999999E-01;1443;  0.0000000E+00;  0.0000000E+00;  0.0000000E+00;  1.0004428E+03;  1.0000000E-01;  3.6690320E+02;0;  0.0000000E+00;  0.0000000E+00;  0.0000000E+00;0;  1.2449960E-03;  4.0000000E+04;  0.0000000E+00;  0.0000000E+00;  4.0000000E+04;  0.0000000E+00;  4.0000000E+04;  8.2145265E-04;  0.0000000E+00;  4.2354327E-04;  1.0982811E+03;
 -5.0000001E-02;  9.9999998E-03;  3.6000001E-01;1444;  0.0000000E+00;  0.0000000E+00;  0.0000000E+00;  1.0003218E+03;  1.0000000E-01;  2.6665912E+02;0;  0.0000000E+00;  0.0000000E+00;  0.0000000E+00;0;  8.2625088E-04;  4.0000000E+04;  0.0000000E+00;  0.0000000E+00;  4.0000000E+04;  0.0000000E+00;  4.0000000E+04;  5.0205871E-04;  0.0000000E+00;  3.2419214E-04;  9.4270923E+02;
 -5.0000001E-02;  9.9999998E-03;  3.7000000E-01;1445;  0.0000000E+00;  0.0000000E+00;  0.0000000E+00;  1.0002068E+03;  1.0000000E-01;  1.7135318E+02;0;  0.0000000E+00;  0.0000000E+00;  0.0000000E+00;0;  5.2213261E-04;  4.0000000E+04;  0.0000000E+00;  0.0000000E+00;  4.0000000E+04;  0.0000000E+00;  4.0000000E+04;  2.8728717E-04;  0.0000000E+00;  2.3484541E-04;  7.6475708E+02;
 -5.0000001E-02;  9.9999998E-03;  3.8000000E-01;1446;  0.0000000E+00;  0.0000000E+00;  0.0000000E+00;  1.0001434E+03;  1.0000000E-01;  1.1881145E+02;0;  0.0000000E+00;  0.0000000E+00;  0.0000000E+00;0;  3.1013816E-04;  4.0000000E+04;  0.0000000E+00;  0.0000000E+00;  4.0000000E+04;  0.0000000E+00;  4.0000000E+04;  1.5155677E-04;  0.0000000E+00;  1.5858140E-04;  5.8207251E+02;
 -5.0000001E-02;  9.9999998E-03;  3.8999999E-01;1447;  0.0000000E+00;  0.0000000E+00;  0.0000000E+00;  1.0000916E+03;  1.0000000E-01;  7.5849709E+01;0;  0.0000000E+00;  0.0000000E+00;  0.0000000E+00;0;  1.6925074E-04;  4.0000000E+04;  0.0000000E+00;  0.0000000E+00;  4.0000000E+04;  0.0000000E+00;  4.0000000E+04;  7.1937669E-05;  0.0000000E+00;  9.7313066E-05;  4.0970044E+02;
 -5.0000001E-02;  9.9999998E-03;  4.0000001E-01;1448;  0.0000000E+00;  0.0000000E+00;  0.0000000E+00;  1.0000590E+03;  1.0000000E-01;  4.8887505E+01;0;  0.0000000E+00;  0.0000000E+00;  0.0000000E+00;0;  8.1475715E-05;  4.0000000E+04;  0.0000000E+00;  0.0000000E+00;  4.0000000E+04;  0.0000000E+00;  4.0000000E+04;  2.9466411E-05;  0.0000000E+00;  5.2009302E-05;  2.6032111E+02;
 -3.9999999E-02;  9.9999998E-03;  2.3999999E-01;1523;  0.0000000E+00;  0.0000000E+00;  0.0000000E+00;  1.0030099E+03;  1.0000000E-01;  2.4936580E+03;0;  0.0000000E+00;  0.0000000E+00;  0.0000000E+00;0;  1.5295872E-02;  4.0000000E+04;  0.0000000E+00;  0.0000000E+00;  4.0000000E+04;  0.0000000E+00;  4.0000000E+04;  1.4991398E-02;  0.0000000E+00;  3.0447348E-04;  2.1510381E+03;
 -3.9999999E-02;  9.9999998E-03;  2.5000000E-01;1524;  0.0000000E+00;  0.0000000E+00;  0.0000000E+00;  1.0027797E+03;  1.0000000E-01;  2.3029473E+03;0;  0.0000000E+00;  0.0000000E+00;  0.0000000E+00;0;  1.3975324E-02;  4.0000000E+04;  0.0000000E+00;  0.0000000E+00;  4.0000000E+04;  0.0000000E+00;  4.0000000E+04;  1.3469317E-02;  0.0000000E+00;  5.0600717E-04;  1.7779547E+03;
 -3.9999999E-02;  9.9999998E-03;  2.5999999E-01;1525;  0.0000000E+00;  0.0000000E+00;  0.0000000E+00;  1.0025665E+03;  1.0000000E-01;  2.1263596E+03;0;  0.0000000E+00;  0.0000000E+00;  0.0000000E+00;0;  1.2554086E-02;  4.0000000E+04;  0.0000000E+00;  0.0000000E+00;  4.0000000E+04;  0.0000000E+00;  4.0000000E+04;  1.1851327E-02;  0.0000000E+00;  7.0275908E-04;  1.2871331E+03;
 -3.9999999E-02;  9.9999998E-03;  2.7000001E-01;1526;  0.0000000E+00;  0.0000000E+00;  0.0000000E+00;  1.0023619E+03;  1.0000000E-01;  1.9567842E+03;0;  0.0000000E+00;  0.0000000E+00;  0.0000000E+00;0;  1.1058106E-02;  4.0000000E+04;  0.0000000E+00;  0.0000000E+00;  4.0000000E+04;  0.0000000E+00;  4.0000000E+04;  1.0182788E-02;  0.0000000E+00;  8.7531848E-04;  7.3526843E+02;
 -3.9999999E-02;  9.9999998E-03;  2.8000000E-01;1527;  0.0000000E+00;  0.0000000E+00;  0.0000000E+00;  1.0021712E+03;  1.0000000E-01;  1.7987639E+03;0;  0.0000000E+00;  0.0000000E+00;  0.0000000E+00;0;  9.5255561E-03;  4.0000000E+04;  0.0000000E+00;  0.0000000E+00;  4.0000000E+04;  0.0000000E+00;  4.0000000E+04;  8.5206488E-03;  0.0000000E+00;  1.0049077E-03;  3.2308023E+02;
 -3.9999999E-02;  9.9999998E-03;  2.8999999E-01;1528;  0.0000000E+00;  0.0000000E+00;  0.0000000E+00;  1.0019591E+03;  1.0000000E-01;  1.6230652E+03;0;  0.0000000E+00;  0.0000000E+00;  0.0000000E+00;0;  8.0043282E-03;  4.0000000E+04;  0.0000000E+00;  0.0000000E+00;  4.0000000E+04;  0.0000000E+00;  4.0000000E+04;  6.9266222E-03;  0.0000000E+00;  1.0777058E-03;  6.0457135E+02;
 -3.9999999E-02;  9.9999998E-03;  3.0000001E-01;1529;  0.0000000E+00;  0.0000000E+00;  0.0000000E+00;  1.0017455E+03;  1.0000000E-01;  1.4461813E+03;0;  0.0000000E+00;  0.0000000E+00;  0.0000000E+00;0;  6.5466203E-03;  4.0000000E+04;  0.0000000E+00;  0.0000000E+00;  4.0000000E+04;  0.0000000E+00;  4.0000000E+04;  5.4581929E-03;  0.0000000E+00;  1.0884275E-03;  1.0351885E+03;
 -3.9999999E-02;  9.9999998E-03;  3.1000000E-01;1530;  0.0000000E+00;  0.0000000E+00;  0.0000000E+00;  1.0015114E+03;  1.0000000E-01;  1.2521128E+03;0;  0.0000000E+00;  0.0000000E+00;  0.0000000E+00;0;  5.2021230E-03;  4.0000000E+04;  0.0000000E+00;  0.0000000E+00;  4.0000000E+04;  0.0000000E+00;  4.0000000E+04;  4.1602091E-03;  0.0000000E+00;  1.0419140E-03;  1.3597622E+03;
 -3.9999999E-02;  9.9999998E-03;  3.1999999E-01;1531;  0.0000000E+00;  0.0000000E+00;  0.0000000E+00;  1.0012784E+03;  1.0000000E-01;  1.0591305E+03;0;  0.0000000E+00;  0.0000000E+00;  0.0000000E+00;0;  4.0106261E-03;  4.0000000E+04;  0.0000000E+00;  0.0000000E+00;  4.0000000E+04;  0.0000000E+00;  4.0000000E+04;  3.0597660E-03;  0.0000000E+00;  9.5085992E-04;  1.5464669E+03;
 -3.9999999E-02;  9.9999998E-03;  3.3000001E-01;1532;  0.0000000E+00;  0.0000000E+00;  0.0000000E+00;  1.0010629E+03;  1.0000000E-01;  8.8056769E+02;0;  0.0000000E+00;  0.0000000E+00;  0.0000000E+00;0;  2.9964647E-03;  4.0000000E+04;  0.0000000E+00;  0.0000000E+00;  4.0000000E+04;  0.0000000E+00;  4.0000000E+04;  2.1652696E-03;  0.0000000E+00;  8.3119504E-04;  1.6016447E+03;
 -3.9999999E-02;  9.9999998E-03;  3.4000000E-01;1533;  0.0000000E+00;  0.0000000E+00;  0.0000000E+00;  1.0008248E+03;  1.0000000E-01;  6.8333868E+02;0;  0.0000000E+00;  0.0000000E+00;  0.0000000E+00;0;  2.1668393E-03;  4.0000000E+04;  0.0000000E+00;  0.0000000E+00;  4.0000000E+04;  0.0000000E+00;  4.0000000E+04;  1.4688141E-03;  0.0000000E+00;  6.9802516E-04;  1.5479164E+03;
 -3.9999999E-02;  9.9999998E-03;  3.4999999E-01;1534;  0.0000000E+00;  0.0000000E+00;  0.0000000E+00;  1.0006389E+03;  1.0000000E-01;  5.2936774E+02;0;  0.0000000E+00;  0.0000000E+00;  0.0000000E+00;0;  1.5137868E-03;  4.0000000E+04;  0.0000000E+00;  0.0000000E+00;  4.0000000E+04;  0.0000000E+00;  4.0000000E+04;  9.5036183E-04;  0.0000000E+00;  5.6342495E-04;  1.4134003E+03;
 -3.9999999E-02;  9.9999998E-03;  3.6000001E-01;1535;  0.0000000E+00;  0.0000000E+00;  0.0000000E+00;  1.0004891E+03;  1.0000000E-01;  4.0522311E+02;0;  0.0000000E+00;  0.0000000E+00;  0.0000000E+00;0;  1.0184036E-03;  4.0000000E+04;  0.0000000E+00;  0.0000000E+00;  4.0000000E+04;  0.0000000E+00;  4.0000000E+04;  5.8247749E-04;  0.0000000E+00;  4.3592602E-04;  1.2255208E+03;
 -3.9999999E-02;  9.9999998E-03;  3.7000000E-01;1536;  0.0000000E+00;  0.0000000E+00;  0.0000000E+00;  1.0003332E+03;  1.0000000E-01;  2.7604156E+02;0;  0.0000000E+00;  0.0000000E+00;  0.0000000E+00;0;  6.5584469E-04;  4.0000000E+04;  0.0000000E+00;  0.0000000E+00;  4.0000000E+04;  0.0000000E+00;  4.0000000E+04;  3.3480886E-04;  0.0000000E+00;  3.2103586E-04;  1.0084070E+03;
 -3.9999999E-02;  9.9999998E-03;  3.8000000E-01;1537;  0.0000000E+00;  0.0000000E+00;  0.0000000E+00;  1.0002114E+03;  1.0000000E-01;  1.7520493E+02;0;  0.0000000E+00;  0.0000000E+00;  0.0000000E+00;0;  3.9991928E-04;  4.0000000E+04;  0.0000000E+00;  0.0000000E+00;  4.0000000E+04;  0.0000000E+00;  4.0000000E+04;  1.7778008E-04;  0.0000000E+00;  2.2213922E-04;  7.8247467E+02;
 -3.9999999E-02;  9.9999998E-03;  3.8999999E-01;1538;  0.0000000E+00;  0.0000000E+00;  0.0000000E+00;  1.0001362E+03;  1.0000000E-01;  1.1278693E+02;0;  0.0000000E+00;  0.0000000E+00;  0.0000000E+00;0;  2.2645228E-04;  4.0000000E+04;  0.0000000E+00;  0.0000000E+00;  4.0000000E+04;  0.0000000E+00;  4.0000000E+04;  8.5131251E-05;  0.0000000E+00;  1.4132103E-04;  5.6527295E+02;
 -3.9999999E-02;  9.9999998E-03;  4.0000001E-01;1539;  0.0000000E+00;  0.0000000E+00;  0.0000000E+00;  1.0000756E+03;  1.0000000E-01;  6.2615513E+01;0;  0.0000000E+00;  0.0000000E+00;  0.0000000E+00;0;  1.1504082E-04;  4.0000000E+04;  0.0000000E+00;  0.0000000E+00;  4.0000000E+04;  0.0000000E+00;  4.0000000E+04;  3.5259003E-05;  0.0000000E+00;  7.9781821E-05;  3.7213284E+02;
 -2.9999999E-02;  9.9999998E-03;  2.3999999E-01;1614;  0.0000000E+00;  0.0000000E+00;  0.0000000E+00;  1.0044794E+03;  1.0000000E-01;  3.7111050E+03;0;  0.0000000E+00;  0.0000000E+00;  0.0000000E+00;0;  1.7101649E-02;  4.0000000E+04;  0.0000000E+00;  0.0000000E+00;  4.0000000E+04;  0.0000000E+00;  4.0000000E+04;  1.6717061E-02;  0.0000000E+00;  3.8458695E-04;  2.5569019E+03;
 -2.9999999E-02;  9.9999998E-03;  2.5000000E-01;1615;  0.0000000E+00;  0.0000000E+00;  0.0000000E+00;  1.0041316E+03;  1.0000000E-01;  3.4229155E+03;0;  0.0000000E+00;  0.0000000E+00;  0.0000000E+00;0;  1.5663331E-02;  4.0000000E+04;  0.0000000E+00;  0.0000000E+00;  4.0000000E+04;  0.0000000E+00;  4.0000000E+04;  1.5022813E-02;  0.0000000E+00;  6.4051861E-04;  2.1259451E+03;
 -2.9999999E-02;  9.9999998E-03;  2.5999999E-01;1616;  0.0000000E+00;  0.0000000E+00;  0.0000000E+00;  1.0038132E+03;  1.0000000E-01;  3.1592192E+03;0;  0.0000000E+00;  0.0000000E+00;  0.0000000E+00;0;  1.4107463E-02;  4.0000000E+04;  0.0000000E+00;  0.0000000E+00;  4.0000000E+04;  0.0000000E+00;  4.0000000E+04;  1.3215697E-02;  0.0000000E+00;  8.9176523E-04;  1.5403241E+03;
 -2.9999999E-02;  9.9999998E-03;  2.7000001E-01;1617;  0.0000000E+00;  0.0000000E+00;  0.0000000E+00;  1.0034990E+03;  1.0000000E-01;  2.8987822E+03;0;  0.0000000E+00;  0.0000000E+00;  0.0000000E+00;0;  1.2459244E-02;  4.0000000E+04;  0.0000000E+00;  0.0000000E+00;  4.0000000E+04;  0.0000000E+00;  4.0000000E+04;  1.1346278E-02;  0.0000000E+00;  1.1129655E-03;  8.6522864E+02;
 -2.9999999E-02;  9.9999998E-03;  2.8000000E-01;1618;  0.0000000E+00;  0.0000000E+00;  0.0000000E+00;  1.0031812E+03;  1.0000000E-01;  2.6355798E+03;0;  0.0000000E+00;  0.0000000E+00;  0.0000000E+00;0;  1.0758815E-02;  4.0000000E+04;  0.0000000E+00;  0.0000000E+00;  4.0000000E+04;  0.0000000E+00;  4.0000000E+04;  9.4801048E-03;  0.0000000E+00;  1.2787104E-03;  3.4278760E+02;
 -2.9999999E-02;  9.9999998E-03;  2.8999999E-01;1619;  0.0000000E+00;  0.0000000E+00;  0.0000000E+00;  1.0028620E+03;  1.0000000E-01;  2.3710935E+03;0;  0.0000000E+00;  0.0000000E+00;  0.0000000E+00;0;  9.0599172E-03;  4.0000000E+04;  0.0000000E+00;  0.0000000E+00;  4.0000000E+04;  0.0000000E+00;  4.0000000E+04;  7.6898322E-03;  0.0000000E+00;  1.3700846E-03;  7.2544147E+02;
 -2.9999999E-02;  9.9999998E-03;  3.0000001E-01;1620;  0.0000000E+00;  0.0000000E+00;  0.0000000E+00;  1.0025319E+03;  1.0000000E-01;  2.0976196E+03;0;  0.0000000E+00;  0.0000000E+00;  0.0000000E+00;0;  7.4241939E-03;  4.0000000E+04;  0.0000000E+00;  0.0000000E+00;  4.0000000E+04;  0.0000000E+00;  4.0000000E+04;  6.0436577E-03;  0.0000000E+00;  1.3805361E-03;  1.2625227E+03;
 -2.9999999E-02;  9.9999998E-03;  3.1000000E-01;1621;  0.0000000E+00;  0.0000000E+00;  0.0000000E+00;  1.0021849E+03;  1.0000000E-01;  1.8102205E+03;0;  0.0000000E+00;  0.0000000E+00;  0.0000000E+00;0;  5.9114965E-03;  4.0000000E+04;  0.0000000E+00;  0.0000000E+00;  4.0000000E+04;  0.0000000E+00;  4.0000000E+04;  4.5936937E-03;  0.0000000E+00;  1.3178030E-03;  1.6593176E+03;
 -2.9999999E-02;  9.9999998E-03;  3.1999999E-01;1622;  0.0000000E+00;  0.0000000E+00;  0.0000000E+00;  1.0018356E+03;  1.0000000E-01;  1.5207471E+03;0;  0.0000000E+00;  0.0000000E+00;  0.0000000E+00;0;  4.5692143E-03;  4.0000000E+04;  0.0000000E+00;  0.0000000E+00;  4.0000000E+04;  0.0000000E+00;  4.0000000E+04;  3.3695302E-03;  0.0000000E+00;  1.1996840E-03;  1.8848772E+03;
 -2.9999999E-02;  9.9999998E-03;  3.3000001E-01;1623;  0.0000000E+00;  0.0000000E+00;  0.0000000E+00;  1.0014976E+03;  1.0000000E-01;  1.2407550E+03;0;  0.0000000E+00;  0.0000000E+00;  0.0000000E+00;0;  3.4256866E-03;  4.0000000E+04;  0.0000000E+00;  0.0000000E+00;  4.0000000E+04;  0.0000000E+00;  4.0000000E+04;  2.3783830E-03;  0.0000000E+00;  1.0473037E-03;  1.9512496E+03;
 -2.9999999E-02;  9.9999998E-03;  3.4000000E-01;1624;  0.0000000E+00;  0.0000000E+00;  0.0000000E+00;  1.0011847E+03;  1.0000000E-01;  9.8150311E+02;0;  0.0000000E+00;  0.0000000E+00;  0.0000000E+00;0;  2.4891677E-03;  4.0000000E+04;  0.0000000E+00;  0.0000000E+00;  4.0000000E+04;  0.0000000E+00;  4.0000000E+04;  1.6092748E-03;  0.0000000E+00;  8.7989290E-04;  1.8883978E+03;
 -2.9999999E-02;  9.9999998E-03;  3.4999999E-01;1625;  0.0000000E+00;  0.0000000E+00;  0.0000000E+00;  1.0009102E+03;  1.0000000E-01;  7.5405273E+02;0;  0.0000000E+00;  0.0000000E+00;  0.0000000E+00;0;  1.7506608E-03;  4.0000000E+04;  0.0000000E+00;  0.0000000E+00;  4.0000000E+04;  0.0000000E+00;  4.0000000E+04;  1.0384048E-03;  0.0000000E+00;  7.1225612E-04;  1.7309364E+03;
 -2.9999999E-02;  9.9999998E-03;  3.6000001E-01;1626;  0.0000000E+00;  0.0000000E+00;  0.0000000E+00;  1.0006832E+03;  1.0000000E-01;  5.6600867E+02;0;  0.0000000E+00;  0.0000000E+00;  0.0000000E+00;0;  1.1889104E-03;  4.0000000E+04;  0.0000000E+00;  0.0000000E+00;  4.0000000E+04;  0.0000000E+00;  4.0000000E+04;  6.3446455E-04;  0.0000000E+00;  5.5444590E-04;  1.5111293E+03;
 -2.9999999E-02;  9.9999998E-03;  3.7000000E-01;1627;  0.0000000E+00;  0.0000000E+00;  0.0000000E+00;  1.0004874E+03;  1.0000000E-01;  4.0384042E+02;0;  0.0000000E+00;  0.0000000E+00;  0.0000000E+00;0;  7.7598868E-04;  4.0000000E+04;  0.0000000E+00;  0.0000000E+00;  4.0000000E+04;  0.0000000E+00;  4.0000000E+04;  3.6336141E-04;  0.0000000E+00;  4.1262724E-04;  1.2563116E+03;
 -2.9999999E-02;  9.9999998E-03;  3.8000000E-01;1628;  0.0000000E+00;  0.0000000E+00;  0.0000000E+00;  1.0003153E+03;  1.0000000E-01;  2.6122717E+02;0;  0.0000000E+00;  0.0000000E+00;  0.0000000E+00;0;  4.8235539E-04;  4.0000000E+04;  0.0000000E+00;  0.0000000E+00;  4.0000000E+04;  0.0000000E+00;  4.0000000E+04;  1.9205155E-04;  0.0000000E+00;  2.9030384E-04;  9.8911426E+02;
 -2.9999999E-02;  9.9999998E-03;  3.8999999E-01;1629;  0.0000000E+00;  0.0000000E+00;  0.0000000E+00;  1.0002195E+03;  1.0000000E-01;  1.8192078E+02;0;  0.0000000E+00;  0.0000000E+00;  0.0000000E+00;0;  2.8072912E-04;  4.0000000E+04;  0.0000000E+00;  0.0000000E+00;  4.0000000E+04;  0.0000000E+00;  4.0000000E+04;  9.1294096E-05;  0.0000000E+00;  1.8943501E-04;  7.2886578E+02;
 -2.9999999E-02;  9.9999998E-03;  4.0000001E-01;1630;  0.0000000E+00;  0.0000000E+00;  0.0000000E+00;  1.0001212E+03;  1.0000000E-01;  1.0034284E+02;0;  0.0000000E+00;  0.0000000E+00;  0.0000000E+00;0;  1.4840643E-04;  4.0000000E+04;  0.0000000E+00;  0.0000000E+00;  4.0000000E+04;  0.0000000E+00;  4.0000000E+04;  3.7237238E-05;  0.0000000E+00;  1.1116919E-04;  4.9294946E+02;
 -2.0000000E-02;  9.9999998E-03;  2.3999999E-01;1705;  0.0000000E+00;  0.0000000E+00;  0.0000000E+00;  1.0062327E+03;  1.0000000E-01;  5.1637056E+03;0;  0.0000000E+00;  0.0000000E+00;  0.0000000E+00;0;  1.8311048E-02;  4.0000000E+04;  0.0000000E+00;  0.0000000E+00;  4.0000000E+04;  0.0000000E+00;  4.0000000E+04;  1.7850252E-02;  0.0000000E+00;  4.6079635E-04;  2.9351179E+03;
 -2.0000000E-02;  9.9999998E-03;  2.5000000E-01;1706;  0.0000000E+00;  0.0000000E+00;  0.0000000E+00;  1.0057549E+03;  1.0000000E-01;  4.7677666E+03;0;  0.0000000E+00;  0.0000000E+00;  0.0000000E+00;0;  1.6820287E-02;  4.0000000E+04;  0.0000000E+00;  0.0000000E+00;  4.0000000E+04;  0.0000000E+00;  4.0000000E+04;  1.6045915E-02;  0.0000000E+00;  7.7437155E-04;  2.4613296E+03;
 -2.0000000E-02;  9.9999998E-03;  2.5999999E-01;1707;  0.0000000E+00;  0.0000000E+00;  0.0000000E+00;  1.0052950E+03;  1.0000000E-01;  4.3868389E+03;0;  0.0000000E+00;  0.0000000E+00;  0.0000000E+00;0;  1.5198686E-02;  4.0000000E+04;  0.0000000E+00;  0.0000000E+00;  4.0000000E+04;  0.0000000E+00;  4.0000000E+04;  1.4113647E-02;  0.0000000E+00;  1.0850390E-03;  1.7891053E+03;
 -2.0000000E-02;  9.9999998E-03;  2.7000001E-01;1708;  0.0000000E+00;  0.0000000E+00;  0.0000000E+00;  1.0048417E+03;  1.0000000E-01;  4.0112446E+03;0;  0.0000000E+00;  0.0000000E+00;  0.0000000E+00;0;  1.3467997E-02;  4.0000000E+04;  0.0000000E+00;  0.0000000E+00;  4.0000000E+04;  0.0000000E+00;  4.0000000E+04;  1.2107342E-02;  0.0000000E+00;  1.3606545E-03;  9.8899976E+02;
 -2.0000000E-02;  9.9999998E-03;  2.8000000E-01;1709;  0.0000000E+00;  0.0000000E+00;  0.0000000E+00;  1.0043937E+03;  1.0000000E-01;  3.6400945E+03;0;  0.0000000E+00;  0.0000000E+00;  0.0000000E+00;0;  1.1666536E-02;  4.0000000E+04;  0.0000000E+00;  0.0000000E+00;  4.0000000E+04;  0.0000000E+00;  4.0000000E+04;  1.0099269E-02;  0.0000000E+00;  1.5672670E-03;  3.3080902E+02;
 -2.0000000E-02;  9.9999998E-03;  2.8999999E-01;1710;  0.0000000E+00;  0.0000000E+00;  0.0000000E+00;  1.0039330E+03;  1.0000000E-01;  3.2584758E+03;0;  0.0000000E+00;  0.0000000E+00;  0.0000000E+00;0;  9.8505206E-03;  4.0000000E+04;  0.0000000E+00;  0.0000000E+00;  4.0000000E+04;  0.0000000E+00;  4.0000000E+04;  8.1718480E-03;  0.0000000E+00;  1.6786725E-03;  8.3567462E+02;
 -2.0000000E-02;  9.9999998E-03;  3.0000001E-01;1711;  0.0000000E+00;  0.0000000E+00;  0.0000000E+00;  1.0034505E+03;  1.0000000E-01;  2.8586846E+03;0;  0.0000000E+00;  0.0000000E+00;  0.0000000E+00;0;  8.0904365E-03;  4.0000000E+04;  0.0000000E+00;  0.0000000E+00;  4.0000000E+04;  0.0000000E+00;  4.0000000E+04;  6.4035538E-03;  0.0000000E+00;  1.6868827E-03;  1.4830541E+03;
 -2.0000000E-02;  9.9999998E-03;  3.1000000E-01;1712;  0.0000000E+00;  0.0000000E+00;  0.0000000E+00;  1.0029644E+03;  1.0000000E-01;  2.4559304E+03;0;  0.0000000E+00;  0.0000000E+00;  0.0000000E+00;0;  6.4566373E-03;  4.0000000E+04;  0.0000000E+00;  0.0000000E+00;  4.0000000E+04;  0.0000000E+00;  4.0000000E+04;  4.8524388E-03;  0.0000000E+00;  1.6041985E-03;  1.9487286E+03;
 -2.0000000E-02;  9.9999998E-03;  3.1999999E-01;1713;  0.0000000E+00;  0.0000000E+00;  0.0000000E+00;  1.0024908E+03;  1.0000000E-01;  2.0635466E+03;0;  0.0000000E+00;  0.0000000E+00;  0.0000000E+00;0;  5.0035645E-03;  4.0000000E+04;  0.0000000E+00;  0.0000000E+00;  4.0000000E+04;  0.0000000E+00;  4.0000000E+04;  3.5485351E-03;  0.0000000E+00;  1.4550296E-03;  2.2071228E+03;
 -2.0000000E-02;  9.9999998E-03;  3.3000001E-01;1714;  0.0000000E+00;  0.0000000E+00;  0.0000000E+00;  1.0020286E+03;  1.0000000E-01;  1.6806438E+03;0;  0.0000000E+00;  0.0000000E+00;  0.0000000E+00;0;  3.7630624E-03;  4.0000000E+04;  0.0000000E+00;  0.0000000E+00;  4.0000000E+04;  0.0000000E+00;  4.0000000E+04;  2.4965357E-03;  0.0000000E+00;  1.2665268E-03;  2.2791882E+03;
 -2.0000000E-02;  9.9999998E-03;  3.4000000E-01;1715;  0.0000000E+00;  0.0000000E+00;  0.0000000E+00;  1.0016036E+03;  1.0000000E-01;  1.3285551E+03;0;  0.0000000E+00;  0.0000000E+00;  0.0000000E+00;0;  2.7447282E-03;  4.0000000E+04;  0.0000000E+00;  0.0000000E+00;  4.0000000E+04;  0.0000000E+00;  4.0000000E+04;  1.6823848E-03;  0.0000000E+00;  1.0623435E-03;  2.2039944E+03;
 -2.0000000E-02;  9.9999998E-03;  3.4999999E-01;1716;  0.0000000E+00;  0.0000000E+00;  0.0000000E+00;  1.0012347E+03;  1.0000000E-01;  1.0228846E+03;0;  0.0000000E+00;  0.0000000E+00;  0.0000000E+00;0;  1.9395445E-03;  4.0000000E+04;  0.0000000E+00;  0.0000000E+00;  4.0000000E+04;  0.0000000E+00;  4.0000000E+04;  1.0795250E-03;  0.0000000E+00;  8.6001941E-04;  2.0231851E+03;
 -2.0000000E-02;  9.9999998E-03;  3.6000001E-01;1717;  0.0000000E+00;  0.0000000E+00;  0.0000000E+00;  1.0009064E+03;  1.0000000E-01;  7.5089233E+02;0;  0.0000000E+00;  0.0000000E+00;  0.0000000E+00;0;  1.3252331E-03;  4.0000000E+04;  0.0000000E+00;  0.0000000E+00;  4.0000000E+04;  0.0000000E+00;  4.0000000E+04;  6.5421674E-04;  0.0000000E+00;  6.7101634E-04;  1.7734766E+03;
 -2.0000000E-02;  9.9999998E-03;  3.7000000E-01;1718;  0.0000000E+00;  0.0000000E+00;  0.0000000E+00;  1.0006596E+03;  1.0000000E-01;  5.4645367E+02;0;  0.0000000E+00;  0.0000000E+00;  0.0000000E+00;0;  8.7216950E-04;  4.0000000E+04;  0.0000000E+00;  0.0000000E+00;  4.0000000E+04;  0.0000000E+00;  4.0000000E+04;  3.7013233E-04;  0.0000000E+00;  5.0203718E-04;  1.4847745E+03;
 -2.0000000E-02;  9.9999998E-03;  3.8000000E-01;1719;  0.0000000E+00;  0.0000000E+00;  0.0000000E+00;  1.0004306E+03;  1.0000000E-01;  3.5673065E+02;0;  0.0000000E+00;  0.0000000E+00;  0.0000000E+00;0;  5.4869126E-04;  4.0000000E+04;  0.0000000E+00;  0.0000000E+00;  4.0000000E+04;  0.0000000E+00;  4.0000000E+04;  1.9206278E-04;  0.0000000E+00;  3.5662850E-04;  1.1812738E+03;
 -2.0000000E-02;  9.9999998E-03;  3.8999999E-01;1720;  0.0000000E+00;  0.0000000E+00;  0.0000000E+00;  1.0002778E+03;  1.0000000E-01;  2.3011694E+02;0;  0.0000000E+00;  0.0000000E+00;  0.0000000E+00;0;  3.2519529E-04;  4.0000000E+04;  0.0000000E+00;  0.0000000E+00;  4.0000000E+04;  0.0000000E+00;  4.0000000E+04;  8.8677705E-05;  0.0000000E+00;  2.3651758E-04;  8.8335712E+02;
 -2.0000000E-02;  9.9999998E-03;  4.0000001E-01;1721;  0.0000000E+00;  0.0000000E+00;  0.0000000E+00;  1.0001624E+03;  1.0000000E-01;  1.3451471E+02;0;  0.0000000E+00;  0.0000000E+00;  0.0000000E+00;0;  1.7676179E-04;  4.0000000E+04;  0.0000000E+00;  0.0000000E+00;  4.0000000E+04;  0.0000000E+00;  4.0000000E+04;  3.4263179E-05;  0.0000000E+00;  1.4249861E-04;  6.0969305E+02;
 -9.9999998E-03;  9.9999998E-03;  2.3999999E-01;1796;  0.0000000E+00;  0.0000000E+00;  0.0000000E+00;  1.0082130E+03;  1.0000000E-01;  6.8042520E+03;0;  0.0000000E+00;  0.0000000E+00;  0.0000000E+00;0;  1.8721178E-02;  4.0000000E+04;  0.0000000E+00;  0.0000000E+00;  4.0000000E+04;  0.0000000E+00;  4.0000000E+04;  1.8196316E-02;  0.0000000E+00;  5.2486209E-04;  3.2537576E+03;
 -9.9999998E-03;  9.9999998E-03;  2.5000000E-01;1797;  0.0000000E+00;  0.0000000E+00;  0.0000000E+00;  1.0075851E+03;  1.0000000E-01;  6.2840693E+03;0;  0.0000000E+00;  0.0000000E+00;  0.0000000E+00;0;  1.7261332E-02;  4.0000000E+04;  0.0000000E+00;  0.0000000E+00;  4.0000000E+04;  0.0000000E+00;  4.0000000E+04;  1.6366031E-02;  0.0000000E+00;  8.9530169E-04;  2.7633406E+03;
 -9.9999998E-03;  9.9999998E-03;  2.5999999E-01;1798;  0.0000000E+00;  0.0000000E+00;  0.0000000E+00;  1.0069722E+03;  1.0000000E-01;  5.7763306E+03;0;  0.0000000E+00;  0.0000000E+00;  0.0000000E+00;0;  1.5664876E-02;  4.0000000E+04;  0.0000000E+00;  0.0000000E+00;  4.0000000E+04;  0.0000000E+00;  4.0000000E+04;  1.4398363E-02;  0.0000000E+00;  1.2665120E-03;  2.0270543E+03;
 -9.9999998E-03;  9.9999998E-03;  2.7000001E-01;1799;  0.0000000E+00;  0.0000000E+00;  0.0000000E+00;  1.0063666E+03;  1.0000000E-01;  5.2746162E+03;0;  0.0000000E+00;  0.0000000E+00;  0.0000000E+00;0;  1.3947711E-02;  4.0000000E+04;  0.0000000E+00;  0.0000000E+00;  4.0000000E+04;  0.0000000E+00;  4.0000000E+04;  1.2348159E-02;  0.0000000E+00;  1.5995519E-03;  1.1172664E+03;
 -9.9999998E-03;  9.9999998E-03;  2.8000000E-01;1800;  0.0000000E+00;  0.0000000E+00;  0.0000000E+00;  1.0057558E+03;  1.0000000E-01;  4.7685566E+03;0;  0.0000000E+00;  0.0000000E+00;  0.0000000E+00;0;  1.2141200E-02;  4.0000000E+04;  0.0000000E+00;  0.0000000E+00;  4.0000000E+04;  0.0000000E+00;  4.0000000E+04;  1.0290689E-02;  0.0000000E+00;  1.8505105E-03;  3.0832080E+02;
 -9.9999998E-03;  9.9999998E-03;  2.8999999E-01;1801;  0.0000000E+00;  0.0000000E+00;  0.0000000E+00;  1.0051332E+03;  1.0000000E-01;  4.2527192E+03;0;  0.0000000E+00;  0.0000000E+00;  0.0000000E+00;0;  1.0296732E-02;  4.0000000E+04;  0.0000000E+00;  0.0000000E+00;  4.0000000E+04;  0.0000000E+00;  4.0000000E+04;  8.3140004E-03;  0.0000000E+00;  1.9827320E-03;  9.2667792E+02;
 -9.9999998E-03;  9.9999998E-03;  3.0000001E-01;1802;  0.0000000E+00;  0.0000000E+00;  0.0000000E+00;  1.0044946E+03;  1.0000000E-01;  3.7236477E+03;0;  0.0000000E+00;  0.0000000E+00;  0.0000000E+00;0;  8.4903929E-03;  4.0000000E+04;  0.0000000E+00;  0.0000000E+00;  4.0000000E+04;  0.0000000E+00;  4.0000000E+04;  6.5038493E-03;  0.0000000E+00;  1.9865434E-03;  1.6768234E+03;
 -9.9999998E-03;  9.9999998E-03;  3.1000000E-01;1803;  0.0000000E+00;  0.0000000E+00;  0.0000000E+00;  1.0038494E+03;  1.0000000E-01;  3.1891443E+03;0;  0.0000000E+00;  0.0000000E+00;  0.0000000E+00;0;  6.8023908E-03;  4.0000000E+04;  0.0000000E+00;  0.0000000E+00;  4.0000000E+04;  0.0000000E+00;  4.0000000E+04;  4.9211164E-03;  0.0000000E+00;  1.8812743E-03;  2.2018870E+03;
 -9.9999998E-03;  9.9999998E-03;  3.1999999E-01;1804;  0.0000000E+00;  0.0000000E+00;  0.0000000E+00;  1.0032040E+03;  1.0000000E-01;  2.6544434E+03;0;  0.0000000E+00;  0.0000000E+00;  0.0000000E+00;0;  5.2926512E-03;  4.0000000E+04;  0.0000000E+00;  0.0000000E+00;  4.0000000E+04;  0.0000000E+00;  4.0000000E+04;  3.5936225E-03;  0.0000000E+00;  1.6990288E-03;  2.4836909E+03;
 -9.9999998E-03;  9.9999998E-03;  3.3000001E-01;1805;  0.0000000E+00;  0.0000000E+00;  0.0000000E+00;  1.0026005E+03;  1.0000000E-01;  2.1545071E+03;0;  0.0000000E+00;  0.0000000E+00;  0.0000000E+00;0;  3.9966898E-03;  4.0000000E+04;  0.0000000E+00;  0.0000000E+00;  4.0000000E+04;  0.0000000E+00;  4.0000000E+04;  2.5233191E-03;  0.0000000E+00;  1.4733709E-03;  2.5549346E+03;
 -9.9999998E-03;  9.9999998E-03;  3.4000000E-01;1806;  0.0000000E+00;  0.0000000E+00;  0.0000000E+00;  1.0020635E+03;  1.0000000E-01;  1.7095813E+03;0;  0.0000000E+00;  0.0000000E+00;  0.0000000E+00;0;  2.9270183E-03;  4.0000000E+04;  0.0000000E+00;  0.0000000E+00;  4.0000000E+04;  0.0000000E+00;  4.0000000E+04;  1.6947257E-03;  0.0000000E+00;  1.2322925E-03;  2.4651111E+03;
 -9.9999998E-03;  9.9999998E-03;  3.4999999E-01;1807;  0.0000000E+00;  0.0000000E+00;  0.0000000E+00;  1.0015845E+03;  1.0000000E-01;  1.3127531E+03;0;  0.0000000E+00;  0.0000000E+00;  0.0000000E+00;0;  2.0767075E-03;  4.0000000E+04;  0.0000000E+00;  0.0000000E+00;  4.0000000E+04;  0.0000000E+00;  4.0000000E+04;  1.0808891E-03;  0.0000000E+00;  9.9581841E-04;  2.2623950E+03;
 -9.9999998E-03;  9.9999998E-03;  3.6000001E-01;1808;  0.0000000E+00;  0.0000000E+00;  0.0000000E+00;  1.0011658E+03;  1.0000000E-01;  9.6589862E+02;0;  0.0000000E+00;  0.0000000E+00;  0.0000000E+00;0;  1.4246532E-03;  4.0000000E+04;  0.0000000E+00;  0.0000000E+00;  4.0000000E+04;  0.0000000E+00;  4.0000000E+04;  6.4807781E-04;  0.0000000E+00;  7.7657535E-04;  1.9870029E+03;
 -9.9999998E-03;  9.9999998E-03;  3.7000000E-01;1809;  0.0000000E+00;  0.0000000E+00;  0.0000000E+00;  1.0008362E+03;  1.0000000E-01;  6.9281989E+02;0;  0.0000000E+00;  0.0000000E+00;  0.0000000E+00;0;  9.4156608E-04;  4.0000000E+04;  0.0000000E+00;  0.0000000E+00;  4.0000000E+04;  0.0000000E+00;  4.0000000E+04;  3.5990335E-04;  0.0000000E+00;  5.8166275E-04;  1.6705627E+03;
 -9.9999998E-03;  9.9999998E-03;  3.8000000E-01;1810;  0.0000000E+00;  0.0000000E+00;  0.0000000E+00;  1.0005721E+03;  1.0000000E-01;  4.7396191E+02;0;  0.0000000E+00;  0.0000000E+00;  0.0000000E+00;0;  5.9541536E-04;  4.0000000E+04;  0.0000000E+00;  0.0000000E+00;  4.0000000E+04;  0.0000000E+00;  4.0000000E+04;  1.8078453E-04;  0.0000000E+00;  4.1463086E-04;  1.3380425E+03;
 -9.9999998E-03;  9.9999998E-03;  3.8999999E-01;1811;  0.0000000E+00;  0.0000000E+00;  0.0000000E+00;  1.0003712E+03;  1.0000000E-01;  3.0754684E+02;0;  0.0000000E+00;  0.0000000E+00;  0.0000000E+00;0;  3.5568161E-04;  4.0000000E+04;  0.0000000E+00;  0.0000000E+00;  4.0000000E+04;  0.0000000E+00;  4.0000000E+04;  7.8650140E-05;  0.0000000E+00;  2.7703147E-04;  1.0105187E+03;
 -9.9999998E-03;  9.9999998E-03;  4.0000001E-01;1812;  0.0000000E+00;  0.0000000E+00;  0.0000000E+00;  1.0002291E+03;  1.0000000E-01;  1.8982179E+02;0;  0.0000000E+00;  0.0000000E+00;  0.0000000E+00;0;  1.9608003E-04;  4.0000000E+04;  0.0000000E+00;  0.0000000E+00;  4.0000000E+04;  0.0000000E+00;  4.0000000E+04;  2.6752112E-05;  0.0000000E+00;  1.6932792E-04;  7.0741034E+02;
  0.0000000E+00;  9.9999998E-03;  3.0000001E-01;1834;  0.0000000E+00;  0.0000000E+00;  0.0000000E+00;  1.0055957E+03;  1.0000000E-01;  4.6359185E+03;0;  0.0000000E+00;  0.0000000E+00;  0.0000000E+00;0;  8.6110048E-03;  4.0000000E+04;  0.0000000E+00;  0.0000000E+00;  4.0000000E+04;  0.0000000E+00;  4.0000000E+04;  6.3588265E-03;  0.0000000E+00;  2.2521785E-03;  1.8148552E+03;
  0.0000000E+00;  9.9999998E-03;  3.1000000E-01;1835;  0.0000000E+00;  0.0000000E+00;  0.0000000E+00;  1.0047651E+03;  1.0000000E-01;  3.9478389E+03;0;  0.0000000E+00;  0.0000000E+00;  0.0000000E+00;0;  6.9492953E-03;  4.0000000E+04;  0.0000000E+00;  0.0000000E+00;  4.0000000E+04;  0.0000000E+00;  4.0000000E+04;  4.8245615E-03;  0.0000000E+00;  2.1247340E-03;  2.3873447E+03;
  0.0000000E+00;  9.9999998E-03;  3.1999999E-01;1836;  0.0000000E+00;  0.0000000E+00;  0.0000000E+00;  1.0039474E+03;  1.0000000E-01;  3.2704260E+03;0;  0.0000000E+00;  0.0000000E+00;  0.0000000E+00;0;  5.4437970E-03;  4.0000000E+04;  0.0000000E+00;  0.0000000E+00;  4.0000000E+04;  0.0000000E+00;  4.0000000E+04;  3.5326919E-03;  0.0000000E+00;  1.9111050E-03;  2.6831509E+03;
  0.0000000E+00;  9.9999998E-03;  3.3000001E-01;1837;  0.0000000E+00;  0.0000000E+00;  0.0000000E+00;  1.0031890E+03;  1.0000000E-01;  2.6419993E+03;0;  0.0000000E+00;  0.0000000E+00;  0.0000000E+00;0;  4.1365903E-03;  4.0000000E+04;  0.0000000E+00;  0.0000000E+00;  4.0000000E+04;  0.0000000E+00;  4.0000000E+04;  2.4855209E-03;  0.0000000E+00;  1.6510695E-03;  2.7497253E+03;
  0.0000000E+00;  9.9999998E-03;  3.4000000E-01;1838;  0.0000000E+00;  0.0000000E+00;  0.0000000E+00;  1.0025150E+03;  1.0000000E-01;  2.0835955E+03;0;  0.0000000E+00;  0.0000000E+00;  0.0000000E+00;0;  3.0464528E-03;  4.0000000E+04;  0.0000000E+00;  0.0000000E+00;  4.0000000E+04;  0.0000000E+00;  4.0000000E+04;  1.6699960E-03;  0.0000000E+00;  1.3764568E-03;  2.6466025E+03;
  0.0000000E+00;  9.9999998E-03;  3.4999999E-01;1839;  0.0000000E+00;  0.0000000E+00;  0.0000000E+00;  1.0019311E+03;  1.0000000E-01;  1.5998560E+03;0;  0.0000000E+00;  0.0000000E+00;  0.0000000E+00;0;  2.1716228E-03;  4.0000000E+04;  0.0000000E+00;  0.0000000E+00;  4.0000000E+04;  0.0000000E+00;  4.0000000E+04;  1.0623313E-03;  0.0000000E+00;  1.1092916E-03;  2.4269324E+03;
  0.0000000E+00;  9.9999998E-03;  3.6000001E-01;1840;  0.0000000E+00;  0.0000000E+00;  0.0000000E+00;  1.0014494E+03;  1.0000000E-01;  1.2007561E+03;0;  0.0000000E+00;  0.0000000E+00;  0.0000000E+00;0;  1.4949180E-03;  4.0000000E+04;  0.0000000E+00;  0.0000000E+00;  4.0000000E+04;  0.0000000E+00;  4.0000000E+04;  6.3185266E-04;  0.0000000E+00;  8.6306536E-04;  2.1327942E+03;
  0.0000000E+00;  9.9999998E-03;  3.7000000E-01;1841;  0.0000000E+00;  0.0000000E+00;  0.0000000E+00;  1.0010287E+03;  1.0000000E-01;  8.5232159E+02;0;  0.0000000E+00;  0.0000000E+00;  0.0000000E+00;0;  9.8975806E-04;  4.0000000E+04;  0.0000000E+00;  0.0000000E+00;  4.0000000E+04;  0.0000000E+00;  4.0000000E+04;  3.4461103E-04;  0.0000000E+00;  6.4514705E-04;  1.7965969E+03;
  0.0000000E+00;  9.9999998E-03;  3.8000000E-01;1842;  0.0000000E+00;  0.0000000E+00;  0.0000000E+00;  1.0007151E+03;  1.0000000E-01;  5.9247705E+02;0;  0.0000000E+00;  0.0000000E+00;  0.0000000E+00;0;  6.2574580E-04;  4.0000000E+04;  0.0000000E+00;  0.0000000E+00;  4.0000000E+04;  0.0000000E+00;  4.0000000E+04;  1.6661087E-04;  0.0000000E+00;  4.5913493E-04;  1.4437003E+03;
  0.0000000E+00;  9.9999998E-03;  3.8999999E-01;1843;  0.0000000E+00;  0.0000000E+00;  0.0000000E+00;  1.0004694E+03;  1.0000000E-01;  3.8892728E+02;0;  0.0000000E+00;  0.0000000E+00;  0.0000000E+00;0;  3.7306591E-04;  4.0000000E+04;  0.0000000E+00;  0.0000000E+00;  4.0000000E+04;  0.0000000E+00;  4.0000000E+04;  6.6502173E-05;  0.0000000E+00;  3.0656374E-04;  1.0957494E+03;
  0.0000000E+00;  9.9999998E-03;  4.0000001E-01;1844;  0.0000000E+00;  0.0000000E+00;  0.0000000E+00;  1.0002874E+03;  1.0000000E-01;  2.3811673E+02;0;  0.0000000E+00;  0.0000000E+00;  0.0000000E+00;0;  2.0528707E-04;  4.0000000E+04;  0.0000000E+00;  0.0000000E+00;  4.0000000E+04;  0.0000000E+00;  4.0000000E+04;  1.7505496E-05;  0.0000000E+00;  1.8778157E-04;  7.7293781E+02;
  9.9999998E-03;  9.9999998E-03;  3.1000000E-01;1865;  0.0000000E+00;  0.0000000E+00;  0.0000000E+00;  1.0056511E+03;  1.0000000E-01;  4.6818428E+03;0;  0.0000000E+00;  0.0000000E+00;  0.0000000E+00;0;  6.9445893E-03;  4.0000000E+04;  0.0000000E+00;  0.0000000E+00;  4.0000000E+04;  0.0000000E+00;  4.0000000E+04;  4.6357084E-03;  0.0000000E+00;  2.3088809E-03;  2.4721272E+03;
  9.9999998E-03;  9.9999998E-03;  3.1999999E-01;1866;  0.0000000E+00;  0.0000000E+00;  0.0000000E+00;  1.0046680E+03;  1.0000000E-01;  3.8673474E+03;0;  0.0000000E+00;  0.0000000E+00;  0.0000000E+00;0;  5.4961634E-03;  4.0000000E+04;  0.0000000E+00;  0.0000000E+00;  4.0000000E+04;  0.0000000E+00;  4.0000000E+04;  3.4253651E-03;  0.0000000E+00;  2.0707983E-03;  2.7781033E+03;
  9.9999998E-03;  9.9999998E-03;  3.3000001E-01;1867;  0.0000000E+00;  0.0000000E+00;  0.0000000E+00;  1.0037648E+03;  1.0000000E-01;  3.1190229E+03;0;  0.0000000E+00;  0.0000000E+00;  0.0000000E+00;0;  4.2149499E-03;  4.0000000E+04;  0.0000000E+00;  0.0000000E+00;  4.0000000E+04;  0.0000000E+00;  4.0000000E+04;  2.4309254E-03;  0.0000000E+00;  1.7840243E-03;  2.8436865E+03;
  9.9999998E-03;  9.9999998E-03;  3.4000000E-01;1868;  0.0000000E+00;  0.0000000E+00;  0.0000000E+00;  1.0029520E+03;  1.0000000E-01;  2.4456592E+03;0;  0.0000000E+00;  0.0000000E+00;  0.0000000E+00;0;  3.1292895E-03;  4.0000000E+04;  0.0000000E+00;  0.0000000E+00;  4.0000000E+04;  0.0000000E+00;  4.0000000E+04;  1.6459081E-03;  0.0000000E+00;  1.4833814E-03;  2.7352358E+03;
  9.9999998E-03;  9.9999998E-03;  3.4999999E-01;1869;  0.0000000E+00;  0.0000000E+00;  0.0000000E+00;  1.0022629E+03;  1.0000000E-01;  1.8748112E+03;0;  0.0000000E+00;  0.0000000E+00;  0.0000000E+00;0;  2.2454998E-03;  4.0000000E+04;  0.0000000E+00;  0.0000000E+00;  4.0000000E+04;  0.0000000E+00;  4.0000000E+04;  1.0532058E-03;  0.0000000E+00;  1.1922939E-03;  2.5081077E+03;
  9.9999998E-03;  9.9999998E-03;  3.6000001E-01;1870;  0.0000000E+00;  0.0000000E+00;  0.0000000E+00;  1.0016994E+03;  1.0000000E-01;  1.4079602E+03;0;  0.0000000E+00;  0.0000000E+00;  0.0000000E+00;0;  1.5528576E-03;  4.0000000E+04;  0.0000000E+00;  0.0000000E+00;  4.0000000E+04;  0.0000000E+00;  4.0000000E+04;  6.2803715E-04;  0.0000000E+00;  9.2482043E-04;  2.2048770E+03;
  9.9999998E-03;  9.9999998E-03;  3.7000000E-01;1871;  0.0000000E+00;  0.0000000E+00;  0.0000000E+00;  1.0012090E+03;  1.0000000E-01;  1.0016507E+03;0;  0.0000000E+00;  0.0000000E+00;  0.0000000E+00;0;  1.0296892E-03;  4.0000000E+04;  0.0000000E+00;  0.0000000E+00;  4.0000000E+04;  0.0000000E+00;  4.0000000E+04;  3.4112102E-04;  0.0000000E+00;  6.8856817E-04;  1.8579359E+03;
  9.9999998E-03;  9.9999998E-03;  3.8000000E-01;1872;  0.0000000E+00;  0.0000000E+00;  0.0000000E+00;  1.0008412E+03;  1.0000000E-01;  6.9696796E+02;0;  0.0000000E+00;  0.0000000E+00;  0.0000000E+00;0;  6.4907596E-04;  4.0000000E+04;  0.0000000E+00;  0.0000000E+00;  4.0000000E+04;  0.0000000E+00;  4.0000000E+04;  1.6175103E-04;  0.0000000E+00;  4.8732496E-04;  1.4931135E+03;
  9.9999998E-03;  9.9999998E-03;  3.8999999E-01;1873;  0.0000000E+00;  0.0000000E+00;  0.0000000E+00;  1.0005603E+03;  1.0000000E-01;  4.6418442E+02;0;  0.0000000E+00;  0.0000000E+00;  0.0000000E+00;0;  3.8344256E-04;  4.0000000E+04;  0.0000000E+00;  0.0000000E+00;  4.0000000E+04;  0.0000000E+00;  4.0000000E+04;  6.0567658E-05;  0.0000000E+00;  3.2287490E-04;  1.1330525E+03;
  9.9999998E-03;  9.9999998E-03;  4.0000001E-01;1874;  0.0000000E+00;  0.0000000E+00;  0.0000000E+00;  1.0003432E+03;  1.0000000E-01;  2.8433765E+02;0;  0.0000000E+00;  0.0000000E+00;  0.0000000E+00;0;  2.0746161E-04;  4.0000000E+04;  0.0000000E+00;  0.0000000E+00;  4.0000000E+04;  0.0000000E+00;  4.0000000E+04;  1.1663986E-05;  0.0000000E+00;  1.9579762E-04;  7.9933887E+02;
  2.0000000E-02;  9.9999998E-03;  3.1000000E-01;1895;  0.0000000E+00;  0.0000000E+00;  0.0000000E+00;  1.0064115E+03;  1.0000000E-01;  5.3118496E+03;0;  0.0000000E+00;  0.0000000E+00;  0.0000000E+00;0;  6.8753008E-03;  4.0000000E+04;  0.0000000E+00;  0.0000000E+00;  4.0000000E+04;  0.0000000E+00;  4.0000000E+04;  4.4629844E-03;  0.0000000E+00;  2.4123162E-03;  2.4359817E+03;
  2.0000000E-02;  9.9999998E-03;  3.1999999E-01;1896;  0.0000000E+00;  0.0000000E+00;  0.0000000E+00;  1.0052995E+03;  1.0000000E-01;  4.3904932E+03;0;  0.0000000E+00;  0.0000000E+00;  0.0000000E+00;0;  5.5142837E-03;  4.0000000E+04;  0.0000000E+00;  0.0000000E+00;  4.0000000E+04;  0.0000000E+00;  4.0000000E+04;  3.3522104E-03;  0.0000000E+00;  2.1620735E-03;  2.7578267E+03;
  2.0000000E-02;  9.9999998E-03;  3.3000001E-01;1897;  0.0000000E+00;  0.0000000E+00;  0.0000000E+00;  1.0042560E+03;  1.0000000E-01;  3.5260237E+03;0;  0.0000000E+00;  0.0000000E+00;  0.0000000E+00;0;  4.2804070E-03;  4.0000000E+04;  0.0000000E+00;  0.0000000E+00;  4.0000000E+04;  0.0000000E+00;  4.0000000E+04;  2.4193886E-03;  0.0000000E+00;  1.8610181E-03;  2.8355430E+03;
  2.0000000E-02;  9.9999998E-03;  3.4000000E-01;1898;  0.0000000E+00;  0.0000000E+00;  0.0000000E+00;  1.0033392E+03;  1.0000000E-01;  2.7665391E+03;0;  0.0000000E+00;  0.0000000E+00;  0.0000000E+00;0;  3.2126962E-03;  4.0000000E+04;  0.0000000E+00;  0.0000000E+00;  4.0000000E+04;  0.0000000E+00;  4.0000000E+04;  1.6669254E-03;  0.0000000E+00;  1.5457708E-03;  2.7366125E+03;
  2.0000000E-02;  9.9999998E-03;  3.4999999E-01;1899;  0.0000000E+00;  0.0000000E+00;  0.0000000E+00;  1.0025565E+03;  1.0000000E-01;  2.1180635E+03;0;  0.0000000E+00;  0.0000000E+00;  0.0000000E+00;0;  2.3270748E-03;  4.0000000E+04;  0.0000000E+00;  0.0000000E+00;  4.0000000E+04;  0.0000000E+00;  4.0000000E+04;  1.0865517E-03;  0.0000000E+00;  1.2405231E-03;  2.5157810E+03;
  2.0000000E-02;  9.9999998E-03;  3.6000001E-01;1900;  0.0000000E+00;  0.0000000E+00;  0.0000000E+00;  1.0019085E+03;  1.0000000E-01;  1.5811898E+03;0;  0.0000000E+00;  0.0000000E+00;  0.0000000E+00;0;  1.6208957E-03;  4.0000000E+04;  0.0000000E+00;  0.0000000E+00;  4.0000000E+04;  0.0000000E+00;  4.0000000E+04;  6.6118274E-04;  0.0000000E+00;  9.5971290E-04;  2.2148281E+03;
  2.0000000E-02;  9.9999998E-03;  3.7000000E-01;1901;  0.0000000E+00;  0.0000000E+00;  0.0000000E+00;  1.0013750E+03;  1.0000000E-01;  1.1391283E+03;0;  0.0000000E+00;  0.0000000E+00;  0.0000000E+00;0;  1.0788757E-03;  4.0000000E+04;  0.0000000E+00;  0.0000000E+00;  4.0000000E+04;  0.0000000E+00;  4.0000000E+04;  3.6760152E-04;  0.0000000E+00;  7.1127428E-04;  1.8659156E+03;
  2.0000000E-02;  9.9999998E-03;  3.8000000E-01;1902;  0.0000000E+00;  0.0000000E+00;  0.0000000E+00;  1.0009558E+03;  1.0000000E-01;  7.9187885E+02;0;  0.0000000E+00;  0.0000000E+00;  0.0000000E+00;0;  6.7888713E-04;  4.0000000E+04;  0.0000000E+00;  0.0000000E+00;  4.0000000E+04;  0.0000000E+00;  4.0000000E+04;  1.7946750E-04;  0.0000000E+00;  4.9941964E-04;  1.4957506E+03;
  2.0000000E-02;  9.9999998E-03;  3.8999999E-01;1903;  0.0000000E+00;  0.0000000E+00;  0.0000000E+00;  1.0006490E+03;  1.0000000E-01;  5.3766382E+02;0;  0.0000000E+00;  0.0000000E+00;  0.0000000E+00;0;  3.9675474E-04;  4.0000000E+04;  0.0000000E+00;  0.0000000E+00;  4.0000000E+04;  0.0000000E+00;  4.0000000E+04;  7.0246017E-05;  0.0000000E+00;  3.2650871E-04;  1.1289263E+03;
  2.0000000E-02;  9.9999998E-03;  4.0000001E-01;1904;  0.0000000E+00;  0.0000000E+00;  0.0000000E+00;  1.0004037E+03;  1.0000000E-01;  3.3450906E+02;0;  0.0000000E+00;  0.0000000E+00;  0.0000000E+00;0;  2.0926593E-04;  4.0000000E+04;  0.0000000E+00;  0.0000000E+00;  4.0000000E+04;  0.0000000E+00;  4.0000000E+04;  1.5495230E-05;  0.0000000E+00;  1.9377070E-04;  7.8962720E+02;
  2.9999999E-02;  9.9999998E-03;  3.1000000E-01;1925;  0.0000000E+00;  0.0000000E+00;  0.0000000E+00;  1.0070050E+03;  1.0000000E-01;  5.8034902E+03;0;  0.0000000E+00;  0.0000000E+00;  0.0000000E+00;0;  6.8419753E-03;  4.0000000E+04;  0.0000000E+00;  0.0000000E+00;  4.0000000E+04;  0.0000000E+00;  4.0000000E+04;  4.4169221E-03;  0.0000000E+00;  2.4250532E-03;  2.2991199E+03;
  2.9999999E-02;  9.9999998E-03;  3.1999999E-01;1926;  0.0000000E+00;  0.0000000E+00;  0.0000000E+00;  1.0057780E+03;  1.0000000E-01;  4.7869263E+03;0;  0.0000000E+00;  0.0000000E+00;  0.0000000E+00;0;  5.5709463E-03;  4.0000000E+04;  0.0000000E+00;  0.0000000E+00;  4.0000000E+04;  0.0000000E+00;  4.0000000E+04;  3.3926950E-03;  0.0000000E+00;  2.1782515E-03;  2.6446592E+03;
  2.9999999E-02;  9.9999998E-03;  3.3000001E-01;1927;  0.0000000E+00;  0.0000000E+00;  0.0000000E+00;  1.0046335E+03;  1.0000000E-01;  3.8388049E+03;0;  0.0000000E+00;  0.0000000E+00;  0.0000000E+00;0;  4.3861791E-03;  4.0000000E+04;  0.0000000E+00;  0.0000000E+00;  4.0000000E+04;  0.0000000E+00;  4.0000000E+04;  2.5076705E-03;  0.0000000E+00;  1.8785086E-03;  2.7520022E+03;
  2.9999999E-02;  9.9999998E-03;  3.4000000E-01;1928;  0.0000000E+00;  0.0000000E+00;  0.0000000E+00;  1.0036348E+03;  1.0000000E-01;  3.0113716E+03;0;  0.0000000E+00;  0.0000000E+00;  0.0000000E+00;0;  3.3361739E-03;  4.0000000E+04;  0.0000000E+00;  0.0000000E+00;  4.0000000E+04;  0.0000000E+00;  4.0000000E+04;  1.7735892E-03;  0.0000000E+00;  1.5625847E-03;  2.6806023E+03;
  2.9999999E-02;  9.9999998E-03;  3.4999999E-01;1929;  0.0000000E+00;  0.0000000E+00;  0.0000000E+00;  1.0027814E+03;  1.0000000E-01;  2.3043298E+03;0;  0.0000000E+00;  0.0000000E+00;  0.0000000E+00;0;  2.4462328E-03;  4.0000000E+04;  0.0000000E+00;  0.0000000E+00;  4.0000000E+04;  0.0000000E+00;  4.0000000E+04;  1.1914521E-03;  0.0000000E+00;  1.2547808E-03;  2.4810432E+03;
  2.9999999E-02;  9.9999998E-03;  3.6000001E-01;1930;  0.0000000E+00;  0.0000000E+00;  0.0000000E+00;  1.0020691E+03;  1.0000000E-01;  1.7142231E+03;0;  0.0000000E+00;  0.0000000E+00;  0.0000000E+00;0;  1.7221081E-03;  4.0000000E+04;  0.0000000E+00;  0.0000000E+00;  4.0000000E+04;  0.0000000E+00;  4.0000000E+04;  7.5227441E-04;  0.0000000E+00;  9.6983364E-04;  2.1930640E+03;
  2.9999999E-02;  9.9999998E-03;  3.7000000E-01;1931;  0.0000000E+00;  0.0000000E+00;  0.0000000E+00;  1.0015026E+03;  1.0000000E-01;  1.2448043E+03;0;  0.0000000E+00;  0.0000000E+00;  0.0000000E+00;0;  1.1554642E-03;  4.0000000E+04;  0.0000000E+00;  0.0000000E+00;  4.0000000E+04;  0.0000000E+00;  4.0000000E+04;  4.3928219E-04;  0.0000000E+00;  7.1618200E-04;  1.8487679E+03;
  2.9999999E-02;  9.9999998E-03;  3.8000000E-01;1932;  0.0000000E+00;  0.0000000E+00;  0.0000000E+00;  1.0010457E+03;  1.0000000E-01;  8.6634589E+02;0;  0.0000000E+00;  0.0000000E+00;  0.0000000E+00;0;  7.2962220E-04;  4.0000000E+04;  0.0000000E+00;  0.0000000E+00;  4.0000000E+04;  0.0000000E+00;  4.0000000E+04;  2.3086891E-04;  0.0000000E+00;  4.9875327E-04;  1.4764323E+03;
  2.9999999E-02;  9.9999998E-03;  3.8999999E-01;1933;  0.0000000E+00;  0.0000000E+00;  0.0000000E+00;  1.0007151E+03;  1.0000000E-01;  5.9247705E+02;0;  0.0000000E+00;  0.0000000E+00;  0.0000000E+00;0;  4.2440888E-04;  4.0000000E+04;  0.0000000E+00;  0.0000000E+00;  4.0000000E+04;  0.0000000E+00;  4.0000000E+04;  1.0358828E-04;  0.0000000E+00;  3.2082060E-04;  1.1036160E+03;
  2.9999999E-02;  9.9999998E-03;  4.0000001E-01;1934;  0.0000000E+00;  0.0000000E+00;  0.0000000E+00;  1.0004472E+03;  1.0000000E-01;  3.7045865E+02;0;  0.0000000E+00;  0.0000000E+00;  0.0000000E+00;0;  2.1930075E-04;  4.0000000E+04;  0.0000000E+00;  0.0000000E+00;  4.0000000E+04;  0.0000000E+00;  4.0000000E+04;  3.4659501E-05;  0.0000000E+00;  1.8464125E-04;  7.5859717E+02;
  3.9999999E-02;  9.9999998E-03;  3.1000000E-01;1955;  0.0000000E+00;  0.0000000E+00;  0.0000000E+00;  1.0074077E+03;  1.0000000E-01;  6.1371104E+03;0;  0.0000000E+00;  0.0000000E+00;  0.0000000E+00;0;  6.9293957E-03;  4.0000000E+04;  0.0000000E+00;  0.0000000E+00;  4.0000000E+04;  0.0000000E+00;  4.0000000E+04;  4.5757289E-03;  0.0000000E+00;  2.3536666E-03;  2.1230747E+03;
  3.9999999E-02;  9.9999998E-03;  3.1999999E-01;1956;  0.0000000E+00;  0.0000000E+00;  0.0000000E+00;  1.0060984E+03;  1.0000000E-01;  5.0524004E+03;0;  0.0000000E+00;  0.0000000E+00;  0.0000000E+00;0;  5.7267323E-03;  4.0000000E+04;  0.0000000E+00;  0.0000000E+00;  4.0000000E+04;  0.0000000E+00;  4.0000000E+04;  3.6013748E-03;  0.0000000E+00;  2.1253575E-03;  2.4970752E+03;
  3.9999999E-02;  9.9999998E-03;  3.3000001E-01;1957;  0.0000000E+00;  0.0000000E+00;  0.0000000E+00;  1.0048964E+03;  1.0000000E-01;  4.0565767E+03;0;  0.0000000E+00;  0.0000000E+00;  0.0000000E+00;0;  4.5754737E-03;  4.0000000E+04;  0.0000000E+00;  0.0000000E+00;  4.0000000E+04;  0.0000000E+00;  4.0000000E+04;  2.7329391E-03;  0.0000000E+00;  1.8425348E-03;  2.6490798E+03;
  3.9999999E-02;  9.9999998E-03;  3.4000000E-01;1958;  0.0000000E+00;  0.0000000E+00;  0.0000000E+00;  1.0038337E+03;  1.0000000E-01;  3.1761077E+03;0;  0.0000000E+00;  0.0000000E+00;  0.0000000E+00;0;  3.5308430E-03;  4.0000000E+04;  0.0000000E+00;  0.0000000E+00;  4.0000000E+04;  0.0000000E+00;  4.0000000E+04;  1.9909085E-03;  0.0000000E+00;  1.5399344E-03;  2.6208137E+03;
  3.9999999E-02;  9.9999998E-03;  3.4999999E-01;1959;  0.0000000E+00;  0.0000000E+00;  0.0000000E+00;  1.0029254E+03;  1.0000000E-01;  2.4236353E+03;0;  0.0000000E+00;  0.0000000E+00;  0.0000000E+00;0;  2.6260058E-03;  4.0000000E+04;  0.0000000E+00;  0.0000000E+00;  4.0000000E+04;  0.0000000E+00;  4.0000000E+04;  1.3847802E-03;  0.0000000E+00;  1.2412256E-03;  2.4543484E+03;
  3.9999999E-02;  9.9999998E-03;  3.6000001E-01;1960;  0.0000000E+00;  0.0000000E+00;  0.0000000E+00;  1.0021910E+03;  1.0000000E-01;  1.8151586E+03;0;  0.0000000E+00;  0.0000000E+00;  0.0000000E+00;0;  1.8742478E-03;  4.0000000E+04;  0.0000000E+00;  0.0000000E+00;  4.0000000E+04;  0.0000000E+00;  4.0000000E+04;  9.1290550E-04;  0.0000000E+00;  9.6134224E-04;  2.1861914E+03;
  3.9999999E-02;  9.9999998E-03;  3.7000000E-01;1961;  0.0000000E+00;  0.0000000E+00;  0.0000000E+00;  1.0015783E+03;  1.0000000E-01;  1.3076173E+03;0;  0.0000000E+00;  0.0000000E+00;  0.0000000E+00;0;  1.2737941E-03;  4.0000000E+04;  0.0000000E+00;  0.0000000E+00;  4.0000000E+04;  0.0000000E+00;  4.0000000E+04;  5.6439545E-04;  0.0000000E+00;  7.0939865E-04;  1.8485872E+03;
  3.9999999E-02;  9.9999998E-03;  3.8000000E-01;1962;  0.0000000E+00;  0.0000000E+00;  0.0000000E+00;  1.0011052E+03;  1.0000000E-01;  9.1562842E+02;0;  0.0000000E+00;  0.0000000E+00;  0.0000000E+00;0;  8.1326207E-04;  4.0000000E+04;  0.0000000E+00;  0.0000000E+00;  4.0000000E+04;  0.0000000E+00;  4.0000000E+04;  3.2198644E-04;  0.0000000E+00;  4.9127563E-04;  1.4721843E+03;
  3.9999999E-02;  9.9999998E-03;  3.8999999E-01;1963;  0.0000000E+00;  0.0000000E+00;  0.0000000E+00;  1.0007561E+03;  1.0000000E-01;  6.2645142E+02;0;  0.0000000E+00;  0.0000000E+00;  0.0000000E+00;0;  4.7650607E-04;  4.0000000E+04;  0.0000000E+00;  0.0000000E+00;  4.0000000E+04;  0.0000000E+00;  4.0000000E+04;  1.6509629E-04;  0.0000000E+00;  3.1140976E-04;  1.0886605E+03;
  3.9999999E-02;  9.9999998E-03;  4.0000001E-01;1964;  0.0000000E+00;  0.0000000E+00;  0.0000000E+00;  1.0004854E+03;  1.0000000E-01;  4.0216147E+02;0;  0.0000000E+00;  0.0000000E+00;  0.0000000E+00;0;  2.4593109E-04;  4.0000000E+04;  0.0000000E+00;  0.0000000E+00;  4.0000000E+04;  0.0000000E+00;  4.0000000E+04;  7.2548297E-05;  0.0000000E+00;  1.7338280E-04;  7.3148926E+02;
  5.0000001E-02;  9.9999998E-03;  3.1000000E-01;1985;  0.0000000E+00;  0.0000000E+00;  0.0000000E+00;  1.0076034E+03;  1.0000000E-01;  6.2992788E+03;0;  0.0000000E+00;  0.0000000E+00;  0.0000000E+00;0;  7.1831858E-03;  4.0000000E+04;  0.0000000E+00;  0.0000000E+00;  4.0000000E+04;  0.0000000E+00;  4.0000000E+04;  4.9639996E-03;  0.0000000E+00;  2.2191862E-03;  1.9864879E+03;
  5.0000001E-02;  9.9999998E-03;  3.1999999E-01;1986;  0.0000000E+00;  0.0000000E+00;  0.0000000E+00;  1.0062658E+03;  1.0000000E-01;  5.1910630E+03;0;  0.0000000E+00;  0.0000000E+00;  0.0000000E+00;0;  6.0136705E-03;  4.0000000E+04;  0.0000000E+00;  0.0000000E+00;  4.0000000E+04;  0.0000000E+00;  4.0000000E+04;  3.9925645E-03;  0.0000000E+00;  2.0211060E-03;  2.3946377E+03;
  5.0000001E-02;  9.9999998E-03;  3.3000001E-01;1987;  0.0000000E+00;  0.0000000E+00;  0.0000000E+00;  1.0050276E+03;  1.0000000E-01;  4.1653145E+03;0;  0.0000000E+00;  0.0000000E+00;  0.0000000E+00;0;  4.8697088E-03;  4.0000000E+04;  0.0000000E+00;  0.0000000E+00;  4.0000000E+04;  0.0000000E+00;  4.0000000E+04;  3.1018916E-03;  0.0000000E+00;  1.7678171E-03;  2.6020771E+03;
  5.0000001E-02;  9.9999998E-03;  3.4000000E-01;1988;  0.0000000E+00;  0.0000000E+00;  0.0000000E+00;  1.0039357E+03;  1.0000000E-01;  3.2606484E+03;0;  0.0000000E+00;  0.0000000E+00;  0.0000000E+00;0;  3.8107303E-03;  4.0000000E+04;  0.0000000E+00;  0.0000000E+00;  4.0000000E+04;  0.0000000E+00;  4.0000000E+04;  2.3206226E-03;  0.0000000E+00;  1.4901076E-03;  2.6262986E+03;
  5.0000001E-02;  9.9999998E-03;  3.4999999E-01;1989;  0.0000000E+00;  0.0000000E+00;  0.0000000E+00;  1.0030061E+03;  1.0000000E-01;  2.4904976E+03;0;  0.0000000E+00;  0.0000000E+00;  0.0000000E+00;0;  2.8758100E-03;  4.0000000E+04;  0.0000000E+00;  0.0000000E+00;  4.0000000E+04;  0.0000000E+00;  4.0000000E+04;  1.6655517E-03;  0.0000000E+00;  1.2102583E-03;  2.4979602E+03;
  5.0000001E-02;  9.9999998E-03;  3.6000001E-01;1990;  0.0000000E+00;  0.0000000E+00;  0.0000000E+00;  1.0022312E+03;  1.0000000E-01;  1.8485403E+03;0;  0.0000000E+00;  0.0000000E+00;  0.0000000E+00;0;  2.0843563E-03;  4.0000000E+04;  0.0000000E+00;  0.0000000E+00;  4.0000000E+04;  0.0000000E+00;  4.0000000E+04;  1.1410855E-03;  0.0000000E+00;  9.4327074E-04;  2.2498047E+03;
  5.0000001E-02;  9.9999998E-03;  3.7000000E-01;1991;  0.0000000E+00;  0.0000000E+00;  0.0000000E+00;  1.0016099E+03;  1.0000000E-01;  1.3337894E+03;0;  0.0000000E+00;  0.0000000E+00;  0.0000000E+00;0;  1.4400260E-03;  4.0000000E+04;  0.0000000E+00;  0.0000000E+00;  4.0000000E+04;  0.0000000E+00;  4.0000000E+04;  7.4102677E-04;  0.0000000E+00;  6.9899921E-04;  1.9146425E+03;
  5.0000001E-02;  9.9999998E-03;  3.8000000E-01;1992;  0.0000000E+00;  0.0000000E+00;  0.0000000E+00;  1.0011436E+03;  1.0000000E-01;  9.4742999E+02;0;  0.0000000E+00;  0.0000000E+00;  0.0000000E+00;0;  9.3586615E-04;  4.0000000E+04;  0.0000000E+00;  0.0000000E+00;  4.0000000E+04;  0.0000000E+00;  4.0000000E+04;  4.5149919E-04;  0.0000000E+00;  4.8436699E-04;  1.5263086E+03;
  5.0000001E-02;  9.9999998E-03;  3.8999999E-01;1993;  0.0000000E+00;  0.0000000E+00;  0.0000000E+00;  1.0007579E+03;  1.0000000E-01;  6.2793286E+02;0;  0.0000000E+00;  0.0000000E+00;  0.0000000E+00;0;  5.5922102E-04;  4.0000000E+04;  0.0000000E+00;  0.0000000E+00;  4.0000000E+04;  0.0000000E+00;  4.0000000E+04;  2.5418022E-04;  0.0000000E+00;  3.0504080E-04;  1.1213568E+03;
  5.0000001E-02;  9.9999998E-03;  4.0000001E-01;1994;  0.0000000E+00;  0.0000000E+00;  0.0000000E+00;  1.0005006E+03;  1.0000000E-01;  4.1470432E+02;0;  0.0000000E+00;  0.0000000E+00;  0.0000000E+00;0;  2.9517419E-04;  4.0000000E+04;  0.0000000E+00;  0.0000000E+00;  4.0000000E+04;  0.0000000E+00;  4.0000000E+04;  1.2914867E-04;  0.0000000E+00;  1.6602552E-04;  7.3940497E+02;
  5.9999999E-02;  9.9999998E-03;  3.1000000E-01;2015;  0.0000000E+00;  0.0000000E+00;  0.0000000E+00;  1.0076398E+03;  1.0000000E-01;  6.3295000E+03;0;  0.0000000E+00;  0.0000000E+00;  0.0000000E+00;0;  7.6009911E-03;  4.0000000E+04;  0.0000000E+00;  0.0000000E+00;  4.0000000E+04;  0.0000000E+00;  4.0000000E+04;  5.5509582E-03;  0.0000000E+00;  2.0500328E-03;  1.9384156E+03;
  5.9999999E-02;  9.9999998E-03;  3.1999999E-01;2016;  0.0000000E+00;  0.0000000E+00;  0.0000000E+00;  1.0063004E+03;  1.0000000E-01;  5.2197041E+03;0;  0.0000000E+00;  0.0000000E+00;  0.0000000E+00;0;  6.4292140E-03;  4.0000000E+04;  0.0000000E+00;  0.0000000E+00;  4.0000000E+04;  0.0000000E+00;  4.0000000E+04;  4.5393598E-03;  0.0000000E+00;  1.8898544E-03;  2.4074380E+03;
  5.9999999E-02;  9.9999998E-03;  3.3000001E-01;2017;  0.0000000E+00;  0.0000000E+00;  0.0000000E+00;  1.0050602E+03;  1.0000000E-01;  4.1922764E+03;0;  0.0000000E+00;  0.0000000E+00;  0.0000000E+00;0;  5.2649537E-03;  4.0000000E+04;  0.0000000E+00;  0.0000000E+00;  4.0000000E+04;  0.0000000E+00;  4.0000000E+04;  3.5908080E-03;  0.0000000E+00;  1.6741457E-03;  2.6852112E+03;
  5.9999999E-02;  9.9999998E-03;  3.4000000E-01;2018;  0.0000000E+00;  0.0000000E+00;  0.0000000E+00;  1.0039576E+03;  1.0000000E-01;  3.2788208E+03;0;  0.0000000E+00;  0.0000000E+00;  0.0000000E+00;0;  4.1706567E-03;  4.0000000E+04;  0.0000000E+00;  0.0000000E+00;  4.0000000E+04;  0.0000000E+00;  4.0000000E+04;  2.7418684E-03;  0.0000000E+00;  1.4287883E-03;  2.7667136E+03;
  5.9999999E-02;  9.9999998E-03;  3.4999999E-01;2019;  0.0000000E+00;  0.0000000E+00;  0.0000000E+00;  1.0030168E+03;  1.0000000E-01;  2.4993860E+03;0;  0.0000000E+00;  0.0000000E+00;  0.0000000E+00;0;  3.1900154E-03;  4.0000000E+04;  0.0000000E+00;  0.0000000E+00;  4.0000000E+04;  0.0000000E+00;  4.0000000E+04;  2.0157420E-03;  0.0000000E+00;  1.1742733E-03;  2.6737405E+03;
  5.9999999E-02;  9.9999998E-03;  3.6000001E-01;2020;  0.0000000E+00;  0.0000000E+00;  0.0000000E+00;  1.0022408E+03;  1.0000000E-01;  1.8564413E+03;0;  0.0000000E+00;  0.0000000E+00;  0.0000000E+00;0;  2.3473012E-03;  4.0000000E+04;  0.0000000E+00;  0.0000000E+00;  4.0000000E+04;  0.0000000E+00;  4.0000000E+04;  1.4217451E-03;  0.0000000E+00;  9.2555606E-04;  2.4376301E+03;
  5.9999999E-02;  9.9999998E-03;  3.7000000E-01;2021;  0.0000000E+00;  0.0000000E+00;  0.0000000E+00;  1.0016081E+03;  1.0000000E-01;  1.3323080E+03;0;  0.0000000E+00;  0.0000000E+00;  0.0000000E+00;0;  1.6504206E-03;  4.0000000E+04;  0.0000000E+00;  0.0000000E+00;  4.0000000E+04;  0.0000000E+00;  4.0000000E+04;  9.5719920E-04;  0.0000000E+00;  6.9322140E-04;  2.0936663E+03;
  5.9999999E-02;  9.9999998E-03;  3.8000000E-01;2022;  0.0000000E+00;  0.0000000E+00;  0.0000000E+00;  1.0011451E+03;  1.0000000E-01;  9.4871393E+02;0;  0.0000000E+00;  0.0000000E+00;  0.0000000E+00;0;  1.0956981E-03;  4.0000000E+04;  0.0000000E+00;  0.0000000E+00;  4.0000000E+04;  0.0000000E+00;  4.0000000E+04;  6.1053340E-04;  0.0000000E+00;  4.8516467E-04;  1.6797753E+03;
  5.9999999E-02;  9.9999998E-03;  3.8999999E-01;2023;  0.0000000E+00;  0.0000000E+00;  0.0000000E+00;  1.0007668E+03;  1.0000000E-01;  6.3524127E+02;0;  0.0000000E+00;  0.0000000E+00;  0.0000000E+00;0;  6.7292305E-04;  4.0000000E+04;  0.0000000E+00;  0.0000000E+00;  4.0000000E+04;  0.0000000E+00;  4.0000000E+04;  3.6479920E-04;  0.0000000E+00;  3.0812388E-04;  1.2375697E+03;
  5.9999999E-02;  9.9999998E-03;  4.0000001E-01;2024;  0.0000000E+00;  0.0000000E+00;  0.0000000E+00;  1.0004890E+03;  1.0000000E-01;  4.0512436E+02;0;  0.0000000E+00;  0.0000000E+00;  0.0000000E+00;0;  3.6909585E-04;  4.0000000E+04;  0.0000000E+00;  0.0000000E+00;  4.0000000E+04;  0.0000000E+00;  4.0000000E+04;  2.0075194E-04;  0.0000000E+00;  1.6834392E-04;  8.1310004E+02;
  7.0000000E-02;  9.9999998E-03;  3.1000000E-01;2045;  0.0000000E+00;  0.0000000E+00;  0.0000000E+00;  1.0075721E+03;  1.0000000E-01;  6.2734028E+03;0;  0.0000000E+00;  0.0000000E+00;  0.0000000E+00;0;  8.1360321E-03;  4.0000000E+04;  0.0000000E+00;  0.0000000E+00;  4.0000000E+04;  0.0000000E+00;  4.0000000E+04;  6.2616980E-03;  0.0000000E+00;  1.8743341E-03;  1.9579795E+03;
  7.0000000E-02;  9.9999998E-03;  3.1999999E-01;2046;  0.0000000E+00;  0.0000000E+00;  0.0000000E+00;  1.0062625E+03;  1.0000000E-01;  5.1882979E+03;0;  0.0000000E+00;  0.0000000E+00;  0.0000000E+00;0;  6.9382717E-03;  4.0000000E+04;  0.0000000E+00;  0.0000000E+00;  4.0000000E+04;  0.0000000E+00;  4.0000000E+04;  5.1821526E-03;  0.0000000E+00;  1.7561191E-03;  2.5644373E+03;
  7.0000000E-02;  9.9999998E-03;  3.3000001E-01;2047;  0.0000000E+00;  0.0000000E+00;  0.0000000E+00;  1.0050306E+03;  1.0000000E-01;  4.1677832E+03;0;  0.0000000E+00;  0.0000000E+00;  0.0000000E+00;0;  5.7337689E-03;  4.0000000E+04;  0.0000000E+00;  0.0000000E+00;  4.0000000E+04;  0.0000000E+00;  4.0000000E+04;  4.1524805E-03;  0.0000000E+00;  1.5812885E-03;  2.9468853E+03;
  7.0000000E-02;  9.9999998E-03;  3.4000000E-01;2048;  0.0000000E+00;  0.0000000E+00;  0.0000000E+00;  1.0039340E+03;  1.0000000E-01;  3.2592659E+03;0;  0.0000000E+00;  0.0000000E+00;  0.0000000E+00;0;  4.5884391E-03;  4.0000000E+04;  0.0000000E+00;  0.0000000E+00;  4.0000000E+04;  0.0000000E+00;  4.0000000E+04;  3.2172729E-03;  0.0000000E+00;  1.3711663E-03;  3.0932815E+03;
  7.0000000E-02;  9.9999998E-03;  3.4999999E-01;2049;  0.0000000E+00;  0.0000000E+00;  0.0000000E+00;  1.0029945E+03;  1.0000000E-01;  2.4809175E+03;0;  0.0000000E+00;  0.0000000E+00;  0.0000000E+00;0;  3.5503856E-03;  4.0000000E+04;  0.0000000E+00;  0.0000000E+00;  4.0000000E+04;  0.0000000E+00;  4.0000000E+04;  2.4057350E-03;  0.0000000E+00;  1.1446505E-03;  3.0279978E+03;
  7.0000000E-02;  9.9999998E-03;  3.6000001E-01;2050;  0.0000000E+00;  0.0000000E+00;  0.0000000E+00;  1.0022070E+03;  1.0000000E-01;  1.8283927E+03;0;  0.0000000E+00;  0.0000000E+00;  0.0000000E+00;0;  2.6481852E-03;  4.0000000E+04;  0.0000000E+00;  0.0000000E+00;  4.0000000E+04;  0.0000000E+00;  4.0000000E+04;  1.7314660E-03;  0.0000000E+00;  9.1671920E-04;  2.7892517E+03;
  7.0000000E-02;  9.9999998E-03;  3.7000000E-01;2051;  0.0000000E+00;  0.0000000E+00;  0.0000000E+00;  1.0015865E+03;  1.0000000E-01;  1.3144320E+03;0;  0.0000000E+00;  0.0000000E+00;  0.0000000E+00;0;  1.8931635E-03;  4.0000000E+04;  0.0000000E+00;  0.0000000E+00;  4.0000000E+04;  0.0000000E+00;  4.0000000E+04;  1.1945841E-03;  0.0000000E+00;  6.9857948E-04;  2.4193052E+03;
  7.0000000E-02;  9.9999998E-03;  3.8000000E-01;2052;  0.0000000E+00;  0.0000000E+00;  0.0000000E+00;  1.0011138E+03;  1.0000000E-01;  9.2273932E+02;0;  0.0000000E+00;  0.0000000E+00;  0.0000000E+00;0;  1.2840263E-03;  4.0000000E+04;  0.0000000E+00;  0.0000000E+00;  4.0000000E+04;  0.0000000E+00;  4.0000000E+04;  7.8514306E-04;  0.0000000E+00;  4.9888325E-04;  1.9617921E+03;
  7.0000000E-02;  9.9999998E-03;  3.8999999E-01;2053;  0.0000000E+00;  0.0000000E+00;  0.0000000E+00;  1.0007501E+03;  1.0000000E-01;  6.2141455E+02;0;  0.0000000E+00;  0.0000000E+00;  0.0000000E+00;0;  8.1201491E-04;  4.0000000E+04;  0.0000000E+00;  0.0000000E+00;  4.0000000E+04;  0.0000000E+00;  4.0000000E+04;  4.8689498E-04;  0.0000000E+00;  3.2511997E-04;  1.4633923E+03;
  7.0000000E-02;  9.9999998E-03;  4.0000001E-01;2054;  0.0000000E+00;  0.0000000E+00;  0.0000000E+00;  1.0004565E+03;  1.0000000E-01;  3.7826089E+02;0;  0.0000000E+00;  0.0000000E+00;  0.0000000E+00;0;  4.6507447E-04;  4.0000000E+04;  0.0000000E+00;  0.0000000E+00;  4.0000000E+04;  0.0000000E+00;  4.0000000E+04;  2.8068270E-04;  0.0000000E+00;  1.8439177E-04;  9.7599188E+02;
  7.9999998E-02;  9.9999998E-03;  3.1000000E-01;2075;  0.0000000E+00;  0.0000000E+00;  0.0000000E+00;  1.0074782E+03;  1.0000000E-01;  6.1955776E+03;0;  0.0000000E+00;  0.0000000E+00;  0.0000000E+00;0;  8.7084211E-03;  4.0000000E+04;  0.0000000E+00;  0.0000000E+00;  4.0000000E+04;  0.0000000E+00;  4.0000000E+04;  6.9949413E-03;  0.0000000E+00;  1.7134796E-03;  2.0561289E+03;
  7.9999998E-02;  9.9999998E-03;  3.1999999E-01;2076;  0.0000000E+00;  0.0000000E+00;  0.0000000E+00;  1.0061989E+03;  1.0000000E-01;  5.1356572E+03;0;  0.0000000E+00;  0.0000000E+00;  0.0000000E+00;0;  7.4805468E-03;  4.0000000E+04;  0.0000000E+00;  0.0000000E+00;  4.0000000E+04;  0.0000000E+00;  4.0000000E+04;  5.8420370E-03;  0.0000000E+00;  1.6385099E-03;  2.8860593E+03;
  7.9999998E-02;  9.9999998E-03;  3.3000001E-01;2077;  0.0000000E+00;  0.0000000E+00;  0.0000000E+00;  1.0049901E+03;  1.0000000E-01;  4.1342041E+03;0;  0.0000000E+00;  0.0000000E+00;  0.0000000E+00;0;  6.2302020E-03;  4.0000000E+04;  0.0000000E+00;  0.0000000E+00;  4.0000000E+04;  0.0000000E+00;  4.0000000E+04;  4.7263270E-03;  0.0000000E+00;  1.5038749E-03;  3.4093528E+03;
  7.9999998E-02;  9.9999998E-03;  3.4000000E-01;2078;  0.0000000E+00;  0.0000000E+00;  0.0000000E+00;  1.0038970E+03;  1.0000000E-01;  3.2285508E+03;0;  0.0000000E+00;  0.0000000E+00;  0.0000000E+00;0;  5.0286846E-03;  4.0000000E+04;  0.0000000E+00;  0.0000000E+00;  4.0000000E+04;  0.0000000E+00;  4.0000000E+04;  3.7007693E-03;  0.0000000E+00;  1.3279156E-03;  3.6269873E+03;
  7.9999998E-02;  9.9999998E-03;  3.4999999E-01;2079;  0.0000000E+00;  0.0000000E+00;  0.0000000E+00;  1.0029593E+03;  1.0000000E-01;  2.4516838E+03;0;  0.0000000E+00;  0.0000000E+00;  0.0000000E+00;0;  3.9294176E-03;  4.0000000E+04;  0.0000000E+00;  0.0000000E+00;  4.0000000E+04;  0.0000000E+00;  4.0000000E+04;  2.8006625E-03;  0.0000000E+00;  1.1287553E-03;  3.5789683E+03;
  7.9999998E-02;  9.9999998E-03;  3.6000001E-01;2080;  0.0000000E+00;  0.0000000E+00;  0.0000000E+00;  1.0021745E+03;  1.0000000E-01;  1.8015293E+03;0;  0.0000000E+00;  0.0000000E+00;  0.0000000E+00;0;  2.9654000E-03;  4.0000000E+04;  0.0000000E+00;  0.0000000E+00;  4.0000000E+04;  0.0000000E+00;  4.0000000E+04;  2.0438056E-03;  0.0000000E+00;  9.2159433E-04;  3.3196807E+03;
  7.9999998E-02;  9.9999998E-03;  3.7000000E-01;2081;  0.0000000E+00;  0.0000000E+00;  0.0000000E+00;  1.0015594E+03;  1.0000000E-01;  1.2919141E+03;0;  0.0000000E+00;  0.0000000E+00;  0.0000000E+00;0;  2.1511714E-03;  4.0000000E+04;  0.0000000E+00;  0.0000000E+00;  4.0000000E+04;  0.0000000E+00;  4.0000000E+04;  1.4330352E-03;  0.0000000E+00;  7.1813614E-04;  2.9037041E+03;
  7.9999998E-02;  9.9999998E-03;  3.8000000E-01;2082;  0.0000000E+00;  0.0000000E+00;  0.0000000E+00;  1.0010795E+03;  1.0000000E-01;  8.9429572E+02;0;  0.0000000E+00;  0.0000000E+00;  0.0000000E+00;0;  1.4874443E-03;  4.0000000E+04;  0.0000000E+00;  0.0000000E+00;  4.0000000E+04;  0.0000000E+00;  4.0000000E+04;  9.5997431E-04;  0.0000000E+00;  5.2746997E-04;  2.3825774E+03;
  7.9999998E-02;  9.9999998E-03;  3.8999999E-01;2083;  0.0000000E+00;  0.0000000E+00;  0.0000000E+00;  1.0007198E+03;  1.0000000E-01;  5.9642755E+02;0;  0.0000000E+00;  0.0000000E+00;  0.0000000E+00;0;  9.6641853E-04;  4.0000000E+04;  0.0000000E+00;  0.0000000E+00;  4.0000000E+04;  0.0000000E+00;  4.0000000E+04;  6.0901686E-04;  0.0000000E+00;  3.5740167E-04;  1.8083097E+03;
  7.9999998E-02;  9.9999998E-03;  4.0000001E-01;2084;  0.0000000E+00;  0.0000000E+00;  0.0000000E+00;  1.0004404E+03;  1.0000000E-01;  3.6492795E+02;0;  0.0000000E+00;  0.0000000E+00;  0.0000000E+00;0;  5.7627494E-04;  4.0000000E+04;  0.0000000E+00;  0.0000000E+00;  4.0000000E+04;  0.0000000E+00;  4.0000000E+04;  3.6088630E-04;  0.0000000E+00;  2.1538863E-04;  1.2378481E+03;
  9.0000004E-02;  9.9999998E-03;  3.1000000E-01;2105;  0.0000000E+00;  0.0000000E+00;  0.0000000E+00;  1.0074474E+03;  1.0000000E-01;  6.1699985E+03;0;  0.0000000E+00;  0.0000000E+00;  0.0000000E+00;0;  9.2199519E-03;  4.0000000E+04;  0.0000000E+00;  0.0000000E+00;  4.0000000E+04;  0.0000000E+00;  4.0000000E+04;  7.6426631E-03;  0.0000000E+00;  1.5772885E-03;  2.6799417E+03;
  9.0000004E-02;  9.9999998E-03;  3.1999999E-01;2106;  0.0000000E+00;  0.0000000E+00;  0.0000000E+00;  1.0061928E+03;  1.0000000E-01;  5.1306201E+03;0;  0.0000000E+00;  0.0000000E+00;  0.0000000E+00;0;  7.9805786E-03;  4.0000000E+04;  0.0000000E+00;  0.0000000E+00;  4.0000000E+04;  0.0000000E+00;  4.0000000E+04;  6.4355219E-03;  0.0000000E+00;  1.5450567E-03;  3.5526917E+03;
  9.0000004E-02;  9.9999998E-03;  3.3000001E-01;2107;  0.0000000E+00;  0.0000000E+00;  0.0000000E+00;  1.0049912E+03;  1.0000000E-01;  4.1350928E+03;0;  0.0000000E+00;  0.0000000E+00;  0.0000000E+00;0;  6.6966093E-03;  4.0000000E+04;  0.0000000E+00;  0.0000000E+00;  4.0000000E+04;  0.0000000E+00;  4.0000000E+04;  5.2492912E-03;  0.0000000E+00;  1.4473182E-03;  4.1346851E+03;
  9.0000004E-02;  9.9999998E-03;  3.4000000E-01;2108;  0.0000000E+00;  0.0000000E+00;  0.0000000E+00;  1.0038987E+03;  1.0000000E-01;  3.2300320E+03;0;  0.0000000E+00;  0.0000000E+00;  0.0000000E+00;0;  5.4475274E-03;  4.0000000E+04;  0.0000000E+00;  0.0000000E+00;  4.0000000E+04;  0.0000000E+00;  4.0000000E+04;  4.1455645E-03;  0.0000000E+00;  1.3019630E-03;  4.3787061E+03;
  9.0000004E-02;  9.9999998E-03;  3.4999999E-01;2109;  0.0000000E+00;  0.0000000E+00;  0.0000000E+00;  1.0029547E+03;  1.0000000E-01;  2.4479307E+03;0;  0.0000000E+00;  0.0000000E+00;  0.0000000E+00;0;  4.2935982E-03;  4.0000000E+04;  0.0000000E+00;  0.0000000E+00;  4.0000000E+04;  0.0000000E+00;  4.0000000E+04;  3.1660865E-03;  0.0000000E+00;  1.1275118E-03;  4.3186582E+03;
  9.0000004E-02;  9.9999998E-03;  3.6000001E-01;2110;  0.0000000E+00;  0.0000000E+00;  0.0000000E+00;  1.0021608E+03;  1.0000000E-01;  1.7901716E+03;0;  0.0000000E+00;  0.0000000E+00;  0.0000000E+00;0;  3.2730545E-03;  4.0000000E+04;  0.0000000E+00;  0.0000000E+00;  4.0000000E+04;  0.0000000E+00;  4.0000000E+04;  2.3334073E-03;  0.0000000E+00;  9.3964709E-04;  4.0155427E+03;
  9.0000004E-02;  9.9999998E-03;  3.7000000E-01;2111;  0.0000000E+00;  0.0000000E+00;  0.0000000E+00;  1.0015359E+03;  1.0000000E-01;  1.2724579E+03;0;  0.0000000E+00;  0.0000000E+00;  0.0000000E+00;0;  2.4041818E-03;  4.0000000E+04;  0.0000000E+00;  0.0000000E+00;  4.0000000E+04;  0.0000000E+00;  4.0000000E+04;  1.6538048E-03;  0.0000000E+00;  7.5037690E-04;  3.5328230E+03;
  9.0000004E-02;  9.9999998E-03;  3.8000000E-01;2112;  0.0000000E+00;  0.0000000E+00;  0.0000000E+00;  1.0010598E+03;  1.0000000E-01;  8.7799988E+02;0;  0.0000000E+00;  0.0000000E+00;  0.0000000E+00;0;  1.6899523E-03;  4.0000000E+04;  0.0000000E+00;  0.0000000E+00;  4.0000000E+04;  0.0000000E+00;  4.0000000E+04;  1.1211059E-03;  0.0000000E+00;  5.6884653E-04;  2.9292993E+03;
  9.0000004E-02;  9.9999998E-03;  3.8999999E-01;2113;  0.0000000E+00;  0.0000000E+00;  0.0000000E+00;  1.0006890E+03;  1.0000000E-01;  5.7084802E+02;0;  0.0000000E+00;  0.0000000E+00;  0.0000000E+00;0;  1.1235363E-03;  4.0000000E+04;  0.0000000E+00;  0.0000000E+00;  4.0000000E+04;  0.0000000E+00;  4.0000000E+04;  7.2082592E-04;  0.0000000E+00;  4.0271037E-04;  2.2619004E+03;
  9.0000004E-02;  9.9999998E-03;  4.0000001E-01;2114;  0.0000000E+00;  0.0000000E+00;  0.0000000E+00;  1.0004176E+03;  1.0000000E-01;  3.4596552E+02;0;  0.0000000E+00;  0.0000000E+00;  0.0000000E+00;0;  6.9311669E-04;  4.0000000E+04;  0.0000000E+00;  0.0000000E+00;  4.0000000E+04;  0.0000000E+00;  4.0000000E+04;  4.3385624E-04;  0.0000000E+00;  2.5926041E-04;  1.5914801E+03;
  1.0000000E-01;  9.9999998E-03;  3.1000000E-01;2135;  0.0000000E+00;  0.0000000E+00;  0.0000000E+00;  1.0075443E+03;  1.0000000E-01;  6.2502925E+03;0;  0.0000000E+00;  0.0000000E+00;  0.0000000E+00;0;  9.5692109E-03;  4.0000000E+04;  0.0000000E+00;  0.0000000E+00;  4.0000000E+04;  0.0000000E+00;  4.0000000E+04;  8.1078298E-03;  0.0000000E+00;  1.4613816E-03;  4.8029814E+03;
  1.0000000E-01;  9.9999998E-03;  3.1999999E-01;2136;  0.0000000E+00;  0.0000000E+00;  0.0000000E+00;  1.0062988E+03;  1.0000000E-01;  5.2184204E+03;0;  0.0000000E+00;  0.0000000E+00;  0.0000000E+00;0;  8.3580753E-03;  4.0000000E+04;  0.0000000E+00;  0.0000000E+00;  4.0000000E+04;  0.0000000E+00;  4.0000000E+04;  6.8875104E-03;  0.0000000E+00;  1.4705651E-03;  5.1259282E+03;
  1.0000000E-01;  9.9999998E-03;  3.3000001E-01;2137;  0.0000000E+00;  0.0000000E+00;  0.0000000E+00;  1.0050854E+03;  1.0000000E-01;  4.2131152E+03;0;  0.0000000E+00;  0.0000000E+00;  0.0000000E+00;0;  7.0707761E-03;  4.0000000E+04;  0.0000000E+00;  0.0000000E+00;  4.0000000E+04;  0.0000000E+00;  4.0000000E+04;  5.6651402E-03;  0.0000000E+00;  1.4056361E-03;  5.3792173E+03;
  1.0000000E-01;  9.9999998E-03;  3.4000000E-01;2138;  0.0000000E+00;  0.0000000E+00;  0.0000000E+00;  1.0039757E+03;  1.0000000E-01;  3.2938328E+03;0;  0.0000000E+00;  0.0000000E+00;  0.0000000E+00;0;  5.7973722E-03;  4.0000000E+04;  0.0000000E+00;  0.0000000E+00;  4.0000000E+04;  0.0000000E+00;  4.0000000E+04;  4.5104735E-03;  0.0000000E+00;  1.2868985E-03;  5.4323877E+03;
  1.0000000E-01;  9.9999998E-03;  3.4999999E-01;2139;  0.0000000E+00;  0.0000000E+00;  0.0000000E+00;  1.0030033E+03;  1.0000000E-01;  2.4881272E+03;0;  0.0000000E+00;  0.0000000E+00;  0.0000000E+00;0;  4.6065478E-03;  4.0000000E+04;  0.0000000E+00;  0.0000000E+00;  4.0000000E+04;  0.0000000E+00;  4.0000000E+04;  3.4721626E-03;  0.0000000E+00;  1.1343849E-03;  5.2482588E+03;
  1.0000000E-01;  9.9999998E-03;  3.6000001E-01;2140;  0.0000000E+00;  0.0000000E+00;  0.0000000E+00;  1.0021864E+03;  1.0000000E-01;  1.8114055E+03;0;  0.0000000E+00;  0.0000000E+00;  0.0000000E+00;0;  3.5431650E-03;  4.0000000E+04;  0.0000000E+00;  0.0000000E+00;  4.0000000E+04;  0.0000000E+00;  4.0000000E+04;  2.5787654E-03;  0.0000000E+00;  9.6439978E-04;  4.8456074E+03;
  1.0000000E-01;  9.9999998E-03;  3.7000000E-01;2141;  0.0000000E+00;  0.0000000E+00;  0.0000000E+00;  1.0015362E+03;  1.0000000E-01;  1.2727542E+03;0;  0.0000000E+00;  0.0000000E+00;  0.0000000E+00;0;  2.6303995E-03;  4.0000000E+04;  0.0000000E+00;  0.0000000E+00;  4.0000000E+04;  0.0000000E+00;  4.0000000E+04;  1.8414087E-03;  0.0000000E+00;  7.8899099E-04;  4.2677808E+03;
  1.0000000E-01;  9.9999998E-03;  3.8000000E-01;2142;  0.0000000E+00;  0.0000000E+00;  0.0000000E+00;  1.0010533E+03;  1.0000000E-01;  8.7266669E+02;0;  0.0000000E+00;  0.0000000E+00;  0.0000000E+00;0;  1.8743663E-03;  4.0000000E+04;  0.0000000E+00;  0.0000000E+00;  4.0000000E+04;  0.0000000E+00;  4.0000000E+04;  1.2574110E-03;  0.0000000E+00;  6.1695534E-04;  3.5658955E+03;
  1.0000000E-01;  9.9999998E-03;  3.8999999E-01;2143;  0.0000000E+00;  0.0000000E+00;  0.0000000E+00;  1.0006708E+03;  1.0000000E-01;  5.5573737E+02;0;  0.0000000E+00;  0.0000000E+00;  0.0000000E+00;0;  1.2697170E-03;  4.0000000E+04;  0.0000000E+00;  0.0000000E+00;  4.0000000E+04;  0.0000000E+00;  4.0000000E+04;  8.1435626E-04;  0.0000000E+00;  4.5536077E-04;  2.7944990E+03;
  1.0000000E-01;  9.9999998E-03;  4.0000001E-01;2144;  0.0000000E+00;  0.0000000E+00;  0.0000000E+00;  1.0003998E+03;  1.0000000E-01;  3.3124988E+02;0;  0.0000000E+00;  0.0000000E+00;  0.0000000E+00;0;  8.0482929E-04;  4.0000000E+04;  0.0000000E+00;  0.0000000E+00;  4.0000000E+04;  0.0000000E+00;  4.0000000E+04;  4.9392541E-04;  0.0000000E+00;  3.1090385E-04;  2.0143907E+03;
  1.1000000E-01;  9.9999998E-03;  3.1000000E-01;2165;  0.0000000E+00;  0.0000000E+00;  0.0000000E+00;  1.0078313E+03;  1.0000000E-01;  6.4881128E+03;0;  0.0000000E+00;  0.0000000E+00;  0.0000000E+00;0;  9.6675968E-03;  4.0000000E+04;  0.0000000E+00;  0.0000000E+00;  4.0000000E+04;  0.0000000E+00;  4.0000000E+04;  8.3202748E-03;  0.0000000E+00;  1.3473220E-03;  9.1003242E+03;
  1.1000000E-01;  9.9999998E-03;  3.1999999E-01;2166;  0.0000000E+00;  0.0000000E+00;  0.0000000E+00;  1.0065645E+03;  1.0000000E-01;  5.4385620E+03;0;  0.0000000E+00;  0.0000000E+00;  0.0000000E+00;0;  8.5396599E-03;  4.0000000E+04;  0.0000000E+00;  0.0000000E+00;  4.0000000E+04;  0.0000000E+00;  4.0000000E+04;  7.1428861E-03;  0.0000000E+00;  1.3967736E-03;  8.4142461E+03;
  1.1000000E-01;  9.9999998E-03;  3.3000001E-01;2167;  0.0000000E+00;  0.0000000E+00;  0.0000000E+00;  1.0053146E+03;  1.0000000E-01;  4.4030361E+03;0;  0.0000000E+00;  0.0000000E+00;  0.0000000E+00;0;  7.2941436E-03;  4.0000000E+04;  0.0000000E+00;  0.0000000E+00;  4.0000000E+04;  0.0000000E+00;  4.0000000E+04;  5.9322240E-03;  0.0000000E+00;  1.3619193E-03;  7.7274219E+03;
  1.1000000E-01;  9.9999998E-03;  3.4000000E-01;2168;  0.0000000E+00;  0.0000000E+00;  0.0000000E+00;  1.0041577E+03;  1.0000000E-01;  3.4445447E+03;0;  0.0000000E+00;  0.0000000E+00;  0.0000000E+00;0;  6.0324604E-03;  4.0000000E+04;  0.0000000E+00;  0.0000000E+00;  4.0000000E+04;  0.0000000E+00;  4.0000000E+04;  4.7647399E-03;  0.0000000E+00;  1.2677207E-03;  7.0870820E+03;
  1.1000000E-01;  9.9999998E-03;  3.4999999E-01;2169;  0.0000000E+00;  0.0000000E+00;  0.0000000E+00;  1.0031415E+03;  1.0000000E-01;  2.6026919E+03;0;  0.0000000E+00;  0.0000000E+00;  0.0000000E+00;0;  4.8328410E-03;  4.0000000E+04;  0.0000000E+00;  0.0000000E+00;  4.0000000E+04;  0.0000000E+00;  4.0000000E+04;  3.6965976E-03;  0.0000000E+00;  1.1362435E-03;  6.4614258E+03;
  1.1000000E-01;  9.9999998E-03;  3.6000001E-01;2170;  0.0000000E+00;  0.0000000E+00;  0.0000000E+00;  1.0022814E+03;  1.0000000E-01;  1.8901194E+03;0;  0.0000000E+00;  0.0000000E+00;  0.0000000E+00;0;  3.7482642E-03;  4.0000000E+04;  0.0000000E+00;  0.0000000E+00;  4.0000000E+04;  0.0000000E+00;  4.0000000E+04;  2.7639547E-03;  0.0000000E+00;  9.8430959E-04;  5.7957251E+03;
  1.1000000E-01;  9.9999998E-03;  3.7000000E-01;2171;  0.0000000E+00;  0.0000000E+00;  0.0000000E+00;  1.0015978E+03;  1.0000000E-01;  1.3238145E+03;0;  0.0000000E+00;  0.0000000E+00;  0.0000000E+00;0;  2.8083706E-03;  4.0000000E+04;  0.0000000E+00;  0.0000000E+00;  4.0000000E+04;  0.0000000E+00;  4.0000000E+04;  1.9846575E-03;  0.0000000E+00;  8.2371314E-04;  5.0554639E+03;
  1.1000000E-01;  9.9999998E-03;  3.8000000E-01;2172;  0.0000000E+00;  0.0000000E+00;  0.0000000E+00;  1.0010742E+03;  1.0000000E-01;  8.8995013E+02;0;  0.0000000E+00;  0.0000000E+00;  0.0000000E+00;0;  2.0237630E-03;  4.0000000E+04;  0.0000000E+00;  0.0000000E+00;  4.0000000E+04;  0.0000000E+00;  4.0000000E+04;  1.3611864E-03;  0.0000000E+00;  6.6257664E-04;  4.2369824E+03;
  1.1000000E-01;  9.9999998E-03;  3.8999999E-01;2173;  0.0000000E+00;  0.0000000E+00;  0.0000000E+00;  1.0006815E+03;  1.0000000E-01;  5.6452722E+02;0;  0.0000000E+00;  0.0000000E+00;  0.0000000E+00;0;  1.3915236E-03;  4.0000000E+04;  0.0000000E+00;  0.0000000E+00;  4.0000000E+04;  0.0000000E+00;  4.0000000E+04;  8.8445103E-04;  0.0000000E+00;  5.0707260E-04;  3.3628057E+03;
  1.1000000E-01;  9.9999998E-03;  4.0000001E-01;2174;  0.0000000E+00;  0.0000000E+00;  0.0000000E+00;  1.0004040E+03;  1.0000000E-01;  3.3470657E+02;0;  0.0000000E+00;  0.0000000E+00;  0.0000000E+00;0;  9.0074202E-04;  4.0000000E+04;  0.0000000E+00;  0.0000000E+00;  4.0000000E+04;  0.0000000E+00;  4.0000000E+04;  5.3772354E-04;  0.0000000E+00;  3.6301848E-04;  2.4777092E+03;
  1.2000000E-01;  9.9999998E-03;  3.1000000E-01;2195;  0.0000000E+00;  0.0000000E+00;  0.0000000E+00;  1.0083374E+03;  1.0000000E-01;  6.9073604E+03;0;  0.0000000E+00;  0.0000000E+00;  0.0000000E+00;0;  9.4595738E-03;  4.0000000E+04;  0.0000000E+00;  0.0000000E+00;  4.0000000E+04;  0.0000000E+00;  4.0000000E+04;  8.2531208E-03;  0.0000000E+00;  1.2064528E-03;  1.6026232E+04;
  1.2000000E-01;  9.9999998E-03;  3.1999999E-01;2196;  0.0000000E+00;  0.0000000E+00;  0.0000000E+00;  1.0070246E+03;  1.0000000E-01;  5.8197861E+03;0;  0.0000000E+00;  0.0000000E+00;  0.0000000E+00;0;  8.4739309E-03;  4.0000000E+04;  0.0000000E+00;  0.0000000E+00;  4.0000000E+04;  0.0000000E+00;  4.0000000E+04;  7.1776723E-03;  0.0000000E+00;  1.2962582E-03;  1.4116822E+04;
  1.2000000E-01;  9.9999998E-03;  3.3000001E-01;2197;  0.0000000E+00;  0.0000000E+00;  0.0000000E+00;  1.0057143E+03;  1.0000000E-01;  4.7341870E+03;0;  0.0000000E+00;  0.0000000E+00;  0.0000000E+00;0;  7.3223887E-03;  4.0000000E+04;  0.0000000E+00;  0.0000000E+00;  4.0000000E+04;  0.0000000E+00;  4.0000000E+04;  6.0301782E-03;  0.0000000E+00;  1.2922107E-03;  1.1956532E+04;
  1.2000000E-01;  9.9999998E-03;  3.4000000E-01;2198;  0.0000000E+00;  0.0000000E+00;  0.0000000E+00;  1.0044865E+03;  1.0000000E-01;  3.7170308E+03;0;  0.0000000E+00;  0.0000000E+00;  0.0000000E+00;0;  6.1160424E-03;  4.0000000E+04;  0.0000000E+00;  0.0000000E+00;  4.0000000E+04;  0.0000000E+00;  4.0000000E+04;  4.8918268E-03;  0.0000000E+00;  1.2242156E-03;  9.9367266E+03;
  1.2000000E-01;  9.9999998E-03;  3.4999999E-01;2199;  0.0000000E+00;  0.0000000E+00;  0.0000000E+00;  1.0033948E+03;  1.0000000E-01;  2.8125625E+03;0;  0.0000000E+00;  0.0000000E+00;  0.0000000E+00;0;  4.9427487E-03;  4.0000000E+04;  0.0000000E+00;  0.0000000E+00;  4.0000000E+04;  0.0000000E+00;  4.0000000E+04;  3.8266061E-03;  0.0000000E+00;  1.1161428E-03;  8.2608330E+03;
  1.2000000E-01;  9.9999998E-03;  3.6000001E-01;2200;  0.0000000E+00;  0.0000000E+00;  0.0000000E+00;  1.0024686E+03;  1.0000000E-01;  2.0451768E+03;0;  0.0000000E+00;  0.0000000E+00;  0.0000000E+00;0;  3.8646434E-03;  4.0000000E+04;  0.0000000E+00;  0.0000000E+00;  4.0000000E+04;  0.0000000E+00;  4.0000000E+04;  2.8796233E-03;  0.0000000E+00;  9.8502007E-04;  6.9363442E+03;
  1.2000000E-01;  9.9999998E-03;  3.7000000E-01;2201;  0.0000000E+00;  0.0000000E+00;  0.0000000E+00;  1.0017277E+03;  1.0000000E-01;  1.4313669E+03;0;  0.0000000E+00;  0.0000000E+00;  0.0000000E+00;0;  2.9192830E-03;  4.0000000E+04;  0.0000000E+00;  0.0000000E+00;  4.0000000E+04;  0.0000000E+00;  4.0000000E+04;  2.0771266E-03;  0.0000000E+00;  8.4215641E-04;  5.8514321E+03;
  1.2000000E-01;  9.9999998E-03;  3.8000000E-01;2202;  0.0000000E+00;  0.0000000E+00;  0.0000000E+00;  1.0011450E+03;  1.0000000E-01;  9.4861517E+02;0;  0.0000000E+00;  0.0000000E+00;  0.0000000E+00;0;  2.1232071E-03;  4.0000000E+04;  0.0000000E+00;  0.0000000E+00;  4.0000000E+04;  0.0000000E+00;  4.0000000E+04;  1.4283520E-03;  0.0000000E+00;  6.9485517E-04;  4.8752124E+03;
  1.2000000E-01;  9.9999998E-03;  3.8999999E-01;2203;  0.0000000E+00;  0.0000000E+00;  0.0000000E+00;  1.0007126E+03;  1.0000000E-01;  5.9040308E+02;0;  0.0000000E+00;  0.0000000E+00;  0.0000000E+00;0;  1.4770657E-03;  4.0000000E+04;  0.0000000E+00;  0.0000000E+00;  4.0000000E+04;  0.0000000E+00;  4.0000000E+04;  9.2877686E-04;  0.0000000E+00;  5.4828892E-04;  3.9217729E+03;
  1.2000000E-01;  9.9999998E-03;  4.0000001E-01;2204;  0.0000000E+00;  0.0000000E+00;  0.0000000E+00;  1.0004177E+03;  1.0000000E-01;  3.4606430E+02;0;  0.0000000E+00;  0.0000000E+00;  0.0000000E+00;0;  9.7143394E-04;  4.0000000E+04;  0.0000000E+00;  0.0000000E+00;  4.0000000E+04;  0.0000000E+00;  4.0000000E+04;  5.6410022E-04;  0.0000000E+00;  4.0733369E-04;  2.9681318E+03;
  1.3000000E-01;  9.9999998E-03;  3.1000000E-01;2225;  0.0000000E+00;  0.0000000E+00;  0.0000000E+00;  1.0090696E+03;  1.0000000E-01;  7.5140591E+03;0;  0.0000000E+00;  0.0000000E+00;  0.0000000E+00;0;  8.9470362E-03;  4.0000000E+04;  0.0000000E+00;  0.0000000E+00;  4.0000000E+04;  0.0000000E+00;  4.0000000E+04;  7.9379492E-03;  0.0000000E+00;  1.0090868E-03;  2.5980648E+04;
  1.3000000E-01;  9.9999998E-03;  3.1999999E-01;2226;  0.0000000E+00;  0.0000000E+00;  0.0000000E+00;  1.0076901E+03;  1.0000000E-01;  6.3710791E+03;0;  0.0000000E+00;  0.0000000E+00;  0.0000000E+00;0;  8.1484374E-03;  4.0000000E+04;  0.0000000E+00;  0.0000000E+00;  4.0000000E+04;  0.0000000E+00;  4.0000000E+04;  7.0073502E-03;  0.0000000E+00;  1.1410870E-03;  2.2783875E+04;
  1.3000000E-01;  9.9999998E-03;  3.3000001E-01;2227;  0.0000000E+00;  0.0000000E+00;  0.0000000E+00;  1.0062980E+03;  1.0000000E-01;  5.2178276E+03;0;  0.0000000E+00;  0.0000000E+00;  0.0000000E+00;0;  7.1369922E-03;  4.0000000E+04;  0.0000000E+00;  0.0000000E+00;  4.0000000E+04;  0.0000000E+00;  4.0000000E+04;  5.9644314E-03;  0.0000000E+00;  1.1725606E-03;  1.8776375E+04;
  1.3000000E-01;  9.9999998E-03;  3.4000000E-01;2228;  0.0000000E+00;  0.0000000E+00;  0.0000000E+00;  1.0049669E+03;  1.0000000E-01;  4.1149453E+03;0;  0.0000000E+00;  0.0000000E+00;  0.0000000E+00;0;  6.0281837E-03;  4.0000000E+04;  0.0000000E+00;  0.0000000E+00;  4.0000000E+04;  0.0000000E+00;  4.0000000E+04;  4.8917942E-03;  0.0000000E+00;  1.1363896E-03;  1.4723578E+04;
  1.3000000E-01;  9.9999998E-03;  3.4999999E-01;2229;  0.0000000E+00;  0.0000000E+00;  0.0000000E+00;  1.0037739E+03;  1.0000000E-01;  3.1265288E+03;0;  0.0000000E+00;  0.0000000E+00;  0.0000000E+00;0;  4.9175443E-03;  4.0000000E+04;  0.0000000E+00;  0.0000000E+00;  4.0000000E+04;  0.0000000E+00;  4.0000000E+04;  3.8601467E-03;  0.0000000E+00;  1.0573973E-03;  1.1200480E+04;
  1.3000000E-01;  9.9999998E-03;  3.6000001E-01;2230;  0.0000000E+00;  0.0000000E+00;  0.0000000E+00;  1.0027596E+03;  1.0000000E-01;  2.2862563E+03;0;  0.0000000E+00;  0.0000000E+00;  0.0000000E+00;0;  3.8759753E-03;  4.0000000E+04;  0.0000000E+00;  0.0000000E+00;  4.0000000E+04;  0.0000000E+00;  4.0000000E+04;  2.9235333E-03;  0.0000000E+00;  9.5244200E-04;  8.5081416E+03;
  1.3000000E-01;  9.9999998E-03;  3.7000000E-01;2231;  0.0000000E+00;  0.0000000E+00;  0.0000000E+00;  1.0019255E+03;  1.0000000E-01;  1.5952141E+03;0;  0.0000000E+00;  0.0000000E+00;  0.0000000E+00;0;  2.9495189E-03;  4.0000000E+04;  0.0000000E+00;  0.0000000E+00;  4.0000000E+04;  0.0000000E+00;  4.0000000E+04;  2.1173127E-03;  0.0000000E+00;  8.3220605E-04;  6.6563828E+03;
  1.3000000E-01;  9.9999998E-03;  3.8000000E-01;2232;  0.0000000E+00;  0.0000000E+00;  0.0000000E+00;  1.0012780E+03;  1.0000000E-01;  1.0587355E+03;0;  0.0000000E+00;  0.0000000E+00;  0.0000000E+00;0;  2.1616016E-03;  4.0000000E+04;  0.0000000E+00;  0.0000000E+00;  4.0000000E+04;  0.0000000E+00;  4.0000000E+04;  1.4583830E-03;  0.0000000E+00;  7.0321851E-04;  5.4107480E+03;
  1.3000000E-01;  9.9999998E-03;  3.8999999E-01;2233;  0.0000000E+00;  0.0000000E+00;  0.0000000E+00;  1.0007914E+03;  1.0000000E-01;  6.5568518E+02;0;  0.0000000E+00;  0.0000000E+00;  0.0000000E+00;0;  1.5174123E-03;  4.0000000E+04;  0.0000000E+00;  0.0000000E+00;  4.0000000E+04;  0.0000000E+00;  4.0000000E+04;  9.4762573E-04;  0.0000000E+00;  5.6978653E-04;  4.4475820E+03;
  1.3000000E-01;  9.9999998E-03;  4.0000001E-01;2234;  0.0000000E+00;  0.0000000E+00;  0.0000000E+00;  1.0004511E+03;  1.0000000E-01;  3.7371783E+02;0;  0.0000000E+00;  0.0000000E+00;  0.0000000E+00;0;  1.0097665E-03;  4.0000000E+04;  0.0000000E+00;  0.0000000E+00;  4.0000000E+04;  0.0000000E+00;  4.0000000E+04;  5.7376508E-04;  0.0000000E+00;  4.3600140E-04;  3.5325583E+03;
  1.4000000E-01;  9.9999998E-03;  3.1000000E-01;2255;  0.0000000E+00;  0.0000000E+00;  0.0000000E+00;  1.0099849E+03;  1.0000000E-01;  8.2723584E+03;0;  0.0000000E+00;  0.0000000E+00;  0.0000000E+00;0;  8.1944829E-03;  4.0000000E+04;  0.0000000E+00;  0.0000000E+00;  4.0000000E+04;  0.0000000E+00;  4.0000000E+04;  7.4558444E-03;  0.0000000E+00;  7.3863886E-04;  3.9228980E+04;
  1.4000000E-01;  9.9999998E-03;  3.1999999E-01;2256;  0.0000000E+00;  0.0000000E+00;  0.0000000E+00;  1.0085397E+03;  1.0000000E-01;  7.0749604E+03;0;  0.0000000E+00;  0.0000000E+00;  0.0000000E+00;0;  7.5961296E-03;  4.0000000E+04;  0.0000000E+00;  0.0000000E+00;  4.0000000E+04;  0.0000000E+00;  4.0000000E+04;  6.6827005E-03;  0.0000000E+00;  9.1342884E-04;  3.4852273E+04;
  1.4000000E-01;  9.9999998E-03;  3.3000001E-01;2257;  0.0000000E+00;  0.0000000E+00;  0.0000000E+00;  1.0070423E+03;  1.0000000E-01;  5.8344028E+03;0;  0.0000000E+00;  0.0000000E+00;  0.0000000E+00;0;  6.7513990E-03;  4.0000000E+04;  0.0000000E+00;  0.0000000E+00;  4.0000000E+04;  0.0000000E+00;  4.0000000E+04;  5.7647228E-03;  0.0000000E+00;  9.8667620E-04;  2.8751453E+04;
  1.4000000E-01;  9.9999998E-03;  3.4000000E-01;2258;  0.0000000E+00;  0.0000000E+00;  0.0000000E+00;  1.0056000E+03;  1.0000000E-01;  4.6395723E+03;0;  0.0000000E+00;  0.0000000E+00;  0.0000000E+00;0;  5.7711625E-03;  4.0000000E+04;  0.0000000E+00;  0.0000000E+00;  4.0000000E+04;  0.0000000E+00;  4.0000000E+04;  4.7811149E-03;  0.0000000E+00;  9.9004747E-04;  2.2105838E+04;
  1.4000000E-01;  9.9999998E-03;  3.4999999E-01;2259;  0.0000000E+00;  0.0000000E+00;  0.0000000E+00;  1.0042791E+03;  1.0000000E-01;  3.5451836E+03;0;  0.0000000E+00;  0.0000000E+00;  0.0000000E+00;0;  4.7537265E-03;  4.0000000E+04;  0.0000000E+00;  0.0000000E+00;  4.0000000E+04;  0.0000000E+00;  4.0000000E+04;  3.8060197E-03;  0.0000000E+00;  9.4770681E-04;  1.5928727E+04;
  1.4000000E-01;  9.9999998E-03;  3.6000001E-01;2260;  0.0000000E+00;  0.0000000E+00;  0.0000000E+00;  1.0031348E+03;  1.0000000E-01;  2.5970623E+03;0;  0.0000000E+00;  0.0000000E+00;  0.0000000E+00;0;  3.7764336E-03;  4.0000000E+04;  0.0000000E+00;  0.0000000E+00;  4.0000000E+04;  0.0000000E+00;  4.0000000E+04;  2.9006053E-03;  0.0000000E+00;  8.7582832E-04;  1.0941373E+04;
  1.4000000E-01;  9.9999998E-03;  3.7000000E-01;2261;  0.0000000E+00;  0.0000000E+00;  0.0000000E+00;  1.0021962E+03;  1.0000000E-01;  1.8195042E+03;0;  0.0000000E+00;  0.0000000E+00;  0.0000000E+00;0;  2.8928332E-03;  4.0000000E+04;  0.0000000E+00;  0.0000000E+00;  4.0000000E+04;  0.0000000E+00;  4.0000000E+04;  2.1084456E-03;  0.0000000E+00;  7.8438752E-04;  7.5605635E+03;
  1.4000000E-01;  9.9999998E-03;  3.8000000E-01;2262;  0.0000000E+00;  0.0000000E+00;  0.0000000E+00;  1.0014675E+03;  1.0000000E-01;  1.2158668E+03;0;  0.0000000E+00;  0.0000000E+00;  0.0000000E+00;0;  2.1331669E-03;  4.0000000E+04;  0.0000000E+00;  0.0000000E+00;  4.0000000E+04;  0.0000000E+00;  4.0000000E+04;  1.4538845E-03;  0.0000000E+00;  6.7928236E-04;  5.7810996E+03;
  1.4000000E-01;  9.9999998E-03;  3.8999999E-01;2263;  0.0000000E+00;  0.0000000E+00;  0.0000000E+00;  1.0009202E+03;  1.0000000E-01;  7.6234882E+02;0;  0.0000000E+00;  0.0000000E+00;  0.0000000E+00;0;  1.5075451E-03;  4.0000000E+04;  0.0000000E+00;  0.0000000E+00;  4.0000000E+04;  0.0000000E+00;  4.0000000E+04;  9.4329019E-04;  0.0000000E+00;  5.6425499E-04;  4.9782314E+03;
  1.4000000E-01;  9.9999998E-03;  4.0000001E-01;2264;  0.0000000E+00;  0.0000000E+00;  0.0000000E+00;  1.0005015E+03;  1.0000000E-01;  4.1549442E+02;0;  0.0000000E+00;  0.0000000E+00;  0.0000000E+00;0;  1.0115333E-03;  4.0000000E+04;  0.0000000E+00;  0.0000000E+00;  4.0000000E+04;  0.0000000E+00;  4.0000000E+04;  5.6867144E-04;  0.0000000E+00;  4.4286187E-04;  4.3451592E+03;
  1.5000001E-01;  9.9999998E-03;  3.1000000E-01;2285;  0.0000000E+00;  0.0000000E+00;  0.0000000E+00;  1.0110012E+03;  1.0000000E-01;  9.1142109E+03;0;  0.0000000E+00;  0.0000000E+00;  0.0000000E+00;0;  7.3006744E-03;  4.0000000E+04;  0.0000000E+00;  0.0000000E+00;  4.0000000E+04;  0.0000000E+00;  4.0000000E+04;  6.9056870E-03;  0.0000000E+00;  3.9498735E-04;  5.5872273E+04;
  1.5000001E-01;  9.9999998E-03;  3.1999999E-01;2286;  0.0000000E+00;  0.0000000E+00;  0.0000000E+00;  1.0094999E+03;  1.0000000E-01;  7.8704937E+03;0;  0.0000000E+00;  0.0000000E+00;  0.0000000E+00;0;  6.8837348E-03;  4.0000000E+04;  0.0000000E+00;  0.0000000E+00;  4.0000000E+04;  0.0000000E+00;  4.0000000E+04;  6.2732268E-03;  0.0000000E+00;  6.1050791E-04;  5.0606117E+04;
  1.5000001E-01;  9.9999998E-03;  3.3000001E-01;2287;  0.0000000E+00;  0.0000000E+00;  0.0000000E+00;  1.0079111E+03;  1.0000000E-01;  6.5541851E+03;0;  0.0000000E+00;  0.0000000E+00;  0.0000000E+00;0;  6.2072403E-03;  4.0000000E+04;  0.0000000E+00;  0.0000000E+00;  4.0000000E+04;  0.0000000E+00;  4.0000000E+04;  5.4770210E-03;  0.0000000E+00;  7.3021930E-04;  4.2275625E+04;
  1.5000001E-01;  9.9999998E-03;  3.4000000E-01;2288;  0.0000000E+00;  0.0000000E+00;  0.0000000E+00;  1.0063383E+03;  1.0000000E-01;  5.2511108E+03;0;  0.0000000E+00;  0.0000000E+00;  0.0000000E+00;0;  5.3690267E-03;  4.0000000E+04;  0.0000000E+00;  0.0000000E+00;  4.0000000E+04;  0.0000000E+00;  4.0000000E+04;  4.5888009E-03;  0.0000000E+00;  7.8022567E-04;  3.2538102E+04;
  1.5000001E-01;  9.9999998E-03;  3.4999999E-01;2289;  0.0000000E+00;  0.0000000E+00;  0.0000000E+00;  1.0048907E+03;  1.0000000E-01;  4.0519348E+03;0;  0.0000000E+00;  0.0000000E+00;  0.0000000E+00;0;  4.4639250E-03;  4.0000000E+04;  0.0000000E+00;  0.0000000E+00;  4.0000000E+04;  0.0000000E+00;  4.0000000E+04;  3.6820141E-03;  0.0000000E+00;  7.8191096E-04;  2.2944578E+04;
  1.5000001E-01;  9.9999998E-03;  3.6000001E-01;2290;  0.0000000E+00;  0.0000000E+00;  0.0000000E+00;  1.0036041E+03;  1.0000000E-01;  2.9858909E+03;0;  0.0000000E+00;  0.0000000E+00;  0.0000000E+00;0;  3.5717492E-03;  4.0000000E+04;  0.0000000E+00;  0.0000000E+00;  4.0000000E+04;  0.0000000E+00;  4.0000000E+04;  2.8217400E-03;  0.0000000E+00;  7.5000926E-04;  1.4704274E+04;
  1.5000001E-01;  9.9999998E-03;  3.7000000E-01;2291;  0.0000000E+00;  0.0000000E+00;  0.0000000E+00;  1.0025361E+03;  1.0000000E-01;  2.1011750E+03;0;  0.0000000E+00;  0.0000000E+00;  0.0000000E+00;0;  2.7511730E-03;  4.0000000E+04;  0.0000000E+00;  0.0000000E+00;  4.0000000E+04;  0.0000000E+00;  4.0000000E+04;  2.0574806E-03;  0.0000000E+00;  6.9369224E-04;  8.7603984E+03;
  1.5000001E-01;  9.9999998E-03;  3.8000000E-01;2292;  0.0000000E+00;  0.0000000E+00;  0.0000000E+00;  1.0017024E+03;  1.0000000E-01;  1.4104292E+03;0;  0.0000000E+00;  0.0000000E+00;  0.0000000E+00;0;  2.0378935E-03;  4.0000000E+04;  0.0000000E+00;  0.0000000E+00;  4.0000000E+04;  0.0000000E+00;  4.0000000E+04;  1.4195327E-03;  0.0000000E+00;  6.1836094E-04;  5.9392671E+03;
  1.5000001E-01;  9.9999998E-03;  3.8999999E-01;2293;  0.0000000E+00;  0.0000000E+00;  0.0000000E+00;  1.0010764E+03;  1.0000000E-01;  8.9172784E+02;0;  0.0000000E+00;  0.0000000E+00;  0.0000000E+00;0;  1.4465414E-03;  4.0000000E+04;  0.0000000E+00;  0.0000000E+00;  4.0000000E+04;  0.0000000E+00;  4.0000000E+04;  9.1910653E-04;  0.0000000E+00;  5.2743487E-04;  5.6715327E+03;
  1.5000001E-01;  9.9999998E-03;  4.0000001E-01;2294;  0.0000000E+00;  0.0000000E+00;  0.0000000E+00;  1.0006021E+03;  1.0000000E-01;  4.9875131E+02;0;  0.0000000E+00;  0.0000000E+00;  0.0000000E+00;0;  9.7560004E-04;  4.0000000E+04;  0.0000000E+00;  0.0000000E+00;  4.0000000E+04;  0.0000000E+00;  4.0000000E+04;  5.5140158E-04;  0.0000000E+00;  4.2419846E-04;  5.7342031E+03;
  1.6000000E-01;  9.9999998E-03;  3.1000000E-01;2315;  0.0000000E+00;  0.0000000E+00;  0.0000000E+00;  1.0120085E+03;  1.0000000E-01;  9.9488545E+03;0;  0.0000000E+00;  0.0000000E+00;  0.0000000E+00;0;  6.3711214E-03;  4.0000000E+04;  0.0000000E+00;  0.0000000E+00;  4.0000000E+04;  0.0000000E+00;  4.0000000E+04;  6.3779145E-03;  0.0000000E+00; -6.7931164E-06;  7.5834078E+04;
  1.6000000E-01;  9.9999998E-03;  3.1999999E-01;2316;  0.0000000E+00;  0.0000000E+00;  0.0000000E+00;  1.0104774E+03;  1.0000000E-01;  8.6802480E+03;0;  0.0000000E+00;  0.0000000E+00;  0.0000000E+00;0;  6.0930112E-03;  4.0000000E+04;  0.0000000E+00;  0.0000000E+00;  4.0000000E+04;  0.0000000E+00;  4.0000000E+04;  5.8493852E-03;  0.0000000E+00;  2.4362591E-04;  7.0070281E+04;
  1.6000000E-01;  9.9999998E-03;  3.3000001E-01;2317;  0.0000000E+00;  0.0000000E+00;  0.0000000E+00;  1.0088064E+03;  1.0000000E-01;  7.2958926E+03;0;  0.0000000E+00;  0.0000000E+00;  0.0000000E+00;0;  5.5633523E-03;  4.0000000E+04;  0.0000000E+00;  0.0000000E+00;  4.0000000E+04;  0.0000000E+00;  4.0000000E+04;  5.1525324E-03;  0.0000000E+00;  4.1081995E-04;  5.9439188E+04;
  1.6000000E-01;  9.9999998E-03;  3.4000000E-01;2318;  0.0000000E+00;  0.0000000E+00;  0.0000000E+00;  1.0071212E+03;  1.0000000E-01;  5.8997837E+03;0;  0.0000000E+00;  0.0000000E+00;  0.0000000E+00;0;  4.8613721E-03;  4.0000000E+04;  0.0000000E+00;  0.0000000E+00;  4.0000000E+04;  0.0000000E+00;  4.0000000E+04;  4.3495968E-03;  0.0000000E+00;  5.1177520E-04;  4.6151824E+04;
  1.6000000E-01;  9.9999998E-03;  3.4999999E-01;2319;  0.0000000E+00;  0.0000000E+00;  0.0000000E+00;  1.0055261E+03;  1.0000000E-01;  4.5782407E+03;0;  0.0000000E+00;  0.0000000E+00;  0.0000000E+00;0;  4.0732287E-03;  4.0000000E+04;  0.0000000E+00;  0.0000000E+00;  4.0000000E+04;  0.0000000E+00;  4.0000000E+04;  3.5103734E-03;  0.0000000E+00;  5.6285539E-04;  3.2422467E+04;
  1.6000000E-01;  9.9999998E-03;  3.6000001E-01;2320;  0.0000000E+00;  0.0000000E+00;  0.0000000E+00;  1.0041158E+03;  1.0000000E-01;  3.4098789E+03;0;  0.0000000E+00;  0.0000000E+00;  0.0000000E+00;0;  3.2769511E-03;  4.0000000E+04;  0.0000000E+00;  0.0000000E+00;  4.0000000E+04;  0.0000000E+00;  4.0000000E+04;  2.7005684E-03;  0.0000000E+00;  5.7638279E-04;  2.0047203E+04;
  1.6000000E-01;  9.9999998E-03;  3.7000000E-01;2321;  0.0000000E+00;  0.0000000E+00;  0.0000000E+00;  1.0029088E+03;  1.0000000E-01;  2.4099072E+03;0;  0.0000000E+00;  0.0000000E+00;  0.0000000E+00;0;  2.5331418E-03;  4.0000000E+04;  0.0000000E+00;  0.0000000E+00;  4.0000000E+04;  0.0000000E+00;  4.0000000E+04;  1.9726590E-03;  0.0000000E+00;  5.6048279E-04;  1.0478823E+04;
  1.6000000E-01;  9.9999998E-03;  3.8000000E-01;2322;  0.0000000E+00;  0.0000000E+00;  0.0000000E+00;  1.0019683E+03;  1.0000000E-01;  1.6306699E+03;0;  0.0000000E+00;  0.0000000E+00;  0.0000000E+00;0;  1.8806808E-03;  4.0000000E+04;  0.0000000E+00;  0.0000000E+00;  4.0000000E+04;  0.0000000E+00;  4.0000000E+04;  1.3605627E-03;  0.0000000E+00;  5.2011805E-04;  5.8602881E+03;
  1.6000000E-01;  9.9999998E-03;  3.8999999E-01;2323;  0.0000000E+00;  0.0000000E+00;  0.0000000E+00;  1.0012553E+03;  1.0000000E-01;  1.0399706E+03;0;  0.0000000E+00;  0.0000000E+00;  0.0000000E+00;0;  1.3372961E-03;  4.0000000E+04;  0.0000000E+00;  0.0000000E+00;  4.0000000E+04;  0.0000000E+00;  4.0000000E+04;  8.7873457E-04;  0.0000000E+00;  4.5856155E-04;  6.8227793E+03;
  1.6000000E-01;  9.9999998E-03;  4.0000001E-01;2324;  0.0000000E+00;  0.0000000E+00;  0.0000000E+00;  1.0007236E+03;  1.0000000E-01;  5.9948920E+02;0;  0.0000000E+00;  0.0000000E+00;  0.0000000E+00;0;  9.0381387E-04;  4.0000000E+04;  0.0000000E+00;  0.0000000E+00;  4.0000000E+04;  0.0000000E+00;  4.0000000E+04;  5.2472163E-04;  0.0000000E+00;  3.7909221E-04;  8.0629990E+03;
  1.7000000E-01;  9.9999998E-03;  3.1000000E-01;2345;  0.0000000E+00;  0.0000000E+00;  0.0000000E+00;  1.0128658E+03;  1.0000000E-01;  1.0659057E+04;0;  0.0000000E+00;  0.0000000E+00;  0.0000000E+00;0;  5.4975371E-03;  4.0000000E+04;  0.0000000E+00;  0.0000000E+00;  4.0000000E+04;  0.0000000E+00;  4.0000000E+04;  5.9387684E-03;  0.0000000E+00; -4.4123110E-04;  9.8691883E+04;
  1.7000000E-01;  9.9999998E-03;  3.1999999E-01;2346;  0.0000000E+00;  0.0000000E+00;  0.0000000E+00;  1.0113356E+03;  1.0000000E-01;  9.3913389E+03;0;  0.0000000E+00;  0.0000000E+00;  0.0000000E+00;0;  5.3026560E-03;  4.0000000E+04;  0.0000000E+00;  0.0000000E+00;  4.0000000E+04;  0.0000000E+00;  4.0000000E+04;  5.4684440E-03;  0.0000000E+00; -1.6578809E-04;  9.2765336E+04;
  1.7000000E-01;  9.9999998E-03;  3.3000001E-01;2347;  0.0000000E+00;  0.0000000E+00;  0.0000000E+00;  1.0096110E+03;  1.0000000E-01;  7.9625400E+03;0;  0.0000000E+00;  0.0000000E+00;  0.0000000E+00;0;  4.8810448E-03;  4.0000000E+04;  0.0000000E+00;  0.0000000E+00;  4.0000000E+04;  0.0000000E+00;  4.0000000E+04;  4.8353444E-03;  0.0000000E+00;  4.5700501E-05;  7.9759547E+04;
  1.7000000E-01;  9.9999998E-03;  3.4000000E-01;2348;  0.0000000E+00;  0.0000000E+00;  0.0000000E+00;  1.0078299E+03;  1.0000000E-01;  6.4869277E+03;0;  0.0000000E+00;  0.0000000E+00;  0.0000000E+00;0;  4.2923889E-03;  4.0000000E+04;  0.0000000E+00;  0.0000000E+00;  4.0000000E+04;  0.0000000E+00;  4.0000000E+04;  4.0942580E-03;  0.0000000E+00;  1.9813074E-04;  6.2522945E+04;
  1.7000000E-01;  9.9999998E-03;  3.4999999E-01;2349;  0.0000000E+00;  0.0000000E+00;  0.0000000E+00;  1.0061212E+03;  1.0000000E-01;  5.0712642E+03;0;  0.0000000E+00;  0.0000000E+00;  0.0000000E+00;0;  3.6116473E-03;  4.0000000E+04;  0.0000000E+00;  0.0000000E+00;  4.0000000E+04;  0.0000000E+00;  4.0000000E+04;  3.3108417E-03;  0.0000000E+00;  3.0080561E-04;  4.4047973E+04;
  1.7000000E-01;  9.9999998E-03;  3.6000001E-01;2350;  0.0000000E+00;  0.0000000E+00;  0.0000000E+00;  1.0045713E+03;  1.0000000E-01;  3.7872510E+03;0;  0.0000000E+00;  0.0000000E+00;  0.0000000E+00;0;  2.9116990E-03;  4.0000000E+04;  0.0000000E+00;  0.0000000E+00;  4.0000000E+04;  0.0000000E+00;  4.0000000E+04;  2.5490769E-03;  0.0000000E+00;  3.6262203E-04;  2.6819900E+04;
  1.7000000E-01;  9.9999998E-03;  3.7000000E-01;2351;  0.0000000E+00;  0.0000000E+00;  0.0000000E+00;  1.0032704E+03;  1.0000000E-01;  2.7094543E+03;0;  0.0000000E+00;  0.0000000E+00;  0.0000000E+00;0;  2.2515315E-03;  4.0000000E+04;  0.0000000E+00;  0.0000000E+00;  4.0000000E+04;  0.0000000E+00;  4.0000000E+04;  1.8612049E-03;  0.0000000E+00;  3.9032663E-04;  1.2787184E+04;
  1.7000000E-01;  9.9999998E-03;  3.8000000E-01;2352;  0.0000000E+00;  0.0000000E+00;  0.0000000E+00;  1.0022174E+03;  1.0000000E-01;  1.8370839E+03;0;  0.0000000E+00;  0.0000000E+00;  0.0000000E+00;0;  1.6701032E-03;  4.0000000E+04;  0.0000000E+00;  0.0000000E+00;  4.0000000E+04;  0.0000000E+00;  4.0000000E+04;  1.2816391E-03;  0.0000000E+00;  3.8846405E-04;  5.5510039E+03;
  1.7000000E-01;  9.9999998E-03;  3.8999999E-01;2353;  0.0000000E+00;  0.0000000E+00;  0.0000000E+00;  1.0014224E+03;  1.0000000E-01;  1.1784358E+03;0;  0.0000000E+00;  0.0000000E+00;  0.0000000E+00;0;  1.1858377E-03;  4.0000000E+04;  0.0000000E+00;  0.0000000E+00;  4.0000000E+04;  0.0000000E+00;  4.0000000E+04;  8.2554948E-04;  0.0000000E+00;  3.6028825E-04;  8.7286807E+03;
  1.7000000E-01;  9.9999998E-03;  4.0000001E-01;2354;  0.0000000E+00;  0.0000000E+00;  0.0000000E+00;  1.0008503E+03;  1.0000000E-01;  7.0447388E+02;0;  0.0000000E+00;  0.0000000E+00;  0.0000000E+00;0;  8.0046133E-04;  4.0000000E+04;  0.0000000E+00;  0.0000000E+00;  4.0000000E+04;  0.0000000E+00;  4.0000000E+04;  4.9121503E-04;  0.0000000E+00;  3.0924630E-04;  1.1532391E+04;
  1.8000001E-01;  9.9999998E-03;  3.1000000E-01;2375;  0.0000000E+00;  0.0000000E+00;  0.0000000E+00;  1.0134484E+03;  1.0000000E-01;  1.1141710E+04;0;  0.0000000E+00;  0.0000000E+00;  0.0000000E+00;0;  4.7449232E-03;  4.0000000E+04;  0.0000000E+00;  0.0000000E+00;  4.0000000E+04;  0.0000000E+00;  4.0000000E+04;  5.6231301E-03;  0.0000000E+00; -8.7820704E-04;  1.2332732E+05;
  1.8000001E-01;  9.9999998E-03;  3.1999999E-01;2376;  0.0000000E+00;  0.0000000E+00;  0.0000000E+00;  1.0119399E+03;  1.0000000E-01;  9.8919668E+03;0;  0.0000000E+00;  0.0000000E+00;  0.0000000E+00;0;  4.5713321E-03;  4.0000000E+04;  0.0000000E+00;  0.0000000E+00;  4.0000000E+04;  0.0000000E+00;  4.0000000E+04;  5.1606758E-03;  0.0000000E+00; -5.8934372E-04;  1.1736874E+05;
  1.8000001E-01;  9.9999998E-03;  3.3000001E-01;2377;  0.0000000E+00;  0.0000000E+00;  0.0000000E+00;  1.0101946E+03;  1.0000000E-01;  8.4459834E+03;0;  0.0000000E+00;  0.0000000E+00;  0.0000000E+00;0;  4.2087054E-03;  4.0000000E+04;  0.0000000E+00;  0.0000000E+00;  4.0000000E+04;  0.0000000E+00;  4.0000000E+04;  4.5491294E-03;  0.0000000E+00; -3.4042387E-04;  1.0188259E+05;
  1.8000001E-01;  9.9999998E-03;  3.4000000E-01;2378;  0.0000000E+00;  0.0000000E+00;  0.0000000E+00;  1.0083553E+03;  1.0000000E-01;  6.9222734E+03;0;  0.0000000E+00;  0.0000000E+00;  0.0000000E+00;0;  3.6998726E-03;  4.0000000E+04;  0.0000000E+00;  0.0000000E+00;  4.0000000E+04;  0.0000000E+00;  4.0000000E+04;  3.8401615E-03;  0.0000000E+00; -1.4028877E-04;  8.0441102E+04;
  1.8000001E-01;  9.9999998E-03;  3.4999999E-01;2379;  0.0000000E+00;  0.0000000E+00;  0.0000000E+00;  1.0065668E+03;  1.0000000E-01;  5.4404390E+03;0;  0.0000000E+00;  0.0000000E+00;  0.0000000E+00;0;  3.1077724E-03;  4.0000000E+04;  0.0000000E+00;  0.0000000E+00;  4.0000000E+04;  0.0000000E+00;  4.0000000E+04;  3.0956222E-03;  0.0000000E+00;  1.2150167E-05;  5.6878527E+04;
  1.8000001E-01;  9.9999998E-03;  3.6000001E-01;2380;  0.0000000E+00;  0.0000000E+00;  0.0000000E+00;  1.0049368E+03;  1.0000000E-01;  4.0900571E+03;0;  0.0000000E+00;  0.0000000E+00;  0.0000000E+00;0;  2.4972341E-03;  4.0000000E+04;  0.0000000E+00;  0.0000000E+00;  4.0000000E+04;  0.0000000E+00;  4.0000000E+04;  2.3755780E-03;  0.0000000E+00;  1.2165617E-04;  3.4412641E+04;
  1.8000001E-01;  9.9999998E-03;  3.7000000E-01;2381;  0.0000000E+00;  0.0000000E+00;  0.0000000E+00;  1.0035469E+03;  1.0000000E-01;  2.9384849E+03;0;  0.0000000E+00;  0.0000000E+00;  0.0000000E+00;0;  1.9219834E-03;  4.0000000E+04;  0.0000000E+00;  0.0000000E+00;  4.0000000E+04;  0.0000000E+00;  4.0000000E+04;  1.7287293E-03;  0.0000000E+00;  1.9325412E-04;  1.5478793E+04;
  1.8000001E-01;  9.9999998E-03;  3.8000000E-01;2382;  0.0000000E+00;  0.0000000E+00;  0.0000000E+00;  1.0024207E+03;  1.0000000E-01;  2.0054741E+03;0;  0.0000000E+00;  0.0000000E+00;  0.0000000E+00;0;  1.4176074E-03;  4.0000000E+04;  0.0000000E+00;  0.0000000E+00;  4.0000000E+04;  0.0000000E+00;  4.0000000E+04;  1.1866053E-03;  0.0000000E+00;  2.3100206E-04;  5.0711919E+03;
  1.8000001E-01;  9.9999998E-03;  3.8999999E-01;2383;  0.0000000E+00;  0.0000000E+00;  0.0000000E+00;  1.0015655E+03;  1.0000000E-01;  1.2969509E+03;0;  0.0000000E+00;  0.0000000E+00;  0.0000000E+00;0;  1.0004712E-03;  4.0000000E+04;  0.0000000E+00;  0.0000000E+00;  4.0000000E+04;  0.0000000E+00;  4.0000000E+04;  7.6227012E-04;  0.0000000E+00;  2.3820101E-04;  1.1457567E+04;
  1.8000001E-01;  9.9999998E-03;  4.0000001E-01;2384;  0.0000000E+00;  0.0000000E+00;  0.0000000E+00;  1.0009580E+03;  1.0000000E-01;  7.9365656E+02;0;  0.0000000E+00;  0.0000000E+00;  0.0000000E+00;0;  6.7137583E-04;  4.0000000E+04;  0.0000000E+00;  0.0000000E+00;  4.0000000E+04;  0.0000000E+00;  4.0000000E+04;  4.5285688E-04;  0.0000000E+00;  2.1851897E-04;  1.6071308E+04;
  1.9000000E-01;  9.9999998E-03;  3.1000000E-01;2405;  0.0000000E+00;  0.0000000E+00;  0.0000000E+00;  1.0136579E+03;  1.0000000E-01;  1.1315334E+04;0;  0.0000000E+00;  0.0000000E+00;  0.0000000E+00;0;  4.1382746E-03;  4.0000000E+04;  0.0000000E+00;  0.0000000E+00;  4.0000000E+04;  0.0000000E+00;  4.0000000E+04;  5.4196054E-03;  0.0000000E+00; -1.2813309E-03;  1.4771305E+05;
  1.9000000E-01;  9.9999998E-03;  3.1999999E-01;2406;  0.0000000E+00;  0.0000000E+00;  0.0000000E+00;  1.0122048E+03;  1.0000000E-01;  1.0111418E+04;0;  0.0000000E+00;  0.0000000E+00;  0.0000000E+00;0;  3.9273407E-03;  4.0000000E+04;  0.0000000E+00;  0.0000000E+00;  4.0000000E+04;  0.0000000E+00;  4.0000000E+04;  4.9189995E-03;  0.0000000E+00; -9.9165854E-04;  1.4158416E+05;
  1.9000000E-01;  9.9999998E-03;  3.3000001E-01;2407;  0.0000000E+00;  0.0000000E+00;  0.0000000E+00;  1.0104745E+03;  1.0000000E-01;  8.6778779E+03;0;  0.0000000E+00;  0.0000000E+00;  0.0000000E+00;0;  3.5759327E-03;  4.0000000E+04;  0.0000000E+00;  0.0000000E+00;  4.0000000E+04;  0.0000000E+00;  4.0000000E+04;  4.2921863E-03;  0.0000000E+00; -7.1625365E-04;  1.2354358E+05;
  1.9000000E-01;  9.9999998E-03;  3.4000000E-01;2408;  0.0000000E+00;  0.0000000E+00;  0.0000000E+00;  1.0086272E+03;  1.0000000E-01;  7.1474521E+03;0;  0.0000000E+00;  0.0000000E+00;  0.0000000E+00;0;  3.1127292E-03;  4.0000000E+04;  0.0000000E+00;  0.0000000E+00;  4.0000000E+04;  0.0000000E+00;  4.0000000E+04;  3.5899542E-03;  0.0000000E+00; -4.7722517E-04;  9.7942008E+04;
  1.9000000E-01;  9.9999998E-03;  3.4999999E-01;2409;  0.0000000E+00;  0.0000000E+00;  0.0000000E+00;  1.0068084E+03;  1.0000000E-01;  5.6406304E+03;0;  0.0000000E+00;  0.0000000E+00;  0.0000000E+00;0;  2.5880998E-03;  4.0000000E+04;  0.0000000E+00;  0.0000000E+00;  4.0000000E+04;  0.0000000E+00;  4.0000000E+04;  2.8698079E-03;  0.0000000E+00; -2.8170814E-04;  6.9426586E+04;
  1.9000000E-01;  9.9999998E-03;  3.6000001E-01;2410;  0.0000000E+00;  0.0000000E+00;  0.0000000E+00;  1.0051397E+03;  1.0000000E-01;  4.2581514E+03;0;  0.0000000E+00;  0.0000000E+00;  0.0000000E+00;0;  2.0564990E-03;  4.0000000E+04;  0.0000000E+00;  0.0000000E+00;  4.0000000E+04;  0.0000000E+00;  4.0000000E+04;  2.1858467E-03;  0.0000000E+00; -1.2934773E-04;  4.1871574E+04;
  1.9000000E-01;  9.9999998E-03;  3.7000000E-01;2411;  0.0000000E+00;  0.0000000E+00;  0.0000000E+00;  1.0037231E+03;  1.0000000E-01;  3.0844561E+03;0;  0.0000000E+00;  0.0000000E+00;  0.0000000E+00;0;  1.5632880E-03;  4.0000000E+04;  0.0000000E+00;  0.0000000E+00;  4.0000000E+04;  0.0000000E+00;  4.0000000E+04;  1.5804182E-03;  0.0000000E+00; -1.7130189E-05;  1.8135850E+04;
  1.9000000E-01;  9.9999998E-03;  3.8000000E-01;2412;  0.0000000E+00;  0.0000000E+00;  0.0000000E+00;  1.0025532E+03;  1.0000000E-01;  2.1151995E+03;0;  0.0000000E+00;  0.0000000E+00;  0.0000000E+00;0;  1.1376609E-03;  4.0000000E+04;  0.0000000E+00;  0.0000000E+00;  4.0000000E+04;  0.0000000E+00;  4.0000000E+04;  1.0793399E-03;  0.0000000E+00;  5.8321060E-05;  4.5686733E+03;
  1.9000000E-01;  9.9999998E-03;  3.8999999E-01;2413;  0.0000000E+00;  0.0000000E+00;  0.0000000E+00;  1.0016687E+03;  1.0000000E-01;  1.3824794E+03;0;  0.0000000E+00;  0.0000000E+00;  0.0000000E+00;0;  7.9159578E-04;  4.0000000E+04;  0.0000000E+00;  0.0000000E+00;  4.0000000E+04;  0.0000000E+00;  4.0000000E+04;  6.9133809E-04;  0.0000000E+00;  1.0025768E-04;  1.4789094E+04;
  1.9000000E-01;  9.9999998E-03;  4.0000001E-01;2414;  0.0000000E+00;  0.0000000E+00;  0.0000000E+00;  1.0010366E+03;  1.0000000E-01;  8.5883990E+02;0;  0.0000000E+00;  0.0000000E+00;  0.0000000E+00;0;  5.2342168E-04;  4.0000000E+04;  0.0000000E+00;  0.0000000E+00;  4.0000000E+04;  0.0000000E+00;  4.0000000E+04;  4.1094396E-04;  0.0000000E+00;  1.1247773E-04;  2.1342018E+04;
  2.0000000E-01;  9.9999998E-03;  3.1000000E-01;2434;  0.0000000E+00;  0.0000000E+00;  0.0000000E+00;  1.0135000E+03;  1.0000000E-01;  1.1184474E+04;0;  0.0000000E+00;  0.0000000E+00;  0.0000000E+00;0;  3.6548092E-03;  4.0000000E+04;  0.0000000E+00;  0.0000000E+00;  4.0000000E+04;  0.0000000E+00;  4.0000000E+04;  5.2633304E-03;  0.0000000E+00; -1.6085211E-03;  1.6909528E+05;
  2.0000000E-01;  9.9999998E-03;  3.1999999E-01;2435;  0.0000000E+00;  0.0000000E+00;  0.0000000E+00;  1.0121240E+03;  1.0000000E-01;  1.0044457E+04;0;  0.0000000E+00;  0.0000000E+00;  0.0000000E+00;0;  3.3730683E-03;  4.0000000E+04;  0.0000000E+00;  0.0000000E+00;  4.0000000E+04;  0.0000000E+00;  4.0000000E+04;  4.7051166E-03;  0.0000000E+00; -1.3320482E-03;  1.6248292E+05;
  2.0000000E-01;  9.9999998E-03;  3.3000001E-01;2436;  0.0000000E+00;  0.0000000E+00;  0.0000000E+00;  1.0104558E+03;  1.0000000E-01;  8.6624707E+03;0;  0.0000000E+00;  0.0000000E+00;  0.0000000E+00;0;  3.0017246E-03;  4.0000000E+04;  0.0000000E+00;  0.0000000E+00;  4.0000000E+04;  0.0000000E+00;  4.0000000E+04;  4.0473347E-03;  0.0000000E+00; -1.0456101E-03;  1.4205694E+05;
  2.0000000E-01;  9.9999998E-03;  3.4000000E-01;2437;  0.0000000E+00;  0.0000000E+00;  0.0000000E+00;  1.0086505E+03;  1.0000000E-01;  7.1668096E+03;0;  0.0000000E+00;  0.0000000E+00;  0.0000000E+00;0;  2.5587794E-03;  4.0000000E+04;  0.0000000E+00;  0.0000000E+00;  4.0000000E+04;  0.0000000E+00;  4.0000000E+04;  3.3407083E-03;  0.0000000E+00; -7.8192877E-04;  1.1284823E+05;
  2.0000000E-01;  9.9999998E-03;  3.4999999E-01;2438;  0.0000000E+00;  0.0000000E+00;  0.0000000E+00;  1.0068623E+03;  1.0000000E-01;  5.6852715E+03;0;  0.0000000E+00;  0.0000000E+00;  0.0000000E+00;0;  2.0829870E-03;  4.0000000E+04;  0.0000000E+00;  0.0000000E+00;  4.0000000E+04;  0.0000000E+00;  4.0000000E+04;  2.6383332E-03;  0.0000000E+00; -5.5534631E-04;  8.0126195E+04;
  2.0000000E-01;  9.9999998E-03;  3.6000001E-01;2439;  0.0000000E+00;  0.0000000E+00;  0.0000000E+00;  1.0052074E+03;  1.0000000E-01;  4.3142485E+03;0;  0.0000000E+00;  0.0000000E+00;  0.0000000E+00;0;  1.6179089E-03;  4.0000000E+04;  0.0000000E+00;  0.0000000E+00;  4.0000000E+04;  0.0000000E+00;  4.0000000E+04;  1.9876387E-03;  0.0000000E+00; -3.6972968E-04;  4.8242520E+04;
  2.0000000E-01;  9.9999998E-03;  3.7000000E-01;2440;  0.0000000E+00;  0.0000000E+00;  0.0000000E+00;  1.0037791E+03;  1.0000000E-01;  3.1308745E+03;0;  0.0000000E+00;  0.0000000E+00;  0.0000000E+00;0;  1.1993675E-03;  4.0000000E+04;  0.0000000E+00;  0.0000000E+00;  4.0000000E+04;  0.0000000E+00;  4.0000000E+04;  1.4236147E-03;  0.0000000E+00; -2.2424720E-04;  2.0344744E+04;
  2.0000000E-01;  9.9999998E-03;  3.8000000E-01;2441;  0.0000000E+00;  0.0000000E+00;  0.0000000E+00;  1.0026121E+03;  1.0000000E-01;  2.1640869E+03;0;  0.0000000E+00;  0.0000000E+00;  0.0000000E+00;0;  8.4874115E-04;  4.0000000E+04;  0.0000000E+00;  0.0000000E+00;  4.0000000E+04;  0.0000000E+00;  4.0000000E+04;  9.6522394E-04;  0.0000000E+00; -1.1648280E-04;  4.2896182E+03;
  2.0000000E-01;  9.9999998E-03;  3.8999999E-01;2442;  0.0000000E+00;  0.0000000E+00;  0.0000000E+00;  1.0017397E+03;  1.0000000E-01;  1.4413419E+03;0;  0.0000000E+00;  0.0000000E+00;  0.0000000E+00;0;  5.7232659E-04;  4.0000000E+04;  0.0000000E+00;  0.0000000E+00;  4.0000000E+04;  0.0000000E+00;  4.0000000E+04;  6.1582611E-04;  0.0000000E+00; -4.3499538E-05;  1.8363205E+04;
  2.0000000E-01;  9.9999998E-03;  4.0000001E-01;2443;  0.0000000E+00;  0.0000000E+00;  0.0000000E+00;  1.0010898E+03;  1.0000000E-01;  9.0288806E+02;0;  0.0000000E+00;  0.0000000E+00;  0.0000000E+00;0;  3.6500770E-04;  4.0000000E+04;  0.0000000E+00;  0.0000000E+00;  4.0000000E+04;  0.0000000E+00;  4.0000000E+04;  3.6658632E-04;  0.0000000E+00; -1.5786180E-06;  2.6880234E+04;
 -1.9000000E-01;  9.9999998E-03;  4.1000000E-01;175;  0.0000000E+00;  0.0000000E+00;  0.0000000E+00;  1.0000000E+03;  1.0000000E-01;  0.0000000E+00;0;  0.0000000E+00;  0.0000000E+00;  0.0000000E+00;0;  0.0000000E+00;  4.0000000E+04;  0.0000000E+00;  0.0000000E+00;  4.0000000E+04;  0.0000000E+00;  4.0000000E+04;  0.0000000E+00;  0.0000000E+00;  0.0000000E+00;  0.0000000E+00;
 -1.9000000E-01;  9.9999998E-03;  4.1999999E-01;176;  0.0000000E+00;  0.0000000E+00;  0.0000000E+00;  1.0000000E+03;  1.0000000E-01;  0.0000000E+00;0;  0.0000000E+00;  0.0000000E+00;  0.0000000E+00;0;  0.0000000E+00;  4.0000000E+04;  0.0000000E+00;  0.0000000E+00;  4.0000000E+04;  0.0000000E+00;  4.0000000E+04;  0.0000000E+00;  0.0000000E+00;  0.0000000E+00;  0.0000000E+00;
 -1.9000000E-01;  9.9999998E-03;  4.3000001E-01;177;  0.0000000E+00;  0.0000000E+00;  0.0000000E+00;  1.0000000E+03;  1.0000000E-01;  0.0000000E+00;0;  0.0000000E+00;  0.0000000E+00;  0.0000000E+00;0;  0.0000000E+00;  4.0000000E+04;  0.0000000E+00;  0.0000000E+00;  4.0000000E+04;  0.0000000E+00;  4.0000000E+04;  0.0000000E+00;  0.0000000E+00;  0.0000000E+00;  0.0000000E+00;
 -1.9000000E-01;  9.9999998E-03;  4.4000000E-01;178;  0.0000000E+00;  0.0000000E+00;  0.0000000E+00;  1.0000000E+03;  1.0000000E-01;  0.0000000E+00;0;  0.0000000E+00;  0.0000000E+00;  0.0000000E+00;0;  0.0000000E+00;  4.0000000E+04;  0.0000000E+00;  0.0000000E+00;  4.0000000E+04;  0.0000000E+00;  4.0000000E+04;  0.0000000E+00;  0.0000000E+00;  0.0000000E+00;  0.0000000E+00;
 -1.9000000E-01;  9.9999998E-03;  4.4999999E-01;179;  0.0000000E+00;  0.0000000E+00;  0.0000000E+00;  1.0000000E+03;  1.0000000E-01;  0.0000000E+00;0;  0.0000000E+00;  0.0000000E+00;  0.0000000E+00;0;  0.0000000E+00;  4.0000000E+04;  0.0000000E+00;  0.0000000E+00;  4.0000000E+04;  0.0000000E+00;  4.0000000E+04;  0.0000000E+00;  0.0000000E+00;  0.0000000E+00;  0.0000000E+00;
 -1.8000001E-01;  9.9999998E-03;  4.1000000E-01;266;  0.0000000E+00;  0.0000000E+00;  0.0000000E+00;  1.0000000E+03;  1.0000000E-01;  0.0000000E+00;0;  0.0000000E+00;  0.0000000E+00;  0.0000000E+00;0;  0.0000000E+00;  4.0000000E+04;  0.0000000E+00;  0.0000000E+00;  4.0000000E+04;  0.0000000E+00;  4.0000000E+04;  0.0000000E+00;  0.0000000E+00;  0.0000000E+00;  0.0000000E+00;
 -1.8000001E-01;  9.9999998E-03;  4.1999999E-01;267;  0.0000000E+00;  0.0000000E+00;  0.0000000E+00;  1.0000000E+03;  1.0000000E-01;  0.0000000E+00;0;  0.0000000E+00;  0.0000000E+00;  0.0000000E+00;0;  0.0000000E+00;  4.0000000E+04;  0.0000000E+00;  0.0000000E+00;  4.0000000E+04;  0.0000000E+00;  4.0000000E+04;  0.0000000E+00;  0.0000000E+00;  0.0000000E+00;  0.0000000E+00;
 -1.8000001E-01;  9.9999998E-03;  4.3000001E-01;268;  0.0000000E+00;  0.0000000E+00;  0.0000000E+00;  1.0000000E+03;  1.0000000E-01;  0.0000000E+00;0;  0.0000000E+00;  0.0000000E+00;  0.0000000E+00;0;  0.0000000E+00;  4.0000000E+04;  0.0000000E+00;  0.0000000E+00;  4.0000000E+04;  0.0000000E+00;  4.0000000E+04;  0.0000000E+00;  0.0000000E+00;  0.0000000E+00;  0.0000000E+00;
 -1.8000001E-01;  9.9999998E-03;  4.4000000E-01;269;  0.0000000E+00;  0.0000000E+00;  0.0000000E+00;  1.0000000E+03;  1.0000000E-01;  0.0000000E+00;0;  0.0000000E+00;  0.0000000E+00;  0.0000000E+00;0;  0.0000000E+00;  4.0000000E+04;  0.0000000E+00;  0.0000000E+00;  4.0000000E+04;  0.0000000E+00;  4.0000000E+04;  0.0000000E+00;  0.0000000E+00;  0.0000000E+00;  0.0000000E+00;
 -1.8000001E-01;  9.9999998E-03;  4.4999999E-01;270;  0.0000000E+00;  0.0000000E+00;  0.0000000E+00;  1.0000000E+03;  1.0000000E-01;  0.0000000E+00;0;  0.0000000E+00;  0.0000000E+00;  0.0000000E+00;0;  0.0000000E+00;  4.0000000E+04;  0.0000000E+00;  0.0000000E+00;  4.0000000E+04;  0.0000000E+00;  4.0000000E+04;  0.0000000E+00;  0.0000000E+00;  0.0000000E+00;  0.0000000E+00;
 -1.7000000E-01;  9.9999998E-03;  4.1000000E-01;357;  0.0000000E+00;  0.0000000E+00;  0.0000000E+00;  1.0000000E+03;  1.0000000E-01;  0.0000000E+00;0;  0.0000000E+00;  0.0000000E+00;  0.0000000E+00;0;  0.0000000E+00;  4.0000000E+04;  0.0000000E+00;  0.0000000E+00;  4.0000000E+04;  0.0000000E+00;  4.0000000E+04;  0.0000000E+00;  0.0000000E+00;  0.0000000E+00;  0.0000000E+00;
 -1.7000000E-01;  9.9999998E-03;  4.1999999E-01;358;  0.0000000E+00;  0.0000000E+00;  0.0000000E+00;  1.0000000E+03;  1.0000000E-01;  0.0000000E+00;0;  0.0000000E+00;  0.0000000E+00;  0.0000000E+00;0;  0.0000000E+00;  4.0000000E+04;  0.0000000E+00;  0.0000000E+00;  4.0000000E+04;  0.0000000E+00;  4.0000000E+04;  0.0000000E+00;  0.0000000E+00;  0.0000000E+00;  0.0000000E+00;
 -1.7000000E-01;  9.9999998E-03;  4.3000001E-01;359;  0.0000000E+00;  0.0000000E+00;  0.0000000E+00;  1.0000000E+03;  1.0000000E-01;  0.0000000E+00;0;  0.0000000E+00;  0.0000000E+00;  0.0000000E+00;0;  0.0000000E+00;  4.0000000E+04;  0.0000000E+00;  0.0000000E+00;  4.0000000E+04;  0.0000000E+00;  4.0000000E+04;  0.0000000E+00;  0.0000000E+00;  0.0000000E+00;  0.0000000E+00;
 -1.7000000E-01;  9.9999998E-03;  4.4000000E-01;360;  0.0000000E+00;  0.0000000E+00;  0.0000000E+00;  1.0000000E+03;  1.0000000E-01;  0.0000000E+00;0;  0.0000000E+00;  0.0000000E+00;  0.0000000E+00;0;  0.0000000E+00;  4.0000000E+04;  0.0000000E+00;  0.0000000E+00;  4.0000000E+04;  0.0000000E+00;  4.0000000E+04;  0.0000000E+00;  0.0000000E+00;  0.0000000E+00;  0.0000000E+00;
 -1.7000000E-01;  9.9999998E-03;  4.4999999E-01;361;  0.0000000E+00;  0.0000000E+00;  0.0000000E+00;  1.0000000E+03;  1.0000000E-01;  0.0000000E+00;0;  0.0000000E+00;  0.0000000E+00;  0.0000000E+00;0;  0.0000000E+00;  4.0000000E+04;  0.0000000E+00;  0.0000000E+00;  4.0000000E+04;  0.0000000E+00;  4.0000000E+04;  0.0000000E+00;  0.0000000E+00;  0.0000000E+00;  0.0000000E+00;
 -1.6000000E-01;  9.9999998E-03;  4.1000000E-01;448;  0.0000000E+00;  0.0000000E+00;  0.0000000E+00;  1.0000000E+03;  1.0000000E-01;  0.0000000E+00;0;  0.0000000E+00;  0.0000000E+00;  0.0000000E+00;0;  0.0000000E+00;  4.0000000E+04;  0.0000000E+00;  0.0000000E+00;  4.0000000E+04;  0.0000000E+00;  4.0000000E+04;  0.0000000E+00;  0.0000000E+00;  0.0000000E+00;  0.0000000E+00;
 -1.6000000E-01;  9.9999998E-03;  4.1999999E-01;449;  0.0000000E+00;  0.0000000E+00;  0.0000000E+00;  1.0000000E+03;  1.0000000E-01;  0.0000000E+00;0;  0.0000000E+00;  0.0000000E+00;  0.0000000E+00;0;  0.0000000E+00;  4.0000000E+04;  0.0000000E+00;  0.0000000E+00;  4.0000000E+04;  0.0000000E+00;  4.0000000E+04;  0.0000000E+00;  0.0000000E+00;  0.0000000E+00;  0.0000000E+00;
 -1.6000000E-01;  9.9999998E-03;  4.3000001E-01;450;  0.0000000E+00;  0.0000000E+00;  0.0000000E+00;  1.0000000E+03;  1.0000000E-01;  0.0000000E+00;0;  0.0000000E+00;  0.0000000E+00;  0.0000000E+00;0;  0.0000000E+00;  4.0000000E+04;  0.0000000E+00;  0.0000000E+00;  4.0000000E+04;  0.0000000E+00;  4.0000000E+04;  0.0000000E+00;  0.0000000E+00;  0.0000000E+00;  0.0000000E+00;
 -1.6000000E-01;  9.9999998E-03;  4.4000000E-01;451;  0.0000000E+00;  0.0000000E+00;  0.0000000E+00;  1.0000000E+03;  1.0000000E-01;  0.0000000E+00;0;  0.0000000E+00;  0.0000000E+00;  0.0000000E+00;0;  0.0000000E+00;  4.0000000E+04;  0.0000000E+00;  0.0000000E+00;  4.0000000E+04;  0.0000000E+00;  4.0000000E+04;  0.0000000E+00;  0.0000000E+00;  0.0000000E+00;  0.0000000E+00;
 -1.6000000E-01;  9.9999998E-03;  4.4999999E-01;452;  0.0000000E+00;  0.0000000E+00;  0.0000000E+00;  1.0000000E+03;  1.0000000E-01;  0.0000000E+00;0;  0.0000000E+00;  0.0000000E+00;  0.0000000E+00;0;  0.0000000E+00;  4.0000000E+04;  0.0000000E+00;  0.0000000E+00;  4.0000000E+04;  0.0000000E+00;  4.0000000E+04;  0.0000000E+00;  0.0000000E+00;  0.0000000E+00;  0.0000000E+00;
 -1.5000001E-01;  9.9999998E-03;  4.1000000E-01;539;  0.0000000E+00;  0.0000000E+00;  0.0000000E+00;  1.0000000E+03;  1.0000000E-01;  0.0000000E+00;0;  0.0000000E+00;  0.0000000E+00;  0.0000000E+00;0;  0.0000000E+00;  4.0000000E+04;  0.0000000E+00;  0.0000000E+00;  4.0000000E+04;  0.0000000E+00;  4.0000000E+04;  0.0000000E+00;  0.0000000E+00;  0.0000000E+00;  0.0000000E+00;
 -1.5000001E-01;  9.9999998E-03;  4.1999999E-01;540;  0.0000000E+00;  0.0000000E+00;  0.0000000E+00;  1.0000000E+03;  1.0000000E-01;  0.0000000E+00;0;  0.0000000E+00;  0.0000000E+00;  0.0000000E+00;0;  0.0000000E+00;  4.0000000E+04;  0.0000000E+00;  0.0000000E+00;  4.0000000E+04;  0.0000000E+00;  4.0000000E+04;  0.0000000E+00;  0.0000000E+00;  0.0000000E+00;  0.0000000E+00;
 -1.5000001E-01;  9.9999998E-03;  4.3000001E-01;541;  0.0000000E+00;  0.0000000E+00;  0.0000000E+00;  1.0000000E+03;  1.0000000E-01;  0.0000000E+00;0;  0.0000000E+00;  0.0000000E+00;  0.0000000E+00;0;  0.0000000E+00;  4.0000000E+04;  0.0000000E+00;  0.0000000E+00;  4.0000000E+04;  0.0000000E+00;  4.0000000E+04;  0.0000000E+00;  0.0000000E+00;  0.0000000E+00;  0.0000000E+00;
 -1.5000001E-01;  9.9999998E-03;  4.4000000E-01;542;  0.0000000E+00;  0.0000000E+00;  0.0000000E+00;  1.0000000E+03;  1.0000000E-01;  0.0000000E+00;0;  0.0000000E+00;  0.0000000E+00;  0.0000000E+00;0;  0.0000000E+00;  4.0000000E+04;  0.0000000E+00;  0.0000000E+00;  4.0000000E+04;  0.0000000E+00;  4.0000000E+04;  0.0000000E+00;  0.0000000E+00;  0.0000000E+00;  0.0000000E+00;
 -1.5000001E-01;  9.9999998E-03;  4.4999999E-01;543;  0.0000000E+00;  0.0000000E+00;  0.0000000E+00;  1.0000000E+03;  1.0000000E-01;  0.0000000E+00;0;  0.0000000E+00;  0.0000000E+00;  0.0000000E+00;0;  0.0000000E+00;  4.0000000E+04;  0.0000000E+00;  0.0000000E+00;  4.0000000E+04;  0.0000000E+00;  4.0000000E+04;  0.0000000E+00;  0.0000000E+00;  0.0000000E+00;  0.0000000E+00;
 -1.4000000E-01;  9.9999998E-03;  4.1000000E-01;630;  0.0000000E+00;  0.0000000E+00;  0.0000000E+00;  1.0000000E+03;  1.0000000E-01;  0.0000000E+00;0;  0.0000000E+00;  0.0000000E+00;  0.0000000E+00;0;  0.0000000E+00;  4.0000000E+04;  0.0000000E+00;  0.0000000E+00;  4.0000000E+04;  0.0000000E+00;  4.0000000E+04;  0.0000000E+00;  0.0000000E+00;  0.0000000E+00;  0.0000000E+00;
 -1.4000000E-01;  9.9999998E-03;  4.1999999E-01;631;  0.0000000E+00;  0.0000000E+00;  0.0000000E+00;  1.0000000E+03;  1.0000000E-01;  0.0000000E+00;0;  0.0000000E+00;  0.0000000E+00;  0.0000000E+00;0;  0.0000000E+00;  4.0000000E+04;  0.0000000E+00;  0.0000000E+00;  4.0000000E+04;  0.0000000E+00;  4.0000000E+04;  0.0000000E+00;  0.0000000E+00;  0.0000000E+00;  0.0000000E+00;
 -1.4000000E-01;  9.9999998E-03;  4.3000001E-01;632;  0.0000000E+00;  0.0000000E+00;  0.0000000E+00;  1.0000000E+03;  1.0000000E-01;  0.0000000E+00;0;  0.0000000E+00;  0.0000000E+00;  0.0000000E+00;0;  0.0000000E+00;  4.0000000E+04;  0.0000000E+00;  0.0000000E+00;  4.0000000E+04;  0.0000000E+00;  4.0000000E+04;  0.0000000E+00;  0.0000000E+00;  0.0000000E+00;  0.0000000E+00;
 -1.4000000E-01;  9.9999998E-03;  4.4000000E-01;633;  0.0000000E+00;  0.0000000E+00;  0.0000000E+00;  1.0000000E+03;  1.0000000E-01;  0.0000000E+00;0;  0.0000000E+00;  0.0000000E+00;  0.0000000E+00;0;  0.0000000E+00;  4.0000000E+04;  0.0000000E+00;  0.0000000E+00;  4.0000000E+04;  0.0000000E+00;  4.0000000E+04;  0.0000000E+00;  0.0000000E+00;  0.0000000E+00;  0.0000000E+00;
 -1.4000000E-01;  9.9999998E-03;  4.4999999E-01;634;  0.0000000E+00;  0.0000000E+00;  0.0000000E+00;  1.0000000E+03;  1.0000000E-01;  0.0000000E+00;0;  0.0000000E+00;  0.0000000E+00;  0.0000000E+00;0;  0.0000000E+00;  4.0000000E+04;  0.0000000E+00;  0.0000000E+00;  4.0000000E+04;  0.0000000E+00;  4.0000000E+04;  0.0000000E+00;  0.0000000E+00;  0.0000000E+00;  0.0000000E+00;
 -1.3000000E-01;  9.9999998E-03;  4.1000000E-01;721;  0.0000000E+00;  0.0000000E+00;  0.0000000E+00;  1.0000000E+03;  1.0000000E-01;  0.0000000E+00;0;  0.0000000E+00;  0.0000000E+00;  0.0000000E+00;0;  0.0000000E+00;  4.0000000E+04;  0.0000000E+00;  0.0000000E+00;  4.0000000E+04;  0.0000000E+00;  4.0000000E+04;  0.0000000E+00;  0.0000000E+00;  0.0000000E+00;  0.0000000E+00;
 -1.3000000E-01;  9.9999998E-03;  4.1999999E-01;722;  0.0000000E+00;  0.0000000E+00;  0.0000000E+00;  1.0000000E+03;  1.0000000E-01;  0.0000000E+00;0;  0.0000000E+00;  0.0000000E+00;  0.0000000E+00;0;  0.0000000E+00;  4.0000000E+04;  0.0000000E+00;  0.0000000E+00;  4.0000000E+04;  0.0000000E+00;  4.0000000E+04;  0.0000000E+00;  0.0000000E+00;  0.0000000E+00;  0.0000000E+00;
 -1.3000000E-01;  9.9999998E-03;  4.3000001E-01;723;  0.0000000E+00;  0.0000000E+00;  0.0000000E+00;  1.0000000E+03;  1.0000000E-01;  0.0000000E+00;0;  0.0000000E+00;  0.0000000E+00;  0.0000000E+00;0;  0.0000000E+00;  4.0000000E+04;  0.0000000E+00;  0.0000000E+00;  4.0000000E+04;  0.0000000E+00;  4.0000000E+04;  0.0000000E+00;  0.0000000E+00;  0.0000000E+00;  0.0000000E+00;
 -1.3000000E-01;  9.9999998E-03;  4.4000000E-01;724;  0.0000000E+00;  0.0000000E+00;  0.0000000E+00;  1.0000000E+03;  1.0000000E-01;  0.0000000E+00;0;  0.0000000E+00;  0.0000000E+00;  0.0000000E+00;0;  0.0000000E+00;  4.0000000E+04;  0.0000000E+00;  0.0000000E+00;  4.0000000E+04;  0.0000000E+00;  4.0000000E+04;  0.0000000E+00;  0.0000000E+00;  0.0000000E+00;  0.0000000E+00;
 -1.3000000E-01;  9.9999998E-03;  4.4999999E-01;725;  0.0000000E+00;  0.0000000E+00;  0.0000000E+00;  1.0000000E+03;  1.0000000E-01;  0.0000000E+00;0;  0.0000000E+00;  0.0000000E+00;  0.0000000E+00;0;  0.0000000E+00;  4.0000000E+04;  0.0000000E+00;  0.0000000E+00;  4.0000000E+04;  0.0000000E+00;  4.0000000E+04;  0.0000000E+00;  0.0000000E+00;  0.0000000E+00;  0.0000000E+00;
 -1.2000000E-01;  9.9999998E-03;  4.1000000E-01;812;  0.0000000E+00;  0.0000000E+00;  0.0000000E+00;  1.0000000E+03;  1.0000000E-01;  0.0000000E+00;0;  0.0000000E+00;  0.0000000E+00;  0.0000000E+00;0;  0.0000000E+00;  4.0000000E+04;  0.0000000E+00;  0.0000000E+00;  4.0000000E+04;  0.0000000E+00;  4.0000000E+04;  0.0000000E+00;  0.0000000E+00;  0.0000000E+00;  3.0553776E-06;
 -1.2000000E-01;  9.9999998E-03;  4.1999999E-01;813;  0.0000000E+00;  0.0000000E+00;  0.0000000E+00;  1.0000000E+03;  1.0000000E-01;  0.0000000E+00;0;  0.0000000E+00;  0.0000000E+00;  0.0000000E+00;0;  0.0000000E+00;  4.0000000E+04;  0.0000000E+00;  0.0000000E+00;  4.0000000E+04;  0.0000000E+00;  4.0000000E+04;  0.0000000E+00;  0.0000000E+00;  0.0000000E+00;  0.0000000E+00;
 -1.2000000E-01;  9.9999998E-03;  4.3000001E-01;814;  0.0000000E+00;  0.0000000E+00;  0.0000000E+00;  1.0000000E+03;  1.0000000E-01;  0.0000000E+00;0;  0.0000000E+00;  0.0000000E+00;  0.0000000E+00;0;  0.0000000E+00;  4.0000000E+04;  0.0000000E+00;  0.0000000E+00;  4.0000000E+04;  0.0000000E+00;  4.0000000E+04;  0.0000000E+00;  0.0000000E+00;  0.0000000E+00;  0.0000000E+00;
 -1.2000000E-01;  9.9999998E-03;  4.4000000E-01;815;  0.0000000E+00;  0.0000000E+00;  0.0000000E+00;  1.0000000E+03;  1.0000000E-01;  0.0000000E+00;0;  0.0000000E+00;  0.0000000E+00;  0.0000000E+00;0;  0.0000000E+00;  4.0000000E+04;  0.0000000E+00;  0.0000000E+00;  4.0000000E+04;  0.0000000E+00;  4.0000000E+04;  0.0000000E+00;  0.0000000E+00;  0.0000000E+00;  0.0000000E+00;
 -1.2000000E-01;  9.9999998E-03;  4.4999999E-01;816;  0.0000000E+00;  0.0000000E+00;  0.0000000E+00;  1.0000000E+03;  1.0000000E-01;  0.0000000E+00;0;  0.0000000E+00;  0.0000000E+00;  0.0000000E+00;0;  0.0000000E+00;  4.0000000E+04;  0.0000000E+00;  0.0000000E+00;  4.0000000E+04;  0.0000000E+00;  4.0000000E+04;  0.0000000E+00;  0.0000000E+00;  0.0000000E+00;  0.0000000E+00;
 -1.1000000E-01;  9.9999998E-03;  4.1000000E-01;903;  0.0000000E+00;  0.0000000E+00;  0.0000000E+00;  1.0000000E+03;  1.0000000E-01;  0.0000000E+00;0;  0.0000000E+00;  0.0000000E+00;  0.0000000E+00;0; -6.7346191E-09;  4.0000000E+04;  0.0000000E+00;  0.0000000E+00;  4.0000000E+04;  0.0000000E+00;  4.0000000E+04;  1.2999224E-08;  0.0000000E+00; -1.9733843E-08;  1.5380499E-01;
 -1.1000000E-01;  9.9999998E-03;  4.1999999E-01;904;  0.0000000E+00;  0.0000000E+00;  0.0000000E+00;  1.0000000E+03;  1.0000000E-01;  0.0000000E+00;0;  0.0000000E+00;  0.0000000E+00;  0.0000000E+00;0; -2.8798236E-16;  4.0000000E+04;  0.0000000E+00;  0.0000000E+00;  4.0000000E+04;  0.0000000E+00;  4.0000000E+04; -1.7677106E-16;  0.0000000E+00; -1.1121130E-16;  2.4097312E-06;
 -1.1000000E-01;  9.9999998E-03;  4.3000001E-01;905;  0.0000000E+00;  0.0000000E+00;  0.0000000E+00;  1.0000000E+03;  1.0000000E-01;  0.0000000E+00;0;  0.0000000E+00;  0.0000000E+00;  0.0000000E+00;0;  0.0000000E+00;  4.0000000E+04;  0.0000000E+00;  0.0000000E+00;  4.0000000E+04;  0.0000000E+00;  4.0000000E+04;  0.0000000E+00;  0.0000000E+00;  0.0000000E+00;  0.0000000E+00;
 -1.1000000E-01;  9.9999998E-03;  4.4000000E-01;906;  0.0000000E+00;  0.0000000E+00;  0.0000000E+00;  1.0000000E+03;  1.0000000E-01;  0.0000000E+00;0;  0.0000000E+00;  0.0000000E+00;  0.0000000E+00;0;  0.0000000E+00;  4.0000000E+04;  0.0000000E+00;  0.0000000E+00;  4.0000000E+04;  0.0000000E+00;  4.0000000E+04;  0.0000000E+00;  0.0000000E+00;  0.0000000E+00;  0.0000000E+00;
 -1.1000000E-01;  9.9999998E-03;  4.4999999E-01;907;  0.0000000E+00;  0.0000000E+00;  0.0000000E+00;  1.0000000E+03;  1.0000000E-01;  0.0000000E+00;0;  0.0000000E+00;  0.0000000E+00;  0.0000000E+00;0;  0.0000000E+00;  4.0000000E+04;  0.0000000E+00;  0.0000000E+00;  4.0000000E+04;  0.0000000E+00;  4.0000000E+04;  0.0000000E+00;  0.0000000E+00;  0.0000000E+00;  0.0000000E+00;
 -1.0000000E-01;  9.9999998E-03;  4.1000000E-01;994;  0.0000000E+00;  0.0000000E+00;  0.0000000E+00;  1.0000000E+03;  1.0000000E-01;  0.0000000E+00;0;  0.0000000E+00;  0.0000000E+00;  0.0000000E+00;0;  1.9246613E-08;  4.0000000E+04;  0.0000000E+00;  0.0000000E+00;  4.0000000E+04;  0.0000000E+00;  4.0000000E+04;  1.2674472E-07;  0.0000000E+00; -1.0749811E-07;  1.4976189E+00;
 -1.0000000E-01;  9.9999998E-03;  4.1999999E-01;995;  0.0000000E+00;  0.0000000E+00;  0.0000000E+00;  1.0000000E+03;  1.0000000E-01;  0.0000000E+00;0;  0.0000000E+00;  0.0000000E+00;  0.0000000E+00;0; -1.3940340E-08;  4.0000000E+04;  0.0000000E+00;  0.0000000E+00;  4.0000000E+04;  0.0000000E+00;  4.0000000E+04;  1.9269180E-09;  0.0000000E+00; -1.5867258E-08;  1.4755736E-01;
 -1.0000000E-01;  9.9999998E-03;  4.3000001E-01;996;  0.0000000E+00;  0.0000000E+00;  0.0000000E+00;  1.0000000E+03;  1.0000000E-01;  0.0000000E+00;0;  0.0000000E+00;  0.0000000E+00;  0.0000000E+00;0;  0.0000000E+00;  4.0000000E+04;  0.0000000E+00;  0.0000000E+00;  4.0000000E+04;  0.0000000E+00;  4.0000000E+04;  0.0000000E+00;  0.0000000E+00;  0.0000000E+00;  0.0000000E+00;
 -1.0000000E-01;  9.9999998E-03;  4.4000000E-01;997;  0.0000000E+00;  0.0000000E+00;  0.0000000E+00;  1.0000000E+03;  1.0000000E-01;  0.0000000E+00;0;  0.0000000E+00;  0.0000000E+00;  0.0000000E+00;0;  0.0000000E+00;  4.0000000E+04;  0.0000000E+00;  0.0000000E+00;  4.0000000E+04;  0.0000000E+00;  4.0000000E+04;  0.0000000E+00;  0.0000000E+00;  0.0000000E+00;  0.0000000E+00;
 -1.0000000E-01;  9.9999998E-03;  4.4999999E-01;998;  0.0000000E+00;  0.0000000E+00;  0.0000000E+00;  1.0000000E+03;  1.0000000E-01;  0.0000000E+00;0;  0.0000000E+00;  0.0000000E+00;  0.0000000E+00;0;  0.0000000E+00;  4.0000000E+04;  0.0000000E+00;  0.0000000E+00;  4.0000000E+04;  0.0000000E+00;  4.0000000E+04;  0.0000000E+00;  0.0000000E+00;  0.0000000E+00;  0.0000000E+00;
 -9.0000004E-02;  9.9999998E-03;  4.1000000E-01;1085;  0.0000000E+00;  0.0000000E+00;  0.0000000E+00;  1.0000000E+03;  1.0000000E-01;  0.0000000E+00;0;  0.0000000E+00;  0.0000000E+00;  0.0000000E+00;0;  6.3450494E-07;  4.0000000E+04;  0.0000000E+00;  0.0000000E+00;  4.0000000E+04;  0.0000000E+00;  4.0000000E+04;  6.1769833E-07;  0.0000000E+00;  1.6806606E-08;  6.6730828E+00;
 -9.0000004E-02;  9.9999998E-03;  4.1999999E-01;1086;  0.0000000E+00;  0.0000000E+00;  0.0000000E+00;  1.0000000E+03;  1.0000000E-01;  0.0000000E+00;0;  0.0000000E+00;  0.0000000E+00;  0.0000000E+00;0; -7.3297457E-08;  4.0000000E+04;  0.0000000E+00;  0.0000000E+00;  4.0000000E+04;  0.0000000E+00;  4.0000000E+04;  3.1851901E-08;  0.0000000E+00; -1.0514935E-07;  1.3192505E+00;
 -9.0000004E-02;  9.9999998E-03;  4.3000001E-01;1087;  0.0000000E+00;  0.0000000E+00;  0.0000000E+00;  1.0000000E+03;  1.0000000E-01;  0.0000000E+00;0;  0.0000000E+00;  0.0000000E+00;  0.0000000E+00;0; -9.7498818E-09;  4.0000000E+04;  0.0000000E+00;  0.0000000E+00;  4.0000000E+04;  0.0000000E+00;  4.0000000E+04; -3.4005274E-09;  0.0000000E+00; -6.3493544E-09;  7.9198591E-02;
 -9.0000004E-02;  9.9999998E-03;  4.4000000E-01;1088;  0.0000000E+00;  0.0000000E+00;  0.0000000E+00;  1.0000000E+03;  1.0000000E-01;  0.0000000E+00;0;  0.0000000E+00;  0.0000000E+00;  0.0000000E+00;0;  0.0000000E+00;  4.0000000E+04;  0.0000000E+00;  0.0000000E+00;  4.0000000E+04;  0.0000000E+00;  4.0000000E+04;  0.0000000E+00;  0.0000000E+00;  0.0000000E+00;  0.0000000E+00;
 -9.0000004E-02;  9.9999998E-03;  4.4999999E-01;1089;  0.0000000E+00;  0.0000000E+00;  0.0000000E+00;  1.0000000E+03;  1.0000000E-01;  0.0000000E+00;0;  0.0000000E+00;  0.0000000E+00;  0.0000000E+00;0;  0.0000000E+00;  4.0000000E+04;  0.0000000E+00;  0.0000000E+00;  4.0000000E+04;  0.0000000E+00;  4.0000000E+04;  0.0000000E+00;  0.0000000E+00;  0.0000000E+00;  0.0000000E+00;
 -7.9999998E-02;  9.9999998E-03;  4.1000000E-01;1176;  0.0000000E+00;  0.0000000E+00;  0.0000000E+00;  1.0000000E+03;  1.0000000E-01;  0.0000000E+00;0;  0.0000000E+00;  0.0000000E+00;  0.0000000E+00;0;  2.9979649E-06;  4.0000000E+04;  0.0000000E+00;  0.0000000E+00;  4.0000000E+04;  0.0000000E+00;  4.0000000E+04;  1.8276605E-06;  0.0000000E+00;  1.1703044E-06;  1.9730377E+01;
 -7.9999998E-02;  9.9999998E-03;  4.1999999E-01;1177;  0.0000000E+00;  0.0000000E+00;  0.0000000E+00;  1.0000000E+03;  1.0000000E-01;  0.0000000E+00;0;  0.0000000E+00;  0.0000000E+00;  0.0000000E+00;0;  9.8344493E-08;  4.0000000E+04;  0.0000000E+00;  0.0000000E+00;  4.0000000E+04;  0.0000000E+00;  4.0000000E+04;  1.9813604E-07;  0.0000000E+00; -9.9791542E-08;  5.5904832E+00;
 -7.9999998E-02;  9.9999998E-03;  4.3000001E-01;1178;  0.0000000E+00;  0.0000000E+00;  0.0000000E+00;  1.0000000E+03;  1.0000000E-01;  0.0000000E+00;0;  0.0000000E+00;  0.0000000E+00;  0.0000000E+00;0; -7.6835946E-08;  4.0000000E+04;  0.0000000E+00;  0.0000000E+00;  4.0000000E+04;  0.0000000E+00;  4.0000000E+04; -1.1597350E-08;  0.0000000E+00; -6.5238595E-08;  8.0488718E-01;
 -7.9999998E-02;  9.9999998E-03;  4.4000000E-01;1179;  0.0000000E+00;  0.0000000E+00;  0.0000000E+00;  1.0000000E+03;  1.0000000E-01;  0.0000000E+00;0;  0.0000000E+00;  0.0000000E+00;  0.0000000E+00;0; -1.9533539E-09;  4.0000000E+04;  0.0000000E+00;  0.0000000E+00;  4.0000000E+04;  0.0000000E+00;  4.0000000E+04; -9.9221031E-10;  0.0000000E+00; -9.6114361E-10;  1.4971321E-02;
 -7.9999998E-02;  9.9999998E-03;  4.4999999E-01;1180;  0.0000000E+00;  0.0000000E+00;  0.0000000E+00;  1.0000000E+03;  1.0000000E-01;  0.0000000E+00;0;  0.0000000E+00;  0.0000000E+00;  0.0000000E+00;0;  0.0000000E+00;  4.0000000E+04;  0.0000000E+00;  0.0000000E+00;  4.0000000E+04;  0.0000000E+00;  4.0000000E+04;  0.0000000E+00;  0.0000000E+00;  0.0000000E+00;  0.0000000E+00;
 -7.0000000E-02;  9.9999998E-03;  4.1000000E-01;1267;  0.0000000E+00;  0.0000000E+00;  0.0000000E+00;  1.0000000E+03;  1.0000000E-01;  0.0000000E+00;0;  0.0000000E+00;  0.0000000E+00;  0.0000000E+00;0;  8.4854228E-06;  4.0000000E+04;  0.0000000E+00;  0.0000000E+00;  4.0000000E+04;  0.0000000E+00;  4.0000000E+04;  3.9237343E-06;  0.0000000E+00;  4.5616885E-06;  4.5057369E+01;
 -7.0000000E-02;  9.9999998E-03;  4.1999999E-01;1268;  0.0000000E+00;  0.0000000E+00;  0.0000000E+00;  1.0000000E+03;  1.0000000E-01;  0.0000000E+00;0;  0.0000000E+00;  0.0000000E+00;  0.0000000E+00;0;  1.1489685E-06;  4.0000000E+04;  0.0000000E+00;  0.0000000E+00;  4.0000000E+04;  0.0000000E+00;  4.0000000E+04;  6.1302723E-07;  0.0000000E+00;  5.3594135E-07;  1.5882899E+01;
 -7.0000000E-02;  9.9999998E-03;  4.3000001E-01;1269;  0.0000000E+00;  0.0000000E+00;  0.0000000E+00;  1.0000000E+03;  1.0000000E-01;  0.0000000E+00;0;  0.0000000E+00;  0.0000000E+00;  0.0000000E+00;0; -1.5285974E-07;  4.0000000E+04;  0.0000000E+00;  0.0000000E+00;  4.0000000E+04;  0.0000000E+00;  4.0000000E+04; -1.6252033E-08;  0.0000000E+00; -1.3660771E-07;  3.4694510E+00;
 -7.0000000E-02;  9.9999998E-03;  4.4000000E-01;1270;  0.0000000E+00;  0.0000000E+00;  0.0000000E+00;  1.0000000E+03;  1.0000000E-01;  0.0000000E+00;0;  0.0000000E+00;  0.0000000E+00;  0.0000000E+00;0; -3.2901792E-08;  4.0000000E+04;  0.0000000E+00;  0.0000000E+00;  4.0000000E+04;  0.0000000E+00;  4.0000000E+04; -1.2846646E-08;  0.0000000E+00; -2.0055145E-08;  2.8468588E-01;
 -7.0000000E-02;  9.9999998E-03;  4.4999999E-01;1271;  0.0000000E+00;  0.0000000E+00;  0.0000000E+00;  1.0000000E+03;  1.0000000E-01;  0.0000000E+00;0;  0.0000000E+00;  0.0000000E+00;  0.0000000E+00;0;  0.0000000E+00;  4.0000000E+04;  0.0000000E+00;  0.0000000E+00;  4.0000000E+04;  0.0000000E+00;  4.0000000E+04;  0.0000000E+00;  0.0000000E+00;  0.0000000E+00;  8.6631813E-12;
 -5.9999999E-02;  9.9999998E-03;  4.1000000E-01;1358;  0.0000000E+00;  0.0000000E+00;  0.0000000E+00;  1.0000000E+03;  1.0000000E-01;  0.0000000E+00;0;  0.0000000E+00;  0.0000000E+00;  0.0000000E+00;0;  1.8126879E-05;  4.0000000E+04;  0.0000000E+00;  0.0000000E+00;  4.0000000E+04;  0.0000000E+00;  4.0000000E+04;  6.7193728E-06;  0.0000000E+00;  1.1407506E-05;  8.6025482E+01;
 -5.9999999E-02;  9.9999998E-03;  4.1999999E-01;1359;  0.0000000E+00;  0.0000000E+00;  0.0000000E+00;  1.0000000E+03;  1.0000000E-01;  0.0000000E+00;0;  0.0000000E+00;  0.0000000E+00;  0.0000000E+00;0;  3.8747876E-06;  4.0000000E+04;  0.0000000E+00;  0.0000000E+00;  4.0000000E+04;  0.0000000E+00;  4.0000000E+04;  1.2843158E-06;  0.0000000E+00;  2.5904717E-06;  3.5058559E+01;
 -5.9999999E-02;  9.9999998E-03;  4.3000001E-01;1360;  0.0000000E+00;  0.0000000E+00;  0.0000000E+00;  1.0000000E+03;  1.0000000E-01;  0.0000000E+00;0;  0.0000000E+00;  0.0000000E+00;  0.0000000E+00;0;  5.8282474E-08;  4.0000000E+04;  0.0000000E+00;  0.0000000E+00;  4.0000000E+04;  0.0000000E+00;  4.0000000E+04;  6.4008407E-09;  0.0000000E+00;  5.1881631E-08;  9.8557539E+00;
 -5.9999999E-02;  9.9999998E-03;  4.4000000E-01;1361;  0.0000000E+00;  0.0000000E+00;  0.0000000E+00;  1.0000000E+03;  1.0000000E-01;  0.0000000E+00;0;  0.0000000E+00;  0.0000000E+00;  0.0000000E+00;0; -1.1839564E-07;  4.0000000E+04;  0.0000000E+00;  0.0000000E+00;  4.0000000E+04;  0.0000000E+00;  4.0000000E+04; -4.5094900E-08;  0.0000000E+00; -7.3300740E-08;  1.4212922E+00;
 -5.9999999E-02;  9.9999998E-03;  4.4999999E-01;1362;  0.0000000E+00;  0.0000000E+00;  0.0000000E+00;  1.0000000E+03;  1.0000000E-01;  0.0000000E+00;0;  0.0000000E+00;  0.0000000E+00;  0.0000000E+00;0; -3.8911399E-09;  4.0000000E+04;  0.0000000E+00;  0.0000000E+00;  4.0000000E+04;  0.0000000E+00;  4.0000000E+04; -1.7689453E-09;  0.0000000E+00; -2.1221944E-09;  3.2426145E-02;
 -5.0000001E-02;  9.9999998E-03;  4.1000000E-01;1449;  0.0000000E+00;  0.0000000E+00;  0.0000000E+00;  1.0000088E+03;  1.0000000E-01;  7.3084354E+00;0;  0.0000000E+00;  0.0000000E+00;  0.0000000E+00;0;  3.2070177E-05;  4.0000000E+04;  0.0000000E+00;  0.0000000E+00;  4.0000000E+04;  0.0000000E+00;  4.0000000E+04;  9.5958048E-06;  0.0000000E+00;  2.2474373E-05;  1.4368997E+02;
 -5.0000001E-02;  9.9999998E-03;  4.1999999E-01;1450;  0.0000000E+00;  0.0000000E+00;  0.0000000E+00;  1.0000000E+03;  1.0000000E-01;  0.0000000E+00;0;  0.0000000E+00;  0.0000000E+00;  0.0000000E+00;0;  8.7751887E-06;  4.0000000E+04;  0.0000000E+00;  0.0000000E+00;  4.0000000E+04;  0.0000000E+00;  4.0000000E+04;  2.0043540E-06;  0.0000000E+00;  6.7708343E-06;  6.4807182E+01;
 -5.0000001E-02;  9.9999998E-03;  4.3000001E-01;1451;  0.0000000E+00;  0.0000000E+00;  0.0000000E+00;  1.0000000E+03;  1.0000000E-01;  0.0000000E+00;0;  0.0000000E+00;  0.0000000E+00;  0.0000000E+00;0;  9.3901014E-07;  4.0000000E+04;  0.0000000E+00;  0.0000000E+00;  4.0000000E+04;  0.0000000E+00;  4.0000000E+04;  1.9495367E-08;  0.0000000E+00;  9.1951478E-07;  2.1525898E+01;
 -5.0000001E-02;  9.9999998E-03;  4.4000000E-01;1452;  0.0000000E+00;  0.0000000E+00;  0.0000000E+00;  1.0000000E+03;  1.0000000E-01;  0.0000000E+00;0;  0.0000000E+00;  0.0000000E+00;  0.0000000E+00;0; -1.9839169E-07;  4.0000000E+04;  0.0000000E+00;  0.0000000E+00;  4.0000000E+04;  0.0000000E+00;  4.0000000E+04; -1.1234079E-07;  0.0000000E+00; -8.6050903E-08;  4.2846031E+00;
 -5.0000001E-02;  9.9999998E-03;  4.4999999E-01;1453;  0.0000000E+00;  0.0000000E+00;  0.0000000E+00;  1.0000000E+03;  1.0000000E-01;  0.0000000E+00;0;  0.0000000E+00;  0.0000000E+00;  0.0000000E+00;0; -2.8510160E-08;  4.0000000E+04;  0.0000000E+00;  0.0000000E+00;  4.0000000E+04;  0.0000000E+00;  4.0000000E+04; -1.3740225E-08;  0.0000000E+00; -1.4769935E-08;  2.8080714E-01;
 -3.9999999E-02;  9.9999998E-03;  4.1000000E-01;1540;  0.0000000E+00;  0.0000000E+00;  0.0000000E+00;  1.0000480E+03;  1.0000000E-01;  3.9801342E+01;0;  0.0000000E+00;  0.0000000E+00;  0.0000000E+00;0;  4.9276216E-05;  4.0000000E+04;  0.0000000E+00;  0.0000000E+00;  4.0000000E+04;  0.0000000E+00;  4.0000000E+04;  1.1602358E-05;  0.0000000E+00;  3.7673857E-05;  2.1588934E+02;
 -3.9999999E-02;  9.9999998E-03;  4.1999999E-01;1541;  0.0000000E+00;  0.0000000E+00;  0.0000000E+00;  1.0000000E+03;  1.0000000E-01;  0.0000000E+00;0;  0.0000000E+00;  0.0000000E+00;  0.0000000E+00;0;  1.5752901E-05;  4.0000000E+04;  0.0000000E+00;  0.0000000E+00;  4.0000000E+04;  0.0000000E+00;  4.0000000E+04;  2.3768616E-06;  0.0000000E+00;  1.3376040E-05;  1.0477823E+02;
 -3.9999999E-02;  9.9999998E-03;  4.3000001E-01;1542;  0.0000000E+00;  0.0000000E+00;  0.0000000E+00;  1.0000000E+03;  1.0000000E-01;  0.0000000E+00;0;  0.0000000E+00;  0.0000000E+00;  0.0000000E+00;0;  2.7244623E-06;  4.0000000E+04;  0.0000000E+00;  0.0000000E+00;  4.0000000E+04;  0.0000000E+00;  4.0000000E+04; -9.6910632E-08;  0.0000000E+00;  2.8213728E-06;  3.9094715E+01;
 -3.9999999E-02;  9.9999998E-03;  4.4000000E-01;1543;  0.0000000E+00;  0.0000000E+00;  0.0000000E+00;  1.0000000E+03;  1.0000000E-01;  0.0000000E+00;0;  0.0000000E+00;  0.0000000E+00;  0.0000000E+00;0; -1.2561495E-07;  4.0000000E+04;  0.0000000E+00;  0.0000000E+00;  4.0000000E+04;  0.0000000E+00;  4.0000000E+04; -2.3554546E-07;  0.0000000E+00;  1.0993052E-07;  9.5844460E+00;
 -3.9999999E-02;  9.9999998E-03;  4.4999999E-01;1544;  0.0000000E+00;  0.0000000E+00;  0.0000000E+00;  1.0000000E+03;  1.0000000E-01;  0.0000000E+00;0;  0.0000000E+00;  0.0000000E+00;  0.0000000E+00;0; -7.9882874E-08;  4.0000000E+04;  0.0000000E+00;  0.0000000E+00;  4.0000000E+04;  0.0000000E+00;  4.0000000E+04; -4.4522615E-08;  0.0000000E+00; -3.5360259E-08;  1.0426980E+00;
 -2.9999999E-02;  9.9999998E-03;  4.1000000E-01;1631;  0.0000000E+00;  0.0000000E+00;  0.0000000E+00;  1.0000668E+03;  1.0000000E-01;  5.5307079E+01;0;  0.0000000E+00;  0.0000000E+00;  0.0000000E+00;0;  6.7564477E-05;  4.0000000E+04;  0.0000000E+00;  0.0000000E+00;  4.0000000E+04;  0.0000000E+00;  4.0000000E+04;  1.1739235E-05;  0.0000000E+00;  5.5825240E-05;  2.9689035E+02;
 -2.9999999E-02;  9.9999998E-03;  4.1999999E-01;1632;  0.0000000E+00;  0.0000000E+00;  0.0000000E+00;  1.0000106E+03;  1.0000000E-01;  8.7898750E+00;0;  0.0000000E+00;  0.0000000E+00;  0.0000000E+00;0;  2.4002247E-05;  4.0000000E+04;  0.0000000E+00;  0.0000000E+00;  4.0000000E+04;  0.0000000E+00;  4.0000000E+04;  1.9459633E-06;  0.0000000E+00;  2.2056283E-05;  1.5211737E+02;
 -2.9999999E-02;  9.9999998E-03;  4.3000001E-01;1633;  0.0000000E+00;  0.0000000E+00;  0.0000000E+00;  1.0000000E+03;  1.0000000E-01;  0.0000000E+00;0;  0.0000000E+00;  0.0000000E+00;  0.0000000E+00;0;  5.3324466E-06;  4.0000000E+04;  0.0000000E+00;  0.0000000E+00;  4.0000000E+04;  0.0000000E+00;  4.0000000E+04; -5.0844704E-07;  0.0000000E+00;  5.8408937E-06;  6.1718758E+01;
 -2.9999999E-02;  9.9999998E-03;  4.4000000E-01;1634;  0.0000000E+00;  0.0000000E+00;  0.0000000E+00;  1.0000000E+03;  1.0000000E-01;  0.0000000E+00;0;  0.0000000E+00;  0.0000000E+00;  0.0000000E+00;0;  2.2689605E-07;  4.0000000E+04;  0.0000000E+00;  0.0000000E+00;  4.0000000E+04;  0.0000000E+00;  4.0000000E+04; -4.4943616E-07;  0.0000000E+00;  6.7633221E-07;  1.7465895E+01;
 -2.9999999E-02;  9.9999998E-03;  4.4999999E-01;1635;  0.0000000E+00;  0.0000000E+00;  0.0000000E+00;  1.0000000E+03;  1.0000000E-01;  0.0000000E+00;0;  0.0000000E+00;  0.0000000E+00;  0.0000000E+00;0; -1.2893830E-07;  4.0000000E+04;  0.0000000E+00;  0.0000000E+00;  4.0000000E+04;  0.0000000E+00;  4.0000000E+04; -1.0077861E-07;  0.0000000E+00; -2.8159691E-08;  2.5769489E+00;
 -2.0000000E-02;  9.9999998E-03;  4.1000000E-01;1722;  0.0000000E+00;  0.0000000E+00;  0.0000000E+00;  1.0000828E+03;  1.0000000E-01;  6.8541275E+01;0;  0.0000000E+00;  0.0000000E+00;  0.0000000E+00;0;  8.4012048E-05;  4.0000000E+04;  0.0000000E+00;  0.0000000E+00;  4.0000000E+04;  0.0000000E+00;  4.0000000E+04;  9.3539293E-06;  0.0000000E+00;  7.4658121E-05;  3.7770163E+02;
 -2.0000000E-02;  9.9999998E-03;  4.1999999E-01;1723;  0.0000000E+00;  0.0000000E+00;  0.0000000E+00;  1.0000462E+03;  1.0000000E-01;  3.8319904E+01;0;  0.0000000E+00;  0.0000000E+00;  0.0000000E+00;0;  3.2092281E-05;  4.0000000E+04;  0.0000000E+00;  0.0000000E+00;  4.0000000E+04;  0.0000000E+00;  4.0000000E+04;  3.8652115E-07;  0.0000000E+00;  3.1705760E-05;  2.0151118E+02;
 -2.0000000E-02;  9.9999998E-03;  4.3000001E-01;1724;  0.0000000E+00;  0.0000000E+00;  0.0000000E+00;  1.0000000E+03;  1.0000000E-01;  0.0000000E+00;0;  0.0000000E+00;  0.0000000E+00;  0.0000000E+00;0;  8.3122504E-06;  4.0000000E+04;  0.0000000E+00;  0.0000000E+00;  4.0000000E+04;  0.0000000E+00;  4.0000000E+04; -1.3455813E-06;  0.0000000E+00;  9.6578315E-06;  8.6945457E+01;
 -2.0000000E-02;  9.9999998E-03;  4.4000000E-01;1725;  0.0000000E+00;  0.0000000E+00;  0.0000000E+00;  1.0000000E+03;  1.0000000E-01;  0.0000000E+00;0;  0.0000000E+00;  0.0000000E+00;  0.0000000E+00;0;  8.4948351E-07;  4.0000000E+04;  0.0000000E+00;  0.0000000E+00;  4.0000000E+04;  0.0000000E+00;  4.0000000E+04; -7.9080678E-07;  0.0000000E+00;  1.6402903E-06;  2.7256542E+01;
 -2.0000000E-02;  9.9999998E-03;  4.4999999E-01;1726;  0.0000000E+00;  0.0000000E+00;  0.0000000E+00;  1.0000000E+03;  1.0000000E-01;  0.0000000E+00;0;  0.0000000E+00;  0.0000000E+00;  0.0000000E+00;0; -1.2607194E-07;  4.0000000E+04;  0.0000000E+00;  0.0000000E+00;  4.0000000E+04;  0.0000000E+00;  4.0000000E+04; -1.8627205E-07;  0.0000000E+00;  6.0200101E-08;  4.9180465E+00;
 -9.9999998E-03;  9.9999998E-03;  4.1000000E-01;1813;  0.0000000E+00;  0.0000000E+00;  0.0000000E+00;  1.0001279E+03;  1.0000000E-01;  1.0597231E+02;0;  0.0000000E+00;  0.0000000E+00;  0.0000000E+00;0;  9.5643532E-05;  4.0000000E+04;  0.0000000E+00;  0.0000000E+00;  4.0000000E+04;  0.0000000E+00;  4.0000000E+04;  4.5409365E-06;  0.0000000E+00;  9.1102593E-05;  4.4724731E+02;
 -9.9999998E-03;  9.9999998E-03;  4.1999999E-01;1814;  0.0000000E+00;  0.0000000E+00;  0.0000000E+00;  1.0000550E+03;  1.0000000E-01;  4.5529575E+01;0;  0.0000000E+00;  0.0000000E+00;  0.0000000E+00;0;  3.8280050E-05;  4.0000000E+04;  0.0000000E+00;  0.0000000E+00;  4.0000000E+04;  0.0000000E+00;  4.0000000E+04; -2.2878814E-06;  0.0000000E+00;  4.0567931E-05;  2.4579561E+02;
 -9.9999998E-03;  9.9999998E-03;  4.3000001E-01;1815;  0.0000000E+00;  0.0000000E+00;  0.0000000E+00;  1.0000000E+03;  1.0000000E-01;  0.0000000E+00;0;  0.0000000E+00;  0.0000000E+00;  0.0000000E+00;0;  1.0920718E-05;  4.0000000E+04;  0.0000000E+00;  0.0000000E+00;  4.0000000E+04;  0.0000000E+00;  4.0000000E+04; -2.6072371E-06;  0.0000000E+00;  1.3527954E-05;  1.1095335E+02;
 -9.9999998E-03;  9.9999998E-03;  4.4000000E-01;1816;  0.0000000E+00;  0.0000000E+00;  0.0000000E+00;  1.0000000E+03;  1.0000000E-01;  0.0000000E+00;0;  0.0000000E+00;  0.0000000E+00;  0.0000000E+00;0;  1.5712794E-06;  4.0000000E+04;  0.0000000E+00;  0.0000000E+00;  4.0000000E+04;  0.0000000E+00;  4.0000000E+04; -1.2595256E-06;  0.0000000E+00;  2.8308050E-06;  3.7456089E+01;
 -9.9999998E-03;  9.9999998E-03;  4.4999999E-01;1817;  0.0000000E+00;  0.0000000E+00;  0.0000000E+00;  1.0000000E+03;  1.0000000E-01;  0.0000000E+00;0;  0.0000000E+00;  0.0000000E+00;  0.0000000E+00;0; -4.4548727E-08;  4.0000000E+04;  0.0000000E+00;  0.0000000E+00;  4.0000000E+04;  0.0000000E+00;  4.0000000E+04; -2.9766559E-07;  0.0000000E+00;  2.5311687E-07;  7.7662873E+00;
  0.0000000E+00;  9.9999998E-03;  4.1000000E-01;1845;  0.0000000E+00;  0.0000000E+00;  0.0000000E+00;  1.0001492E+03;  1.0000000E-01;  1.2355206E+02;0;  0.0000000E+00;  0.0000000E+00;  0.0000000E+00;0;  1.0048195E-04;  4.0000000E+04;  0.0000000E+00;  0.0000000E+00;  4.0000000E+04;  0.0000000E+00;  4.0000000E+04; -1.4974204E-06;  0.0000000E+00;  1.0197937E-04;  4.9460757E+02;
  0.0000000E+00;  9.9999998E-03;  4.1999999E-01;1846;  0.0000000E+00;  0.0000000E+00;  0.0000000E+00;  1.0000707E+03;  1.0000000E-01;  5.8566246E+01;0;  0.0000000E+00;  0.0000000E+00;  0.0000000E+00;0;  4.0975247E-05;  4.0000000E+04;  0.0000000E+00;  0.0000000E+00;  4.0000000E+04;  0.0000000E+00;  4.0000000E+04; -5.5798055E-06;  0.0000000E+00;  4.6555051E-05;  2.7719629E+02;
  0.0000000E+00;  9.9999998E-03;  4.3000001E-01;1847;  0.0000000E+00;  0.0000000E+00;  0.0000000E+00;  1.0000084E+03;  1.0000000E-01;  6.9133849E+00;0;  0.0000000E+00;  0.0000000E+00;  0.0000000E+00;0;  1.2304335E-05;  4.0000000E+04;  0.0000000E+00;  0.0000000E+00;  4.0000000E+04;  0.0000000E+00;  4.0000000E+04; -4.0934601E-06;  0.0000000E+00;  1.6397795E-05;  1.2916270E+02;
  0.0000000E+00;  9.9999998E-03;  4.4000000E-01;1848;  0.0000000E+00;  0.0000000E+00;  0.0000000E+00;  1.0000000E+03;  1.0000000E-01;  0.0000000E+00;0;  0.0000000E+00;  0.0000000E+00;  0.0000000E+00;0;  2.1059850E-06;  4.0000000E+04;  0.0000000E+00;  0.0000000E+00;  4.0000000E+04;  0.0000000E+00;  4.0000000E+04; -1.7871208E-06;  0.0000000E+00;  3.8931057E-06;  4.5985706E+01;
  0.0000000E+00;  9.9999998E-03;  4.4999999E-01;1849;  0.0000000E+00;  0.0000000E+00;  0.0000000E+00;  1.0000000E+03;  1.0000000E-01;  0.0000000E+00;0;  0.0000000E+00;  0.0000000E+00;  0.0000000E+00;0;  8.7327209E-08;  4.0000000E+04;  0.0000000E+00;  0.0000000E+00;  4.0000000E+04;  0.0000000E+00;  4.0000000E+04; -4.1914350E-07;  0.0000000E+00;  5.0647071E-07;  1.0515737E+01;
  9.9999998E-03;  9.9999998E-03;  4.1000000E-01;1875;  0.0000000E+00;  0.0000000E+00;  0.0000000E+00;  1.0001854E+03;  1.0000000E-01;  1.5357590E+02;0;  0.0000000E+00;  0.0000000E+00;  0.0000000E+00;0;  9.9128971E-05;  4.0000000E+04;  0.0000000E+00;  0.0000000E+00;  4.0000000E+04;  0.0000000E+00;  4.0000000E+04; -6.0952248E-06;  0.0000000E+00;  1.0522419E-04;  5.1254492E+02;
  9.9999998E-03;  9.9999998E-03;  4.1999999E-01;1876;  0.0000000E+00;  0.0000000E+00;  0.0000000E+00;  1.0000889E+03;  1.0000000E-01;  7.3676926E+01;0;  0.0000000E+00;  0.0000000E+00;  0.0000000E+00;0;  3.9433486E-05;  4.0000000E+04;  0.0000000E+00;  0.0000000E+00;  4.0000000E+04;  0.0000000E+00;  4.0000000E+04; -8.4014837E-06;  0.0000000E+00;  4.7834968E-05;  2.8931479E+02;
  9.9999998E-03;  9.9999998E-03;  4.3000001E-01;1877;  0.0000000E+00;  0.0000000E+00;  0.0000000E+00;  1.0000317E+03;  1.0000000E-01;  2.6270863E+01;0;  0.0000000E+00;  0.0000000E+00;  0.0000000E+00;0;  1.1758906E-05;  4.0000000E+04;  0.0000000E+00;  0.0000000E+00;  4.0000000E+04;  0.0000000E+00;  4.0000000E+04; -5.3918179E-06;  0.0000000E+00;  1.7150724E-05;  1.3721474E+02;
  9.9999998E-03;  9.9999998E-03;  4.4000000E-01;1878;  0.0000000E+00;  0.0000000E+00;  0.0000000E+00;  1.0000000E+03;  1.0000000E-01;  0.0000000E+00;0;  0.0000000E+00;  0.0000000E+00;  0.0000000E+00;0;  2.1311610E-06;  4.0000000E+04;  0.0000000E+00;  0.0000000E+00;  4.0000000E+04;  0.0000000E+00;  4.0000000E+04; -2.2337783E-06;  0.0000000E+00;  4.3649393E-06;  5.0627171E+01;
  9.9999998E-03;  9.9999998E-03;  4.4999999E-01;1879;  0.0000000E+00;  0.0000000E+00;  0.0000000E+00;  1.0000000E+03;  1.0000000E-01;  0.0000000E+00;0;  0.0000000E+00;  0.0000000E+00;  0.0000000E+00;0;  1.8911720E-07;  4.0000000E+04;  0.0000000E+00;  0.0000000E+00;  4.0000000E+04;  0.0000000E+00;  4.0000000E+04; -5.1983437E-07;  0.0000000E+00;  7.0895157E-07;  1.2397756E+01;
  2.0000000E-02;  9.9999998E-03;  4.1000000E-01;1905;  0.0000000E+00;  0.0000000E+00;  0.0000000E+00;  1.0002181E+03;  1.0000000E-01;  1.8063687E+02;0;  0.0000000E+00;  0.0000000E+00;  0.0000000E+00;0;  9.5204792E-05;  4.0000000E+04;  0.0000000E+00;  0.0000000E+00;  4.0000000E+04;  0.0000000E+00;  4.0000000E+04; -5.5368287E-06;  0.0000000E+00;  1.0074162E-04;  5.0080188E+02;
  2.0000000E-02;  9.9999998E-03;  4.1999999E-01;1906;  0.0000000E+00;  0.0000000E+00;  0.0000000E+00;  1.0001116E+03;  1.0000000E-01;  9.2441833E+01;0;  0.0000000E+00;  0.0000000E+00;  0.0000000E+00;0;  3.4793688E-05;  4.0000000E+04;  0.0000000E+00;  0.0000000E+00;  4.0000000E+04;  0.0000000E+00;  4.0000000E+04; -8.9727682E-06;  0.0000000E+00;  4.3766457E-05;  2.7979782E+02;
  2.0000000E-02;  9.9999998E-03;  4.3000001E-01;1907;  0.0000000E+00;  0.0000000E+00;  0.0000000E+00;  1.0000461E+03;  1.0000000E-01;  3.8221142E+01;0;  0.0000000E+00;  0.0000000E+00;  0.0000000E+00;0;  9.0915191E-06;  4.0000000E+04;  0.0000000E+00;  0.0000000E+00;  4.0000000E+04;  0.0000000E+00;  4.0000000E+04; -5.8918340E-06;  0.0000000E+00;  1.4983353E-05;  1.3233624E+02;
  2.0000000E-02;  9.9999998E-03;  4.4000000E-01;1908;  0.0000000E+00;  0.0000000E+00;  0.0000000E+00;  1.0000000E+03;  1.0000000E-01;  0.0000000E+00;0;  0.0000000E+00;  0.0000000E+00;  0.0000000E+00;0;  1.3885731E-06;  4.0000000E+04;  0.0000000E+00;  0.0000000E+00;  4.0000000E+04;  0.0000000E+00;  4.0000000E+04; -2.4152253E-06;  0.0000000E+00;  3.8037983E-06;  4.9579922E+01;
  2.0000000E-02;  9.9999998E-03;  4.4999999E-01;1909;  0.0000000E+00;  0.0000000E+00;  0.0000000E+00;  1.0000000E+03;  1.0000000E-01;  0.0000000E+00;0;  0.0000000E+00;  0.0000000E+00;  0.0000000E+00;0;  1.5680143E-07;  4.0000000E+04;  0.0000000E+00;  0.0000000E+00;  4.0000000E+04;  0.0000000E+00;  4.0000000E+04; -5.5973885E-07;  0.0000000E+00;  7.1654028E-07;  1.2693577E+01;
  2.9999999E-02;  9.9999998E-03;  4.1000000E-01;1935;  0.0000000E+00;  0.0000000E+00;  0.0000000E+00;  1.0002547E+03;  1.0000000E-01;  2.1105576E+02;0;  0.0000000E+00;  0.0000000E+00;  0.0000000E+00;0;  9.4516996E-05;  4.0000000E+04;  0.0000000E+00;  0.0000000E+00;  4.0000000E+04;  0.0000000E+00;  4.0000000E+04;  3.8761914E-06;  0.0000000E+00;  9.0640802E-05;  4.6836703E+02;
  2.9999999E-02;  9.9999998E-03;  4.1999999E-01;1936;  0.0000000E+00;  0.0000000E+00;  0.0000000E+00;  1.0001301E+03;  1.0000000E-01;  1.0775004E+02;0;  0.0000000E+00;  0.0000000E+00;  0.0000000E+00;0;  3.0136329E-05;  4.0000000E+04;  0.0000000E+00;  0.0000000E+00;  4.0000000E+04;  0.0000000E+00;  4.0000000E+04; -5.2394603E-06;  0.0000000E+00;  3.5375790E-05;  2.5248042E+02;
  2.9999999E-02;  9.9999998E-03;  4.3000001E-01;1937;  0.0000000E+00;  0.0000000E+00;  0.0000000E+00;  1.0000506E+03;  1.0000000E-01;  4.1875359E+01;0;  0.0000000E+00;  0.0000000E+00;  0.0000000E+00;0;  5.2252858E-06;  4.0000000E+04;  0.0000000E+00;  0.0000000E+00;  4.0000000E+04;  0.0000000E+00;  4.0000000E+04; -4.7621720E-06;  0.0000000E+00;  9.9874578E-06;  1.1497745E+02;
  2.9999999E-02;  9.9999998E-03;  4.4000000E-01;1938;  0.0000000E+00;  0.0000000E+00;  0.0000000E+00;  1.0000000E+03;  1.0000000E-01;  0.0000000E+00;0;  0.0000000E+00;  0.0000000E+00;  0.0000000E+00;0; -1.7593106E-07;  4.0000000E+04;  0.0000000E+00;  0.0000000E+00;  4.0000000E+04;  0.0000000E+00;  4.0000000E+04; -2.1359199E-06;  0.0000000E+00;  1.9599888E-06;  4.2134991E+01;
  2.9999999E-02;  9.9999998E-03;  4.4999999E-01;1939;  0.0000000E+00;  0.0000000E+00;  0.0000000E+00;  1.0000000E+03;  1.0000000E-01;  0.0000000E+00;0;  0.0000000E+00;  0.0000000E+00;  0.0000000E+00;0; -1.0039057E-07;  4.0000000E+04;  0.0000000E+00;  0.0000000E+00;  4.0000000E+04;  0.0000000E+00;  4.0000000E+04; -5.0323695E-07;  0.0000000E+00;  4.0284638E-07;  1.0954184E+01;
  3.9999999E-02;  9.9999998E-03;  4.1000000E-01;1965;  0.0000000E+00;  0.0000000E+00;  0.0000000E+00;  1.0002783E+03;  1.0000000E-01;  2.3061076E+02;0;  0.0000000E+00;  0.0000000E+00;  0.0000000E+00;0;  1.0351587E-04;  4.0000000E+04;  0.0000000E+00;  0.0000000E+00;  4.0000000E+04;  0.0000000E+00;  4.0000000E+04;  2.4611936E-05;  0.0000000E+00;  7.8903933E-05;  4.3337463E+02;
  3.9999999E-02;  9.9999998E-03;  4.1999999E-01;1966;  0.0000000E+00;  0.0000000E+00;  0.0000000E+00;  1.0001376E+03;  1.0000000E-01;  1.1407085E+02;0;  0.0000000E+00;  0.0000000E+00;  0.0000000E+00;0;  2.9715537E-05;  4.0000000E+04;  0.0000000E+00;  0.0000000E+00;  4.0000000E+04;  0.0000000E+00;  4.0000000E+04;  4.4127987E-06;  0.0000000E+00;  2.5302737E-05;  2.1816318E+02;
  3.9999999E-02;  9.9999998E-03;  4.3000001E-01;1967;  0.0000000E+00;  0.0000000E+00;  0.0000000E+00;  1.0000569E+03;  1.0000000E-01;  4.7109779E+01;0;  0.0000000E+00;  0.0000000E+00;  0.0000000E+00;0;  2.1882258E-06;  4.0000000E+04;  0.0000000E+00;  0.0000000E+00;  4.0000000E+04;  0.0000000E+00;  4.0000000E+04; -1.1925868E-06;  0.0000000E+00;  3.3808126E-06;  8.9871765E+01;
  3.9999999E-02;  9.9999998E-03;  4.4000000E-01;1968;  0.0000000E+00;  0.0000000E+00;  0.0000000E+00;  1.0000000E+03;  1.0000000E-01;  0.0000000E+00;0;  0.0000000E+00;  0.0000000E+00;  0.0000000E+00;0; -2.1432729E-06;  4.0000000E+04;  0.0000000E+00;  0.0000000E+00;  4.0000000E+04;  0.0000000E+00;  4.0000000E+04; -1.1789906E-06;  0.0000000E+00; -9.6428232E-07;  2.9425829E+01;
  3.9999999E-02;  9.9999998E-03;  4.4999999E-01;1969;  0.0000000E+00;  0.0000000E+00;  0.0000000E+00;  1.0000000E+03;  1.0000000E-01;  0.0000000E+00;0;  0.0000000E+00;  0.0000000E+00;  0.0000000E+00;0; -6.1787784E-07;  4.0000000E+04;  0.0000000E+00;  0.0000000E+00;  4.0000000E+04;  0.0000000E+00;  4.0000000E+04; -3.3134839E-07;  0.0000000E+00; -2.8652946E-07;  7.1999240E+00;
  5.0000001E-02;  9.9999998E-03;  4.1000000E-01;1995;  0.0000000E+00;  0.0000000E+00;  0.0000000E+00;  1.0002839E+03;  1.0000000E-01;  2.3525261E+02;0;  0.0000000E+00;  0.0000000E+00;  0.0000000E+00;0;  1.2757978E-04;  4.0000000E+04;  0.0000000E+00;  0.0000000E+00;  4.0000000E+04;  0.0000000E+00;  4.0000000E+04;  5.7023688E-05;  0.0000000E+00;  7.0556096E-05;  4.2008286E+02;
  5.0000001E-02;  9.9999998E-03;  4.1999999E-01;1996;  0.0000000E+00;  0.0000000E+00;  0.0000000E+00;  1.0001482E+03;  1.0000000E-01;  1.2276196E+02;0;  0.0000000E+00;  0.0000000E+00;  0.0000000E+00;0;  3.7730468E-05;  4.0000000E+04;  0.0000000E+00;  0.0000000E+00;  4.0000000E+04;  0.0000000E+00;  4.0000000E+04;  2.0484249E-05;  0.0000000E+00;  1.7246217E-05;  1.9343600E+02;
  5.0000001E-02;  9.9999998E-03;  4.3000001E-01;1997;  0.0000000E+00;  0.0000000E+00;  0.0000000E+00;  1.0000646E+03;  1.0000000E-01;  5.3529350E+01;0;  0.0000000E+00;  0.0000000E+00;  0.0000000E+00;0;  2.5493150E-06;  4.0000000E+04;  0.0000000E+00;  0.0000000E+00;  4.0000000E+04;  0.0000000E+00;  4.0000000E+04;  5.2383366E-06;  0.0000000E+00; -2.6890216E-06;  6.6013527E+01;
  5.0000001E-02;  9.9999998E-03;  4.4000000E-01;1998;  0.0000000E+00;  0.0000000E+00;  0.0000000E+00;  1.0000000E+03;  1.0000000E-01;  0.0000000E+00;0;  0.0000000E+00;  0.0000000E+00;  0.0000000E+00;0; -3.5305218E-06;  4.0000000E+04;  0.0000000E+00;  0.0000000E+00;  4.0000000E+04;  0.0000000E+00;  4.0000000E+04;  6.4726981E-07;  0.0000000E+00; -4.1777917E-06;  1.4832946E+01;
  5.0000001E-02;  9.9999998E-03;  4.4999999E-01;1999;  0.0000000E+00;  0.0000000E+00;  0.0000000E+00;  1.0000000E+03;  1.0000000E-01;  0.0000000E+00;0;  0.0000000E+00;  0.0000000E+00;  0.0000000E+00;0; -1.3087637E-06;  4.0000000E+04;  0.0000000E+00;  0.0000000E+00;  4.0000000E+04;  0.0000000E+00;  4.0000000E+04; -3.6498562E-08;  0.0000000E+00; -1.2722651E-06;  2.1034083E+00;
  5.9999999E-02;  9.9999998E-03;  4.1000000E-01;2025;  0.0000000E+00;  0.0000000E+00;  0.0000000E+00;  1.0002894E+03;  1.0000000E-01;  2.3979568E+02;0;  0.0000000E+00;  0.0000000E+00;  0.0000000E+00;0;  1.6969844E-04;  4.0000000E+04;  0.0000000E+00;  0.0000000E+00;  4.0000000E+04;  0.0000000E+00;  4.0000000E+04;  9.9121971E-05;  0.0000000E+00;  7.0576469E-05;  4.5366818E+02;
  5.9999999E-02;  9.9999998E-03;  4.1999999E-01;2026;  0.0000000E+00;  0.0000000E+00;  0.0000000E+00;  1.0001510E+03;  1.0000000E-01;  1.2513226E+02;0;  0.0000000E+00;  0.0000000E+00;  0.0000000E+00;0;  5.7189714E-05;  4.0000000E+04;  0.0000000E+00;  0.0000000E+00;  4.0000000E+04;  0.0000000E+00;  4.0000000E+04;  4.2105778E-05;  0.0000000E+00;  1.5083937E-05;  1.9712561E+02;
  5.9999999E-02;  9.9999998E-03;  4.3000001E-01;2027;  0.0000000E+00;  0.0000000E+00;  0.0000000E+00;  1.0000660E+03;  1.0000000E-01;  5.4615738E+01;0;  0.0000000E+00;  0.0000000E+00;  0.0000000E+00;0;  8.6298387E-06;  4.0000000E+04;  0.0000000E+00;  0.0000000E+00;  4.0000000E+04;  0.0000000E+00;  4.0000000E+04;  1.4313274E-05;  0.0000000E+00; -5.6834351E-06;  5.5143787E+01;
  5.9999999E-02;  9.9999998E-03;  4.4000000E-01;2028;  0.0000000E+00;  0.0000000E+00;  0.0000000E+00;  1.0000000E+03;  1.0000000E-01;  0.0000000E+00;0;  0.0000000E+00;  0.0000000E+00;  0.0000000E+00;0; -3.1081665E-06;  4.0000000E+04;  0.0000000E+00;  0.0000000E+00;  4.0000000E+04;  0.0000000E+00;  4.0000000E+04;  3.3806416E-06;  0.0000000E+00; -6.4888081E-06;  3.7627704E+00;
  5.9999999E-02;  9.9999998E-03;  4.4999999E-01;2029;  0.0000000E+00;  0.0000000E+00;  0.0000000E+00;  1.0000000E+03;  1.0000000E-01;  0.0000000E+00;0;  0.0000000E+00;  0.0000000E+00;  0.0000000E+00;0; -1.8573033E-06;  4.0000000E+04;  0.0000000E+00;  0.0000000E+00;  4.0000000E+04;  0.0000000E+00;  4.0000000E+04;  4.0669593E-07;  0.0000000E+00; -2.2639992E-06;  2.9537663E+00;
  7.0000000E-02;  9.9999998E-03;  4.1000000E-01;2055;  0.0000000E+00;  0.0000000E+00;  0.0000000E+00;  1.0002913E+03;  1.0000000E-01;  2.4137589E+02;0;  0.0000000E+00;  0.0000000E+00;  0.0000000E+00;0;  2.2960268E-04;  4.0000000E+04;  0.0000000E+00;  0.0000000E+00;  4.0000000E+04;  0.0000000E+00;  4.0000000E+04;  1.4694230E-04;  0.0000000E+00;  8.2660372E-05;  5.5446045E+02;
  7.0000000E-02;  9.9999998E-03;  4.1999999E-01;2056;  0.0000000E+00;  0.0000000E+00;  0.0000000E+00;  1.0001518E+03;  1.0000000E-01;  1.2572484E+02;0;  0.0000000E+00;  0.0000000E+00;  0.0000000E+00;0;  8.9187190E-05;  4.0000000E+04;  0.0000000E+00;  0.0000000E+00;  4.0000000E+04;  0.0000000E+00;  4.0000000E+04;  6.7261797E-05;  0.0000000E+00;  2.1925394E-05;  2.4562250E+02;
  7.0000000E-02;  9.9999998E-03;  4.3000001E-01;2057;  0.0000000E+00;  0.0000000E+00;  0.0000000E+00;  1.0000672E+03;  1.0000000E-01;  5.5702129E+01;0;  0.0000000E+00;  0.0000000E+00;  0.0000000E+00;0;  2.1841990E-05;  4.0000000E+04;  0.0000000E+00;  0.0000000E+00;  4.0000000E+04;  0.0000000E+00;  4.0000000E+04;  2.5219015E-05;  0.0000000E+00; -3.3770245E-06;  6.8790161E+01;
  7.0000000E-02;  9.9999998E-03;  4.4000000E-01;2058;  0.0000000E+00;  0.0000000E+00;  0.0000000E+00;  1.0000000E+03;  1.0000000E-01;  0.0000000E+00;0;  0.0000000E+00;  0.0000000E+00;  0.0000000E+00;0;  1.9101162E-07;  4.0000000E+04;  0.0000000E+00;  0.0000000E+00;  4.0000000E+04;  0.0000000E+00;  4.0000000E+04;  6.8448285E-06;  0.0000000E+00; -6.6538169E-06;  2.7519422E+00;
  7.0000000E-02;  9.9999998E-03;  4.4999999E-01;2059;  0.0000000E+00;  0.0000000E+00;  0.0000000E+00;  1.0000000E+03;  1.0000000E-01;  0.0000000E+00;0;  0.0000000E+00;  0.0000000E+00;  0.0000000E+00;0; -1.8112977E-06;  4.0000000E+04;  0.0000000E+00;  0.0000000E+00;  4.0000000E+04;  0.0000000E+00;  4.0000000E+04;  1.0175949E-06;  0.0000000E+00; -2.8288925E-06;  6.0166168E+00;
  7.9999998E-02;  9.9999998E-03;  4.1000000E-01;2085;  0.0000000E+00;  0.0000000E+00;  0.0000000E+00;  1.0002736E+03;  1.0000000E-01;  2.2666026E+02;0;  0.0000000E+00;  0.0000000E+00;  0.0000000E+00;0;  3.0351858E-04;  4.0000000E+04;  0.0000000E+00;  0.0000000E+00;  4.0000000E+04;  0.0000000E+00;  4.0000000E+04;  1.9538007E-04;  0.0000000E+00;  1.0813851E-04;  7.3265137E+02;
  7.9999998E-02;  9.9999998E-03;  4.1999999E-01;2086;  0.0000000E+00;  0.0000000E+00;  0.0000000E+00;  1.0001441E+03;  1.0000000E-01;  1.1940403E+02;0;  0.0000000E+00;  0.0000000E+00;  0.0000000E+00;0;  1.3240552E-04;  4.0000000E+04;  0.0000000E+00;  0.0000000E+00;  4.0000000E+04;  0.0000000E+00;  4.0000000E+04;  9.3184106E-05;  0.0000000E+00;  3.9221410E-05;  3.4860025E+02;
  7.9999998E-02;  9.9999998E-03;  4.3000001E-01;2087;  0.0000000E+00;  0.0000000E+00;  0.0000000E+00;  1.0000687E+03;  1.0000000E-01;  5.6887280E+01;0;  0.0000000E+00;  0.0000000E+00;  0.0000000E+00;0;  4.2310006E-05;  4.0000000E+04;  0.0000000E+00;  0.0000000E+00;  4.0000000E+04;  0.0000000E+00;  4.0000000E+04;  3.6771180E-05;  0.0000000E+00;  5.5388250E-06;  1.1483714E+02;
  7.9999998E-02;  9.9999998E-03;  4.4000000E-01;2088;  0.0000000E+00;  0.0000000E+00;  0.0000000E+00;  1.0000000E+03;  1.0000000E-01;  0.0000000E+00;0;  0.0000000E+00;  0.0000000E+00;  0.0000000E+00;0;  6.9214957E-06;  4.0000000E+04;  0.0000000E+00;  0.0000000E+00;  4.0000000E+04;  0.0000000E+00;  4.0000000E+04;  1.0682067E-05;  0.0000000E+00; -3.7605716E-06;  1.5279312E+01;
  7.9999998E-02;  9.9999998E-03;  4.4999999E-01;2089;  0.0000000E+00;  0.0000000E+00;  0.0000000E+00;  1.0000000E+03;  1.0000000E-01;  0.0000000E+00;0;  0.0000000E+00;  0.0000000E+00;  0.0000000E+00;0; -7.8354674E-07;  4.0000000E+04;  0.0000000E+00;  0.0000000E+00;  4.0000000E+04;  0.0000000E+00;  4.0000000E+04;  1.7691143E-06;  0.0000000E+00; -2.5526610E-06;  5.2033677E+00;
  9.0000004E-02;  9.9999998E-03;  4.1000000E-01;2115;  0.0000000E+00;  0.0000000E+00;  0.0000000E+00;  1.0002422E+03;  1.0000000E-01;  2.0068568E+02;0;  0.0000000E+00;  0.0000000E+00;  0.0000000E+00;0;  3.8483983E-04;  4.0000000E+04;  0.0000000E+00;  0.0000000E+00;  4.0000000E+04;  0.0000000E+00;  4.0000000E+04;  2.3938112E-04;  0.0000000E+00;  1.4545872E-04;  9.8474286E+02;
  9.0000004E-02;  9.9999998E-03;  4.1999999E-01;2116;  0.0000000E+00;  0.0000000E+00;  0.0000000E+00;  1.0001380E+03;  1.0000000E-01;  1.1436713E+02;0;  0.0000000E+00;  0.0000000E+00;  0.0000000E+00;0;  1.8310636E-04;  4.0000000E+04;  0.0000000E+00;  0.0000000E+00;  4.0000000E+04;  0.0000000E+00;  4.0000000E+04;  1.1694405E-04;  0.0000000E+00;  6.6162305E-05;  5.0593695E+02;
  9.0000004E-02;  9.9999998E-03;  4.3000001E-01;2117;  0.0000000E+00;  0.0000000E+00;  0.0000000E+00;  1.0000709E+03;  1.0000000E-01;  5.8763771E+01;0;  0.0000000E+00;  0.0000000E+00;  0.0000000E+00;0;  6.8617366E-05;  4.0000000E+04;  0.0000000E+00;  0.0000000E+00;  4.0000000E+04;  0.0000000E+00;  4.0000000E+04;  4.7638980E-05;  0.0000000E+00;  2.0978385E-05;  1.9513843E+02;
  9.0000004E-02;  9.9999998E-03;  4.4000000E-01;2118;  0.0000000E+00;  0.0000000E+00;  0.0000000E+00;  1.0000000E+03;  1.0000000E-01;  0.0000000E+00;0;  0.0000000E+00;  0.0000000E+00;  0.0000000E+00;0;  1.6942702E-05;  4.0000000E+04;  0.0000000E+00;  0.0000000E+00;  4.0000000E+04;  0.0000000E+00;  4.0000000E+04;  1.4466546E-05;  0.0000000E+00;  2.4761562E-06;  4.5012299E+01;
  9.0000004E-02;  9.9999998E-03;  4.4999999E-01;2119;  0.0000000E+00;  0.0000000E+00;  0.0000000E+00;  1.0000000E+03;  1.0000000E-01;  0.0000000E+00;0;  0.0000000E+00;  0.0000000E+00;  0.0000000E+00;0;  1.3885112E-06;  4.0000000E+04;  0.0000000E+00;  0.0000000E+00;  4.0000000E+04;  0.0000000E+00;  4.0000000E+04;  2.5756801E-06;  0.0000000E+00; -1.1871689E-06;  2.1800125E+00;
  1.0000000E-01;  9.9999998E-03;  4.1000000E-01;2145;  0.0000000E+00;  0.0000000E+00;  0.0000000E+00;  1.0002087E+03;  1.0000000E-01;  1.7293338E+02;0;  0.0000000E+00;  0.0000000E+00;  0.0000000E+00;0;  4.6542316E-04;  4.0000000E+04;  0.0000000E+00;  0.0000000E+00;  4.0000000E+04;  0.0000000E+00;  4.0000000E+04;  2.7501988E-04;  0.0000000E+00;  1.9040330E-04;  1.2951432E+03;
  1.0000000E-01;  9.9999998E-03;  4.1999999E-01;2146;  0.0000000E+00;  0.0000000E+00;  0.0000000E+00;  1.0001205E+03;  1.0000000E-01;  9.9849030E+01;0;  0.0000000E+00;  0.0000000E+00;  0.0000000E+00;0;  2.3582917E-04;  4.0000000E+04;  0.0000000E+00;  0.0000000E+00;  4.0000000E+04;  0.0000000E+00;  4.0000000E+04;  1.3607048E-04;  0.0000000E+00;  9.9758690E-05;  7.0836432E+02;
  1.0000000E-01;  9.9999998E-03;  4.3000001E-01;2147;  0.0000000E+00;  0.0000000E+00;  0.0000000E+00;  1.0000734E+03;  1.0000000E-01;  6.0837784E+01;0;  0.0000000E+00;  0.0000000E+00;  0.0000000E+00;0;  9.7886877E-05;  4.0000000E+04;  0.0000000E+00;  0.0000000E+00;  4.0000000E+04;  0.0000000E+00;  4.0000000E+04;  5.6538993E-05;  0.0000000E+00;  4.1347888E-05;  3.0565701E+02;
  1.0000000E-01;  9.9999998E-03;  4.4000000E-01;2148;  0.0000000E+00;  0.0000000E+00;  0.0000000E+00;  1.0000000E+03;  1.0000000E-01;  0.0000000E+00;0;  0.0000000E+00;  0.0000000E+00;  0.0000000E+00;0;  2.9279987E-05;  4.0000000E+04;  0.0000000E+00;  0.0000000E+00;  4.0000000E+04;  0.0000000E+00;  4.0000000E+04;  1.7736096E-05;  0.0000000E+00;  1.1543891E-05;  9.0756180E+01;
  1.0000000E-01;  9.9999998E-03;  4.4999999E-01;2149;  0.0000000E+00;  0.0000000E+00;  0.0000000E+00;  1.0000000E+03;  1.0000000E-01;  0.0000000E+00;0;  0.0000000E+00;  0.0000000E+00;  0.0000000E+00;0;  4.5661850E-06;  4.0000000E+04;  0.0000000E+00;  0.0000000E+00;  4.0000000E+04;  0.0000000E+00;  4.0000000E+04;  3.3193617E-06;  0.0000000E+00;  1.2468232E-06;  1.3246787E+01;
  1.1000000E-01;  9.9999998E-03;  4.1000000E-01;2175;  0.0000000E+00;  0.0000000E+00;  0.0000000E+00;  1.0001992E+03;  1.0000000E-01;  1.6503236E+02;0;  0.0000000E+00;  0.0000000E+00;  0.0000000E+00;0;  5.3696363E-04;  4.0000000E+04;  0.0000000E+00;  0.0000000E+00;  4.0000000E+04;  0.0000000E+00;  4.0000000E+04;  3.0008669E-04;  0.0000000E+00;  2.3687693E-04;  1.6467972E+03;
  1.1000000E-01;  9.9999998E-03;  4.1999999E-01;2176;  0.0000000E+00;  0.0000000E+00;  0.0000000E+00;  1.0001102E+03;  1.0000000E-01;  9.1256676E+01;0;  0.0000000E+00;  0.0000000E+00;  0.0000000E+00;0;  2.8452929E-04;  4.0000000E+04;  0.0000000E+00;  0.0000000E+00;  4.0000000E+04;  0.0000000E+00;  4.0000000E+04;  1.4906310E-04;  0.0000000E+00;  1.3546619E-04;  9.4692438E+02;
  1.1000000E-01;  9.9999998E-03;  4.3000001E-01;2177;  0.0000000E+00;  0.0000000E+00;  0.0000000E+00;  1.0000651E+03;  1.0000000E-01;  5.3924400E+01;0;  0.0000000E+00;  0.0000000E+00;  0.0000000E+00;0;  1.2636467E-04;  4.0000000E+04;  0.0000000E+00;  0.0000000E+00;  4.0000000E+04;  0.0000000E+00;  4.0000000E+04;  6.2508792E-05;  0.0000000E+00;  6.3855878E-05;  4.4249759E+02;
  1.1000000E-01;  9.9999998E-03;  4.4000000E-01;2178;  0.0000000E+00;  0.0000000E+00;  0.0000000E+00;  1.0000000E+03;  1.0000000E-01;  0.0000000E+00;0;  0.0000000E+00;  0.0000000E+00;  0.0000000E+00;0;  4.2214677E-05;  4.0000000E+04;  0.0000000E+00;  0.0000000E+00;  4.0000000E+04;  0.0000000E+00;  4.0000000E+04;  2.0014746E-05;  0.0000000E+00;  2.2199929E-05;  1.5144398E+02;
  1.1000000E-01;  9.9999998E-03;  4.4999999E-01;2179;  0.0000000E+00;  0.0000000E+00;  0.0000000E+00;  1.0000000E+03;  1.0000000E-01;  0.0000000E+00;0;  0.0000000E+00;  0.0000000E+00;  0.0000000E+00;0;  8.3329769E-06;  4.0000000E+04;  0.0000000E+00;  0.0000000E+00;  4.0000000E+04;  0.0000000E+00;  4.0000000E+04;  3.8841504E-06;  0.0000000E+00;  4.4488265E-06;  3.0606142E+01;
  1.2000000E-01;  9.9999998E-03;  4.1000000E-01;2205;  0.0000000E+00;  0.0000000E+00;  0.0000000E+00;  1.0002102E+03;  1.0000000E-01;  1.7411853E+02;0;  0.0000000E+00;  0.0000000E+00;  0.0000000E+00;0;  5.9209828E-04;  4.0000000E+04;  0.0000000E+00;  0.0000000E+00;  4.0000000E+04;  0.0000000E+00;  4.0000000E+04;  3.1403516E-04;  0.0000000E+00;  2.7806312E-04;  2.0487727E+03;
  1.2000000E-01;  9.9999998E-03;  4.1999999E-01;2206;  0.0000000E+00;  0.0000000E+00;  0.0000000E+00;  1.0001042E+03;  1.0000000E-01;  8.6318550E+01;0;  0.0000000E+00;  0.0000000E+00;  0.0000000E+00;0;  3.2366475E-04;  4.0000000E+04;  0.0000000E+00;  0.0000000E+00;  4.0000000E+04;  0.0000000E+00;  4.0000000E+04;  1.5550530E-04;  0.0000000E+00;  1.6815944E-04;  1.2387217E+03;
  1.2000000E-01;  9.9999998E-03;  4.3000001E-01;2207;  0.0000000E+00;  0.0000000E+00;  0.0000000E+00;  1.0000621E+03;  1.0000000E-01;  5.1455334E+01;0;  0.0000000E+00;  0.0000000E+00;  0.0000000E+00;0;  1.5024692E-04;  4.0000000E+04;  0.0000000E+00;  0.0000000E+00;  4.0000000E+04;  0.0000000E+00;  4.0000000E+04;  6.5112014E-05;  0.0000000E+00;  8.5134918E-05;  6.1986163E+02;
  1.2000000E-01;  9.9999998E-03;  4.4000000E-01;2208;  0.0000000E+00;  0.0000000E+00;  0.0000000E+00;  1.0000000E+03;  1.0000000E-01;  0.0000000E+00;0;  0.0000000E+00;  0.0000000E+00;  0.0000000E+00;0;  5.3720098E-05;  4.0000000E+04;  0.0000000E+00;  0.0000000E+00;  4.0000000E+04;  0.0000000E+00;  4.0000000E+04;  2.0945210E-05;  0.0000000E+00;  3.2774889E-05;  2.3453899E+02;
  1.2000000E-01;  9.9999998E-03;  4.4999999E-01;2209;  0.0000000E+00;  0.0000000E+00;  0.0000000E+00;  1.0000000E+03;  1.0000000E-01;  0.0000000E+00;0;  0.0000000E+00;  0.0000000E+00;  0.0000000E+00;0;  1.2031998E-05;  4.0000000E+04;  0.0000000E+00;  0.0000000E+00;  4.0000000E+04;  0.0000000E+00;  4.0000000E+04;  4.1426192E-06;  0.0000000E+00;  7.8893790E-06;  5.6000027E+01;
  1.3000000E-01;  9.9999998E-03;  4.1000000E-01;2235;  0.0000000E+00;  0.0000000E+00;  0.0000000E+00;  1.0002382E+03;  1.0000000E-01;  1.9732776E+02;0;  0.0000000E+00;  0.0000000E+00;  0.0000000E+00;0;  6.2521850E-04;  4.0000000E+04;  0.0000000E+00;  0.0000000E+00;  4.0000000E+04;  0.0000000E+00;  4.0000000E+04;  3.1759258E-04;  0.0000000E+00;  3.0762592E-04;  2.5896165E+03;
  1.3000000E-01;  9.9999998E-03;  4.1999999E-01;2236;  0.0000000E+00;  0.0000000E+00;  0.0000000E+00;  1.0000970E+03;  1.0000000E-01;  8.0392792E+01;0;  0.0000000E+00;  0.0000000E+00;  0.0000000E+00;0;  3.4894430E-04;  4.0000000E+04;  0.0000000E+00;  0.0000000E+00;  4.0000000E+04;  0.0000000E+00;  4.0000000E+04;  1.5589844E-04;  0.0000000E+00;  1.9304587E-04;  1.6728204E+03;
  1.3000000E-01;  9.9999998E-03;  4.3000001E-01;2237;  0.0000000E+00;  0.0000000E+00;  0.0000000E+00;  1.0000629E+03;  1.0000000E-01;  5.2146675E+01;0;  0.0000000E+00;  0.0000000E+00;  0.0000000E+00;0;  1.6652804E-04;  4.0000000E+04;  0.0000000E+00;  0.0000000E+00;  4.0000000E+04;  0.0000000E+00;  4.0000000E+04;  6.4495565E-05;  0.0000000E+00;  1.0203247E-04;  8.9983069E+02;
  1.3000000E-01;  9.9999998E-03;  4.4000000E-01;2238;  0.0000000E+00;  0.0000000E+00;  0.0000000E+00;  1.0000000E+03;  1.0000000E-01;  0.0000000E+00;0;  0.0000000E+00;  0.0000000E+00;  0.0000000E+00;0;  6.2011008E-05;  4.0000000E+04;  0.0000000E+00;  0.0000000E+00;  4.0000000E+04;  0.0000000E+00;  4.0000000E+04;  2.0443113E-05;  0.0000000E+00;  4.1567895E-05;  3.6976068E+02;
  1.3000000E-01;  9.9999998E-03;  4.4999999E-01;2239;  0.0000000E+00;  0.0000000E+00;  0.0000000E+00;  1.0000000E+03;  1.0000000E-01;  0.0000000E+00;0;  0.0000000E+00;  0.0000000E+00;  0.0000000E+00;0;  1.4909395E-05;  4.0000000E+04;  0.0000000E+00;  0.0000000E+00;  4.0000000E+04;  0.0000000E+00;  4.0000000E+04;  3.9935458E-06;  0.0000000E+00;  1.0915849E-05;  9.7654922E+01;
  1.4000000E-01;  9.9999998E-03;  4.1000000E-01;2265;  0.0000000E+00;  0.0000000E+00;  0.0000000E+00;  1.0002804E+03;  1.0000000E-01;  2.3228973E+02;0;  0.0000000E+00;  0.0000000E+00;  0.0000000E+00;0;  6.3294126E-04;  4.0000000E+04;  0.0000000E+00;  0.0000000E+00;  4.0000000E+04;  0.0000000E+00;  4.0000000E+04;  3.1234018E-04;  0.0000000E+00;  3.2060110E-04;  3.4944302E+03;
  1.4000000E-01;  9.9999998E-03;  4.1999999E-01;2266;  0.0000000E+00;  0.0000000E+00;  0.0000000E+00;  1.0001030E+03;  1.0000000E-01;  8.5330917E+01;0;  0.0000000E+00;  0.0000000E+00;  0.0000000E+00;0;  3.5787636E-04;  4.0000000E+04;  0.0000000E+00;  0.0000000E+00;  4.0000000E+04;  0.0000000E+00;  4.0000000E+04;  1.5139193E-04;  0.0000000E+00;  2.0648443E-04;  2.4440630E+03;
  1.4000000E-01;  9.9999998E-03;  4.3000001E-01;2267;  0.0000000E+00;  0.0000000E+00;  0.0000000E+00;  1.0000658E+03;  1.0000000E-01;  5.4516975E+01;0;  0.0000000E+00;  0.0000000E+00;  0.0000000E+00;0;  1.7351159E-04;  4.0000000E+04;  0.0000000E+00;  0.0000000E+00;  4.0000000E+04;  0.0000000E+00;  4.0000000E+04;  6.1337741E-05;  0.0000000E+00;  1.1217385E-04;  1.4077271E+03;
  1.4000000E-01;  9.9999998E-03;  4.4000000E-01;2268;  0.0000000E+00;  0.0000000E+00;  0.0000000E+00;  1.0000000E+03;  1.0000000E-01;  0.0000000E+00;0;  0.0000000E+00;  0.0000000E+00;  0.0000000E+00;0;  6.5980974E-05;  4.0000000E+04;  0.0000000E+00;  0.0000000E+00;  4.0000000E+04;  0.0000000E+00;  4.0000000E+04;  1.8766948E-05;  0.0000000E+00;  4.7214024E-05;  6.1471252E+02;
  1.4000000E-01;  9.9999998E-03;  4.4999999E-01;2269;  0.0000000E+00;  0.0000000E+00;  0.0000000E+00;  1.0000000E+03;  1.0000000E-01;  0.0000000E+00;0;  0.0000000E+00;  0.0000000E+00;  0.0000000E+00;0;  1.6410993E-05;  4.0000000E+04;  0.0000000E+00;  0.0000000E+00;  4.0000000E+04;  0.0000000E+00;  4.0000000E+04;  3.4601742E-06;  0.0000000E+00;  1.2950819E-05;  1.7139229E+02;
  1.5000001E-01;  9.9999998E-03;  4.1000000E-01;2295;  0.0000000E+00;  0.0000000E+00;  0.0000000E+00;  1.0003193E+03;  1.0000000E-01;  2.6448636E+02;0;  0.0000000E+00;  0.0000000E+00;  0.0000000E+00;0;  6.1436626E-04;  4.0000000E+04;  0.0000000E+00;  0.0000000E+00;  4.0000000E+04;  0.0000000E+00;  4.0000000E+04;  3.0033157E-04;  0.0000000E+00;  3.1403473E-04;  5.0979272E+03;
  1.5000001E-01;  9.9999998E-03;  4.1999999E-01;2296;  0.0000000E+00;  0.0000000E+00;  0.0000000E+00;  1.0001148E+03;  1.0000000E-01;  9.5108421E+01;0;  0.0000000E+00;  0.0000000E+00;  0.0000000E+00;0;  3.4993672E-04;  4.0000000E+04;  0.0000000E+00;  0.0000000E+00;  4.0000000E+04;  0.0000000E+00;  4.0000000E+04;  1.4354590E-04;  0.0000000E+00;  2.0639082E-04;  3.8126565E+03;
  1.5000001E-01;  9.9999998E-03;  4.3000001E-01;2297;  0.0000000E+00;  0.0000000E+00;  0.0000000E+00;  1.0000737E+03;  1.0000000E-01;  6.1035313E+01;0;  0.0000000E+00;  0.0000000E+00;  0.0000000E+00;0;  1.7091879E-04;  4.0000000E+04;  0.0000000E+00;  0.0000000E+00;  4.0000000E+04;  0.0000000E+00;  4.0000000E+04;  5.6696394E-05;  0.0000000E+00;  1.1422241E-04;  2.3057507E+03;
  1.5000001E-01;  9.9999998E-03;  4.4000000E-01;2298;  0.0000000E+00;  0.0000000E+00;  0.0000000E+00;  1.0000000E+03;  1.0000000E-01;  0.0000000E+00;0;  0.0000000E+00;  0.0000000E+00;  0.0000000E+00;0;  6.5405038E-05;  4.0000000E+04;  0.0000000E+00;  0.0000000E+00;  4.0000000E+04;  0.0000000E+00;  4.0000000E+04;  1.6491373E-05;  0.0000000E+00;  4.8913669E-05;  1.0456234E+03;
  1.5000001E-01;  9.9999998E-03;  4.4999999E-01;2299;  0.0000000E+00;  0.0000000E+00;  0.0000000E+00;  1.0000000E+03;  1.0000000E-01;  0.0000000E+00;0;  0.0000000E+00;  0.0000000E+00;  0.0000000E+00;0;  1.6368256E-05;  4.0000000E+04;  0.0000000E+00;  0.0000000E+00;  4.0000000E+04;  0.0000000E+00;  4.0000000E+04;  2.7335309E-06;  0.0000000E+00;  1.3634724E-05;  2.9985834E+02;
  1.6000000E-01;  9.9999998E-03;  4.1000000E-01;2325;  0.0000000E+00;  0.0000000E+00;  0.0000000E+00;  1.0003825E+03;  1.0000000E-01;  3.1692932E+02;0;  0.0000000E+00;  0.0000000E+00;  0.0000000E+00;0;  5.7084777E-04;  4.0000000E+04;  0.0000000E+00;  0.0000000E+00;  4.0000000E+04;  0.0000000E+00;  4.0000000E+04;  2.8374192E-04;  0.0000000E+00;  2.8710585E-04;  7.7148213E+03;
  1.6000000E-01;  9.9999998E-03;  4.1999999E-01;2326;  0.0000000E+00;  0.0000000E+00;  0.0000000E+00;  1.0001520E+03;  1.0000000E-01;  1.2592236E+02;0;  0.0000000E+00;  0.0000000E+00;  0.0000000E+00;0;  3.2624375E-04;  4.0000000E+04;  0.0000000E+00;  0.0000000E+00;  4.0000000E+04;  0.0000000E+00;  4.0000000E+04;  1.3405645E-04;  0.0000000E+00;  1.9218730E-04;  6.0272573E+03;
  1.6000000E-01;  9.9999998E-03;  4.3000001E-01;2327;  0.0000000E+00;  0.0000000E+00;  0.0000000E+00;  1.0000867E+03;  1.0000000E-01;  7.1800438E+01;0;  0.0000000E+00;  0.0000000E+00;  0.0000000E+00;0;  1.5959234E-04;  4.0000000E+04;  0.0000000E+00;  0.0000000E+00;  4.0000000E+04;  0.0000000E+00;  4.0000000E+04;  5.1815015E-05;  0.0000000E+00;  1.0777732E-04;  3.7625881E+03;
  1.6000000E-01;  9.9999998E-03;  4.4000000E-01;2328;  0.0000000E+00;  0.0000000E+00;  0.0000000E+00;  1.0000000E+03;  1.0000000E-01;  0.0000000E+00;0;  0.0000000E+00;  0.0000000E+00;  0.0000000E+00;0;  6.0789767E-05;  4.0000000E+04;  0.0000000E+00;  0.0000000E+00;  4.0000000E+04;  0.0000000E+00;  4.0000000E+04;  1.4375400E-05;  0.0000000E+00;  4.6414367E-05;  1.7501492E+03;
  1.6000000E-01;  9.9999998E-03;  4.4999999E-01;2329;  0.0000000E+00;  0.0000000E+00;  0.0000000E+00;  1.0000000E+03;  1.0000000E-01;  0.0000000E+00;0;  0.0000000E+00;  0.0000000E+00;  0.0000000E+00;0;  1.4958177E-05;  4.0000000E+04;  0.0000000E+00;  0.0000000E+00;  4.0000000E+04;  0.0000000E+00;  4.0000000E+04;  2.1104181E-06;  0.0000000E+00;  1.2847760E-05;  5.1216510E+02;
  1.7000000E-01;  9.9999998E-03;  4.1000000E-01;2355;  0.0000000E+00;  0.0000000E+00;  0.0000000E+00;  1.0004402E+03;  1.0000000E-01;  3.6473044E+02;0;  0.0000000E+00;  0.0000000E+00;  0.0000000E+00;0;  5.0535030E-04;  4.0000000E+04;  0.0000000E+00;  0.0000000E+00;  4.0000000E+04;  0.0000000E+00;  4.0000000E+04;  2.6452841E-04;  0.0000000E+00;  2.4082190E-04;  1.1527827E+04;
  1.7000000E-01;  9.9999998E-03;  4.1999999E-01;2356;  0.0000000E+00;  0.0000000E+00;  0.0000000E+00;  1.0002187E+03;  1.0000000E-01;  1.8113068E+02;0;  0.0000000E+00;  0.0000000E+00;  0.0000000E+00;0;  2.8877682E-04;  4.0000000E+04;  0.0000000E+00;  0.0000000E+00;  4.0000000E+04;  0.0000000E+00;  4.0000000E+04;  1.2441850E-04;  0.0000000E+00;  1.6435834E-04;  9.2718594E+03;
  1.7000000E-01;  9.9999998E-03;  4.3000001E-01;2357;  0.0000000E+00;  0.0000000E+00;  0.0000000E+00;  1.0000942E+03;  1.0000000E-01;  7.8022484E+01;0;  0.0000000E+00;  0.0000000E+00;  0.0000000E+00;0;  1.4083543E-04;  4.0000000E+04;  0.0000000E+00;  0.0000000E+00;  4.0000000E+04;  0.0000000E+00;  4.0000000E+04;  4.7818463E-05;  0.0000000E+00;  9.3016963E-05;  5.9326865E+03;
  1.7000000E-01;  9.9999998E-03;  4.4000000E-01;2358;  0.0000000E+00;  0.0000000E+00;  0.0000000E+00;  1.0000000E+03;  1.0000000E-01;  0.0000000E+00;0;  0.0000000E+00;  0.0000000E+00;  0.0000000E+00;0;  5.2917458E-05;  4.0000000E+04;  0.0000000E+00;  0.0000000E+00;  4.0000000E+04;  0.0000000E+00;  4.0000000E+04;  1.3132098E-05;  0.0000000E+00;  3.9785358E-05;  2.8220981E+03;
  1.7000000E-01;  9.9999998E-03;  4.4999999E-01;2359;  0.0000000E+00;  0.0000000E+00;  0.0000000E+00;  1.0000000E+03;  1.0000000E-01;  0.0000000E+00;0;  0.0000000E+00;  0.0000000E+00;  0.0000000E+00;0;  1.2516015E-05;  4.0000000E+04;  0.0000000E+00;  0.0000000E+00;  4.0000000E+04;  0.0000000E+00;  4.0000000E+04;  1.8909705E-06;  0.0000000E+00;  1.0625045E-05;  8.4324261E+02;
  1.8000001E-01;  9.9999998E-03;  4.1000000E-01;2385;  0.0000000E+00;  0.0000000E+00;  0.0000000E+00;  1.0005089E+03;  1.0000000E-01;  4.2161771E+02;0;  0.0000000E+00;  0.0000000E+00;  0.0000000E+00;0;  4.2159230E-04;  4.0000000E+04;  0.0000000E+00;  0.0000000E+00;  4.0000000E+04;  0.0000000E+00;  4.0000000E+04;  2.4409780E-04;  0.0000000E+00;  1.7749450E-04;  1.6507412E+04;
  1.8000001E-01;  9.9999998E-03;  4.1999999E-01;2386;  0.0000000E+00;  0.0000000E+00;  0.0000000E+00;  1.0002653E+03;  1.0000000E-01;  2.1984563E+02;0;  0.0000000E+00;  0.0000000E+00;  0.0000000E+00;0;  2.3953662E-04;  4.0000000E+04;  0.0000000E+00;  0.0000000E+00;  4.0000000E+04;  0.0000000E+00;  4.0000000E+04;  1.1555789E-04;  0.0000000E+00;  1.2397872E-04;  1.3596031E+04;
  1.8000001E-01;  9.9999998E-03;  4.3000001E-01;2387;  0.0000000E+00;  0.0000000E+00;  0.0000000E+00;  1.0000949E+03;  1.0000000E-01;  7.8615059E+01;0;  0.0000000E+00;  0.0000000E+00;  0.0000000E+00;0;  1.1562037E-04;  4.0000000E+04;  0.0000000E+00;  0.0000000E+00;  4.0000000E+04;  0.0000000E+00;  4.0000000E+04;  4.5299832E-05;  0.0000000E+00;  7.0320537E-05;  8.9097666E+03;
  1.8000001E-01;  9.9999998E-03;  4.4000000E-01;2388;  0.0000000E+00;  0.0000000E+00;  0.0000000E+00;  1.0000000E+03;  1.0000000E-01;  0.0000000E+00;0;  0.0000000E+00;  0.0000000E+00;  0.0000000E+00;0;  4.2290008E-05;  4.0000000E+04;  0.0000000E+00;  0.0000000E+00;  4.0000000E+04;  0.0000000E+00;  4.0000000E+04;  1.3126958E-05;  0.0000000E+00;  2.9163051E-05;  4.3403755E+03;
  1.8000001E-01;  9.9999998E-03;  4.4999999E-01;2389;  0.0000000E+00;  0.0000000E+00;  0.0000000E+00;  1.0000000E+03;  1.0000000E-01;  0.0000000E+00;0;  0.0000000E+00;  0.0000000E+00;  0.0000000E+00;0;  9.2800101E-06;  4.0000000E+04;  0.0000000E+00;  0.0000000E+00;  4.0000000E+04;  0.0000000E+00;  4.0000000E+04;  2.2378522E-06;  0.0000000E+00;  7.0421579E-06;  1.3278606E+03;
  1.9000000E-01;  9.9999998E-03;  4.1000000E-01;2415;  0.0000000E+00;  0.0000000E+00;  0.0000000E+00;  1.0005662E+03;  1.0000000E-01;  4.6912253E+02;0;  0.0000000E+00;  0.0000000E+00;  0.0000000E+00;0;  3.2349821E-04;  4.0000000E+04;  0.0000000E+00;  0.0000000E+00;  4.0000000E+04;  0.0000000E+00;  4.0000000E+04;  2.2299345E-04;  0.0000000E+00;  1.0050477E-04;  2.2371580E+04;
  1.9000000E-01;  9.9999998E-03;  4.1999999E-01;2416;  0.0000000E+00;  0.0000000E+00;  0.0000000E+00;  1.0003076E+03;  1.0000000E-01;  2.5480760E+02;0;  0.0000000E+00;  0.0000000E+00;  0.0000000E+00;0;  1.8020089E-04;  4.0000000E+04;  0.0000000E+00;  0.0000000E+00;  4.0000000E+04;  0.0000000E+00;  4.0000000E+04;  1.0753820E-04;  0.0000000E+00;  7.2662697E-05;  1.8847730E+04;
  1.9000000E-01;  9.9999998E-03;  4.3000001E-01;2417;  0.0000000E+00;  0.0000000E+00;  0.0000000E+00;  1.0001091E+03;  1.0000000E-01;  9.0367813E+01;0;  0.0000000E+00;  0.0000000E+00;  0.0000000E+00;0;  8.4268671E-05;  4.0000000E+04;  0.0000000E+00;  0.0000000E+00;  4.0000000E+04;  0.0000000E+00;  4.0000000E+04;  4.4039920E-05;  0.0000000E+00;  4.0228748E-05;  1.2665593E+04;
  1.9000000E-01;  9.9999998E-03;  4.4000000E-01;2418;  0.0000000E+00;  0.0000000E+00;  0.0000000E+00;  1.0000082E+03;  1.0000000E-01;  6.8146219E+00;0;  0.0000000E+00;  0.0000000E+00;  0.0000000E+00;0;  2.8833729E-05;  4.0000000E+04;  0.0000000E+00;  0.0000000E+00;  4.0000000E+04;  0.0000000E+00;  4.0000000E+04;  1.4126877E-05;  0.0000000E+00;  1.4706852E-05;  6.3323833E+03;
  1.9000000E-01;  9.9999998E-03;  4.4999999E-01;2419;  0.0000000E+00;  0.0000000E+00;  0.0000000E+00;  1.0000000E+03;  1.0000000E-01;  0.0000000E+00;0;  0.0000000E+00;  0.0000000E+00;  0.0000000E+00;0;  5.2346386E-06;  4.0000000E+04;  0.0000000E+00;  0.0000000E+00;  4.0000000E+04;  0.0000000E+00;  4.0000000E+04;  3.0256788E-06;  0.0000000E+00;  2.2089596E-06;  1.9870039E+03;
  2.0000000E-01;  9.9999998E-03;  4.1000000E-01;2444;  0.0000000E+00;  0.0000000E+00;  0.0000000E+00;  1.0006156E+03;  1.0000000E-01;  5.1001025E+02;0;  0.0000000E+00;  0.0000000E+00;  0.0000000E+00;0;  2.1571876E-04;  4.0000000E+04;  0.0000000E+00;  0.0000000E+00;  4.0000000E+04;  0.0000000E+00;  4.0000000E+04;  2.0102796E-04;  0.0000000E+00;  1.4690795E-05;  2.8684174E+04;
  2.0000000E-01;  9.9999998E-03;  4.1999999E-01;2445;  0.0000000E+00;  0.0000000E+00;  0.0000000E+00;  1.0003251E+03;  1.0000000E-01;  2.6932571E+02;0;  0.0000000E+00;  0.0000000E+00;  0.0000000E+00;0;  1.1274028E-04;  4.0000000E+04;  0.0000000E+00;  0.0000000E+00;  4.0000000E+04;  0.0000000E+00;  4.0000000E+04;  9.9562203E-05;  0.0000000E+00;  1.3178076E-05;  2.4713680E+04;
  2.0000000E-01;  9.9999998E-03;  4.3000001E-01;2446;  0.0000000E+00;  0.0000000E+00;  0.0000000E+00;  1.0001221E+03;  1.0000000E-01;  1.0123170E+02;0;  0.0000000E+00;  0.0000000E+00;  0.0000000E+00;0;  4.7125861E-05;  4.0000000E+04;  0.0000000E+00;  0.0000000E+00;  4.0000000E+04;  0.0000000E+00;  4.0000000E+04;  4.3099219E-05;  0.0000000E+00;  4.0266418E-06;  1.7042826E+04;
  2.0000000E-01;  9.9999998E-03;  4.4000000E-01;2447;  0.0000000E+00;  0.0000000E+00;  0.0000000E+00;  1.0000304E+03;  1.0000000E-01;  2.5184473E+01;0;  0.0000000E+00;  0.0000000E+00;  0.0000000E+00;0;  1.2294830E-05;  4.0000000E+04;  0.0000000E+00;  0.0000000E+00;  4.0000000E+04;  0.0000000E+00;  4.0000000E+04;  1.5365598E-05;  0.0000000E+00; -3.0707679E-06;  8.7532852E+03;
 -2.0000000E-01;  9.9999998E-03; -4.4000000E-01;0;  0.0000000E+00;  0.0000000E+00;  0.0000000E+00;  1.0000000E+03;  1.0000000E-01;  0.0000000E+00;0;  0.0000000E+00;  0.0000000E+00;  0.0000000E+00;0;  0.0000000E+00;  4.0000000E+04;  0.0000000E+00;  0.0000000E+00;  4.0000000E+04;  0.0000000E+00;  4.0000000E+04;  0.0000000E+00;  0.0000000E+00;  0.0000000E+00;  0.0000000E+00;
 -2.0000000E-01;  9.9999998E-03; -4.3000001E-01;1;  0.0000000E+00;  0.0000000E+00;  0.0000000E+00;  1.0000000E+03;  1.0000000E-01;  0.0000000E+00;0;  0.0000000E+00;  0.0000000E+00;  0.0000000E+00;0;  0.0000000E+00;  4.0000000E+04;  0.0000000E+00;  0.0000000E+00;  4.0000000E+04;  0.0000000E+00;  4.0000000E+04;  0.0000000E+00;  0.0000000E+00;  0.0000000E+00;  0.0000000E+00;
 -2.0000000E-01;  9.9999998E-03; -4.1999999E-01;2;  0.0000000E+00;  0.0000000E+00;  0.0000000E+00;  1.0000000E+03;  1.0000000E-01;  0.0000000E+00;0;  0.0000000E+00;  0.0000000E+00;  0.0000000E+00;0;  0.0000000E+00;  4.0000000E+04;  0.0000000E+00;  0.0000000E+00;  4.0000000E+04;  0.0000000E+00;  4.0000000E+04;  0.0000000E+00;  0.0000000E+00;  0.0000000E+00;  0.0000000E+00;
 -2.0000000E-01;  9.9999998E-03; -4.1000000E-01;3;  0.0000000E+00;  0.0000000E+00;  0.0000000E+00;  1.0000000E+03;  1.0000000E-01;  0.0000000E+00;0;  0.0000000E+00;  0.0000000E+00;  0.0000000E+00;0;  0.0000000E+00;  4.0000000E+04;  0.0000000E+00;  0.0000000E+00;  4.0000000E+04;  0.0000000E+00;  4.0000000E+04;  0.0000000E+00;  0.0000000E+00;  0.0000000E+00;  0.0000000E+00;
 -2.0000000E-01;  9.9999998E-03; -4.0000001E-01;4;  0.0000000E+00;  0.0000000E+00;  0.0000000E+00;  1.0000000E+03;  1.0000000E-01;  0.0000000E+00;0;  0.0000000E+00;  0.0000000E+00;  0.0000000E+00;0;  0.0000000E+00;  4.0000000E+04;  0.0000000E+00;  0.0000000E+00;  4.0000000E+04;  0.0000000E+00;  4.0000000E+04;  0.0000000E+00;  0.0000000E+00;  0.0000000E+00;  0.0000000E+00;
 -2.0000000E-01;  9.9999998E-03; -3.8999999E-01;5;  0.0000000E+00;  0.0000000E+00;  0.0000000E+00;  1.0000000E+03;  1.0000000E-01;  0.0000000E+00;0;  0.0000000E+00;  0.0000000E+00;  0.0000000E+00;0;  0.0000000E+00;  4.0000000E+04;  0.0000000E+00;  0.0000000E+00;  4.0000000E+04;  0.0000000E+00;  4.0000000E+04;  0.0000000E+00;  0.0000000E+00;  0.0000000E+00;  0.0000000E+00;
 -2.0000000E-01;  9.9999998E-03; -3.8000000E-01;6;  0.0000000E+00;  0.0000000E+00;  0.0000000E+00;  1.0000000E+03;  1.0000000E-01;  0.0000000E+00;0;  0.0000000E+00;  0.0000000E+00;  0.0000000E+00;0;  0.0000000E+00;  4.0000000E+04;  0.0000000E+00;  0.0000000E+00;  4.0000000E+04;  0.0000000E+00;  4.0000000E+04;  0.0000000E+00;  0.0000000E+00;  0.0000000E+00;  0.0000000E+00;
 -2.0000000E-01;  9.9999998E-03; -3.7000000E-01;7;  0.0000000E+00;  0.0000000E+00;  0.0000000E+00;  1.0000000E+03;  1.0000000E-01;  0.0000000E+00;0;  0.0000000E+00;  0.0000000E+00;  0.0000000E+00;0;  0.0000000E+00;  4.0000000E+04;  0.0000000E+00;  0.0000000E+00;  4.0000000E+04;  0.0000000E+00;  4.0000000E+04;  0.0000000E+00;  0.0000000E+00;  0.0000000E+00;  0.0000000E+00;
 -2.0000000E-01;  9.9999998E-03; -3.6000001E-01;8;  0.0000000E+00;  0.0000000E+00;  0.0000000E+00;  1.0000000E+03;  1.0000000E-01;  0.0000000E+00;0;  0.0000000E+00;  0.0000000E+00;  0.0000000E+00;0;  0.0000000E+00;  4.0000000E+04;  0.0000000E+00;  0.0000000E+00;  4.0000000E+04;  0.0000000E+00;  4.0000000E+04;  0.0000000E+00;  0.0000000E+00;  0.0000000E+00;  0.0000000E+00;
 -2.0000000E-01;  9.9999998E-03; -3.4999999E-01;9;  0.0000000E+00;  0.0000000E+00;  0.0000000E+00;  1.0000000E+03;  1.0000000E-01;  0.0000000E+00;0;  0.0000000E+00;  0.0000000E+00;  0.0000000E+00;0;  0.0000000E+00;  4.0000000E+04;  0.0000000E+00;  0.0000000E+00;  4.0000000E+04;  0.0000000E+00;  4.0000000E+04;  0.0000000E+00;  0.0000000E+00;  0.0000000E+00;  0.0000000E+00;
 -2.0000000E-01;  9.9999998E-03; -3.4000000E-01;10;  0.0000000E+00;  0.0000000E+00;  0.0000000E+00;  1.0000000E+03;  1.0000000E-01;  0.0000000E+00;0;  0.0000000E+00;  0.0000000E+00;  0.0000000E+00;0;  0.0000000E+00;  4.0000000E+04;  0.0000000E+00;  0.0000000E+00;  4.0000000E+04;  0.0000000E+00;  4.0000000E+04;  0.0000000E+00;  0.0000000E+00;  0.0000000E+00;  0.0000000E+00;
 -2.0000000E-01;  9.9999998E-03; -3.3000001E-01;11;  0.0000000E+00;  0.0000000E+00;  0.0000000E+00;  1.0000000E+03;  1.0000000E-01;  0.0000000E+00;0;  0.0000000E+00;  0.0000000E+00;  0.0000000E+00;0;  0.0000000E+00;  4.0000000E+04;  0.0000000E+00;  0.0000000E+00;  4.0000000E+04;  0.0000000E+00;  4.0000000E+04;  0.0000000E+00;  0.0000000E+00;  0.0000000E+00;  0.0000000E+00;
 -2.0000000E-01;  9.9999998E-03; -3.1999999E-01;12;  0.0000000E+00;  0.0000000E+00;  0.0000000E+00;  1.0000000E+03;  1.0000000E-01;  0.0000000E+00;0;  0.0000000E+00;  0.0000000E+00;  0.0000000E+00;0;  0.0000000E+00;  4.0000000E+04;  0.0000000E+00;  0.0000000E+00;  4.0000000E+04;  0.0000000E+00;  4.0000000E+04;  0.0000000E+00;  0.0000000E+00;  0.0000000E+00;  0.0000000E+00;
 -2.0000000E-01;  9.9999998E-03; -3.1000000E-01;13;  0.0000000E+00;  0.0000000E+00;  0.0000000E+00;  1.0000000E+03;  1.0000000E-01;  0.0000000E+00;0;  0.0000000E+00;  0.0000000E+00;  0.0000000E+00;0;  0.0000000E+00;  4.0000000E+04;  0.0000000E+00;  0.0000000E+00;  4.0000000E+04;  0.0000000E+00;  4.0000000E+04;  0.0000000E+00;  0.0000000E+00;  0.0000000E+00;  0.0000000E+00;
 -2.0000000E-01;  9.9999998E-03; -3.0000001E-01;14;  0.0000000E+00;  0.0000000E+00;  0.0000000E+00;  1.0000000E+03;  1.0000000E-01;  0.0000000E+00;0;  0.0000000E+00;  0.0000000E+00;  0.0000000E+00;0;  0.0000000E+00;  4.0000000E+04;  0.0000000E+00;  0.0000000E+00;  4.0000000E+04;  0.0000000E+00;  4.0000000E+04;  0.0000000E+00;  0.0000000E+00;  0.0000000E+00;  0.0000000E+00;
 -2.0000000E-01;  9.9999998E-03; -2.8999999E-01;15;  0.0000000E+00;  0.0000000E+00;  0.0000000E+00;  1.0000000E+03;  1.0000000E-01;  0.0000000E+00;0;  0.0000000E+00;  0.0000000E+00;  0.0000000E+00;0;  0.0000000E+00;  4.0000000E+04;  0.0000000E+00;  0.0000000E+00;  4.0000000E+04;  0.0000000E+00;  4.0000000E+04;  0.0000000E+00;  0.0000000E+00;  0.0000000E+00;  0.0000000E+00;
 -2.0000000E-01;  9.9999998E-03; -2.8000000E-01;16;  0.0000000E+00;  0.0000000E+00;  0.0000000E+00;  1.0000000E+03;  1.0000000E-01;  0.0000000E+00;0;  0.0000000E+00;  0.0000000E+00;  0.0000000E+00;0;  0.0000000E+00;  4.0000000E+04;  0.0000000E+00;  0.0000000E+00;  4.0000000E+04;  0.0000000E+00;  4.0000000E+04;  0.0000000E+00;  0.0000000E+00;  0.0000000E+00;  0.0000000E+00;
 -2.0000000E-01;  9.9999998E-03; -2.7000001E-01;17;  0.0000000E+00;  0.0000000E+00;  0.0000000E+00;  1.0000000E+03;  1.0000000E-01;  0.0000000E+00;0;  0.0000000E+00;  0.0000000E+00;  0.0000000E+00;0;  0.0000000E+00;  4.0000000E+04;  0.0000000E+00;  0.0000000E+00;  4.0000000E+04;  0.0000000E+00;  4.0000000E+04;  0.0000000E+00;  0.0000000E+00;  0.0000000E+00;  0.0000000E+00;
 -2.0000000E-01;  9.9999998E-03; -2.5999999E-01;18;  0.0000000E+00;  0.0000000E+00;  0.0000000E+00;  1.0000000E+03;  1.0000000E-01;  0.0000000E+00;0;  0.0000000E+00;  0.0000000E+00;  0.0000000E+00;0;  0.0000000E+00;  4.0000000E+04;  0.0000000E+00;  0.0000000E+00;  4.0000000E+04;  0.0000000E+00;  4.0000000E+04;  0.0000000E+00;  0.0000000E+00;  0.0000000E+00;  0.0000000E+00;
 -2.0000000E-01;  9.9999998E-03; -2.5000000E-01;19;  0.0000000E+00;  0.0000000E+00;  0.0000000E+00;  1.0000000E+03;  1.0000000E-01;  0.0000000E+00;0;  0.0000000E+00;  0.0000000E+00;  0.0000000E+00;0;  0.0000000E+00;  4.0000000E+04;  0.0000000E+00;  0.0000000E+00;  4.0000000E+04;  0.0000000E+00;  4.0000000E+04;  0.0000000E+00;  0.0000000E+00;  0.0000000E+00;  0.0000000E+00;
 -2.0000000E-01;  9.9999998E-03; -2.3999999E-01;20;  0.0000000E+00;  0.0000000E+00;  0.0000000E+00;  1.0000000E+03;  1.0000000E-01;  0.0000000E+00;0;  0.0000000E+00;  0.0000000E+00;  0.0000000E+00;0;  0.0000000E+00;  4.0000000E+04;  0.0000000E+00;  0.0000000E+00;  4.0000000E+04;  0.0000000E+00;  4.0000000E+04;  0.0000000E+00;  0.0000000E+00;  0.0000000E+00;  0.0000000E+00;
 -2.0000000E-01;  9.9999998E-03; -2.3000000E-01;21;  0.0000000E+00;  0.0000000E+00;  0.0000000E+00;  1.0000000E+03;  1.0000000E-01;  0.0000000E+00;0;  0.0000000E+00;  0.0000000E+00;  0.0000000E+00;0;  0.0000000E+00;  4.0000000E+04;  0.0000000E+00;  0.0000000E+00;  4.0000000E+04;  0.0000000E+00;  4.0000000E+04;  0.0000000E+00;  0.0000000E+00;  0.0000000E+00;  0.0000000E+00;
 -2.0000000E-01;  9.9999998E-03; -2.2000000E-01;22;  0.0000000E+00;  0.0000000E+00;  0.0000000E+00;  1.0000000E+03;  1.0000000E-01;  0.0000000E+00;0;  0.0000000E+00;  0.0000000E+00;  0.0000000E+00;0;  0.0000000E+00;  4.0000000E+04;  0.0000000E+00;  0.0000000E+00;  4.0000000E+04;  0.0000000E+00;  4.0000000E+04;  0.0000000E+00;  0.0000000E+00;  0.0000000E+00;  0.0000000E+00;
 -2.0000000E-01;  9.9999998E-03; -2.0999999E-01;23;  0.0000000E+00;  0.0000000E+00;  0.0000000E+00;  1.0000000E+03;  1.0000000E-01;  0.0000000E+00;0;  0.0000000E+00;  0.0000000E+00;  0.0000000E+00;0;  0.0000000E+00;  4.0000000E+04;  0.0000000E+00;  0.0000000E+00;  4.0000000E+04;  0.0000000E+00;  4.0000000E+04;  0.0000000E+00;  0.0000000E+00;  0.0000000E+00;  0.0000000E+00;
 -2.0000000E-01;  9.9999998E-03; -2.0000000E-01;24;  0.0000000E+00;  0.0000000E+00;  0.0000000E+00;  1.0000000E+03;  1.0000000E-01;  0.0000000E+00;0;  0.0000000E+00;  0.0000000E+00;  0.0000000E+00;0;  0.0000000E+00;  4.0000000E+04;  0.0000000E+00;  0.0000000E+00;  4.0000000E+04;  0.0000000E+00;  4.0000000E+04;  0.0000000E+00;  0.0000000E+00;  0.0000000E+00;  0.0000000E+00;
 -2.0000000E-01;  9.9999998E-03; -1.9000000E-01;25;  0.0000000E+00;  0.0000000E+00;  0.0000000E+00;  1.0000000E+03;  1.0000000E-01;  0.0000000E+00;0;  0.0000000E+00;  0.0000000E+00;  0.0000000E+00;0;  0.0000000E+00;  4.0000000E+04;  0.0000000E+00;  0.0000000E+00;  4.0000000E+04;  0.0000000E+00;  4.0000000E+04;  0.0000000E+00;  0.0000000E+00;  0.0000000E+00;  0.0000000E+00;
 -2.0000000E-01;  9.9999998E-03; -1.8000001E-01;26;  0.0000000E+00;  0.0000000E+00;  0.0000000E+00;  1.0000000E+03;  1.0000000E-01;  0.0000000E+00;0;  0.0000000E+00;  0.0000000E+00;  0.0000000E+00;0;  0.0000000E+00;  4.0000000E+04;  0.0000000E+00;  0.0000000E+00;  4.0000000E+04;  0.0000000E+00;  4.0000000E+04;  0.0000000E+00;  0.0000000E+00;  0.0000000E+00;  0.0000000E+00;
 -2.0000000E-01;  9.9999998E-03; -1.7000000E-01;27;  0.0000000E+00;  0.0000000E+00;  0.0000000E+00;  1.0000000E+03;  1.0000000E-01;  0.0000000E+00;0;  0.0000000E+00;  0.0000000E+00;  0.0000000E+00;0;  0.0000000E+00;  4.0000000E+04;  0.0000000E+00;  0.0000000E+00;  4.0000000E+04;  0.0000000E+00;  4.0000000E+04;  0.0000000E+00;  0.0000000E+00;  0.0000000E+00;  0.0000000E+00;
 -2.0000000E-01;  9.9999998E-03; -1.6000000E-01;28;  0.0000000E+00;  0.0000000E+00;  0.0000000E+00;  1.0000000E+03;  1.0000000E-01;  0.0000000E+00;0;  0.0000000E+00;  0.0000000E+00;  0.0000000E+00;0;  0.0000000E+00;  4.0000000E+04;  0.0000000E+00;  0.0000000E+00;  4.0000000E+04;  0.0000000E+00;  4.0000000E+04;  0.0000000E+00;  0.0000000E+00;  0.0000000E+00;  0.0000000E+00;
 -2.0000000E-01;  9.9999998E-03; -1.5000001E-01;29;  0.0000000E+00;  0.0000000E+00;  0.0000000E+00;  1.0000000E+03;  1.0000000E-01;  0.0000000E+00;0;  0.0000000E+00;  0.0000000E+00;  0.0000000E+00;0;  0.0000000E+00;  4.0000000E+04;  0.0000000E+00;  0.0000000E+00;  4.0000000E+04;  0.0000000E+00;  4.0000000E+04;  0.0000000E+00;  0.0000000E+00;  0.0000000E+00;  0.0000000E+00;
 -2.0000000E-01;  9.9999998E-03; -1.4000000E-01;30;  0.0000000E+00;  0.0000000E+00;  0.0000000E+00;  1.0000000E+03;  1.0000000E-01;  0.0000000E+00;0;  0.0000000E+00;  0.0000000E+00;  0.0000000E+00;0;  0.0000000E+00;  4.0000000E+04;  0.0000000E+00;  0.0000000E+00;  4.0000000E+04;  0.0000000E+00;  4.0000000E+04;  0.0000000E+00;  0.0000000E+00;  0.0000000E+00;  0.0000000E+00;
 -2.0000000E-01;  9.9999998E-03; -1.3000000E-01;31;  0.0000000E+00;  0.0000000E+00;  0.0000000E+00;  1.0000000E+03;  1.0000000E-01;  0.0000000E+00;0;  0.0000000E+00;  0.0000000E+00;  0.0000000E+00;0;  0.0000000E+00;  4.0000000E+04;  0.0000000E+00;  0.0000000E+00;  4.0000000E+04;  0.0000000E+00;  4.0000000E+04;  0.0000000E+00;  0.0000000E+00;  0.0000000E+00;  0.0000000E+00;
 -2.0000000E-01;  9.9999998E-03; -1.2000000E-01;32;  0.0000000E+00;  0.0000000E+00;  0.0000000E+00;  1.0000000E+03;  1.0000000E-01;  0.0000000E+00;0;  0.0000000E+00;  0.0000000E+00;  0.0000000E+00;0;  0.0000000E+00;  4.0000000E+04;  0.0000000E+00;  0.0000000E+00;  4.0000000E+04;  0.0000000E+00;  4.0000000E+04;  0.0000000E+00;  0.0000000E+00;  0.0000000E+00;  0.0000000E+00;
 -2.0000000E-01;  9.9999998E-03; -1.1000000E-01;33;  0.0000000E+00;  0.0000000E+00;  0.0000000E+00;  1.0000000E+03;  1.0000000E-01;  0.0000000E+00;0;  0.0000000E+00;  0.0000000E+00;  0.0000000E+00;0;  0.0000000E+00;  4.0000000E+04;  0.0000000E+00;  0.0000000E+00;  4.0000000E+04;  0.0000000E+00;  4.0000000E+04;  0.0000000E+00;  0.0000000E+00;  0.0000000E+00;  0.0000000E+00;
 -2.0000000E-01;  9.9999998E-03; -1.0000000E-01;34;  0.0000000E+00;  0.0000000E+00;  0.0000000E+00;  1.0000000E+03;  1.0000000E-01;  0.0000000E+00;0;  0.0000000E+00;  0.0000000E+00;  0.0000000E+00;0;  0.0000000E+00;  4.0000000E+04;  0.0000000E+00;  0.0000000E+00;  4.0000000E+04;  0.0000000E+00;  4.0000000E+04;  0.0000000E+00;  0.0000000E+00;  0.0000000E+00;  0.0000000E+00;
 -2.0000000E-01;  9.9999998E-03; -9.0000004E-02;35;  0.0000000E+00;  0.0000000E+00;  0.0000000E+00;  1.0000000E+03;  1.0000000E-01;  0.0000000E+00;0;  0.0000000E+00;  0.0000000E+00;  0.0000000E+00;0;  0.0000000E+00;  4.0000000E+04;  0.0000000E+00;  0.0000000E+00;  4.0000000E+04;  0.0000000E+00;  4.0000000E+04;  0.0000000E+00;  0.0000000E+00;  0.0000000E+00;  0.0000000E+00;
 -2.0000000E-01;  9.9999998E-03; -7.9999998E-02;36;  0.0000000E+00;  0.0000000E+00;  0.0000000E+00;  1.0000000E+03;  1.0000000E-01;  0.0000000E+00;0;  0.0000000E+00;  0.0000000E+00;  0.0000000E+00;0;  0.0000000E+00;  4.0000000E+04;  0.0000000E+00;  0.0000000E+00;  4.0000000E+04;  0.0000000E+00;  4.0000000E+04;  0.0000000E+00;  0.0000000E+00;  0.0000000E+00;  0.0000000E+00;
 -2.0000000E-01;  9.9999998E-03; -7.0000000E-02;37;  0.0000000E+00;  0.0000000E+00;  0.0000000E+00;  1.0000000E+03;  1.0000000E-01;  0.0000000E+00;0;  0.0000000E+00;  0.0000000E+00;  0.0000000E+00;0;  0.0000000E+00;  4.0000000E+04;  0.0000000E+00;  0.0000000E+00;  4.0000000E+04;  0.0000000E+00;  4.0000000E+04;  0.0000000E+00;  0.0000000E+00;  0.0000000E+00;  0.0000000E+00;
 -2.0000000E-01;  9.9999998E-03; -5.9999999E-02;38;  0.0000000E+00;  0.0000000E+00;  0.0000000E+00;  1.0000000E+03;  1.0000000E-01;  0.0000000E+00;0;  0.0000000E+00;  0.0000000E+00;  0.0000000E+00;0;  0.0000000E+00;  4.0000000E+04;  0.0000000E+00;  0.0000000E+00;  4.0000000E+04;  0.0000000E+00;  4.0000000E+04;  0.0000000E+00;  0.0000000E+00;  0.0000000E+00;  0.0000000E+00;
 -2.0000000E-01;  9.9999998E-03; -5.0000001E-02;39;  0.0000000E+00;  0.0000000E+00;  0.0000000E+00;  1.0000000E+03;  1.0000000E-01;  0.0000000E+00;0;  0.0000000E+00;  0.0000000E+00;  0.0000000E+00;0;  0.0000000E+00;  4.0000000E+04;  0.0000000E+00;  0.0000000E+00;  4.0000000E+04;  0.0000000E+00;  4.0000000E+04;  0.0000000E+00;  0.0000000E+00;  0.0000000E+00;  0.0000000E+00;
 -2.0000000E-01;  9.9999998E-03; -3.9999999E-02;40;  0.0000000E+00;  0.0000000E+00;  0.0000000E+00;  1.0000000E+03;  1.0000000E-01;  0.0000000E+00;0;  0.0000000E+00;  0.0000000E+00;  0.0000000E+00;0;  0.0000000E+00;  4.0000000E+04;  0.0000000E+00;  0.0000000E+00;  4.0000000E+04;  0.0000000E+00;  4.0000000E+04;  0.0000000E+00;  0.0000000E+00;  0.0000000E+00;  0.0000000E+00;
 -2.0000000E-01;  9.9999998E-03; -2.9999999E-02;41;  0.0000000E+00;  0.0000000E+00;  0.0000000E+00;  1.0000000E+03;  1.0000000E-01;  0.0000000E+00;0;  0.0000000E+00;  0.0000000E+00;  0.0000000E+00;0;  0.0000000E+00;  4.0000000E+04;  0.0000000E+00;  0.0000000E+00;  4.0000000E+04;  0.0000000E+00;  4.0000000E+04;  0.0000000E+00;  0.0000000E+00;  0.0000000E+00;  0.0000000E+00;
 -2.0000000E-01;  9.9999998E-03; -2.0000000E-02;42;  0.0000000E+00;  0.0000000E+00;  0.0000000E+00;  1.0000000E+03;  1.0000000E-01;  0.0000000E+00;0;  0.0000000E+00;  0.0000000E+00;  0.0000000E+00;0;  0.0000000E+00;  4.0000000E+04;  0.0000000E+00;  0.0000000E+00;  4.0000000E+04;  0.0000000E+00;  4.0000000E+04;  0.0000000E+00;  0.0000000E+00;  0.0000000E+00;  0.0000000E+00;
 -2.0000000E-01;  9.9999998E-03; -9.9999998E-03;43;  0.0000000E+00;  0.0000000E+00;  0.0000000E+00;  1.0000000E+03;  1.0000000E-01;  0.0000000E+00;0;  0.0000000E+00;  0.0000000E+00;  0.0000000E+00;0;  0.0000000E+00;  4.0000000E+04;  0.0000000E+00;  0.0000000E+00;  4.0000000E+04;  0.0000000E+00;  4.0000000E+04;  0.0000000E+00;  0.0000000E+00;  0.0000000E+00;  0.0000000E+00;
 -2.0000000E-01;  9.9999998E-03;  0.0000000E+00;44;  0.0000000E+00;  0.0000000E+00;  0.0000000E+00;  1.0000000E+03;  1.0000000E-01;  0.0000000E+00;0;  0.0000000E+00;  0.0000000E+00;  0.0000000E+00;0;  0.0000000E+00;  4.0000000E+04;  0.0000000E+00;  0.0000000E+00;  4.0000000E+04;  0.0000000E+00;  4.0000000E+04;  0.0000000E+00;  0.0000000E+00;  0.0000000E+00;  0.0000000E+00;
 -2.0000000E-01;  9.9999998E-03;  9.9999998E-03;45;  0.0000000E+00;  0.0000000E+00;  0.0000000E+00;  1.0000000E+03;  1.0000000E-01;  0.0000000E+00;0;  0.0000000E+00;  0.0000000E+00;  0.0000000E+00;0;  0.0000000E+00;  4.0000000E+04;  0.0000000E+00;  0.0000000E+00;  4.0000000E+04;  0.0000000E+00;  4.0000000E+04;  0.0000000E+00;  0.0000000E+00;  0.0000000E+00;  0.0000000E+00;
 -2.0000000E-01;  9.9999998E-03;  2.0000000E-02;46;  0.0000000E+00;  0.0000000E+00;  0.0000000E+00;  1.0000000E+03;  1.0000000E-01;  0.0000000E+00;0;  0.0000000E+00;  0.0000000E+00;  0.0000000E+00;0;  0.0000000E+00;  4.0000000E+04;  0.0000000E+00;  0.0000000E+00;  4.0000000E+04;  0.0000000E+00;  4.0000000E+04;  0.0000000E+00;  0.0000000E+00;  0.0000000E+00;  0.0000000E+00;
 -2.0000000E-01;  9.9999998E-03;  2.9999999E-02;47;  0.0000000E+00;  0.0000000E+00;  0.0000000E+00;  1.0000000E+03;  1.0000000E-01;  0.0000000E+00;0;  0.0000000E+00;  0.0000000E+00;  0.0000000E+00;0;  0.0000000E+00;  4.0000000E+04;  0.0000000E+00;  0.0000000E+00;  4.0000000E+04;  0.0000000E+00;  4.0000000E+04;  0.0000000E+00;  0.0000000E+00;  0.0000000E+00;  0.0000000E+00;
 -2.0000000E-01;  9.9999998E-03;  3.9999999E-02;48;  0.0000000E+00;  0.0000000E+00;  0.0000000E+00;  1.0000000E+03;  1.0000000E-01;  0.0000000E+00;0;  0.0000000E+00;  0.0000000E+00;  0.0000000E+00;0;  0.0000000E+00;  4.0000000E+04;  0.0000000E+00;  0.0000000E+00;  4.0000000E+04;  0.0000000E+00;  4.0000000E+04;  0.0000000E+00;  0.0000000E+00;  0.0000000E+00;  0.0000000E+00;
 -2.0000000E-01;  9.9999998E-03;  5.0000001E-02;49;  0.0000000E+00;  0.0000000E+00;  0.0000000E+00;  1.0000000E+03;  1.0000000E-01;  0.0000000E+00;0;  0.0000000E+00;  0.0000000E+00;  0.0000000E+00;0;  0.0000000E+00;  4.0000000E+04;  0.0000000E+00;  0.0000000E+00;  4.0000000E+04;  0.0000000E+00;  4.0000000E+04;  0.0000000E+00;  0.0000000E+00;  0.0000000E+00;  0.0000000E+00;
 -2.0000000E-01;  9.9999998E-03;  5.9999999E-02;50;  0.0000000E+00;  0.0000000E+00;  0.0000000E+00;  1.0000000E+03;  1.0000000E-01;  0.0000000E+00;0;  0.0000000E+00;  0.0000000E+00;  0.0000000E+00;0;  0.0000000E+00;  4.0000000E+04;  0.0000000E+00;  0.0000000E+00;  4.0000000E+04;  0.0000000E+00;  4.0000000E+04;  0.0000000E+00;  0.0000000E+00;  0.0000000E+00;  0.0000000E+00;
 -2.0000000E-01;  9.9999998E-03;  7.0000000E-02;51;  0.0000000E+00;  0.0000000E+00;  0.0000000E+00;  1.0000000E+03;  1.0000000E-01;  0.0000000E+00;0;  0.0000000E+00;  0.0000000E+00;  0.0000000E+00;0;  0.0000000E+00;  4.0000000E+04;  0.0000000E+00;  0.0000000E+00;  4.0000000E+04;  0.0000000E+00;  4.0000000E+04;  0.0000000E+00;  0.0000000E+00;  0.0000000E+00;  0.0000000E+00;
 -2.0000000E-01;  9.9999998E-03;  7.9999998E-02;52;  0.0000000E+00;  0.0000000E+00;  0.0000000E+00;  1.0000000E+03;  1.0000000E-01;  0.0000000E+00;0;  0.0000000E+00;  0.0000000E+00;  0.0000000E+00;0;  0.0000000E+00;  4.0000000E+04;  0.0000000E+00;  0.0000000E+00;  4.0000000E+04;  0.0000000E+00;  4.0000000E+04;  0.0000000E+00;  0.0000000E+00;  0.0000000E+00;  0.0000000E+00;
 -2.0000000E-01;  9.9999998E-03;  9.0000004E-02;53;  0.0000000E+00;  0.0000000E+00;  0.0000000E+00;  1.0000000E+03;  1.0000000E-01;  0.0000000E+00;0;  0.0000000E+00;  0.0000000E+00;  0.0000000E+00;0;  0.0000000E+00;  4.0000000E+04;  0.0000000E+00;  0.0000000E+00;  4.0000000E+04;  0.0000000E+00;  4.0000000E+04;  0.0000000E+00;  0.0000000E+00;  0.0000000E+00;  0.0000000E+00;
 -2.0000000E-01;  9.9999998E-03;  1.0000000E-01;54;  0.0000000E+00;  0.0000000E+00;  0.0000000E+00;  1.0000000E+03;  1.0000000E-01;  0.0000000E+00;0;  0.0000000E+00;  0.0000000E+00;  0.0000000E+00;0;  0.0000000E+00;  4.0000000E+04;  0.0000000E+00;  0.0000000E+00;  4.0000000E+04;  0.0000000E+00;  4.0000000E+04;  0.0000000E+00;  0.0000000E+00;  0.0000000E+00;  0.0000000E+00;
 -2.0000000E-01;  9.9999998E-03;  1.1000000E-01;55;  0.0000000E+00;  0.0000000E+00;  0.0000000E+00;  1.0000000E+03;  1.0000000E-01;  0.0000000E+00;0;  0.0000000E+00;  0.0000000E+00;  0.0000000E+00;0;  0.0000000E+00;  4.0000000E+04;  0.0000000E+00;  0.0000000E+00;  4.0000000E+04;  0.0000000E+00;  4.0000000E+04;  0.0000000E+00;  0.0000000E+00;  0.0000000E+00;  0.0000000E+00;
 -2.0000000E-01;  9.9999998E-03;  1.2000000E-01;56;  0.0000000E+00;  0.0000000E+00;  0.0000000E+00;  1.0000000E+03;  1.0000000E-01;  0.0000000E+00;0;  0.0000000E+00;  0.0000000E+00;  0.0000000E+00;0;  0.0000000E+00;  4.0000000E+04;  0.0000000E+00;  0.0000000E+00;  4.0000000E+04;  0.0000000E+00;  4.0000000E+04;  0.0000000E+00;  0.0000000E+00;  0.0000000E+00;  0.0000000E+00;
 -2.0000000E-01;  9.9999998E-03;  1.3000000E-01;57;  0.0000000E+00;  0.0000000E+00;  0.0000000E+00;  1.0000000E+03;  1.0000000E-01;  0.0000000E+00;0;  0.0000000E+00;  0.0000000E+00;  0.0000000E+00;0;  0.0000000E+00;  4.0000000E+04;  0.0000000E+00;  0.0000000E+00;  4.0000000E+04;  0.0000000E+00;  4.0000000E+04;  0.0000000E+00;  0.0000000E+00;  0.0000000E+00;  0.0000000E+00;
 -2.0000000E-01;  9.9999998E-03;  1.4000000E-01;58;  0.0000000E+00;  0.0000000E+00;  0.0000000E+00;  1.0000000E+03;  1.0000000E-01;  0.0000000E+00;0;  0.0000000E+00;  0.0000000E+00;  0.0000000E+00;0;  0.0000000E+00;  4.0000000E+04;  0.0000000E+00;  0.0000000E+00;  4.0000000E+04;  0.0000000E+00;  4.0000000E+04;  0.0000000E+00;  0.0000000E+00;  0.0000000E+00;  0.0000000E+00;
 -2.0000000E-01;  9.9999998E-03;  1.5000001E-01;59;  0.0000000E+00;  0.0000000E+00;  0.0000000E+00;  1.0000000E+03;  1.0000000E-01;  0.0000000E+00;0;  0.0000000E+00;  0.0000000E+00;  0.0000000E+00;0;  0.0000000E+00;  4.0000000E+04;  0.0000000E+00;  0.0000000E+00;  4.0000000E+04;  0.0000000E+00;  4.0000000E+04;  0.0000000E+00;  0.0000000E+00;  0.0000000E+00;  0.0000000E+00;
 -2.0000000E-01;  9.9999998E-03;  1.6000000E-01;60;  0.0000000E+00;  0.0000000E+00;  0.0000000E+00;  1.0000000E+03;  1.0000000E-01;  0.0000000E+00;0;  0.0000000E+00;  0.0000000E+00;  0.0000000E+00;0;  0.0000000E+00;  4.0000000E+04;  0.0000000E+00;  0.0000000E+00;  4.0000000E+04;  0.0000000E+00;  4.0000000E+04;  0.0000000E+00;  0.0000000E+00;  0.0000000E+00;  0.0000000E+00;
 -2.0000000E-01;  9.9999998E-03;  1.7000000E-01;61;  0.0000000E+00;  0.0000000E+00;  0.0000000E+00;  1.0000000E+03;  1.0000000E-01;  0.0000000E+00;0;  0.0000000E+00;  0.0000000E+00;  0.0000000E+00;0;  0.0000000E+00;  4.0000000E+04;  0.0000000E+00;  0.0000000E+00;  4.0000000E+04;  0.0000000E+00;  4.0000000E+04;  0.0000000E+00;  0.0000000E+00;  0.0000000E+00;  0.0000000E+00;
 -2.0000000E-01;  9.9999998E-03;  1.8000001E-01;62;  0.0000000E+00;  0.0000000E+00;  0.0000000E+00;  1.0000000E+03;  1.0000000E-01;  0.0000000E+00;0;  0.0000000E+00;  0.0000000E+00;  0.0000000E+00;0;  0.0000000E+00;  4.0000000E+04;  0.0000000E+00;  0.0000000E+00;  4.0000000E+04;  0.0000000E+00;  4.0000000E+04;  0.0000000E+00;  0.0000000E+00;  0.0000000E+00;  0.0000000E+00;
 -2.0000000E-01;  9.9999998E-03;  1.9000000E-01;63;  0.0000000E+00;  0.0000000E+00;  0.0000000E+00;  1.0000000E+03;  1.0000000E-01;  0.0000000E+00;0;  0.0000000E+00;  0.0000000E+00;  0.0000000E+00;0;  0.0000000E+00;  4.0000000E+04;  0.0000000E+00;  0.0000000E+00;  4.0000000E+04;  0.0000000E+00;  4.0000000E+04;  0.0000000E+00;  0.0000000E+00;  0.0000000E+00;  0.0000000E+00;
 -2.0000000E-01;  9.9999998E-03;  2.0000000E-01;64;  0.0000000E+00;  0.0000000E+00;  0.0000000E+00;  1.0000000E+03;  1.0000000E-01;  0.0000000E+00;0;  0.0000000E+00;  0.0000000E+00;  0.0000000E+00;0;  0.0000000E+00;  4.0000000E+04;  0.0000000E+00;  0.0000000E+00;  4.0000000E+04;  0.0000000E+00;  4.0000000E+04;  0.0000000E+00;  0.0000000E+00;  0.0000000E+00;  0.0000000E+00;
 -2.0000000E-01;  9.9999998E-03;  2.0999999E-01;65;  0.0000000E+00;  0.0000000E+00;  0.0000000E+00;  1.0000000E+03;  1.0000000E-01;  0.0000000E+00;0;  0.0000000E+00;  0.0000000E+00;  0.0000000E+00;0;  0.0000000E+00;  4.0000000E+04;  0.0000000E+00;  0.0000000E+00;  4.0000000E+04;  0.0000000E+00;  4.0000000E+04;  0.0000000E+00;  0.0000000E+00;  0.0000000E+00;  0.0000000E+00;
 -2.0000000E-01;  9.9999998E-03;  2.2000000E-01;66;  0.0000000E+00;  0.0000000E+00;  0.0000000E+00;  1.0000000E+03;  1.0000000E-01;  0.0000000E+00;0;  0.0000000E+00;  0.0000000E+00;  0.0000000E+00;0;  0.0000000E+00;  4.0000000E+04;  0.0000000E+00;  0.0000000E+00;  4.0000000E+04;  0.0000000E+00;  4.0000000E+04;  0.0000000E+00;  0.0000000E+00;  0.0000000E+00;  0.0000000E+00;
 -2.0000000E-01;  9.9999998E-03;  2.3000000E-01;67;  0.0000000E+00;  0.0000000E+00;  0.0000000E+00;  1.0000000E+03;  1.0000000E-01;  0.0000000E+00;0;  0.0000000E+00;  0.0000000E+00;  0.0000000E+00;0;  0.0000000E+00;  4.0000000E+04;  0.0000000E+00;  0.0000000E+00;  4.0000000E+04;  0.0000000E+00;  4.0000000E+04;  0.0000000E+00;  0.0000000E+00;  0.0000000E+00;  0.0000000E+00;
 -2.0000000E-01;  9.9999998E-03;  2.3999999E-01;68;  0.0000000E+00;  0.0000000E+00;  0.0000000E+00;  1.0000000E+03;  1.0000000E-01;  0.0000000E+00;0;  0.0000000E+00;  0.0000000E+00;  0.0000000E+00;0;  0.0000000E+00;  4.0000000E+04;  0.0000000E+00;  0.0000000E+00;  4.0000000E+04;  0.0000000E+00;  4.0000000E+04;  0.0000000E+00;  0.0000000E+00;  0.0000000E+00;  0.0000000E+00;
 -2.0000000E-01;  9.9999998E-03;  2.5000000E-01;69;  0.0000000E+00;  0.0000000E+00;  0.0000000E+00;  1.0000000E+03;  1.0000000E-01;  0.0000000E+00;0;  0.0000000E+00;  0.0000000E+00;  0.0000000E+00;0;  0.0000000E+00;  4.0000000E+04;  0.0000000E+00;  0.0000000E+00;  4.0000000E+04;  0.0000000E+00;  4.0000000E+04;  0.0000000E+00;  0.0000000E+00;  0.0000000E+00;  0.0000000E+00;
 -2.0000000E-01;  9.9999998E-03;  2.5999999E-01;70;  0.0000000E+00;  0.0000000E+00;  0.0000000E+00;  1.0000000E+03;  1.0000000E-01;  0.0000000E+00;0;  0.0000000E+00;  0.0000000E+00;  0.0000000E+00;0;  0.0000000E+00;  4.0000000E+04;  0.0000000E+00;  0.0000000E+00;  4.0000000E+04;  0.0000000E+00;  4.0000000E+04;  0.0000000E+00;  0.0000000E+00;  0.0000000E+00;  0.0000000E+00;
 -2.0000000E-01;  9.9999998E-03;  2.7000001E-01;71;  0.0000000E+00;  0.0000000E+00;  0.0000000E+00;  1.0000000E+03;  1.0000000E-01;  0.0000000E+00;0;  0.0000000E+00;  0.0000000E+00;  0.0000000E+00;0;  0.0000000E+00;  4.0000000E+04;  0.0000000E+00;  0.0000000E+00;  4.0000000E+04;  0.0000000E+00;  4.0000000E+04;  0.0000000E+00;  0.0000000E+00;  0.0000000E+00;  0.0000000E+00;
 -2.0000000E-01;  9.9999998E-03;  2.8000000E-01;72;  0.0000000E+00;  0.0000000E+00;  0.0000000E+00;  1.0000000E+03;  1.0000000E-01;  0.0000000E+00;0;  0.0000000E+00;  0.0000000E+00;  0.0000000E+00;0;  0.0000000E+00;  4.0000000E+04;  0.0000000E+00;  0.0000000E+00;  4.0000000E+04;  0.0000000E+00;  4.0000000E+04;  0.0000000E+00;  0.0000000E+00;  0.0000000E+00;  0.0000000E+00;
 -2.0000000E-01;  9.9999998E-03;  2.8999999E-01;73;  0.0000000E+00;  0.0000000E+00;  0.0000000E+00;  1.0000000E+03;  1.0000000E-01;  0.0000000E+00;0;  0.0000000E+00;  0.0000000E+00;  0.0000000E+00;0;  0.0000000E+00;  4.0000000E+04;  0.0000000E+00;  0.0000000E+00;  4.0000000E+04;  0.0000000E+00;  4.0000000E+04;  0.0000000E+00;  0.0000000E+00;  0.0000000E+00;  0.0000000E+00;
 -2.0000000E-01;  9.9999998E-03;  3.0000001E-01;74;  0.0000000E+00;  0.0000000E+00;  0.0000000E+00;  1.0000000E+03;  1.0000000E-01;  0.0000000E+00;0;  0.0000000E+00;  0.0000000E+00;  0.0000000E+00;0;  0.0000000E+00;  4.0000000E+04;  0.0000000E+00;  0.0000000E+00;  4.0000000E+04;  0.0000000E+00;  4.0000000E+04;  0.0000000E+00;  0.0000000E+00;  0.0000000E+00;  0.0000000E+00;
 -2.0000000E-01;  9.9999998E-03;  3.1000000E-01;75;  0.0000000E+00;  0.0000000E+00;  0.0000000E+00;  1.0000000E+03;  1.0000000E-01;  0.0000000E+00;0;  0.0000000E+00;  0.0000000E+00;  0.0000000E+00;0;  0.0000000E+00;  4.0000000E+04;  0.0000000E+00;  0.0000000E+00;  4.0000000E+04;  0.0000000E+00;  4.0000000E+04;  0.0000000E+00;  0.0000000E+00;  0.0000000E+00;  0.0000000E+00;
 -2.0000000E-01;  9.9999998E-03;  3.1999999E-01;76;  0.0000000E+00;  0.0000000E+00;  0.0000000E+00;  1.0000000E+03;  1.0000000E-01;  0.0000000E+00;0;  0.0000000E+00;  0.0000000E+00;  0.0000000E+00;0;  0.0000000E+00;  4.0000000E+04;  0.0000000E+00;  0.0000000E+00;  4.0000000E+04;  0.0000000E+00;  4.0000000E+04;  0.0000000E+00;  0.0000000E+00;  0.0000000E+00;  0.0000000E+00;
 -2.0000000E-01;  9.9999998E-03;  3.3000001E-01;77;  0.0000000E+00;  0.0000000E+00;  0.0000000E+00;  1.0000000E+03;  1.0000000E-01;  0.0000000E+00;0;  0.0000000E+00;  0.0000000E+00;  0.0000000E+00;0;  0.0000000E+00;  4.0000000E+04;  0.0000000E+00;  0.0000000E+00;  4.0000000E+04;  0.0000000E+00;  4.0000000E+04;  0.0000000E+00;  0.0000000E+00;  0.0000000E+00;  0.0000000E+00;
 -2.0000000E-01;  9.9999998E-03;  3.4000000E-01;78;  0.0000000E+00;  0.0000000E+00;  0.0000000E+00;  1.0000000E+03;  1.0000000E-01;  0.0000000E+00;0;  0.0000000E+00;  0.0000000E+00;  0.0000000E+00;0;  0.0000000E+00;  4.0000000E+04;  0.0000000E+00;  0.0000000E+00;  4.0000000E+04;  0.0000000E+00;  4.0000000E+04;  0.0000000E+00;  0.0000000E+00;  0.0000000E+00;  0.0000000E+00;
 -2.0000000E-01;  9.9999998E-03;  3.4999999E-01;79;  0.0000000E+00;  0.0000000E+00;  0.0000000E+00;  1.0000000E+03;  1.0000000E-01;  0.0000000E+00;0;  0.0000000E+00;  0.0000000E+00;  0.0000000E+00;0;  0.0000000E+00;  4.0000000E+04;  0.0000000E+00;  0.0000000E+00;  4.0000000E+04;  0.0000000E+00;  4.0000000E+04;  0.0000000E+00;  0.0000000E+00;  0.0000000E+00;  0.0000000E+00;
 -2.0000000E-01;  9.9999998E-03;  3.6000001E-01;80;  0.0000000E+00;  0.0000000E+00;  0.0000000E+00;  1.0000000E+03;  1.0000000E-01;  0.0000000E+00;0;  0.0000000E+00;  0.0000000E+00;  0.0000000E+00;0;  0.0000000E+00;  4.0000000E+04;  0.0000000E+00;  0.0000000E+00;  4.0000000E+04;  0.0000000E+00;  4.0000000E+04;  0.0000000E+00;  0.0000000E+00;  0.0000000E+00;  0.0000000E+00;
 -2.0000000E-01;  9.9999998E-03;  3.7000000E-01;81;  0.0000000E+00;  0.0000000E+00;  0.0000000E+00;  1.0000000E+03;  1.0000000E-01;  0.0000000E+00;0;  0.0000000E+00;  0.0000000E+00;  0.0000000E+00;0;  0.0000000E+00;  4.0000000E+04;  0.0000000E+00;  0.0000000E+00;  4.0000000E+04;  0.0000000E+00;  4.0000000E+04;  0.0000000E+00;  0.0000000E+00;  0.0000000E+00;  0.0000000E+00;
 -2.0000000E-01;  9.9999998E-03;  3.8000000E-01;82;  0.0000000E+00;  0.0000000E+00;  0.0000000E+00;  1.0000000E+03;  1.0000000E-01;  0.0000000E+00;0;  0.0000000E+00;  0.0000000E+00;  0.0000000E+00;0;  0.0000000E+00;  4.0000000E+04;  0.0000000E+00;  0.0000000E+00;  4.0000000E+04;  0.0000000E+00;  4.0000000E+04;  0.0000000E+00;  0.0000000E+00;  0.0000000E+00;  0.0000000E+00;
 -2.0000000E-01;  9.9999998E-03;  3.8999999E-01;83;  0.0000000E+00;  0.0000000E+00;  0.0000000E+00;  1.0000000E+03;  1.0000000E-01;  0.0000000E+00;0;  0.0000000E+00;  0.0000000E+00;  0.0000000E+00;0;  0.0000000E+00;  4.0000000E+04;  0.0000000E+00;  0.0000000E+00;  4.0000000E+04;  0.0000000E+00;  4.0000000E+04;  0.0000000E+00;  0.0000000E+00;  0.0000000E+00;  0.0000000E+00;
 -2.0000000E-01;  9.9999998E-03;  4.0000001E-01;84;  0.0000000E+00;  0.0000000E+00;  0.0000000E+00;  1.0000000E+03;  1.0000000E-01;  0.0000000E+00;0;  0.0000000E+00;  0.0000000E+00;  0.0000000E+00;0;  0.0000000E+00;  4.0000000E+04;  0.0000000E+00;  0.0000000E+00;  4.0000000E+04;  0.0000000E+00;  4.0000000E+04;  0.0000000E+00;  0.0000000E+00;  0.0000000E+00;  0.0000000E+00;
 -2.0000000E-01;  9.9999998E-03;  4.1000000E-01;85;  0.0000000E+00;  0.0000000E+00;  0.0000000E+00;  1.0000000E+03;  1.0000000E-01;  0.0000000E+00;0;  0.0000000E+00;  0.0000000E+00;  0.0000000E+00;0;  0.0000000E+00;  4.0000000E+04;  0.0000000E+00;  0.0000000E+00;  4.0000000E+04;  0.0000000E+00;  4.0000000E+04;  0.0000000E+00;  0.0000000E+00;  0.0000000E+00;  0.0000000E+00;
 -2.0000000E-01;  9.9999998E-03;  4.1999999E-01;86;  0.0000000E+00;  0.0000000E+00;  0.0000000E+00;  1.0000000E+03;  1.0000000E-01;  0.0000000E+00;0;  0.0000000E+00;  0.0000000E+00;  0.0000000E+00;0;  0.0000000E+00;  4.0000000E+04;  0.0000000E+00;  0.0000000E+00;  4.0000000E+04;  0.0000000E+00;  4.0000000E+04;  0.0000000E+00;  0.0000000E+00;  0.0000000E+00;  0.0000000E+00;
 -2.0000000E-01;  9.9999998E-03;  4.3000001E-01;87;  0.0000000E+00;  0.0000000E+00;  0.0000000E+00;  1.0000000E+03;  1.0000000E-01;  0.0000000E+00;0;  0.0000000E+00;  0.0000000E+00;  0.0000000E+00;0;  0.0000000E+00;  4.0000000E+04;  0.0000000E+00;  0.0000000E+00;  4.0000000E+04;  0.0000000E+00;  4.0000000E+04;  0.0000000E+00;  0.0000000E+00;  0.0000000E+00;  0.0000000E+00;
 -2.0000000E-01;  9.9999998E-03;  4.4000000E-01;88;  0.0000000E+00;  0.0000000E+00;  0.0000000E+00;  1.0000000E+03;  1.0000000E-01;  0.0000000E+00;0;  0.0000000E+00;  0.0000000E+00;  0.0000000E+00;0;  0.0000000E+00;  4.0000000E+04;  0.0000000E+00;  0.0000000E+00;  4.0000000E+04;  0.0000000E+00;  4.0000000E+04;  0.0000000E+00;  0.0000000E+00;  0.0000000E+00;  0.0000000E+00;
  2.9688634E-04;  9.9999998E-03; -2.8994781E-01;2448;  4.6624057E-04;  0.0000000E+00; -1.9366662E-04;  9.9569354E+02;  1.0000000E-01; -3.5678003E+03;3;  2.5431318E+01;  0.0000000E+00;  2.8302704E+01;0;  1.0319660E-02;  3.9662633E+04;  0.0000000E+00; -1.9323125E-01;  4.0000000E+04;  0.0000000E+00;  3.9989953E+04;  8.0762245E-03;  0.0000000E+00;  2.2434359E-03;  9.1672723E+02;
  8.1653852E-04;  9.9999998E-03; -2.7986726E-01;2449;  1.7948155E-03;  0.0000000E+00;  6.1426102E-04;  9.9463611E+02;  1.0000000E-01; -4.4438745E+03;3;  3.3483170E+01;  0.0000000E+00;  2.8721132E+01;0;  1.2005307E-02;  3.9572559E+04;  0.0000000E+00; -2.1098554E-01;  4.0000000E+04;  0.0000000E+00;  3.9997363E+04;  9.8334532E-03;  0.0000000E+00;  2.1718531E-03;  3.2451178E+02;
  9.8449877E-03;  9.9999998E-03; -2.9986921E-01;2507; -1.7704356E-04;  0.0000000E+00; -9.1271206E-05;  9.9716644E+02;  1.0000000E-01; -2.3475386E+03;3;  1.1935070E+01;  0.0000000E+00;  2.7335524E+01;0;  8.5376576E-03;  3.9786016E+04;  0.0000000E+00; -2.4935740E-01;  4.0000000E+04;  0.0000000E+00;  3.9983734E+04;  6.0905879E-03;  0.0000000E+00;  2.4470701E-03;  1.8243308E+03;
  1.0245793E-02;  9.9999998E-03; -2.8979105E-01;2508;  5.7931425E-04;  0.0000000E+00;  3.6900103E-04;  9.9641071E+02;  1.0000000E-01; -2.9736443E+03;3;  1.8086641E+01;  0.0000000E+00;  2.7016644E+01;0;  1.0105644E-02;  3.9720055E+04;  0.0000000E+00; -2.4740081E-01;  4.0000000E+04;  0.0000000E+00;  3.9990625E+04;  7.6280739E-03;  0.0000000E+00;  2.4775707E-03;  9.4988599E+02;
  1.0719023E-02;  9.9999998E-03; -2.7976325E-01;2509;  1.6150910E-03;  0.0000000E+00;  8.9333998E-04;  9.9559723E+02;  1.0000000E-01; -3.6476006E+03;3;  2.4502583E+01;  0.0000000E+00;  2.4635139E+01;0;  1.1530298E-02;  3.9647223E+04;  0.0000000E+00; -2.5715724E-01;  4.0000000E+04;  0.0000000E+00;  3.9998836E+04;  9.1878325E-03;  0.0000000E+00;  2.3424651E-03;  4.3125046E+02;
  1.9740228E-02;  9.9999998E-03; -2.9983285E-01;2568; -2.7059505E-04;  0.0000000E+00;  7.4319643E-05;  9.9777527E+02;  1.0000000E-01; -1.8431577E+03;3;  7.6751928E+00;  0.0000000E+00;  2.4300608E+01;0;  8.3483700E-03;  3.9834250E+04;  0.0000000E+00; -3.5009789E-01;  4.0000000E+04;  0.0000000E+00;  3.9984891E+04;  5.7841036E-03;  0.0000000E+00;  2.5642659E-03;  1.7480255E+03;
  2.0112613E-02;  9.9999998E-03; -2.8979179E-01;2569;  4.4181608E-04;  0.0000000E+00;  5.5592693E-04;  9.9725623E+02;  1.0000000E-01; -2.2731702E+03;3;  1.2080803E+01;  0.0000000E+00;  2.1641960E+01;0;  9.7097196E-03;  3.9784543E+04;  0.0000000E+00; -3.4473911E-01;  4.0000000E+04;  0.0000000E+00;  3.9992340E+04;  7.1354774E-03;  0.0000000E+00;  2.5742427E-03;  8.4940369E+02;
  2.0566290E-02;  9.9999998E-03; -2.7978402E-01;2570;  1.3408806E-03;  0.0000000E+00;  9.0379297E-04;  9.9670392E+02;  1.0000000E-01; -2.7307375E+03;3;  1.6492474E+01;  0.0000000E+00;  1.7667534E+01;0;  1.0887400E-02;  3.9732977E+04;  0.0000000E+00; -3.4962937E-01;  4.0000000E+04;  0.0000000E+00;  4.0001527E+04;  8.4889717E-03;  0.0000000E+00;  2.3984283E-03;  6.7478119E+02;
  2.9606501E-02;  9.9999998E-03; -2.9987761E-01;2629; -3.7669649E-04;  0.0000000E+00;  1.6061490E-04;  9.9836414E+02;  1.0000000E-01; -1.3552703E+03;3;  5.0640149E+00;  0.0000000E+00;  1.8946741E+01;0;  8.1683286E-03;  3.9878152E+04;  0.0000000E+00; -4.7292832E-01;  4.0000000E+04;  0.0000000E+00;  3.9986922E+04;  5.5959872E-03;  0.0000000E+00;  2.5723418E-03;  1.5841699E+03;
  2.9958492E-02;  9.9999998E-03; -2.8985274E-01;2630;  2.0184144E-04;  0.0000000E+00;  4.5345354E-04;  9.9806641E+02;  1.0000000E-01; -1.6019301E+03;3;  8.1495934E+00;  0.0000000E+00;  1.4678456E+01;0;  9.3546025E-03;  3.9846738E+04;  0.0000000E+00; -4.6712053E-01;  4.0000000E+04;  0.0000000E+00;  3.9994410E+04;  6.7949737E-03;  0.0000000E+00;  2.5596288E-03;  7.8953656E+02;
  3.0411655E-02;  9.9999998E-03; -2.7984157E-01;2631;  1.0671053E-03;  0.0000000E+00;  7.8828982E-04;  9.9777423E+02;  1.0000000E-01; -1.8439972E+03;3;  1.0409196E+01;  0.0000000E+00;  9.5902023E+00;0;  1.0332154E-02;  3.9815199E+04;  0.0000000E+00; -4.6329141E-01;  4.0000000E+04;  0.0000000E+00;  4.0003562E+04;  7.9682861E-03;  0.0000000E+00;  2.3638683E-03;  9.5930560E+02;
  3.9489817E-02;  9.9999998E-03; -2.9994208E-01;2690; -4.6901871E-04;  0.0000000E+00;  1.3159073E-04;  9.9881573E+02;  1.0000000E-01; -9.8115741E+02;3;  4.2132831E+00;  0.0000000E+00;  1.3113683E+01;0;  8.1250099E-03;  3.9911195E+04;  0.0000000E+00; -5.9766233E-01;  4.0000000E+04;  0.0000000E+00;  3.9989324E+04;  5.6384141E-03;  0.0000000E+00;  2.4865961E-03;  1.4292303E+03;
  3.9827678E-02;  9.9999998E-03; -2.8992325E-01;2691; -6.7752924E-05;  0.0000000E+00;  1.5981315E-04;  9.9871124E+02;  1.0000000E-01; -1.0677229E+03;3;  6.2303963E+00;  0.0000000E+00;  7.8769374E+00;0;  9.1967322E-03;  3.9895762E+04;  0.0000000E+00; -5.8554512E-01;  4.0000000E+04;  0.0000000E+00;  3.9996555E+04;  6.7332624E-03;  0.0000000E+00;  2.4634702E-03;  8.4414844E+02;
  4.0286720E-02;  9.9999998E-03; -2.7989519E-01;2692;  7.9741864E-04;  0.0000000E+00;  5.6128233E-04;  9.9864819E+02;  1.0000000E-01; -1.1199684E+03;3;  6.8545794E+00;  0.0000000E+00;  1.9012020E+00;0;  1.0037139E-02;  3.9882355E+04;  0.0000000E+00; -5.5899847E-01;  4.0000000E+04;  0.0000000E+00;  4.0005758E+04;  7.7803405E-03;  0.0000000E+00;  2.2567990E-03;  1.2096621E+03;
  4.9415424E-02;  9.9999998E-03; -2.9999262E-01;2751; -5.2605069E-04;  0.0000000E+00;  2.8033448E-05;  9.9907123E+02;  1.0000000E-01; -7.6945972E+02;3;  4.7836843E+00;  0.0000000E+00;  8.1955099E+00;0;  8.2903905E-03;  3.9929672E+04;  0.0000000E+00; -7.0741230E-01;  4.0000000E+04;  0.0000000E+00;  3.9991168E+04;  5.9566065E-03;  0.0000000E+00;  2.3337842E-03;  1.3478510E+03;
  4.9743842E-02;  9.9999998E-03; -2.8997788E-01;2752; -1.4176188E-04;  0.0000000E+00; -2.1911053E-05;  9.9911432E+02;  1.0000000E-01; -7.3375702E+02;3;  5.7697568E+00;  0.0000000E+00;  1.9735985E+00;0;  9.2953751E-03;  3.9925648E+04;  0.0000000E+00; -6.7522347E-01;  4.0000000E+04;  0.0000000E+00;  3.9998918E+04;  6.9926279E-03;  0.0000000E+00;  2.3027475E-03;  9.5812939E+02;
  5.0196223E-02;  9.9999998E-03; -2.7994648E-01;2753;  5.2684569E-04;  0.0000000E+00;  2.1575722E-04;  9.9923035E+02;  1.0000000E-01; -6.3766095E+02;3;  5.7681022E+00;  0.0000000E+00; -4.3245730E+00;0;  1.0074651E-02;  3.9927105E+04;  0.0000000E+00; -6.0413295E-01;  4.0000000E+04;  0.0000000E+00;  4.0008305E+04;  7.9766260E-03;  0.0000000E+00;  2.0980246E-03;  1.3776219E+03;
  5.9383400E-02;  9.9999998E-03; -3.0003846E-01;2812; -5.3574581E-04;  0.0000000E+00; -1.0514639E-04;  9.9910614E+02;  1.0000000E-01; -7.4052228E+02;3;  6.3227887E+00;  0.0000000E+00;  5.2391458E+00;0;  8.6656678E-03;  3.9930977E+04;  0.0000000E+00; -7.6781219E-01;  4.0000000E+04;  0.0000000E+00;  3.9992637E+04;  6.5233121E-03;  0.0000000E+00;  2.1423558E-03;  1.3269635E+03;
  5.9712809E-02;  9.9999998E-03; -2.9001424E-01;2813; -1.4198202E-04;  0.0000000E+00; -1.4303740E-04;  9.9924860E+02;  1.0000000E-01; -6.2250092E+02;3;  6.8469515E+00;  0.0000000E+00; -2.0842190E+00;0;  9.6505620E-03;  3.9935113E+04;  0.0000000E+00; -6.9850880E-01;  4.0000000E+04;  0.0000000E+00;  4.0000453E+04;  7.5537339E-03;  0.0000000E+00;  2.0968283E-03;  1.0109229E+03;
  6.0143750E-02;  9.9999998E-03; -2.7999443E-01;2814;  3.6317654E-04;  0.0000000E+00; -8.2053994E-05;  9.9947681E+02;  1.0000000E-01; -4.3346921E+02;3;  6.6277270E+00;  0.0000000E+00; -8.7867022E+00;0;  1.0407795E-02;  3.9946500E+04;  0.0000000E+00; -5.6469506E-01;  4.0000000E+04;  0.0000000E+00;  4.0008410E+04;  8.5086897E-03;  0.0000000E+00;  1.8991055E-03;  1.4258365E+03;
  6.9398545E-02;  9.9999998E-03; -3.0008432E-01;2873; -4.8896793E-04;  0.0000000E+00; -2.4258885E-04;  9.9892810E+02;  1.0000000E-01; -8.8802429E+02;3;  8.3772011E+00;  0.0000000E+00;  4.9190259E+00;0;  9.1926530E-03;  3.9917121E+04;  0.0000000E+00; -6.8535167E-01;  4.0000000E+04;  0.0000000E+00;  3.9992801E+04;  7.2533432E-03;  0.0000000E+00;  1.9393100E-03;  1.2564381E+03;
  6.9731280E-02;  9.9999998E-03; -2.9004410E-01;2874; -9.1780486E-05;  0.0000000E+00; -2.5615457E-04;  9.9912231E+02;  1.0000000E-01; -7.2713995E+02;3;  8.8587456E+00;  0.0000000E+00; -3.5499649E+00;0;  1.0184907E-02;  3.9925000E+04;  0.0000000E+00; -5.6040710E-01;  4.0000000E+04;  0.0000000E+00;  4.0000711E+04;  8.3133569E-03;  0.0000000E+00;  1.8715505E-03;  8.2321307E+02;
  7.0140474E-02;  9.9999998E-03; -2.8003502E-01;2875;  3.9030582E-04;  0.0000000E+00; -2.2994707E-04;  9.9942493E+02;  1.0000000E-01; -4.7643097E+02;3;  8.3599386E+00;  0.0000000E+00; -1.1087097E+01;0;  1.0927524E-02;  3.9942410E+04;  0.0000000E+00; -3.5890442E-01;  4.0000000E+04;  0.0000000E+00;  4.0009352E+04;  9.2603257E-03;  0.0000000E+00;  1.6671992E-03;  1.3123077E+03;
  7.9468921E-02;  9.9999998E-03; -3.0012608E-01;2934; -3.8036329E-04;  0.0000000E+00; -3.5933845E-04;  9.9858337E+02;  1.0000000E-01; -1.1736459E+03;3;  1.0625942E+01;  0.0000000E+00;  7.4235396E+00;0;  9.7722961E-03;  3.9892688E+04;  0.0000000E+00; -2.8300577E-01;  4.0000000E+04;  0.0000000E+00;  3.9990492E+04;  8.0258474E-03;  0.0000000E+00;  1.7464487E-03;  1.1442904E+03;
  7.9804912E-02;  9.9999998E-03; -2.9007125E-01;2935;  1.9401945E-05;  0.0000000E+00; -3.5206240E-04;  9.9879926E+02;  1.0000000E-01; -9.9478668E+02;3;  1.1229197E+01;  0.0000000E+00; -2.3807666E+00;0;  1.0769302E-02;  3.9900914E+04;  0.0000000E+00; -8.4472433E-02;  4.0000000E+04;  0.0000000E+00;  3.9999613E+04;  9.1225877E-03;  0.0000000E+00;  1.6467148E-03;  1.3262897E+02;
  8.0196597E-02;  9.9999998E-03; -2.8007120E-01;2936;  5.5871659E-04;  0.0000000E+00; -3.1001723E-04;  9.9913550E+02;  1.0000000E-01; -7.1622668E+02;3;  1.0406317E+01;  0.0000000E+00; -1.0979309E+01;0;  1.1484090E-02;  3.9920391E+04;  0.0000000E+00;  1.6946462E-01;  4.0000000E+04;  0.0000000E+00;  4.0008391E+04;  1.0064337E-02;  0.0000000E+00;  1.4197531E-03;  1.1846428E+03;
  8.9603893E-02;  9.9999998E-03; -3.0015182E-01;2995; -2.0729064E-04;  0.0000000E+00; -4.2925001E-04;  9.9814703E+02;  1.0000000E-01; -1.5351665E+03;3;  1.2955533E+01;  0.0000000E+00;  1.2428602E+01;0;  1.0291399E-02;  3.9861660E+04;  0.0000000E+00;  7.0109135E-01;  4.0000000E+04;  0.0000000E+00;  3.9985844E+04;  8.7153502E-03;  0.0000000E+00;  1.5760497E-03;  1.9069501E+03;
  8.9939557E-02;  9.9999998E-03; -2.9008472E-01;2996;  2.1396749E-04;  0.0000000E+00; -4.0708977E-04;  9.9835040E+02;  1.0000000E-01; -1.3666774E+03;3;  1.3573008E+01;  0.0000000E+00;  1.1171671E+00;0;  1.1260026E-02;  3.9868270E+04;  0.0000000E+00;  9.8397171E-01;  4.0000000E+04;  0.0000000E+00;  3.9996742E+04;  9.8283608E-03;  0.0000000E+00;  1.4316656E-03;  1.4420281E+03;
  9.0315774E-02;  9.9999998E-03; -2.8009313E-01;2997;  9.0528507E-04;  0.0000000E+00; -2.8566775E-04;  9.9869781E+02;  1.0000000E-01; -1.0788337E+03;3;  1.2318188E+01;  0.0000000E+00; -8.9354534E+00;0;  1.1909205E-02;  3.9887156E+04;  0.0000000E+00;  1.2453982E+00;  4.0000000E+04;  0.0000000E+00;  4.0006781E+04;  1.0749504E-02;  0.0000000E+00;  1.1597010E-03;  2.0636133E+03;
  9.9820733E-02;  9.9999998E-03; -3.0013746E-01;3056;  3.2921645E-05;  0.0000000E+00; -4.1989196E-04;  9.9764807E+02;  1.0000000E-01; -1.9485375E+03;3;  1.5558448E+01;  0.0000000E+00;  1.9554775E+01;0;  1.0651920E-02;  3.9828590E+04;  0.0000000E+00;  2.5861197E+00;  4.0000000E+04;  0.0000000E+00;  3.9979484E+04;  9.2285899E-03;  0.0000000E+00;  1.4233298E-03;  4.4175244E+03;
  1.0015338E-01;  9.9999998E-03; -2.9004964E-01;3057;  6.1568187E-04;  0.0000000E+00; -3.2763981E-04;  9.9784125E+02;  1.0000000E-01; -1.7884927E+03;3;  1.5714186E+01;  0.0000000E+00;  6.2466030E+00;0;  1.1557050E-02;  3.9832172E+04;  0.0000000E+00;  2.9438782E+00;  4.0000000E+04;  0.0000000E+00;  3.9993406E+04;  1.0347420E-02;  0.0000000E+00;  1.2096299E-03;  4.2926504E+03;
  1.0051616E-01;  9.9999998E-03; -2.8005561E-01;3058;  1.7138736E-03;  0.0000000E+00;  5.4971184E-05;  9.9820361E+02;  1.0000000E-01; -1.4882542E+03;3;  1.3940282E+01;  0.0000000E+00; -6.0811214E+00;0;  1.2103853E-02;  3.9849543E+04;  0.0000000E+00;  3.1244626E+00;  4.0000000E+04;  0.0000000E+00;  4.0005859E+04;  1.1259664E-02;  0.0000000E+00;  8.4418914E-04;  4.5820269E+03;
  1.1014810E-01;  9.9999998E-03; -3.0001035E-01;3117;  5.5429508E-04;  0.0000000E+00; -1.9274096E-04;  9.9709076E+02;  1.0000000E-01; -2.4102529E+03;3;  1.8300755E+01;  0.0000000E+00;  2.7515848E+01;0;  1.0885547E-02;  3.9791379E+04;  0.0000000E+00;  5.7058682E+00;  4.0000000E+04;  0.0000000E+00;  3.9973445E+04;  9.6543645E-03;  0.0000000E+00;  1.2311824E-03;  8.7724922E+03;
  1.1047648E-01;  9.9999998E-03; -2.8988111E-01;3118;  1.9354681E-03;  0.0000000E+00;  4.8052432E-04;  9.9730768E+02;  1.0000000E-01; -2.2305542E+03;3;  1.7699663E+01;  0.0000000E+00;  1.0238751E+01;0;  1.1810252E-02;  3.9792520E+04;  0.0000000E+00;  6.0886436E+00;  4.0000000E+04;  0.0000000E+00;  3.9990730E+04;  1.1003776E-02;  0.0000000E+00;  8.0647739E-04;  8.8174912E+03;
  1.1078613E-01;  9.9999998E-03; -2.7990410E-01;3119;  2.7554044E-03;  0.0000000E+00;  5.8627565E-04;  9.9770648E+02;  1.0000000E-01; -1.9001438E+03;3;  1.5055822E+01;  0.0000000E+00; -4.9325538E+00;0;  1.2058953E-02;  3.9810863E+04;  0.0000000E+00;  6.0310059E+00;  4.0000000E+04;  0.0000000E+00;  4.0006520E+04;  1.1636364E-02;  0.0000000E+00;  4.2258855E-04;  8.7534268E+03;
  1.2056158E-01;  9.9999998E-03; -2.9970905E-01;3178;  2.0712288E-03;  0.0000000E+00;  9.0059784E-04;  9.9646240E+02;  1.0000000E-01; -2.9308308E+03;3;  2.1250376E+01;  0.0000000E+00;  2.9242201E+01;0;  1.1514891E-02;  3.9742336E+04;  0.0000000E+00;  1.0440721E+01;  4.0000000E+04;  0.0000000E+00;  3.9974031E+04;  1.0850536E-02;  0.0000000E+00;  6.6435570E-04;  1.5334799E+04;
  1.2073151E-01;  9.9999998E-03; -2.8965318E-01;3179;  2.6298307E-03;  0.0000000E+00;  8.4529951E-04;  9.9682257E+02;  1.0000000E-01; -2.6324194E+03;3;  1.9144405E+01;  0.0000000E+00;  9.3579121E+00;0;  1.1838082E-02;  3.9752590E+04;  0.0000000E+00;  1.0673942E+01;  4.0000000E+04;  0.0000000E+00;  3.9993840E+04;  1.1501178E-02;  0.0000000E+00;  3.3690408E-04;  1.5420134E+04;
  1.2090154E-01;  9.9999998E-03; -2.7973893E-01;3180;  3.0099885E-03;  0.0000000E+00;  6.8802276E-04;  9.9732520E+02;  1.0000000E-01; -2.2160361E+03;3;  1.5792624E+01;  0.0000000E+00; -6.2733378E+00;0;  1.1659523E-02;  3.9777086E+04;  0.0000000E+00;  1.0105030E+01;  4.0000000E+04;  0.0000000E+00;  4.0010859E+04;  1.1653705E-02;  0.0000000E+00;  5.8179721E-06;  1.4689436E+04;
  1.3077663E-01;  9.9999998E-03; -2.9947481E-01;3239;  2.6125438E-03;  0.0000000E+00;  1.1791297E-03;  9.9594092E+02;  1.0000000E-01; -3.3628679E+03;3;  2.4336254E+01;  0.0000000E+00;  2.4559870E+01;0;  1.1897168E-02;  3.9693980E+04;  0.0000000E+00;  1.7107634E+01;  4.0000000E+04;  0.0000000E+00;  3.9983043E+04;  1.1827412E-02;  0.0000000E+00;  6.9756061E-05;  2.4771939E+04;
  1.3079022E-01;  9.9999998E-03; -2.8946188E-01;3240;  2.8741830E-03;  0.0000000E+00;  9.6763496E-04;  9.9653467E+02;  1.0000000E-01; -2.8709805E+03;3;  2.1582033E+01;  0.0000000E+00;  3.3337662E+00;0;  1.1653366E-02;  3.9720941E+04;  0.0000000E+00;  1.6912142E+01;  4.0000000E+04;  0.0000000E+00;  4.0004438E+04;  1.1848983E-02;  0.0000000E+00; -1.9561732E-04;  2.4490844E+04;
  1.3087554E-01;  9.9999998E-03; -2.7957815E-01;3241;  3.0806812E-03;  0.0000000E+00;  7.3663279E-04;  9.9713336E+02;  1.0000000E-01; -2.3749451E+03;3;  1.7447309E+01;  0.0000000E+00; -1.1574017E+01;0;  1.1079071E-02;  3.9753238E+04;  0.0000000E+00;  1.5408001E+01;  4.0000000E+04;  0.0000000E+00;  4.0020430E+04;  1.1536416E-02;  0.0000000E+00; -4.5734411E-04;  2.2510414E+04;
  1.4086492E-01;  9.9999998E-03; -2.9928643E-01;3300;  2.8807626E-03;  0.0000000E+00;  1.2708550E-03;  9.9560040E+02;  1.0000000E-01; -3.6449834E+03;3;  3.1690113E+01;  0.0000000E+00;  1.2267014E+01;0;  1.2286069E-02;  3.9648160E+04;  0.0000000E+00;  2.6089956E+01;  4.0000000E+04;  0.0000000E+00;  4.0005141E+04;  1.2943517E-02;  0.0000000E+00; -6.5744855E-04;  3.7721391E+04;
  1.4075053E-01;  9.9999998E-03; -2.8930324E-01;3301;  2.9136140E-03;  0.0000000E+00;  9.6451864E-04;  9.9650153E+02;  1.0000000E-01; -2.8984365E+03;3;  2.7535192E+01;  0.0000000E+00; -9.4852581E+00;0;  1.1398122E-02;  3.9698996E+04;  0.0000000E+00;  2.5031706E+01;  4.0000000E+04;  0.0000000E+00;  4.0024559E+04;  1.2183527E-02;  0.0000000E+00; -7.8540435E-04;  3.6449152E+04;
  1.4078692E-01;  9.9999998E-03; -2.7943647E-01;3302;  2.9917816E-03;  0.0000000E+00;  6.9732853E-04;  9.9717401E+02;  1.0000000E-01; -2.3412671E+03;3;  2.1460897E+01;  0.0000000E+00; -2.1786545E+01;0;  1.0437138E-02;  3.9739516E+04;  0.0000000E+00;  2.1960052E+01;  4.0000000E+04;  0.0000000E+00;  4.0038266E+04;  1.1365490E-02;  0.0000000E+00; -9.2835212E-04;  3.2311271E+04;
  1.5089405E-01;  9.9999998E-03; -2.9927531E-01;3361;  2.9370261E-03;  0.0000000E+00;  1.0591210E-03;  9.9533502E+02;  1.0000000E-01; -3.8648289E+03;3;  4.5750477E+01;  0.0000000E+00;  1.7865887E-01;0;  1.2886599E-02;  3.9603742E+04;  0.0000000E+00;  3.6670525E+01;  4.0000000E+04;  0.0000000E+00;  4.0030246E+04;  1.4148101E-02;  0.0000000E+00; -1.2615025E-03;  5.3162762E+04;
  1.5067163E-01;  9.9999998E-03; -2.8928676E-01;3362;  2.7758025E-03;  0.0000000E+00;  7.0146361E-04;  9.9664972E+02;  1.0000000E-01; -2.7756252E+03;3;  3.8785282E+01;  0.0000000E+00; -2.3534039E+01;0;  1.1285430E-02;  3.9686805E+04;  0.0000000E+00;  3.4666130E+01;  4.0000000E+04;  0.0000000E+00;  4.0049840E+04;  1.2473706E-02;  0.0000000E+00; -1.1882759E-03;  5.0728980E+04;
  1.5068406E-01;  9.9999998E-03; -2.7939597E-01;3363;  2.7321323E-03;  0.0000000E+00;  4.6660556E-04;  9.9739294E+02;  1.0000000E-01; -2.1598896E+03;3;  2.8912886E+01;  0.0000000E+00; -3.3654400E+01;0;  9.8957615E-03;  3.9735012E+04;  0.0000000E+00;  2.9439077E+01;  4.0000000E+04;  0.0000000E+00;  4.0059598E+04;  1.1126940E-02;  0.0000000E+00; -1.2311789E-03;  4.3591672E+04;
  1.6107395E-01;  9.9999998E-03; -2.9953754E-01;3422;  3.2522432E-03;  0.0000000E+00;  7.2676456E-04;  9.9428900E+02;  1.0000000E-01; -4.7314712E+03;3;  6.1545601E+01;  0.0000000E+00;  1.0527829E+01;0;  1.4960730E-02;  3.9518285E+04;  0.0000000E+00;  4.3813400E+01;  4.0000000E+04;  0.0000000E+00;  4.0031828E+04;  1.6613133E-02;  0.0000000E+00; -1.6524028E-03;  6.3605281E+04;
  1.6070472E-01;  9.9999998E-03; -2.8950602E-01;3423;  2.7759792E-03;  0.0000000E+00;  2.5366229E-04;  9.9642126E+02;  1.0000000E-01; -2.9649038E+03;3;  5.2304855E+01;  0.0000000E+00; -2.2099636E+01;0;  1.2118009E-02;  3.9661473E+04;  0.0000000E+00;  4.2841881E+01;  4.0000000E+04;  0.0000000E+00;  4.0056594E+04;  1.3289290E-02;  0.0000000E+00; -1.1712803E-03;  6.2782969E+04;
  1.6067727E-01;  9.9999998E-03; -2.7953097E-01;3424;  2.4455925E-03;  0.0000000E+00;  2.8875122E-05;  9.9742767E+02;  1.0000000E-01; -2.1311003E+03;3;  3.8431107E+01;  0.0000000E+00; -3.7082367E+01;0;  9.8735308E-03;  3.9726461E+04;  0.0000000E+00;  3.6157040E+01;  4.0000000E+04;  0.0000000E+00;  4.0070867E+04;  1.0968541E-02;  0.0000000E+00; -1.0950103E-03;  5.3691859E+04;
  1.7153728E-01;  9.9999998E-03; -2.9982707E-01;3483;  3.5370411E-03;  0.0000000E+00;  6.8810041E-04;  9.9171143E+02;  1.0000000E-01; -6.8669170E+03;3;  6.9175285E+01;  0.0000000E+00;  4.4840454E+01;0;  1.7262500E-02;  3.9331309E+04;  0.0000000E+00;  4.0426739E+01;  4.0000000E+04;  0.0000000E+00;  4.0012895E+04;  1.9769004E-02;  0.0000000E+00; -2.5065043E-03;  5.9011383E+04;
  1.7104308E-01;  9.9999998E-03; -2.8983709E-01;3484;  3.4650217E-03;  0.0000000E+00;  5.9130882E-05;  9.9495758E+02;  1.0000000E-01; -4.1775610E+03;3;  5.8801064E+01;  0.0000000E+00;  6.1320677E+00;0;  1.5191708E-02;  3.9567988E+04;  0.0000000E+00;  4.3106415E+01;  4.0000000E+04;  0.0000000E+00;  4.0031348E+04;  1.6461918E-02;  0.0000000E+00; -1.2702101E-03;  6.3507805E+04;
  1.7085595E-01;  9.9999998E-03; -2.7981415E-01;3485;  2.4667080E-03;  0.0000000E+00; -3.6081611E-04;  9.9677655E+02;  1.0000000E-01; -2.6705911E+03;3;  4.3879467E+01;  0.0000000E+00; -2.0872759E+01;0;  1.0982365E-02;  3.9690625E+04;  0.0000000E+00;  3.8358295E+01;  4.0000000E+04;  0.0000000E+00;  4.0052992E+04;  1.1583868E-02;  0.0000000E+00; -6.0150318E-04;  5.7107277E+04;
  1.8178748E-01;  9.9999998E-03; -2.9988763E-01;3544;  2.5132762E-03;  0.0000000E+00;  1.6377059E-04;  9.8998212E+02;  1.0000000E-01; -8.2996172E+03;3;  7.4801826E+01;  0.0000000E+00;  5.9057507E+01;0;  1.5485140E-02;  3.9183957E+04;  0.0000000E+00;  3.3047729E+01;  4.0000000E+04;  0.0000000E+00;  4.0020238E+04;  1.7282583E-02;  0.0000000E+00; -1.7974433E-03;  4.8631184E+04;
  1.8150058E-01;  9.9999998E-03; -2.8999025E-01;3545;  3.6097046E-03;  0.0000000E+00;  5.9846850E-05;  9.9294141E+02;  1.0000000E-01; -5.8479336E+03;3;  5.7117268E+01;  0.0000000E+00;  3.3806633E+01;0;  1.6894039E-02;  3.9424348E+04;  0.0000000E+00;  3.4420361E+01;  4.0000000E+04;  0.0000000E+00;  4.0013801E+04;  1.8565347E-02;  0.0000000E+00; -1.6713089E-03;  5.1745023E+04;
  1.8118416E-01;  9.9999998E-03; -2.8003582E-01;3546;  2.8915969E-03;  0.0000000E+00; -3.6433424E-04;  9.9551074E+02;  1.0000000E-01; -3.7192529E+03;3;  4.1387444E+01;  0.0000000E+00;  6.1298947E+00;0;  1.2883816E-02;  3.9619902E+04;  0.0000000E+00;  3.3744785E+01;  4.0000000E+04;  0.0000000E+00;  4.0021461E+04;  1.3462346E-02;  0.0000000E+00; -5.7853025E-04;  5.0943969E+04;
  1.9173580E-01;  9.9999998E-03; -2.9995900E-01;3605;  2.0366893E-03;  0.0000000E+00; -4.8579532E-04;  9.8965356E+02;  1.0000000E-01; -8.5718066E+03;3;  6.9197662E+01;  0.0000000E+00;  6.6566734E+01;0;  1.6572300E-02;  3.9151820E+04;  0.0000000E+00;  2.6098072E+01;  4.0000000E+04;  0.0000000E+00;  4.0018246E+04;  1.6037853E-02;  0.0000000E+00;  5.3444714E-04;  3.7799062E+04;
  1.9167353E-01;  9.9999998E-03; -2.9002038E-01;3606;  2.7627472E-03;  0.0000000E+00; -2.7787601E-04;  9.9205432E+02;  1.0000000E-01; -6.5828262E+03;3;  5.2148258E+01;  0.0000000E+00;  4.2822987E+01;0;  1.6017962E-02;  3.9350043E+04;  0.0000000E+00;  2.4956532E+01;  4.0000000E+04;  0.0000000E+00;  4.0013879E+04;  1.6622774E-02;  0.0000000E+00; -6.0481206E-04;  3.8393043E+04;
  1.9140211E-01;  9.9999998E-03; -2.8011420E-01;3607;  3.2749490E-03;  0.0000000E+00; -3.2137183E-04;  9.9460828E+02;  1.0000000E-01; -4.4669355E+03;3;  3.4836849E+01;  0.0000000E+00;  2.3605597E+01;0;  1.4820947E-02;  3.9565746E+04;  0.0000000E+00;  2.6377071E+01;  4.0000000E+04;  0.0000000E+00;  4.0002719E+04;  1.5416296E-02;  0.0000000E+00; -5.9534912E-04;  4.0798039E+04;
  2.0163943E-01;  9.9999998E-03; -3.0003989E-01;3666;  2.8611564E-03;  0.0000000E+00; -4.3107948E-04;  9.8975726E+02;  1.0000000E-01; -8.4859326E+03;3;  5.6902493E+01;  0.0000000E+00;  7.5081627E+01;0;  2.1488121E-02;  3.9163883E+04;  0.0000000E+00;  2.1530174E+01;  4.0000000E+04;  0.0000000E+00;  4.0012117E+04;  2.0901216E-02;  0.0000000E+00;  5.8690482E-04;  2.9461471E+04;
  2.0162769E-01;  9.9999998E-03; -2.9006532E-01;3667;  2.8648702E-03;  0.0000000E+00; -4.1565587E-04;  9.9206787E+02;  1.0000000E-01; -6.5716167E+03;3;  4.1654057E+01;  0.0000000E+00;  4.8680431E+01;0;  1.7869269E-02;  3.9354324E+04;  0.0000000E+00;  1.8783693E+01;  4.0000000E+04;  0.0000000E+00;  4.0009090E+04;  1.7588498E-02;  0.0000000E+00;  2.8077140E-04;  2.8511572E+04;
  2.0146170E-01;  9.9999998E-03; -2.8012758E-01;3668;  3.6456981E-03;  0.0000000E+00; -3.5518894E-04;  9.9436511E+02;  1.0000000E-01; -4.6684111E+03;3;  2.7198059E+01;  0.0000000E+00;  3.0687063E+01;0;  1.6904160E-02;  3.9552805E+04;  0.0000000E+00;  2.0257162E+01;  4.0000000E+04;  0.0000000E+00;  3.9996234E+04;  1.7102432E-02;  0.0000000E+00; -1.9827124E-04;  3.1895006E+04;
  2.1158044E-01;  9.9999998E-03; -3.0005437E-01;3727;  3.7649823E-03;  0.0000000E+00; -3.5153775E-04;  9.9039185E+02;  1.0000000E-01; -7.9601699E+03;3;  4.3477173E+01;  0.0000000E+00;  7.1035400E+01;0;  2.6012529E-02;  3.9211871E+04;  0.0000000E+00;  1.7386366E+01;  4.0000000E+04;  0.0000000E+00;  4.0014355E+04;  2.5512967E-02;  0.0000000E+00;  4.9956131E-04;  2.1998922E+04;
  2.1157357E-01;  9.9999998E-03; -2.9007342E-01;3728;  3.5949028E-03;  0.0000000E+00; -3.2126546E-04;  9.9252594E+02;  1.0000000E-01; -6.1921211E+03;3;  3.0600531E+01;  0.0000000E+00;  4.7654644E+01;0;  2.0594632E-02;  3.9390844E+04;  0.0000000E+00;  1.4572885E+01;  4.0000000E+04;  0.0000000E+00;  4.0008172E+04;  2.0465109E-02;  0.0000000E+00;  1.2952334E-04;  2.1357738E+04;
  2.1147822E-01;  9.9999998E-03; -2.8010926E-01;3729;  3.6616633E-03;  0.0000000E+00; -3.1000809E-04;  9.9452087E+02;  1.0000000E-01; -4.5393286E+03;3;  1.9624666E+01;  0.0000000E+00;  2.9950377E+01;0;  1.7113844E-02;  3.9564070E+04;  0.0000000E+00;  1.5270424E+01;  4.0000000E+04;  0.0000000E+00;  3.9998176E+04;  1.7165832E-02;  0.0000000E+00; -5.1987707E-05;  2.4206225E+04;
  2.2155599E-01;  9.9999998E-03; -3.0004138E-01;3788;  3.8211835E-03;  0.0000000E+00; -2.0727549E-04;  9.9138885E+02;  1.0000000E-01; -7.1341685E+03;3;  2.9862837E+01;  0.0000000E+00;  5.9910511E+01;0;  2.4353314E-02;  3.9287191E+04;  0.0000000E+00;  1.3187722E+01;  4.0000000E+04;  0.0000000E+00;  4.0020270E+04;  2.4560099E-02;  0.0000000E+00; -2.0678609E-04;  1.5840152E+04;
  2.2154923E-01;  9.9999998E-03; -2.9005933E-01;3789;  3.6798851E-03;  0.0000000E+00; -2.0945974E-04;  9.9324805E+02;  1.0000000E-01; -5.5938667E+03;3;  2.0047895E+01;  0.0000000E+00;  4.0583893E+01;0;  1.9659996E-02;  3.9445680E+04;  0.0000000E+00;  1.0650870E+01;  4.0000000E+04;  0.0000000E+00;  4.0012527E+04;  1.9924315E-02;  0.0000000E+00; -2.6431901E-04;  1.5230825E+04;
  2.2148684E-01;  9.9999998E-03; -2.8008303E-01;3790;  3.6046959E-03;  0.0000000E+00; -2.5129065E-04;  9.9492572E+02;  1.0000000E-01; -4.2039307E+03;3;  1.2309082E+01;  0.0000000E+00;  2.5061117E+01;0;  1.6434826E-02;  3.9592586E+04;  0.0000000E+00;  1.0947298E+01;  4.0000000E+04;  0.0000000E+00;  4.0003430E+04;  1.6410500E-02;  0.0000000E+00;  2.4326029E-05;  1.7447994E+04;
  2.3154531E-01;  9.9999998E-03; -3.0002224E-01;3849;  3.7583378E-03;  0.0000000E+00; -1.4126828E-04;  9.9262604E+02;  1.0000000E-01; -6.1092100E+03;3;  1.7176537E+01;  0.0000000E+00;  4.5845470E+01;0;  2.1898691E-02;  3.9382754E+04;  0.0000000E+00;  8.7460260E+00;  4.0000000E+04;  0.0000000E+00;  4.0026027E+04;  2.2307711E-02;  0.0000000E+00; -4.0902052E-04;  1.0629553E+04;
  2.3153538E-01;  9.9999998E-03; -2.9003868E-01;3850;  3.6292872E-03;  0.0000000E+00; -1.7397577E-04;  9.9417603E+02;  1.0000000E-01; -4.8250488E+03;3;  1.0525231E+01;  0.0000000E+00;  3.0951212E+01;0;  1.8176112E-02;  3.9517297E+04;  0.0000000E+00;  6.7977509E+00;  4.0000000E+04;  0.0000000E+00;  4.0017289E+04;  1.8286623E-02;  0.0000000E+00; -1.1051120E-04;  1.0020188E+04;
  2.3148368E-01;  9.9999998E-03; -2.8005600E-01;3851;  3.5640034E-03;  0.0000000E+00; -2.3551007E-04;  9.9553711E+02;  1.0000000E-01; -3.6974263E+03;3;  5.8049226E+00;  0.0000000E+00;  1.8638811E+01;0;  1.5683809E-02;  3.9638008E+04;  0.0000000E+00;  7.3311329E+00;  4.0000000E+04;  0.0000000E+00;  4.0008820E+04;  1.5249684E-02;  0.0000000E+00;  4.3412513E-04;  1.2038217E+04;
  2.4153167E-01;  9.9999998E-03; -3.0000708E-01;3910;  3.6803894E-03;  0.0000000E+00; -8.4604762E-05;  9.9396313E+02;  1.0000000E-01; -5.0014390E+03;3;  6.2947192E+00;  0.0000000E+00;  3.2401531E+01;0;  1.9131511E-02;  3.9489109E+04;  0.0000000E+00;  4.5322213E+00;  4.0000000E+04;  0.0000000E+00;  4.0029227E+04;  1.9700527E-02;  0.0000000E+00; -5.6901562E-04;  6.5603218E+03;
  2.4151620E-01;  9.9999998E-03; -2.9002064E-01;3911;  3.5920546E-03;  0.0000000E+00; -1.2202351E-04;  9.9521289E+02;  1.0000000E-01; -3.9660112E+03;3;  2.6107986E+00;  0.0000000E+00;  2.1566236E+01;0;  1.6292213E-02;  3.9600027E+04;  0.0000000E+00;  3.4123104E+00;  4.0000000E+04;  0.0000000E+00;  4.0020914E+04;  1.6414668E-02;  0.0000000E+00; -1.2245669E-04;  6.0416079E+03;
  2.4146564E-01;  9.9999998E-03; -2.8003311E-01;3912;  3.5885854E-03;  0.0000000E+00; -1.5595471E-04;  9.9626904E+02;  1.0000000E-01; -3.0910237E+03;3;  4.7467697E-01;  0.0000000E+00;  1.2455690E+01;0;  1.4252418E-02;  3.9694914E+04;  0.0000000E+00;  4.4693956E+00;  4.0000000E+04;  0.0000000E+00;  4.0013020E+04;  1.3977144E-02;  0.0000000E+00;  2.7527395E-04;  7.9948081E+03;
  2.5150803E-01;  9.9999998E-03; -2.9999742E-01;3971;  3.6241293E-03;  0.0000000E+00; -1.4190321E-05;  9.9528510E+02;  1.0000000E-01; -3.9062104E+03;3; -1.9227725E+00;  0.0000000E+00;  2.1268059E+01;0;  1.6218295E-02;  3.9597688E+04;  0.0000000E+00;  1.0820869E+00;  4.0000000E+04;  0.0000000E+00;  4.0028230E+04;  1.7183425E-02;  0.0000000E+00; -9.6512912E-04;  4.1682441E+03;
  2.5148460E-01;  9.9999998E-03; -2.9000741E-01;3972;  3.5888732E-03;  0.0000000E+00; -4.5149325E-05;  9.9624872E+02;  1.0000000E-01; -3.1078628E+03;3; -3.0725117E+00;  0.0000000E+00;  1.3748734E+01;0;  1.4084815E-02;  3.9684953E+04;  0.0000000E+00;  9.1987771E-01;  4.0000000E+04;  0.0000000E+00;  4.0021699E+04;  1.4579836E-02;  0.0000000E+00; -4.9502106E-04;  3.6536228E+03;
  2.5143188E-01;  9.9999998E-03; -2.8001544E-01;3973;  3.6083146E-03;  0.0000000E+00; -6.9802474E-05;  9.9702582E+02;  1.0000000E-01; -2.4640291E+03;3; -3.2514172E+00;  0.0000000E+00;  7.3159556E+00;0;  1.2493411E-02;  3.9755594E+04;  0.0000000E+00;  2.4406235E+00;  4.0000000E+04;  0.0000000E+00;  4.0015738E+04;  1.2576312E-02;  0.0000000E+00; -8.2901155E-05;  5.2482065E+03;
  2.6146951E-01;  9.9999998E-03; -2.9999146E-01;4032;  3.5767811E-03;  0.0000000E+00;  4.1509113E-05;  9.9648590E+02;  1.0000000E-01; -2.9113745E+03;3; -7.0043430E+00;  0.0000000E+00;  1.2876951E+01;0;  1.3646916E-02;  3.9700262E+04;  0.0000000E+00; -1.3070443E+00;  4.0000000E+04;  0.0000000E+00;  4.0025641E+04;  1.4896495E-02;  0.0000000E+00; -1.2495790E-03;  3.7425728E+03;
  2.6143730E-01;  9.9999998E-03; -2.8999814E-01;4033;  3.5762044E-03;  0.0000000E+00;  1.9104418E-05;  9.9719824E+02;  1.0000000E-01; -2.3212183E+03;3; -6.3982148E+00;  0.0000000E+00;  7.8477020E+00;0;  1.2006486E-02;  3.9765215E+04;  0.0000000E+00; -6.4929211E-01;  4.0000000E+04;  0.0000000E+00;  4.0020078E+04;  1.2832517E-02;  0.0000000E+00; -8.2603103E-04;  2.7429600E+03;
  2.6136556E-01;  9.9999998E-03; -2.8000286E-01;4034;  3.6573701E-03;  0.0000000E+00;  2.0415191E-05;  9.9773950E+02;  1.0000000E-01; -1.8727865E+03;3; -5.2998800E+00;  0.0000000E+00;  3.6304569E+00;0;  1.0633642E-02;  3.9815348E+04;  0.0000000E+00;  1.7079011E+00;  4.0000000E+04;  0.0000000E+00;  4.0015641E+04;  1.1274293E-02;  0.0000000E+00; -6.4065127E-04;  4.1815015E+03;
  2.7141079E-01;  9.9999998E-03; -2.9998776E-01;4093;  3.5324842E-03;  0.0000000E+00;  8.0930142E-05;  9.9751221E+02;  1.0000000E-01; -2.0610774E+03;3; -9.2553511E+00;  0.0000000E+00;  7.0307336E+00;0;  1.1617726E-02;  3.9789953E+04;  0.0000000E+00; -2.6318436E+00;  4.0000000E+04;  0.0000000E+00;  4.0021648E+04;  1.2970602E-02;  0.0000000E+00; -1.3528764E-03;  4.0412441E+03;
  2.7135211E-01;  9.9999998E-03; -2.8999206E-01;4094;  3.6261599E-03;  0.0000000E+00;  7.4528645E-05;  9.9801349E+02;  1.0000000E-01; -1.6457806E+03;3; -7.6084991E+00;  0.0000000E+00;  3.9213791E+00;0;  1.0327772E-02;  3.9836008E+04;  0.0000000E+00; -5.9972429E-01;  4.0000000E+04;  0.0000000E+00;  4.0017262E+04;  1.1457426E-02;  0.0000000E+00; -1.1296545E-03;  2.3447134E+03;
  2.7125928E-01;  9.9999998E-03; -2.7999425E-01;4095;  3.6880106E-03;  0.0000000E+00;  7.4337404E-05;  9.9834521E+02;  1.0000000E-01; -1.3709735E+03;3; -5.8740292E+00;  0.0000000E+00;  1.2583065E+00;0;  9.2415027E-03;  3.9866785E+04;  0.0000000E+00;  2.1157899E+00;  4.0000000E+04;  0.0000000E+00;  4.0014363E+04;  1.0128937E-02;  0.0000000E+00; -8.8743417E-04;  4.4118120E+03;
  2.8129849E-01;  9.9999998E-03; -2.9998574E-01;4154;  3.6076098E-03;  0.0000000E+00;  1.1968172E-04;  9.9833856E+02;  1.0000000E-01; -1.3764550E+03;3; -9.2668161E+00;  0.0000000E+00;  3.4075098E+00;0;  1.0223128E-02;  3.9864547E+04;  0.0000000E+00; -1.9577579E+00;  4.0000000E+04;  0.0000000E+00;  4.0016727E+04;  1.1709732E-02;  0.0000000E+00; -1.4866041E-03;  2.9227407E+03;
  2.8121653E-01;  9.9999998E-03; -2.8998810E-01;4155;  3.6763258E-03;  0.0000000E+00;  1.1251723E-04;  9.9863385E+02;  1.0000000E-01; -1.1318198E+03;3; -7.1992688E+00;  0.0000000E+00;  1.5196115E+00;0;  9.1694649E-03;  3.9891113E+04;  0.0000000E+00;  7.6398343E-01;  4.0000000E+04;  0.0000000E+00;  4.0014441E+04;  1.0416992E-02;  0.0000000E+00; -1.2475266E-03;  2.7122559E+03;
  2.8113362E-01;  9.9999998E-03; -2.7998832E-01;4156;  3.6293680E-03;  0.0000000E+00;  8.9690046E-05;  9.9876208E+02;  1.0000000E-01; -1.0256006E+03;3; -5.3282304E+00;  0.0000000E+00; -9.2641123E-02;0;  8.5101295E-03;  3.9902508E+04;  0.0000000E+00;  2.5518577E+00;  4.0000000E+04;  0.0000000E+00;  4.0013605E+04;  9.2121027E-03;  0.0000000E+00; -7.0197333E-04;  4.6704766E+03;
  2.9115012E-01;  9.9999998E-03; -2.9998416E-01;4215;  3.5882215E-03;  0.0000000E+00;  1.3678643E-04;  9.9887018E+02;  1.0000000E-01; -9.3602289E+02;3; -7.7195230E+00;  0.0000000E+00;  1.2754986E+00;0;  9.4658975E-03;  3.9913484E+04;  0.0000000E+00; -7.7463931E-01;  4.0000000E+04;  0.0000000E+00;  4.0013707E+04;  1.0767328E-02;  0.0000000E+00; -1.3014299E-03;  1.8277661E+03;
  2.9108560E-01;  9.9999998E-03; -2.8998500E-01;4216;  3.5702758E-03;  0.0000000E+00;  1.1760407E-04;  9.9896326E+02;  1.0000000E-01; -8.5893866E+02;3; -5.7473135E+00;  0.0000000E+00;  1.8108118E-01;0;  8.7600416E-03;  3.9920621E+04;  0.0000000E+00;  1.1760740E+00;  4.0000000E+04;  0.0000000E+00;  4.0013066E+04;  9.6567553E-03;  0.0000000E+00; -8.9671346E-04;  2.8090713E+03;
  2.9102352E-01;  9.9999998E-03; -2.7998433E-01;4217;  3.5280178E-03;  0.0000000E+00;  9.1937400E-05;  9.9895203E+02;  1.0000000E-01; -8.6822235E+02;3; -4.1313510E+00;  0.0000000E+00; -6.5740538E-01;0;  8.3314339E-03;  3.9918465E+04;  0.0000000E+00;  2.1462379E+00;  4.0000000E+04;  0.0000000E+00;  4.0013055E+04;  8.6971968E-03;  0.0000000E+00; -3.6576306E-04;  3.8996987E+03;
  3.0106556E-01;  9.9999998E-03; -2.9998234E-01;4276;  3.4182346E-03;  0.0000000E+00;  1.4397549E-04;  9.9903162E+02;  1.0000000E-01; -8.0229828E+02;3; -5.4197726E+00;  0.0000000E+00;  1.9820246E-01;0;  9.2812385E-03;  3.9928539E+04;  0.0000000E+00; -1.2916812E+00;  4.0000000E+04;  0.0000000E+00;  4.0012410E+04;  1.0245161E-02;  0.0000000E+00; -9.6392265E-04;  2.1200500E+03;
  3.0102441E-01;  9.9999998E-03; -2.8998256E-01;4277;  3.4396292E-03;  0.0000000E+00;  1.2401082E-04;  9.9901324E+02;  1.0000000E-01; -8.1750775E+02;3; -3.9295955E+00;  0.0000000E+00; -3.4451973E-01;0;  8.8299746E-03;  3.9924844E+04;  0.0000000E+00;  1.2574886E-01;  4.0000000E+04;  0.0000000E+00;  4.0012852E+04;  9.4109252E-03;  0.0000000E+00; -5.8095041E-04;  1.7396035E+03;
  3.0098137E-01;  9.9999998E-03; -2.7998185E-01;4278;  3.4526431E-03;  0.0000000E+00;  1.0053983E-04;  9.9894470E+02;  1.0000000E-01; -8.7429626E+02;3; -2.7717593E+00;  0.0000000E+00; -7.0299530E-01;0;  8.4997304E-03;  3.9917445E+04;  0.0000000E+00;  8.4863025E-01;  4.0000000E+04;  0.0000000E+00;  4.0013098E+04;  8.6398693E-03;  0.0000000E+00; -1.4013848E-04;  2.2866389E+03;
  3.1108609E-01;  9.9999998E-03; -2.9998058E-01;4337;  3.3274805E-03;  0.0000000E+00;  1.6227306E-04;  9.9893250E+02;  1.0000000E-01; -8.8441943E+02;3; -3.2413135E+00;  0.0000000E+00; -1.5279600E-01;0;  9.4953645E-03;  3.9919484E+04;  0.0000000E+00; -2.3395164E+00;  4.0000000E+04;  0.0000000E+00;  4.0012945E+04;  1.0324669E-02;  0.0000000E+00; -8.2930445E-04;  3.5034670E+03;
  3.1103930E-01;  9.9999998E-03; -2.8998086E-01;4338;  3.3964354E-03;  0.0000000E+00;  1.3583881E-04;  9.9888293E+02;  1.0000000E-01; -9.2545532E+02;3; -2.3168344E+00;  0.0000000E+00; -3.8307685E-01;0;  9.2749763E-03;  3.9913188E+04;  0.0000000E+00; -9.8558420E-01;  4.0000000E+04;  0.0000000E+00;  4.0014027E+04;  9.6465768E-03;  0.0000000E+00; -3.7160012E-04;  2.1525947E+03;
  3.1099421E-01;  9.9999998E-03; -2.7998066E-01;4339;  3.4487615E-03;  0.0000000E+00;  1.1119230E-04;  9.9881580E+02;  1.0000000E-01; -9.8110803E+02;3; -1.6165168E+00;  0.0000000E+00; -5.0761831E-01;0;  8.9841951E-03;  3.9905523E+04;  0.0000000E+00; -1.7797951E-01;  4.0000000E+04;  0.0000000E+00;  4.0014332E+04;  8.9550894E-03;  0.0000000E+00;  2.9105711E-05;  1.8704919E+03;
  3.2104090E-01;  9.9999998E-03; -2.7998057E-01;4400;  3.5171513E-03;  0.0000000E+00;  1.2698575E-04;  9.9864648E+02;  1.0000000E-01; -1.1213510E+03;3; -8.2053608E-01;  0.0000000E+00; -2.8476655E-01;0;  9.5598446E-03;  3.9889188E+04;  0.0000000E+00; -5.2552050E-01;  4.0000000E+04;  0.0000000E+00;  4.0015832E+04;  9.4620045E-03;  0.0000000E+00;  9.7839853E-05;  2.1507488E+03;
  3.2106671E-01;  9.9999998E-03; -2.8998005E-01;4399;  3.4620408E-03;  0.0000000E+00;  1.5143033E-04;  9.9869183E+02;  1.0000000E-01; -1.0837719E+03;3; -1.1869822E+00;  0.0000000E+00; -2.5115186E-01;0;  9.8913228E-03;  3.9894902E+04;  0.0000000E+00; -1.1495576E+00;  4.0000000E+04;  0.0000000E+00;  4.0015121E+04;  1.0140767E-02;  0.0000000E+00; -2.4944486E-04;  2.5194292E+03;
  3.2109311E-01;  9.9999998E-03; -2.9997936E-01;4398;  3.4023358E-03;  0.0000000E+00;  1.7937414E-04;  9.9874310E+02;  1.0000000E-01; -1.0413038E+03;3; -1.6777763E+00;  0.0000000E+00; -1.6576810E-01;0;  1.0064475E-02;  3.9901098E+04;  0.0000000E+00; -2.0418925E+00;  4.0000000E+04;  0.0000000E+00;  4.0014633E+04;  1.0766169E-02;  0.0000000E+00; -7.0169405E-04;  3.3745781E+03;
  3.3112749E-01;  9.9999998E-03; -2.9997867E-01;4459;  3.5839581E-03;  0.0000000E+00;  2.0478625E-04;  9.9851746E+02;  1.0000000E-01; -1.2282616E+03;3; -7.3975492E-01;  0.0000000E+00; -9.2113853E-02;0;  1.0501550E-02;  3.9878715E+04;  0.0000000E+00; -1.4063954E+00;  4.0000000E+04;  0.0000000E+00;  4.0016898E+04;  1.1241979E-02;  0.0000000E+00; -7.4042910E-04;  2.9484985E+03;
  3.3110449E-01;  9.9999998E-03; -2.8997993E-01;4460;  3.6346044E-03;  0.0000000E+00;  1.8171281E-04;  9.9848956E+02;  1.0000000E-01; -1.2513721E+03;3; -5.0933570E-01;  0.0000000E+00; -1.1444186E-01;0;  1.0251342E-02;  3.9874918E+04;  0.0000000E+00; -8.1564128E-01;  4.0000000E+04;  0.0000000E+00;  4.0016949E+04;  1.0640005E-02;  0.0000000E+00; -3.8866221E-04;  2.5109766E+03;
  3.3108726E-01;  9.9999998E-03; -2.7998123E-01;4461;  3.7191419E-03;  0.0000000E+00;  1.6666946E-04;  9.9848505E+02;  1.0000000E-01; -1.2551250E+03;3; -3.1640753E-01;  0.0000000E+00; -1.1556967E-01;0;  9.7636003E-03;  3.9873023E+04;  0.0000000E+00; -3.4659097E-01;  4.0000000E+04;  0.0000000E+00;  4.0016797E+04;  9.9568767E-03;  0.0000000E+00; -1.9327621E-04;  2.2842275E+03;
  3.4121102E-01;  9.9999998E-03; -2.9997846E-01;4520;  4.6667308E-03;  0.0000000E+00;  2.9619722E-04;  9.9831726E+02;  1.0000000E-01; -1.3941334E+03;3; -4.7180805E-02;  0.0000000E+00; -4.0569402E-02;0;  9.6040182E-03;  3.9858020E+04;  0.0000000E+00; -8.0629081E-01;  4.0000000E+04;  0.0000000E+00;  4.0019145E+04;  1.1553674E-02;  0.0000000E+00; -1.9496563E-03;  2.7538555E+03;
  3.4119111E-01;  9.9999998E-03; -2.8998035E-01;4521;  4.5554028E-03;  0.0000000E+00;  2.8811043E-04;  9.9832867E+02;  1.0000000E-01; -1.3846522E+03;3; -1.2357016E-02;  0.0000000E+00; -4.7224667E-02;0;  9.1511598E-03;  3.9857398E+04;  0.0000000E+00; -4.3420860E-01;  4.0000000E+04;  0.0000000E+00;  4.0019012E+04;  1.0952648E-02;  0.0000000E+00; -1.8014879E-03;  2.5629231E+03;
  3.4118417E-01;  9.9999998E-03; -2.7998227E-01;4522;  4.4374345E-03;  0.0000000E+00;  2.7693872E-04;  9.9835822E+02;  1.0000000E-01; -1.3602085E+03;3;  4.4880384E-03;  0.0000000E+00; -4.3974828E-02;0;  8.7352833E-03;  3.9859555E+04;  0.0000000E+00; -9.6312083E-02;  4.0000000E+04;  0.0000000E+00;  4.0018488E+04;  1.0263187E-02;  0.0000000E+00; -1.5279040E-03;  2.4396926E+03;
  3.5127935E-01;  9.9999998E-03; -2.9997948E-01;4581;  5.2250735E-03;  0.0000000E+00;  2.6239868E-04;  9.9816077E+02;  1.0000000E-01; -1.5237594E+03;3;  2.4502507E-01;  0.0000000E+00; -1.1324848E-02;0;  1.0493329E-02;  3.9841977E+04;  0.0000000E+00; -4.0847266E-01;  4.0000000E+04;  0.0000000E+00;  4.0020215E+04;  1.1485568E-02;  0.0000000E+00; -9.9223910E-04;  2.6929695E+03;
  3.5126531E-01;  9.9999998E-03; -2.8998181E-01;4582;  5.1041115E-03;  0.0000000E+00;  2.5713441E-04;  9.9820575E+02;  1.0000000E-01; -1.4865259E+03;3;  2.5963947E-01;  0.0000000E+00; -1.9170471E-02;0;  9.9482797E-03;  3.9844852E+04;  0.0000000E+00; -1.6546343E-01;  4.0000000E+04;  0.0000000E+00;  4.0019145E+04;  1.0919841E-02;  0.0000000E+00; -9.7156159E-04;  2.5880493E+03;
  3.5128379E-01;  9.9999998E-03; -2.7998433E-01;4583;  4.9424483E-03;  0.0000000E+00;  2.8089187E-04;  9.9827441E+02;  1.0000000E-01; -1.4296385E+03;3;  2.6118121E-01;  0.0000000E+00; -2.6090190E-02;0;  8.9310594E-03;  3.9850258E+04;  0.0000000E+00;  6.3139372E-02;  4.0000000E+04;  0.0000000E+00;  4.0018781E+04;  1.0269691E-02;  0.0000000E+00; -1.3386315E-03;  2.4842151E+03;
  3.6134243E-01;  9.9999998E-03; -2.9998061E-01;4642;  5.3452640E-03;  0.0000000E+00;  2.6904023E-04;  9.9807318E+02;  1.0000000E-01; -1.5963499E+03;3;  2.8958181E-01;  0.0000000E+00; -8.8816060E-04;0;  1.0410061E-02;  3.9831820E+04;  0.0000000E+00; -2.6321775E-01;  4.0000000E+04;  0.0000000E+00;  4.0020230E+04;  1.1161790E-02;  0.0000000E+00; -7.5172936E-04;  2.7213276E+03;
  3.6134356E-01;  9.9999998E-03; -2.8998330E-01;4643;  5.2211173E-03;  0.0000000E+00;  2.5336078E-04;  9.9814172E+02;  1.0000000E-01; -1.5395614E+03;3;  2.9184857E-01;  0.0000000E+00; -6.7625446E-03;0;  1.0037659E-02;  3.9837168E+04;  0.0000000E+00; -8.9122474E-02;  4.0000000E+04;  0.0000000E+00;  4.0019711E+04;  1.0633199E-02;  0.0000000E+00; -5.9554045E-04;  2.6208625E+03;
  3.6135510E-01;  9.9999998E-03; -2.7998620E-01;4644;  5.1011327E-03;  0.0000000E+00;  2.4928397E-04;  9.9823346E+02;  1.0000000E-01; -1.4635636E+03;3;  2.9333597E-01;  0.0000000E+00; -1.5418475E-02;0;  9.4014360E-03;  3.9844918E+04;  0.0000000E+00;  8.2500495E-02;  4.0000000E+04;  0.0000000E+00;  4.0018582E+04;  1.0037314E-02;  0.0000000E+00; -6.3587818E-04;  2.5004055E+03;
  3.7133560E-01;  9.9999998E-03; -2.9998162E-01;4703;  5.3867185E-03;  0.0000000E+00;  2.7778069E-04;  9.9803174E+02;  1.0000000E-01; -1.6306699E+03;3;  2.9788062E-01;  0.0000000E+00; -3.7405696E-03;0;  1.0158191E-02;  3.9826012E+04;  0.0000000E+00; -2.2662243E-01;  4.0000000E+04;  0.0000000E+00;  4.0020402E+04;  1.0722970E-02;  0.0000000E+00; -5.6477851E-04;  2.7494609E+03;
  3.7136373E-01;  9.9999998E-03; -2.8998455E-01;4704;  5.2571753E-03;  0.0000000E+00;  2.6137702E-04;  9.9812250E+02;  1.0000000E-01; -1.5554622E+03;3;  2.9888958E-01;  0.0000000E+00; -8.0368342E-03;0;  9.8036481E-03;  3.9833457E+04;  0.0000000E+00; -9.5431156E-02;  4.0000000E+04;  0.0000000E+00;  4.0019582E+04;  1.0230805E-02;  0.0000000E+00; -4.2715704E-04;  2.6292224E+03;
  3.7139499E-01;  9.9999998E-03; -2.7998763E-01;4705;  5.1456722E-03;  0.0000000E+00;  2.5026579E-04;  9.9822705E+02;  1.0000000E-01; -1.4688473E+03;3;  2.9939255E-01;  0.0000000E+00; -1.5004370E-02;0;  9.2773419E-03;  3.9842723E+04;  0.0000000E+00;  3.3882067E-02;  4.0000000E+04;  0.0000000E+00;  4.0018727E+04;  9.6888719E-03;  0.0000000E+00; -4.1152959E-04;  2.4910168E+03;
  3.8133401E-01;  9.9999998E-03; -2.9998234E-01;4764;  5.3762854E-03;  0.0000000E+00;  2.9237723E-04;  9.9802252E+02;  1.0000000E-01; -1.6383240E+03;3;  3.0176824E-01;  0.0000000E+00; -5.8303708E-03;0;  9.8402109E-03;  3.9823348E+04;  0.0000000E+00; -2.1125475E-01;  4.0000000E+04;  0.0000000E+00;  4.0020691E+04;  1.0323728E-02;  0.0000000E+00; -4.8351759E-04;  2.7604883E+03;
  3.8136780E-01;  9.9999998E-03; -2.8998539E-01;4765;  5.2523683E-03;  0.0000000E+00;  2.7627102E-04;  9.9812280E+02;  1.0000000E-01; -1.5552153E+03;3;  3.0281824E-01;  0.0000000E+00; -1.0281119E-02;0;  9.4898473E-03;  3.9831938E+04;  0.0000000E+00; -1.1680347E-01;  4.0000000E+04;  0.0000000E+00;  4.0019273E+04;  9.8651564E-03;  0.0000000E+00; -3.7530941E-04;  2.6301736E+03;
  3.8139877E-01;  9.9999998E-03; -2.7998853E-01;4766;  5.1485877E-03;  0.0000000E+00;  2.6514725E-04;  9.9823663E+02;  1.0000000E-01; -1.4608970E+03;3;  3.0344301E-01;  0.0000000E+00; -1.7741844E-02;0;  8.9792199E-03;  3.9841910E+04;  0.0000000E+00; -2.2388812E-02;  4.0000000E+04;  0.0000000E+00;  4.0018785E+04;  9.3694273E-03;  0.0000000E+00; -3.9020774E-04;  2.4764343E+03;
  3.9134705E-01;  9.9999998E-03; -2.9998273E-01;4825;  5.3332718E-03;  0.0000000E+00;  3.1474681E-04;  9.9802893E+02;  1.0000000E-01; -1.6329908E+03;3;  3.0466247E-01;  0.0000000E+00; -6.3774195E-03;0;  9.5804464E-03;  3.9821996E+04;  0.0000000E+00; -1.8899855E-01;  4.0000000E+04;  0.0000000E+00;  4.0020805E+04;  1.0118092E-02;  0.0000000E+00; -5.3764594E-04;  2.7629189E+03;
  3.9137909E-01;  9.9999998E-03; -2.8998581E-01;4826;  5.2241688E-03;  0.0000000E+00;  2.9969972E-04;  9.9813373E+02;  1.0000000E-01; -1.5461785E+03;3;  3.0539840E-01;  0.0000000E+00; -1.2777250E-02;0;  9.2176180E-03;  3.9831105E+04;  0.0000000E+00; -1.3075025E-01;  4.0000000E+04;  0.0000000E+00;  4.0019449E+04;  9.6809501E-03;  0.0000000E+00; -4.6333179E-04;  2.6257317E+03;
  3.9140579E-01;  9.9999998E-03; -2.7998888E-01;4827;  5.1316903E-03;  0.0000000E+00;  2.8808080E-04;  9.9825000E+02;  1.0000000E-01; -1.4498356E+03;3;  3.0592048E-01;  0.0000000E+00; -1.9000504E-02;0;  8.7312274E-03;  3.9841465E+04;  0.0000000E+00; -7.1196981E-02;  4.0000000E+04;  0.0000000E+00;  4.0018863E+04;  9.2133535E-03;  0.0000000E+00; -4.8212614E-04;  2.4669390E+03;
  4.0135279E-01;  9.9999998E-03; -2.9998282E-01;4886;  5.2741379E-03;  0.0000000E+00;  3.4506875E-04;  9.9803027E+02;  1.0000000E-01; -1.6319044E+03;3;  3.0817413E-01;  0.0000000E+00; -9.3722390E-03;0;  9.4892001E-03;  3.9821180E+04;  0.0000000E+00; -1.6827720E-01;  4.0000000E+04;  0.0000000E+00;  4.0020836E+04;  1.0219358E-02;  0.0000000E+00; -7.3015824E-04;  2.7782336E+03;
  4.0138015E-01;  9.9999998E-03; -2.8998590E-01;4887;  5.1858732E-03;  0.0000000E+00;  3.2935670E-04;  9.9814075E+02;  1.0000000E-01; -1.5403514E+03;3;  3.0776176E-01;  0.0000000E+00; -1.4800785E-02;0;  9.1348458E-03;  3.9830477E+04;  0.0000000E+00; -1.3964452E-01;  4.0000000E+04;  0.0000000E+00;  4.0019633E+04;  9.7851530E-03;  0.0000000E+00; -6.5030711E-04;  2.6305513E+03;
  4.0139809E-01;  9.9999998E-03; -2.7998883E-01;4888;  5.1050079E-03;  0.0000000E+00;  3.1711085E-04;  9.9825421E+02;  1.0000000E-01; -1.4463295E+03;3;  3.0770001E-01;  0.0000000E+00; -1.9685240E-02;0;  8.6640809E-03;  3.9840824E+04;  0.0000000E+00; -1.0790243E-01;  4.0000000E+04;  0.0000000E+00;  4.0018688E+04;  9.3217799E-03;  0.0000000E+00; -6.5769884E-04;  2.4743203E+03;
  4.1134620E-01;  9.9999998E-03; -2.9998276E-01;4947;  5.2165696E-03;  0.0000000E+00;  3.7874401E-04;  9.9803259E+02;  1.0000000E-01; -1.6299786E+03;3;  3.0894229E-01;  0.0000000E+00; -1.1523454E-02;0;  9.7037330E-03;  3.9820121E+04;  0.0000000E+00; -1.5444753E-01;  4.0000000E+04;  0.0000000E+00;  4.0020805E+04;  1.0680912E-02;  0.0000000E+00; -9.7717927E-04;  2.7911982E+03;
  4.1137648E-01;  9.9999998E-03; -2.8998572E-01;4948;  5.1473295E-03;  0.0000000E+00;  3.6276522E-04;  9.9813696E+02;  1.0000000E-01; -1.5435118E+03;3;  3.0936593E-01;  0.0000000E+00; -1.5211994E-02;0;  9.3371384E-03;  3.9829434E+04;  0.0000000E+00; -1.5539986E-01;  4.0000000E+04;  0.0000000E+00;  4.0019613E+04;  1.0230645E-02;  0.0000000E+00; -8.9350587E-04;  2.6503323E+03;
  4.1139576E-01;  9.9999998E-03; -2.7998850E-01;4949;  5.0766887E-03;  0.0000000E+00;  3.4884037E-04;  9.9825159E+02;  1.0000000E-01; -1.4485516E+03;3;  3.0841345E-01;  0.0000000E+00; -1.9439962E-02;0;  8.8819144E-03;  3.9839891E+04;  0.0000000E+00; -1.4626244E-01;  4.0000000E+04;  0.0000000E+00;  4.0018613E+04;  9.7472742E-03;  0.0000000E+00; -8.6535956E-04;  2.4928477E+03;
  4.2134163E-01;  9.9999998E-03; -2.9998264E-01;5008;  5.1733921E-03;  0.0000000E+00;  4.1316196E-04;  9.9803003E+02;  1.0000000E-01; -1.6321019E+03;3;  3.1072333E-01;  0.0000000E+00; -1.2590065E-02;0;  1.0261450E-02;  3.9819238E+04;  0.0000000E+00; -1.1168813E-01;  4.0000000E+04;  0.0000000E+00;  4.0021176E+04;  1.1493517E-02;  0.0000000E+00; -1.2320672E-03;  2.8041003E+03;
  4.2138338E-01;  9.9999998E-03; -2.8998551E-01;5009;  5.1149274E-03;  0.0000000E+00;  3.9830952E-04;  9.9813293E+02;  1.0000000E-01; -1.5468204E+03;3;  3.1042334E-01;  0.0000000E+00; -1.5262278E-02;0;  9.8488824E-03;  3.9828570E+04;  0.0000000E+00; -1.5454119E-01;  4.0000000E+04;  0.0000000E+00;  4.0019914E+04;  1.1012947E-02;  0.0000000E+00; -1.1640650E-03;  2.6665640E+03;
  4.2140996E-01;  9.9999998E-03; -2.7998820E-01;5010;  5.0527318E-03;  0.0000000E+00;  3.8246397E-04;  9.9824634E+02;  1.0000000E-01; -1.4528972E+03;3;  3.0917752E-01;  0.0000000E+00; -1.7653758E-02;0;  9.3987817E-03;  3.9838828E+04;  0.0000000E+00; -1.7526837E-01;  4.0000000E+04;  0.0000000E+00;  4.0018848E+04;  1.0489864E-02;  0.0000000E+00; -1.0910829E-03;  2.5131804E+03;
  4.3135795E-01;  9.9999998E-03; -2.9998258E-01;5069;  5.1508085E-03;  0.0000000E+00;  4.4795673E-04;  9.9803485E+02;  1.0000000E-01; -1.6281021E+03;3;  3.1218016E-01;  0.0000000E+00; -1.2626247E-02;0;  1.1104026E-02;  3.9819180E+04;  0.0000000E+00; -1.5853966E-02;  4.0000000E+04;  0.0000000E+00;  4.0021074E+04;  1.2589401E-02;  0.0000000E+00; -1.4853751E-03;  2.8045022E+03;
  4.3140537E-01;  9.9999998E-03; -2.8998539E-01;5070;  5.0980980E-03;  0.0000000E+00;  4.3283936E-04;  9.9813708E+02;  1.0000000E-01; -1.5434131E+03;3;  3.1143036E-01;  0.0000000E+00; -1.4303487E-02;0;  1.0662551E-02;  3.9828574E+04;  0.0000000E+00; -1.1209347E-01;  4.0000000E+04;  0.0000000E+00;  4.0020109E+04;  1.2071210E-02;  0.0000000E+00; -1.4086587E-03;  2.6655510E+03;
  4.3143588E-01;  9.9999998E-03; -2.7998799E-01;5071;  5.0415704E-03;  0.0000000E+00;  4.1554691E-04;  9.9824799E+02;  1.0000000E-01; -1.4515145E+03;3;  3.1034049E-01;  0.0000000E+00; -1.5508700E-02;0;  1.0198443E-02;  3.9838980E+04;  0.0000000E+00; -1.7094405E-01;  4.0000000E+04;  0.0000000E+00;  4.0019090E+04;  1.1495869E-02;  0.0000000E+00; -1.2974258E-03;  2.5177314E+03;
  4.4140783E-01;  9.9999998E-03; -2.9998261E-01;5130;  5.1675010E-03;  0.0000000E+00;  4.8364082E-04;  9.9805133E+02;  1.0000000E-01; -1.6144235E+03;3;  3.1596094E-01;  0.0000000E+00; -1.0156027E-02;0;  1.2105956E-02;  3.9821199E+04;  0.0000000E+00;  1.1416075E-01;  4.0000000E+04;  0.0000000E+00;  4.0020758E+04;  1.3848640E-02;  0.0000000E+00; -1.7426842E-03;  2.7990142E+03;
  4.4145119E-01;  9.9999998E-03; -2.8998542E-01;5131;  5.1116138E-03;  0.0000000E+00;  4.6599959E-04;  9.9815198E+02;  1.0000000E-01; -1.5310677E+03;3;  3.1333524E-01;  0.0000000E+00; -1.0458202E-02;0;  1.1678364E-02;  3.9830004E+04;  0.0000000E+00; -3.4008171E-02;  4.0000000E+04;  0.0000000E+00;  4.0019832E+04;  1.3295063E-02;  0.0000000E+00; -1.6166985E-03;  2.6494873E+03;
  4.4147894E-01;  9.9999998E-03; -2.7998805E-01;5132;  5.0574802E-03;  0.0000000E+00;  4.4665002E-04;  9.9826672E+02;  1.0000000E-01; -1.4360088E+03;3;  3.1230754E-01;  0.0000000E+00; -1.3433009E-02;0;  1.1203662E-02;  3.9840816E+04;  0.0000000E+00; -1.3192458E-01;  4.0000000E+04;  0.0000000E+00;  4.0018844E+04;  1.2665641E-02;  0.0000000E+00; -1.4619787E-03;  2.4920850E+03;
  4.5151308E-01;  9.9999998E-03; -2.9998288E-01;5191;  5.3858822E-03;  0.0000000E+00;  5.1507569E-04;  9.9809326E+02;  1.0000000E-01; -1.5797084E+03;3;  3.7047306E-01;  0.0000000E+00; -8.2315207E-03;0;  1.3200389E-02;  3.9825090E+04;  0.0000000E+00;  2.4324861E-01;  4.0000000E+04;  0.0000000E+00;  4.0020332E+04;  1.5112218E-02;  0.0000000E+00; -1.9118288E-03;  2.7668665E+03;
  4.5153946E-01;  9.9999998E-03; -2.8998566E-01;5192;  5.2363086E-03;  0.0000000E+00;  4.9714046E-04;  9.9818970E+02;  1.0000000E-01; -1.4998094E+03;3;  3.3833364E-01;  0.0000000E+00; -8.6313998E-03;0;  1.2757670E-02;  3.9833895E+04;  0.0000000E+00;  5.8385570E-02;  4.0000000E+04;  0.0000000E+00;  4.0019188E+04;  1.4536332E-02;  0.0000000E+00; -1.7786627E-03;  2.6037415E+03;
  4.5155147E-01;  9.9999998E-03; -2.7998835E-01;5193;  5.1423768E-03;  0.0000000E+00;  4.7371452E-04;  9.9830267E+02;  1.0000000E-01; -1.4061825E+03;3;  3.2600409E-01;  0.0000000E+00; -1.0349237E-02;0;  1.2313841E-02;  3.9844383E+04;  0.0000000E+00; -7.0591204E-02;  4.0000000E+04;  0.0000000E+00;  4.0018504E+04;  1.3865290E-02;  0.0000000E+00; -1.5514489E-03;  2.4381421E+03;
  4.6162981E-01;  9.9999998E-03; -2.9998338E-01;5252;  6.3211145E-03;  0.0000000E+00;  5.0527108E-04;  9.9814069E+02;  1.0000000E-01; -1.5404009E+03;3;  5.6884551E-01;  0.0000000E+00; -1.1212952E-03;0;  1.4855367E-02;  3.9830508E+04;  0.0000000E+00;  3.4212375E-01;  4.0000000E+04;  0.0000000E+00;  4.0019660E+04;  1.6200015E-02;  0.0000000E+00; -1.3446480E-03;  2.6860713E+03;
  4.6163818E-01;  9.9999998E-03; -2.8998619E-01;5253;  5.9953798E-03;  0.0000000E+00;  4.9085566E-04;  9.9824158E+02;  1.0000000E-01; -1.4567983E+03;3;  5.3158820E-01;  0.0000000E+00; -7.4491180E-03;0;  1.4314830E-02;  3.9839238E+04;  0.0000000E+00;  1.4590476E-01;  4.0000000E+04;  0.0000000E+00;  4.0018746E+04;  1.5623980E-02;  0.0000000E+00; -1.3091494E-03;  2.5133455E+03;
  4.6163595E-01;  9.9999998E-03; -2.7998891E-01;5254;  5.6821224E-03;  0.0000000E+00;  4.8189622E-04;  9.9835150E+02;  1.0000000E-01; -1.3657391E+03;3;  4.9057469E-01;  0.0000000E+00; -1.2836949E-02;0;  1.3588828E-02;  3.9849227E+04;  0.0000000E+00;  5.8442727E-04;  4.0000000E+04;  0.0000000E+00;  4.0017738E+04;  1.4943086E-02;  0.0000000E+00; -1.3542578E-03;  2.3467651E+03;
  4.7168767E-01;  9.9999998E-03; -2.9998395E-01;5313;  6.9271401E-03;  0.0000000E+00;  5.0701981E-04;  9.9818750E+02;  1.0000000E-01; -1.5016366E+03;3;  6.6100591E-01;  0.0000000E+00;  8.0487272E-03;0;  1.6057506E-02;  3.9835602E+04;  0.0000000E+00;  3.7532917E-01;  4.0000000E+04;  0.0000000E+00;  4.0019062E+04;  1.7018154E-02;  0.0000000E+00; -9.6064870E-04;  2.5768523E+03;
  4.7168404E-01;  9.9999998E-03; -2.8998676E-01;5314;  6.6323220E-03;  0.0000000E+00;  4.8186776E-04;  9.9828253E+02;  1.0000000E-01; -1.4228733E+03;3;  6.2671775E-01;  0.0000000E+00;  2.3201446E-03;0;  1.5681626E-02;  3.9844055E+04;  0.0000000E+00;  1.9717807E-01;  4.0000000E+04;  0.0000000E+00;  4.0017785E+04;  1.6458251E-02;  0.0000000E+00; -7.7662506E-04;  2.4105544E+03;
  4.7167456E-01;  9.9999998E-03; -2.7998957E-01;5315;  6.3355481E-03;  0.0000000E+00;  4.5860125E-04;  9.9839227E+02;  1.0000000E-01; -1.3319623E+03;3;  6.0170656E-01;  0.0000000E+00; -5.8170101E-03;0;  1.5114376E-02;  3.9853691E+04;  0.0000000E+00;  5.7116624E-02;  4.0000000E+04;  0.0000000E+00;  4.0016754E+04;  1.5798021E-02;  0.0000000E+00; -6.8364473E-04;  2.2417500E+03;
  4.8167703E-01;  9.9999998E-03; -2.9998419E-01;5374;  7.2662360E-03;  0.0000000E+00;  5.2255316E-04;  9.9821521E+02;  1.0000147E-01; -1.4786742E+03;3;  7.2239691E-01;  0.0000000E+00;  1.0511801E-02;0;  1.6787309E-02;  3.9837754E+04;  0.0000000E+00;  3.3090103E-01;  4.0000000E+04;  0.0000000E+00;  4.0018121E+04;  1.7590839E-02;  0.0000000E+00; -8.0353051E-04;  2.4878630E+03;
  4.8166916E-01;  9.9999998E-03; -2.8998706E-01;5375;  7.0060538E-03;  0.0000000E+00;  4.9082539E-04;  9.9830994E+02;  1.0000147E-01; -1.4002073E+03;3;  6.9093126E-01;  0.0000000E+00;  5.5650305E-03;0;  1.6530478E-02;  3.9846270E+04;  0.0000000E+00;  1.9046402E-01;  4.0000000E+04;  0.0000000E+00;  4.0017316E+04;  1.7056515E-02;  0.0000000E+00; -5.2603689E-04;  2.3302737E+03;
  4.8165533E-01;  9.9999998E-03; -2.7998996E-01;5376;  6.7390269E-03;  0.0000000E+00;  4.5777875E-04;  9.9841724E+02;  1.0000148E-01; -1.3112716E+03;3;  6.6485882E-01;  0.0000000E+00; -3.3391581E-04;0;  1.6109420E-02;  3.9855746E+04;  0.0000000E+00;  7.3403537E-02;  4.0000000E+04;  0.0000000E+00;  4.0016215E+04;  1.6435977E-02;  0.0000000E+00; -3.2655624E-04;  2.1660344E+03;
  4.9163142E-01;  9.9999998E-03; -2.7998960E-01;5437;  6.9893654E-03;  0.0000000E+00;  4.7276187E-04;  9.9838837E+02;  1.0000204E-01; -1.3352214E+03;3;  7.0634997E-01;  0.0000000E+00;  3.2594497E-03;0;  1.6757842E-02;  3.9853125E+04;  0.0000000E+00;  3.7133913E-02;  4.0000000E+04;  0.0000000E+00;  4.0016312E+04;  1.6945025E-02;  0.0000000E+00; -1.8718230E-04;  2.1816235E+03;
  4.9164140E-01;  9.9999998E-03; -2.8998670E-01;5436;  7.2327624E-03;  0.0000000E+00;  5.1028287E-04;  9.9828217E+02;  1.0000199E-01; -1.4231697E+03;3;  7.3292100E-01;  0.0000000E+00;  8.3756261E-03;0;  1.7086253E-02;  3.9843578E+04;  0.0000000E+00;  1.1872731E-01;  4.0000000E+04;  0.0000000E+00;  4.0017426E+04;  1.7518910E-02;  0.0000000E+00; -4.3265769E-04;  2.3389722E+03;
  4.9165303E-01;  9.9999998E-03; -2.9998374E-01;5435;  7.4596894E-03;  0.0000000E+00;  5.4744293E-04;  9.9818311E+02;  1.0000207E-01; -1.5052413E+03;3;  7.5109506E-01;  0.0000000E+00;  1.4136959E-02;0;  1.7235586E-02;  3.9835059E+04;  0.0000000E+00;  2.1019459E-01;  4.0000000E+04;  0.0000000E+00;  4.0018543E+04;  1.8025162E-02;  0.0000000E+00; -7.8957580E-04;  2.4879412E+03;
  5.0174266E-01;  9.9999998E-03; -2.9998282E-01;5496;  7.5672362E-03;  0.0000000E+00;  5.8514439E-04;  9.9810266E+02;  1.0000388E-01; -1.5719061E+03;3;  7.6698464E-01;  0.0000000E+00;  1.8752545E-02;0;  1.7494069E-02;  3.9826656E+04;  0.0000000E+00;  6.6146694E-02;  4.0000000E+04;  0.0000000E+00;  4.0019277E+04;  1.8470760E-02;  0.0000000E+00; -9.7669149E-04;  2.5854058E+03;
  5.0171852E-01;  9.9999998E-03; -2.8998578E-01;5497;  7.3535056E-03;  0.0000000E+00;  5.4694549E-04;  9.9820593E+02;  1.0000371E-01; -1.4863284E+03;3;  7.5258964E-01;  0.0000000E+00;  1.4060114E-02;0;  1.7385045E-02;  3.9835480E+04;  0.0000000E+00;  1.2401996E-02;  4.0000000E+04;  0.0000000E+00;  4.0018219E+04;  1.7988475E-02;  0.0000000E+00; -6.0342951E-04;  2.4395928E+03;
  5.0169981E-01;  9.9999998E-03; -2.7998868E-01;5498;  7.1331193E-03;  0.0000000E+00;  5.0780387E-04;  9.9831561E+02;  1.0000388E-01; -1.3954667E+03;3;  7.3807430E-01;  0.0000000E+00;  5.6062704E-03;0;  1.7129097E-02;  3.9845207E+04;  0.0000000E+00; -3.6535203E-02;  4.0000000E+04;  0.0000000E+00;  4.0017160E+04;  1.7456803E-02;  0.0000000E+00; -3.2770686E-04;  2.2819683E+03;
  5.1170772E-01;  9.9999998E-03; -2.9998145E-01;5557;  7.6131281E-03;  0.0000000E+00;  6.3373474E-04;  9.9797888E+02;  1.0000626E-01; -1.6744712E+03;3;  7.8096777E-01;  0.0000000E+00;  2.1325439E-02;0;  1.7714383E-02;  3.9813074E+04;  0.0000000E+00; -4.7239769E-02;  4.0000000E+04;  0.0000000E+00;  4.0020805E+04;  1.9065864E-02;  0.0000000E+00; -1.3514808E-03;  2.7767371E+03;
  5.1167202E-01;  9.9999998E-03; -2.8998435E-01;5558;  7.4067097E-03;  0.0000000E+00;  5.9667847E-04;  9.9808392E+02;  1.0000617E-01; -1.5874119E+03;3;  7.6760340E-01;  0.0000000E+00;  1.7753107E-02;0;  1.7607102E-02;  3.9822430E+04;  0.0000000E+00; -7.6141328E-02;  4.0000000E+04;  0.0000000E+00;  4.0019609E+04;  1.8596793E-02;  0.0000000E+00; -9.8969019E-04;  2.6307505E+03;
  5.1164967E-01;  9.9999998E-03; -2.7998713E-01;5559;  7.2022225E-03;  0.0000000E+00;  5.5685453E-04;  9.9819800E+02;  1.0000617E-01; -1.4929454E+03;3;  7.5551504E-01;  0.0000000E+00;  1.0331172E-02;0;  1.7421329E-02;  3.9832629E+04;  0.0000000E+00; -1.0181399E-01;  4.0000000E+04;  0.0000000E+00;  4.0018520E+04;  1.8093737E-02;  0.0000000E+00; -6.7240658E-04;  2.4677480E+03;
  5.2165478E-01;  9.9999998E-03; -2.9997984E-01;5618;  7.6140189E-03;  0.0000000E+00;  6.8868545E-04;  9.9782373E+02;  1.0001039E-01; -1.8030107E+03;3;  7.8954655E-01;  0.0000000E+00;  2.3440061E-02;0;  1.8092021E-02;  3.9794941E+04;  0.0000000E+00; -1.4480497E-01;  4.0000000E+04;  0.0000000E+00;  4.0022312E+04;  1.9932125E-02;  0.0000000E+00; -1.8401034E-03;  3.0331516E+03;
  5.2161485E-01;  9.9999998E-03; -2.8998262E-01;5619;  7.4123535E-03;  0.0000000E+00;  6.5656938E-04;  9.9793585E+02;  1.0001048E-01; -1.7101245E+03;3;  7.7626669E-01;  0.0000000E+00;  2.1147609E-02;0;  1.7914915E-02;  3.9805078E+04;  0.0000000E+00; -1.5269458E-01;  4.0000000E+04;  0.0000000E+00;  4.0021492E+04;  1.9461801E-02;  0.0000000E+00; -1.5468858E-03;  2.8748755E+03;
  5.2159244E-01;  9.9999998E-03; -2.7998525E-01;5620;  7.2174352E-03;  0.0000000E+00;  6.2019692E-04;  9.9805347E+02;  1.0001054E-01; -1.6126458E+03;3;  7.6522493E-01;  0.0000000E+00;  1.5818125E-02;0;  1.7737884E-02;  3.9815809E+04;  0.0000000E+00; -1.6196634E-01;  4.0000000E+04;  0.0000000E+00;  4.0020016E+04;  1.8967852E-02;  0.0000000E+00; -1.2299687E-03;  2.7064048E+03;
  5.3163660E-01;  9.9999998E-03; -2.9997835E-01;5679;  7.5860457E-03;  0.0000000E+00;  7.4765418E-04;  9.9767468E+02;  1.0001730E-01; -1.9264640E+03;3;  7.9599249E-01;  0.0000000E+00;  2.3405232E-02;0;  1.8724781E-02;  3.9775746E+04;  0.0000000E+00; -2.1707039E-01;  4.0000000E+04;  0.0000000E+00;  4.0024488E+04;  2.1136936E-02;  0.0000000E+00; -2.4121557E-03;  3.2893289E+03;
  5.3159082E-01;  9.9999998E-03; -2.8998098E-01;5680;  7.3907492E-03;  0.0000000E+00;  7.2134781E-04;  9.9779059E+02;  1.0001743E-01; -1.8304668E+03;3;  7.8283483E-01;  0.0000000E+00;  2.2886869E-02;0;  1.8451551E-02;  3.9785828E+04;  0.0000000E+00; -2.0408347E-01;  4.0000000E+04;  0.0000000E+00;  4.0023375E+04;  2.0649018E-02;  0.0000000E+00; -2.1974668E-03;  3.1209048E+03;
  5.3156483E-01;  9.9999998E-03; -2.7998337E-01;5681;  7.2039985E-03;  0.0000000E+00;  6.9052988E-04;  9.9791650E+02;  1.0001760E-01; -1.7261240E+03;3;  7.7100664E-01;  0.0000000E+00;  2.0334270E-02;0;  1.8238435E-02;  3.9797559E+04;  0.0000000E+00; -2.0536236E-01;  4.0000000E+04;  0.0000000E+00;  4.0021980E+04;  2.0140538E-02;  0.0000000E+00; -1.9021035E-03;  2.9391956E+03;
  5.4165733E-01;  9.9999998E-03; -2.9997760E-01;5740;  7.5503462E-03;  0.0000000E+00;  8.0592936E-04;  9.9759503E+02;  1.0002959E-01; -1.9924868E+03;3;  8.0075556E-01;  0.0000000E+00;  2.4979506E-02;0;  1.9678770E-02;  3.9757668E+04;  0.0000000E+00; -2.7155507E-01;  4.0000000E+04;  0.0000000E+00;  4.0025586E+04;  2.2670394E-02;  0.0000000E+00; -2.9916244E-03;  3.4452253E+03;
  5.4160261E-01;  9.9999998E-03; -2.8997990E-01;5741;  7.3627890E-03;  0.0000000E+00;  7.8412652E-04;  9.9770270E+02;  1.0002951E-01; -1.9032548E+03;3;  7.8702295E-01;  0.0000000E+00;  2.3988970E-02;0;  1.9313032E-02;  3.9767980E+04;  0.0000000E+00; -2.2926220E-01;  4.0000000E+04;  0.0000000E+00;  4.0024441E+04;  2.2150578E-02;  0.0000000E+00; -2.8375462E-03;  3.2814060E+03;
  5.4157072E-01;  9.9999998E-03; -2.7998203E-01;5742;  7.1854983E-03;  0.0000000E+00;  7.5861299E-04;  9.9783417E+02;  1.0002955E-01; -1.7943690E+03;3;  7.7361357E-01;  0.0000000E+00;  2.3220386E-02;0;  1.9041408E-02;  3.9779980E+04;  0.0000000E+00; -2.2733267E-01;  4.0000000E+04;  0.0000000E+00;  4.0022855E+04;  2.1604370E-02;  0.0000000E+00; -2.5629618E-03;  3.0897258E+03;
  5.5171394E-01;  9.9999998E-03; -2.9997796E-01;5801;  7.5441012E-03;  0.0000000E+00;  8.5881463E-04;  9.9760266E+02;  1.0004847E-01; -1.9861660E+03;3;  8.0530131E-01;  0.0000000E+00;  2.8474497E-02;0;  2.0932117E-02;  3.9743043E+04;  0.0000000E+00; -3.3537751E-01;  4.0000000E+04;  0.0000000E+00;  4.0025863E+04;  2.4434743E-02;  0.0000000E+00; -3.5026262E-03;  3.4701113E+03;
  5.5165291E-01;  9.9999998E-03; -2.8997985E-01;5802;  7.3573347E-03;  0.0000000E+00;  8.3958043E-04;  9.9770740E+02;  1.0004845E-01; -1.8993536E+03;3;  7.9000771E-01;  0.0000000E+00;  2.6594937E-02;0;  2.0495508E-02;  3.9752699E+04;  0.0000000E+00; -2.5558469E-01;  4.0000000E+04;  0.0000000E+00;  4.0024109E+04;  2.3877379E-02;  0.0000000E+00; -3.3818712E-03;  3.3010603E+03;
  5.5161804E-01;  9.9999998E-03; -2.7998164E-01;5803;  7.1864263E-03;  0.0000000E+00;  8.1768248E-04;  9.9784344E+02;  1.0004848E-01; -1.7866655E+03;3;  7.7885139E-01;  0.0000000E+00;  2.8700089E-02;0;  2.0161267E-02;  3.9764953E+04;  0.0000000E+00; -2.5100765E-01;  4.0000000E+04;  0.0000000E+00;  4.0023023E+04;  2.3277132E-02;  0.0000000E+00; -3.1158640E-03;  3.0996594E+03;
  5.6182230E-01;  9.9999998E-03; -2.9997987E-01;5862;  7.7612796E-03;  0.0000000E+00;  8.9004001E-04;  9.9772284E+02;  1.0007981E-01; -1.8865640E+03;3;  8.5553533E-01;  0.0000000E+00;  3.2541309E-02;0;  2.2565514E-02;  3.9729523E+04;  0.0000000E+00; -5.3557259E-01;  4.0000000E+04;  0.0000000E+00;  4.0024125E+04;  2.6227966E-02;  0.0000000E+00; -3.6624523E-03;  3.3510435E+03;
  5.6175613E-01;  9.9999998E-03; -2.8998116E-01;5863;  7.4401633E-03;  0.0000000E+00;  8.7884662E-04;  9.9782111E+02;  1.0007969E-01; -1.8051835E+03;3;  8.0584037E-01;  0.0000000E+00;  3.2605086E-02;0;  2.1976361E-02;  3.9738031E+04;  0.0000000E+00; -3.8744071E-01;  4.0000000E+04;  0.0000000E+00;  4.0023043E+04;  2.5660113E-02;  0.0000000E+00; -3.6837512E-03;  3.1691804E+03;
  5.6171948E-01;  9.9999998E-03; -2.7998239E-01;5864;  7.2620399E-03;  0.0000000E+00;  8.5509650E-04;  9.9794989E+02;  1.0007984E-01; -1.6984705E+03;3;  7.8983444E-01;  0.0000000E+00;  3.0429816E-02;0;  2.1624144E-02;  3.9749898E+04;  0.0000000E+00; -3.5238320E-01;  4.0000000E+04;  0.0000000E+00;  4.0021555E+04;  2.5003234E-02;  0.0000000E+00; -3.3790891E-03;  2.9680474E+03;
  5.7198590E-01;  9.9999998E-03; -2.9998365E-01;5923;  8.5535208E-03;  0.0000000E+00;  8.9689885E-04;  9.9794189E+02;  1.0013096E-01; -1.7050875E+03;3;  9.7833502E-01;  0.0000000E+00;  4.7469310E-02;0;  2.4315765E-02;  3.9708875E+04;  0.0000000E+00; -1.0793324E+00;  4.0000000E+04;  0.0000000E+00;  4.0021012E+04;  2.7726341E-02;  0.0000000E+00; -3.4105766E-03;  3.2683262E+03;
  5.7192063E-01;  9.9999998E-03; -2.8998411E-01;5924;  7.9916148E-03;  0.0000000E+00;  8.8051584E-04;  9.9802917E+02;  1.0013096E-01; -1.6327933E+03;3;  9.1295588E-01;  0.0000000E+00;  4.0485412E-02;0;  2.3815671E-02;  3.9716246E+04;  0.0000000E+00; -7.9677755E-01;  4.0000000E+04;  0.0000000E+00;  4.0020098E+04;  2.7200161E-02;  0.0000000E+00; -3.3844903E-03;  3.0000828E+03;
  5.7188445E-01;  9.9999998E-03; -2.7998462E-01;5925;  7.5363917E-03;  0.0000000E+00;  8.6680782E-04;  9.9815186E+02;  1.0013135E-01; -1.5311666E+03;3;  8.2541198E-01;  0.0000000E+00;  4.1209795E-02;0;  2.3278406E-02;  3.9727816E+04;  0.0000000E+00; -6.5335029E-01;  4.0000000E+04;  0.0000000E+00;  4.0018824E+04;  2.6559023E-02;  0.0000000E+00; -3.2806178E-03;  2.7585020E+03;
  5.8215654E-01;  9.9999998E-03; -2.9998896E-01;5984;  9.4259875E-03;  0.0000000E+00;  8.9455291E-04;  9.9818225E+02;  1.0021381E-01; -1.5059821E+03;3;  1.1305937E+00;  0.0000000E+00;  5.9773121E-02;0;  2.5791856E-02;  3.9666488E+04;  0.0000000E+00; -1.8968475E+00;  4.0000000E+04;  0.0000000E+00;  4.0017359E+04;  2.8796095E-02;  0.0000000E+00; -3.0042403E-03;  3.6384583E+03;
  5.8211285E-01;  9.9999998E-03; -2.8998855E-01;5985;  8.9653898E-03;  0.0000000E+00;  8.5613073E-04;  9.9825977E+02;  1.0021405E-01; -1.4417371E+03;3;  1.0744171E+00;  0.0000000E+00;  5.5597063E-02;0;  2.5595468E-02;  3.9673008E+04;  0.0000000E+00; -1.4898014E+00;  4.0000000E+04;  0.0000000E+00;  4.0016328E+04;  2.8253300E-02;  0.0000000E+00; -2.6578326E-03;  3.1601902E+03;
  5.8208555E-01;  9.9999998E-03; -2.7998814E-01;5986;  8.5010231E-03;  0.0000000E+00;  8.1773661E-04;  9.9837689E+02;  1.0021434E-01; -1.3447028E+03;3;  1.0227144E+00;  0.0000000E+00;  4.7420319E-02;0;  2.5298724E-02;  3.9683578E+04;  0.0000000E+00; -1.1672003E+00;  4.0000000E+04;  0.0000000E+00;  4.0015191E+04;  2.7606048E-02;  0.0000000E+00; -2.3073233E-03;  2.7390669E+03;
  5.9228730E-01;  9.9999998E-03; -2.9999548E-01;6045;  1.0152906E-02;  0.0000000E+00;  8.8345463E-04;  9.9834393E+02;  1.0034749E-01; -1.3720106E+03;3;  1.2749482E+00;  0.0000000E+00;  6.2712878E-02;0;  2.7015861E-02;  3.9577516E+04;  0.0000000E+00; -2.6379802E+00;  4.0000000E+04;  0.0000000E+00;  4.0014270E+04;  2.9450672E-02;  0.0000000E+00; -2.4348102E-03;  4.3182051E+03;
  5.9225786E-01;  9.9999998E-03; -2.8999397E-01;6046;  9.7787809E-03;  0.0000000E+00;  8.2747784E-04;  9.9841528E+02;  1.0034800E-01; -1.3129011E+03;3;  1.2320541E+00;  0.0000000E+00;  5.6747083E-02;0;  2.7027151E-02;  3.9583508E+04;  0.0000000E+00; -2.0825586E+00;  4.0000000E+04;  0.0000000E+00;  4.0013066E+04;  2.8880605E-02;  0.0000000E+00; -1.8534545E-03;  3.5931882E+03;
  5.9223551E-01;  9.9999998E-03; -2.7999234E-01;6047;  9.3774861E-03;  0.0000000E+00;  7.6755555E-04;  9.9852289E+02;  1.0034849E-01; -1.2237678E+03;3;  1.1895256E+00;  0.0000000E+00;  4.6675213E-02;0;  2.6909847E-02;  3.9593012E+04;  0.0000000E+00; -1.5791421E+00;  4.0000000E+04;  0.0000000E+00;  4.0011973E+04;  2.8217489E-02;  0.0000000E+00; -1.3076419E-03;  2.9235396E+03;
  6.0231704E-01;  9.9999998E-03; -3.0000302E-01;6106;  1.0697671E-02;  0.0000000E+00;  8.8426127E-04;  9.9831384E+02;  1.0056060E-01; -1.3969481E+03;3;  1.3855737E+00;  0.0000000E+00;  6.1436202E-02;0;  2.7778266E-02;  3.9411070E+04;  0.0000000E+00; -2.6017790E+00;  4.0000000E+04;  0.0000000E+00;  4.0012566E+04;  2.9820323E-02;  0.0000000E+00; -2.0420572E-03;  4.2869111E+03;
  6.0229468E-01;  9.9999998E-03; -2.9000026E-01;6107;  1.0352665E-02;  0.0000000E+00;  8.1643596E-04;  9.9839368E+02;  1.0056145E-01; -1.3308265E+03;3;  1.3568102E+00;  0.0000000E+00;  5.4594826E-02;0;  2.7916336E-02;  3.9417426E+04;  0.0000000E+00; -2.0547471E+00;  4.0000000E+04;  0.0000000E+00;  4.0011164E+04;  2.9225852E-02;  0.0000000E+00; -1.3095160E-03;  3.5577146E+03;
  6.0227531E-01;  9.9999998E-03; -2.7999699E-01;6108;  9.9896640E-03;  0.0000000E+00;  7.4040686E-04;  9.9849982E+02;  1.0056195E-01; -1.2428784E+03;3;  1.3241030E+00;  0.0000000E+00;  4.3351449E-02;0;  2.7936907E-02;  3.9426312E+04;  0.0000000E+00; -1.5366601E+00;  4.0000000E+04;  0.0000000E+00;  4.0010262E+04;  2.8552938E-02;  0.0000000E+00; -6.1603147E-04;  2.8657227E+03;
  6.1226618E-01;  9.9999998E-03; -3.0001214E-01;6167;  1.1084892E-02;  0.0000000E+00;  8.9771650E-04;  9.9807513E+02;  1.0089329E-01; -1.5947203E+03;3;  1.4483124E+00;  0.0000000E+00;  6.2293496E-02;0;  2.8293554E-02;  3.9135355E+04;  0.0000000E+00; -1.8582814E+00;  4.0000000E+04;  0.0000000E+00;  4.0012473E+04;  3.0114638E-02;  0.0000000E+00; -1.8210835E-03;  3.6296250E+03;
  6.1225146E-01;  9.9999998E-03; -2.9000798E-01;6168;  1.0727158E-02;  0.0000000E+00;  8.2566746E-04;  9.9816937E+02;  1.0089496E-01; -1.5166484E+03;3;  1.4241533E+00;  0.0000000E+00;  5.5188846E-02;0;  2.8444143E-02;  3.9142141E+04;  0.0000000E+00; -1.4919873E+00;  4.0000000E+04;  0.0000000E+00;  4.0011297E+04;  2.9496271E-02;  0.0000000E+00; -1.0521283E-03;  3.1544202E+03;
  6.1223668E-01;  9.9999998E-03; -2.8000277E-01;6169;  1.0374397E-02;  0.0000000E+00;  7.4302586E-04;  9.9828210E+02;  1.0089624E-01; -1.4232684E+03;3;  1.4038987E+00;  0.0000000E+00;  4.0439762E-02;0;  2.8498445E-02;  3.9150516E+04;  0.0000000E+00; -1.1092356E+00;  4.0000000E+04;  0.0000000E+00;  4.0009938E+04;  2.8815471E-02;  0.0000000E+00; -3.1702538E-04;  2.6652607E+03;
  6.2215209E-01;  9.9999998E-03; -3.0002421E-01;6228;  1.1338608E-02;  0.0000000E+00;  9.2876184E-04;  9.9770215E+02;  1.0139926E-01; -1.9037487E+03;3;  1.4851135E+00;  0.0000000E+00;  6.6942610E-02;0;  2.8716693E-02;  3.8718859E+04;  0.0000000E+00; -8.5209793E-01;  4.0000000E+04;  0.0000000E+00;  4.0012879E+04;  3.0568514E-02;  0.0000000E+00; -1.8518206E-03;  3.2303560E+03;
  6.2214392E-01;  9.9999998E-03; -2.9001865E-01;6229;  1.0943369E-02;  0.0000000E+00;  8.6212246E-04;  9.9782330E+02;  1.0140163E-01; -1.8033564E+03;3;  1.4627122E+00;  0.0000000E+00;  5.9862129E-02;0;  2.8727412E-02;  3.8726547E+04;  0.0000000E+00; -7.0407695E-01;  4.0000000E+04;  0.0000000E+00;  4.0011570E+04;  2.9918566E-02;  0.0000000E+00; -1.1911548E-03;  2.9950051E+03;
  6.2213379E-01;  9.9999998E-03; -2.8001142E-01;6230;  1.0585158E-02;  0.0000000E+00;  7.8183465E-04;  9.9794672E+02;  1.0140407E-01; -1.7010876E+03;3;  1.4435657E+00;  0.0000000E+00;  4.5117326E-02;0;  2.8723715E-02;  3.8735340E+04;  0.0000000E+00; -5.0605530E-01;  4.0000000E+04;  0.0000000E+00;  4.0010297E+04;  2.9221194E-02;  0.0000000E+00; -4.9747858E-04;  2.7329526E+03;
  6.3195884E-01;  9.9999998E-03; -3.0004111E-01;6289;  1.1438990E-02;  0.0000000E+00;  9.8473928E-04;  9.9734900E+02;  1.0213719E-01; -2.1962834E+03;3;  1.5232847E+00;  0.0000000E+00;  6.6742934E-02;0;  2.9128429E-02;  3.8136621E+04;  0.0000000E+00; -2.1374948E-01;  4.0000000E+04;  0.0000000E+00;  4.0012094E+04;  3.1397682E-02;  0.0000000E+00; -2.2692536E-03;  3.5403425E+03;
  6.3196111E-01;  9.9999998E-03; -2.9003435E-01;6290;  1.1011126E-02;  0.0000000E+00;  9.2885515E-04;  9.9750299E+02;  1.0214166E-01; -2.0687317E+03;3;  1.4917179E+00;  0.0000000E+00;  6.1329912E-02;0;  2.8912056E-02;  3.8145590E+04;  0.0000000E+00; -1.9145864E-01;  4.0000000E+04;  0.0000000E+00;  4.0010570E+04;  3.0696701E-02;  0.0000000E+00; -1.7846453E-03;  3.3321211E+03;
  6.3195831E-01;  9.9999998E-03; -2.8002551E-01;6291;  1.0646577E-02;  0.0000000E+00;  8.5713930E-04;  9.9765405E+02;  1.0214505E-01; -1.9435499E+03;3;  1.4659933E+00;  0.0000000E+00;  5.1484808E-02;0;  2.8793216E-02;  3.8155570E+04;  0.0000000E+00; -8.1838354E-02;  4.0000000E+04;  0.0000000E+00;  4.0008875E+04;  2.9963119E-02;  0.0000000E+00; -1.1699039E-03;  3.1096538E+03;
  6.4173120E-01;  9.9999998E-03; -3.0006495E-01;6350;  1.1401752E-02;  0.0000000E+00;  1.0637109E-03;  9.9719763E+02;  1.0316130E-01; -2.3217122E+03;3;  1.5476273E+00;  0.0000000E+00;  6.8786271E-02;0;  2.9692380E-02;  3.7375527E+04;  0.0000000E+00; -1.0245404E+00;  4.0000000E+04;  0.0000000E+00;  4.0007699E+04;  3.2735903E-02;  0.0000000E+00; -3.0435238E-03;  4.1284624E+03;
  6.4174098E-01;  9.9999998E-03; -2.9005733E-01;6351;  1.0969653E-02;  0.0000000E+00;  1.0183200E-03;  9.9738208E+02;  1.0316780E-01; -2.1688770E+03;3;  1.5060704E+00;  0.0000000E+00;  6.5653421E-02;0;  2.9245635E-02;  3.7385160E+04;  0.0000000E+00; -7.8160745E-01;  4.0000000E+04;  0.0000000E+00;  4.0005609E+04;  3.1960547E-02;  0.0000000E+00; -2.7149117E-03;  3.7660957E+03;
  6.4174324E-01;  9.9999998E-03; -2.8004748E-01;6352;  1.0614515E-02;  0.0000000E+00;  9.5590728E-04;  9.9756512E+02;  1.0317304E-01; -2.0172269E+03;3;  1.4801605E+00;  0.0000000E+00;  5.8159254E-02;0;  2.9008007E-02;  3.7395938E+04;  0.0000000E+00; -4.2534089E-01;  4.0000000E+04;  0.0000000E+00;  4.0003781E+04;  3.1163612E-02;  0.0000000E+00; -2.1556057E-03;  3.3838911E+03;
  6.5156877E-01;  9.9999998E-03; -3.0009666E-01;6411;  1.1363316E-02;  0.0000000E+00;  1.1478369E-03;  9.9729175E+02;  1.0450064E-01; -2.2437390E+03;3;  1.5668392E+00;  0.0000000E+00;  7.4871577E-02;0;  3.0777346E-02;  3.6435043E+04;  0.0000000E+00; -3.8636150E+00;  4.0000000E+04;  0.0000000E+00;  3.9998523E+04;  3.4646627E-02;  0.0000000E+00; -3.8692807E-03;  7.0727148E+03;
  6.5156478E-01;  9.9999998E-03; -2.9008847E-01;6412;  1.0920934E-02;  0.0000000E+00;  1.1095568E-03;  9.9749994E+02;  1.0450911E-01; -2.0712500E+03;3;  1.5196772E+00;  0.0000000E+00;  6.9470629E-02;0;  3.0129638E-02;  3.6444863E+04;  0.0000000E+00; -2.9824383E+00;  4.0000000E+04;  0.0000000E+00;  3.9996164E+04;  3.3775672E-02;  0.0000000E+00; -3.6460354E-03;  5.7965493E+03;
  6.5155745E-01;  9.9999998E-03; -2.8007823E-01;6413;  1.0567291E-02;  0.0000000E+00;  1.0580833E-03;  9.9771039E+02;  1.0451498E-01; -1.8968846E+03;3;  1.4880457E+00;  0.0000000E+00;  6.5432049E-02;0;  2.9711911E-02;  3.6456934E+04;  0.0000000E+00; -1.9352942E+00;  4.0000000E+04;  0.0000000E+00;  3.9994207E+04;  3.2886043E-02;  0.0000000E+00; -3.1741310E-03;  4.3995586E+03;
  6.6164899E-01;  9.9999998E-03; -3.0013555E-01;6472;  1.1698499E-02;  0.0000000E+00;  1.1964826E-03;  9.9747998E+02;  1.0615193E-01; -2.0877927E+03;3;  1.6682053E+00;  0.0000000E+00;  7.6890483E-02;0;  3.3180639E-02;  3.5328199E+04;  0.0000000E+00; -7.7977633E+00;  4.0000000E+04;  0.0000000E+00;  3.9986016E+04;  3.7222207E-02;  0.0000000E+00; -4.0415688E-03;  1.2887707E+04;
  6.6158617E-01;  9.9999998E-03; -2.9012689E-01;6473;  1.1016438E-02;  0.0000000E+00;  1.1853878E-03;  9.9770398E+02;  1.0616234E-01; -1.9022178E+03;3;  1.5533606E+00;  0.0000000E+00;  7.1428016E-02;0;  3.1896919E-02;  3.5337434E+04;  0.0000000E+00; -6.2272816E+00;  4.0000000E+04;  0.0000000E+00;  3.9983648E+04;  3.6197264E-02;  0.0000000E+00; -4.3003438E-03;  1.0451476E+04;
  6.6154736E-01;  9.9999998E-03; -2.8011671E-01;6474;  1.0599544E-02;  0.0000000E+00;  1.1445214E-03;  9.9794067E+02;  1.0616936E-01; -1.7061246E+03;3;  1.5049649E+00;  0.0000000E+00;  6.7744270E-02;0;  3.1220077E-02;  3.5350559E+04;  0.0000000E+00; -4.2733011E+00;  4.0000000E+04;  0.0000000E+00;  3.9981406E+04;  3.5174500E-02;  0.0000000E+00; -3.9544231E-03;  7.4562466E+03;
  6.7209131E-01;  9.9999998E-03; -3.0018002E-01;6533;  1.2639882E-02;  0.0000000E+00;  1.2285863E-03;  9.9753668E+02;  1.0809884E-01; -2.0408312E+03;3;  1.8453262E+00;  0.0000000E+00;  9.3909279E-02;0;  3.6695890E-02;  3.4076059E+04;  0.0000000E+00; -1.0446528E+01;  4.0000000E+04;  0.0000000E+00;  3.9972141E+04;  4.0572472E-02;  0.0000000E+00; -3.8765830E-03;  1.7424135E+04;
  6.7190343E-01;  9.9999998E-03; -2.9017070E-01;6534;  1.1452752E-02;  0.0000000E+00;  1.2329611E-03;  9.9777795E+02;  1.0810918E-01; -1.8409355E+03;3;  1.6773943E+00;  0.0000000E+00;  7.5880386E-02;0;  3.4810178E-02;  3.4085559E+04;  0.0000000E+00; -8.9418364E+00;  4.0000000E+04;  0.0000000E+00;  3.9970281E+04;  3.9272804E-02;  0.0000000E+00; -4.4626244E-03;  1.5050896E+04;
  6.7177463E-01;  9.9999998E-03; -2.8016052E-01;6535;  1.0788268E-02;  0.0000000E+00;  1.2057207E-03;  9.9803333E+02;  1.0811486E-01; -1.6293367E+03;3;  1.5548171E+00;  0.0000000E+00;  7.5498611E-02;0;  3.3674832E-02;  3.4099652E+04;  0.0000000E+00; -6.5127916E+00;  4.0000000E+04;  0.0000000E+00;  3.9967500E+04;  3.8031239E-02;  0.0000000E+00; -4.3564057E-03;  1.1163769E+04;
  6.8285882E-01;  9.9999998E-03; -3.0022988E-01;6594;  1.3543916E-02;  0.0000000E+00;  1.3016283E-03;  9.9743848E+02;  1.1036925E-01; -2.1221621E+03;3;  2.0453858E+00;  0.0000000E+00;  1.1195222E-01;0;  4.0073209E-02;  3.2689297E+04;  0.0000000E+00; -1.0821612E+01;  4.0000000E+04;  0.0000000E+00;  3.9958559E+04;  4.4451397E-02;  0.0000000E+00; -4.3781875E-03;  1.8679422E+04;
  6.8255585E-01;  9.9999998E-03; -2.9021955E-01;6595;  1.2403086E-02;  0.0000000E+00;  1.2460590E-03;  9.9766595E+02;  1.1036934E-01; -1.9337231E+03;3;  1.8979324E+00;  0.0000000E+00;  9.7398110E-02;0;  3.8974337E-02;  3.2703285E+04;  0.0000000E+00; -1.0018811E+01;  4.0000000E+04;  0.0000000E+00;  3.9956688E+04;  4.2991303E-02;  0.0000000E+00; -4.0169638E-03;  1.7447189E+04;
  6.8228072E-01;  9.9999998E-03; -2.8020880E-01;6596;  1.1246137E-02;  0.0000000E+00;  1.2486371E-03;  9.9793170E+02;  1.1036328E-01; -1.7135317E+03;3;  1.6712124E+00;  0.0000000E+00;  8.4316127E-02;0;  3.6944006E-02;  3.2724396E+04;  0.0000000E+00; -7.9681373E+00;  4.0000000E+04;  0.0000000E+00;  3.9954410E+04;  4.1419469E-02;  0.0000000E+00; -4.4754618E-03;  1.4073704E+04;
  6.9468069E-01;  9.9999998E-03; -3.0028966E-01;6655;  1.3984882E-02;  0.0000000E+00;  1.3894757E-03;  9.9739557E+02;  1.1312354E-01; -2.1577168E+03;3;  2.1608851E+00;  0.0000000E+00;  1.2130118E-01;0;  4.3764934E-02;  3.1128412E+04;  0.0000000E+00; -6.4342284E+00;  4.0000000E+04;  0.0000000E+00;  3.9942492E+04;  4.8785631E-02;  0.0000000E+00; -5.0206962E-03;  1.2229427E+04;
  6.9432169E-01;  9.9999998E-03; -2.9027766E-01;6656;  1.3052776E-02;  0.0000000E+00;  1.3185609E-03;  9.9755164E+02;  1.1310323E-01; -2.0284364E+03;3;  2.0479856E+00;  0.0000000E+00;  1.1698739E-01;0;  4.2784445E-02;  3.1148164E+04;  0.0000000E+00; -6.6522646E+00;  4.0000000E+04;  0.0000000E+00;  3.9941059E+04;  4.7228936E-02;  0.0000000E+00; -4.4444893E-03;  1.2676508E+04;
  6.9393080E-01;  9.9999998E-03; -2.8026530E-01;6657;  1.2003799E-02;  0.0000000E+00;  1.2841371E-03;  9.9775940E+02;  1.1306655E-01; -1.8562932E+03;3;  1.9281439E+00;  0.0000000E+00;  9.0045266E-02;0;  4.1089874E-02;  3.1180303E+04;  0.0000000E+00; -5.7998600E+00;  4.0000000E+04;  0.0000000E+00;  3.9939242E+04;  4.5500968E-02;  0.0000000E+00; -4.4110925E-03;  1.1217874E+04;
  7.0712370E-01;  9.9999998E-03; -3.0036291E-01;6716;  1.4944497E-02;  0.0000000E+00;  1.4423048E-03;  9.9777014E+02;  1.1638054E-01; -1.8474045E+03;3;  2.3455031E+00;  0.0000000E+00;  1.3166586E-01;0;  4.8565414E-02;  2.9455549E+04;  0.0000000E+00; -4.1561470E+00;  4.0000000E+04;  0.0000000E+00;  3.9918316E+04;  5.3481139E-02;  0.0000000E+00; -4.9157259E-03;  9.0341143E+03;
  7.0682812E-01;  9.9999998E-03; -2.9034966E-01;6717;  1.4042888E-02;  0.0000000E+00;  1.3625823E-03;  9.9787543E+02;  1.1636343E-01; -1.7601477E+03;3;  2.2481565E+00;  0.0000000E+00;  1.2824266E-01;0;  4.7530442E-02;  2.9469188E+04;  0.0000000E+00; -4.3586240E+00;  4.0000000E+04;  0.0000000E+00;  3.9917391E+04;  5.1808216E-02;  0.0000000E+00; -4.2777741E-03;  9.4479072E+03;
  7.0648539E-01;  9.9999998E-03; -2.8033614E-01;6718;  1.3164685E-02;  0.0000000E+00;  1.2754453E-03;  9.9799799E+02;  1.1632180E-01; -1.6586198E+03;3;  2.1448247E+00;  0.0000000E+00;  1.0999306E-01;0;  4.6407323E-02;  2.9496172E+04;  0.0000000E+00; -3.7115068E+00;  4.0000000E+04;  0.0000000E+00;  3.9916535E+04;  4.9995910E-02;  0.0000000E+00; -3.5885861E-03;  8.2667324E+03;
  7.1862799E-01;  9.9999998E-03; -3.0043617E-01;6777;  1.6135545E-02;  0.0000000E+00;  1.4596325E-03;  9.9809497E+02;  1.1970387E-01; -1.5782764E+03;3;  2.5367229E+00;  0.0000000E+00;  1.4414617E-01;0;  5.3597294E-02;  2.7881918E+04;  0.0000000E+00; -6.1786447E+00;  4.0000000E+04;  0.0000000E+00;  3.9894590E+04;  5.7736222E-02;  0.0000000E+00; -4.1389279E-03;  1.3094661E+04;
  7.1851689E-01;  9.9999998E-03; -2.9042289E-01;6778;  1.5262997E-02;  0.0000000E+00;  1.3579809E-03;  9.9823114E+02;  1.1973148E-01; -1.4654894E+03;3;  2.4699495E+00;  0.0000000E+00;  1.3018315E-01;0;  5.2724779E-02;  2.7876098E+04;  0.0000000E+00; -5.8731642E+00;  4.0000000E+04;  0.0000000E+00;  3.9893086E+04;  5.5974972E-02;  0.0000000E+00; -3.2501945E-03;  1.2608516E+04;
  7.1838874E-01;  9.9999998E-03; -2.8040975E-01;6779;  1.4388114E-02;  0.0000000E+00;  1.2473158E-03;  9.9835724E+02;  1.1974011E-01; -1.3609985E+03;3;  2.3976507E+00;  0.0000000E+00;  1.1019211E-01;0;  5.1672082E-02;  2.7878662E+04;  0.0000000E+00; -4.6867042E+00;  4.0000000E+04;  0.0000000E+00;  3.9891805E+04;  5.4086640E-02;  0.0000000E+00; -2.4145569E-03;  1.0362953E+04;
  7.2984755E-01;  9.9999998E-03; -3.0050614E-01;6838;  1.6765200E-02;  0.0000000E+00;  1.5504663E-03;  9.9788989E+02;  1.2316139E-01; -1.7481975E+03;3;  2.6565485E+00;  0.0000000E+00;  1.4688425E-01;0;  5.7162017E-02;  2.6342979E+04;  0.0000000E+00; -6.0382442E+00;  4.0000000E+04;  0.0000000E+00;  3.9877234E+04;  6.1679274E-02;  0.0000000E+00; -4.5172591E-03;  1.3305058E+04;
  7.2981453E-01;  9.9999998E-03; -2.9049182E-01;6839;  1.5930517E-02;  0.0000000E+00;  1.4322265E-03;  9.9806958E+02;  1.2320481E-01; -1.5993127E+03;3;  2.5842569E+00;  0.0000000E+00;  1.4103268E-01;0;  5.6401815E-02;  2.6334090E+04;  0.0000000E+00; -5.8281178E+00;  4.0000000E+04;  0.0000000E+00;  3.9875113E+04;  5.9788626E-02;  0.0000000E+00; -3.3868121E-03;  1.2921365E+04;
  7.2976393E-01;  9.9999998E-03; -2.8047758E-01;6840;  1.5127545E-02;  0.0000000E+00;  1.3010063E-03;  9.9822357E+02;  1.2323168E-01; -1.4717609E+03;3;  2.5248470E+00;  0.0000000E+00;  1.2444850E-01;0;  5.5482700E-02;  2.6331230E+04;  0.0000000E+00; -4.7780232E+00;  4.0000000E+04;  0.0000000E+00;  3.9873348E+04;  5.7784911E-02;  0.0000000E+00; -2.3022098E-03;  1.0846437E+04;
  7.4186486E-01;  9.9999998E-03; -3.0057791E-01;6899;  1.7029196E-02;  0.0000000E+00;  1.7094540E-03;  9.9710773E+02;  1.2707587E-01; -2.3961792E+03;3;  2.7242570E+00;  0.0000000E+00;  1.5940388E-01;0;  6.0019672E-02;  2.4718795E+04;  0.0000000E+00; -4.0189880E-01;  4.0000000E+04;  0.0000000E+00;  3.9865320E+04;  6.5809287E-02;  0.0000000E+00; -5.7896147E-03;  4.0775332E+03;
  7.4181789E-01;  9.9999998E-03; -2.9056102E-01;6900;  1.6212352E-02;  0.0000000E+00;  1.5946474E-03;  9.9732129E+02;  1.2709706E-01; -2.2192458E+03;3;  2.6472607E+00;  0.0000000E+00;  1.4944626E-01;0;  5.9083574E-02;  2.4721342E+04;  0.0000000E+00; -1.4235179E+00;  4.0000000E+04;  0.0000000E+00;  3.9862727E+04;  6.3788556E-02;  0.0000000E+00; -4.7049802E-03;  5.0624502E+03;
  7.4174744E-01;  9.9999998E-03; -2.8054404E-01;6901;  1.5517853E-02;  0.0000000E+00;  1.4557305E-03;  9.9752246E+02;  1.2710489E-01; -2.0525840E+03;3;  2.6091363E+00;  0.0000000E+00;  1.3262078E-01;0;  5.8229554E-02;  2.4728701E+04;  0.0000000E+00; -1.7683908E+00;  4.0000000E+04;  0.0000000E+00;  3.9860277E+04;  6.1649960E-02;  0.0000000E+00; -3.4204049E-03;  5.4582012E+03;
  7.5436163E-01;  9.9999998E-03; -3.0065253E-01;6960;  1.8058961E-02;  0.0000000E+00;  1.8433790E-03;  9.9614020E+02;  1.3126996E-01; -3.1977861E+03;3;  2.9273481E+00;  0.0000000E+00;  1.5821253E-01;0;  6.3548937E-02;  2.3129746E+04;  0.0000000E+00;  7.6121907E+00;  4.0000000E+04;  0.0000000E+00;  3.9853895E+04;  6.9887944E-02;  0.0000000E+00; -6.3390066E-03;  1.8087531E+04;
  7.5433481E-01;  9.9999998E-03; -2.9063299E-01;6961;  1.6719421E-02;  0.0000000E+00;  1.7698496E-03;  9.9638629E+02;  1.3130464E-01; -2.9938906E+03;3;  2.7816017E+00;  0.0000000E+00;  1.5831865E-01;0;  6.1974861E-02;  2.3129252E+04;  0.0000000E+00;  4.7608619E+00;  4.0000000E+04;  0.0000000E+00;  3.9851047E+04;  6.7920119E-02;  0.0000000E+00; -5.9452564E-03;  1.1912370E+04;
  7.5432152E-01;  9.9999998E-03; -2.8061312E-01;6962;  1.5885543E-02;  0.0000000E+00;  1.6490306E-03;  9.9664075E+02;  1.3132791E-01; -2.7830818E+03;3;  2.6867828E+00;  0.0000000E+00;  1.4299889E-01;0;  6.0931716E-02;  2.3133734E+04;  0.0000000E+00;  2.5648546E+00;  4.0000000E+04;  0.0000000E+00;  3.9848223E+04;  6.5759905E-02;  0.0000000E+00; -4.8281876E-03;  7.3193311E+03;
  7.6868337E-01;  9.9999998E-03; -3.0074549E-01;7021;  2.0365033E-02;  0.0000000E+00;  1.9961146E-03;  9.9603302E+02;  1.3613868E-01; -3.2865737E+03;3;  3.3556082E+00;  0.0000000E+00;  1.4777650E-01;0;  6.6768989E-02;  2.1511311E+04;  0.0000000E+00;  9.9014654E+00;  4.0000000E+04;  0.0000000E+00;  3.9828992E+04;  7.3446691E-02;  0.0000000E+00; -6.6777039E-03;  2.6372979E+04;
  7.6839334E-01;  9.9999998E-03; -2.9072165E-01;7022;  1.8155416E-02;  0.0000000E+00;  1.9116772E-03;  9.9622394E+02;  1.3614008E-01; -3.1284053E+03;3;  3.0972464E+00;  0.0000000E+00;  1.5591480E-01;0;  6.5754816E-02;  2.1518896E+04;  0.0000000E+00;  7.0406847E+00;  4.0000000E+04;  0.0000000E+00;  3.9827988E+04;  7.1932055E-02;  0.0000000E+00; -6.1772410E-03;  1.9392107E+04;
  7.6819599E-01;  9.9999998E-03; -2.8069824E-01;7023;  1.6629418E-02;  0.0000000E+00;  1.8360465E-03;  9.9647852E+02;  1.3612975E-01; -2.9174978E+03;3;  2.8590655E+00;  0.0000000E+00;  1.4707361E-01;0;  6.4260408E-02;  2.1533979E+04;  0.0000000E+00;  4.3491511E+00;  4.0000000E+04;  0.0000000E+00;  3.9825598E+04;  7.0032455E-02;  0.0000000E+00; -5.7720472E-03;  1.2686172E+04;
  7.8444266E-01;  9.9999998E-03; -3.0085891E-01;7082;  2.2409730E-02;  0.0000000E+00;  2.2097237E-03;  9.9708167E+02;  1.4183947E-01; -2.4178079E+03;3;  3.6452353E+00;  0.0000000E+00;  1.4593232E-01;0;  6.7907609E-02;  1.9865852E+04;  0.0000000E+00;  5.3860064E+00;  4.0000000E+04;  0.0000000E+00;  3.9788613E+04;  7.5421035E-02;  0.0000000E+00; -7.5134295E-03;  1.9666832E+04;
  7.8385949E-01;  9.9999998E-03; -2.9083085E-01;7083;  2.0046072E-02;  0.0000000E+00;  2.1150217E-03;  9.9718146E+02;  1.4175479E-01; -2.3350942E+03;3;  3.4157448E+00;  0.0000000E+00;  1.6423228E-01;0;  6.7761727E-02;  1.9893107E+04;  0.0000000E+00;  4.1097255E+00;  4.0000000E+04;  0.0000000E+00;  3.9789363E+04;  7.4672192E-02;  0.0000000E+00; -6.9104671E-03;  1.5465536E+04;
  7.8333658E-01;  9.9999998E-03; -2.8080371E-01;7084;  1.8038170E-02;  0.0000000E+00;  2.0113445E-03;  9.9734741E+02;  1.4165220E-01; -2.1976167E+03;3;  3.2183108E+00;  0.0000000E+00;  1.4950475E-01;0;  6.7314908E-02;  1.9928814E+04;  0.0000000E+00;  2.6551757E+00;  4.0000000E+04;  0.0000000E+00;  3.9788793E+04;  7.3455825E-02;  0.0000000E+00; -6.1409203E-03;  1.0639413E+04;
  7.9989201E-01;  9.9999998E-03; -3.0097139E-01;7143;  2.4422569E-02;  0.0000000E+00;  2.3479890E-03;  9.9787122E+02;  1.4782649E-01; -1.7636537E+03;3;  3.7717578E+00;  0.0000000E+00;  1.4904408E-01;0;  6.8080343E-02;  1.8319396E+04;  0.0000000E+00;  4.5537338E+00;  4.0000000E+04;  0.0000000E+00;  3.9750133E+04;  7.4836217E-02;  0.0000000E+00; -6.7558745E-03;  1.9982178E+04;
  7.9951662E-01;  9.9999998E-03; -2.9094362E-01;7144;  2.2266928E-02;  0.0000000E+00;  2.2626042E-03;  9.9808722E+02;  1.4780945E-01; -1.5846958E+03;3;  3.6651046E+00;  0.0000000E+00;  1.6069210E-01;0;  6.8405405E-02;  1.8330518E+04;  0.0000000E+00;  2.6909652E+00;  4.0000000E+04;  0.0000000E+00;  3.9749062E+04;  7.4792720E-02;  0.0000000E+00; -6.3873143E-03;  1.3569438E+04;
  7.9906213E-01;  9.9999998E-03; -2.8091654E-01;7145;  2.0352755E-02;  0.0000000E+00;  2.1375283E-03;  9.9830829E+02;  1.4771856E-01; -1.4015405E+03;3;  3.5552781E+00;  0.0000000E+00;  1.6583081E-01;0;  6.8920024E-02;  1.8361555E+04;  0.0000000E+00;  1.3031192E+00;  4.0000000E+04;  0.0000000E+00;  3.9747906E+04;  7.4360505E-02;  0.0000000E+00; -5.4404829E-03;  8.1341123E+03;
  8.1409103E-01;  9.9999998E-03; -3.0106667E-01;7204;  2.5744988E-02;  0.0000000E+00;  2.4311589E-03;  9.9774957E+02;  1.5358791E-01; -1.8644409E+03;3;  3.7361331E+00;  0.0000000E+00;  1.6801208E-01;0;  6.7401618E-02;  1.6966904E+04;  0.0000000E+00;  4.5754919E+00;  4.0000000E+04;  0.0000000E+00;  3.9723992E+04;  7.2337538E-02;  0.0000000E+00; -4.9359184E-03;  1.7716318E+04;
  8.1379598E-01;  9.9999998E-03; -2.9103777E-01;7205;  2.4228552E-02;  0.0000000E+00;  2.2950352E-03;  9.9804144E+02;  1.5355936E-01; -1.6226206E+03;3;  3.7527487E+00;  0.0000000E+00;  1.6128480E-01;0;  6.8686597E-02;  1.6981734E+04;  0.0000000E+00;  3.0431607E+00;  4.0000000E+04;  0.0000000E+00;  3.9721398E+04;  7.2582111E-02;  0.0000000E+00; -3.8955123E-03;  1.2451476E+04;
  8.1346601E-01;  9.9999998E-03; -2.8101021E-01;7206;  2.2802720E-02;  0.0000000E+00;  2.1252858E-03;  9.9828192E+02;  1.5350109E-01; -1.4234164E+03;3;  3.7418246E+00;  0.0000000E+00;  1.5155280E-01;0;  6.9968238E-02;  1.7002982E+04;  0.0000000E+00;  2.0565586E+00;  4.0000000E+04;  0.0000000E+00;  3.9719355E+04;  7.2636493E-02;  0.0000000E+00; -2.6682541E-03;  8.6494756E+03;
  8.2704443E-01;  9.9999998E-03; -2.8108975E-01;7267;  2.4112072E-02;  0.0000000E+00;  2.2602105E-03;  9.9742316E+02;  1.5926766E-01; -2.1348530E+03;3;  3.7486963E+00;  0.0000000E+00;  1.4954264E-01;0;  6.7654073E-02;  1.5774386E+04;  0.0000000E+00;  2.6587546E+00;  4.0000000E+04;  0.0000000E+00;  3.9702691E+04;  6.9485657E-02;  0.0000000E+00; -1.8315820E-03;  8.0166938E+03;
  8.2734245E-01;  9.9999998E-03; -2.9111955E-01;7266;  2.5200982E-02;  0.0000000E+00;  2.4734773E-03;  9.9709827E+02;  1.5933076E-01; -2.4040305E+03;3;  3.7302446E+00;  0.0000000E+00;  1.5979768E-01;0;  6.5349519E-02;  1.5752156E+04;  0.0000000E+00;  3.3234742E+00;  4.0000000E+04;  0.0000000E+00;  3.9706000E+04;  6.8933278E-02;  0.0000000E+00; -3.5837574E-03;  9.9785312E+03;
  8.2765865E-01;  9.9999998E-03; -3.0115104E-01;7265;  2.6388140E-02;  0.0000000E+00;  2.6401668E-03;  9.9673651E+02;  1.5939461E-01; -2.7037258E+03;3;  3.6782055E+00;  0.0000000E+00;  1.4881517E-01;0;  6.3226461E-02;  1.5729834E+04;  0.0000000E+00;  4.3163133E+00;  4.0000000E+04;  0.0000000E+00;  3.9709508E+04;  6.8315178E-02;  0.0000000E+00; -5.0887158E-03;  1.2941054E+04;
  8.4337312E-01;  9.9999998E-03; -3.0124733E-01;7326;  2.6782125E-02;  0.0000000E+00;  2.9552358E-03;  9.9577197E+02;  1.6614172E-01; -3.5028635E+03;3;  3.3160784E+00;  0.0000000E+00;  2.9313846E-03;0;  5.5654988E-02;  1.4471280E+04;  0.0000000E+00;  2.3981543E+00;  4.0000000E+04;  0.0000000E+00;  3.9693070E+04;  6.1747782E-02;  0.0000000E+00; -6.0927924E-03;  5.7026997E+03;
  8.4311819E-01;  9.9999998E-03; -2.9121336E-01;7327;  2.5571665E-02;  0.0000000E+00;  2.8384447E-03;  9.9621722E+02;  1.6607633E-01; -3.1339358E+03;3;  3.6902955E+00;  0.0000000E+00;  1.1942378E-01;0;  5.7493705E-02;  1.4492385E+04;  0.0000000E+00;  2.2737567E+00;  4.0000000E+04;  0.0000000E+00;  3.9688449E+04;  6.2798642E-02;  0.0000000E+00; -5.3049354E-03;  5.2753369E+03;
  8.4277385E-01;  9.9999998E-03; -2.8118020E-01;7328;  2.4585750E-02;  0.0000000E+00;  2.6486018E-03;  9.9661902E+02;  1.6597450E-01; -2.8010564E+03;3;  3.7364593E+00;  0.0000000E+00;  1.1930968E-01;0;  6.0253371E-02;  1.4520206E+04;  0.0000000E+00;  2.3964059E+00;  4.0000000E+04;  0.0000000E+00;  3.9684363E+04;  6.4012676E-02;  0.0000000E+00; -3.7593055E-03;  5.6490215E+03;
  8.5929304E-01;  9.9999998E-03; -2.8128785E-01;7389;  2.4674684E-02;  0.0000000E+00;  3.1724686E-03;  9.9640094E+02;  1.7360236E-01; -2.9817427E+03;3;  3.7393436E+00;  0.0000000E+00;  5.4290965E-02;0;  4.9545873E-02;  1.3297311E+04;  0.0000000E+00;  1.1997625E+00;  4.0000000E+04;  0.0000000E+00;  3.9658156E+04;  5.6515448E-02;  0.0000000E+00; -6.9695734E-03;  5.4048184E+03;
  8.5944009E-01;  9.9999998E-03; -2.9132265E-01;7388;  2.5813112E-02;  0.0000000E+00;  3.2834571E-03;  9.9592865E+02;  1.7363393E-01; -3.3730400E+03;3;  3.5941556E+00;  0.0000000E+00;  3.3541422E-02;0;  4.7138106E-02;  1.3282448E+04;  0.0000000E+00;  5.0245500E-01;  4.0000000E+04;  0.0000000E+00;  3.9663117E+04;  5.4816179E-02;  0.0000000E+00; -7.6780720E-03;  8.7265947E+03;
  8.5956001E-01;  9.9999998E-03; -3.0135849E-01;7387;  2.7341632E-02;  0.0000000E+00;  3.2983704E-03;  9.9541412E+02;  1.7362770E-01; -3.7992996E+03;3;  1.8400116E+00;  0.0000000E+00; -3.6760071E-01;0;  4.6522178E-02;  1.3273230E+04;  0.0000000E+00;  2.1972429E-02;  4.0000000E+04;  0.0000000E+00;  3.9668191E+04;  5.3522769E-02;  0.0000000E+00; -7.0005911E-03;  1.1501101E+04;
  8.7789321E-01;  9.9999998E-03; -2.8141478E-01;7450;  2.4983013E-02;  0.0000000E+00;  3.7388999E-03;  9.9664880E+02;  1.8255147E-01; -2.7764150E+03;3;  3.5253141E+00;  0.0000000E+00;  7.0582959E-03;0;  3.6730856E-02;  1.2066424E+04;  0.0000000E+00;  3.7069017E-01;  4.0000000E+04;  0.0000000E+00;  3.9622141E+04;  4.6548784E-02;  0.0000000E+00; -9.8179281E-03;  7.3678940E+03;
  8.7787956E-01;  9.9999998E-03; -2.9145136E-01;7449;  2.6342286E-02;  0.0000000E+00;  3.7471445E-03;  9.9613928E+02;  1.8250178E-01; -3.1985266E+03;3;  2.2303934E+00;  0.0000000E+00; -4.3105319E-01;0;  3.4903716E-02;  1.2063351E+04;  0.0000000E+00; -2.4774013E-01;  4.0000000E+04;  0.0000000E+00;  3.9627781E+04;  4.4412602E-02;  0.0000000E+00; -9.5088854E-03;  1.1580557E+04;
  8.7783247E-01;  9.9999998E-03; -3.0148917E-01;7448;  2.7991978E-02;  0.0000000E+00;  3.4981184E-03;  9.9556079E+02;  1.8238860E-01; -3.6778215E+03;3; -1.9020805E+00;  0.0000000E+00; -3.6321646E-01;0;  3.8735446E-02;  1.2067709E+04;  0.0000000E+00; -7.5605315E-01;  4.0000000E+04;  0.0000000E+00;  3.9633469E+04;  4.2791449E-02;  0.0000000E+00; -4.0560043E-03;  1.4456663E+04;
  8.9695024E-01;  9.9999998E-03; -3.0162865E-01;7509;  2.8098581E-02;  0.0000000E+00;  4.0076063E-03;  9.9604053E+02;  1.9194493E-01; -3.2803513E+03;3; -4.2816586E+00;  0.0000000E+00;  6.2537366E-01;0;  2.3655361E-02;  1.0934435E+04;  0.0000000E+00; -2.0915804E+00;  4.0000000E+04;  0.0000000E+00;  3.9590504E+04;  2.9334346E-02;  0.0000000E+00; -5.6789848E-03;  1.9146703E+04;
  8.9701587E-01;  9.9999998E-03; -2.9158700E-01;7510;  2.7321666E-02;  0.0000000E+00;  3.8214084E-03;  9.9661505E+02;  1.9208662E-01; -2.8043650E+03;3; -3.8626668E+00;  0.0000000E+00;  6.3156939E-01;0;  2.8245991E-02;  1.0927622E+04;  0.0000000E+00; -1.4114574E+00;  4.0000000E+04;  0.0000000E+00;  3.9584930E+04;  3.1949252E-02;  0.0000000E+00; -3.7032601E-03;  1.5126247E+04;
  8.9698523E-01;  9.9999998E-03; -2.8154644E-01;7511;  2.6531439E-02;  0.0000000E+00;  3.8771308E-03;  9.9715076E+02;  1.9212674E-01; -2.3605256E+03;3; -2.2575145E+00;  0.0000000E+00; -2.5540930E-01;0;  2.8750474E-02;  1.0931812E+04;  0.0000000E+00; -6.8739867E-01;  4.0000000E+04;  0.0000000E+00;  3.9579773E+04;  3.4956839E-02;  0.0000000E+00; -6.2063658E-03;  9.8378467E+03;
  9.1734457E-01;  9.9999998E-03; -3.0176690E-01;7570;  2.7423957E-02;  0.0000000E+00;  4.4393400E-03;  9.9566833E+02;  2.0259312E-01; -3.5886885E+03;3; -4.7174959E+00;  0.0000000E+00;  7.6973176E-01;0;  6.9580590E-03;  9.8215205E+03;  0.0000000E+00; -8.1268603E-01;  4.0000000E+04;  0.0000000E+00;  3.9556461E+04;  1.3133332E-02;  0.0000000E+00; -6.1752731E-03;  9.6848887E+03;
  9.1749072E-01;  9.9999998E-03; -2.9172084E-01;7571;  2.6846528E-02;  0.0000000E+00;  4.4731642E-03;  9.9621045E+02;  2.0270415E-01; -3.1395652E+03;3; -4.4865813E+00;  0.0000000E+00;  9.1175932E-01;0;  8.1798155E-03;  9.8187266E+03;  0.0000000E+00; -6.3770360E-01;  4.0000000E+04;  0.0000000E+00;  3.9550012E+04;  1.5831940E-02;  0.0000000E+00; -7.6521249E-03;  7.7243677E+03;
  9.1747773E-01;  9.9999998E-03; -2.8167632E-01;7572;  2.6383057E-02;  0.0000000E+00;  4.4619683E-03;  9.9677081E+02;  2.0270887E-01; -2.6753315E+03;3; -4.2278938E+00;  0.0000000E+00;  1.0071850E+00;0;  1.0806882E-02;  9.8267393E+03;  0.0000000E+00; -4.9230054E-01;  4.0000000E+04;  0.0000000E+00;  3.9543652E+04;  1.9057527E-02;  0.0000000E+00; -8.2506454E-03;  5.7106187E+03;
  9.4034392E-01;  9.9999998E-03; -3.0191165E-01;7631;  2.6951324E-02;  0.0000000E+00;  5.2727265E-03;  9.9445685E+02;  2.1482496E-01; -4.5924131E+03;3; -4.8596463E+00;  0.0000000E+00; -8.6099677E-02;0; -1.9185351E-02;  8.7200215E+03;  0.0000000E+00;  2.4624395E+00;  4.0000000E+04;  0.0000000E+00;  3.9525172E+04; -4.8952256E-03;  0.0000000E+00; -1.4290126E-02;  2.4180424E+04;
  9.4003165E-01;  9.9999998E-03; -2.9185775E-01;7632;  2.6404155E-02;  0.0000000E+00;  5.1695462E-03;  9.9509082E+02;  2.1475312E-01; -4.0671440E+03;3; -4.5548797E+00;  0.0000000E+00;  2.5811723E-02;0; -1.5045025E-02;  8.7345938E+03;  0.0000000E+00;  1.1279397E+00;  4.0000000E+04;  0.0000000E+00;  3.9518457E+04; -2.0319410E-03;  0.0000000E+00; -1.3013084E-02;  1.6151024E+04;
  9.3973726E-01;  9.9999998E-03; -2.8180659E-01;7633;  2.5996218E-02;  0.0000000E+00;  5.0866082E-03;  9.9578918E+02;  2.1462871E-01; -3.4885925E+03;3; -4.3018241E+00;  0.0000000E+00;  1.3946731E-01;0; -1.0658767E-02;  8.7549062E+03;  0.0000000E+00;  5.3984549E-02;  4.0000000E+04;  0.0000000E+00;  3.9511105E+04;  1.1065485E-03;  0.0000000E+00; -1.1765315E-02;  9.0907783E+03;
  9.6588820E-01;  9.9999998E-03; -3.0208030E-01;7692;  2.6599146E-02;  0.0000000E+00;  5.6941197E-03;  9.9485394E+02;  2.2883162E-01; -4.2634346E+03;3; -5.0433640E+00;  0.0000000E+00; -9.7304684E-01;0; -3.9964497E-02;  7.6983296E+03;  0.0000000E+00; -3.3955172E-01;  4.0000000E+04;  0.0000000E+00;  3.9472215E+04; -2.3320489E-02;  0.0000000E+00; -1.6644010E-02;  2.9197330E+04;
  9.6471411E-01;  9.9999998E-03; -2.9201224E-01;7693;  2.5964806E-02;  0.0000000E+00;  5.5160276E-03;  9.9501227E+02;  2.2846705E-01; -4.1322285E+03;3; -4.7254314E+00;  0.0000000E+00; -8.2877719E-01;0; -3.3619672E-02;  7.7218755E+03;  0.0000000E+00;  5.1859666E-02;  4.0000000E+04;  0.0000000E+00;  3.9472543E+04; -2.0022428E-02;  0.0000000E+00; -1.3597243E-02;  2.7367613E+04;
  9.6380055E-01;  9.9999998E-03; -2.8194878E-01;7694;  2.5504395E-02;  0.0000000E+00;  5.3247605E-03;  9.9547784E+02;  2.2810228E-01; -3.7465110E+03;3; -4.3902054E+00;  0.0000000E+00; -7.0852441E-01;0; -2.7039714E-02;  7.7509077E+03;  0.0000000E+00; -5.3696394E-01;  4.0000000E+04;  0.0000000E+00;  3.9469594E+04; -1.6799439E-02;  0.0000000E+00; -1.0240275E-02;  1.7302283E+04;
  9.9110025E-01;  9.9999998E-03; -3.0225906E-01;7753;  2.5505137E-02;  0.0000000E+00;  5.3908243E-03;  9.9627502E+02;  2.4372660E-01; -3.0860852E+03;3; -5.1263943E+00;  0.0000000E+00; -1.6885660E+00;0; -4.6958186E-02;  6.8133423E+03;  0.0000000E+00; -3.1380413E+00;  4.0000000E+04;  0.0000000E+00;  3.9410168E+04; -3.8114771E-02;  0.0000000E+00; -8.8434136E-03;  2.9161412E+04;
  9.8965371E-01;  9.9999998E-03; -2.9218000E-01;7754;  2.5011387E-02;  0.0000000E+00;  5.3047403E-03;  9.9612250E+02;  2.4315159E-01; -3.2124521E+03;3; -4.8391771E+00;  0.0000000E+00; -1.5817925E+00;0; -4.1873589E-02;  6.8387285E+03;  0.0000000E+00; -1.8721291E+00;  4.0000000E+04;  0.0000000E+00;  3.9414727E+04; -3.5077482E-02;  0.0000000E+00; -6.7961053E-03;  2.9442436E+04;
  9.8843455E-01;  9.9999998E-03; -2.8210482E-01;7755;  2.4637008E-02;  0.0000000E+00;  5.1682424E-03;  9.9623639E+02;  2.4259429E-01; -3.1180845E+03;3; -4.5391903E+00;  0.0000000E+00; -1.4812607E+00;0; -3.6132846E-02;  6.8683701E+03;  0.0000000E+00; -1.6926081E+00;  4.0000000E+04;  0.0000000E+00;  3.9417199E+04; -3.2089408E-02;  0.0000000E+00; -4.0434380E-03;  1.9095449E+04;
  9.8752826E-01;  9.9999998E-03; -2.7203411E-01;7756;  2.4429023E-02;  0.0000000E+00;  5.0829411E-03;  9.9658850E+02;  2.4211279E-01; -2.8263396E+03;3; -4.2488012E+00;  0.0000000E+00; -1.4159256E+00;0; -3.1729266E-02;  6.8980879E+03;  0.0000000E+00; -1.5419741E+00;  4.0000000E+04;  0.0000000E+00;  3.9416691E+04; -2.9200414E-02;  0.0000000E+00; -2.5288507E-03;  8.8441201E+03;
  1.0132726E+00;  9.9999998E-03; -2.8226998E-01;7816;  2.3464872E-02;  0.0000000E+00;  4.6828198E-03;  9.9691650E+02;  2.5785771E-01; -2.5545942E+03;3; -4.6702065E+00;  0.0000000E+00; -2.2359838E+00;0; -3.8580231E-02;  6.0936357E+03;  0.0000000E+00; -2.3790665E+00;  4.0000000E+04;  0.0000000E+00;  3.9365773E+04; -4.4460323E-02;  0.0000000E+00;  5.8800899E-03;  1.4746591E+04;
  1.0143861E+00;  9.9999998E-03; -2.9235011E-01;7815;  2.3694256E-02;  0.0000000E+00;  4.7339518E-03;  9.9674792E+02;  2.5849834E-01; -2.6942939E+03;3; -4.9180479E+00;  0.0000000E+00; -2.2936730E+00;0; -4.2628627E-02;  6.0647017E+03;  0.0000000E+00; -2.5119493E+00;  4.0000000E+04;  0.0000000E+00;  3.9363410E+04; -4.6995424E-02;  0.0000000E+00;  4.3667960E-03;  2.6328307E+04;
  1.0156907E+00;  9.9999998E-03; -3.0243382E-01;7814;  2.4128553E-02;  0.0000000E+00;  4.8240186E-03;  9.9667438E+02;  2.5917086E-01; -2.7552305E+03;3; -5.1527419E+00;  0.0000000E+00; -2.3426726E+00;0; -4.7940936E-02;  6.0373496E+03;  0.0000000E+00; -2.8339009E+00;  4.0000000E+04;  0.0000000E+00;  3.9359941E+04; -4.9579624E-02;  0.0000000E+00;  1.6386895E-03;  3.3691078E+04;
  1.0375627E+00;  9.9999998E-03; -2.8243098E-01;7877;  2.2075268E-02;  0.0000000E+00;  4.0607648E-03;  9.9686041E+02;  2.7327278E-01; -2.6011113E+03;3; -4.7123799E+00;  0.0000000E+00; -2.6899736E+00;0; -3.8747288E-02;  5.4311035E+03;  0.0000000E+00; -2.2874668E+00;  4.0000000E+04;  0.0000000E+00;  3.9323355E+04; -5.5710267E-02;  0.0000000E+00;  1.6962981E-02;  5.5373462E+03;
  1.0381628E+00;  9.9999998E-03; -2.9251018E-01;7876;  2.2163022E-02;  0.0000000E+00;  3.9067883E-03;  9.9652100E+02;  2.7370915E-01; -2.8822883E+03;3; -4.9111304E+00;  0.0000000E+00; -2.5050712E+00;0; -3.9032497E-02;  5.4131323E+03;  0.0000000E+00; -2.2360518E+00;  4.0000000E+04;  0.0000000E+00;  3.9323590E+04; -5.7902973E-02;  0.0000000E+00;  1.8870477E-02;  1.0433400E+04;
  1.0389730E+00;  9.9999998E-03; -3.0259329E-01;7875;  2.2324963E-02;  0.0000000E+00;  3.9037727E-03;  9.9611200E+02;  2.7430877E-01; -3.2211431E+03;3; -5.1162958E+00;  0.0000000E+00; -2.3940299E+00;0; -4.2519465E-02;  5.3897056E+03;  0.0000000E+00; -1.7897959E+00;  4.0000000E+04;  0.0000000E+00;  3.9324969E+04; -5.9958838E-02;  0.0000000E+00;  1.7439373E-02;  1.7388943E+04;
  1.0637797E+00;  9.9999998E-03; -2.8260529E-01;7938;  2.0276543E-02;  0.0000000E+00;  3.7615732E-03;  9.9657410E+02;  2.9040447E-01; -2.8382896E+03;3; -4.6275740E+00;  0.0000000E+00; -3.1126931E+00;0; -4.6717465E-02;  4.8124790E+03;  0.0000000E+00; -1.8174491E+00;  4.0000000E+04;  0.0000000E+00;  3.9278672E+04; -6.9346450E-02;  0.0000000E+00;  2.2628985E-02;  1.1182795E+04;
  1.0639489E+00;  9.9999998E-03; -2.9268253E-01;7937;  2.0453565E-02;  0.0000000E+00;  3.6149065E-03;  9.9614838E+02;  2.9052576E-01; -3.1910203E+03;3; -4.7886310E+00;  0.0000000E+00; -2.8180397E+00;0; -4.7775321E-02;  4.8071284E+03;  0.0000000E+00; -1.6718820E+00;  4.0000000E+04;  0.0000000E+00;  3.9281316E+04; -7.1423352E-02;  0.0000000E+00;  2.3648033E-02;  1.5681263E+04;
  1.0641153E+00;  9.9999998E-03; -3.0276230E-01;7936;  2.0747082E-02;  0.0000000E+00;  3.6685271E-03;  9.9560309E+02;  2.9062647E-01; -3.6427607E+03;3; -4.9512019E+00;  0.0000000E+00; -2.7175992E+00;0; -5.2893415E-02;  4.8028506E+03;  0.0000000E+00; -1.2248847E+00;  4.0000000E+04;  0.0000000E+00;  3.9285781E+04; -7.3132269E-02;  0.0000000E+00;  2.0238852E-02;  1.7765633E+04;
  1.0925967E+00;  9.9999998E-03; -2.8279918E-01;7999;  1.7934361E-02;  0.0000000E+00;  4.0877080E-03;  9.9604193E+02;  3.0995539E-01; -3.2791658E+03;3; -4.4734912E+00;  0.0000000E+00; -3.6975760E+00;0; -7.0639752E-02;  4.2262393E+03;  0.0000000E+00; -1.6759063E+00;  4.0000000E+04;  0.0000000E+00;  3.9227289E+04; -8.8611655E-02;  0.0000000E+00;  1.7971905E-02;  1.7141668E+04;
  1.0925027E+00;  9.9999998E-03; -2.9287452E-01;7998;  1.8202275E-02;  0.0000000E+00;  3.7400064E-03;  9.9547949E+02;  3.0978376E-01; -3.7451772E+03;3; -4.5557642E+00;  0.0000000E+00; -3.4375348E+00;0; -7.0813477E-02;  4.2283423E+03;  0.0000000E+00; -1.1355084E+00;  4.0000000E+04;  0.0000000E+00;  3.9233469E+04; -9.0777412E-02;  0.0000000E+00;  1.9963931E-02;  2.7273570E+04;
  1.0924374E+00;  9.9999998E-03; -3.0295116E-01;7997;  1.8758561E-02;  0.0000000E+00;  3.5877191E-03;  9.9459692E+02;  3.0938464E-01; -4.4763662E+03;3; -4.6542549E+00;  0.0000000E+00; -3.0741885E+00;0; -7.3570743E-02;  4.2347842E+03;  0.0000000E+00; -3.6027992E-01;  4.0000000E+04;  0.0000000E+00;  3.9242656E+04; -9.2276752E-02;  0.0000000E+00;  1.8706005E-02;  3.2004383E+04;
  1.1255639E+00;  9.9999998E-03; -2.8300938E-01;8060;  1.4248436E-02;  0.0000000E+00;  2.9383239E-03;  9.9505756E+02;  3.3303782E-01; -4.0946975E+03;3; -4.1509328E+00;  0.0000000E+00; -3.6548638E+00;0; -8.3610475E-02;  3.6580554E+03;  0.0000000E+00; -3.2758369E+00;  4.0000000E+04;  0.0000000E+00;  3.9178391E+04; -1.1560527E-01;  0.0000000E+00;  3.1994797E-02;  1.8994932E+04;
  1.1254179E+00;  9.9999998E-03; -2.9309031E-01;8059;  1.4286668E-02;  0.0000000E+00;  2.5202702E-03;  9.9412341E+02;  3.3293855E-01; -4.8686504E+03;3; -4.0784006E+00;  0.0000000E+00; -2.9834161E+00;0; -8.3565563E-02;  3.6558894E+03;  0.0000000E+00; -2.7240217E+00;  4.0000000E+04;  0.0000000E+00;  3.9186078E+04; -1.1875916E-01;  0.0000000E+00;  3.5193596E-02;  2.7857162E+04;
  1.1251732E+00;  9.9999998E-03; -3.0317360E-01;8058;  1.4847283E-02;  0.0000000E+00;  2.5565852E-03;  9.9305463E+02;  3.3254528E-01; -5.7541069E+03;3; -4.0710049E+00;  0.0000000E+00; -2.5073457E+00;0; -9.0841934E-02;  3.6598801E+03;  0.0000000E+00; -2.1882744E+00;  4.0000000E+04;  0.0000000E+00;  3.9195770E+04; -1.2086318E-01;  0.0000000E+00;  3.0021243E-02;  3.7708676E+04;
  1.1656138E+00;  9.9999998E-03; -2.8326041E-01;8121;  8.0798054E-03;  0.0000000E+00;  1.6093258E-03;  9.9377911E+02;  3.6200732E-01; -5.1538760E+03;3; -3.5842566E+00;  0.0000000E+00; -2.7803235E+00;0; -1.0716282E-01;  3.0925449E+03;  0.0000000E+00; -6.2228646E+00;  4.0000000E+04;  0.0000000E+00;  3.9122176E+04; -1.4660113E-01;  0.0000000E+00;  3.9438304E-02;  1.9550170E+04;
  1.0124996E+00;  9.9999998E-03; -2.7219421E-01;7817;  2.3357686E-02;  0.0000000E+00;  4.6931375E-03;  9.9720728E+02;  2.5739449E-01; -2.3137122E+03;3; -4.4128151E+00;  0.0000000E+00; -2.1740687E+00;0; -3.6102302E-02;  6.1165879E+03;  0.0000000E+00; -1.9560946E+00;  4.0000000E+04;  0.0000000E+00;  3.9366312E+04; -4.1943949E-02;  0.0000000E+00;  5.8416473E-03;  6.1401953E+03;
  1.0372192E+00;  9.9999998E-03; -2.7235603E-01;7878;  2.2018544E-02;  0.0000000E+00;  4.3339683E-03;  9.9720673E+02;  2.7302909E-01; -2.3141565E+03;3; -4.5020080E+00;  0.0000000E+00; -2.7913272E+00;0; -4.0131420E-02;  5.4423813E+03;  0.0000000E+00; -1.9638770E+00;  4.0000000E+04;  0.0000000E+00;  3.9322211E+04; -5.3359814E-02;  0.0000000E+00;  1.3228395E-02;  4.1536699E+03;
  1.0634679E+00;  9.9999998E-03; -2.7253196E-01;7939;  2.0261381E-02;  0.0000000E+00;  4.3100147E-03;  9.9696686E+02;  2.9016605E-01; -2.5129163E+03;3; -4.4753399E+00;  0.0000000E+00; -3.3542626E+00;0; -5.0713126E-02;  4.8226670E+03;  0.0000000E+00; -1.8851485E+00;  4.0000000E+04;  0.0000000E+00;  3.9274523E+04; -6.6766523E-02;  0.0000000E+00;  1.6053397E-02;  6.9489204E+03;
  1.0924284E+00;  9.9999998E-03; -2.7272734E-01;8000;  1.8004958E-02;  0.0000000E+00;  4.5709610E-03;  9.9657269E+02;  3.0978394E-01; -2.8394746E+03;3; -4.3936057E+00;  0.0000000E+00; -3.8412867E+00;0; -7.0929103E-02;  4.2339775E+03;  0.0000000E+00; -2.3597076E+00;  4.0000000E+04;  0.0000000E+00;  3.9220832E+04; -8.5548051E-02;  0.0000000E+00;  1.4618949E-02;  1.0244224E+04;
  1.1256844E+00;  9.9999998E-03; -2.7293378E-01;8061;  1.4512972E-02;  0.0000000E+00;  3.5408428E-03;  9.9595056E+02;  3.3303106E-01; -3.3548667E+03;3; -4.1931677E+00;  0.0000000E+00; -4.0052648E+00;0; -8.5208192E-02;  3.6627305E+03;  0.0000000E+00; -3.8240621E+00;  4.0000000E+04;  0.0000000E+00;  3.9171012E+04; -1.1174535E-01;  0.0000000E+00;  2.6537159E-02;  1.4259060E+04;
  1.1656673E+00;  9.9999998E-03; -2.7317470E-01;8122;  8.6034108E-03;  0.0000000E+00;  1.8610833E-03;  9.9519519E+02;  3.6191639E-01; -3.9806750E+03;3; -3.7943094E+00;  0.0000000E+00; -3.4156630E+00;0; -1.0311359E-01;  3.1001865E+03;  0.0000000E+00; -5.2478728E+00;  4.0000000E+04;  0.0000000E+00;  3.9114148E+04; -1.4180300E-01;  0.0000000E+00;  3.8689401E-02;  1.9779527E+04;
  1.1661208E+00;  9.9999998E-03; -2.9335460E-01;8120;  7.5261346E-03;  0.0000000E+00;  1.6497790E-03;  9.9223267E+02;  3.6263400E-01; -6.4350732E+03;3; -3.4285853E+00;  0.0000000E+00; -2.6150446E+00;0; -1.1769342E-01;  3.0754128E+03;  0.0000000E+00; -6.7124472E+00;  4.0000000E+04;  0.0000000E+00;  3.9131891E+04; -1.5126725E-01;  0.0000000E+00;  3.3573821E-02;  1.5760686E+04;
  1.1670449E+00;  9.9999998E-03; -3.0345660E-01;8119;  6.9212741E-03;  0.0000000E+00;  1.6574541E-03;  9.9058820E+02;  3.6368865E-01; -7.7975020E+03;3; -3.2865045E+00;  0.0000000E+00; -2.5143545E+00;0; -1.2928179E-01;  3.0512009E+03;  0.0000000E+00; -6.3847113E+00;  4.0000000E+04;  0.0000000E+00;  3.9144199E+04; -1.5573955E-01;  0.0000000E+00;  2.6457753E-02;  1.1196436E+04;
  1.2080084E+00;  9.9999998E-03; -2.7344024E-01;8183;  6.9122697E-04;  0.0000000E+00;  1.2708938E-04;  9.9559607E+02;  3.9332667E-01; -3.6485837E+03;3; -3.2564144E+00;  0.0000000E+00; -2.2570674E+00;0; -1.2776187E-01;  2.6326934E+03;  0.0000000E+00; -5.9503579E+00;  4.0000000E+04;  0.0000000E+00;  3.9039422E+04; -1.6146111E-01;  0.0000000E+00;  3.3699248E-02;  2.2280314E+04;
  1.2088165E+00;  9.9999998E-03; -2.8354293E-01;8182; -4.4617718E-04;  0.0000000E+00;  1.5993055E-04;  9.9412360E+02;  3.9422736E-01; -4.8684980E+03;3; -2.9056113E+00;  0.0000000E+00; -2.1040831E+00;0; -1.3933980E-01;  2.6158442E+03;  0.0000000E+00; -8.8109283E+00;  4.0000000E+04;  0.0000000E+00;  3.9045879E+04; -1.6631477E-01;  0.0000000E+00;  2.6974965E-02;  2.0767549E+04;
  1.2098922E+00;  9.9999998E-03; -2.9365084E-01;8181; -1.5594525E-03;  0.0000000E+00;  1.6759138E-04;  9.9245447E+02;  3.9539021E-01; -6.2513213E+03;3; -2.5798731E+00;  0.0000000E+00; -2.0578084E+00;0; -1.5267706E-01;  2.5950300E+03;  0.0000000E+00; -1.0835191E+01;  4.0000000E+04;  0.0000000E+00;  3.9056145E+04; -1.7062140E-01;  0.0000000E+00;  1.7944334E-02;  9.5869414E+03;
  1.2119395E+00;  9.9999998E-03; -3.0377203E-01;8180; -2.5820842E-03;  0.0000000E+00; -1.0596130E-04;  9.9096118E+02;  3.9737734E-01; -7.4884697E+03;3; -2.2034769E+00;  0.0000000E+00; -1.8080264E+00;0; -1.6300784E-01;  2.5650720E+03;  0.0000000E+00; -1.1850990E+01;  4.0000000E+04;  0.0000000E+00;  3.9065766E+04; -1.7482077E-01;  0.0000000E+00;  1.1812922E-02;  2.4629891E+04;
  1.2523528E+00;  9.9999998E-03; -2.8383052E-01;8243; -9.0638641E-03;  0.0000000E+00; -3.0503611E-03;  9.9602313E+02;  4.2763543E-01; -3.2947629E+03;3; -1.9637558E+00;  0.0000000E+00; -8.2203746E-01;0; -1.7344454E-01;  2.2386575E+03;  0.0000000E+00; -1.0133951E+01;  4.0000000E+04;  0.0000000E+00;  3.8943422E+04; -1.8363285E-01;  0.0000000E+00;  1.0188307E-02;  2.0864320E+04;
  1.2535694E+00;  9.9999998E-03; -2.9394636E-01;8242; -1.0511294E-02;  0.0000000E+00; -3.9684223E-03;  9.9438721E+02;  4.2900804E-01; -4.6500796E+03;3; -1.4211334E+00;  0.0000000E+00; -1.7035499E-01;0; -1.7619304E-01;  2.2205178E+03;  0.0000000E+00; -1.2178958E+01;  4.0000000E+04;  0.0000000E+00;  3.8956684E+04; -1.8734305E-01;  0.0000000E+00;  1.1149997E-02;  6.8954346E+03;
  1.2558420E+00;  9.9999998E-03; -3.0408058E-01;8241; -1.1516900E-02;  0.0000000E+00; -4.5514689E-03;  9.9293121E+02;  4.3140361E-01; -5.8563628E+03;3; -8.3287412E-01;  0.0000000E+00;  3.3905751E-01;0; -1.8569961E-01;  2.1937214E+03;  0.0000000E+00; -1.2894182E+01;  4.0000000E+04;  0.0000000E+00;  3.8965301E+04; -1.9179313E-01;  0.0000000E+00;  6.0935179E-03;  4.0352051E+04;
  1.2967470E+00;  9.9999998E-03; -2.8409380E-01;8304; -1.7280115E-02;  0.0000000E+00; -1.1582670E-02;  9.9648541E+02;  4.6274003E-01; -2.9117561E+03;3; -6.5465325E-01;  0.0000000E+00;  2.5973384E+00;0; -1.8729864E-01;  1.9172400E+03;  0.0000000E+00; -1.1100742E+01;  4.0000000E+04;  0.0000000E+00;  3.8860059E+04; -2.2234957E-01;  0.0000000E+00;  3.5050932E-02;  2.5370725E+04;
  1.2969061E+00;  9.9999998E-03; -2.9421705E-01;8303; -1.8743850E-02;  0.0000000E+00; -1.1827355E-02;  9.9482727E+02;  4.6325517E-01; -4.2854883E+03;3;  5.0913841E-02;  0.0000000E+00;  3.1834285E+00;0; -1.9776250E-01;  1.9106538E+03;  0.0000000E+00; -1.2530337E+01;  4.0000000E+04;  0.0000000E+00;  3.8872699E+04; -2.2595164E-01;  0.0000000E+00;  2.8189136E-02;  3.9263083E+03;
  1.2983966E+00;  9.9999998E-03; -3.0435905E-01;8302; -2.0038990E-02;  0.0000000E+00; -1.2256086E-02;  9.9319922E+02;  4.6533188E-01; -5.6342832E+03;3;  8.6186415E-01;  0.0000000E+00;  3.5962164E+00;0; -2.1000469E-01;  1.8919255E+03;  0.0000000E+00; -1.2607873E+01;  4.0000000E+04;  0.0000000E+00;  3.8883059E+04; -2.3081823E-01;  0.0000000E+00;  2.0813541E-02;  3.2131570E+04;
  1.2512069E+00;  9.9999998E-03; -2.7372620E-01;8244; -7.3747858E-03;  0.0000000E+00; -1.7100595E-03;  9.9718683E+02;  4.2633632E-01; -2.3306448E+03;3; -2.5006015E+00;  0.0000000E+00; -1.4010257E+00;0; -1.7308006E-01;  2.2551150E+03;  0.0000000E+00; -6.7944412E+00;  4.0000000E+04;  0.0000000E+00;  3.8929812E+04; -1.7952526E-01;  0.0000000E+00;  6.4451993E-03;  2.3704246E+04;
  1.2961169E+00;  9.9999998E-03; -2.7397192E-01;8305; -1.5353178E-02;  0.0000000E+00; -1.1295828E-02;  9.9774719E+02;  4.6182829E-01; -1.8664077E+03;3; -1.4109695E+00;  0.0000000E+00;  2.1160555E+00;0; -1.7609742E-01;  1.9264325E+03;  0.0000000E+00; -8.0311527E+00;  4.0000000E+04;  0.0000000E+00;  3.8852914E+04; -2.1796264E-01;  0.0000000E+00;  4.1865207E-02;  2.7422846E+04;
  1.3421278E+00;  9.9999998E-03; -2.7421406E-01;8366; -2.7443947E-02;  0.0000000E+00; -2.2662230E-02;  9.9421069E+02;  4.9865931E-01; -4.7962651E+03;3; -5.0720906E-01;  0.0000000E+00;  7.2916589E+00;0; -1.7545371E-01;  1.6398744E+03;  0.0000000E+00; -8.0919800E+00;  4.0000000E+04;  0.0000000E+00;  3.8832238E+04; -2.3483346E-01;  0.0000000E+00;  5.9379756E-02;  3.5477539E+04;
  1.3428953E+00;  9.9999998E-03; -2.8436154E-01;8365; -2.9529639E-02;  0.0000000E+00; -2.2981692E-02;  9.9298309E+02;  4.9987403E-01; -5.8133130E+03;3;  2.2055396E-01;  0.0000000E+00;  7.6469908E+00;0; -1.8370695E-01;  1.6309353E+03;  0.0000000E+00; -1.0499681E+01;  4.0000000E+04;  0.0000000E+00;  3.8830312E+04; -2.4328649E-01;  0.0000000E+00;  5.9579540E-02;  4.2970227E+04;
  1.3435210E+00;  9.9999998E-03; -2.9450560E-01;8364; -3.1542096E-02;  0.0000000E+00; -2.3084465E-02;  9.9154865E+02;  5.0100452E-01; -7.0017124E+03;3;  9.7611862E-01;  0.0000000E+00;  7.6247182E+00;0; -1.9701351E-01;  1.6224066E+03;  0.0000000E+00; -1.1734175E+01;  4.0000000E+04;  0.0000000E+00;  3.8835559E+04; -2.5171036E-01;  0.0000000E+00;  5.4696839E-02;  3.9147977E+04;
  1.3452524E+00;  9.9999998E-03; -3.0466151E-01;8363; -3.4136061E-02;  0.0000000E+00; -2.3536297E-02;  9.8990997E+02;  5.0353324E-01; -8.3593379E+03;3;  1.7702237E+00;  0.0000000E+00;  7.5279851E+00;0; -2.0872438E-01;  1.6049398E+03;  0.0000000E+00; -1.1668344E+01;  4.0000000E+04;  0.0000000E+00;  3.8844840E+04; -2.5813800E-01;  0.0000000E+00;  4.9413614E-02;  3.0426771E+04;
  1.3918633E+00;  9.9999998E-03; -2.7460495E-01;8427; -4.3543011E-02;  0.0000000E+00; -3.0242682E-02;  9.9253564E+02;  5.3636491E-01; -6.1839536E+03;3; -2.1493396E-01;  0.0000000E+00;  1.2842462E+01;0;  6.9235635E-01;  1.4134307E+03;  0.0000000E+00; -5.7983885E+00;  4.0000000E+04;  0.0000000E+00;  3.8751754E+04;  7.8287536E-01;  0.0000000E+00; -9.0519018E-02;  4.1710941E+04;
  1.3950094E+00;  9.9999998E-03; -2.8477097E-01;8426; -4.7351927E-02;  0.0000000E+00; -3.0681299E-02;  9.9166321E+02;  5.3997439E-01; -6.9067271E+03;3; -7.2646383E-03;  0.0000000E+00;  1.2737020E+01;0;  7.6837742E-01;  1.3938292E+03;  0.0000000E+00; -7.5893507E+00;  4.0000000E+04;  0.0000000E+00;  3.8747031E+04;  8.8387966E-01;  0.0000000E+00; -1.1550227E-01;  5.2092574E+04;
  1.3972688E+00;  9.9999998E-03; -2.9492825E-01;8425; -5.1231377E-02;  0.0000000E+00; -3.0963814E-02;  9.9059650E+02;  5.4251790E-01; -7.7904814E+03;3;  8.9083955E-02;  0.0000000E+00;  1.2210752E+01;0;  8.1700319E-01;  1.3803574E+03;  0.0000000E+00; -8.8896618E+00;  4.0000000E+04;  0.0000000E+00;  3.8749473E+04;  9.4809407E-01;  0.0000000E+00; -1.3109088E-01;  5.4701332E+04;
  1.3997312E+00;  9.9999998E-03; -3.0509391E-01;8424; -5.6181330E-02;  0.0000000E+00; -3.1272411E-02;  9.8930969E+02;  5.4509056E-01; -8.8565449E+03;3;  5.8460665E-01;  0.0000000E+00;  1.1468554E+01;0;  8.8425040E-01;  1.3674818E+03;  0.0000000E+00; -9.1977434E+00;  4.0000000E+04;  0.0000000E+00;  3.8752961E+04;  1.0252056E+00;  0.0000000E+00; -1.4095521E-01;  4.8479133E+04;
  1.4487231E+00;  9.9999998E-03; -2.7495372E-01;8488; -5.5691738E-02;  0.0000000E+00; -5.3242799E-02;  9.9839130E+02;  5.5446661E-01; -1.3327419E+03;3; -1.0543294E+00;  0.0000000E+00;  1.9911539E+01;0;  4.2169261E+00;  1.3388138E+03;  0.0000000E+00; -7.0091653E+00;  4.0000000E+04;  0.0000000E+00;  3.8645352E+04;  4.5865121E+00;  0.0000000E+00; -3.6958602E-01;  3.1728689E+04;
  1.4528414E+00;  9.9999998E-03; -2.8507388E-01;8487; -6.3584015E-02;  0.0000000E+00; -5.8515385E-02;  9.9789490E+02;  5.5545926E-01; -1.7439661E+03;3; -4.0397286E+00;  0.0000000E+00;  1.5214362E+01;0;  4.5134649E+00;  1.3326904E+03;  0.0000000E+00; -9.3085661E+00;  4.0000000E+04;  0.0000000E+00;  3.8669355E+04;  4.8753905E+00;  0.0000000E+00; -3.6192566E-01;  3.0889045E+04;
  1.4559437E+00;  9.9999998E-03; -2.9520550E-01;8486; -6.2565967E-02;  0.0000000E+00; -5.6984916E-02;  9.9712299E+02;  5.5555230E-01; -2.3834180E+03;3; -4.8751106E+01;  0.0000000E+00; -1.1348839E+01;0;  4.6733909E+00;  1.3316024E+03;  0.0000000E+00; -1.0850196E+01;  4.0000000E+04;  0.0000000E+00;  3.8691664E+04;  5.0954232E+00;  0.0000000E+00; -4.2203224E-01;  2.4140092E+04;
  1.4589994E+00;  9.9999998E-03; -3.0534708E-01;8485; -4.6680510E-02;  0.0000000E+00; -5.8404740E-02;  9.9587213E+02;  5.5517769E-01; -3.4196743E+03;3; -1.0657773E+02;  0.0000000E+00; -1.1835432E+01;0;  4.9095297E+00;  1.3333112E+03;  0.0000000E+00; -1.0579501E+01;  4.0000000E+04;  0.0000000E+00;  3.8715816E+04;  5.3107247E+00;  0.0000000E+00; -4.0119484E-01;  1.1127957E+04;
  1.5035179E+00;  9.9999998E-03; -2.7493572E-01;8549;  5.5437756E-01;  0.0000000E+00; -1.0954771E-01;  1.0013064E+03;  5.2464974E-01;  1.0822290E+03;3; -3.3728516E+01;  0.0000000E+00;  3.2797060E+00;0;  5.0128174E+00;  1.5055111E+03;  0.0000000E+00; -8.4523964E+00;  4.0000000E+04;  0.0000000E+00;  3.8553621E+04;  5.1237006E+00;  0.0000000E+00; -1.1088320E-01;  3.1031852E+04;
  1.5079275E+00;  9.9999998E-03; -2.8506446E-01;8548;  5.7381755E-01;  0.0000000E+00; -9.9761866E-02;  1.0014865E+03;  5.2301079E-01;  1.2313367E+03;3; -3.5776531E+01;  0.0000000E+00;  2.4869325E+00;0;  4.8364172E+00;  1.5155537E+03;  0.0000000E+00; -1.0990992E+01;  4.0000000E+04;  0.0000000E+00;  3.8553609E+04;  5.0531015E+00;  0.0000000E+00; -2.1668412E-01;  3.2600070E+04;
  1.5112594E+00;  9.9999998E-03; -2.9519835E-01;8547;  5.8513546E-01;  0.0000000E+00; -9.5249154E-02;  1.0010966E+03;  5.2091366E-01;  9.0841315E+02;3; -4.0214661E+01;  0.0000000E+00;  7.3179328E-01;0;  4.7540441E+00;  1.5286428E+03;  0.0000000E+00; -1.2191298E+01;  4.0000000E+04;  0.0000000E+00;  3.8565113E+04;  5.0120330E+00;  0.0000000E+00; -2.5798875E-01;  2.6953562E+04;
  1.5144184E+00;  9.9999998E-03; -3.0533841E-01;8546;  5.9307241E-01;  0.0000000E+00; -9.3048654E-02;  9.9999438E+02;  5.1868790E-01; -4.6412845E+00;3; -4.5523785E+01;  0.0000000E+00; -1.3893023E+00;0;  4.7049737E+00;  1.5429180E+03;  0.0000000E+00; -1.0125584E+01;  4.0000000E+04;  0.0000000E+00;  3.8588914E+04;  4.9583874E+00;  0.0000000E+00; -2.5341368E-01;  9.5876650E+03;
  1.5522997E+00;  9.9999998E-03; -2.7463430E-01;8610;  6.9839627E-01;  0.0000000E+00; -1.2928109E-01;  1.0052344E+03;  4.7978562E-01;  4.3357456E+03;3;  6.1558155E+01;  0.0000000E+00; -2.8981047E+01;0;  2.6340773E+00;  1.8099424E+03;  0.0000000E+00; -1.2320067E+01;  4.0000000E+04;  0.0000000E+00;  3.8594078E+04;  2.1328199E+00;  0.0000000E+00;  5.0125748E-01;  4.8749574E+04;
  1.5568360E+00;  9.9999998E-03; -2.8480694E-01;8609;  7.2208846E-01;  0.0000000E+00; -1.1362991E-01;  1.0048677E+03;  4.7737202E-01;  4.0319558E+03;3;  7.1853737E+01;  0.0000000E+00; -2.6848850E+01;0;  2.3895860E+00;  1.8277112E+03;  0.0000000E+00; -1.5109409E+01;  4.0000000E+04;  0.0000000E+00;  3.8564641E+04;  1.9716640E+00;  0.0000000E+00;  4.1792193E-01;  5.8679246E+04;
  1.5605630E+00;  9.9999998E-03; -2.9495835E-01;8608;  7.3878211E-01;  0.0000000E+00; -1.0426563E-01;  1.0037097E+03;  4.7432539E-01;  3.0726550E+03;3;  7.1539558E+01;  0.0000000E+00; -2.7434433E+01;0;  2.2040150E+00;  1.8504283E+03;  0.0000000E+00; -1.5325946E+01;  4.0000000E+04;  0.0000000E+00;  3.8564070E+04;  1.8448799E+00;  0.0000000E+00;  3.5913506E-01;  5.4267336E+04;
  1.5643128E+00;  9.9999998E-03; -3.0510408E-01;8607;  7.5439095E-01;  0.0000000E+00; -9.6962593E-02;  1.0016279E+03;  4.7137558E-01;  1.3483593E+03;3;  7.0875801E+01;  0.0000000E+00; -2.8275688E+01;0;  2.0120094E+00;  1.8726169E+03;  0.0000000E+00; -9.8226662E+00;  4.0000000E+04;  0.0000000E+00;  3.8587301E+04;  1.7058696E+00;  0.0000000E+00;  3.0613989E-01;  7.7973984E+03;
  1.5963783E+00;  9.9999998E-03; -2.7435511E-01;8671;  7.0968944E-01;  0.0000000E+00; -6.8256043E-02;  1.0023702E+03;  4.3177316E-01;  1.9627905E+03;3;  8.4801414E+01;  0.0000000E+00; -4.0044239E+01;0;  9.8629504E-01;  2.2145664E+03;  0.0000000E+00; -1.5051880E+01;  4.0000000E+04;  0.0000000E+00;  3.8683309E+04;  3.7831706E-01;  0.0000000E+00;  6.0797799E-01;  8.1018133E+04;
  1.6002998E+00;  9.9999998E-03; -2.8457040E-01;8670;  7.2677743E-01;  0.0000000E+00; -5.5593852E-02;  1.0020509E+03;  4.2923328E-01;  1.6983706E+03;3;  8.6476685E+01;  0.0000000E+00; -3.9262398E+01;0;  8.5073328E-01;  2.2418176E+03;  0.0000000E+00; -1.7966440E+01;  4.0000000E+04;  0.0000000E+00;  3.8634043E+04;  3.1052864E-01;  0.0000000E+00;  5.4020464E-01;  9.8834133E+04;
  1.6048455E+00;  9.9999998E-03; -2.9473963E-01;8669;  7.4352264E-01;  0.0000000E+00; -4.2671815E-02;  1.0002198E+03;  4.2517254E-01;  1.8203320E+02;3;  8.9263199E+01;  0.0000000E+00; -3.8913399E+01;0;  6.5384114E-01;  2.2831064E+03;  0.0000000E+00; -1.7164558E+01;  4.0000000E+04;  0.0000000E+00;  3.8623699E+04;  2.2562322E-01;  0.0000000E+00;  4.2821789E-01;  9.3482617E+04;
  1.6098909E+00;  9.9999998E-03; -3.0488902E-01;8668;  7.6059657E-01;  0.0000000E+00; -3.2345947E-02;  9.9724109E+02;  4.2134812E-01; -2.2845610E+03;3;  9.1051338E+01;  0.0000000E+00; -3.9031693E+01;0;  4.6922505E-01;  2.3214841E+03;  0.0000000E+00; -7.6788988E+00;  4.0000000E+04;  0.0000000E+00;  3.8648793E+04;  1.3234307E-01;  0.0000000E+00;  3.3688197E-01;  2.3095434E+04;
  1.6326572E+00;  9.9999998E-03; -2.7423438E-01;8732;  7.0395887E-01;  0.0000000E+00; -9.1024372E-04;  9.9786365E+02;  3.8481629E-01; -1.7686705E+03;3;  8.9235725E+01;  0.0000000E+00; -4.1291393E+01;0;  5.6042528E-01;  2.7573364E+03;  0.0000000E+00; -1.6587374E+01;  4.0000000E+04;  0.0000000E+00;  3.8749156E+04; -4.8373248E-02;  0.0000000E+00;  6.0879850E-01;  9.9837305E+04;
  1.6338996E+00;  9.9999998E-03; -2.8444529E-01;8731;  7.2063756E-01;  0.0000000E+00; -1.4522686E-04;  9.9768250E+02;  3.8322762E-01; -1.9186085E+03;3;  8.9627510E+01;  0.0000000E+00; -3.3617874E+01;0;  5.3549922E-01;  2.7833523E+03;  0.0000000E+00; -1.8664200E+01;  4.0000000E+04;  0.0000000E+00;  3.8715609E+04; -8.3395690E-02;  0.0000000E+00;  6.1889488E-01;  1.0174590E+05;
  1.6405337E+00;  9.9999998E-03; -2.9462987E-01;8730;  7.3551965E-01;  0.0000000E+00;  1.7378120E-02;  9.9490063E+02;  3.7840375E-01; -4.2213506E+03;3;  9.1119011E+01;  0.0000000E+00; -3.4987598E+01;0;  3.3221239E-01;  2.8504104E+03;  0.0000000E+00; -1.7980612E+01;  4.0000000E+04;  0.0000000E+00;  3.8705926E+04; -1.3446946E-01;  0.0000000E+00;  4.6668187E-01;  1.0140930E+05;
  1.6481338E+00;  9.9999998E-03; -3.0478579E-01;8729;  7.4913067E-01;  0.0000000E+00;  2.9533373E-02;  9.9026508E+02;  3.7420604E-01; -8.0579951E+03;3;  9.3042519E+01;  0.0000000E+00; -3.5596172E+01;0;  2.0268400E-01;  2.9033604E+03;  0.0000000E+00; -5.8536549E+00;  4.0000000E+04;  0.0000000E+00;  3.8736555E+04; -1.7669250E-01;  0.0000000E+00;  3.7937650E-01;  4.3823750E+04;
  1.6659796E+00;  9.9999998E-03; -2.7420643E-01;8793;  6.9210583E-01;  0.0000000E+00;  6.9069088E-02;  9.9372406E+02;  3.4171662E-01; -5.1934375E+03;3;  9.3825134E+01;  0.0000000E+00; -4.9685776E+01;0;  5.7032233E-01;  3.4600833E+03;  0.0000000E+00; -1.7833866E+01;  4.0000000E+04;  0.0000000E+00;  3.8828379E+04;  1.6697422E-01;  0.0000000E+00;  4.0334812E-01;  8.0242234E+04;
  1.6658649E+00;  9.9999998E-03; -2.8441152E-01;8792;  7.0952618E-01;  0.0000000E+00;  4.7760449E-02;  9.9391388E+02;  3.4090385E-01; -5.0363516E+03;3;  9.2467178E+01;  0.0000000E+00; -3.4838356E+01;0;  7.2758907E-01;  3.4828862E+03;  0.0000000E+00; -1.7838358E+01;  4.0000000E+04;  0.0000000E+00;  3.8799746E+04;  6.9883704E-02;  0.0000000E+00;  6.5770537E-01;  6.4174047E+04;
  1.6717875E+00;  9.9999998E-03; -2.9459599E-01;8791;  7.2086543E-01;  0.0000000E+00;  5.1251758E-02;  9.9008417E+02;  3.3670911E-01; -8.2046152E+03;3;  9.5212456E+01;  0.0000000E+00; -2.3247833E+01;0;  7.5732899E-01;  3.5622529E+03;  0.0000000E+00; -1.6618740E+01;  4.0000000E+04;  0.0000000E+00;  3.8802531E+04;  7.0872650E-02;  0.0000000E+00;  6.8645632E-01;  7.0738523E+04;
  1.6793908E+00;  9.9999998E-03; -3.0475193E-01;8790;  7.3142046E-01;  0.0000000E+00;  6.6041008E-02;  9.8301642E+02;  3.3377334E-01; -1.4050489E+04;3;  9.8638046E+01;  0.0000000E+00; -2.2489655E+01;0;  6.2057251E-01;  3.5944207E+03;  0.0000000E+00; -1.0093285E+00;  4.0000000E+04;  0.0000000E+00;  3.8845008E+04;  1.1539970E-01;  0.0000000E+00;  5.0517279E-01;  3.4967047E+04;
  1.6964160E+00;  9.9999998E-03; -2.7426043E-01;8854;  6.7566597E-01;  0.0000000E+00;  1.3148913E-01;  9.9003265E+02;  3.0443567E-01; -8.2425439E+03;3;  9.2369843E+01;  0.0000000E+00; -4.1112408E+01;0;  9.2158091E-01;  4.3216846E+03;  0.0000000E+00; -1.7886190E+01;  4.0000000E+04;  0.0000000E+00;  3.8887418E+04;  9.6687222E-01;  0.0000000E+00; -4.5291293E-02;  4.9803762E+04;
  1.6962219E+00;  9.9999998E-03; -2.8444546E-01;8853;  6.9058067E-01;  0.0000000E+00;  9.8856926E-02;  9.9031915E+02;  3.0396518E-01; -8.0056973E+03;3;  9.7737282E+01;  0.0000000E+00; -4.3288502E+01;0;  1.1237923E+00;  4.3421807E+03;  0.0000000E+00; -1.7538546E+01;  4.0000000E+04;  0.0000000E+00;  3.8877918E+04;  7.8930455E-01;  0.0000000E+00;  3.3448774E-01;  4.2251090E+04;
  1.7003955E+00;  9.9999998E-03; -2.9462168E-01;8852;  7.0116967E-01;  0.0000000E+00;  9.0106644E-02;  9.8618542E+02;  3.0112126E-01; -1.1422754E+04;3;  9.9402237E+01;  0.0000000E+00; -4.0685181E+01;0;  1.2445377E+00;  4.4141577E+03;  0.0000000E+00; -1.3712502E+01;  4.0000000E+04;  0.0000000E+00;  3.8888641E+04;  7.7393216E-01;  0.0000000E+00;  4.7060552E-01;  4.7441109E+04;
  1.7053298E+00;  9.9999998E-03; -3.0477038E-01;8851;  7.0837057E-01;  0.0000000E+00;  8.9427531E-02;  9.7874054E+02;  3.0024046E-01; -1.7576051E+04;3;  1.0259979E+02;  0.0000000E+00; -3.1802761E+01;0;  1.2713042E+00;  4.3919561E+03;  0.0000000E+00;  7.9716678E+00;  4.0000000E+04;  0.0000000E+00;  3.8930066E+04;  7.9596406E-01;  0.0000000E+00;  4.7534022E-01;  3.3189434E+04;
  1.7235968E+00;  9.9999998E-03; -2.8454590E-01;8913;  6.7050266E-01;  0.0000000E+00;  1.5044039E-01;  9.8697205E+02;  2.7293184E-01; -1.0763616E+04;3;  9.5127121E+01;  0.0000000E+00; -2.4590134E+01;0;  1.4938799E+00;  5.3561553E+03;  0.0000000E+00; -1.6316093E+01;  4.0000000E+04;  0.0000000E+00;  3.8900254E+04;  1.8763130E+00;  0.0000000E+00; -3.8243303E-01;  3.3385574E+04;
  1.7240983E+00;  9.9999998E-03; -2.7438107E-01;8914;  6.6030139E-01;  0.0000000E+00;  1.5935872E-01;  9.8701929E+02;  2.7305874E-01; -1.0724342E+04;3;  9.5595520E+01;  0.0000000E+00; -1.3513361E+01;0;  1.6984695E+00;  5.3468525E+03;  0.0000000E+00; -1.7255116E+01;  4.0000000E+04;  0.0000000E+00;  3.8891723E+04;  2.1304145E+00;  0.0000000E+00; -4.3194497E-01;  3.4509340E+04;
  1.7263156E+00;  9.9999998E-03; -2.9470018E-01;8912;  6.7680186E-01;  0.0000000E+00;  1.3904823E-01;  9.8266840E+02;  2.7139285E-01; -1.4317607E+04;3;  1.0024379E+02;  0.0000000E+00; -3.5371143E+01;0;  1.5249416E+00;  5.3986460E+03;  0.0000000E+00; -8.1741333E+00;  4.0000000E+04;  0.0000000E+00;  3.8929180E+04;  1.7844172E+00;  0.0000000E+00; -2.5947559E-01;  3.4773355E+04;
  1.7479529E+00;  9.9999998E-03; -2.8469566E-01;8972;  6.5280098E-01;  0.0000000E+00;  1.5637076E-01;  9.8440619E+02;  2.4753483E-01; -1.2867905E+04;3;  9.3720200E+01;  0.0000000E+00;  2.1989231E+01;0;  2.3488727E+00;  6.4986821E+03;  0.0000000E+00; -1.3271532E+01;  4.0000000E+04;  0.0000000E+00;  3.8859320E+04;  2.9989145E+00;  0.0000000E+00; -6.5004188E-01;  2.6726996E+04;
  1.7486885E+00;  9.9999998E-03; -2.7453274E-01;8973;  6.5105677E-01;  0.0000000E+00;  1.5341932E-01;  9.8520837E+02;  2.4741916E-01; -1.2205384E+04;3;  5.7180931E+01;  0.0000000E+00;  3.4193619E+01;0;  2.7019172E+00;  6.5071880E+03;  0.0000000E+00; -1.5077797E+01;  4.0000000E+04;  0.0000000E+00;  3.8851051E+04;  3.2827315E+00;  0.0000000E+00; -5.8081430E-01;  2.5828945E+04;
  1.7492926E+00;  9.9999998E-03; -2.9483762E-01;8971;  6.5350950E-01;  0.0000000E+00;  1.5340935E-01;  9.8010388E+02;  2.4711101E-01; -1.6416781E+04;3;  1.0658842E+02;  0.0000000E+00;  1.5759226E+01;0;  2.1953974E+00;  6.4886582E+03;  0.0000000E+00;  8.3025378E-01;  4.0000000E+04;  0.0000000E+00;  3.8895027E+04;  2.8166981E+00;  0.0000000E+00; -6.2130076E-01;  2.5319895E+04;
  1.7691314E+00;  9.9999998E-03; -2.9499570E-01;9030;  6.5033638E-01;  0.0000000E+00;  1.3669826E-01;  9.8110925E+02;  2.2736992E-01; -1.5565514E+04;3; -3.9259327E+01;  0.0000000E+00;  1.0580937E+01;0;  3.0293262E+00;  7.6812319E+03;  0.0000000E+00;  1.3161976E+01;  4.0000000E+04;  0.0000000E+00;  3.8835555E+04;  3.6023824E+00;  0.0000000E+00; -5.7305622E-01;  3.9441926E+04;
  1.7694517E+00;  9.9999998E-03; -2.8484836E-01;9031;  6.9592011E-01;  0.0000000E+00;  1.3329391E-01;  9.8391663E+02;  2.2696023E-01; -1.3251957E+04;3; -1.3311545E+02;  0.0000000E+00;  1.4364477E+01;0;  3.3408785E+00;  7.7419194E+03;  0.0000000E+00; -7.2402797E+00;  4.0000000E+04;  0.0000000E+00;  3.8813398E+04;  3.9101362E+00;  0.0000000E+00; -5.6925780E-01;  1.7032846E+04;
  1.7705486E+00;  9.9999998E-03; -2.7467957E-01;9032;  7.6013488E-01;  0.0000000E+00;  1.2847722E-01;  9.8490918E+02;  2.2660850E-01; -1.2433031E+04;3; -1.2911603E+02;  0.0000000E+00;  1.9199154E+01;0;  3.6735334E+00;  7.7723242E+03;  0.0000000E+00; -1.1473714E+01;  4.0000000E+04;  0.0000000E+00;  3.8809691E+04;  4.2180371E+00;  0.0000000E+00; -5.4450375E-01;  1.7077232E+04;
  1.7867283E+00;  9.9999998E-03; -2.9518753E-01;9089;  7.4919438E-01;  0.0000000E+00;  1.1785860E-01;  9.8544379E+02;  2.1103066E-01; -1.1974454E+04;3; -1.7759776E+02;  0.0000000E+00;  1.1523945E+01;0;  3.7147555E+00;  8.9911719E+03;  0.0000000E+00;  2.3361488E+01;  4.0000000E+04;  0.0000000E+00;  3.8740988E+04;  4.2259521E+00;  0.0000000E+00; -5.1119673E-01;  5.3020781E+04;
  1.7884922E+00;  9.9999998E-03; -2.8502306E-01;9090;  8.1972891E-01;  0.0000000E+00;  1.1660723E-01;  9.8556842E+02;  2.1023147E-01; -1.1869698E+04;3; -1.6669916E+02;  0.0000000E+00;  2.0762598E+01;0;  3.9427996E+00;  9.0687012E+03;  0.0000000E+00;  1.8360180E+00;  4.0000000E+04;  0.0000000E+00;  3.8748324E+04;  4.5399895E+00;  0.0000000E+00; -5.9718978E-01;  1.9690926E+04;
  1.7900581E+00;  9.9999998E-03; -2.7484503E-01;9091;  8.8740474E-01;  0.0000000E+00;  1.0816082E-01;  9.8583875E+02;  2.0970833E-01; -1.1645337E+04;3; -1.5203355E+02;  0.0000000E+00;  2.7160360E+01;0;  4.2199655E+00;  9.1129863E+03;  0.0000000E+00; -5.5640759E+00;  4.0000000E+04;  0.0000000E+00;  3.8753891E+04;  4.7713189E+00;  0.0000000E+00; -5.5135334E-01;  1.5204899E+04;
  1.8058027E+00;  9.9999998E-03; -2.8522891E-01;9148;  9.3862724E-01;  0.0000000E+00;  9.6068405E-02;  9.8896155E+02;  1.9645043E-01; -9.0596113E+03;3; -1.7211226E+02;  0.0000000E+00;  2.5901348E+01;0;  4.2715673E+00;  1.0469556E+04;  0.0000000E+00;  1.0332937E+01;  4.0000000E+04;  0.0000000E+00;  3.8658594E+04;  4.8104734E+00;  0.0000000E+00; -5.3890616E-01;  2.7867619E+04;
  1.8078208E+00;  9.9999998E-03; -2.7504009E-01;9149;  1.0037500E+00;  0.0000000E+00;  8.9467242E-02;  9.8780237E+02;  1.9585663E-01; -1.0008152E+04;3; -1.5819078E+02;  0.0000000E+00;  3.4538048E+01;0;  4.3987951E+00;  1.0509296E+04;  0.0000000E+00;  1.2496588E+00;  4.0000000E+04;  0.0000000E+00;  3.8680520E+04;  4.9458051E+00;  0.0000000E+00; -5.4701012E-01;  2.5982465E+04;
  1.8219827E+00;  9.9999998E-03; -2.8546232E-01;9205;  1.0468118E+00;  0.0000000E+00;  7.6681480E-02;  9.9353235E+02;  1.8497324E-01; -5.2947808E+03;3; -1.6869821E+02;  0.0000000E+00;  3.3383751E+01;0;  4.3296185E+00;  1.1929226E+04;  0.0000000E+00;  1.3792883E+01;  4.0000000E+04;  0.0000000E+00;  3.8555980E+04;  4.7979012E+00;  0.0000000E+00; -4.6828252E-01;  1.9100379E+04;
  1.8241882E+00;  9.9999998E-03; -2.7526718E-01;9206;  1.1058278E+00;  0.0000000E+00;  7.0374407E-02;  9.9107306E+02;  1.8442662E-01; -7.3052178E+03;3; -1.5280316E+02;  0.0000000E+00;  3.7962227E+01;0;  4.3488560E+00;  1.1948676E+04;  0.0000000E+00;  7.6606245E+00;  4.0000000E+04;  0.0000000E+00;  3.8592301E+04;  4.8425007E+00;  0.0000000E+00; -4.9364471E-01;  3.3340078E+04;
  1.8376890E+00;  9.9999998E-03; -2.8571764E-01;9262;  1.1508507E+00;  0.0000000E+00;  5.7961028E-02;  9.9760059E+02;  1.7534278E-01; -1.9582003E+03;3; -1.5694846E+02;  0.0000000E+00;  4.0802456E+01;0;  4.2215877E+00;  1.3401288E+04;  0.0000000E+00;  1.1457657E+01;  4.0000000E+04;  0.0000000E+00;  3.8453141E+04;  4.6037645E+00;  0.0000000E+00; -3.8217667E-01;  8.6634346E+03;
  1.8395834E+00;  9.9999998E-03; -2.7553171E-01;9263;  1.1944335E+00;  0.0000000E+00;  5.0579622E-02;  9.9548792E+02;  1.7490533E-01; -3.6808613E+03;3; -1.3893057E+02;  0.0000000E+00;  4.0801193E+01;0;  4.1702871E+00;  1.3423030E+04;  0.0000000E+00;  1.0400067E+01;  4.0000000E+04;  0.0000000E+00;  3.8486449E+04;  4.5563426E+00;  0.0000000E+00; -3.8605538E-01;  2.7084633E+04;
  1.8545467E+00;  9.9999998E-03; -2.7582449E-01;9319;  1.2711898E+00;  0.0000000E+00;  3.2018051E-02;  9.9971649E+02;  1.6691722E-01; -2.3038614E+02;3; -1.1881836E+02;  0.0000000E+00;  4.0770855E+01;0;  3.8971636E+00;  1.4890293E+04;  0.0000000E+00;  7.0438313E+00;  4.0000000E+04;  0.0000000E+00;  3.8376371E+04;  4.1615119E+00;  0.0000000E+00; -2.6434830E-01;  8.2923594E+03;
  1.8692814E+00;  9.9999998E-03; -2.7613762E-01;9374;  1.3380095E+00;  0.0000000E+00;  1.6578278E-02;  1.0025591E+03;  1.6022778E-01;  2.0702622E+03;3; -9.4500641E+01;  0.0000000E+00;  3.8265156E+01;0;  3.5600190E+00;  1.6285593E+04;  0.0000000E+00;  4.1263857E+00;  4.0000000E+04;  0.0000000E+00;  3.8269758E+04;  3.7249682E+00;  0.0000000E+00; -1.6494925E-01;  2.3104645E+04;
  1.3515406E-03;  9.9999998E-03; -2.6985407E-01;2450;  2.5975122E-03;  0.0000000E+00;  7.8608695E-04;  9.9352637E+02;  1.0000000E-01; -5.3633052E+03;3;  4.3225086E+01;  0.0000000E+00;  2.7224432E+01;0;  1.3527198E-02;  3.9478074E+04;  0.0000000E+00; -2.4944794E-01;  4.0000000E+04;  0.0000000E+00;  4.0004691E+04;  1.1624319E-02;  0.0000000E+00;  1.9028788E-03;  1.2781218E+03;
  1.8799450E-03;  9.9999998E-03; -2.5987586E-01;2451;  3.2468559E-03;  0.0000000E+00;  7.8728161E-04;  9.9239111E+02;  1.0000000E-01; -6.3038218E+03;3;  5.3870453E+01;  0.0000000E+00;  2.5520788E+01;0;  1.4871715E-02;  3.9383734E+04;  0.0000000E+00; -3.1258768E-01;  4.0000000E+04;  0.0000000E+00;  4.0011410E+04;  1.3353230E-02;  0.0000000E+00;  1.5184855E-03;  2.2779185E+03;
  2.3645244E-03;  9.9999998E-03; -2.4991408E-01;2452;  3.7746737E-03;  0.0000000E+00;  7.3891215E-04;  9.9128516E+02;  1.0000000E-01; -7.2200923E+03;3;  6.4067848E+01;  0.0000000E+00;  2.3856539E+01;0;  1.6046261E-02;  3.9292957E+04;  0.0000000E+00; -3.9460653E-01;  4.0000000E+04;  0.0000000E+00;  4.0018676E+04;  1.4964050E-02;  0.0000000E+00;  1.0822120E-03;  3.0495894E+03;
  2.7894762E-03;  9.9999998E-03; -2.3995228E-01;2453;  4.1812174E-03;  0.0000000E+00;  6.7829824E-04;  9.9023438E+02;  1.0000000E-01; -8.0906353E+03;3;  7.2856949E+01;  0.0000000E+00;  2.2130566E+01;0;  1.7070854E-02;  3.9209488E+04;  0.0000000E+00; -4.8155740E-01;  4.0000000E+04;  0.0000000E+00;  4.0020730E+04;  1.6426792E-02;  0.0000000E+00;  6.4406137E-04;  3.4996323E+03;
  3.1539297E-03;  9.9999998E-03; -2.2998364E-01;2454;  4.4821482E-03;  0.0000000E+00;  6.2588521E-04;  9.8927777E+02;  1.0000000E-01; -8.8831562E+03;3;  7.9578743E+01;  0.0000000E+00;  2.0142988E+01;0;  1.7970311E-02;  3.9136273E+04;  0.0000000E+00; -5.5586821E-01;  4.0000000E+04;  0.0000000E+00;  4.0022234E+04;  1.7729452E-02;  0.0000000E+00;  2.4085911E-04;  3.6191816E+03;
  3.4533902E-03;  9.9999998E-03; -2.2000577E-01;2455;  4.6936274E-03;  0.0000000E+00;  5.8722886E-04;  9.8843787E+02;  1.0000000E-01; -9.5789883E+03;3;  8.4074608E+01;  0.0000000E+00;  1.7839207E+01;0;  1.8775566E-02;  3.9074062E+04;  0.0000000E+00; -6.0186756E-01;  4.0000000E+04;  0.0000000E+00;  4.0020211E+04;  1.8880859E-02;  0.0000000E+00; -1.0529335E-04;  3.4599651E+03;
  3.6874532E-03;  9.9999998E-03; -2.1001875E-01;2456;  4.8386734E-03;  0.0000000E+00;  5.6376547E-04;  9.8772882E+02;  1.0000000E-01; -1.0166429E+04;3;  8.6543678E+01;  0.0000000E+00;  1.5328591E+01;0;  1.9518528E-02;  3.9022973E+04;  0.0000000E+00; -6.1039215E-01;  4.0000000E+04;  0.0000000E+00;  4.0016684E+04;  1.9903222E-02;  0.0000000E+00; -3.8469391E-04;  3.1068062E+03;
  3.8630925E-03;  9.9999998E-03; -2.0002310E-01;2457;  4.9434905E-03;  0.0000000E+00;  5.5598764E-04;  9.8715265E+02;  1.0000000E-01; -1.0643798E+04;3;  8.7409225E+01;  0.0000000E+00;  1.2816299E+01;0;  2.0227229E-02;  3.8982871E+04;  0.0000000E+00; -5.8065164E-01;  4.0000000E+04;  0.0000000E+00;  4.0013176E+04;  2.0824675E-02;  0.0000000E+00; -5.9744553E-04;  2.6513445E+03;
  3.9922185E-03;  9.9999998E-03; -1.9002053E-01;2458;  5.0326036E-03;  0.0000000E+00;  5.6150375E-04;  9.8670575E+02;  1.0000000E-01; -1.1014059E+04;3;  8.7143356E+01;  0.0000000E+00;  1.0502460E+01;0;  2.0922894E-02;  3.8952355E+04;  0.0000000E+00; -5.1928496E-01;  4.0000000E+04;  0.0000000E+00;  4.0008633E+04;  2.1673571E-02;  0.0000000E+00; -7.5067836E-04;  2.1741606E+03;
  4.0860642E-03;  9.9999998E-03; -1.8001303E-01;2459;  5.1253284E-03;  0.0000000E+00;  5.7459570E-04;  9.8637238E+02;  1.0000000E-01; -1.1290249E+04;3;  8.6226128E+01;  0.0000000E+00;  8.5152874E+00;0;  2.1618733E-02;  3.8929969E+04;  0.0000000E+00; -4.3753725E-01;  4.0000000E+04;  0.0000000E+00;  4.0004895E+04;  2.2474462E-02;  0.0000000E+00; -8.5572974E-04;  1.7344863E+03;
  4.1561052E-03;  9.9999998E-03; -1.7000213E-01;2460;  5.2331039E-03;  0.0000000E+00;  5.8693223E-04;  9.8613202E+02;  1.0000000E-01; -1.1489354E+04;3;  8.5051895E+01;  0.0000000E+00;  6.8866596E+00;0;  2.2319013E-02;  3.8914152E+04;  0.0000000E+00; -3.4793702E-01;  4.0000000E+04;  0.0000000E+00;  4.0002078E+04;  2.3244804E-02;  0.0000000E+00; -9.2579017E-04;  1.3681671E+03;
  4.2106020E-03;  9.9999998E-03; -1.5999009E-01;2461;  5.3588157E-03;  0.0000000E+00;  5.9041387E-04;  9.8596759E+02;  1.0000000E-01; -1.1625597E+04;3;  8.3875557E+01;  0.0000000E+00;  5.5746446E+00;0;  2.3019612E-02;  3.8903379E+04;  0.0000000E+00; -2.6146287E-01;  4.0000000E+04;  0.0000000E+00;  3.9999574E+04;  2.3993745E-02;  0.0000000E+00; -9.7413402E-04;  1.0922161E+03;
  4.2555546E-03;  9.9999998E-03; -1.4997947E-01;2462;  5.4979962E-03;  0.0000000E+00;  5.7965860E-04;  9.8585815E+02;  1.0000000E-01; -1.1716261E+04;3;  8.2888985E+01;  0.0000000E+00;  4.5030389E+00;0;  2.3708560E-02;  3.8895805E+04;  0.0000000E+00; -1.8583666E-01;  4.0000000E+04;  0.0000000E+00;  3.9999133E+04;  2.4721334E-02;  0.0000000E+00; -1.0127751E-03;  9.0990393E+02;
  4.2936439E-03;  9.9999998E-03; -1.3997239E-01;2463;  5.6410506E-03;  0.0000000E+00;  5.5316469E-04;  9.8578894E+02;  1.0000000E-01; -1.1773593E+04;3;  8.2173874E+01;  0.0000000E+00;  3.5993571E+00;0;  2.4368858E-02;  3.8890656E+04;  0.0000000E+00; -1.2507844E-01;  4.0000000E+04;  0.0000000E+00;  3.9997969E+04;  2.5420042E-02;  0.0000000E+00; -1.0511839E-03;  8.1434827E+02;
  4.3248772E-03;  9.9999998E-03; -1.2996849E-01;2464;  5.7766610E-03;  0.0000000E+00;  5.1212002E-04;  9.8573438E+02;  1.0000000E-01; -1.1818776E+04;3;  8.1849762E+01;  0.0000000E+00;  2.8178973E+00;0;  2.4981337E-02;  3.8886809E+04;  0.0000000E+00; -7.9964705E-02;  4.0000000E+04;  0.0000000E+00;  3.9997930E+04;  2.6076281E-02;  0.0000000E+00; -1.0949442E-03;  7.9014484E+02;
  4.3482212E-03;  9.9999998E-03; -1.1996543E-01;2465;  5.8934893E-03;  0.0000000E+00;  4.5838195E-04;  9.8569568E+02;  1.0000000E-01; -1.1850875E+04;3;  8.1818748E+01;  0.0000000E+00;  2.1392269E+00;0;  2.5528280E-02;  3.8883934E+04;  0.0000000E+00; -4.9052443E-02;  4.0000000E+04;  0.0000000E+00;  3.9997379E+04;  2.6673043E-02;  0.0000000E+00; -1.1447630E-03;  8.1689514E+02;
  4.3628374E-03;  9.9999998E-03; -1.0996269E-01;2466;  5.9834048E-03;  0.0000000E+00;  3.9590299E-04;  9.8566992E+02;  1.0000000E-01; -1.1872207E+04;3;  8.2014496E+01;  0.0000000E+00;  1.5547557E+00;0;  2.5996065E-02;  3.8880887E+04;  0.0000000E+00; -2.9353870E-02;  4.0000000E+04;  0.0000000E+00;  3.9997281E+04;  2.7192386E-02;  0.0000000E+00; -1.1963217E-03;  8.7543848E+02;
  1.1223787E-02;  9.9999998E-03; -2.6978061E-01;2510;  2.2939113E-03;  0.0000000E+00;  9.2361908E-04;  9.9474573E+02;  1.0000000E-01; -4.3530620E+03;3;  3.2142014E+01;  0.0000000E+00;  2.1956520E+01;0;  1.2777790E-02;  3.9573168E+04;  0.0000000E+00; -2.9808709E-01;  4.0000000E+04;  0.0000000E+00;  4.0006770E+04;  1.0756897E-02;  0.0000000E+00;  2.0208941E-03;  1.4572299E+03;
  1.1714950E-02;  9.9999998E-03; -2.5982267E-01;2511;  2.8599710E-03;  0.0000000E+00;  8.7541324E-04;  9.9390387E+02;  1.0000000E-01; -5.0505239E+03;3;  3.9911919E+01;  0.0000000E+00;  1.9826765E+01;0;  1.3844959E-02;  3.9499707E+04;  0.0000000E+00; -3.7825951E-01;  4.0000000E+04;  0.0000000E+00;  4.0013992E+04;  1.2254655E-02;  0.0000000E+00;  1.5903040E-03;  2.4624871E+03;
  1.2146689E-02;  9.9999998E-03; -2.4987638E-01;2512;  3.3122571E-03;  0.0000000E+00;  8.0599525E-04;  9.9307263E+02;  1.0000000E-01; -5.7391958E+03;3;  4.6977203E+01;  0.0000000E+00;  1.8351402E+01;0;  1.4753653E-02;  3.9431125E+04;  0.0000000E+00; -4.8995170E-01;  4.0000000E+04;  0.0000000E+00;  4.0020473E+04;  1.3640701E-02;  0.0000000E+00;  1.1129515E-03;  3.1901753E+03;
  1.2510504E-02;  9.9999998E-03; -2.3992594E-01;2513;  3.6479218E-03;  0.0000000E+00;  7.3646894E-04;  9.9230231E+02;  1.0000000E-01; -6.3773999E+03;3;  5.2419777E+01;  0.0000000E+00;  1.7143581E+01;0;  1.5535178E-02;  3.9369500E+04;  0.0000000E+00; -6.1263460E-01;  4.0000000E+04;  0.0000000E+00;  4.0023426E+04;  1.4894981E-02;  0.0000000E+00;  6.4019707E-04;  3.5610334E+03;
  1.2811787E-02;  9.9999998E-03; -2.2996435E-01;2514;  3.8764020E-03;  0.0000000E+00;  6.7446742E-04;  9.9161053E+02;  1.0000000E-01; -6.9505195E+03;3;  5.5903423E+01;  0.0000000E+00;  1.5855677E+01;0;  1.6222322E-02;  3.9316777E+04;  0.0000000E+00; -7.2005194E-01;  4.0000000E+04;  0.0000000E+00;  4.0023355E+04;  1.6013183E-02;  0.0000000E+00;  2.0913925E-04;  3.5864534E+03;
  1.3048099E-02;  9.9999998E-03; -2.1999161E-01;2515;  4.0202192E-03;  0.0000000E+00;  6.2630378E-04;  9.9102197E+02;  1.0000000E-01; -7.4381108E+03;3;  5.7426807E+01;  0.0000000E+00;  1.4286463E+01;0;  1.6848639E-02;  3.9274098E+04;  0.0000000E+00; -7.8882998E-01;  4.0000000E+04;  0.0000000E+00;  4.0020293E+04;  1.7006069E-02;  0.0000000E+00; -1.5743036E-04;  3.3403918E+03;
  1.3222987E-02;  9.9999998E-03; -2.1000792E-01;2516;  4.1072541E-03;  0.0000000E+00;  5.9327396E-04;  9.9052808E+02;  1.0000000E-01; -7.8473335E+03;3;  5.7444038E+01;  0.0000000E+00;  1.2477360E+01;0;  1.7443968E-02;  3.9239906E+04;  0.0000000E+00; -8.0547947E-01;  4.0000000E+04;  0.0000000E+00;  4.0016227E+04;  1.7893987E-02;  0.0000000E+00; -4.5001891E-04;  2.9213723E+03;
  1.3347180E-02;  9.9999998E-03; -2.0001490E-01;2517;  4.1660843E-03;  0.0000000E+00;  5.7426916E-04;  9.9014722E+02;  1.0000000E-01; -8.1628311E+03;3;  5.6307316E+01;  0.0000000E+00;  1.0570570E+01;0;  1.8031524E-02;  3.9214566E+04;  0.0000000E+00; -7.6877511E-01;  4.0000000E+04;  0.0000000E+00;  4.0012289E+04;  1.8700913E-02;  0.0000000E+00; -6.6938857E-04;  2.4269749E+03;
  1.3433476E-02;  9.9999998E-03; -1.9001511E-01;2518;  4.2223930E-03;  0.0000000E+00;  5.6552480E-04;  9.8986932E+02;  1.0000000E-01; -8.3930957E+03;3;  5.4510208E+01;  0.0000000E+00;  8.7541132E+00;0;  1.8626694E-02;  3.9196801E+04;  0.0000000E+00; -6.8808544E-01;  4.0000000E+04;  0.0000000E+00;  4.0007438E+04;  1.9450124E-02;  0.0000000E+00; -8.2343118E-04;  1.9353154E+03;
  1.3493150E-02;  9.9999998E-03; -1.8001051E-01;2519;  4.2953873E-03;  0.0000000E+00;  5.6252151E-04;  9.8967456E+02;  1.0000000E-01; -8.5544248E+03;3;  5.2496323E+01;  0.0000000E+00;  7.1576672E+00;0;  1.9237200E-02;  3.9184996E+04;  0.0000000E+00; -5.7920390E-01;  4.0000000E+04;  0.0000000E+00;  4.0003641E+04;  2.0161480E-02;  0.0000000E+00; -9.2428038E-04;  1.4970570E+03;
  1.3536632E-02;  9.9999998E-03; -1.7000268E-01;2520;  4.3948349E-03;  0.0000000E+00;  5.6000473E-04;  9.8954865E+02;  1.0000000E-01; -8.6587676E+03;3;  5.0534866E+01;  0.0000000E+00;  5.8240833E+00;0;  1.9862603E-02;  3.9177484E+04;  0.0000000E+00; -4.5958400E-01;  4.0000000E+04;  0.0000000E+00;  4.0000484E+04;  2.0848712E-02;  0.0000000E+00; -9.8610832E-04;  1.1379519E+03;
  1.3571681E-02;  9.9999998E-03; -1.5999418E-01;2521;  4.5211888E-03;  0.0000000E+00;  5.5267976E-04;  9.8947180E+02;  1.0000000E-01; -8.7224199E+03;3;  4.8816898E+01;  0.0000000E+00;  4.7306972E+00;0;  2.0495011E-02;  3.9173320E+04;  0.0000000E+00; -3.4436989E-01;  4.0000000E+04;  0.0000000E+00;  3.9999488E+04;  2.1518521E-02;  0.0000000E+00; -1.0235113E-03;  8.6626794E+02;
  1.3603393E-02;  9.9999998E-03; -1.4998747E-01;2522;  4.6666050E-03;  0.0000000E+00;  5.3611543E-04;  9.8943335E+02;  1.0000000E-01; -8.7542705E+03;3;  4.7395210E+01;  0.0000000E+00;  3.8247697E+00;0;  2.1119989E-02;  3.9170754E+04;  0.0000000E+00; -2.4408877E-01;  4.0000000E+04;  0.0000000E+00;  3.9997797E+04;  2.2170287E-02;  0.0000000E+00; -1.0502964E-03;  6.8088763E+02;
  1.3632632E-02;  9.9999998E-03; -1.3998273E-01;2523;  4.8187538E-03;  0.0000000E+00;  5.0774839E-04;  9.8940771E+02;  1.0000000E-01; -8.7755049E+03;3;  4.6385540E+01;  0.0000000E+00;  3.0550511E+00;0;  2.1719523E-02;  3.9169508E+04;  0.0000000E+00; -1.6405396E-01;  4.0000000E+04;  0.0000000E+00;  3.9997336E+04;  2.2797514E-02;  0.0000000E+00; -1.0779911E-03;  5.7582153E+02;
  1.3658627E-02;  9.9999998E-03; -1.2997934E-01;2524;  4.9630445E-03;  0.0000000E+00;  4.6757836E-04;  9.8938806E+02;  1.0000000E-01; -8.7918008E+03;3;  4.5760548E+01;  0.0000000E+00;  2.3881686E+00;0;  2.2274364E-02;  3.9168027E+04;  0.0000000E+00; -1.0509621E-01;  4.0000000E+04;  0.0000000E+00;  3.9997887E+04;  2.3388540E-02;  0.0000000E+00; -1.1141757E-03;  5.3856433E+02;
  1.3679871E-02;  9.9999998E-03; -1.1997658E-01;2525;  5.0861374E-03;  0.0000000E+00;  4.1785065E-04;  9.8937573E+02;  1.0000000E-01; -8.8020225E+03;3;  4.5431484E+01;  0.0000000E+00;  1.8094748E+00;0;  2.2767259E-02;  3.9166273E+04;  0.0000000E+00; -6.4986929E-02;  4.0000000E+04;  0.0000000E+00;  3.9997570E+04;  2.3928253E-02;  0.0000000E+00; -1.1609944E-03;  5.4860638E+02;
  1.3694901E-02;  9.9999998E-03; -1.0997408E-01;2526;  5.1792068E-03;  0.0000000E+00;  3.6162464E-04;  9.8935223E+02;  1.0000000E-01; -8.8214785E+03;3;  4.5452526E+01;  0.0000000E+00;  1.3117967E+00;0;  2.3185773E-02;  3.9164613E+04;  0.0000000E+00; -3.9554156E-02;  4.0000000E+04;  0.0000000E+00;  3.9998234E+04;  2.4400499E-02;  0.0000000E+00; -1.2147254E-03;  5.8556671E+02;
  2.1046961E-02;  9.9999998E-03; -2.6980987E-01;2571;  1.9489321E-03;  0.0000000E+00;  8.9838402E-04;  9.9615594E+02;  1.0000000E-01; -3.1847495E+03;3;  2.1254770E+01;  0.0000000E+00;  1.4267335E+01;0;  1.1880917E-02;  3.9681496E+04;  0.0000000E+00; -3.9033008E-01;  4.0000000E+04;  0.0000000E+00;  4.0009594E+04;  9.8307766E-03;  0.0000000E+00;  2.0501411E-03;  1.6978506E+03;
  2.1498187E-02;  9.9999998E-03; -2.5985810E-01;2572;  2.4436726E-03;  0.0000000E+00;  8.3822798E-04;  9.9561230E+02;  1.0000000E-01; -3.6351072E+03;3;  2.5783743E+01;  0.0000000E+00;  1.2121389E+01;0;  1.2693266E-02;  3.9632477E+04;  0.0000000E+00; -4.7778699E-01;  4.0000000E+04;  0.0000000E+00;  4.0016875E+04;  1.1098567E-02;  0.0000000E+00;  1.5946990E-03;  2.6363967E+03;
  2.1879626E-02;  9.9999998E-03; -2.4991545E-01;2573;  2.8230362E-03;  0.0000000E+00;  7.6532323E-04;  9.9509705E+02;  1.0000000E-01; -4.0620085E+03;3;  2.9314743E+01;  0.0000000E+00;  1.1110207E+01;0;  1.3357943E-02;  3.9588523E+04;  0.0000000E+00; -6.0309613E-01;  4.0000000E+04;  0.0000000E+00;  4.0022395E+04;  1.2263273E-02;  0.0000000E+00;  1.0946703E-03;  3.2647739E+03;
  2.2190535E-02;  9.9999998E-03; -2.3996417E-01;2574;  3.0847413E-03;  0.0000000E+00;  6.9423846E-04;  9.9462823E+02;  1.0000000E-01; -4.4503926E+03;3;  3.1317539E+01;  0.0000000E+00;  1.0741779E+01;0;  1.3915310E-02;  3.9551020E+04;  0.0000000E+00; -7.4160087E-01;  4.0000000E+04;  0.0000000E+00;  4.0023488E+04;  1.3312885E-02;  0.0000000E+00;  6.0242496E-04;  3.5187695E+03;
  2.2438062E-02;  9.9999998E-03; -2.2999777E-01;2575;  3.2453169E-03;  0.0000000E+00;  6.3358876E-04;  9.9422308E+02;  1.0000000E-01; -4.7860869E+03;3;  3.1632214E+01;  0.0000000E+00;  1.0460307E+01;0;  1.4402878E-02;  3.9521383E+04;  0.0000000E+00; -8.6176610E-01;  4.0000000E+04;  0.0000000E+00;  4.0022652E+04;  1.4246559E-02;  0.0000000E+00;  1.5632005E-04;  3.4308748E+03;
  2.2621134E-02;  9.9999998E-03; -2.2001742E-01;2576;  3.3260786E-03;  0.0000000E+00;  5.8665854E-04;  9.9388739E+02;  1.0000000E-01; -5.0642026E+03;3;  3.0505220E+01;  0.0000000E+00;  9.9258757E+00;0;  1.4856874E-02;  3.9499316E+04;  0.0000000E+00; -9.3601680E-01;  4.0000000E+04;  0.0000000E+00;  4.0019008E+04;  1.5077136E-02;  0.0000000E+00; -2.2026221E-04;  3.0954346E+03;
  2.2745717E-02;  9.9999998E-03; -2.1002553E-01;2577;  3.3555385E-03;  0.0000000E+00;  5.5255019E-04;  9.9363153E+02;  1.0000000E-01; -5.2761470E+03;3;  2.8326754E+01;  0.0000000E+00;  9.0513754E+00;0;  1.5306190E-02;  3.9484289E+04;  0.0000000E+00; -9.4909620E-01;  4.0000000E+04;  0.0000000E+00;  4.0015195E+04;  1.5823683E-02;  0.0000000E+00; -5.1749346E-04;  2.6251970E+03;
  2.2825334E-02;  9.9999998E-03; -2.0002539E-01;2578;  3.3658198E-03;  0.0000000E+00;  5.2951893E-04;  9.9345306E+02;  1.0000000E-01; -5.4239946E+03;3;  2.5576122E+01;  0.0000000E+00;  7.9462571E+00;0;  1.5769601E-02;  3.9474820E+04;  0.0000000E+00; -9.0042269E-01;  4.0000000E+04;  0.0000000E+00;  4.0010410E+04;  1.6505614E-02;  0.0000000E+00; -7.3601305E-04;  2.1202185E+03;
  2.2872347E-02;  9.9999998E-03; -1.9002005E-01;2579;  3.3863927E-03;  0.0000000E+00;  5.1483768E-04;  9.9334729E+02;  1.0000000E-01; -5.5116465E+03;3;  2.2654152E+01;  0.0000000E+00;  6.7757616E+00;0;  1.6257364E-02;  3.9470449E+04;  0.0000000E+00; -8.0171174E-01;  4.0000000E+04;  0.0000000E+00;  4.0005070E+04;  1.7141139E-02;  0.0000000E+00; -8.8377483E-04;  1.6502125E+03;
  2.2898752E-02;  9.9999998E-03; -1.8001185E-01;2580;  3.4389615E-03;  0.0000000E+00;  5.0506875E-04;  9.9329828E+02;  1.0000000E-01; -5.5522378E+03;3;  1.9886406E+01;  0.0000000E+00;  5.6722550E+00;0;  1.6771320E-02;  3.9469371E+04;  0.0000000E+00; -6.7182696E-01;  4.0000000E+04;  0.0000000E+00;  4.0001957E+04;  1.7744677E-02;  0.0000000E+00; -9.7335730E-04;  1.2502267E+03;
  2.2915673E-02;  9.9999998E-03; -1.7000335E-01;2581;  3.5338760E-03;  0.0000000E+00;  4.9649528E-04;  9.9328705E+02;  1.0000000E-01; -5.5615713E+03;3;  1.7473019E+01;  0.0000000E+00;  4.6963787E+00;0;  1.7305817E-02;  3.9470254E+04;  0.0000000E+00; -5.3110033E-01;  4.0000000E+04;  0.0000000E+00;  4.0000688E+04;  1.8325683E-02;  0.0000000E+00; -1.0198656E-03;  9.2845337E+02;
  2.2930771E-02;  9.9999998E-03; -1.5999614E-01;2582;  3.6695320E-03;  0.0000000E+00;  4.8535632E-04;  9.9329938E+02;  1.0000000E-01; -5.5513491E+03;3;  1.5479105E+01;  0.0000000E+00;  3.8543365E+00;0;  1.7849445E-02;  3.9472418E+04;  0.0000000E+00; -3.9688429E-01;  4.0000000E+04;  0.0000000E+00;  3.9999152E+04;  1.8888798E-02;  0.0000000E+00; -1.0393525E-03;  6.7949414E+02;
  2.2947889E-02;  9.9999998E-03; -1.4999039E-01;2583;  3.8345351E-03;  0.0000000E+00;  4.6817254E-04;  9.9332178E+02;  1.0000000E-01; -5.5327817E+03;3;  1.3905132E+01;  0.0000000E+00;  3.1280308E+00;0;  1.8386578E-02;  3.9474871E+04;  0.0000000E+00; -2.8102720E-01;  4.0000000E+04;  0.0000000E+00;  3.9998594E+04;  1.9434100E-02;  0.0000000E+00; -1.0475216E-03;  4.9658005E+02;
  2.2967359E-02;  9.9999998E-03; -1.3998589E-01;2584;  4.0091034E-03;  0.0000000E+00;  4.4243812E-04;  9.9334296E+02;  1.0000000E-01; -5.5152515E+03;3;  1.2733377E+01;  0.0000000E+00;  2.4977205E+00;0;  1.8899992E-02;  3.9476844E+04;  0.0000000E+00; -1.8927000E-01;  4.0000000E+04;  0.0000000E+00;  3.9997703E+04;  1.9958250E-02;  0.0000000E+00; -1.0582581E-03;  3.7655246E+02;
  2.2987656E-02;  9.9999998E-03; -1.2998244E-01;2585;  4.1731545E-03;  0.0000000E+00;  4.0802592E-04;  9.9335590E+02;  1.0000000E-01; -5.5045356E+03;3;  1.1930230E+01;  0.0000000E+00;  1.9492526E+00;0;  1.9372072E-02;  3.9477441E+04;  0.0000000E+00; -1.2217209E-01;  4.0000000E+04;  0.0000000E+00;  3.9998324E+04;  2.0453621E-02;  0.0000000E+00; -1.0815493E-03;  3.1526965E+02;
  2.3006635E-02;  9.9999998E-03; -1.1997982E-01;2586;  4.3109022E-03;  0.0000000E+00;  3.6636979E-04;  9.9335400E+02;  1.0000000E-01; -5.5060664E+03;3;  1.1468140E+01;  0.0000000E+00;  1.4738450E+00;0;  1.9786928E-02;  3.9477422E+04;  0.0000000E+00; -7.6754428E-02;  4.0000000E+04;  0.0000000E+00;  3.9998105E+04;  2.0908363E-02;  0.0000000E+00; -1.1214357E-03;  2.9780872E+02;
  2.3022018E-02;  9.9999998E-03; -1.0997827E-01;2587;  4.4113160E-03;  0.0000000E+00;  3.1956148E-04;  9.9333838E+02;  1.0000000E-01; -5.5190044E+03;3;  1.1290725E+01;  0.0000000E+00;  1.0653771E+00;0;  2.0134808E-02;  3.9476320E+04;  0.0000000E+00; -4.7955777E-02;  4.0000000E+04;  0.0000000E+00;  3.9997926E+04;  2.1309901E-02;  0.0000000E+00; -1.1750917E-03;  3.0317148E+02;
  3.0877024E-02;  9.9999998E-03; -2.6986319E-01;2632;  1.6341454E-03;  0.0000000E+00;  7.8450341E-04;  9.9750409E+02;  1.0000000E-01; -2.0677935E+03;3;  1.2507028E+01;  0.0000000E+00;  5.7398882E+00;0;  1.1116005E-02;  3.9786469E+04;  0.0000000E+00; -4.9084383E-01;  4.0000000E+04;  0.0000000E+00;  4.0011367E+04;  9.1101089E-03;  0.0000000E+00;  2.0058956E-03;  1.9058434E+03;
  3.1298202E-02;  9.9999998E-03; -2.5990680E-01;2633;  2.0764419E-03;  0.0000000E+00;  7.2744861E-04;  9.9725836E+02;  1.0000000E-01; -2.2713926E+03;3;  1.4022510E+01;  0.0000000E+00;  3.7134304E+00;0;  1.1714099E-02;  3.9761898E+04;  0.0000000E+00; -5.6409425E-01;  4.0000000E+04;  0.0000000E+00;  4.0018734E+04;  1.0171747E-02;  0.0000000E+00;  1.5423525E-03;  2.7223228E+03;
  3.1639911E-02;  9.9999998E-03; -2.4995922E-01;2634;  2.3950282E-03;  0.0000000E+00;  6.5831363E-04;  9.9705035E+02;  1.0000000E-01; -2.4437334E+03;3;  1.4437524E+01;  0.0000000E+00;  3.3139615E+00;0;  1.2168083E-02;  3.9742309E+04;  0.0000000E+00; -6.7572212E-01;  4.0000000E+04;  0.0000000E+00;  4.0022957E+04;  1.1132999E-02;  0.0000000E+00;  1.0350845E-03;  3.2066555E+03;
  3.1904910E-02;  9.9999998E-03; -2.4000102E-01;2635;  2.5992650E-03;  0.0000000E+00;  5.9374579E-04;  9.9687384E+02;  1.0000000E-01; -2.5899514E+03;3;  1.3547751E+01;  0.0000000E+00;  3.9165030E+00;0;  1.2524453E-02;  3.9729293E+04;  0.0000000E+00; -8.0120236E-01;  4.0000000E+04;  0.0000000E+00;  4.0023559E+04;  1.1987414E-02;  0.0000000E+00;  5.3703890E-04;  3.3145820E+03;
  3.2103576E-02;  9.9999998E-03; -2.3002490E-01;2636;  2.7018718E-03;  0.0000000E+00;  5.4114009E-04;  9.9674780E+02;  1.0000000E-01; -2.6943928E+03;3;  1.1344665E+01;  0.0000000E+00;  4.7498879E+00;0;  1.2827545E-02;  3.9722070E+04;  0.0000000E+00; -9.0876091E-01;  4.0000000E+04;  0.0000000E+00;  4.0021133E+04;  1.2740185E-02;  0.0000000E+00;  8.7360269E-05;  3.1024219E+03;
  3.2237876E-02;  9.9999998E-03; -2.2003333E-01;2637;  2.7278569E-03;  0.0000000E+00;  5.0108030E-04;  9.9666223E+02;  1.0000000E-01; -2.7652551E+03;3;  8.2300243E+00;  0.0000000E+00;  5.3358150E+00;0;  1.3115492E-02;  3.9720543E+04;  0.0000000E+00; -9.7103310E-01;  4.0000000E+04;  0.0000000E+00;  4.0017574E+04;  1.3405250E-02;  0.0000000E+00; -2.8975849E-04;  2.6867476E+03;
  3.2315578E-02;  9.9999998E-03; -2.1003114E-01;2638;  2.7089461E-03;  0.0000000E+00;  4.7186197E-04;  9.9662756E+02;  1.0000000E-01; -2.7939951E+03;3;  4.6062942E+00;  0.0000000E+00;  5.4812989E+00;0;  1.3416690E-02;  3.9723250E+04;  0.0000000E+00; -9.7349060E-01;  4.0000000E+04;  0.0000000E+00;  4.0012543E+04;  1.4000423E-02;  0.0000000E+00; -5.8373332E-04;  2.1945967E+03;
  3.2351907E-02;  9.9999998E-03; -2.0002291E-01;2639;  2.6803843E-03;  0.0000000E+00;  4.5030186E-04;  9.9663586E+02;  1.0000000E-01; -2.7871311E+03;3;  9.2235231E-01;  0.0000000E+00;  5.2461925E+00;0;  1.3747666E-02;  3.9728906E+04;  0.0000000E+00; -9.1637355E-01;  4.0000000E+04;  0.0000000E+00;  4.0007152E+04;  1.4542244E-02;  0.0000000E+00; -7.9457881E-04;  1.7260391E+03;
  3.2361336E-02;  9.9999998E-03; -1.9001231E-01;2640;  2.6716467E-03;  0.0000000E+00;  4.3387859E-04;  9.9668781E+02;  1.0000000E-01; -2.7440706E+03;3; -2.5399520E+00;  0.0000000E+00;  4.7743745E+00;0;  1.4115861E-02;  3.9736918E+04;  0.0000000E+00; -8.1184417E-01;  4.0000000E+04;  0.0000000E+00;  4.0002965E+04;  1.5045615E-02;  0.0000000E+00; -9.2975411E-04;  1.3344608E+03;
  3.2358229E-02;  9.9999998E-03; -1.8000279E-01;2641;  2.7050171E-03;  0.0000000E+00;  4.1993926E-04;  9.9676093E+02;  1.0000000E-01; -2.6835291E+03;3; -5.5247126E+00;  0.0000000E+00;  4.1991415E+00;0;  1.4519370E-02;  3.9745641E+04;  0.0000000E+00; -6.7856252E-01;  4.0000000E+04;  0.0000000E+00;  4.0000297E+04;  1.5521181E-02;  0.0000000E+00; -1.0018109E-03;  1.0264738E+03;
  3.2352306E-02;  9.9999998E-03; -1.6999570E-01;2642;  2.7907540E-03;  0.0000000E+00;  4.0649061E-04;  9.9684985E+02;  1.0000000E-01; -2.6098521E+03;3; -8.0017719E+00;  0.0000000E+00;  3.5984313E+00;0;  1.4949610E-02;  3.9754449E+04;  0.0000000E+00; -5.3627253E-01;  4.0000000E+04;  0.0000000E+00;  3.9998262E+04;  1.5976213E-02;  0.0000000E+00; -1.0266025E-03;  7.8150470E+02;
  3.2350257E-02;  9.9999998E-03; -1.5999089E-01;2643;  2.9254314E-03;  0.0000000E+00;  3.9252400E-04;  9.9694446E+02;  1.0000000E-01; -2.5314346E+03;3; -1.0002205E+01;  0.0000000E+00;  3.0121551E+00;0;  1.5392974E-02;  3.9762098E+04;  0.0000000E+00; -4.0163103E-01;  4.0000000E+04;  0.0000000E+00;  3.9998172E+04;  1.6414717E-02;  0.0000000E+00; -1.0217426E-03;  5.7924329E+02;
  3.2354869E-02;  9.9999998E-03; -1.4998776E-01;2644;  3.0958129E-03;  0.0000000E+00;  3.7657257E-04;  9.9701440E+02;  1.0000000E-01; -2.4735103E+03;3; -1.1487218E+01;  0.0000000E+00;  2.4628043E+00;0;  1.5832068E-02;  3.9768559E+04;  0.0000000E+00; -2.8589305E-01;  4.0000000E+04;  0.0000000E+00;  3.9998672E+04;  1.6837155E-02;  0.0000000E+00; -1.0050874E-03;  4.1276749E+02;
  3.2365706E-02;  9.9999998E-03; -1.3998574E-01;2645;  3.2797772E-03;  0.0000000E+00;  3.5655862E-04;  9.9707367E+02;  1.0000000E-01; -2.4244253E+03;3; -1.2640943E+01;  0.0000000E+00;  1.9666820E+00;0;  1.6248908E-02;  3.9772594E+04;  0.0000000E+00; -1.9439802E-01;  4.0000000E+04;  0.0000000E+00;  3.9998707E+04;  1.7242026E-02;  0.0000000E+00; -9.9311816E-04;  2.8425290E+02;
  3.2380998E-02;  9.9999998E-03; -1.2998441E-01;2646;  3.4559164E-03;  0.0000000E+00;  3.3147729E-04;  9.9710736E+02;  1.0000000E-01; -2.3964753E+03;3; -1.3462692E+01;  0.0000000E+00;  1.5321063E+00;0;  1.6625278E-02;  3.9775227E+04;  0.0000000E+00; -1.2749346E-01;  4.0000000E+04;  0.0000000E+00;  3.9999320E+04;  1.7623890E-02;  0.0000000E+00; -9.9861156E-04;  1.9491710E+02;
  3.2397930E-02;  9.9999998E-03; -1.1998373E-01;2647;  3.6053173E-03;  0.0000000E+00;  3.0187092E-04;  9.9711151E+02;  1.0000000E-01; -2.3930681E+03;3; -1.3984696E+01;  0.0000000E+00;  1.1555271E+00;0;  1.6947417E-02;  3.9775668E+04;  0.0000000E+00; -8.1998885E-02;  4.0000000E+04;  0.0000000E+00;  3.9999164E+04;  1.7975321E-02;  0.0000000E+00; -1.0279053E-03;  1.3702644E+02;
  3.2413282E-02;  9.9999998E-03; -1.0998410E-01;2648;  3.7138471E-03;  0.0000000E+00;  2.6865656E-04;  9.9709930E+02;  1.0000000E-01; -2.4031914E+03;3; -1.4299619E+01;  0.0000000E+00;  8.3230537E-01;0;  1.7208897E-02;  3.9775141E+04;  0.0000000E+00; -5.2779637E-02;  4.0000000E+04;  0.0000000E+00;  3.9998746E+04;  1.8288279E-02;  0.0000000E+00; -1.0793819E-03;  9.6035095E+01;
  4.0739425E-02;  9.9999998E-03; -2.6990810E-01;2693;  1.3835292E-03;  0.0000000E+00;  6.1741180E-04;  9.9862775E+02;  1.0000000E-01; -1.1369061E+03;3;  6.8711333E+00;  0.0000000E+00; -2.3373199E+00;0;  1.0666367E-02;  3.9874102E+04;  0.0000000E+00; -5.5017644E-01;  4.0000000E+04;  0.0000000E+00;  4.0013766E+04;  8.7663271E-03;  0.0000000E+00;  1.9000398E-03;  2.0394742E+03;
  4.1132025E-02;  9.9999998E-03; -2.5994614E-01;2694;  1.7893895E-03;  0.0000000E+00;  5.7121977E-04;  9.9864380E+02;  1.0000000E-01; -1.1235731E+03;3;  6.0964165E+00;  0.0000000E+00; -4.1724687E+00;0;  1.1102649E-02;  3.9871258E+04;  0.0000000E+00; -5.7866377E-01;  4.0000000E+04;  0.0000000E+00;  4.0019770E+04;  9.6616289E-03;  0.0000000E+00;  1.4410204E-03;  2.6978081E+03;
  4.1437916E-02;  9.9999998E-03; -2.4999043E-01;2695;  2.0671529E-03;  0.0000000E+00;  5.1264878E-04;  9.9869586E+02;  1.0000000E-01; -1.0804633E+03;3;  4.2950497E+00;  0.0000000E+00; -3.9139998E+00;0;  1.1388268E-02;  3.9874160E+04;  0.0000000E+00; -6.4314717E-01;  4.0000000E+04;  0.0000000E+00;  4.0021934E+04;  1.0449650E-02;  0.0000000E+00;  9.3861890E-04;  3.0084709E+03;
  4.1661534E-02;  9.9999998E-03; -2.4002218E-01;2696;  2.2286566E-03;  0.0000000E+00;  4.6027414E-04;  9.9876764E+02;  1.0000000E-01; -1.0210082E+03;3;  1.4777619E+00;  0.0000000E+00; -2.3643932E+00;0;  1.1576465E-02;  3.9882227E+04;  0.0000000E+00; -7.2470218E-01;  4.0000000E+04;  0.0000000E+00;  4.0022582E+04;  1.1130558E-02;  0.0000000E+00;  4.4590695E-04;  2.9504243E+03;
  4.1814238E-02;  9.9999998E-03; -2.3003469E-01;2697;  2.2927127E-03;  0.0000000E+00;  4.2063987E-04;  9.9887109E+02;  1.0000000E-01; -9.3528217E+02;3; -2.2082148E+00;  0.0000000E+00; -4.7844589E-01;0;  1.1716690E-02;  3.9894809E+04;  0.0000000E+00; -7.9678565E-01;  4.0000000E+04;  0.0000000E+00;  4.0019277E+04;  1.1714015E-02;  0.0000000E+00;  2.6745838E-06;  2.6060745E+03;
  4.1901387E-02;  9.9999998E-03; -2.2003177E-01;2698;  2.2795387E-03;  0.0000000E+00;  3.9258646E-04;  9.9900153E+02;  1.0000000E-01; -8.2723584E+02;3; -6.3764157E+00;  0.0000000E+00;  1.1277854E+00;0;  1.1851219E-02;  3.9910953E+04;  0.0000000E+00; -8.3607429E-01;  4.0000000E+04;  0.0000000E+00;  4.0014754E+04;  1.2217395E-02;  0.0000000E+00; -3.6617654E-04;  2.1171335E+03;
  4.1935574E-02;  9.9999998E-03; -2.1002030E-01;2699;  2.2202663E-03;  0.0000000E+00;  3.7412872E-04;  9.9915161E+02;  1.0000000E-01; -7.0289368E+02;3; -1.0591661E+01;  0.0000000E+00;  2.2085307E+00;0;  1.2009894E-02;  3.9928734E+04;  0.0000000E+00; -8.3008307E-01;  4.0000000E+04;  0.0000000E+00;  4.0008414E+04;  1.2659261E-02;  0.0000000E+00; -6.4936635E-04;  1.6292931E+03;
  4.1934747E-02;  9.9999998E-03; -2.0000650E-01;2700;  2.1492164E-03;  0.0000000E+00;  3.6270736E-04;  9.9932062E+02;  1.0000000E-01; -5.6284827E+02;3; -1.4528821E+01;  0.0000000E+00;  2.7731500E+00;0;  1.2209889E-02;  3.9947309E+04;  0.0000000E+00; -7.7860945E-01;  4.0000000E+04;  0.0000000E+00;  4.0004656E+04;  1.3055958E-02;  0.0000000E+00; -8.4606960E-04;  1.2472786E+03;
  4.1915644E-02;  9.9999998E-03; -1.8999545E-01;2701;  2.1146801E-03;  0.0000000E+00;  3.4946640E-04;  9.9949994E+02;  1.0000000E-01; -4.1430927E+02;3; -1.7962437E+01;  0.0000000E+00;  2.9472010E+00;0;  1.2453105E-02;  3.9965477E+04;  0.0000000E+00; -6.9088763E-01;  4.0000000E+04;  0.0000000E+00;  4.0001090E+04;  1.3415941E-02;  0.0000000E+00; -9.6283579E-04;  9.9809991E+02;
  4.1890301E-02;  9.9999998E-03; -1.7998852E-01;2702;  2.1388698E-03;  0.0000000E+00;  3.2973420E-04;  9.9967725E+02;  1.0000000E-01; -2.6739984E+02;3; -2.0786564E+01;  0.0000000E+00;  2.8606415E+00;0;  1.2736280E-02;  3.9981973E+04;  0.0000000E+00; -5.8116233E-01;  4.0000000E+04;  0.0000000E+00;  3.9999105E+04;  1.3748059E-02;  0.0000000E+00; -1.0117796E-03;  8.3181415E+02;
  4.1866999E-02;  9.9999998E-03; -1.6998516E-01;2703;  2.2240600E-03;  0.0000000E+00;  3.0666604E-04;  9.9984363E+02;  1.0000000E-01; -1.2952721E+02;3; -2.3018648E+01;  0.0000000E+00;  2.6066513E+00;0;  1.3051035E-02;  3.9996141E+04;  0.0000000E+00; -4.6430284E-01;  4.0000000E+04;  0.0000000E+00;  3.9998098E+04;  1.4060365E-02;  0.0000000E+00; -1.0093300E-03;  6.8465167E+02;
  4.1851316E-02;  9.9999998E-03; -1.5998463E-01;2704;  2.3640592E-03;  0.0000000E+00;  2.8546853E-04;  9.9998407E+02;  1.0000000E-01; -1.3184813E+01;3; -2.4712881E+01;  0.0000000E+00;  2.2545838E+00;0;  1.3382469E-02;  4.0007930E+04;  0.0000000E+00; -3.5299081E-01;  4.0000000E+04;  0.0000000E+00;  3.9998695E+04;  1.4357239E-02;  0.0000000E+00; -9.7476970E-04;  5.3209515E+02;
  4.1845553E-02;  9.9999998E-03; -1.4998606E-01;2705;  2.5425851E-03;  0.0000000E+00;  2.6868470E-04;  1.0000955E+03;  1.0000000E-01;  7.9108871E+01;3; -2.5997049E+01;  0.0000000E+00;  1.8651522E+00;0;  1.3712216E-02;  4.0016836E+04;  0.0000000E+00; -2.5609174E-01;  4.0000000E+04;  0.0000000E+00;  3.9998984E+04;  1.4640549E-02;  0.0000000E+00; -9.2833303E-04;  3.8495566E+02;
  4.1849226E-02;  9.9999998E-03; -1.3998777E-01;2706;  2.7379561E-03;  0.0000000E+00;  2.5533728E-04;  1.0001740E+03;  1.0000000E-01;  1.4409470E+02;3; -2.6973881E+01;  0.0000000E+00;  1.4906367E+00;0;  1.4020783E-02;  4.0022668E+04;  0.0000000E+00; -1.7820637E-01;  4.0000000E+04;  0.0000000E+00;  4.0000684E+04;  1.4909975E-02;  0.0000000E+00; -8.8919251E-04;  2.6306857E+02;
  4.1860510E-02;  9.9999998E-03; -1.2998982E-01;2707;  2.9257147E-03;  0.0000000E+00;  2.4230858E-04;  1.0002136E+03;  1.0000000E-01;  1.7688388E+02;3; -2.7693094E+01;  0.0000000E+00;  1.1594352E+00;0;  1.4290576E-02;  4.0025789E+04;  0.0000000E+00; -1.2010822E-01;  4.0000000E+04;  0.0000000E+00;  4.0000262E+04;  1.5163650E-02;  0.0000000E+00; -8.7307405E-04;  1.7568758E+02;
  4.1876029E-02;  9.9999998E-03; -1.1999208E-01;2708;  3.0836391E-03;  0.0000000E+00;  2.2787959E-04;  1.0002203E+03;  1.0000000E-01;  1.8251335E+02;3; -2.8217487E+01;  0.0000000E+00;  8.7255818E-01;0;  1.4509861E-02;  4.0026539E+04;  0.0000000E+00; -7.9533666E-02;  4.0000000E+04;  0.0000000E+00;  4.0000586E+04;  1.5398735E-02;  0.0000000E+00; -8.8887342E-04;  1.2199047E+02;
  4.1891657E-02;  9.9999998E-03; -1.0999428E-01;2709;  3.1974122E-03;  0.0000000E+00;  2.1167875E-04;  1.0002023E+03;  1.0000000E-01;  1.6760020E+02;3; -2.8582064E+01;  0.0000000E+00;  6.2630701E-01;0;  1.4674995E-02;  4.0025516E+04;  0.0000000E+00; -5.2504718E-02;  4.0000000E+04;  0.0000000E+00;  3.9999695E+04;  1.5611399E-02;  0.0000000E+00; -9.3640405E-04;  1.1571653E+02;
  5.0635744E-02;  9.9999998E-03; -2.6994741E-01;2754;  1.1876167E-03;  0.0000000E+00;  4.0070206E-04;  9.9940314E+02;  1.0000000E-01; -4.9450455E+02;3;  4.4393983E+00;  0.0000000E+00; -8.8884411E+00;0;  1.0605387E-02;  3.9935379E+04;  0.0000000E+00; -5.2990705E-01;  4.0000000E+04;  0.0000000E+00;  4.0014352E+04;  8.8610463E-03;  0.0000000E+00;  1.7443411E-03;  2.0843496E+03;
  5.0999139E-02;  9.9999998E-03; -2.5997978E-01;2755;  1.5910430E-03;  0.0000000E+00;  3.8825505E-04;  9.9961987E+02;  1.0000000E-01; -3.1490466E+02;3;  2.2600882E+00;  0.0000000E+00; -1.0544096E+01;0;  1.0929590E-02;  3.9950004E+04;  0.0000000E+00; -4.8000240E-01;  4.0000000E+04;  0.0000000E+00;  4.0019531E+04;  9.6330456E-03;  0.0000000E+00;  1.2965443E-03;  2.5815186E+03;
  5.1270258E-02;  9.9999998E-03; -2.5001416E-01;2756;  1.8494754E-03;  0.0000000E+00;  3.4448307E-04;  9.9987762E+02;  1.0000000E-01; -1.0137985E+02;3; -8.0724669E-01;  0.0000000E+00; -9.7506609E+00;0;  1.1090638E-02;  3.9970070E+04;  0.0000000E+00; -4.6450466E-01;  4.0000000E+04;  0.0000000E+00;  4.0021566E+04;  1.0283655E-02;  0.0000000E+00;  8.0698379E-04;  2.7174548E+03;
  5.1453985E-02;  9.9999998E-03; -2.4003336E-01;2757;  1.9856275E-03;  0.0000000E+00;  3.0727542E-04;  1.0001469E+03;  1.0000000E-01;  1.2167557E+02;3; -4.5889974E+00;  0.0000000E+00; -7.4469295E+00;0;  1.1147498E-02;  3.9995246E+04;  0.0000000E+00; -4.7636041E-01;  4.0000000E+04;  0.0000000E+00;  4.0020824E+04;  1.0819575E-02;  0.0000000E+00;  3.2792310E-04;  2.4927319E+03;
  5.1564883E-02;  9.9999998E-03; -2.3003265E-01;2758;  2.0190582E-03;  0.0000000E+00;  2.8425083E-04;  1.0004312E+03;  1.0000000E-01;  3.5722446E+02;3; -8.8450756E+00;  0.0000000E+00; -4.7268677E+00;0;  1.1155859E-02;  4.0023531E+04;  0.0000000E+00; -4.9866262E-01;  4.0000000E+04;  0.0000000E+00;  4.0016027E+04;  1.1256400E-02;  0.0000000E+00; -1.0054209E-04;  2.0110131E+03;
  5.1613301E-02;  9.9999998E-03; -2.2001950E-01;2759;  1.9690022E-03;  0.0000000E+00;  2.7940341E-04;  1.0007137E+03;  1.0000000E-01;  5.9129193E+02;3; -1.3177868E+01;  0.0000000E+00; -2.2903461E+00;0;  1.1161166E-02;  4.0052906E+04;  0.0000000E+00; -5.1412374E-01;  4.0000000E+04;  0.0000000E+00;  4.0011602E+04;  1.1614479E-02;  0.0000000E+00; -4.5331262E-04;  1.4355166E+03;
  5.1615294E-02;  9.9999998E-03; -2.1000153E-01;2760;  1.8780699E-03;  0.0000000E+00;  2.8162950E-04;  1.0010052E+03;  1.0000000E-01;  8.3276654E+02;3; -1.7296467E+01;  0.0000000E+00; -4.7394410E-01;0;  1.1193293E-02;  4.0081961E+04;  0.0000000E+00; -5.1174045E-01;  4.0000000E+04;  0.0000000E+00;  4.0006219E+04;  1.1911817E-02;  0.0000000E+00; -7.1852375E-04;  9.4642749E+02;
  5.1590294E-02;  9.9999998E-03; -1.9998658E-01;2761;  1.7972651E-03;  0.0000000E+00;  2.7759332E-04;  1.0012851E+03;  1.0000000E-01;  1.0646613E+03;3; -2.0903973E+01;  0.0000000E+00;  7.2709936E-01;0;  1.1267469E-02;  4.0109582E+04;  0.0000000E+00; -4.8807934E-01;  4.0000000E+04;  0.0000000E+00;  4.0001965E+04;  1.2161899E-02;  0.0000000E+00; -8.9443009E-04;  6.9859625E+02;
  5.1552817E-02;  9.9999998E-03; -1.8997799E-01;2762;  1.7576169E-03;  0.0000000E+00;  2.5812487E-04;  1.0015500E+03;  1.0000000E-01;  1.2842106E+03;3; -2.3889046E+01;  0.0000000E+00;  1.4223216E+00;0;  1.1389580E-02;  4.0134480E+04;  0.0000000E+00; -4.4541442E-01;  4.0000000E+04;  0.0000000E+00;  4.0000160E+04;  1.2376396E-02;  0.0000000E+00; -9.8681625E-04;  6.6770868E+02;
  5.1511891E-02;  9.9999998E-03; -1.7997557E-01;2763;  1.7799442E-03;  0.0000000E+00;  2.2621357E-04;  1.0017884E+03;  1.0000000E-01;  1.4816371E+03;3; -2.6229086E+01;  0.0000000E+00;  1.7348154E+00;0;  1.1556297E-02;  4.0155559E+04;  0.0000000E+00; -3.8909090E-01;  4.0000000E+04;  0.0000000E+00;  3.9998320E+04;  1.2563860E-02;  0.0000000E+00; -1.0075633E-03;  6.6089221E+02;
  5.1475357E-02;  9.9999998E-03; -1.6997816E-01;2764;  1.8666144E-03;  0.0000000E+00;  1.8924577E-04;  1.0019993E+03;  1.0000000E-01;  1.6564470E+03;3; -2.8010553E+01;  0.0000000E+00;  1.7664219E+00;0;  1.1757517E-02;  4.0173125E+04;  0.0000000E+00; -3.2516587E-01;  4.0000000E+04;  0.0000000E+00;  3.9997438E+04;  1.2731124E-02;  0.0000000E+00; -9.7360695E-04;  5.8613556E+02;
  5.1448993E-02;  9.9999998E-03; -1.5998465E-01;2765;  2.0102884E-03;  0.0000000E+00;  1.5736675E-04;  1.0021641E+03;  1.0000000E-01;  1.7929369E+03;3; -2.9302782E+01;  0.0000000E+00;  1.6091537E+00;0;  1.1976820E-02;  4.0186480E+04;  0.0000000E+00; -2.5964519E-01;  4.0000000E+04;  0.0000000E+00;  3.9999223E+04;  1.2882592E-02;  0.0000000E+00; -9.0577133E-04;  4.5546820E+02;
  5.1434968E-02;  9.9999998E-03; -1.4999218E-01;2766;  2.1926775E-03;  0.0000000E+00;  1.3677610E-04;  1.0022917E+03;  1.0000000E-01;  1.8987118E+03;3; -3.0273472E+01;  0.0000000E+00;  1.3546352E+00;0;  1.2194928E-02;  4.0195863E+04;  0.0000000E+00; -1.9802764E-01;  4.0000000E+04;  0.0000000E+00;  4.0001426E+04;  1.3021540E-02;  0.0000000E+00; -8.2661165E-04;  3.1634601E+02;
  5.1432949E-02;  9.9999998E-03; -1.3999927E-01;2767;  2.3926252E-03;  0.0000000E+00;  1.2856004E-04;  1.0023666E+03;  1.0000000E-01;  1.9606359E+03;3; -3.0984404E+01;  0.0000000E+00;  1.0849311E+00;0;  1.2391822E-02;  4.0201695E+04;  0.0000000E+00; -1.4460021E-01;  4.0000000E+04;  0.0000000E+00;  4.0001137E+04;  1.3149709E-02;  0.0000000E+00; -7.5788662E-04;  2.1131345E+02;
  5.1440995E-02;  9.9999998E-03; -1.3000539E-01;2768;  2.5867231E-03;  0.0000000E+00;  1.3089782E-04;  1.0024036E+03;  1.0000000E-01;  1.9913511E+03;3; -3.1557814E+01;  0.0000000E+00;  8.4382826E-01;0;  1.2550349E-02;  4.0204371E+04;  0.0000000E+00; -1.0175651E-01;  4.0000000E+04;  0.0000000E+00;  4.0001969E+04;  1.3268407E-02;  0.0000000E+00; -7.1805698E-04;  1.4582420E+02;
  5.1455103E-02;  9.9999998E-03; -1.2000959E-01;2769;  2.7527330E-03;  0.0000000E+00;  1.4052275E-04;  1.0024020E+03;  1.0000000E-01;  1.9900671E+03;3; -3.2013836E+01;  0.0000000E+00;  6.3431275E-01;0;  1.2660591E-02;  4.0204945E+04;  0.0000000E+00; -6.9517441E-02;  4.0000000E+04;  0.0000000E+00;  4.0001512E+04;  1.3379164E-02;  0.0000000E+00; -7.1857311E-04;  1.0409607E+02;
  5.1470447E-02;  9.9999998E-03; -1.1001172E-01;2770;  2.8728414E-03;  0.0000000E+00;  1.5074207E-04;  1.0023760E+03;  1.0000000E-01;  1.9685369E+03;3; -3.2382198E+01;  0.0000000E+00;  4.5355049E-01;0;  1.2722908E-02;  4.0203340E+04;  0.0000000E+00; -4.6355758E-02;  4.0000000E+04;  0.0000000E+00;  4.0000961E+04;  1.3483746E-02;  0.0000000E+00; -7.6083868E-04;  1.3207899E+02;
  6.0563326E-02;  9.9999998E-03; -2.6999247E-01;2815;  1.0609081E-03;  0.0000000E+00;  1.6083274E-04;  9.9978827E+02;  1.0000000E-01; -1.7540245E+02;3;  4.5113215E+00;  0.0000000E+00; -1.3411107E+01;0;  1.0888329E-02;  3.9966059E+04;  0.0000000E+00; -4.0545776E-01;  4.0000000E+04;  0.0000000E+00;  4.0015609E+04;  9.3388725E-03;  0.0000000E+00;  1.5494562E-03;  2.0525256E+03;
  6.0896773E-02;  9.9999998E-03; -2.6001841E-01;2816;  1.4837466E-03;  0.0000000E+00;  1.8983513E-04;  1.0001528E+03;  1.0000000E-01;  1.2661370E+02;3;  1.6256403E+00;  0.0000000E+00; -1.5022344E+01;0;  1.1138142E-02;  3.9993523E+04;  0.0000000E+00; -2.5659341E-01;  4.0000000E+04;  0.0000000E+00;  4.0019219E+04;  1.0024299E-02;  0.0000000E+00;  1.1138435E-03;  2.4396306E+03;
  6.1135337E-02;  9.9999998E-03; -2.5004154E-01;2817;  1.7362130E-03;  0.0000000E+00;  1.6155331E-04;  1.0005446E+03;  1.0000000E-01;  4.5114774E+02;3; -1.9010440E+00;  0.0000000E+00; -1.3859291E+01;0;  1.1210170E-02;  4.0026195E+04;  0.0000000E+00; -1.4171124E-01;  4.0000000E+04;  0.0000000E+00;  4.0020152E+04;  1.0569101E-02;  0.0000000E+00;  6.4106809E-04;  2.4517649E+03;
  6.1286509E-02;  9.9999998E-03; -2.4004862E-01;2818;  1.8632739E-03;  0.0000000E+00;  1.3479212E-04;  1.0009502E+03;  1.0000000E-01;  7.8723700E+02;3; -5.8762889E+00;  0.0000000E+00; -1.1059220E+01;0;  1.1169674E-02;  4.0062852E+04;  0.0000000E+00; -7.0084564E-02;  4.0000000E+04;  0.0000000E+00;  4.0018621E+04;  1.0988018E-02;  0.0000000E+00;  1.8165614E-04;  2.1063462E+03;
  6.1366305E-02;  9.9999998E-03; -2.3003687E-01;2819;  1.8898090E-03;  0.0000000E+00;  1.2968823E-04;  1.0013489E+03;  1.0000000E-01;  1.1174993E+03;3; -9.9969101E+00;  0.0000000E+00; -7.7564011E+00;0;  1.1077319E-02;  4.0101332E+04;  0.0000000E+00; -3.9441742E-02;  4.0000000E+04;  0.0000000E+00;  4.0013664E+04;  1.1302492E-02;  0.0000000E+00; -2.2517273E-04;  1.5170923E+03;
  6.1388664E-02;  9.9999998E-03; -2.2001384E-01;2820;  1.8381051E-03;  0.0000000E+00;  1.4304888E-04;  1.0017357E+03;  1.0000000E-01;  1.4379840E+03;3; -1.3959632E+01;  0.0000000E+00; -4.7662129E+00;0;  1.0980551E-02;  4.0139301E+04;  0.0000000E+00; -4.0309973E-02;  4.0000000E+04;  0.0000000E+00;  4.0008129E+04;  1.1535078E-02;  0.0000000E+00; -5.5452756E-04;  8.4357239E+02;
  6.1371386E-02;  9.9999998E-03; -2.0999019E-01;2821;  1.7549519E-03;  0.0000000E+00;  1.5551374E-04;  1.0021018E+03;  1.0000000E-01;  1.7412841E+03;3; -1.7498917E+01;  0.0000000E+00; -2.4395168E+00;0;  1.0910227E-02;  4.0174914E+04;  0.0000000E+00; -6.0304556E-02;  4.0000000E+04;  0.0000000E+00;  4.0004906E+04;  1.1704624E-02;  0.0000000E+00; -7.9439662E-04;  2.4381946E+02;
  6.1332788E-02;  9.9999998E-03; -1.9997419E-01;2822;  1.6844342E-03;  0.0000000E+00;  1.5262226E-04;  1.0024404E+03;  1.0000000E-01;  2.0217700E+03;3; -2.0458178E+01;  0.0000000E+00; -7.9923159E-01;0;  1.0882841E-02;  4.0207176E+04;  0.0000000E+00; -8.8592045E-02;  4.0000000E+04;  0.0000000E+00;  4.0000824E+04;  1.1825688E-02;  0.0000000E+00; -9.4284699E-04;  2.4839719E+02;
  6.1283894E-02;  9.9999998E-03; -1.8996747E-01;2823;  1.6561617E-03;  0.0000000E+00;  1.2989299E-04;  1.0027435E+03;  1.0000000E-01;  2.2729233E+03;3; -2.2788971E+01;  0.0000000E+00;  2.6067951E-01;0;  1.0903769E-02;  4.0234621E+04;  0.0000000E+00; -1.1661392E-01;  4.0000000E+04;  0.0000000E+00;  3.9998355E+04;  1.1909233E-02;  0.0000000E+00; -1.0054642E-03;  4.8598981E+02;
  6.1233077E-02;  9.9999998E-03; -1.7996942E-01;2824;  1.6869440E-03;  0.0000000E+00;  9.5118645E-05;  1.0030018E+03;  1.0000000E-01;  2.4869419E+03;3; -2.4525370E+01;  0.0000000E+00;  8.5801977E-01;0;  1.0969129E-02;  4.0257160E+04;  0.0000000E+00; -1.3742353E-01;  4.0000000E+04;  0.0000000E+00;  3.9998000E+04;  1.1963312E-02;  0.0000000E+00; -9.9418231E-04;  5.3921332E+02;
  6.1188128E-02;  9.9999998E-03; -1.6997874E-01;2825;  1.7792893E-03;  0.0000000E+00;  5.6002758E-05;  1.0032187E+03;  1.0000000E-01;  2.6665913E+03;3; -2.5784086E+01;  0.0000000E+00;  1.0977949E+00;0;  1.1067405E-02;  4.0274625E+04;  0.0000000E+00; -1.4607248E-01;  4.0000000E+04;  0.0000000E+00;  3.9998219E+04;  1.1993830E-02;  0.0000000E+00; -9.2642457E-04;  4.5101559E+02;
  6.1154831E-02;  9.9999998E-03; -1.5999214E-01;2826;  1.9250351E-03;  0.0000000E+00;  2.2249622E-05;  1.0033810E+03;  1.0000000E-01;  2.8011060E+03;3; -2.6657843E+01;  0.0000000E+00;  1.0867968E+00;0;  1.1181222E-02;  4.0287082E+04;  0.0000000E+00; -1.4086482E-01;  4.0000000E+04;  0.0000000E+00;  4.0000934E+04;  1.2005390E-02;  0.0000000E+00; -8.2416733E-04;  2.9572717E+02;
  6.1135139E-02;  9.9999998E-03; -1.5000629E-01;2827;  2.1065630E-03;  0.0000000E+00;  3.4463394E-06;  1.0034919E+03;  1.0000000E-01;  2.8929553E+03;3; -2.7276615E+01;  0.0000000E+00;  9.3879157E-01;0;  1.1290452E-02;  4.0295223E+04;  0.0000000E+00; -1.2404673E-01;  4.0000000E+04;  0.0000000E+00;  4.0001957E+04;  1.2002366E-02;  0.0000000E+00; -7.1191310E-04;  1.7852829E+02;
  6.1128654E-02;  9.9999998E-03; -1.4001925E-01;2828;  2.3026532E-03;  0.0000000E+00; -1.3386317E-07;  1.0035523E+03;  1.0000000E-01;  2.9430278E+03;3; -2.7742567E+01;  0.0000000E+00;  7.5494707E-01;0;  1.1375713E-02;  4.0299484E+04;  0.0000000E+00; -1.0063370E-01;  4.0000000E+04;  0.0000000E+00;  4.0004441E+04;  1.1989402E-02;  0.0000000E+00; -6.1368861E-04;  1.8398537E+02;
  6.1133280E-02;  9.9999998E-03; -1.3002987E-01;2829;  2.4907389E-03;  0.0000000E+00;  1.3892114E-05;  1.0035735E+03;  1.0000000E-01;  2.9606077E+03;3; -2.8146799E+01;  0.0000000E+00;  5.8838218E-01;0;  1.1421902E-02;  4.0301164E+04;  0.0000000E+00; -7.5924024E-02;  4.0000000E+04;  0.0000000E+00;  4.0003926E+04;  1.1972085E-02;  0.0000000E+00; -5.5018277E-04;  1.9704742E+02;
  6.1145019E-02;  9.9999998E-03; -1.2003621E-01;2830;  2.6508968E-03;  0.0000000E+00;  4.8114329E-05;  1.0035591E+03;  1.0000000E-01;  2.9486572E+03;3; -2.8510889E+01;  0.0000000E+00;  4.4338670E-01;0;  1.1422073E-02;  4.0300645E+04;  0.0000000E+00; -5.3388763E-02;  4.0000000E+04;  0.0000000E+00;  4.0003758E+04;  1.1957092E-02;  0.0000000E+00; -5.3501979E-04;  1.3974164E+02;
  6.1159711E-02;  9.9999998E-03; -1.1003647E-01;2831;  2.7678553E-03;  0.0000000E+00;  9.5424548E-05;  1.0035185E+03;  1.0000000E-01;  2.9149792E+03;3; -2.8829617E+01;  0.0000000E+00;  3.1655312E-01;0;  1.1380407E-02;  4.0298633E+04;  0.0000000E+00; -3.4857072E-02;  4.0000000E+04;  0.0000000E+00;  4.0002840E+04;  1.1951501E-02;  0.0000000E+00; -5.7109486E-04;  4.9918140E+01;
  7.0528820E-02;  9.9999998E-03; -2.7004707E-01;2876;  1.0493953E-03;  0.0000000E+00; -4.9618535E-05;  9.9981708E+02;  1.0000000E-01; -1.5155127E+02;3;  6.0157270E+00;  0.0000000E+00; -1.5948987E+01;0;  1.1376925E-02;  3.9969309E+04;  0.0000000E+00; -1.2163105E-01;  4.0000000E+04;  0.0000000E+00;  4.0016105E+04;  1.0054111E-02;  0.0000000E+00;  1.3228140E-03;  1.9892289E+03;
  7.0832469E-02;  9.9999998E-03; -2.6007310E-01;2877;  1.4917350E-03;  0.0000000E+00; -2.7112883E-06;  1.0002689E+03;  1.0000000E-01;  2.2270975E+02;3;  2.9153674E+00;  0.0000000E+00; -1.7657858E+01;0;  1.1568002E-02;  4.0003891E+04;  0.0000000E+00;  1.1102042E-01;  4.0000000E+04;  0.0000000E+00;  4.0019551E+04;  1.0670451E-02;  0.0000000E+00;  8.9755136E-04;  2.3833894E+03;
  7.1043260E-02;  9.9999998E-03; -2.5009042E-01;2878;  1.7469177E-03;  0.0000000E+00; -3.3877950E-05;  1.0007520E+03;  1.0000000E-01;  6.2299475E+02;3; -6.0910636E-01;  0.0000000E+00; -1.6422724E+01;0;  1.1569718E-02;  4.0044039E+04;  0.0000000E+00;  3.0674201E-01;  4.0000000E+04;  0.0000000E+00;  4.0019355E+04;  1.1126116E-02;  0.0000000E+00;  4.4360178E-04;  2.3859070E+03;
  7.1171768E-02;  9.9999998E-03; -2.4008708E-01;2879;  1.8838303E-03;  0.0000000E+00; -6.2166422E-05;  1.0012260E+03;  1.0000000E-01;  1.0156750E+03;3; -4.3041854E+00;  0.0000000E+00; -1.3343370E+01;0;  1.1456010E-02;  4.0087223E+04;  0.0000000E+00;  4.4375604E-01;  4.0000000E+04;  0.0000000E+00;  4.0017254E+04;  1.1447867E-02;  0.0000000E+00;  8.1427861E-06;  2.0436257E+03;
  7.1232006E-02;  9.9999998E-03; -2.3006257E-01;2880;  1.9300195E-03;  0.0000000E+00; -6.0975159E-05;  1.0016830E+03;  1.0000000E-01;  1.3943309E+03;3; -7.9290180E+00;  0.0000000E+00; -9.6981869E+00;0;  1.1292340E-02;  4.0131086E+04;  0.0000000E+00;  5.1074582E-01;  4.0000000E+04;  0.0000000E+00;  4.0010902E+04;  1.1663523E-02;  0.0000000E+00; -3.7118222E-04;  1.5005364E+03;
  7.1239851E-02;  9.9999998E-03; -2.2002776E-01;2881;  1.9007371E-03;  0.0000000E+00; -3.5656918E-05;  1.0021054E+03;  1.0000000E-01;  1.7442469E+03;3; -1.1228038E+01;  0.0000000E+00; -6.3543301E+00;0;  1.1126860E-02;  4.0172410E+04;  0.0000000E+00;  5.0782806E-01;  4.0000000E+04;  0.0000000E+00;  4.0007191E+04;  1.1797391E-02;  0.0000000E+00; -6.7053118E-04;  9.5698810E+02;
  7.1212895E-02;  9.9999998E-03; -2.0999552E-01;2882;  1.8353222E-03;  0.0000000E+00; -9.1067886E-06;  1.0024946E+03;  1.0000000E-01;  2.0667070E+03;3; -1.4039797E+01;  0.0000000E+00; -3.7161574E+00;0;  1.0989218E-02;  4.0210102E+04;  0.0000000E+00;  4.4669679E-01;  4.0000000E+04;  0.0000000E+00;  4.0002766E+04;  1.1867916E-02;  0.0000000E+00; -8.7869854E-04;  6.4173096E+02;
  7.1167484E-02;  9.9999998E-03; -1.9997461E-01;2883;  1.7823784E-03;  0.0000000E+00; -4.9162009E-06;  1.0028367E+03;  1.0000000E-01;  2.3501558E+03;3; -1.6269041E+01;  0.0000000E+00; -1.8127815E+00;0;  1.0893738E-02;  4.0242570E+04;  0.0000000E+00;  3.4782487E-01;  4.0000000E+04;  0.0000000E+00;  3.9999793E+04;  1.1887855E-02;  0.0000000E+00; -9.9411746E-04;  6.1951361E+02;
  7.1113482E-02;  9.9999998E-03; -1.8996719E-01;2884;  1.7698793E-03;  0.0000000E+00; -2.0475865E-05;  1.0031302E+03;  1.0000000E-01;  2.5933093E+03;3; -1.7934044E+01;  0.0000000E+00; -5.3766853E-01;0;  1.0842714E-02;  4.0268875E+04;  0.0000000E+00;  2.3421325E-01;  4.0000000E+04;  0.0000000E+00;  3.9998117E+04;  1.1865622E-02;  0.0000000E+00; -1.0229087E-03;  6.2833337E+02;
  7.1058713E-02;  9.9999998E-03; -1.7997164E-01;2885;  1.8113573E-03;  0.0000000E+00; -5.0981529E-05;  1.0033707E+03;  1.0000000E-01;  2.7925137E+03;3; -1.9106823E+01;  0.0000000E+00;  2.2950733E-01;0;  1.0829911E-02;  4.0289340E+04;  0.0000000E+00;  1.2609102E-01;  4.0000000E+04;  0.0000000E+00;  3.9998625E+04;  1.1807164E-02;  0.0000000E+00; -9.7725331E-04;  5.1876086E+02;
  7.1011409E-02;  9.9999998E-03; -1.6998562E-01;2886;  1.9101754E-03;  0.0000000E+00; -8.5156018E-05;  1.0035546E+03;  1.0000000E-01;  2.9449043E+03;3; -1.9890322E+01;  0.0000000E+00;  5.9923553E-01;0;  1.0842120E-02;  4.0303980E+04;  0.0000000E+00;  3.8941700E-02;  4.0000000E+04;  0.0000000E+00;  3.9999062E+04;  1.1717346E-02;  0.0000000E+00; -8.7522500E-04;  2.9858176E+02;
  7.0975907E-02;  9.9999998E-03; -1.6000389E-01;2887;  2.0588364E-03;  0.0000000E+00; -1.1315312E-04;  1.0036896E+03;  1.0000000E-01;  3.0567036E+03;3; -2.0409594E+01;  0.0000000E+00;  6.8679374E-01;0;  1.0861230E-02;  4.0313379E+04;  0.0000000E+00; -1.8909462E-02;  4.0000000E+04;  0.0000000E+00;  4.0002230E+04;  1.1600962E-02;  0.0000000E+00; -7.3973148E-04;  3.9727615E+01;
  7.0954248E-02;  9.9999998E-03; -1.5002276E-01;2888;  2.2419214E-03;  0.0000000E+00; -1.2987547E-04;  1.0037742E+03;  1.0000000E-01;  3.1268252E+03;3; -2.0761824E+01;  0.0000000E+00;  6.1732888E-01;0;  1.0867274E-02;  4.0318488E+04;  0.0000000E+00; -4.7592647E-02;  4.0000000E+04;  0.0000000E+00;  4.0004344E+04;  1.1463888E-02;  0.0000000E+00; -5.9661397E-04;  2.3484091E+02;
  7.0946097E-02;  9.9999998E-03; -1.4004061E-01;2889;  2.4376970E-03;  0.0000000E+00; -1.2779141E-04;  1.0038060E+03;  1.0000000E-01;  3.1531948E+03;3; -2.1022209E+01;  0.0000000E+00;  4.9941605E-01;0;  1.0842486E-02;  4.0320406E+04;  0.0000000E+00; -5.3935125E-02;  4.0000000E+04;  0.0000000E+00;  4.0006492E+04;  1.1314097E-02;  0.0000000E+00; -4.7161101E-04;  4.0995947E+02;
  7.0949093E-02;  9.9999998E-03; -1.3005532E-01;2890;  2.6247548E-03;  0.0000000E+00; -1.0060923E-04;  1.0038043E+03;  1.0000000E-01;  3.1518120E+03;3; -2.1277460E+01;  0.0000000E+00;  3.9201570E-01;0;  1.0775545E-02;  4.0320145E+04;  0.0000000E+00; -4.6862397E-02;  4.0000000E+04;  0.0000000E+00;  4.0005918E+04;  1.1162299E-02;  0.0000000E+00; -3.8675446E-04;  4.6591040E+02;
  7.0959508E-02;  9.9999998E-03; -1.2006284E-01;2891;  2.7841444E-03;  0.0000000E+00; -3.8618764E-05;  1.0037682E+03;  1.0000000E-01;  3.1218870E+03;3; -2.1532482E+01;  0.0000000E+00;  2.9896593E-01;0;  1.0664754E-02;  4.0318285E+04;  0.0000000E+00; -3.3876844E-02;  4.0000000E+04;  0.0000000E+00;  4.0006051E+04;  1.1021697E-02;  0.0000000E+00; -3.5694326E-04;  3.9933295E+02;
  7.0972979E-02;  9.9999998E-03; -1.1006071E-01;2892;  2.9037897E-03;  0.0000000E+00;  5.6414799E-05;  1.0037235E+03;  1.0000000E-01;  3.0848511E+03;3; -2.1804102E+01;  0.0000000E+00;  2.1317050E-01;0;  1.0520004E-02;  4.0315652E+04;  0.0000000E+00; -2.0298041E-02;  4.0000000E+04;  0.0000000E+00;  4.0004930E+04;  1.0906175E-02;  0.0000000E+00; -3.8617058E-04;  2.4068748E+02;
  8.0551058E-02;  9.9999998E-03; -2.7010310E-01;2937;  1.2260751E-03;  0.0000000E+00; -1.5633448E-04;  9.9957605E+02;  1.0000000E-01; -3.5124933E+02;3;  7.9467363E+00;  0.0000000E+00; -1.6677067E+01;0;  1.1880091E-02;  3.9950227E+04;  0.0000000E+00;  4.3926933E-01;  4.0000000E+04;  0.0000000E+00;  4.0015879E+04;  1.0812280E-02;  0.0000000E+00;  1.0678120E-03;  2.0903931E+03;
  8.0823235E-02;  9.9999998E-03; -2.6013970E-01;2938;  1.6875605E-03;  0.0000000E+00; -1.2314500E-04;  1.0000756E+03;  1.0000000E-01;  6.2615513E+01;3;  4.8721261E+00;  0.0000000E+00; -1.8837606E+01;0;  1.1999808E-02;  3.9988680E+04;  0.0000000E+00;  6.8966007E-01;  4.0000000E+04;  0.0000000E+00;  4.0019879E+04;  1.1350086E-02;  0.0000000E+00;  6.4972241E-04;  2.6085557E+03;
  8.1007227E-02;  9.9999998E-03; -2.5016004E-01;2939;  1.9651072E-03;  0.0000000E+00; -1.7087843E-04;  1.0005909E+03;  1.0000000E-01;  4.8956641E+02;3;  1.5944711E+00;  0.0000000E+00; -1.7734097E+01;0;  1.1929135E-02;  4.0032234E+04;  0.0000000E+00;  8.9273560E-01;  4.0000000E+04;  0.0000000E+00;  4.0019410E+04;  1.1713342E-02;  0.0000000E+00;  2.1579262E-04;  2.6984072E+03;
  8.1118204E-02;  9.9999998E-03; -2.4015112E-01;2940;  2.0953480E-03;  0.0000000E+00; -2.2541925E-04;  1.0010948E+03;  1.0000000E-01;  9.0703607E+02;3; -1.6741086E+00;  0.0000000E+00; -1.4604097E+01;0;  1.1752523E-02;  4.0077625E+04;  0.0000000E+00;  1.0277679E+00;  4.0000000E+04;  0.0000000E+00;  4.0015996E+04;  1.1943290E-02;  0.0000000E+00; -1.9076647E-04;  2.4450308E+03;
  8.1167556E-02;  9.9999998E-03; -2.3011610E-01;2941;  2.1384577E-03;  0.0000000E+00; -2.5308580E-04;  1.0015566E+03;  1.0000000E-01;  1.2896426E+03;3; -4.6940589E+00;  0.0000000E+00; -1.0795657E+01;0;  1.1539364E-02;  4.0121910E+04;  0.0000000E+00;  1.0792028E+00;  4.0000000E+04;  0.0000000E+00;  4.0011543E+04;  1.2075283E-02;  0.0000000E+00; -5.3591828E-04;  2.0184310E+03;
  8.1168912E-02;  9.9999998E-03; -2.2006792E-01;2942;  2.1347662E-03;  0.0000000E+00; -2.3460147E-04;  1.0019700E+03;  1.0000000E-01;  1.6321514E+03;3; -7.3140125E+00;  0.0000000E+00; -7.2621694E+00;0;  1.1334879E-02;  4.0162980E+04;  0.0000000E+00;  1.0411240E+00;  4.0000000E+04;  0.0000000E+00;  4.0006699E+04;  1.2133958E-02;  0.0000000E+00; -7.9907855E-04;  1.6059017E+03;
  8.1138283E-02;  9.9999998E-03; -2.1002173E-01;2943;  2.0970583E-03;  0.0000000E+00; -2.0726614E-04;  1.0023283E+03;  1.0000000E-01;  1.9289331E+03;3; -9.4301977E+00;  0.0000000E+00; -4.4519992E+00;0;  1.1163119E-02;  4.0198168E+04;  0.0000000E+00;  9.2217356E-01;  4.0000000E+04;  0.0000000E+00;  4.0002023E+04;  1.2133059E-02;  0.0000000E+00; -9.6994004E-04;  1.3167533E+03;
  8.1089497E-02;  9.9999998E-03; -1.9999033E-01;2944;  2.0596380E-03;  0.0000000E+00; -1.8981266E-04;  1.0026340E+03;  1.0000000E-01;  2.1821604E+03;3; -1.1033529E+01;  0.0000000E+00; -2.4142566E+00;0;  1.1031508E-02;  4.0227070E+04;  0.0000000E+00;  7.4638337E-01;  4.0000000E+04;  0.0000000E+00;  3.9999461E+04;  1.2079813E-02;  0.0000000E+00; -1.0483045E-03;  1.1149148E+03;
  8.1034347E-02;  9.9999998E-03; -1.8997779E-01;2945;  2.0574897E-03;  0.0000000E+00; -1.9370623E-04;  1.0028810E+03;  1.0000000E-01;  2.3868955E+03;3; -1.2162349E+01;  0.0000000E+00; -1.0373743E+00;0;  1.0937028E-02;  4.0249508E+04;  0.0000000E+00;  5.4738802E-01;  4.0000000E+04;  0.0000000E+00;  3.9998977E+04;  1.1977952E-02;  0.0000000E+00; -1.0409239E-03;  8.9504700E+02;
  8.0979906E-02;  9.9999998E-03; -1.7998147E-01;2946;  2.1091844E-03;  0.0000000E+00; -2.1411343E-04;  1.0030698E+03;  1.0000000E-01;  2.5433354E+03;3; -1.2903553E+01;  0.0000000E+00; -1.9062546E-01;0;  1.0869332E-02;  4.0264879E+04;  0.0000000E+00;  3.5776576E-01;  4.0000000E+04;  0.0000000E+00;  3.9999633E+04;  1.1829993E-02;  0.0000000E+00; -9.6066104E-04;  6.0453674E+02;
  8.0933906E-02;  9.9999998E-03; -1.6999654E-01;2947;  2.2215121E-03;  0.0000000E+00; -2.4184660E-04;  1.0032019E+03;  1.0000000E-01;  2.6527644E+03;3; -1.3354476E+01;  0.0000000E+00;  2.4387445E-01;0;  1.0813176E-02;  4.0274812E+04;  0.0000000E+00;  2.0065020E-01;  4.0000000E+04;  0.0000000E+00;  4.0001527E+04;  1.1639293E-02;  0.0000000E+00; -8.2611770E-04;  2.9248737E+02;
  8.0901131E-02;  9.9999998E-03; -1.6001700E-01;2948;  2.3846948E-03;  0.0000000E+00; -2.6500865E-04;  1.0032872E+03;  1.0000000E-01;  2.7233799E+03;3; -1.3620115E+01;  0.0000000E+00;  3.8844171E-01;0;  1.0750041E-02;  4.0279863E+04;  0.0000000E+00;  8.8152446E-02;  4.0000000E+04;  0.0000000E+00;  4.0004449E+04;  1.1410937E-02;  0.0000000E+00; -6.6089502E-04;  3.0038516E+02;
  8.0882922E-02;  9.9999998E-03; -1.5003897E-01;2949;  2.5834823E-03;  0.0000000E+00; -2.7565294E-04;  1.0033220E+03;  1.0000000E-01;  2.7522185E+03;3; -1.3775094E+01;  0.0000000E+00;  3.7142536E-01;0;  1.0661325E-02;  4.0281121E+04;  0.0000000E+00;  2.0653877E-02;  4.0000000E+04;  0.0000000E+00;  4.0007262E+04;  1.1152981E-02;  0.0000000E+00; -4.9165578E-04;  5.8222211E+02;
  8.0879472E-02;  9.9999998E-03; -1.4006098E-01;2950;  2.7986318E-03;  0.0000000E+00; -2.6301731E-04;  1.0033227E+03;  1.0000000E-01;  2.7528110E+03;3; -1.3899659E+01;  0.0000000E+00;  3.0087882E-01;0;  1.0532414E-02;  4.0279891E+04;  0.0000000E+00; -1.0942111E-02;  4.0000000E+04;  0.0000000E+00;  4.0010621E+04;  1.0877324E-02;  0.0000000E+00; -3.4491063E-04;  7.9399188E+02;
  8.0887064E-02;  9.9999998E-03; -1.3007852E-01;2951;  3.0109589E-03;  0.0000000E+00; -2.1887383E-04;  1.0032952E+03;  1.0000000E-01;  2.7299968E+03;3; -1.4041709E+01;  0.0000000E+00;  2.3513372E-01;0;  1.0357605E-02;  4.0277184E+04;  0.0000000E+00; -1.9048685E-02;  4.0000000E+04;  0.0000000E+00;  4.0010180E+04;  1.0600509E-02;  0.0000000E+00; -2.4290421E-04;  8.6389032E+02;
  8.0901630E-02;  9.9999998E-03; -1.2008558E-01;2952;  3.1962469E-03;  0.0000000E+00; -1.0882942E-04;  1.0032500E+03;  1.0000000E-01;  2.6925659E+03;3; -1.4219118E+01;  0.0000000E+00;  1.8309009E-01;0;  1.0141991E-02;  4.0274309E+04;  0.0000000E+00; -1.4892848E-02;  4.0000000E+04;  0.0000000E+00;  4.0008699E+04;  1.0342419E-02;  0.0000000E+00; -2.0042839E-04;  7.8791943E+02;
  8.0917202E-02;  9.9999998E-03; -1.1007912E-01;2953;  3.3344447E-03;  0.0000000E+00;  4.6782206E-05;  1.0031967E+03;  1.0000000E-01;  2.6484189E+03;3; -1.4419387E+01;  0.0000000E+00;  1.2907332E-01;0;  9.9019725E-03;  4.0271570E+04;  0.0000000E+00; -6.6304249E-03;  4.0000000E+04;  0.0000000E+00;  4.0007293E+04;  1.0123874E-02;  0.0000000E+00; -2.2190170E-04;  6.0349036E+02;
  9.0640426E-02;  9.9999998E-03; -2.7014124E-01;2998;  1.7004862E-03;  0.0000000E+00; -8.9084926E-05;  9.9916528E+02;  1.0000000E-01; -6.9153601E+02;3;  9.7359371E+00;  0.0000000E+00; -1.5990454E+01;0;  1.2206269E-02;  3.9917926E+04;  0.0000000E+00;  1.4551938E+00;  4.0000000E+04;  0.0000000E+00;  4.0015410E+04;  1.1424962E-02;  0.0000000E+00;  7.8130700E-04;  2.9034160E+03;
  9.0890273E-02;  9.9999998E-03; -2.6018754E-01;2999;  2.3605675E-03;  0.0000000E+00; -1.4082145E-05;  9.9968628E+02;  1.0000000E-01; -2.5989389E+02;3;  6.7543473E+00;  0.0000000E+00; -1.8956352E+01;0;  1.2222577E-02;  3.9957227E+04;  0.0000000E+00;  1.5995166E+00;  4.0000000E+04;  0.0000000E+00;  4.0020551E+04;  1.1860567E-02;  0.0000000E+00;  3.6201015E-04;  3.4258984E+03;
  9.1051154E-02;  9.9999998E-03; -2.5021213E-01;3000;  2.6721549E-03;  0.0000000E+00; -4.6816931E-05;  1.0002137E+03;  1.0000000E-01;  1.7708141E+02;3;  3.6219096E+00;  0.0000000E+00; -1.8115786E+01;0;  1.2054686E-02;  4.0000949E+04;  0.0000000E+00;  1.6765370E+00;  4.0000000E+04;  0.0000000E+00;  4.0020812E+04;  1.2104093E-02;  0.0000000E+00; -4.9408030E-05;  3.5153176E+03;
  9.1141276E-02;  9.9999998E-03; -2.4020433E-01;3001;  2.7642492E-03;  0.0000000E+00; -1.1827351E-04;  1.0007078E+03;  1.0000000E-01;  5.8645258E+02;3;  7.3901612E-01;  0.0000000E+00; -1.5024670E+01;0;  1.1808254E-02;  4.0046023E+04;  0.0000000E+00;  1.6883397E+00;  4.0000000E+04;  0.0000000E+00;  4.0017055E+04;  1.2226788E-02;  0.0000000E+00; -4.1853456E-04;  3.2452329E+03;
  9.1176689E-02;  9.9999998E-03; -2.3016989E-01;3002;  2.7346166E-03;  0.0000000E+00; -1.8933325E-04;  1.0011403E+03;  1.0000000E-01;  9.4476343E+02;3; -1.7471237E+00;  0.0000000E+00; -1.1177679E+01;0;  1.1553278E-02;  4.0087887E+04;  0.0000000E+00;  1.6313388E+00;  4.0000000E+04;  0.0000000E+00;  4.0013852E+04;  1.2272757E-02;  0.0000000E+00; -7.1947940E-04;  2.7805908E+03;
  9.1175616E-02;  9.9999998E-03; -2.2011960E-01;3003;  2.6597863E-03;  0.0000000E+00; -2.4571188E-04;  1.0015114E+03;  1.0000000E-01;  1.2521128E+03;3; -3.7717533E+00;  0.0000000E+00; -7.6192632E+00;0;  1.1327690E-02;  4.0124949E+04;  0.0000000E+00;  1.5012410E+00;  4.0000000E+04;  0.0000000E+00;  4.0007605E+04;  1.2264310E-02;  0.0000000E+00; -9.3662110E-04;  2.2920083E+03;
  9.1144718E-02;  9.9999998E-03; -2.1006639E-01;3004;  2.5813973E-03;  0.0000000E+00; -2.7948004E-04;  1.0018126E+03;  1.0000000E-01;  1.5016859E+03;3; -5.3330846E+00;  0.0000000E+00; -4.7766685E+00;0;  1.1144345E-02;  4.0155512E+04;  0.0000000E+00;  1.3016347E+00;  4.0000000E+04;  0.0000000E+00;  4.0002867E+04;  1.2208010E-02;  0.0000000E+00; -1.0636656E-03;  1.8711469E+03;
  9.1096662E-02;  9.9999998E-03; -2.0002382E-01;3005;  2.5422042E-03;  0.0000000E+00; -2.9590781E-04;  1.0020499E+03;  1.0000000E-01;  1.6983224E+03;3; -6.4617057E+00;  0.0000000E+00; -2.7101219E+00;0;  1.1001567E-02;  4.0179035E+04;  0.0000000E+00;  1.0512295E+00;  4.0000000E+04;  0.0000000E+00;  4.0000746E+04;  1.2103124E-02;  0.0000000E+00; -1.1015565E-03;  1.5032214E+03;
  9.1041222E-02;  9.9999998E-03; -1.9000295E-01;3006;  2.5576800E-03;  0.0000000E+00; -3.0781914E-04;  1.0022202E+03;  1.0000000E-01;  1.8393553E+03;3; -7.2144079E+00;  0.0000000E+00; -1.3120952E+00;0;  1.0887661E-02;  4.0194855E+04;  0.0000000E+00;  7.8204298E-01;  4.0000000E+04;  0.0000000E+00;  4.0000707E+04;  1.1945159E-02;  0.0000000E+00; -1.0574982E-03;  1.1325352E+03;
  9.0988614E-02;  9.9999998E-03; -1.8000157E-01;3007;  2.6388317E-03;  0.0000000E+00; -3.2368745E-04;  1.0023378E+03;  1.0000000E-01;  1.9368341E+03;3; -7.6767979E+00;  0.0000000E+00; -4.5165038E-01;0;  1.0786517E-02;  4.0204543E+04;  0.0000000E+00;  5.2976435E-01;  4.0000000E+04;  0.0000000E+00;  4.0002195E+04;  1.1731145E-02;  0.0000000E+00; -9.4462821E-04;  7.5694061E+02;
  9.0947919E-02;  9.9999998E-03; -1.7001438E-01;3008;  2.7857951E-03;  0.0000000E+00; -3.3664115E-04;  1.0024052E+03;  1.0000000E-01;  1.9926350E+03;3; -7.9300890E+00;  0.0000000E+00;  1.9668334E-03;0;  1.0679763E-02;  4.0208258E+04;  0.0000000E+00;  3.2158092E-01;  4.0000000E+04;  0.0000000E+00;  4.0003988E+04;  1.1461461E-02;  0.0000000E+00; -7.8169809E-04;  5.3011536E+02;
  9.0924144E-02;  9.9999998E-03; -1.6003411E-01;3009;  3.0004869E-03;  0.0000000E+00; -3.3480432E-04;  1.0024270E+03;  1.0000000E-01;  2.0107086E+03;3; -8.0510559E+00;  0.0000000E+00;  1.7225806E-01;0;  1.0550003E-02;  4.0208094E+04;  0.0000000E+00;  1.6996595E-01;  4.0000000E+04;  0.0000000E+00;  4.0007199E+04;  1.1142359E-02;  0.0000000E+00; -5.9235666E-04;  6.9177063E+02;
  9.0919353E-02;  9.9999998E-03; -1.5005700E-01;3010;  3.2788699E-03;  0.0000000E+00; -2.9332560E-04;  1.0024196E+03;  1.0000000E-01;  2.0045853E+03;3; -8.1106205E+00;  0.0000000E+00;  1.8405095E-01;0;  1.0382526E-02;  4.0205047E+04;  0.0000000E+00;  7.4238874E-02;  4.0000000E+04;  0.0000000E+00;  4.0010633E+04;  1.0785739E-02;  0.0000000E+00; -4.0321355E-04;  1.0081218E+03;
  9.0931885E-02;  9.9999998E-03; -1.4008017E-01;3011;  3.6100273E-03;  0.0000000E+00; -1.8956982E-04;  1.0023881E+03;  1.0000000E-01;  1.9785120E+03;3; -8.1608839E+00;  0.0000000E+00;  1.4141642E-01;0;  1.0168620E-02;  4.0200754E+04;  0.0000000E+00;  2.3593713E-02;  4.0000000E+04;  0.0000000E+00;  4.0012875E+04;  1.0409023E-02;  0.0000000E+00; -2.4040267E-04;  1.2483303E+03;
  9.0957880E-02;  9.9999998E-03; -1.3009597E-01;3012;  3.8567195E-03;  0.0000000E+00; -7.9367295E-05;  1.0023392E+03;  1.0000000E-01;  1.9380193E+03;3; -8.2369642E+00;  0.0000000E+00;  9.7401999E-02;0;  9.8961741E-03;  4.0196367E+04;  0.0000000E+00;  3.0353537E-03;  4.0000000E+04;  0.0000000E+00;  4.0012938E+04;  1.0021849E-02;  0.0000000E+00; -1.2567440E-04;  1.3334940E+03;
  9.0991430E-02;  9.9999998E-03; -1.2009756E-01;3013;  4.0134531E-03;  0.0000000E+00;  1.8034143E-05;  1.0022852E+03;  1.0000000E-01;  1.8931810E+03;3; -8.3345737E+00;  0.0000000E+00;  6.6330329E-02;0;  9.5797265E-03;  4.0192863E+04;  0.0000000E+00; -1.1569393E-03;  4.0000000E+04;  0.0000000E+00;  4.0012188E+04;  9.6528232E-03;  0.0000000E+00; -7.3096649E-05;  1.2555992E+03;
  9.1022700E-02;  9.9999998E-03; -1.1008365E-01;3014;  4.1064029E-03;  0.0000000E+00;  8.9468958E-05;  1.0022319E+03;  1.0000000E-01;  1.8491329E+03;3; -8.4543056E+00;  0.0000000E+00;  4.7440659E-02;0;  9.2490008E-03;  4.0190305E+04;  0.0000000E+00;  1.2745700E-03;  4.0000000E+04;  0.0000000E+00;  4.0009727E+04;  9.3352022E-03;  0.0000000E+00; -8.6200955E-05;  1.0551044E+03;
  1.0082801E-01;  9.9999998E-03; -2.7010527E-01;3059;  2.7383703E-03;  0.0000000E+00;  3.2497389E-04;  9.9868805E+02;  1.0000000E-01; -1.0869323E+03;3;  1.1081299E+01;  0.0000000E+00; -1.5012582E+01;0;  1.2242007E-02;  3.9880039E+04;  0.0000000E+00;  3.1274555E+00;  4.0000000E+04;  0.0000000E+00;  4.0016203E+04;  1.1816508E-02;  0.0000000E+00;  4.2549917E-04;  4.9740996E+03;
  1.0105046E-01;  9.9999998E-03; -2.6015979E-01;3060;  3.1526524E-03;  0.0000000E+00;  3.0058835E-04;  9.9922595E+02;  1.0000000E-01; -6.4126581E+02;3;  7.8464870E+00;  0.0000000E+00; -1.8702383E+01;0;  1.2066399E-02;  3.9919262E+04;  0.0000000E+00;  2.9849799E+00;  4.0000000E+04;  0.0000000E+00;  4.0021891E+04;  1.2037537E-02;  0.0000000E+00;  2.8861919E-05;  5.1328550E+03;
  1.0119593E-01;  9.9999998E-03; -2.5018433E-01;3061;  3.4072129E-03;  0.0000000E+00;  2.6297980E-04;  9.9975739E+02;  1.0000000E-01; -2.0098196E+02;3;  4.8434300E+00;  0.0000000E+00; -1.8175545E+01;0;  1.1761657E-02;  3.9962496E+04;  0.0000000E+00;  2.7506564E+00;  4.0000000E+04;  0.0000000E+00;  4.0022887E+04;  1.2105953E-02;  0.0000000E+00; -3.4429587E-04;  4.9269399E+03;
  1.0127487E-01;  9.9999998E-03; -2.4017558E-01;3062;  3.5605219E-03;  0.0000000E+00;  2.3327877E-04;  1.0002328E+03;  1.0000000E-01;  1.9288344E+02;3;  2.2759242E+00;  0.0000000E+00; -1.5132285E+01;0;  1.1432260E-02;  4.0005105E+04;  0.0000000E+00;  2.4735749E+00;  4.0000000E+04;  0.0000000E+00;  4.0020727E+04;  1.2096236E-02;  0.0000000E+00; -6.6397502E-04;  4.3958784E+03;
  1.0130287E-01;  9.9999998E-03; -2.3014443E-01;3063;  3.6430706E-03;  0.0000000E+00;  2.0828565E-04;  1.0006277E+03;  1.0000000E-01;  5.1998529E+02;3;  2.0553398E-01;  0.0000000E+00; -1.1250099E+01;0;  1.1139808E-02;  4.0043922E+04;  0.0000000E+00;  2.1813645E+00;  4.0000000E+04;  0.0000000E+00;  4.0015680E+04;  1.2049418E-02;  0.0000000E+00; -9.0961001E-04;  3.6828760E+03;
  1.0129342E-01;  9.9999998E-03; -2.2010389E-01;3064;  3.6748322E-03;  0.0000000E+00;  1.7926742E-04;  1.0009357E+03;  1.0000000E-01;  7.7518793E+02;3; -1.3821588E+00;  0.0000000E+00; -7.6510887E+00;0;  1.0908405E-02;  4.0076012E+04;  0.0000000E+00;  1.8797504E+00;  4.0000000E+04;  0.0000000E+00;  4.0010727E+04;  1.1979746E-02;  0.0000000E+00; -1.0713408E-03;  2.9544272E+03;
  1.0126185E-01;  9.9999998E-03; -2.1006341E-01;3065;  3.6780937E-03;  0.0000000E+00;  1.4227831E-04;  1.0011627E+03;  1.0000000E-01;  9.6323199E+02;3; -2.5409951E+00;  0.0000000E+00; -4.8136511E+00;0;  1.0735301E-02;  4.0100676E+04;  0.0000000E+00;  1.5654091E+00;  4.0000000E+04;  0.0000000E+00;  4.0005930E+04;  1.1882724E-02;  0.0000000E+00; -1.1474229E-03;  2.3180464E+03;
  1.0121184E-01;  9.9999998E-03; -2.0003082E-01;3066;  3.6783565E-03;  0.0000000E+00;  1.0099715E-04;  1.0013182E+03;  1.0000000E-01;  1.0921173E+03;3; -3.3396370E+00;  0.0000000E+00; -2.7824647E+00;0;  1.0603490E-02;  4.0117090E+04;  0.0000000E+00;  1.2409467E+00;  4.0000000E+04;  0.0000000E+00;  4.0003148E+04;  1.1744787E-02;  0.0000000E+00; -1.1412966E-03;  1.7861409E+03;
  1.0115800E-01;  9.9999998E-03; -1.9001254E-01;3067;  3.7086450E-03;  0.0000000E+00;  6.5640030E-05;  1.0014075E+03;  1.0000000E-01;  1.1660905E+03;3; -3.8491149E+00;  0.0000000E+00; -1.4284962E+00;0;  1.0489981E-02;  4.0126266E+04;  0.0000000E+00;  9.2205858E-01;  4.0000000E+04;  0.0000000E+00;  4.0002102E+04;  1.1550864E-02;  0.0000000E+00; -1.0608836E-03;  1.3222992E+03;
  1.0111304E-01;  9.9999998E-03; -1.8001036E-01;3068;  3.7871390E-03;  0.0000000E+00;  4.1408504E-05;  1.0014427E+03;  1.0000000E-01;  1.1952255E+03;3; -4.1421070E+00;  0.0000000E+00; -6.0181570E-01;0;  1.0370863E-02;  4.0129031E+04;  0.0000000E+00;  6.3324612E-01;  4.0000000E+04;  0.0000000E+00;  4.0004027E+04;  1.1289806E-02;  0.0000000E+00; -9.1894303E-04;  9.4922833E+02;
  1.0108685E-01;  9.9999998E-03; -1.7001686E-01;3069;  3.9023939E-03;  0.0000000E+00;  2.8214010E-05;  1.0014420E+03;  1.0000000E-01;  1.1946329E+03;3; -4.2826290E+00;  0.0000000E+00; -1.6156662E-01;0;  1.0222515E-02;  4.0127062E+04;  0.0000000E+00;  3.9682752E-01;  4.0000000E+04;  0.0000000E+00;  4.0006625E+04;  1.0956058E-02;  0.0000000E+00; -7.3354278E-04;  8.4394861E+02;
  1.0108369E-01;  9.9999998E-03; -1.6002668E-01;3070;  4.0284749E-03;  0.0000000E+00;  2.4482550E-05;  1.0014128E+03;  1.0000000E-01;  1.1705348E+03;3; -4.3267779E+00;  0.0000000E+00;  1.7702501E-02;0;  1.0024552E-02;  4.0121578E+04;  0.0000000E+00;  2.2337131E-01;  4.0000000E+04;  0.0000000E+00;  4.0010109E+04;  1.0552198E-02;  0.0000000E+00; -5.2764552E-04;  1.0897666E+03;
  1.0110302E-01;  9.9999998E-03; -1.5004121E-01;3071;  4.1514421E-03;  0.0000000E+00;  2.7518328E-05;  1.0013591E+03;  1.0000000E-01;  1.1259928E+03;3; -4.3237133E+00;  0.0000000E+00;  5.5714320E-02;0;  9.7645000E-03;  4.0114688E+04;  0.0000000E+00;  1.1026805E-01;  4.0000000E+04;  0.0000000E+00;  4.0013602E+04;  1.0091646E-02;  0.0000000E+00; -3.2714548E-04;  1.4426469E+03;
  1.0114062E-01;  9.9999998E-03; -1.4005813E-01;3072;  4.2640828E-03;  0.0000000E+00;  3.9826100E-05;  1.0013015E+03;  1.0000000E-01;  1.0782905E+03;3; -4.3187194E+00;  0.0000000E+00;  4.6857059E-02;0;  9.4408309E-03;  4.0108152E+04;  0.0000000E+00;  4.6168637E-02;  4.0000000E+04;  0.0000000E+00;  4.0015887E+04;  9.5974524E-03;  0.0000000E+00; -1.5662101E-04;  1.7131562E+03;
  1.0120761E-01;  9.9999998E-03; -1.3006502E-01;3073;  4.3543824E-03;  0.0000000E+00;  5.6494046E-05;  1.0012426E+03;  1.0000000E-01;  1.0295017E+03;3; -4.3284097E+00;  0.0000000E+00;  3.6237877E-02;0;  9.0620602E-03;  4.0102656E+04;  0.0000000E+00;  1.5117936E-02;  4.0000000E+04;  0.0000000E+00;  4.0016152E+04;  9.0971403E-03;  0.0000000E+00; -3.5080186E-05;  1.8197761E+03;
  1.0128722E-01;  9.9999998E-03; -1.2005895E-01;3074;  4.4260663E-03;  0.0000000E+00;  7.5904180E-05;  1.0011955E+03;  1.0000000E-01;  9.9049048E+02;3; -4.3667016E+00;  0.0000000E+00;  2.5964173E-02;0;  8.6536491E-03;  4.0099023E+04;  0.0000000E+00;  2.7299137E-03;  4.0000000E+04;  0.0000000E+00;  4.0015254E+04;  8.6281337E-03;  0.0000000E+00;  2.5515539E-05;  1.7501189E+03;
  1.0133982E-01;  9.9999998E-03; -1.1004761E-01;3075;  4.4729859E-03;  0.0000000E+00;  8.8264787E-05;  1.0011554E+03;  1.0000000E-01;  9.5720752E+02;3; -4.4290690E+00;  0.0000000E+00;  1.6455779E-02;0;  8.2526151E-03;  4.0097793E+04;  0.0000000E+00; -9.6408551E-04;  4.0000000E+04;  0.0000000E+00;  4.0013352E+04;  8.2299914E-03;  0.0000000E+00;  2.2624135E-05;  1.5446206E+03;
  1.1102581E-01;  9.9999998E-03; -2.6998517E-01;3120;  3.1599186E-03;  0.0000000E+00;  4.8867345E-04;  9.9824017E+02;  1.0000000E-01; -1.4579834E+03;3;  1.1646290E+01;  0.0000000E+00; -1.4837526E+01;0;  1.1869406E-02;  3.9842699E+04;  0.0000000E+00;  5.6154256E+00;  4.0000000E+04;  0.0000000E+00;  4.0018184E+04;  1.1813871E-02;  0.0000000E+00;  5.5535464E-05;  8.4578623E+03;
  1.1120078E-01;  9.9999998E-03; -2.6005715E-01;3121;  3.4438083E-03;  0.0000000E+00;  3.9849340E-04;  9.9880951E+02;  1.0000000E-01; -9.8629309E+02;3;  8.3155270E+00;  0.0000000E+00; -1.9083437E+01;0;  1.1476254E-02;  3.9882730E+04;  0.0000000E+00;  4.9581089E+00;  4.0000000E+04;  0.0000000E+00;  4.0025777E+04;  1.1777791E-02;  0.0000000E+00; -3.0153664E-04;  7.8645723E+03;
  1.1133350E-01;  9.9999998E-03; -2.5008678E-01;3122;  3.6515214E-03;  0.0000000E+00;  3.3818395E-04;  9.9934937E+02;  1.0000000E-01; -5.3904651E+02;3;  5.4051456E+00;  0.0000000E+00; -1.8747049E+01;0;  1.1016277E-02;  3.9926168E+04;  0.0000000E+00;  4.1941633E+00;  4.0000000E+04;  0.0000000E+00;  4.0027270E+04;  1.1637110E-02;  0.0000000E+00; -6.2083395E-04;  6.9864941E+03;
  1.1142414E-01;  9.9999998E-03; -2.4007805E-01;3123;  3.7993935E-03;  0.0000000E+00;  3.0250059E-04;  9.9981042E+02;  1.0000000E-01; -1.5708197E+02;3;  3.0644310E+00;  0.0000000E+00; -1.5634653E+01;0;  1.0584733E-02;  3.9967016E+04;  0.0000000E+00;  3.4413593E+00;  4.0000000E+04;  0.0000000E+00;  4.0026270E+04;  1.1463100E-02;  0.0000000E+00; -8.7836769E-04;  5.8984331E+03;
  1.1147086E-01;  9.9999998E-03; -2.3004541E-01;3124;  3.8986350E-03;  0.0000000E+00;  2.7936869E-04;  1.0001740E+03;  1.0000000E-01;  1.4419345E+02;3;  1.2954587E+00;  0.0000000E+00; -1.1582636E+01;0;  1.0233357E-02;  4.0002445E+04;  0.0000000E+00;  2.7722232E+00;  4.0000000E+04;  0.0000000E+00;  4.0021320E+04;  1.1294181E-02;  0.0000000E+00; -1.0608251E-03;  4.7318359E+03;
  1.1148772E-01;  9.9999998E-03; -2.2000530E-01;3125;  3.9626756E-03;  0.0000000E+00;  2.5804248E-04;  1.0004225E+03;  1.0000000E-01;  3.5001480E+02;3;  2.6025603E-02;  0.0000000E+00; -7.8012853E+00;0;  9.9736601E-03;  4.0029895E+04;  0.0000000E+00;  2.2081077E+00;  4.0000000E+04;  0.0000000E+00;  4.0015266E+04;  1.1138014E-02;  0.0000000E+00; -1.1643537E-03;  3.6346057E+03;
  1.1147642E-01;  9.9999998E-03; -2.0997261E-01;3126;  4.0083057E-03;  0.0000000E+00;  2.3316944E-04;  1.0005742E+03;  1.0000000E-01;  4.7564087E+02;3; -8.4958690E-01;  0.0000000E+00; -4.8536248E+00;0;  9.7913565E-03;  4.0048961E+04;  0.0000000E+00;  1.7348125E+00;  4.0000000E+04;  0.0000000E+00;  4.0009004E+04;  1.0981990E-02;  0.0000000E+00; -1.1906337E-03;  2.7170750E+03;
  1.1144817E-01;  9.9999998E-03; -1.9995119E-01;3127;  4.0489882E-03;  0.0000000E+00;  2.0336841E-04;  1.0006501E+03;  1.0000000E-01;  5.3865143E+02;3; -1.4292530E+00;  0.0000000E+00; -2.7909200E+00;0;  9.6563166E-03;  4.0059324E+04;  0.0000000E+00;  1.3285415E+00;  4.0000000E+04;  0.0000000E+00;  4.0005414E+04;  1.0801055E-02;  0.0000000E+00; -1.1447385E-03;  2.0086035E+03;
  1.1141665E-01;  9.9999998E-03; -1.8993795E-01;3128;  4.0964186E-03;  0.0000000E+00;  1.6990001E-04;  1.0006593E+03;  1.0000000E-01;  5.4625616E+02;3; -1.7877687E+00;  0.0000000E+00; -1.4467140E+00;0;  9.5337052E-03;  4.0061906E+04;  0.0000000E+00;  9.7461289E-01;  4.0000000E+04;  0.0000000E+00;  4.0004766E+04;  1.0568320E-02;  0.0000000E+00; -1.0346145E-03;  1.4791199E+03;
  1.1139009E-01;  9.9999998E-03; -1.7993487E-01;3129;  4.1547180E-03;  0.0000000E+00;  1.3813277E-04;  1.0006228E+03;  1.0000000E-01;  5.1593604E+02;3; -1.9858786E+00;  0.0000000E+00; -6.3895953E-01;0;  9.3913618E-03;  4.0058820E+04;  0.0000000E+00;  6.7261833E-01;  4.0000000E+04;  0.0000000E+00;  4.0005848E+04;  1.0263563E-02;  0.0000000E+00; -8.7220100E-04;  1.1447181E+03;
  1.1138074E-01;  9.9999998E-03; -1.6993588E-01;3130;  4.2235572E-03;  0.0000000E+00;  1.1047974E-04;  1.0005574E+03;  1.0000000E-01;  4.6181409E+02;3; -2.0724709E+00;  0.0000000E+00; -2.1216552E-01;0;  9.2024375E-03;  4.0051441E+04;  0.0000000E+00;  4.2935765E-01;  4.0000000E+04;  0.0000000E+00;  4.0008879E+04;  9.8765958E-03;  0.0000000E+00; -6.7415816E-04;  1.1334712E+03;
  1.1138383E-01;  9.9999998E-03; -1.5994060E-01;3131;  4.2997552E-03;  0.0000000E+00;  8.6528096E-05;  1.0004807E+03;  1.0000000E-01;  3.9821097E+02;3; -2.0940044E+00;  0.0000000E+00; -3.4322511E-02;0;  8.9506656E-03;  4.0042109E+04;  0.0000000E+00;  2.4894586E-01;  4.0000000E+04;  0.0000000E+00;  4.0012277E+04;  9.4124749E-03;  0.0000000E+00; -4.6180977E-04;  1.4340992E+03;
  1.1139841E-01;  9.9999998E-03; -1.4995822E-01;3132;  4.3758135E-03;  0.0000000E+00;  6.9442031E-05;  1.0004017E+03;  1.0000000E-01;  3.3273132E+02;3; -2.0875988E+00;  0.0000000E+00;  1.0566827E-02;0;  8.6296229E-03;  4.0032895E+04;  0.0000000E+00;  1.2751907E-01;  4.0000000E+04;  0.0000000E+00;  4.0015145E+04;  8.8884756E-03;  0.0000000E+00; -2.5885264E-04;  1.8227228E+03;
  1.1142521E-01;  9.9999998E-03; -1.3998349E-01;3133;  4.4468162E-03;  0.0000000E+00;  5.8225785E-05;  1.0003389E+03;  1.0000000E-01;  2.8078220E+02;3; -2.0809562E+00;  0.0000000E+00;  8.7751988E-03;0;  8.2439203E-03;  4.0025137E+04;  0.0000000E+00;  5.4058921E-02;  4.0000000E+04;  0.0000000E+00;  4.0018590E+04;  8.3310613E-03;  0.0000000E+00; -8.7141278E-05;  2.1278574E+03;
  1.1146462E-01;  9.9999998E-03; -1.3000438E-01;3134;  4.5083673E-03;  0.0000000E+00;  5.5779779E-05;  1.0002917E+03;  1.0000000E-01;  2.4167218E+02;3; -2.0868590E+00;  0.0000000E+00;  4.2660367E-03;0;  7.8099244E-03;  4.0019984E+04;  0.0000000E+00;  1.3872341E-02;  4.0000000E+04;  0.0000000E+00;  4.0019438E+04;  7.7730864E-03;  0.0000000E+00;  3.6838228E-05;  2.2640232E+03;
  1.1151925E-01;  9.9999998E-03; -1.2001323E-01;3135;  4.5567523E-03;  0.0000000E+00;  6.1099701E-05;  1.0002585E+03;  1.0000000E-01;  2.1421617E+02;3; -2.1065686E+00;  0.0000000E+00;  9.3599962E-04;0;  7.3551787E-03;  4.0018070E+04;  0.0000000E+00; -6.2272400E-03;  4.0000000E+04;  0.0000000E+00;  4.0018027E+04;  7.2516655E-03;  0.0000000E+00;  1.0351325E-04;  2.2116660E+03;
  1.1162377E-01;  9.9999998E-03; -1.1000288E-01;3136;  4.5906068E-03;  0.0000000E+00;  6.7898785E-05;  1.0002470E+03;  1.0000000E-01;  2.0463618E+02;3; -2.1328413E+00;  0.0000000E+00; -2.3671908E-03;0;  6.9103478E-03;  4.0018613E+04;  0.0000000E+00; -1.5296335E-02;  4.0000000E+04;  0.0000000E+00;  4.0016699E+04;  6.7986590E-03;  0.0000000E+00;  1.1168885E-04;  2.0085848E+03;
  1.2106051E-01;  9.9999998E-03; -2.6985341E-01;3181;  3.2884211E-03;  0.0000000E+00;  5.3469371E-04;  9.9791479E+02;  1.0000000E-01; -1.7275560E+03;3;  1.2037661E+01;  0.0000000E+00; -1.6344448E+01;0;  1.1182413E-02;  3.9812664E+04;  0.0000000E+00;  8.9794960E+00;  4.0000000E+04;  0.0000000E+00;  4.0023086E+04;  1.1503005E-02;  0.0000000E+00; -3.2059243E-04;  1.3339976E+04;
  1.2121627E-01;  9.9999998E-03; -2.5993901E-01;3182;  3.5177281E-03;  0.0000000E+00;  4.1899097E-04;  9.9851746E+02;  1.0000000E-01; -1.2282616E+03;3;  8.4991760E+00;  0.0000000E+00; -2.0597734E+01;0;  1.0575048E-02;  3.9855020E+04;  0.0000000E+00;  7.5388584E+00;  4.0000000E+04;  0.0000000E+00;  4.0030859E+04;  1.1195380E-02;  0.0000000E+00; -6.2033231E-04;  1.1597352E+04;
  1.2135548E-01;  9.9999998E-03; -2.4998027E-01;3183;  3.7053458E-03;  0.0000000E+00;  3.4442745E-04;  9.9906946E+02;  1.0000000E-01; -7.7094116E+02;3;  5.5330839E+00;  0.0000000E+00; -2.0054548E+01;0;  9.9603105E-03;  3.9898465E+04;  0.0000000E+00;  6.0169692E+00;  4.0000000E+04;  0.0000000E+00;  4.0032367E+04;  1.0830213E-02;  0.0000000E+00; -8.6990278E-04;  9.6667197E+03;
  1.2146816E-01;  9.9999998E-03; -2.3998073E-01;3184;  3.8506994E-03;  0.0000000E+00;  3.0300394E-04;  9.9952771E+02;  1.0000000E-01; -3.9129758E+02;3;  3.2721393E+00;  0.0000000E+00; -1.6620653E+01;0;  9.4219148E-03;  3.9938777E+04;  0.0000000E+00;  4.6105285E+00;  4.0000000E+04;  0.0000000E+00;  4.0031586E+04;  1.0475851E-02;  0.0000000E+00; -1.0539356E-03;  7.7257104E+03;
  1.2154747E-01;  9.9999998E-03; -2.2995591E-01;3185;  3.9581438E-03;  0.0000000E+00;  2.7921976E-04;  9.9987085E+02;  1.0000000E-01; -1.0700932E+02;3;  1.6785537E+00;  0.0000000E+00; -1.2215637E+01;0;  9.0015009E-03;  3.9972414E+04;  0.0000000E+00;  3.4363647E+00;  4.0000000E+04;  0.0000000E+00;  4.0026551E+04;  1.0167824E-02;  0.0000000E+00; -1.1663235E-03;  5.9133086E+03;
  1.2158243E-01;  9.9999998E-03; -2.1992329E-01;3186;  4.0345974E-03;  0.0000000E+00;  2.5895808E-04;  1.0000835E+03;  1.0000000E-01;  6.9133850E+01;3;  6.1942875E-01;  0.0000000E+00; -8.1436090E+00;0;  8.7022716E-03;  3.9997473E+04;  0.0000000E+00;  2.5269470E+00;  4.0000000E+04;  0.0000000E+00;  4.0020160E+04;  9.9109039E-03;  0.0000000E+00; -1.2086323E-03;  4.3444316E+03;
  1.2159263E-01;  9.9999998E-03; -2.0989907E-01;3187;  4.0913871E-03;  0.0000000E+00;  2.3421329E-04;  1.0001839E+03;  1.0000000E-01;  1.5239075E+02;3; -5.9089370E-02;  0.0000000E+00; -5.0059900E+00;0;  8.4965695E-03;  4.0012410E+04;  0.0000000E+00;  1.8500170E+00;  4.0000000E+04;  0.0000000E+00;  4.0012586E+04;  9.6827736E-03;  0.0000000E+00; -1.1862038E-03;  3.0976907E+03;
  1.2159116E-01;  9.9999998E-03; -1.9988714E-01;3188;  4.1398047E-03;  0.0000000E+00;  2.0335444E-04;  1.0001947E+03;  1.0000000E-01;  1.6127939E+02;3; -4.8301673E-01;  0.0000000E+00; -2.8481684E+00;0;  8.3440719E-03;  4.0018199E+04;  0.0000000E+00;  1.3464645E+00;  4.0000000E+04;  0.0000000E+00;  4.0008121E+04;  9.4492156E-03;  0.0000000E+00; -1.1051436E-03;  2.1933508E+03;
  1.2157382E-01;  9.9999998E-03; -1.8988295E-01;3189;  4.1884789E-03;  0.0000000E+00;  1.6861505E-04;  1.0001379E+03;  1.0000000E-01;  1.1426837E+02;3; -7.3807484E-01;  0.0000000E+00; -1.4755150E+00;0;  8.2048196E-03;  4.0016238E+04;  0.0000000E+00;  9.6146923E-01;  4.0000000E+04;  0.0000000E+00;  4.0006250E+04;  9.1774948E-03;  0.0000000E+00; -9.7267481E-04;  1.5944562E+03;
  1.2154984E-01;  9.9999998E-03; -1.7988372E-01;3190;  4.2414153E-03;  0.0000000E+00;  1.3282846E-04;  1.0000471E+03;  1.0000000E-01;  3.9011242E+01;3; -8.7882012E-01;  0.0000000E+00; -6.6706073E-01;0;  8.0416529E-03;  4.0008492E+04;  0.0000000E+00;  6.5970153E-01;  4.0000000E+04;  0.0000000E+00;  4.0007117E+04;  8.8404315E-03;  0.0000000E+00; -7.9877902E-04;  1.2884202E+03;
  1.2153723E-01;  9.9999998E-03; -1.6988584E-01;3191;  4.2994688E-03;  0.0000000E+00;  9.8808392E-05;  9.9994232E+02;  1.0000000E-01; -4.7801117E+01;3; -9.4211280E-01;  0.0000000E+00; -2.4195908E-01;0;  7.8249592E-03;  3.9997863E+04;  0.0000000E+00;  4.2416042E-01;  4.0000000E+04;  0.0000000E+00;  4.0010062E+04;  8.4224418E-03;  0.0000000E+00; -5.9748226E-04;  1.3373042E+03;
  1.2155241E-01;  9.9999998E-03; -1.5989062E-01;3192;  4.3593985E-03;  0.0000000E+00;  7.0611517E-05;  9.9983911E+02;  1.0000000E-01; -1.3328018E+02;3; -9.5825022E-01;  0.0000000E+00; -6.2699810E-02;0;  7.5366413E-03;  3.9985645E+04;  0.0000000E+00;  2.4779908E-01;  4.0000000E+04;  0.0000000E+00;  4.0014234E+04;  7.9235854E-03;  0.0000000E+00; -3.8694381E-04;  1.6775597E+03;
  1.2161493E-01;  9.9999998E-03; -1.4990811E-01;3193;  4.4177398E-03;  0.0000000E+00;  4.9457129E-05;  9.9974915E+02;  1.0000000E-01; -2.0784598E+02;3; -9.5123494E-01;  0.0000000E+00; -1.5047802E-02;0;  7.1708439E-03;  3.9975141E+04;  0.0000000E+00;  1.2471246E-01;  4.0000000E+04;  0.0000000E+00;  4.0017602E+04;  7.3585128E-03;  0.0000000E+00; -1.8766891E-04;  2.0996091E+03;
  1.2172657E-01;  9.9999998E-03; -1.3992999E-01;3194;  4.4705532E-03;  0.0000000E+00;  3.5552075E-05;  9.9967950E+02;  1.0000000E-01; -2.6552335E+02;3; -9.3963045E-01;  0.0000000E+00; -1.1782500E-02;0;  6.7357784E-03;  3.9967176E+04;  0.0000000E+00;  4.5533419E-02;  4.0000000E+04;  0.0000000E+00;  4.0019297E+04;  6.7546465E-03;  0.0000000E+00; -1.8868090E-05;  2.4397432E+03;
  1.2187876E-01;  9.9999998E-03; -1.2994367E-01;3195;  4.5142099E-03;  0.0000000E+00;  3.0444844E-05;  9.9964648E+02;  1.0000000E-01; -2.9288062E+02;3; -9.3181956E-01;  0.0000000E+00; -1.2288884E-02;0;  6.2528113E-03;  3.9962773E+04;  0.0000000E+00; -1.4169369E-03;  4.0000000E+04;  0.0000000E+00;  4.0021988E+04;  6.1478340E-03;  0.0000000E+00;  1.0497737E-04;  2.6067559E+03;
  1.2202085E-01;  9.9999998E-03; -1.1994426E-01;3196;  4.5474963E-03;  0.0000000E+00;  3.4526714E-05;  9.9964032E+02;  1.0000000E-01; -2.9796689E+02;3; -9.3235838E-01;  0.0000000E+00; -1.1914705E-02;0;  5.7613081E-03;  3.9962500E+04;  0.0000000E+00; -2.6963608E-02;  4.0000000E+04;  0.0000000E+00;  4.0021059E+04;  5.5852914E-03;  0.0000000E+00;  1.7601663E-04;  2.5731680E+03;
  1.2210782E-01;  9.9999998E-03; -1.0993820E-01;3197;  4.5709698E-03;  0.0000000E+00;  4.3243490E-05;  9.9966162E+02;  1.0000000E-01; -2.8033774E+02;3; -9.4308025E-01;  0.0000000E+00; -1.1081192E-02;0;  5.3065927E-03;  3.9965637E+04;  0.0000000E+00; -3.8744912E-02;  4.0000000E+04;  0.0000000E+00;  4.0019281E+04;  5.1133730E-03;  0.0000000E+00;  1.9321949E-04;  2.3745693E+03;
  1.3100554E-01;  9.9999998E-03; -2.6970783E-01;3242;  3.2707951E-03;  0.0000000E+00;  5.4108805E-04;  9.9776459E+02;  1.0000000E-01; -1.8519969E+03;3;  1.2954143E+01;  0.0000000E+00; -2.0543344E+01;0;  1.0329257E-02;  3.9792777E+04;  0.0000000E+00;  1.3169450E+01;  4.0000000E+04;  0.0000000E+00;  4.0031863E+04;  1.1032810E-02;  0.0000000E+00; -7.0355344E-04;  1.9560734E+04;
  1.3115557E-01;  9.9999998E-03; -2.5981188E-01;3243;  3.4609446E-03;  0.0000000E+00;  4.0642201E-04;  9.9838611E+02;  1.0000000E-01; -1.3370980E+03;3;  8.8413153E+00;  0.0000000E+00; -2.3660713E+01;0;  9.5292814E-03;  3.9836750E+04;  0.0000000E+00;  1.0622693E+01;  4.0000000E+04;  0.0000000E+00;  4.0039086E+04;  1.0447521E-02;  0.0000000E+00; -9.1823912E-04;  1.6192445E+04;
  1.3130885E-01;  9.9999998E-03; -2.4987033E-01;3244;  3.6384615E-03;  0.0000000E+00;  3.2442366E-04;  9.9895099E+02;  1.0000000E-01; -8.6906183E+02;3;  5.5459208E+00;  0.0000000E+00; -2.2212967E+01;0;  8.7772440E-03;  3.9881902E+04;  0.0000000E+00;  8.1234837E+00;  4.0000000E+04;  0.0000000E+00;  4.0040715E+04;  9.8582050E-03;  0.0000000E+00; -1.0809614E-03;  1.2844216E+04;
  1.3144164E-01;  9.9999998E-03; -2.3988785E-01;3245;  3.7887648E-03;  0.0000000E+00;  2.8094812E-04;  9.9941699E+02;  1.0000000E-01; -4.8299869E+02;3;  3.1812778E+00;  0.0000000E+00; -1.8069450E+01;0;  8.1423130E-03;  3.9923434E+04;  0.0000000E+00;  5.9239945E+00;  4.0000000E+04;  0.0000000E+00;  4.0037105E+04;  9.3234256E-03;  0.0000000E+00; -1.1811121E-03;  9.7904092E+03;
  1.3154256E-01;  9.9999998E-03; -2.2988132E-01;3246;  3.9087287E-03;  0.0000000E+00;  2.5741837E-04;  9.9975208E+02;  1.0000000E-01; -2.0537691E+02;3;  1.6405059E+00;  0.0000000E+00; -1.3100977E+01;0;  7.6560443E-03;  3.9957168E+04;  0.0000000E+00;  4.1606088E+00;  4.0000000E+04;  0.0000000E+00;  4.0031441E+04;  8.8740494E-03;  0.0000000E+00; -1.2180051E-03;  7.1712529E+03;
  1.3161036E-01;  9.9999998E-03; -2.1986930E-01;3247;  3.9993338E-03;  0.0000000E+00;  2.3771354E-04;  9.9994873E+02;  1.0000000E-01; -4.2467934E+01;3;  7.1289229E-01;  0.0000000E+00; -8.6344757E+00;0;  7.3107216E-03;  3.9981215E+04;  0.0000000E+00;  2.8539393E+00;  4.0000000E+04;  0.0000000E+00;  4.0024348E+04;  8.5086059E-03;  0.0000000E+00; -1.1978842E-03;  5.0452178E+03;
  1.3164932E-01;  9.9999998E-03; -2.0986180E-01;3248;  4.0679853E-03;  0.0000000E+00;  2.1308655E-04;  1.0000238E+03;  1.0000000E-01;  1.9752527E+01;3;  1.8142056E-01;  0.0000000E+00; -5.2530036E+00;0;  7.0721405E-03;  3.9994871E+04;  0.0000000E+00;  1.9419031E+00;  4.0000000E+04;  0.0000000E+00;  4.0015707E+04;  8.2009165E-03;  0.0000000E+00; -1.1287760E-03;  3.4328103E+03;
  1.3166788E-01;  9.9999998E-03; -1.9985951E-01;3249;  4.1236058E-03;  0.0000000E+00;  1.8147475E-04;  9.9999481E+02;  1.0000000E-01; -4.2961750E+00;3; -1.1793958E-01;  0.0000000E+00; -2.9615481E+00;0;  6.8940339E-03;  3.9998309E+04;  0.0000000E+00;  1.3242464E+00;  4.0000000E+04;  0.0000000E+00;  4.0010289E+04;  7.9112705E-03;  0.0000000E+00; -1.0172366E-03;  2.3139924E+03;
  1.3167419E-01;  9.9999998E-03; -1.8985757E-01;3250;  4.1733785E-03;  0.0000000E+00;  1.4489851E-04;  9.9990442E+02;  1.0000000E-01; -7.9207634E+01;3; -2.8714105E-01;  0.0000000E+00; -1.5315753E+00;0;  6.7300275E-03;  3.9993934E+04;  0.0000000E+00;  9.0272790E-01;  4.0000000E+04;  0.0000000E+00;  4.0007469E+04;  7.5988602E-03;  0.0000000E+00; -8.6883246E-04;  1.6266626E+03;
  1.3168451E-01;  9.9999998E-03; -1.7985426E-01;3251;  4.2221737E-03;  0.0000000E+00;  1.0697212E-04;  9.9978119E+02;  1.0000000E-01; -1.8127882E+02;3; -3.7885475E-01;  0.0000000E+00; -6.9906646E-01;0;  6.5393038E-03;  3.9983684E+04;  0.0000000E+00;  6.0366720E-01;  4.0000000E+04;  0.0000000E+00;  4.0008082E+04;  7.2298623E-03;  0.0000000E+00; -6.9055846E-04;  1.3207358E+03;
  1.3171797E-01;  9.9999998E-03; -1.6984704E-01;3252;  4.2705573E-03;  0.0000000E+00;  7.1148104E-05;  9.9964929E+02;  1.0000000E-01; -2.9055969E+02;3; -4.2120069E-01;  0.0000000E+00; -2.6221991E-01;0;  6.2912600E-03;  3.9971016E+04;  0.0000000E+00;  3.8293955E-01;  4.0000000E+04;  0.0000000E+00;  4.0010156E+04;  6.7841788E-03;  0.0000000E+00; -4.9291860E-04;  1.4021073E+03;
  1.3179725E-01;  9.9999998E-03; -1.5983908E-01;3253;  4.3160757E-03;  0.0000000E+00;  4.1119092E-05;  9.9953339E+02;  1.0000000E-01; -3.8655698E+02;3; -4.3253255E-01;  0.0000000E+00; -7.6220095E-02;0;  5.9678033E-03;  3.9958129E+04;  0.0000000E+00;  2.1867219E-01;  4.0000000E+04;  0.0000000E+00;  4.0014293E+04;  6.2582423E-03;  0.0000000E+00; -2.9043894E-04;  1.7703147E+03;
  1.3192987E-01;  9.9999998E-03; -1.4984198E-01;3254;  4.3565789E-03;  0.0000000E+00;  1.8438495E-05;  9.9944861E+02;  1.0000000E-01; -4.5682660E+02;3; -4.2824596E-01;  0.0000000E+00; -2.5216004E-02;0;  5.5671623E-03;  3.9947492E+04;  0.0000000E+00;  1.0054339E-01;  4.0000000E+04;  0.0000000E+00;  4.0017621E+04;  5.6676948E-03;  0.0000000E+00; -1.0053252E-04;  2.2174409E+03;
  1.3203861E-01;  9.9999998E-03; -1.3985816E-01;3255;  4.3910551E-03;  0.0000000E+00;  3.9219117E-06;  9.9940186E+02;  1.0000000E-01; -4.9554153E+02;3; -4.2211241E-01;  0.0000000E+00; -2.0509947E-02;0;  5.1133181E-03;  3.9940449E+04;  0.0000000E+00;  2.1409016E-02;  4.0000000E+04;  0.0000000E+00;  4.0020895E+04;  5.0539761E-03;  0.0000000E+00;  5.9342059E-05;  2.5847754E+03;
  1.3207147E-01;  9.9999998E-03; -1.2989128E-01;3256;  4.4194781E-03;  0.0000000E+00; -2.2095233E-07;  9.9938586E+02;  1.0000000E-01; -5.0877573E+02;3; -4.2020461E-01;  0.0000000E+00; -1.9550864E-02;0;  4.6381964E-03;  3.9937340E+04;  0.0000000E+00; -2.6511092E-02;  4.0000000E+04;  0.0000000E+00;  4.0022512E+04;  4.4616666E-03;  0.0000000E+00;  1.7653005E-04;  2.7800300E+03;
  1.3206562E-01;  9.9999998E-03; -1.1991855E-01;3257;  4.4412562E-03;  0.0000000E+00;  5.8798132E-06;  9.9940350E+02;  1.0000000E-01; -4.9420825E+02;3; -4.2246407E-01;  0.0000000E+00; -1.7321480E-02;0;  4.1682469E-03;  3.9938742E+04;  0.0000000E+00; -5.1565100E-02;  4.0000000E+04;  0.0000000E+00;  4.0022062E+04;  3.9220746E-03;  0.0000000E+00;  2.4617242E-04;  2.7680466E+03;
  1.3204411E-01;  9.9999998E-03; -1.0993358E-01;3258;  4.4578807E-03;  0.0000000E+00;  1.6920725E-05;  9.9943713E+02;  1.0000000E-01; -4.6630780E+02;3; -4.2725739E-01;  0.0000000E+00; -1.5247578E-02;0;  3.7368771E-03;  3.9943012E+04;  0.0000000E+00; -6.0879465E-02;  4.0000000E+04;  0.0000000E+00;  4.0020766E+04;  3.4685284E-03;  0.0000000E+00;  2.6834870E-04;  2.5796880E+03;
  1.4090966E-01;  9.9999998E-03; -2.6958093E-01;3303;  3.1195034E-03;  0.0000000E+00;  4.8932090E-04;  9.9780469E+02;  1.0000000E-01; -1.8187634E+03;3;  1.5187253E+01;  0.0000000E+00; -2.7653139E+01;0;  9.4533535E-03;  3.9782051E+04;  0.0000000E+00;  1.8034773E+01;  4.0000000E+04;  0.0000000E+00;  4.0046945E+04;  1.0515891E-02;  0.0000000E+00; -1.0625378E-03;  2.6930471E+04;
  1.4108042E-01;  9.9999998E-03; -2.5969663E-01;3304;  3.2882027E-03;  0.0000000E+00;  3.4790538E-04;  9.9841742E+02;  1.0000000E-01; -1.3111234E+03;3;  9.7874250E+00;  0.0000000E+00; -2.8283167E+01;0;  8.5058426E-03;  3.9828230E+04;  0.0000000E+00;  1.3990657E+01;  4.0000000E+04;  0.0000000E+00;  4.0050809E+04;  9.6757989E-03;  0.0000000E+00; -1.1699566E-03;  2.1353086E+04;
  1.4124188E-01;  9.9999998E-03; -2.4977869E-01;3305;  3.4714504E-03;  0.0000000E+00;  2.6598992E-04;  9.9898602E+02;  1.0000000E-01; -8.4007501E+02;3;  5.7249475E+00;  0.0000000E+00; -2.5024529E+01;0;  7.6552033E-03;  3.9875926E+04;  0.0000000E+00;  1.0310210E+01;  4.0000000E+04;  0.0000000E+00;  4.0049113E+04;  8.8890232E-03;  0.0000000E+00; -1.2338198E-03;  1.6231687E+04;
  1.4137816E-01;  9.9999998E-03; -2.3982291E-01;3306;  3.6401625E-03;  0.0000000E+00;  2.2531155E-04;  9.9946307E+02;  1.0000000E-01; -4.4482693E+02;3;  3.0133715E+00;  0.0000000E+00; -1.9728285E+01;0;  6.9483425E-03;  3.9920066E+04;  0.0000000E+00;  7.2457952E+00;  4.0000000E+04;  0.0000000E+00;  4.0043250E+04;  8.1940042E-03;  0.0000000E+00; -1.2456614E-03;  1.1881018E+04;
  1.4148977E-01;  9.9999998E-03; -2.2983940E-01;3307;  3.7813319E-03;  0.0000000E+00;  2.0556668E-04;  9.9980676E+02;  1.0000000E-01; -1.6009424E+02;3;  1.3955396E+00;  0.0000000E+00; -1.4050844E+01;0;  6.4061042E-03;  3.9956082E+04;  0.0000000E+00;  4.8766122E+00;  4.0000000E+04;  0.0000000E+00;  4.0035777E+04;  7.6135662E-03;  0.0000000E+00; -1.2074619E-03;  8.3655488E+03;
  1.4157696E-01;  9.9999998E-03; -2.1984515E-01;3308;  3.8915679E-03;  0.0000000E+00;  1.9003019E-04;  1.0000063E+03;  1.0000000E-01;  5.2344198E+00;3;  5.3136659E-01;  0.0000000E+00; -9.1567287E+00;0;  6.0154684E-03;  3.9981578E+04;  0.0000000E+00;  3.1703541E+00;  4.0000000E+04;  0.0000000E+00;  4.0027406E+04;  7.1434439E-03;  0.0000000E+00; -1.1279753E-03;  5.6465684E+03;
  1.4163625E-01;  9.9999998E-03; -2.0985031E-01;3309;  3.9751716E-03;  0.0000000E+00;  1.6879541E-04;  1.0000728E+03;  1.0000000E-01;  6.0343971E+01;3;  1.1469460E-01;  0.0000000E+00; -5.5246668E+00;0;  5.7391282E-03;  3.9995629E+04;  0.0000000E+00;  2.0174503E+00;  4.0000000E+04;  0.0000000E+00;  4.0017902E+04;  6.7559420E-03;  0.0000000E+00; -1.0168139E-03;  3.6562954E+03;
  1.4167517E-01;  9.9999998E-03; -1.9985415E-01;3310;  4.0396210E-03;  0.0000000E+00;  1.3922613E-04;  1.0000388E+03;  1.0000000E-01;  3.2097858E+01;3; -7.3843144E-02;  0.0000000E+00; -3.1040161E+00;0;  5.5277315E-03;  3.9998934E+04;  0.0000000E+00;  1.2759626E+00;  4.0000000E+04;  0.0000000E+00;  4.0010484E+04;  6.4081443E-03;  0.0000000E+00; -8.8041264E-04;  2.3157275E+03;
  1.4171684E-01;  9.9999998E-03; -1.8984810E-01;3311;  4.0928042E-03;  0.0000000E+00;  1.0409383E-04;  9.9993536E+02;  1.0000000E-01; -5.3529350E+01;3; -1.6131550E-01;  0.0000000E+00; -1.6060413E+00;0;  5.3309659E-03;  3.9993781E+04;  0.0000000E+00;  8.0894488E-01;  4.0000000E+04;  0.0000000E+00;  4.0007031E+04;  6.0530081E-03;  0.0000000E+00; -7.2204228E-04;  1.5247098E+03;
  1.4178631E-01;  9.9999998E-03; -1.7982627E-01;3312;  4.1391924E-03;  0.0000000E+00;  6.7080939E-05;  9.9980328E+02;  1.0000000E-01; -1.6295836E+02;3; -2.0579068E-01;  0.0000000E+00; -7.3813295E-01;0;  5.1061120E-03;  3.9983160E+04;  0.0000000E+00;  5.0901961E-01;  4.0000000E+04;  0.0000000E+00;  4.0006969E+04;  5.6512416E-03;  0.0000000E+00; -5.4512970E-04;  1.1943972E+03;
  1.4187813E-01;  9.9999998E-03; -1.6979329E-01;3313;  4.1794432E-03;  0.0000000E+00;  3.2254986E-05;  9.9966992E+02;  1.0000000E-01; -2.7347375E+02;3; -2.2771624E-01;  0.0000000E+00; -2.8134564E-01;0;  4.8263650E-03;  3.9970297E+04;  0.0000000E+00;  3.0556858E-01;  4.0000000E+04;  0.0000000E+00;  4.0009871E+04;  5.1832530E-03;  0.0000000E+00; -3.5688805E-04;  1.2889186E+03;
  1.4194699E-01;  9.9999998E-03; -1.5978637E-01;3314;  4.2139287E-03;  0.0000000E+00;  3.2850503E-06;  9.9956122E+02;  1.0000000E-01; -3.6354529E+02;3; -2.3562557E-01;  0.0000000E+00; -8.5109055E-02;0;  4.4853860E-03;  3.9957844E+04;  0.0000000E+00;  1.6026486E-01;  4.0000000E+04;  0.0000000E+00;  4.0013266E+04;  4.6550618E-03;  0.0000000E+00; -1.6967593E-04;  1.6770189E+03;
  1.4197843E-01;  9.9999998E-03; -1.4981544E-01;3315;  4.2419937E-03;  0.0000000E+00; -1.8556322E-05;  9.9948505E+02;  1.0000000E-01; -4.2660522E+02;3; -2.3589645E-01;  0.0000000E+00; -2.9864367E-02;0;  4.0866560E-03;  3.9947535E+04;  0.0000000E+00;  5.6439057E-02;  4.0000000E+04;  0.0000000E+00;  4.0015887E+04;  4.0840306E-03;  0.0000000E+00;  2.6252640E-06;  2.1477695E+03;
  1.4198110E-01;  9.9999998E-03; -1.3985592E-01;3316;  4.2639794E-03;  0.0000000E+00; -3.1943182E-05;  9.9944220E+02;  1.0000000E-01; -4.6211038E+02;3; -2.3397289E-01;  0.0000000E+00; -2.3672452E-02;0;  3.6418487E-03;  3.9940988E+04;  0.0000000E+00; -1.2639807E-02;  4.0000000E+04;  0.0000000E+00;  4.0020445E+04;  3.4947968E-03;  0.0000000E+00;  1.4705196E-04;  2.5405620E+03;
  1.4196648E-01;  9.9999998E-03; -1.2989259E-01;3317;  4.2806747E-03;  0.0000000E+00; -3.4634588E-05;  9.9943610E+02;  1.0000000E-01; -4.6719666E+02;3; -2.3259187E-01;  0.0000000E+00; -2.2194374E-02;0;  3.1732661E-03;  3.9938164E+04;  0.0000000E+00; -5.2549116E-02;  4.0000000E+04;  0.0000000E+00;  4.0022031E+04;  2.9195179E-03;  0.0000000E+00;  2.5374803E-04;  2.7578083E+03;
  1.4193942E-01;  9.9999998E-03; -1.1991829E-01;3318;  4.2936597E-03;  0.0000000E+00; -2.6075149E-05;  9.9945264E+02;  1.0000000E-01; -4.5346866E+02;3; -2.3127018E-01;  0.0000000E+00; -2.0486547E-02;0;  2.7136530E-03;  3.9939250E+04;  0.0000000E+00; -7.0319861E-02;  4.0000000E+04;  0.0000000E+00;  4.0021852E+04;  2.3948275E-03;  0.0000000E+00;  3.1882554E-04;  2.7624841E+03;
  1.4190336E-01;  9.9999998E-03; -1.0993095E-01;3319;  4.3048975E-03;  0.0000000E+00; -1.0422512E-05;  9.9948724E+02;  1.0000000E-01; -4.2482748E+02;3; -2.3012850E-01;  0.0000000E+00; -1.8397763E-02;0;  2.2988953E-03;  3.9943293E+04;  0.0000000E+00; -7.2978169E-02;  4.0000000E+04;  0.0000000E+00;  4.0020891E+04;  1.9561141E-03;  0.0000000E+00;  3.4278119E-04;  2.5839758E+03;
  1.5175270E-01;  9.9999998E-03; -1.0992233E-01;3380;  4.1274820E-03;  0.0000000E+00; -3.4360401E-05;  9.9970685E+02;  1.0000000E-01; -2.4285733E+02;3; -1.8215275E-01;  0.0000000E+00; -1.9953499E-02;0;  1.1350075E-03;  3.9959215E+04;  0.0000000E+00; -7.2392017E-02;  4.0000000E+04;  0.0000000E+00;  4.0019523E+04;  7.1976031E-04;  0.0000000E+00;  4.1524717E-04;  2.3711606E+03;
  1.5179464E-01;  9.9999998E-03; -1.1991502E-01;3379;  4.1234628E-03;  0.0000000E+00; -5.6080349E-05;  9.9968665E+02;  1.0000000E-01; -2.5959760E+02;3; -1.8390535E-01;  0.0000000E+00; -2.2361686E-02;0;  1.5287630E-03;  3.9956461E+04;  0.0000000E+00; -7.8801289E-02;  4.0000000E+04;  0.0000000E+00;  4.0020609E+04;  1.1354168E-03;  0.0000000E+00;  3.9334618E-04;  2.5383511E+03;
  1.5182921E-01;  9.9999998E-03; -1.2989442E-01;3378;  4.1205711E-03;  0.0000000E+00; -6.8930807E-05;  9.9967816E+02;  1.0000000E-01; -2.6665912E+02;3; -1.8562225E-01;  0.0000000E+00; -2.3965662E-02;0;  1.9745210E-03;  3.9956297E+04;  0.0000000E+00; -7.4069433E-02;  4.0000000E+04;  0.0000000E+00;  4.0020805E+04;  1.6375196E-03;  0.0000000E+00;  3.3700134E-04;  2.5228826E+03;
  1.5185389E-01;  9.9999998E-03; -1.3986327E-01;3377;  4.1156677E-03;  0.0000000E+00; -6.9348956E-05;  9.9968878E+02;  1.0000000E-01; -2.5781985E+02;3; -1.8708248E-01;  0.0000000E+00; -2.5299583E-02;0;  2.4376744E-03;  3.9959363E+04;  0.0000000E+00; -5.1207837E-02;  4.0000000E+04;  0.0000000E+00;  4.0017988E+04;  2.1926155E-03;  0.0000000E+00;  2.4505897E-04;  2.2960911E+03;
  1.5186870E-01;  9.9999998E-03; -1.4982729E-01;3376;  4.1062199E-03;  0.0000000E+00; -5.8832688E-05;  9.9972595E+02;  1.0000000E-01; -2.2705531E+02;3; -1.8869552E-01;  0.0000000E+00; -3.1907305E-02;0;  2.8844553E-03;  3.9966090E+04;  0.0000000E+00; -3.4631949E-03;  4.0000000E+04;  0.0000000E+00;  4.0014879E+04;  2.7646557E-03;  0.0000000E+00;  1.1979943E-04;  1.8938302E+03;
  1.5187378E-01;  9.9999998E-03; -1.5979789E-01;3375;  4.0901033E-03;  0.0000000E+00; -3.9728115E-05;  9.9979852E+02;  1.0000000E-01; -1.6690886E+02;3; -1.8911867E-01;  0.0000000E+00; -9.2707083E-02;0;  3.2898572E-03;  3.9976305E+04;  0.0000000E+00;  7.4633367E-02;  4.0000000E+04;  0.0000000E+00;  4.0011297E+04;  3.3208358E-03;  0.0000000E+00; -3.0978630E-05;  1.4097419E+03;
  1.5186298E-01;  9.9999998E-03; -1.6979475E-01;3374;  4.0655071E-03;  0.0000000E+00; -1.3780707E-05;  9.9990430E+02;  1.0000000E-01; -7.9306396E+01;3; -1.8823899E-01;  0.0000000E+00; -3.0119830E-01;0;  3.6409346E-03;  3.9988250E+04;  0.0000000E+00;  1.9278069E-01;  4.0000000E+04;  0.0000000E+00;  4.0008746E+04;  3.8377682E-03;  0.0000000E+00; -1.9683372E-04;  1.0004887E+03;
  1.5181762E-01;  9.9999998E-03; -1.7981702E-01;3373;  4.0312209E-03;  0.0000000E+00;  1.6824699E-05;  1.0000228E+03;  1.0000000E-01;  1.8863665E+01;3; -1.8976581E-01;  0.0000000E+00; -7.7555478E-01;0;  3.9378209E-03;  4.0000863E+04;  0.0000000E+00;  3.7688211E-01;  4.0000000E+04;  0.0000000E+00;  4.0006578E+04;  4.3056845E-03;  0.0000000E+00; -3.6786345E-04;  8.9588239E+02;
  1.5173723E-01;  9.9999998E-03; -1.8984680E-01;3372;  3.9863358E-03;  0.0000000E+00;  4.9095019E-05;  1.0001472E+03;  1.0000000E-01;  1.2197186E+02;3; -1.9643515E-01;  0.0000000E+00; -1.6713699E+00;0;  4.1922773E-03;  4.0010320E+04;  0.0000000E+00;  6.8183279E-01;  4.0000000E+04;  0.0000000E+00;  4.0006027E+04;  4.7289217E-03;  0.0000000E+00; -5.3664448E-04;  1.2638043E+03;
  1.5165396E-01;  9.9999998E-03; -1.9986860E-01;3371;  3.9273002E-03;  0.0000000E+00;  7.9188656E-05;  1.0002405E+03;  1.0000000E-01;  1.9920424E+02;3; -1.9329703E-01;  0.0000000E+00; -3.2130945E+00;0;  4.4271327E-03;  4.0014367E+04;  0.0000000E+00;  1.2000413E+00;  4.0000000E+04;  0.0000000E+00;  4.0009531E+04;  5.1261103E-03;  0.0000000E+00; -6.9897767E-04;  2.1548982E+03;
  1.5157455E-01;  9.9999998E-03; -2.0986916E-01;3370;  3.8494542E-03;  0.0000000E+00;  1.0224411E-04;  1.0002670E+03;  1.0000000E-01;  2.2112955E+02;3; -1.1375885E-01;  0.0000000E+00; -5.7120957E+00;0;  4.6801004E-03;  4.0009816E+04;  0.0000000E+00;  2.0632715E+00;  4.0000000E+04;  0.0000000E+00;  4.0017613E+04;  5.5336989E-03;  0.0000000E+00; -8.5359870E-04;  3.6966023E+03;
  1.5084086E-01;  9.9999998E-03; -2.6952389E-01;3364;  2.8251372E-03;  0.0000000E+00;  3.0800953E-04;  9.9796820E+02;  1.0000000E-01; -1.6833104E+03;3;  1.9312500E+01;  0.0000000E+00; -3.5867535E+01;0;  8.7127751E-03;  3.9778008E+04;  0.0000000E+00;  2.3185480E+01;  4.0000000E+04;  0.0000000E+00;  4.0064070E+04;  1.0000713E-02;  0.0000000E+00; -1.2879379E-03;  3.4861586E+04;
  1.5102495E-01;  9.9999998E-03; -2.5964707E-01;3365;  3.0081680E-03;  0.0000000E+00;  2.0833762E-04;  9.9855023E+02;  1.0000000E-01; -1.2011018E+03;3;  1.1567752E+01;  0.0000000E+00; -3.3100071E+01;0;  7.6749111E-03;  3.9826535E+04;  0.0000000E+00;  1.7265285E+01;  4.0000000E+04;  0.0000000E+00;  4.0061926E+04;  8.9899674E-03;  0.0000000E+00; -1.3150563E-03;  2.6480154E+04;
  1.5118636E-01;  9.9999998E-03; -2.4974507E-01;3366;  3.2269692E-03;  0.0000000E+00;  1.5120329E-04;  9.9911969E+02;  1.0000000E-01; -7.2931268E+02;3;  6.1786633E+00;  0.0000000E+00; -2.7589804E+01;0;  6.7730197E-03;  3.9878668E+04;  0.0000000E+00;  1.2289577E+01;  4.0000000E+04;  0.0000000E+00;  4.0056285E+04;  8.0681592E-03;  0.0000000E+00; -1.2951397E-03;  1.9354623E+04;
  1.5132010E-01;  9.9999998E-03; -2.3980898E-01;3367;  3.4326636E-03;  0.0000000E+00;  1.2702032E-04;  9.9961255E+02;  1.0000000E-01; -3.2097858E+02;3;  2.8566465E+00;  0.0000000E+00; -2.1023518E+01;0;  6.0195848E-03;  3.9926527E+04;  0.0000000E+00;  8.3879147E+00;  4.0000000E+04;  0.0000000E+00;  4.0047625E+04;  7.2500831E-03;  0.0000000E+00; -1.2304985E-03;  1.3672178E+04;
  1.5142274E-01;  9.9999998E-03; -2.2984409E-01;3368;  3.6068456E-03;  0.0000000E+00;  1.2058939E-04;  9.9997089E+02;  1.0000000E-01; -2.4098083E+01;3;  1.0483284E+00;  0.0000000E+00; -1.4693932E+01;0;  5.4320069E-03;  3.9966004E+04;  0.0000000E+00;  5.4843082E+00;  4.0000000E+04;  0.0000000E+00;  4.0038324E+04;  6.5600341E-03;  0.0000000E+00; -1.1280272E-03;  9.2975254E+03;
  1.5150133E-01;  9.9999998E-03; -2.1986106E-01;3369;  3.7446585E-03;  0.0000000E+00;  1.1530469E-04;  1.0001892E+03;  1.0000000E-01;  1.5673631E+02;3;  2.0235251E-01;  0.0000000E+00; -9.4959450E+00;0;  4.9985126E-03;  3.9993988E+04;  0.0000000E+00;  3.4330750E+00;  4.0000000E+04;  0.0000000E+00;  4.0027848E+04;  5.9971963E-03;  0.0000000E+00; -9.9868374E-04;  6.0301729E+03;
  1.6083585E-01;  9.9999998E-03; -2.6960495E-01;3425;  2.4336304E-03;  0.0000000E+00; -5.2285879E-05;  9.9805347E+02;  1.0000000E-01; -1.6126458E+03;3;  2.4545084E+01;  0.0000000E+00; -3.9399273E+01;0;  8.3635589E-03;  3.9773418E+04;  0.0000000E+00;  2.7585407E+01;  4.0000000E+04;  0.0000000E+00;  4.0074414E+04;  9.5269997E-03;  0.0000000E+00; -1.1634408E-03;  4.1643070E+04;
  1.6103171E-01;  9.9999998E-03; -2.5970647E-01;3426;  2.6368715E-03;  0.0000000E+00; -7.0968948E-05;  9.9864111E+02;  1.0000000E-01; -1.1257953E+03;3;  1.3751795E+01;  0.0000000E+00; -3.4977905E+01;0;  7.2413287E-03;  3.9826211E+04;  0.0000000E+00;  1.9780855E+01;  4.0000000E+04;  0.0000000E+00;  4.0068586E+04;  8.4516220E-03;  0.0000000E+00; -1.2102934E-03;  3.0429746E+04;
  1.6119091E-01;  9.9999998E-03; -2.4979690E-01;3427;  2.9084499E-03;  0.0000000E+00; -6.3855070E-05;  9.9923053E+02;  1.0000000E-01; -6.3751282E+02;3;  6.7034144E+00;  0.0000000E+00; -2.8206694E+01;0;  6.2997355E-03;  3.9883801E+04;  0.0000000E+00;  1.3670761E+01;  4.0000000E+04;  0.0000000E+00;  4.0059531E+04;  7.4856710E-03;  0.0000000E+00; -1.1859353E-03;  2.1500953E+04;
  1.6128330E-01;  9.9999998E-03; -2.3986118E-01;3428;  3.1800577E-03;  0.0000000E+00; -2.9634330E-05;  9.9977020E+02;  1.0000000E-01; -1.9036499E+02;3;  2.6433568E+00;  0.0000000E+00; -2.1088976E+01;0;  5.5032484E-03;  3.9938156E+04;  0.0000000E+00;  9.1633558E+00;  4.0000000E+04;  0.0000000E+00;  4.0047949E+04;  6.6091563E-03;  0.0000000E+00; -1.1059077E-03;  1.4785338E+04;
  1.6134475E-01;  9.9999998E-03; -2.2989915E-01;3429;  3.4075056E-03;  0.0000000E+00;  3.5511612E-06;  1.0001656E+03;  1.0000000E-01;  1.3718130E+02;3;  6.1050242E-01;  0.0000000E+00; -1.4612898E+01;0;  4.8697786E-03;  3.9981898E+04;  0.0000000E+00;  5.9001780E+00;  4.0000000E+04;  0.0000000E+00;  4.0037160E+04;  5.8440939E-03;  0.0000000E+00; -9.7431545E-04;  9.7820527E+03;
  1.6139774E-01;  9.9999998E-03; -2.1991532E-01;3430;  3.5814173E-03;  0.0000000E+00;  1.9889096E-05;  1.0004063E+03;  1.0000000E-01;  3.3658307E+02;3; -2.1326537E-01;  0.0000000E+00; -9.4286633E+00;0;  4.3907748E-03;  4.0012520E+04;  0.0000000E+00;  3.6045370E+00;  4.0000000E+04;  0.0000000E+00;  4.0026363E+04;  5.2049058E-03;  0.0000000E+00; -8.1413100E-04;  6.1124448E+03;
  1.6147675E-01;  9.9999998E-03; -2.0991628E-01;3431;  3.7103510E-03;  0.0000000E+00;  2.0063264E-05;  1.0005093E+03;  1.0000000E-01;  4.2201276E+02;3; -4.2015597E-01;  0.0000000E+00; -5.6982307E+00;0;  4.0273834E-03;  4.0029980E+04;  0.0000000E+00;  2.0628932E+00;  4.0000000E+04;  0.0000000E+00;  4.0015594E+04;  4.6746880E-03;  0.0000000E+00; -6.4730458E-04;  3.5240898E+03;
  1.6159651E-01;  9.9999998E-03; -1.9990045E-01;3432;  3.8055140E-03;  0.0000000E+00;  6.2119557E-06;  1.0005046E+03;  1.0000000E-01;  4.1806226E+02;3; -3.8017899E-01;  0.0000000E+00; -3.2306511E+00;0;  3.7310505E-03;  4.0036426E+04;  0.0000000E+00;  1.0910200E+00;  4.0000000E+04;  0.0000000E+00;  4.0007586E+04;  4.2141709E-03;  0.0000000E+00; -4.8312044E-04;  1.8360520E+03;
  1.6171223E-01;  9.9999998E-03; -1.8987790E-01;3433;  3.8727615E-03;  0.0000000E+00; -1.6222324E-05;  1.0004301E+03;  1.0000000E-01;  3.5633560E+02;3; -2.9037043E-01;  0.0000000E+00; -1.6973544E+00;0;  3.4579940E-03;  4.0034258E+04;  0.0000000E+00;  5.2116519E-01;  4.0000000E+04;  0.0000000E+00;  4.0004027E+04;  3.7822253E-03;  0.0000000E+00; -3.2423128E-04;  8.6595880E+02;
  1.6176280E-01;  9.9999998E-03; -1.7985195E-01;3434;  3.9192266E-03;  0.0000000E+00; -4.1720701E-05;  1.0003243E+03;  1.0000000E-01;  2.6863437E+02;3; -2.2610085E-01;  0.0000000E+00; -7.9827493E-01;0;  3.1746023E-03;  4.0026090E+04;  0.0000000E+00;  2.1008106E-01;  4.0000000E+04;  0.0000000E+00;  4.0003074E+04;  3.3450329E-03;  0.0000000E+00; -1.7043055E-04;  4.5090073E+02;
  1.6178049E-01;  9.9999998E-03; -1.6982844E-01;3435;  3.9485418E-03;  0.0000000E+00; -6.6089422E-05;  1.0002211E+03;  1.0000000E-01;  1.8310593E+02;3; -1.9674708E-01;  0.0000000E+00; -3.1515145E-01;0;  2.8545198E-03;  4.0014656E+04;  0.0000000E+00;  4.9048577E-02;  4.0000000E+04;  0.0000000E+00;  4.0005082E+04;  2.8755963E-03;  0.0000000E+00; -2.1076450E-05;  5.7285193E+02;
  1.6177537E-01;  9.9999998E-03; -1.5982705E-01;3436;  3.9633722E-03;  0.0000000E+00; -8.6146109E-05;  1.0001246E+03;  1.0000000E-01;  1.0330572E+02;3; -1.8802464E-01;  0.0000000E+00; -9.8668128E-02;0;  2.4861812E-03;  4.0003188E+04;  0.0000000E+00; -3.3183202E-02;  4.0000000E+04;  0.0000000E+00;  4.0008891E+04;  2.3663833E-03;  0.0000000E+00;  1.1979784E-04;  9.9830945E+02;
  1.6176273E-01;  9.9999998E-03; -1.4985183E-01;3437;  3.9668344E-03;  0.0000000E+00; -9.9068988E-05;  1.0000547E+03;  1.0000000E-01;  4.5332050E+01;3; -1.8590744E-01;  0.0000000E+00; -3.3298910E-02;0;  2.0709657E-03;  3.9993281E+04;  0.0000000E+00; -7.4531883E-02;  4.0000000E+04;  0.0000000E+00;  4.0012328E+04;  1.8258432E-03;  0.0000000E+00;  2.4512247E-04;  1.4758911E+03;
  1.6174756E-01;  9.9999998E-03; -1.3988492E-01;3438;  3.9622961E-03;  0.0000000E+00; -1.0268927E-04;  1.0000131E+03;  1.0000000E-01;  1.0863891E+01;3; -1.8446445E-01;  0.0000000E+00; -2.5873387E-02;0;  1.6228256E-03;  3.9986129E+04;  0.0000000E+00; -9.0934925E-02;  4.0000000E+04;  0.0000000E+00;  4.0014723E+04;  1.2757072E-03;  0.0000000E+00;  3.4711853E-04;  1.8696569E+03;
  1.6172765E-01;  9.9999998E-03; -1.2991558E-01;3439;  3.9548734E-03;  0.0000000E+00; -9.5790107E-05;  9.9999237E+02;  1.0000000E-01; -6.3208089E+00;3; -1.8318829E-01;  0.0000000E+00; -2.4315910E-02;0;  1.1676797E-03;  3.9982102E+04;  0.0000000E+00; -8.9918748E-02;  4.0000000E+04;  0.0000000E+00;  4.0017500E+04;  7.4716093E-04;  0.0000000E+00;  4.2051877E-04;  2.0946792E+03;
  1.6169809E-01;  9.9999998E-03; -1.1993704E-01;3440;  3.9482913E-03;  0.0000000E+00; -7.7004406E-05;  9.9998529E+02;  1.0000000E-01; -1.2197186E+01;3; -1.8137105E-01;  0.0000000E+00; -2.2644771E-02;0;  7.3925167E-04;  3.9981055E+04;  0.0000000E+00; -7.8468263E-02;  4.0000000E+04;  0.0000000E+00;  4.0018238E+04;  2.7453474E-04;  0.0000000E+00;  4.6471693E-04;  2.1183914E+03;
  1.6165924E-01;  9.9999998E-03; -1.0994653E-01;3441;  3.9468114E-03;  0.0000000E+00; -5.0069961E-05;  9.9998993E+02;  1.0000000E-01; -8.3454428E+00;3; -1.7955157E-01;  0.0000000E+00; -2.0877188E-02;0;  3.7030605E-04;  3.9982055E+04;  0.0000000E+00; -6.2943637E-02;  4.0000000E+04;  0.0000000E+00;  4.0017113E+04; -1.1120629E-04;  0.0000000E+00;  4.8151234E-04;  1.9681996E+03;
  1.7093347E-01;  9.9999998E-03; -2.6983011E-01;3486;  2.1199577E-03;  0.0000000E+00; -4.9773377E-04;  9.9774786E+02;  1.0000000E-01; -1.8658732E+03;3;  2.7562935E+01;  0.0000000E+00; -3.0760620E+01;0;  8.7670777E-03;  3.9759922E+04;  0.0000000E+00;  2.9289455E+01;  4.0000000E+04;  0.0000000E+00;  4.0061855E+04;  9.3053458E-03;  0.0000000E+00; -5.3826789E-04;  4.4216617E+04;
  1.7108455E-01;  9.9999998E-03; -2.5988573E-01;3487;  2.2533191E-03;  0.0000000E+00; -4.4899559E-04;  9.9850067E+02;  1.0000000E-01; -1.2421871E+03;3;  1.4734222E+01;  0.0000000E+00; -2.9780396E+01;0;  7.4100988E-03;  3.9824203E+04;  0.0000000E+00;  2.0669313E+01;  4.0000000E+04;  0.0000000E+00;  4.0059191E+04;  8.1297234E-03;  0.0000000E+00; -7.1962480E-04;  3.1675035E+04;
  1.7119330E-01;  9.9999998E-03; -2.4994931E-01;3488;  2.5647653E-03;  0.0000000E+00; -3.6302564E-04;  9.9920740E+02;  1.0000000E-01; -6.5667279E+02;3;  6.5863414E+00;  0.0000000E+00; -2.4794058E+01;0;  6.3793804E-03;  3.9889996E+04;  0.0000000E+00;  1.4149484E+01;  4.0000000E+04;  0.0000000E+00;  4.0049805E+04;  7.1999561E-03;  0.0000000E+00; -8.2057563E-04;  2.1985896E+04;
  1.7123081E-01;  9.9999998E-03; -2.3998879E-01;3489;  2.8940840E-03;  0.0000000E+00; -2.7221619E-04;  9.9983258E+02;  1.0000000E-01; -1.3871213E+02;3;  2.1270759E+00;  0.0000000E+00; -1.9023481E+01;0;  5.5158795E-03;  3.9950254E+04;  0.0000000E+00;  9.4888268E+00;  4.0000000E+04;  0.0000000E+00;  4.0040629E+04;  6.3258321E-03;  0.0000000E+00; -8.0995256E-04;  1.4947165E+04;
  1.7124227E-01;  9.9999998E-03; -2.3000382E-01;3490;  3.1873137E-03;  0.0000000E+00; -1.7291398E-04;  1.0002865E+03;  1.0000000E-01;  2.3732661E+02;3;  3.8236674E-02;  0.0000000E+00; -1.3452069E+01;0;  4.8073158E-03;  3.9997621E+04;  0.0000000E+00;  6.1112919E+00;  4.0000000E+04;  0.0000000E+00;  4.0029484E+04;  5.5307117E-03;  0.0000000E+00; -7.2339596E-04;  9.7495098E+03;
  1.7127565E-01;  9.9999998E-03; -2.2000183E-01;3491;  3.4199771E-03;  0.0000000E+00; -9.7228694E-05;  1.0005623E+03;  1.0000000E-01;  4.6586337E+02;3; -6.9267809E-01;  0.0000000E+00; -8.8140545E+00;0;  4.2638462E-03;  4.0029441E+04;  0.0000000E+00;  3.6837215E+00;  4.0000000E+04;  0.0000000E+00;  4.0019934E+04;  4.8428709E-03;  0.0000000E+00; -5.7902472E-04;  5.9097251E+03;
  1.7136361E-01;  9.9999998E-03; -2.0998317E-01;3492;  3.5829949E-03;  0.0000000E+00; -7.4995311E-05;  1.0006874E+03;  1.0000000E-01;  5.6956415E+02;3; -7.5494796E-01;  0.0000000E+00; -5.4087663E+00;0;  3.8525576E-03;  4.0048277E+04;  0.0000000E+00;  2.0170860E+00;  4.0000000E+04;  0.0000000E+00;  4.0010734E+04;  4.2615575E-03;  0.0000000E+00; -4.0899983E-04;  3.1974854E+03;
  1.7150390E-01;  9.9999998E-03; -1.9994883E-01;3493;  3.6953127E-03;  0.0000000E+00; -7.5728283E-05;  1.0007084E+03;  1.0000000E-01;  5.8684760E+02;3; -5.8201087E-01;  0.0000000E+00; -3.1129417E+00;0;  3.5142179E-03;  4.0055805E+04;  0.0000000E+00;  9.5263374E-01;  4.0000000E+04;  0.0000000E+00;  4.0003391E+04;  3.7614792E-03;  0.0000000E+00; -2.4726117E-04;  1.4438098E+03;
  1.7163010E-01;  9.9999998E-03; -1.8992218E-01;3494;  3.7715442E-03;  0.0000000E+00; -8.7988257E-05;  1.0006609E+03;  1.0000000E-01;  5.4754010E+02;3; -3.9428574E-01;  0.0000000E+00; -1.6587331E+00;0;  3.2044302E-03;  4.0055297E+04;  0.0000000E+00;  3.3487535E-01;  4.0000000E+04;  0.0000000E+00;  4.0000691E+04;  3.3048689E-03;  0.0000000E+00; -1.0043868E-04;  4.8679657E+02;
  1.7170505E-01;  9.9999998E-03; -1.7990410E-01;3495;  3.8187655E-03;  0.0000000E+00; -1.0395543E-04;  1.0005811E+03;  1.0000000E-01;  4.8136911E+02;3; -2.6988387E-01;  0.0000000E+00; -7.9138350E-01;0;  2.8883850E-03;  4.0048590E+04;  0.0000000E+00;  1.9472569E-02;  4.0000000E+04;  0.0000000E+00;  3.9999645E+04;  2.8548173E-03;  0.0000000E+00;  3.3567667E-05;  1.4200732E+02;
  1.7172650E-01;  9.9999998E-03; -1.6988800E-01;3496;  3.8416667E-03;  0.0000000E+00; -1.1802388E-04;  1.0004914E+03;  1.0000000E-01;  4.0709961E+02;3; -2.1091726E-01;  0.0000000E+00; -3.1720409E-01;0;  2.5427360E-03;  4.0038699E+04;  0.0000000E+00; -1.1379144E-01;  4.0000000E+04;  0.0000000E+00;  4.0001098E+04;  2.3854175E-03;  0.0000000E+00;  1.5731851E-04;  1.8145839E+02;
  1.7172371E-01;  9.9999998E-03; -1.5989634E-01;3497;  3.8450900E-03;  0.0000000E+00; -1.2670054E-04;  1.0004086E+03;  1.0000000E-01;  3.3845956E+02;3; -1.9110815E-01;  0.0000000E+00; -1.0166820E-01;0;  2.1573775E-03;  4.0027977E+04;  0.0000000E+00; -1.5255244E-01;  4.0000000E+04;  0.0000000E+00;  4.0005535E+04;  1.8875883E-03;  0.0000000E+00;  2.6978925E-04;  5.3555853E+02;
  1.7171593E-01;  9.9999998E-03; -1.4992361E-01;3498;  3.8348611E-03;  0.0000000E+00; -1.2886696E-04;  1.0003439E+03;  1.0000000E-01;  2.8493021E+02;3; -1.8696938E-01;  0.0000000E+00; -3.4629371E-02;0;  1.7343664E-03;  4.0018352E+04;  0.0000000E+00; -1.4921609E-01;  4.0000000E+04;  0.0000000E+00;  4.0007629E+04;  1.3677547E-03;  0.0000000E+00;  3.6661181E-04;  9.6051685E+02;
  1.7170344E-01;  9.9999998E-03; -1.3995638E-01;3499;  3.8174726E-03;  0.0000000E+00; -1.2265387E-04;  1.0002942E+03;  1.0000000E-01;  2.4374619E+02;3; -1.8503915E-01;  0.0000000E+00; -2.6488312E-02;0;  1.2885516E-03;  4.0011023E+04;  0.0000000E+00; -1.2838364E-01;  4.0000000E+04;  0.0000000E+00;  4.0010188E+04;  8.4599410E-04;  0.0000000E+00;  4.4255756E-04;  1.3188519E+03;
  1.7168163E-01;  9.9999998E-03; -1.2998448E-01;3500;  3.7985824E-03;  0.0000000E+00; -1.0781352E-04;  1.0002610E+03;  1.0000000E-01;  2.1629018E+02;3; -1.8332364E-01;  0.0000000E+00; -2.5293518E-02;0;  8.4642821E-04;  4.0006574E+04;  0.0000000E+00; -1.0090528E-01;  4.0000000E+04;  0.0000000E+00;  4.0012680E+04;  3.5138315E-04;  0.0000000E+00;  4.9504510E-04;  1.5262600E+03;
  1.7164548E-01;  9.9999998E-03; -1.2000335E-01;3501;  3.7836509E-03;  0.0000000E+00; -8.5340835E-05;  1.0002391E+03;  1.0000000E-01;  1.9811786E+02;3; -1.8162499E-01;  0.0000000E+00; -2.3701021E-02;0;  4.4055801E-04;  4.0003871E+04;  0.0000000E+00; -7.3688842E-02;  4.0000000E+04;  0.0000000E+00;  4.0012543E+04; -8.4468440E-05;  0.0000000E+00;  5.2502647E-04;  1.5518607E+03;
  1.7159431E-01;  9.9999998E-03; -1.1001222E-01;3502;  3.7782032E-03;  0.0000000E+00; -5.9564529E-05;  1.0002277E+03;  1.0000000E-01;  1.8863664E+02;3; -1.7961729E-01;  0.0000000E+00; -2.2488361E-02;0;  1.0102880E-04;  4.0003438E+04;  0.0000000E+00; -5.1358964E-02;  4.0000000E+04;  0.0000000E+00;  4.0012062E+04; -4.3380234E-04;  0.0000000E+00;  5.3483114E-04;  1.4193580E+03;
  1.8106896E-01;  9.9999998E-03; -2.7005878E-01;3547;  2.2052592E-03;  0.0000000E+00; -6.0387014E-04;  9.9712061E+02;  1.0000000E-01; -2.3855127E+03;3;  2.5564518E+01;  0.0000000E+00; -1.1538694E+01;0;  9.7967638E-03;  3.9740207E+04;  0.0000000E+00;  2.7583195E+01;  4.0000000E+04;  0.0000000E+00;  4.0030934E+04;  9.9257305E-03;  0.0000000E+00; -1.2896699E-04;  4.1804070E+04;
  1.8108004E-01;  9.9999998E-03; -2.6009277E-01;3548;  2.1045189E-03;  0.0000000E+00; -6.2988466E-04;  9.9820093E+02;  1.0000000E-01; -1.4904763E+03;3;  1.3030227E+01;  0.0000000E+00; -1.7577353E+01;0;  8.0856504E-03;  3.9826758E+04;  0.0000000E+00;  2.0123335E+01;  4.0000000E+04;  0.0000000E+00;  4.0032434E+04;  8.2840808E-03;  0.0000000E+00; -1.9843015E-04;  3.0614188E+04;
  1.8110950E-01;  9.9999998E-03; -2.5013566E-01;3549;  2.3373037E-03;  0.0000000E+00; -5.7386630E-04;  9.9905219E+02;  1.0000000E-01; -7.8526172E+02;3;  5.1475372E+00;  0.0000000E+00; -1.7172096E+01;0;  6.9512161E-03;  3.9900137E+04;  0.0000000E+00;  1.4020405E+01;  4.0000000E+04;  0.0000000E+00;  4.0027277E+04;  7.2808154E-03;  0.0000000E+00; -3.2959937E-04;  2.1341447E+04;
  1.8111335E-01;  9.9999998E-03; -2.4015418E-01;3550;  2.6665838E-03;  0.0000000E+00; -5.0120475E-04;  9.9974591E+02;  1.0000000E-01; -2.1051256E+02;3;  1.0382165E+00;  0.0000000E+00; -1.4566153E+01;0;  6.0408316E-03;  3.9961195E+04;  0.0000000E+00;  9.5363617E+00;  4.0000000E+04;  0.0000000E+00;  4.0022145E+04;  6.4132786E-03;  0.0000000E+00; -3.7244696E-04;  1.4499905E+04;
  1.8110581E-01;  9.9999998E-03; -2.3014227E-01;3551;  2.9892996E-03;  0.0000000E+00; -4.0157372E-04;  1.0002536E+03;  1.0000000E-01;  2.1006813E+02;3; -7.3153359E-01;  0.0000000E+00; -1.1090572E+01;0;  5.2636340E-03;  4.0007445E+04;  0.0000000E+00;  6.2014852E+00;  4.0000000E+04;  0.0000000E+00;  4.0017117E+04;  5.6145275E-03;  0.0000000E+00; -3.5089371E-04;  9.4148047E+03;
  1.8113758E-01;  9.9999998E-03; -2.2011144E-01;3552;  3.2648463E-03;  0.0000000E+00; -2.9271567E-04;  1.0005609E+03;  1.0000000E-01;  4.6467822E+02;3; -1.2122674E+00;  0.0000000E+00; -7.6371222E+00;0;  4.6386034E-03;  4.0038215E+04;  0.0000000E+00;  3.7122595E+00;  4.0000000E+04;  0.0000000E+00;  4.0010285E+04;  4.9072388E-03;  0.0000000E+00; -2.6863522E-04;  5.5985547E+03;
  1.8124452E-01;  9.9999998E-03; -2.1006000E-01;3553;  3.4737245E-03;  0.0000000E+00; -2.0782804E-04;  1.0007131E+03;  1.0000000E-01;  5.9079810E+02;3; -1.0833707E+00;  0.0000000E+00; -4.8513741E+00;0;  4.1564875E-03;  4.0055898E+04;  0.0000000E+00;  1.9484311E+00;  4.0000000E+04;  0.0000000E+00;  4.0003812E+04;  4.2998474E-03;  0.0000000E+00; -1.4335988E-04;  2.8840596E+03;
  1.8138687E-01;  9.9999998E-03; -2.0000745E-01;3554;  3.6120827E-03;  0.0000000E+00; -1.7371205E-04;  1.0007568E+03;  1.0000000E-01;  6.2694525E+02;3; -7.7079982E-01;  0.0000000E+00; -2.8556902E+00;0;  3.7703295E-03;  4.0064062E+04;  0.0000000E+00;  8.0388385E-01;  4.0000000E+04;  0.0000000E+00;  3.9998883E+04;  3.7765775E-03;  0.0000000E+00; -6.2481267E-06;  1.1882141E+03;
  1.8150781E-01;  9.9999998E-03; -1.8997154E-01;3555;  3.6975928E-03;  0.0000000E+00; -1.6805046E-04;  1.0007388E+03;  1.0000000E-01;  6.1203204E+02;3; -4.8936707E-01;  0.0000000E+00; -1.5464786E+00;0;  3.4228526E-03;  4.0064574E+04;  0.0000000E+00;  1.4406408E-01;  4.0000000E+04;  0.0000000E+00;  3.9995730E+04;  3.3055365E-03;  0.0000000E+00;  1.1731623E-04;  6.1519403E+02;
  1.8159780E-01;  9.9999998E-03; -1.7995092E-01;3556;  3.7437880E-03;  0.0000000E+00; -1.6886787E-04;  1.0006812E+03;  1.0000000E-01;  5.6432971E+02;3; -3.0999011E-01;  0.0000000E+00; -7.4641317E-01;0;  3.0767701E-03;  4.0059254E+04;  0.0000000E+00; -1.7174812E-01;  4.0000000E+04;  0.0000000E+00;  3.9995574E+04;  2.8517751E-03;  0.0000000E+00;  2.2499498E-04;  6.7594934E+02;
  1.8164058E-01;  9.9999998E-03; -1.6994926E-01;3557;  3.7602680E-03;  0.0000000E+00; -1.6782628E-04;  1.0006069E+03;  1.0000000E-01;  5.0280060E+02;3; -2.2330219E-01;  0.0000000E+00; -3.0335960E-01;0;  2.7095035E-03;  4.0051000E+04;  0.0000000E+00; -2.7323335E-01;  4.0000000E+04;  0.0000000E+00;  3.9997305E+04;  2.3898541E-03;  0.0000000E+00;  3.1964941E-04;  5.7019263E+02;
  1.8165176E-01;  9.9999998E-03; -1.5996566E-01;3558;  3.7532665E-03;  0.0000000E+00; -1.6165340E-04;  1.0005391E+03;  1.0000000E-01;  4.4660464E+02;3; -1.9342937E-01;  0.0000000E+00; -9.9965945E-02;0;  2.3116535E-03;  4.0041301E+04;  0.0000000E+00; -2.6473230E-01;  4.0000000E+04;  0.0000000E+00;  3.9999906E+04;  1.9098819E-03;  0.0000000E+00;  4.0177142E-04;  3.7897720E+02;
  1.8164602E-01;  9.9999998E-03; -1.4999390E-01;3559;  3.7309334E-03;  0.0000000E+00; -1.4991047E-04;  1.0004749E+03;  1.0000000E-01;  3.9337158E+02;3; -1.8655013E-01;  0.0000000E+00; -3.5927691E-02;0;  1.8862532E-03;  4.0032641E+04;  0.0000000E+00; -2.1429354E-01;  4.0000000E+04;  0.0000000E+00;  4.0002602E+04;  1.4174293E-03;  0.0000000E+00;  4.6882394E-04;  4.5950970E+02;
  1.8162443E-01;  9.9999998E-03; -1.4002320E-01;3560;  3.7004314E-03;  0.0000000E+00; -1.3377403E-04;  1.0004273E+03;  1.0000000E-01;  3.5406406E+02;3; -1.8457076E-01;  0.0000000E+00; -2.7779819E-02;0;  1.4487234E-03;  4.0025441E+04;  0.0000000E+00; -1.5627199E-01;  4.0000000E+04;  0.0000000E+00;  4.0004906E+04;  9.3068986E-04;  0.0000000E+00;  5.1803351E-04;  7.0435278E+02;
  1.8158846E-01;  9.9999998E-03; -1.3004613E-01;3561;  3.6711064E-03;  0.0000000E+00; -1.1368538E-04;  1.0003879E+03;  1.0000000E-01;  3.2137363E+02;3; -1.8265080E-01;  0.0000000E+00; -2.6893504E-02;0;  1.0257863E-03;  4.0020547E+04;  0.0000000E+00; -1.0472054E-01;  4.0000000E+04;  0.0000000E+00;  4.0006742E+04;  4.7639341E-04;  0.0000000E+00;  5.4939289E-04;  8.6636548E+02;
  1.8154265E-01;  9.9999998E-03; -1.2005966E-01;3562;  3.6485160E-03;  0.0000000E+00; -9.1046182E-05;  1.0003612E+03;  1.0000000E-01;  2.9925079E+02;3; -1.8085319E-01;  0.0000000E+00; -2.5568077E-02;0;  6.4829545E-04;  4.0017570E+04;  0.0000000E+00; -6.5420665E-02;  4.0000000E+04;  0.0000000E+00;  4.0007035E+04;  8.3202438E-05;  0.0000000E+00;  5.6509301E-04;  8.8205542E+02;
  1.8149102E-01;  9.9999998E-03; -1.1006545E-01;3563;  3.6392757E-03;  0.0000000E+00; -6.8722606E-05;  1.0003348E+03;  1.0000000E-01;  2.7742426E+02;3; -1.7900643E-01;  0.0000000E+00; -2.3345413E-02;0;  3.4314068E-04;  4.0015699E+04;  0.0000000E+00; -4.0052179E-02;  4.0000000E+04;  0.0000000E+00;  4.0006426E+04; -2.2462133E-04;  0.0000000E+00;  5.6776201E-04;  7.6471283E+02;
  1.9112433E-01;  9.9999998E-03; -2.7017000E-01;3608;  2.5964563E-03;  0.0000000E+00; -5.0931534E-04;  9.9667377E+02;  1.0000000E-01; -2.7557246E+03;3;  2.0713156E+01;  0.0000000E+00;  5.4201498E+00;0;  1.1226855E-02;  3.9732336E+04;  0.0000000E+00;  2.4848448E+01;  4.0000000E+04;  0.0000000E+00;  4.0002617E+04;  1.1299200E-02;  0.0000000E+00; -7.2344672E-05;  3.8091305E+04;
  1.9100569E-01;  9.9999998E-03; -2.6020792E-01;3609;  2.2388687E-03;  0.0000000E+00; -6.0617353E-04;  9.9798297E+02;  1.0000000E-01; -1.6710638E+03;3;  9.7193956E+00;  0.0000000E+00; -5.2312188E+00;0;  9.0631042E-03;  3.9837156E+04;  0.0000000E+00;  1.9497698E+01;  4.0000000E+04;  0.0000000E+00;  4.0004348E+04;  8.9624152E-03;  0.0000000E+00;  1.0068947E-04;  2.9680936E+04;
  1.9097117E-01;  9.9999998E-03; -2.5025365E-01;3610;  2.3157520E-03;  0.0000000E+00; -5.9160154E-04;  9.9886664E+02;  1.0000000E-01; -9.3898578E+02;3;  2.8226218E+00;  0.0000000E+00; -8.6426668E+00;0;  7.7548297E-03;  3.9911031E+04;  0.0000000E+00;  1.3987538E+01;  4.0000000E+04;  0.0000000E+00;  4.0001777E+04;  7.7298312E-03;  0.0000000E+00;  2.4998444E-05;  2.1122049E+04;
  1.9095464E-01;  9.9999998E-03; -2.4028125E-01;3611;  2.5800010E-03;  0.0000000E+00; -5.8244821E-04;  9.9953552E+02;  1.0000000E-01; -3.8482861E+02;3; -5.0129294E-01;  0.0000000E+00; -9.0304604E+00;0;  6.8518165E-03;  3.9967180E+04;  0.0000000E+00;  9.6443157E+00;  4.0000000E+04;  0.0000000E+00;  3.9999695E+04;  6.8211169E-03;  0.0000000E+00;  3.0699419E-05;  1.4425511E+04;
  1.9095086E-01;  9.9999998E-03; -2.3026629E-01;3612;  2.8858611E-03;  0.0000000E+00; -5.5852998E-04;  1.0000476E+03;  1.0000000E-01;  3.9406292E+01;3; -1.6541967E+00;  0.0000000E+00; -7.9801731E+00;0;  6.0852310E-03;  4.0007957E+04;  0.0000000E+00;  6.3105798E+00;  4.0000000E+04;  0.0000000E+00;  3.9999340E+04;  6.0222922E-03;  0.0000000E+00;  6.2938954E-05;  9.3539482E+03;
  1.9100343E-01;  9.9999998E-03; -2.2021268E-01;3613;  3.1672034E-03;  0.0000000E+00; -4.8245071E-04;  1.0003718E+03;  1.0000000E-01;  3.0804068E+02;3; -1.7267550E+00;  0.0000000E+00; -6.0814705E+00;0;  5.4060733E-03;  4.0034375E+04;  0.0000000E+00;  3.7448661E+00;  4.0000000E+04;  0.0000000E+00;  3.9999352E+04;  5.3141583E-03;  0.0000000E+00;  9.1915077E-05;  5.5153481E+03;
  1.9113117E-01;  9.9999998E-03; -2.1013133E-01;3614;  3.3942233E-03;  0.0000000E+00; -3.9144789E-04;  1.0005510E+03;  1.0000000E-01;  4.5648093E+02;3; -1.3622367E+00;  0.0000000E+00; -4.1084275E+00;0;  4.8539890E-03;  4.0049641E+04;  0.0000000E+00;  1.8866258E+00;  4.0000000E+04;  0.0000000E+00;  3.9996875E+04;  4.7018775E-03;  0.0000000E+00;  1.5211169E-04;  2.8012605E+03;
  1.9126149E-01;  9.9999998E-03; -2.0006722E-01;3615;  3.5578869E-03;  0.0000000E+00; -3.1740774E-04;  1.0006145E+03;  1.0000000E-01;  5.0912140E+02;3; -9.1813946E-01;  0.0000000E+00; -2.4914434E+00;0;  4.4052931E-03;  4.0056852E+04;  0.0000000E+00;  6.7237335E-01;  4.0000000E+04;  0.0000000E+00;  3.9993531E+04;  4.1726888E-03;  0.0000000E+00;  2.3260442E-04;  1.2876051E+03;
  1.9137648E-01;  9.9999998E-03; -1.9002193E-01;3616;  3.6619038E-03;  0.0000000E+00; -2.7340685E-04;  1.0006144E+03;  1.0000000E-01;  5.0902264E+02;3; -5.6011850E-01;  0.0000000E+00; -1.3732387E+00;0;  4.0133954E-03;  4.0057680E+04;  0.0000000E+00; -2.0250071E-02;  4.0000000E+04;  0.0000000E+00;  3.9991555E+04;  3.6991120E-03;  0.0000000E+00;  3.1428327E-04;  1.0629739E+03;
  1.9146419E-01;  9.9999998E-03; -1.8000238E-01;3617;  3.7152686E-03;  0.0000000E+00; -2.5321983E-04;  1.0005769E+03;  1.0000000E-01;  4.7791241E+02;3; -3.3804145E-01;  0.0000000E+00; -6.7062247E-01;0;  3.6377539E-03;  4.0053836E+04;  0.0000000E+00; -3.3000943E-01;  4.0000000E+04;  0.0000000E+00;  3.9991973E+04;  3.2509388E-03;  0.0000000E+00;  3.8681517E-04;  1.1685581E+03;
  1.9151463E-01;  9.9999998E-03; -1.7000856E-01;3618;  3.7296172E-03;  0.0000000E+00; -2.3513382E-04;  1.0005214E+03;  1.0000000E-01;  4.3198779E+02;3; -2.3141241E-01;  0.0000000E+00; -2.7663389E-01;0;  3.2533039E-03;  4.0046645E+04;  0.0000000E+00; -3.9712149E-01;  4.0000000E+04;  0.0000000E+00;  3.9993016E+04;  2.8049273E-03;  0.0000000E+00;  4.4837655E-04;  1.0401249E+03;
  1.9153513E-01;  9.9999998E-03; -1.6002852E-01;3619;  3.7132520E-03;  0.0000000E+00; -2.1126865E-04;  1.0004674E+03;  1.0000000E-01;  3.8724832E+02;3; -1.9401070E-01;  0.0000000E+00; -9.5095240E-02;0;  2.8502124E-03;  4.0038691E+04;  0.0000000E+00; -3.4262392E-01;  4.0000000E+04;  0.0000000E+00;  3.9995965E+04;  2.3511662E-03;  0.0000000E+00;  4.9904617E-04;  7.4359747E+02;
  1.9153200E-01;  9.9999998E-03; -1.5005241E-01;3620;  3.6763558E-03;  0.0000000E+00; -1.8299591E-04;  1.0004164E+03;  1.0000000E-01;  3.4497791E+02;3; -1.8538666E-01;  0.0000000E+00; -3.7971891E-02;0;  2.4311317E-03;  4.0031625E+04;  0.0000000E+00; -2.4944009E-01;  4.0000000E+04;  0.0000000E+00;  3.9998297E+04;  1.8941027E-03;  0.0000000E+00;  5.3702894E-04;  4.2693848E+02;
  1.9151105E-01;  9.9999998E-03; -1.4007340E-01;3621;  3.6305769E-03;  0.0000000E+00; -1.5372492E-04;  1.0003688E+03;  1.0000000E-01;  3.0557159E+02;3; -1.8354535E-01;  0.0000000E+00; -3.0359009E-02;0;  2.0118570E-03;  4.0025336E+04;  0.0000000E+00; -1.6073470E-01;  4.0000000E+04;  0.0000000E+00;  3.9999191E+04;  1.4505537E-03;  0.0000000E+00;  5.6130334E-04;  2.2868732E+02;
  1.9147721E-01;  9.9999998E-03; -1.3008736E-01;3622;  3.5876164E-03;  0.0000000E+00; -1.2725792E-04;  1.0003368E+03;  1.0000000E-01;  2.7900446E+02;3; -1.8180640E-01;  0.0000000E+00; -2.9485365E-02;0;  1.6185599E-03;  4.0020738E+04;  0.0000000E+00; -9.2338338E-02;  4.0000000E+04;  0.0000000E+00;  4.0001270E+04;  1.0449063E-03;  0.0000000E+00;  5.7365355E-04;  2.0541463E+02;
  1.9143912E-01;  9.9999998E-03; -1.2009370E-01;3623;  3.5552825E-03;  0.0000000E+00; -1.0379696E-04;  1.0003058E+03;  1.0000000E-01;  2.5332617E+02;3; -1.8018301E-01;  0.0000000E+00; -2.7530935E-02;0;  1.2794483E-03;  4.0018289E+04;  0.0000000E+00; -4.7424175E-02;  4.0000000E+04;  0.0000000E+00;  4.0001555E+04;  7.0251949E-04;  0.0000000E+00;  5.7692878E-04;  1.8150952E+02;
  1.9140758E-01;  9.9999998E-03; -1.1009470E-01;3624;  3.5401050E-03;  0.0000000E+00; -8.5065833E-05;  1.0002851E+03;  1.0000000E-01;  2.3624023E+02;3; -1.7838681E-01;  0.0000000E+00; -2.5537089E-02;0;  1.0178292E-03;  4.0016656E+04;  0.0000000E+00; -2.3817610E-02;  4.0000000E+04;  0.0000000E+00;  4.0000625E+04;  4.4399913E-04;  0.0000000E+00;  5.7383010E-04;  7.6699844E+01;
  2.0113136E-01;  9.9999998E-03; -2.7018932E-01;3669;  3.3147088E-03;  0.0000000E+00; -4.4908989E-04;  9.9650519E+02;  1.0000000E-01; -2.8953750E+03;3;  1.5428003E+01;  0.0000000E+00;  1.5025207E+01;0;  1.3455853E-02;  3.9734996E+04;  0.0000000E+00;  2.2565449E+01;  4.0000000E+04;  0.0000000E+00;  3.9986383E+04;  1.3351778E-02;  0.0000000E+00;  1.0407413E-04;  3.4957457E+04;
  2.0091100E-01;  9.9999998E-03; -2.6022607E-01;3670;  2.5626845E-03;  0.0000000E+00; -5.4210506E-04;  9.9791364E+02;  1.0000000E-01; -1.7284944E+03;3;  6.4891191E+00;  0.0000000E+00;  2.5910382E+00;0;  1.0278570E-02;  3.9849414E+04;  0.0000000E+00;  1.9648884E+01;  4.0000000E+04;  0.0000000E+00;  3.9986801E+04;  9.9286288E-03;  0.0000000E+00;  3.4994050E-04;  3.0009201E+04;
  2.0083089E-01;  9.9999998E-03; -2.5027180E-01;3671;  2.4575475E-03;  0.0000000E+00; -5.2351592E-04;  9.9872070E+02;  1.0000000E-01; -1.0598712E+03;3;  6.9945514E-01;  0.0000000E+00; -2.8121142E+00;0;  8.6464621E-03;  3.9918020E+04;  0.0000000E+00;  1.4515771E+01;  4.0000000E+04;  0.0000000E+00;  3.9984848E+04;  8.3856853E-03;  0.0000000E+00;  2.6077661E-04;  2.1990568E+04;
  2.0080444E-01;  9.9999998E-03; -2.4031585E-01;3672;  2.6388254E-03;  0.0000000E+00; -5.3219346E-04;  9.9927661E+02;  1.0000000E-01; -5.9929169E+02;3; -1.9049219E+00;  0.0000000E+00; -4.6852345E+00;0;  7.7125351E-03;  3.9964871E+04;  0.0000000E+00;  1.0027486E+01;  4.0000000E+04;  0.0000000E+00;  3.9982359E+04;  7.4135065E-03;  0.0000000E+00;  2.9902870E-04;  1.5143722E+04;
  2.0081790E-01;  9.9999998E-03; -2.3031698E-01;3673;  2.9013676E-03;  0.0000000E+00; -5.7603756E-04;  9.9971442E+02;  1.0000000E-01; -2.3658591E+02;3; -2.4596467E+00;  0.0000000E+00; -5.1720996E+00;0;  7.0110639E-03;  3.9996953E+04;  0.0000000E+00;  6.5045791E+00;  4.0000000E+04;  0.0000000E+00;  3.9984902E+04;  6.6139959E-03;  0.0000000E+00;  3.9706787E-04;  9.8236270E+03;
  2.0089699E-01;  9.9999998E-03; -2.2026008E-01;3674;  3.1635652E-03;  0.0000000E+00; -5.6537986E-04;  1.0000259E+03;  1.0000000E-01;  2.1431492E+01;3; -2.1225188E+00;  0.0000000E+00; -4.5465245E+00;0;  6.3390415E-03;  4.0016672E+04;  0.0000000E+00;  3.7970049E+00;  4.0000000E+04;  0.0000000E+00;  3.9988648E+04;  5.9173820E-03;  0.0000000E+00;  4.2165956E-04;  5.7710684E+03;
  2.0102572E-01;  9.9999998E-03; -2.1017414E-01;3675;  3.3896808E-03;  0.0000000E+00; -4.9291749E-04;  1.0002104E+03;  1.0000000E-01;  1.7431606E+02;3; -1.5454283E+00;  0.0000000E+00; -3.3050449E+00;0;  5.7365405E-03;  4.0028414E+04;  0.0000000E+00;  1.8485886E+00;  4.0000000E+04;  0.0000000E+00;  3.9990145E+04;  5.3149941E-03;  0.0000000E+00;  4.2154625E-04;  2.9817412E+03;
  2.0114093E-01;  9.9999998E-03; -2.0011276E-01;3676;  3.5662274E-03;  0.0000000E+00; -4.2190842E-04;  1.0002831E+03;  1.0000000E-01;  2.3456126E+02;3; -1.0005308E+00;  0.0000000E+00; -2.0725899E+00;0;  5.2367114E-03;  4.0034383E+04;  0.0000000E+00;  5.8259577E-01;  4.0000000E+04;  0.0000000E+00;  3.9988980E+04;  4.7930982E-03;  0.0000000E+00;  4.4361310E-04;  1.6001205E+03;
  2.0125364E-01;  9.9999998E-03; -1.9006799E-01;3677;  3.6831161E-03;  0.0000000E+00; -3.8582736E-04;  1.0003049E+03;  1.0000000E-01;  2.5263483E+02;3; -5.9234303E-01;  0.0000000E+00; -1.1651281E+00;0;  4.8057768E-03;  4.0034832E+04;  0.0000000E+00; -1.2567337E-01;  4.0000000E+04;  0.0000000E+00;  3.9989023E+04;  4.3284050E-03;  0.0000000E+00;  4.7737165E-04;  1.4446863E+03;
  2.0133904E-01;  9.9999998E-03; -1.8005751E-01;3678;  3.7436150E-03;  0.0000000E+00; -3.6044719E-04;  1.0002814E+03;  1.0000000E-01;  2.3307983E+02;3; -3.4839422E-01;  0.0000000E+00; -5.7537305E-01;0;  4.4024307E-03;  4.0031906E+04;  0.0000000E+00; -4.1920382E-01;  4.0000000E+04;  0.0000000E+00;  3.9988926E+04;  3.8955435E-03;  0.0000000E+00;  5.0688733E-04;  1.5189819E+03;
  2.0139450E-01;  9.9999998E-03; -1.7006898E-01;3679;  3.7589408E-03;  0.0000000E+00; -3.3077432E-04;  1.0002427E+03;  1.0000000E-01;  2.0108073E+02;3; -2.3339617E-01;  0.0000000E+00; -2.4216074E-01;0;  4.0060482E-03;  4.0026922E+04;  0.0000000E+00; -4.5107955E-01;  4.0000000E+04;  0.0000000E+00;  3.9990305E+04;  3.4748204E-03;  0.0000000E+00;  5.3122779E-04;  1.3806071E+03;
  2.0142274E-01;  9.9999998E-03; -1.6008680E-01;3680;  3.7339926E-03;  0.0000000E+00; -2.8962624E-04;  1.0002018E+03;  1.0000000E-01;  1.6720515E+02;3; -1.9267677E-01;  0.0000000E+00; -8.9673512E-02;0;  3.6069970E-03;  4.0021012E+04;  0.0000000E+00; -3.5740095E-01;  4.0000000E+04;  0.0000000E+00;  3.9992453E+04;  3.0571832E-03;  0.0000000E+00;  5.4981362E-04;  1.1048456E+03;
  2.0142518E-01;  9.9999998E-03; -1.5010247E-01;3681;  3.6806874E-03;  0.0000000E+00; -2.4100220E-04;  1.0001677E+03;  1.0000000E-01;  1.3886028E+02;3; -1.8357809E-01;  0.0000000E+00; -4.1637767E-02;0;  3.2068663E-03;  4.0015316E+04;  0.0000000E+00; -2.3286736E-01;  4.0000000E+04;  0.0000000E+00;  3.9993473E+04;  2.6462327E-03;  0.0000000E+00;  5.6063361E-04;  8.1815936E+02;
  2.0141076E-01;  9.9999998E-03; -1.4011201E-01;3682;  3.6168424E-03;  0.0000000E+00; -1.9398532E-04;  1.0001378E+03;  1.0000000E-01;  1.1416961E+02;3; -1.8211359E-01;  0.0000000E+00; -3.5063744E-02;0;  2.8204184E-03;  4.0010914E+04;  0.0000000E+00; -1.2619641E-01;  4.0000000E+04;  0.0000000E+00;  3.9994484E+04;  2.2571303E-03;  0.0000000E+00;  5.6328805E-04;  6.0207745E+02;
  2.0139167E-01;  9.9999998E-03; -1.3011460E-01;3683;  3.5575647E-03;  0.0000000E+00; -1.5646151E-04;  1.0001151E+03;  1.0000000E-01;  9.5305946E+01;3; -1.8039121E-01;  0.0000000E+00; -3.2891732E-02;0;  2.4716468E-03;  4.0008297E+04;  0.0000000E+00; -5.2381162E-02;  4.0000000E+04;  0.0000000E+00;  3.9996234E+04;  1.9114756E-03;  0.0000000E+00;  5.6017132E-04;  4.9472067E+02;
  2.0138147E-01;  9.9999998E-03; -1.2011188E-01;3684;  3.5139180E-03;  0.0000000E+00; -1.2962132E-04;  1.0001056E+03;  1.0000000E-01;  8.7503700E+01;3; -1.7881350E-01;  0.0000000E+00; -3.0874655E-02;0;  2.1847587E-03;  4.0006863E+04;  0.0000000E+00; -1.0517417E-02;  4.0000000E+04;  0.0000000E+00;  3.9996320E+04;  1.6306413E-03;  0.0000000E+00;  5.5411737E-04;  4.9687149E+02;
  2.0138668E-01;  9.9999998E-03; -1.1010593E-01;3685;  3.4918671E-03;  0.0000000E+00; -1.1326193E-04;  1.0000983E+03;  1.0000000E-01;  8.1479179E+01;3; -1.7697103E-01;  0.0000000E+00; -2.8730825E-02;0;  1.9775762E-03;  4.0007004E+04;  0.0000000E+00;  5.9335316E-03;  4.0000000E+04;  0.0000000E+00;  3.9995586E+04;  1.4299379E-03;  0.0000000E+00;  5.4763828E-04;  5.8180914E+02;
  2.1119866E-01;  9.9999998E-03; -2.7015725E-01;3730;  3.7247951E-03;  0.0000000E+00; -2.8512918E-04;  9.9642834E+02;  1.0000000E-01; -2.9590273E+03;3;  1.0599432E+01;  0.0000000E+00;  1.6891212E+01;0;  1.4185329E-02;  3.9731520E+04;  0.0000000E+00;  1.9108332E+01;  4.0000000E+04;  0.0000000E+00;  3.9984988E+04;  1.4398899E-02;  0.0000000E+00; -2.1356973E-04;  2.9856910E+04;
  2.1085219E-01;  9.9999998E-03; -2.6019382E-01;3731;  3.0865506E-03;  0.0000000E+00; -4.4745207E-04;  9.9790778E+02;  1.0000000E-01; -1.7333831E+03;3;  3.7910862E+00;  0.0000000E+00;  5.7916589E+00;0;  1.1516838E-02;  3.9855965E+04;  0.0000000E+00;  1.9983707E+01;  4.0000000E+04;  0.0000000E+00;  3.9980414E+04;  1.1023643E-02;  0.0000000E+00;  4.9319479E-04;  3.0446412E+04;
  2.1073021E-01;  9.9999998E-03; -2.5022620E-01;3732;  2.6992634E-03;  0.0000000E+00; -4.5597248E-04;  9.9863098E+02;  1.0000000E-01; -1.1341902E+03;3; -7.5161290E-01;  0.0000000E+00; -4.4576430E-01;0;  9.5260544E-03;  3.9916305E+04;  0.0000000E+00;  1.5271976E+01;  4.0000000E+04;  0.0000000E+00;  3.9978742E+04;  9.0272734E-03;  0.0000000E+00;  4.9878075E-04;  2.3075238E+04;
  2.1070798E-01;  9.9999998E-03; -2.4027011E-01;3733;  2.8144286E-03;  0.0000000E+00; -4.2599850E-04;  9.9902863E+02;  1.0000000E-01; -8.0476733E+02;3; -2.7461548E+00;  0.0000000E+00; -2.6143281E+00;0;  8.4642796E-03;  3.9951930E+04;  0.0000000E+00;  1.0452987E+01;  4.0000000E+04;  0.0000000E+00;  3.9975754E+04;  8.0123367E-03;  0.0000000E+00;  4.5194267E-04;  1.5849688E+04;
  2.1074054E-01;  9.9999998E-03; -2.3028389E-01;3734;  3.0414260E-03;  0.0000000E+00; -4.8717394E-04;  9.9934753E+02;  1.0000000E-01; -5.4057733E+02;3; -2.8973846E+00;  0.0000000E+00; -3.4856563E+00;0;  7.8208596E-03;  3.9974422E+04;  0.0000000E+00;  6.6582875E+00;  4.0000000E+04;  0.0000000E+00;  3.9977301E+04;  7.2225058E-03;  0.0000000E+00;  5.9835351E-04;  1.0226757E+04;
  2.1083823E-01;  9.9999998E-03; -2.2023448E-01;3735;  3.2675769E-03;  0.0000000E+00; -5.2136136E-04;  9.9960217E+02;  1.0000000E-01; -3.2957092E+02;3; -2.2872941E+00;  0.0000000E+00; -3.4214230E+00;0;  7.1879006E-03;  3.9987699E+04;  0.0000000E+00;  3.8114607E+00;  4.0000000E+04;  0.0000000E+00;  3.9983719E+04;  6.5394444E-03;  0.0000000E+00;  6.4845622E-04;  5.9689043E+03;
  2.1094948E-01;  9.9999998E-03; -2.1017101E-01;3736;  3.4891237E-03;  0.0000000E+00; -4.8026803E-04;  9.9976001E+02;  1.0000000E-01; -1.9880919E+02;3; -1.5935706E+00;  0.0000000E+00; -2.5922210E+00;0;  6.5730857E-03;  3.9996023E+04;  0.0000000E+00;  1.8191502E+00;  4.0000000E+04;  0.0000000E+00;  3.9986145E+04;  5.9552379E-03;  0.0000000E+00;  6.1784778E-04;  3.1611777E+03;
  2.1105799E-01;  9.9999998E-03; -2.0012443E-01;3737;  3.6806888E-03;  0.0000000E+00; -4.3274957E-04;  9.9983521E+02;  1.0000000E-01; -1.3653935E+02;3; -1.0018367E+00;  0.0000000E+00; -1.6705660E+00;0;  6.0462453E-03;  4.0000043E+04;  0.0000000E+00;  5.4302067E-01;  4.0000000E+04;  0.0000000E+00;  3.9986238E+04;  5.4494608E-03;  0.0000000E+00;  5.9678435E-04;  1.8273602E+03;
  2.1116644E-01;  9.9999998E-03; -1.9009888E-01;3738;  3.8096339E-03;  0.0000000E+00; -4.0626668E-04;  9.9985352E+02;  1.0000000E-01; -1.2137928E+02;3; -5.8316725E-01;  0.0000000E+00; -9.4866997E-01;0;  5.5867038E-03;  4.0000492E+04;  0.0000000E+00; -1.4915951E-01;  4.0000000E+04;  0.0000000E+00;  3.9986328E+04;  5.0012586E-03;  0.0000000E+00;  5.8544520E-04;  1.6502074E+03;
  2.1124548E-01;  9.9999998E-03; -1.8010594E-01;3739;  3.8635815E-03;  0.0000000E+00; -4.0235146E-04;  9.9984839E+02;  1.0000000E-01; -1.2562608E+02;3; -3.3650127E-01;  0.0000000E+00; -4.7661647E-01;0;  5.1659620E-03;  3.9998414E+04;  0.0000000E+00; -4.1129571E-01;  4.0000000E+04;  0.0000000E+00;  3.9987035E+04;  4.5913113E-03;  0.0000000E+00;  5.7465071E-04;  1.6772642E+03;
  2.1130008E-01;  9.9999998E-03; -1.7012586E-01;3740;  3.8597109E-03;  0.0000000E+00; -3.9770509E-04;  9.9983185E+02;  1.0000000E-01; -1.3930470E+02;3; -2.2374691E-01;  0.0000000E+00; -2.0807813E-01;0;  4.7673741E-03;  3.9994961E+04;  0.0000000E+00; -4.0914026E-01;  4.0000000E+04;  0.0000000E+00;  3.9988484E+04;  4.2051873E-03;  0.0000000E+00;  5.6218659E-04;  1.5412424E+03;
  2.1133067E-01;  9.9999998E-03; -1.6014397E-01;3741;  3.8162547E-03;  0.0000000E+00; -3.7270214E-04;  9.9980994E+02;  1.0000000E-01; -1.5747702E+02;3; -1.8643630E-01;  0.0000000E+00; -8.5543998E-02;0;  4.3844087E-03;  3.9991578E+04;  0.0000000E+00; -2.8883576E-01;  4.0000000E+04;  0.0000000E+00;  3.9989516E+04;  3.8352166E-03;  0.0000000E+00;  5.4919219E-04;  1.3285527E+03;
  2.1134390E-01;  9.9999998E-03; -1.5015186E-01;3742;  3.7463256E-03;  0.0000000E+00; -3.2490553E-04;  9.9979584E+02;  1.0000000E-01; -1.6913101E+02;3; -1.7976786E-01;  0.0000000E+00; -4.6826165E-02;0;  4.0191687E-03;  3.9988645E+04;  0.0000000E+00; -1.5074834E-01;  4.0000000E+04;  0.0000000E+00;  3.9990457E+04;  3.4839897E-03;  0.0000000E+00;  5.3517875E-04;  1.1491989E+03;
  2.1135195E-01;  9.9999998E-03; -1.4014654E-01;3743;  3.6611727E-03;  0.0000000E+00; -2.6163206E-04;  9.9978827E+02;  1.0000000E-01; -1.7540245E+02;3; -1.7899615E-01;  0.0000000E+00; -4.0976748E-02;0;  3.6834008E-03;  3.9987012E+04;  0.0000000E+00; -4.3733574E-02;  4.0000000E+04;  0.0000000E+00;  3.9991172E+04;  3.1634811E-03;  0.0000000E+00;  5.1991962E-04;  1.0464878E+03;
  2.1136817E-01;  9.9999998E-03; -1.3012989E-01;3744;  3.5819844E-03;  0.0000000E+00; -2.0598309E-04;  9.9979504E+02;  1.0000000E-01; -1.6982236E+02;3; -1.7796271E-01;  0.0000000E+00; -3.8579155E-02;0;  3.3960070E-03;  3.9986871E+04;  0.0000000E+00;  2.1352557E-02;  4.0000000E+04;  0.0000000E+00;  3.9991449E+04;  2.8908118E-03;  0.0000000E+00;  5.0519529E-04;  1.0173201E+03;
  2.1140666E-01;  9.9999998E-03; -1.2010739E-01;3745;  3.5250995E-03;  0.0000000E+00; -1.6973288E-04;  9.9981152E+02;  1.0000000E-01; -1.5614374E+02;3; -1.7659752E-01;  0.0000000E+00; -3.5646040E-02;0;  3.1750936E-03;  3.9988137E+04;  0.0000000E+00;  5.0565362E-02;  4.0000000E+04;  0.0000000E+00;  3.9991566E+04;  2.6819082E-03;  0.0000000E+00;  4.9318530E-04;  1.0464323E+03;
  2.1147801E-01;  9.9999998E-03; -1.1007903E-01;3746;  3.4963198E-03;  0.0000000E+00; -1.5253850E-04;  9.9983612E+02;  1.0000000E-01; -1.3574925E+02;3; -1.7506410E-01;  0.0000000E+00; -3.2741506E-02;0;  3.0326545E-03;  3.9990617E+04;  0.0000000E+00;  5.4456189E-02;  4.0000000E+04;  0.0000000E+00;  3.9991586E+04;  2.5467854E-03;  0.0000000E+00;  4.8586924E-04;  1.1191918E+03;
  2.2127764E-01;  9.9999998E-03; -2.7011228E-01;3791;  3.7401563E-03;  0.0000000E+00; -2.3642229E-04;  9.9650323E+02;  1.0000000E-01; -2.8970044E+03;3;  6.2283101E+00;  0.0000000E+00;  1.3836094E+01;0;  1.4033450E-02;  3.9732512E+04;  0.0000000E+00;  1.4909538E+01;  4.0000000E+04;  0.0000000E+00;  3.9992668E+04;  1.4086591E-02;  0.0000000E+00; -5.3141033E-05;  2.3459066E+04;
  2.2092366E-01;  9.9999998E-03; -2.6014024E-01;3792;  3.5484582E-03;  0.0000000E+00; -2.9781033E-04;  9.9782288E+02;  1.0000000E-01; -1.8037020E+03;3;  1.4777577E+00;  0.0000000E+00;  5.1834230E+00;0;  1.1979430E-02;  3.9846508E+04;  0.0000000E+00;  1.8087191E+01;  4.0000000E+04;  0.0000000E+00;  3.9985094E+04;  1.1651227E-02;  0.0000000E+00;  3.2820279E-04;  2.7501695E+04;
  2.2072037E-01;  9.9999998E-03; -2.5015911E-01;3793;  3.0146043E-03;  0.0000000E+00; -3.8357594E-04;  9.9851935E+02;  1.0000000E-01; -1.2266814E+03;3; -1.6844560E+00;  0.0000000E+00; -3.9183214E-01;0;  1.0189826E-02;  3.9904855E+04;  0.0000000E+00;  1.5134425E+01;  4.0000000E+04;  0.0000000E+00;  3.9983797E+04;  9.4836941E-03;  0.0000000E+00;  7.0613186E-04;  2.2711342E+04;
  2.2069900E-01;  9.9999998E-03; -2.4018599E-01;3794;  3.0628103E-03;  0.0000000E+00; -3.2721384E-04;  9.9880115E+02;  1.0000000E-01; -9.9320648E+02;3; -3.0219524E+00;  0.0000000E+00; -2.3386281E+00;0;  9.0138121E-03;  3.9929871E+04;  0.0000000E+00;  1.0346198E+01;  4.0000000E+04;  0.0000000E+00;  3.9979605E+04;  8.4389243E-03;  0.0000000E+00;  5.7488808E-04;  1.5556059E+04;
  2.2074905E-01;  9.9999998E-03; -2.3019500E-01;3795;  3.2833368E-03;  0.0000000E+00; -3.5862974E-04;  9.9899994E+02;  1.0000000E-01; -8.2851978E+02;3; -2.9092202E+00;  0.0000000E+00; -2.9268091E+00;0;  8.3703063E-03;  3.9944031E+04;  0.0000000E+00;  6.4896321E+00;  4.0000000E+04;  0.0000000E+00;  3.9980434E+04;  7.6775895E-03;  0.0000000E+00;  6.9271657E-04;  9.8851602E+03;
  2.2083284E-01;  9.9999998E-03; -2.2016300E-01;3796;  3.5044730E-03;  0.0000000E+00; -3.7243502E-04;  9.9917542E+02;  1.0000000E-01; -6.8314117E+02;3; -2.2200460E+00;  0.0000000E+00; -2.7614610E+00;0;  7.7440981E-03;  3.9952586E+04;  0.0000000E+00;  3.6905670E+00;  4.0000000E+04;  0.0000000E+00;  3.9984090E+04;  7.0164446E-03;  0.0000000E+00;  7.2765350E-04;  5.7621719E+03;
  2.2094262E-01;  9.9999998E-03; -2.1012548E-01;3797;  3.7869595E-03;  0.0000000E+00; -3.1460403E-04;  9.9928149E+02;  1.0000000E-01; -5.9529181E+02;3; -1.4998897E+00;  0.0000000E+00; -2.0642178E+00;0;  7.1350662E-03;  3.9957535E+04;  0.0000000E+00;  1.7523191E+00;  4.0000000E+04;  0.0000000E+00;  3.9985773E+04;  6.4592524E-03;  0.0000000E+00;  6.7581399E-04;  3.0795437E+03;
  2.2108233E-01;  9.9999998E-03; -2.0009655E-01;3798;  4.0866304E-03;  0.0000000E+00; -2.3958484E-04;  9.9933368E+02;  1.0000000E-01; -5.5203375E+02;3; -8.7655199E-01;  0.0000000E+00; -1.3112615E+00;0;  6.6069341E-03;  3.9960066E+04;  0.0000000E+00;  5.4078758E-01;  4.0000000E+04;  0.0000000E+00;  3.9985918E+04;  5.9749940E-03;  0.0000000E+00;  6.3194026E-04;  1.8120923E+03;
  2.2121046E-01;  9.9999998E-03; -1.9009320E-01;3799;  4.2606364E-03;  0.0000000E+00; -2.1624488E-04;  9.9935236E+02;  1.0000000E-01; -5.3657739E+02;3; -4.1243473E-01;  0.0000000E+00; -7.1501207E-01;0;  6.1498396E-03;  3.9960309E+04;  0.0000000E+00; -8.5694328E-02;  4.0000000E+04;  0.0000000E+00;  3.9986352E+04;  5.5421381E-03;  0.0000000E+00;  6.0770166E-04;  1.6248329E+03;
  2.2128500E-01;  9.9999998E-03; -1.8011810E-01;3800;  4.2649331E-03;  0.0000000E+00; -2.4640476E-04;  9.9936267E+02;  1.0000000E-01; -5.2803442E+02;3; -1.8905242E-01;  0.0000000E+00; -3.4320602E-01;0;  5.7344972E-03;  3.9959902E+04;  0.0000000E+00; -2.9694501E-01;  4.0000000E+04;  0.0000000E+00;  3.9986586E+04;  5.1559261E-03;  0.0000000E+00;  5.7857123E-04;  1.6253729E+03;
  2.2130825E-01;  9.9999998E-03; -1.7015153E-01;3801;  4.1677728E-03;  0.0000000E+00; -2.8689398E-04;  9.9936841E+02;  1.0000000E-01; -5.2324445E+02;3; -1.4744712E-01;  0.0000000E+00; -1.5210433E-01;0;  5.3499318E-03;  3.9958758E+04;  0.0000000E+00; -2.6488993E-01;  4.0000000E+04;  0.0000000E+00;  3.9987383E+04;  4.8096282E-03;  0.0000000E+00;  5.4030347E-04;  1.5207758E+03;
  2.2130896E-01;  9.9999998E-03; -1.6017728E-01;3802;  4.0230188E-03;  0.0000000E+00; -3.2088129E-04;  9.9937854E+02;  1.0000000E-01; -5.1484961E+02;3; -1.5756527E-01;  0.0000000E+00; -7.0345543E-02;0;  4.9968348E-03;  3.9957891E+04;  0.0000000E+00; -1.3573444E-01;  4.0000000E+04;  0.0000000E+00;  3.9988141E+04;  4.4960505E-03;  0.0000000E+00;  5.0078408E-04;  1.4032006E+03;
  2.2132944E-01;  9.9999998E-03; -1.5018116E-01;3803;  3.8789834E-03;  0.0000000E+00; -3.3027478E-04;  9.9939117E+02;  1.0000000E-01; -5.0438080E+02;3; -1.6957374E-01;  0.0000000E+00; -4.4920769E-02;0;  4.6812450E-03;  3.9958414E+04;  0.0000000E+00; -6.2545203E-03;  4.0000000E+04;  0.0000000E+00;  3.9988484E+04;  4.2166137E-03;  0.0000000E+00;  4.6463130E-04;  1.3493967E+03;
  2.2138496E-01;  9.9999998E-03; -1.4015518E-01;3804;  3.7583637E-03;  0.0000000E+00; -3.0901184E-04;  9.9941846E+02;  1.0000000E-01; -4.8181354E+02;3; -1.7524831E-01;  0.0000000E+00; -3.8148969E-02;0;  4.4124750E-03;  3.9960254E+04;  0.0000000E+00;  8.1288837E-02;  4.0000000E+04;  0.0000000E+00;  3.9988191E+04;  3.9786221E-03;  0.0000000E+00;  4.3385278E-04;  1.3533256E+03;
  2.2147588E-01;  9.9999998E-03; -1.3010135E-01;3805;  3.6591797E-03;  0.0000000E+00; -2.6661865E-04;  9.9946088E+02;  1.0000000E-01; -4.4665402E+02;3; -1.7579059E-01;  0.0000000E+00; -3.6481902E-02;0;  4.2013340E-03;  3.9963332E+04;  0.0000000E+00;  1.2330991E-01;  4.0000000E+04;  0.0000000E+00;  3.9988637E+04;  3.7914061E-03;  0.0000000E+00;  4.0992792E-04;  1.3855446E+03;
  2.2157697E-01;  9.9999998E-03; -1.2005018E-01;3806;  3.5869649E-03;  0.0000000E+00; -2.2310612E-04;  9.9951093E+02;  1.0000000E-01; -4.0517374E+02;3; -1.7377104E-01;  0.0000000E+00; -3.8805146E-02;0;  4.0551703E-03;  3.9967855E+04;  0.0000000E+00;  1.3079664E-01;  4.0000000E+04;  0.0000000E+00;  3.9988293E+04;  3.6607168E-03;  0.0000000E+00;  3.9445341E-04;  1.4293837E+03;
  2.2164565E-01;  9.9999998E-03; -1.1001956E-01;3807;  3.5501258E-03;  0.0000000E+00; -1.9976568E-04;  9.9957098E+02;  1.0000000E-01; -3.5544675E+02;3; -1.7208034E-01;  0.0000000E+00; -3.7507012E-02;0;  3.9736177E-03;  3.9972812E+04;  0.0000000E+00;  1.1700848E-01;  4.0000000E+04;  0.0000000E+00;  3.9988023E+04;  3.5845670E-03;  0.0000000E+00;  3.8905069E-04;  1.4784872E+03;
  2.3132625E-01;  9.9999998E-03; -2.7007383E-01;3852;  3.7095610E-03;  0.0000000E+00; -2.0718999E-04;  9.9676544E+02;  1.0000000E-01; -2.6797761E+03;3;  2.2481968E+00;  0.0000000E+00;  9.5878487E+00;0;  1.3500394E-02;  3.9747180E+04;  0.0000000E+00;  1.0998157E+01;  4.0000000E+04;  0.0000000E+00;  4.0000922E+04;  1.3266586E-02;  0.0000000E+00;  2.3380871E-04;  1.7490402E+04;
  2.3105080E-01;  9.9999998E-03; -2.6008824E-01;3853;  3.6191109E-03;  0.0000000E+00; -2.3957045E-04;  9.9777502E+02;  1.0000000E-01; -1.8433552E+03;3; -5.1577657E-01;  0.0000000E+00;  2.9320006E+00;0;  1.1785081E-02;  3.9835176E+04;  0.0000000E+00;  1.4329504E+01;  4.0000000E+04;  0.0000000E+00;  3.9994750E+04;  1.1284639E-02;  0.0000000E+00;  5.0044194E-04;  2.1840562E+04;
  2.3081394E-01;  9.9999998E-03; -2.5009385E-01;3854;  3.3014819E-03;  0.0000000E+00; -3.2389254E-04;  9.9838647E+02;  1.0000000E-01; -1.3367523E+03;3; -2.2992640E+00;  0.0000000E+00; -1.2620790E+00;0;  1.0487381E-02;  3.9886027E+04;  0.0000000E+00;  1.3294623E+01;  4.0000000E+04;  0.0000000E+00;  3.9992719E+04;  9.5618609E-03;  0.0000000E+00;  9.2552009E-04;  1.9873658E+04;
  2.3078160E-01;  9.9999998E-03; -2.4009851E-01;3855;  3.3258938E-03;  0.0000000E+00; -2.7281640E-04;  9.9860205E+02;  1.0000000E-01; -1.1581895E+03;3; -2.9297109E+00;  0.0000000E+00; -2.7035358E+00;0;  9.3219485E-03;  3.9904414E+04;  0.0000000E+00;  9.2841768E+00;  4.0000000E+04;  0.0000000E+00;  3.9989934E+04;  8.5550994E-03;  0.0000000E+00;  7.6684949E-04;  1.3827724E+04;
  2.3082681E-01;  9.9999998E-03; -2.3009391E-01;3856;  3.5906453E-03;  0.0000000E+00; -2.0007417E-04;  9.9871826E+02;  1.0000000E-01; -1.0618959E+03;3; -2.6291339E+00;  0.0000000E+00; -2.8297510E+00;0;  8.5018640E-03;  3.9913008E+04;  0.0000000E+00;  5.8488264E+00;  4.0000000E+04;  0.0000000E+00;  3.9989148E+04;  7.8471694E-03;  0.0000000E+00;  6.5469439E-04;  8.7422354E+03;
  2.3094553E-01;  9.9999998E-03; -2.2006766E-01;3857;  4.0127235E-03;  0.0000000E+00; -6.0312643E-05;  9.9880627E+02;  1.0000000E-01; -9.8895966E+02;3; -1.9143990E+00;  0.0000000E+00; -2.3600101E+00;0;  7.7818781E-03;  3.9916859E+04;  0.0000000E+00;  3.2889037E+00;  4.0000000E+04;  0.0000000E+00;  3.9989957E+04;  7.2552064E-03;  0.0000000E+00;  5.2667182E-04;  4.9880640E+03;
  2.3110962E-01;  9.9999998E-03; -2.1003753E-01;3858;  4.4000922E-03;  0.0000000E+00;  2.8358896E-05;  9.9885815E+02;  1.0000000E-01; -9.4599792E+02;3; -1.1329366E+00;  0.0000000E+00; -1.6089604E+00;0;  7.2320970E-03;  3.9919402E+04;  0.0000000E+00;  1.5744408E+00;  4.0000000E+04;  0.0000000E+00;  3.9989797E+04;  6.7015681E-03;  0.0000000E+00;  5.3052889E-04;  2.5842161E+03;
  2.3125149E-01;  9.9999998E-03; -2.0002873E-01;3859;  4.5431023E-03;  0.0000000E+00;  7.8900357E-06;  9.9888898E+02;  1.0000000E-01; -9.2046777E+02;3; -5.9206855E-01;  0.0000000E+00; -9.5588934E-01;0;  6.7726918E-03;  3.9921547E+04;  0.0000000E+00;  5.5613124E-01;  4.0000000E+04;  0.0000000E+00;  3.9988582E+04;  6.1916984E-03;  0.0000000E+00;  5.8099336E-04;  1.5098705E+03;
  2.3135500E-01;  9.9999998E-03; -1.9005078E-01;3860;  4.5924629E-03;  0.0000000E+00; -3.1204847E-05;  9.9891046E+02;  1.0000000E-01; -9.0264111E+02;3; -2.3789777E-01;  0.0000000E+00; -4.8791257E-01;0;  6.3424888E-03;  3.9923430E+04;  0.0000000E+00;  5.4659508E-02;  4.0000000E+04;  0.0000000E+00;  3.9987566E+04;  5.7662455E-03;  0.0000000E+00;  5.7624339E-04;  1.3849069E+03;
  2.3142524E-01;  9.9999998E-03; -1.8008770E-01;3861;  4.5804745E-03;  0.0000000E+00; -6.5099826E-05;  9.9893524E+02;  1.0000000E-01; -8.8214789E+02;3; -4.2336121E-02;  0.0000000E+00; -1.9983235E-01;0;  5.9490157E-03;  3.9924582E+04;  0.0000000E+00; -9.0332545E-02;  4.0000000E+04;  0.0000000E+00;  3.9987941E+04;  5.4159896E-03;  0.0000000E+00;  5.3302629E-04;  1.4004607E+03;
  2.3146628E-01;  9.9999998E-03; -1.7012486E-01;3862;  4.5204465E-03;  0.0000000E+00; -9.6386124E-05;  9.9896716E+02;  1.0000000E-01; -8.5567950E+02;3;  4.5134220E-02;  0.0000000E+00; -5.1366489E-02;0;  5.6008706E-03;  3.9926332E+04;  0.0000000E+00; -3.7707783E-02;  4.0000000E+04;  0.0000000E+00;  3.9988156E+04;  5.1267818E-03;  0.0000000E+00;  4.7408894E-04;  1.3673527E+03;
  2.3147820E-01;  9.9999998E-03; -1.6014795E-01;3863;  4.4085644E-03;  0.0000000E+00; -1.3271191E-04;  9.9900568E+02;  1.0000000E-01; -8.2377917E+02;3;  5.8614831E-02;  0.0000000E+00; -8.8285725E-04;0;  5.3001884E-03;  3.9928648E+04;  0.0000000E+00;  7.9018094E-02;  4.0000000E+04;  0.0000000E+00;  3.9987910E+04;  4.8871133E-03;  0.0000000E+00;  4.1307491E-04;  1.3678794E+03;
  2.3149128E-01;  9.9999998E-03; -1.5013844E-01;3864;  4.2186258E-03;  0.0000000E+00; -1.8309178E-04;  9.9905603E+02;  1.0000000E-01; -7.8205194E+02;3; -3.3372935E-02;  0.0000000E+00; -1.4838905E-02;0;  5.0489530E-03;  3.9932449E+04;  0.0000000E+00;  1.7682911E-01;  4.0000000E+04;  0.0000000E+00;  3.9987684E+04;  4.6909489E-03;  0.0000000E+00;  3.5800389E-04;  1.4257798E+03;
  2.3155482E-01;  9.9999998E-03; -1.4009622E-01;3865;  3.9730156E-03;  0.0000000E+00; -2.2093851E-04;  9.9912006E+02;  1.0000000E-01; -7.2901642E+02;3; -1.4037533E-01;  0.0000000E+00; -2.0708086E-02;0;  4.8532821E-03;  3.9937938E+04;  0.0000000E+00;  2.2640303E-01;  4.0000000E+04;  0.0000000E+00;  3.9987301E+04;  4.5397049E-03;  0.0000000E+00;  3.1357713E-04;  1.5009189E+03;
  2.3163503E-01;  9.9999998E-03; -1.3004786E-01;3866;  3.7961339E-03;  0.0000000E+00; -2.2951125E-04;  9.9919946E+02;  1.0000000E-01; -6.6324048E+02;3; -1.6527788E-01;  0.0000000E+00; -1.9104328E-02;0;  4.7182809E-03;  3.9944758E+04;  0.0000000E+00;  2.3282857E-01;  4.0000000E+04;  0.0000000E+00;  3.9986805E+04;  4.4356990E-03;  0.0000000E+00;  2.8258190E-04;  1.5600165E+03;
  2.3167978E-01;  9.9999998E-03; -1.2001357E-01;3867;  3.6957224E-03;  0.0000000E+00; -2.2332865E-04;  9.9928394E+02;  1.0000000E-01; -5.9326715E+02;3; -1.6845965E-01;  0.0000000E+00; -2.2555517E-02;0;  4.6404414E-03;  3.9952012E+04;  0.0000000E+00;  2.1168625E-01;  4.0000000E+04;  0.0000000E+00;  3.9986316E+04;  4.3742382E-03;  0.0000000E+00;  2.6620305E-04;  1.5968459E+03;
  2.3168705E-01;  9.9999998E-03; -1.0999724E-01;3868;  3.6532092E-03;  0.0000000E+00; -2.1938120E-04;  9.9937109E+02;  1.0000000E-01; -5.2102228E+02;3; -1.6641678E-01;  0.0000000E+00; -2.8676618E-02;0;  4.6129981E-03;  3.9959422E+04;  0.0000000E+00;  1.7740452E-01;  4.0000000E+04;  0.0000000E+00;  3.9986336E+04;  4.3488499E-03;  0.0000000E+00;  2.6414800E-04;  1.6200435E+03;
  2.4134223E-01;  9.9999998E-03; -2.7004364E-01;3913;  3.6860141E-03;  0.0000000E+00; -1.3236620E-04;  9.9716211E+02;  1.0000000E-01; -2.3511433E+03;3; -9.9047029E-01;  0.0000000E+00;  5.6100984E+00;0;  1.2350796E-02;  3.9775172E+04;  0.0000000E+00;  7.7550278E+00;  4.0000000E+04;  0.0000000E+00;  4.0006727E+04;  1.2192350E-02;  0.0000000E+00;  1.5844579E-04;  1.2597045E+04;
  2.4115443E-01;  9.9999998E-03; -2.6004887E-01;3914;  3.6078445E-03;  0.0000000E+00; -1.6539270E-04;  9.9784784E+02;  1.0000000E-01; -1.7830114E+03;3; -2.1293349E+00;  0.0000000E+00;  7.6954985E-01;0;  1.1039998E-02;  3.9834215E+04;  0.0000000E+00;  1.0310365E+01;  4.0000000E+04;  0.0000000E+00;  4.0002414E+04;  1.0522034E-02;  0.0000000E+00;  5.1796413E-04;  1.5859640E+04;
  2.4098010E-01;  9.9999998E-03; -2.5004497E-01;3915;  3.4675035E-03;  0.0000000E+00; -2.2072723E-04;  9.9826831E+02;  1.0000000E-01; -1.4346754E+03;3; -2.7402794E+00;  0.0000000E+00; -1.9926380E+00;0;  1.0086194E-02;  3.9868781E+04;  0.0000000E+00;  9.9651728E+00;  4.0000000E+04;  0.0000000E+00;  4.0001043E+04;  9.1966642E-03;  0.0000000E+00;  8.8952965E-04;  1.4966640E+04;
  2.4092934E-01;  9.9999998E-03; -2.4003379E-01;3916;  3.5490249E-03;  0.0000000E+00; -1.8402861E-04;  9.9844336E+02;  1.0000000E-01; -1.2896426E+03;3; -2.7217247E+00;  0.0000000E+00; -2.8496506E+00;0;  9.1115702E-03;  3.9882285E+04;  0.0000000E+00;  7.3636179E+00;  4.0000000E+04;  0.0000000E+00;  4.0000203E+04;  8.3152251E-03;  0.0000000E+00;  7.9634489E-04;  1.0967055E+04;
  2.4098837E-01;  9.9999998E-03; -2.3001157E-01;3917;  3.9968477E-03;  0.0000000E+00;  3.3885084E-05;  9.9850964E+02;  1.0000000E-01; -1.2347305E+03;3; -2.1814425E+00;  0.0000000E+00; -2.6415937E+00;0;  8.0552744E-03;  3.9886156E+04;  0.0000000E+00;  4.6891775E+00;  4.0000000E+04;  0.0000000E+00;  3.9999520E+04;  7.7044284E-03;  0.0000000E+00;  3.5084560E-04;  6.9651904E+03;
  2.4109977E-01;  9.9999998E-03; -2.1997750E-01;3918;  4.3821805E-03;  0.0000000E+00;  1.4098934E-04;  9.9855396E+02;  1.0000000E-01; -1.1980402E+03;3; -1.4562597E+00;  0.0000000E+00; -1.9814856E+00;0;  7.4514402E-03;  3.9888250E+04;  0.0000000E+00;  2.6981659E+00;  4.0000000E+04;  0.0000000E+00;  3.9998930E+04;  7.0924996E-03;  0.0000000E+00;  3.5894051E-04;  4.0077161E+03;
  2.4123137E-01;  9.9999998E-03; -2.0996299E-01;3919;  4.5557451E-03;  0.0000000E+00;  1.2782800E-04;  9.9856311E+02;  1.0000000E-01; -1.1904354E+03;3; -8.8009739E-01;  0.0000000E+00; -1.2650857E+00;0;  7.0072035E-03;  3.9890402E+04;  0.0000000E+00;  1.3764807E+00;  4.0000000E+04;  0.0000000E+00;  3.9995582E+04;  6.5115448E-03;  0.0000000E+00;  4.9565855E-04;  2.0877996E+03;
  2.4133532E-01;  9.9999998E-03; -1.9998236E-01;3920;  4.6415906E-03;  0.0000000E+00;  8.8198896E-05;  9.9857758E+02;  1.0000000E-01; -1.1784358E+03;3; -4.4241744E-01;  0.0000000E+00; -7.0570928E-01;0;  6.5715737E-03;  3.9893332E+04;  0.0000000E+00;  6.0805637E-01;  4.0000000E+04;  0.0000000E+00;  3.9992320E+04;  6.0232845E-03;  0.0000000E+00;  5.4828922E-04;  1.2301696E+03;
  2.4143170E-01;  9.9999998E-03; -1.9001710E-01;3921;  4.6680472E-03;  0.0000000E+00;  4.7035282E-05;  9.9860394E+02;  1.0000000E-01; -1.1566093E+03;3; -1.5561198E-01;  0.0000000E+00; -3.3562481E-01;0;  6.1551472E-03;  3.9896535E+04;  0.0000000E+00;  2.5233901E-01;  4.0000000E+04;  0.0000000E+00;  3.9990363E+04;  5.6286547E-03;  0.0000000E+00;  5.2649243E-04;  1.1095859E+03;
  2.4152510E-01;  9.9999998E-03; -1.8005310E-01;3922;  4.6511455E-03;  0.0000000E+00;  1.4012244E-05;  9.9865784E+02;  1.0000000E-01; -1.1119685E+03;3; -9.8894227E-05;  0.0000000E+00; -1.1731845E-01;0;  5.7820142E-03;  3.9900375E+04;  0.0000000E+00;  1.7283453E-01;  4.0000000E+04;  0.0000000E+00;  3.9990773E+04;  5.3192847E-03;  0.0000000E+00;  4.6272963E-04;  1.1370212E+03;
  2.4162176E-01;  9.9999998E-03; -1.7007668E-01;3923;  4.5992858E-03;  0.0000000E+00; -6.2439904E-06;  9.9871967E+02;  1.0000000E-01; -1.0607107E+03;3;  6.8882897E-02;  0.0000000E+00; -9.6132476E-03;0;  5.4668002E-03;  3.9904926E+04;  0.0000000E+00;  2.2974031E-01;  4.0000000E+04;  0.0000000E+00;  3.9989949E+04;  5.0845514E-03;  0.0000000E+00;  3.8224884E-04;  1.1867788E+03;
  2.4171479E-01;  9.9999998E-03; -1.6007692E-01;3924;  4.5234496E-03;  0.0000000E+00; -1.8606152E-05;  9.9879547E+02;  1.0000000E-01; -9.9794708E+02;3;  9.2705235E-02;  0.0000000E+00;  2.5119031E-02;0;  5.2160723E-03;  3.9910812E+04;  0.0000000E+00;  3.1167293E-01;  4.0000000E+04;  0.0000000E+00;  3.9989301E+04;  4.9150521E-03;  0.0000000E+00;  3.0102039E-04;  1.2843049E+03;
  2.4178553E-01;  9.9999998E-03; -1.5005305E-01;3925;  4.4297334E-03;  0.0000000E+00; -3.2017448E-05;  9.9887927E+02;  1.0000000E-01; -9.2851697E+02;3;  9.5147587E-02;  0.0000000E+00;  2.7195655E-02;0;  5.0317147E-03;  3.9918410E+04;  0.0000000E+00;  3.5764113E-01;  4.0000000E+04;  0.0000000E+00;  3.9988473E+04;  4.8028654E-03;  0.0000000E+00;  2.2884907E-04;  1.3987698E+03;
  2.4180001E-01;  9.9999998E-03; -1.4002562E-01;3926;  4.3042176E-03;  0.0000000E+00; -6.1821724E-05;  9.9897821E+02;  1.0000000E-01; -8.4654395E+02;3;  6.9095433E-02;  0.0000000E+00;  1.3921520E-02;0;  4.9127950E-03;  3.9926738E+04;  0.0000000E+00;  3.5592675E-01;  4.0000000E+04;  0.0000000E+00;  3.9987961E+04;  4.7399770E-03;  0.0000000E+00;  1.7281790E-04;  1.4898943E+03;
  2.4176434E-01;  9.9999998E-03; -1.3000597E-01;3927;  4.1104909E-03;  0.0000000E+00; -1.0552014E-04;  9.9908160E+02;  1.0000000E-01; -7.6086737E+02;3; -4.4406679E-02;  0.0000000E+00; -3.3793771E-03;0;  4.8524966E-03;  3.9935898E+04;  0.0000000E+00;  3.2117748E-01;  4.0000000E+04;  0.0000000E+00;  3.9987184E+04;  4.7162115E-03;  0.0000000E+00;  1.3628500E-04;  1.5448562E+03;
  2.4170750E-01;  9.9999998E-03; -1.1999349E-01;3928;  3.9306316E-03;  0.0000000E+00; -1.3028449E-04;  9.9918250E+02;  1.0000000E-01; -6.7726477E+02;3; -1.1965733E-01;  0.0000000E+00; -6.9372845E-03;0;  4.8391749E-03;  3.9944668E+04;  0.0000000E+00;  2.7083638E-01;  4.0000000E+04;  0.0000000E+00;  3.9986902E+04;  4.7202841E-03;  0.0000000E+00;  1.1889077E-04;  1.5692544E+03;
  2.4165092E-01;  9.9999998E-03; -1.0999212E-01;3929;  3.8628050E-03;  0.0000000E+00; -1.4381333E-04;  9.9927399E+02;  1.0000000E-01; -6.0146448E+02;3; -1.2816727E-01;  0.0000000E+00; -1.3256828E-02;0;  4.8595415E-03;  3.9952305E+04;  0.0000000E+00;  2.1771629E-01;  4.0000000E+04;  0.0000000E+00;  3.9987117E+04;  4.7407714E-03;  0.0000000E+00;  1.1877031E-04;  1.5749354E+03;
  2.5132102E-01;  9.9999998E-03; -2.7002111E-01;3974;  3.6853906E-03;  0.0000000E+00; -3.8546743E-05;  9.9763599E+02;  1.0000000E-01; -1.9585619E+03;3; -3.2038081E+00;  0.0000000E+00;  2.5202062E+00;0;  1.0842645E-02;  3.9810875E+04;  0.0000000E+00;  5.5194268E+00;  4.0000000E+04;  0.0000000E+00;  4.0010688E+04;  1.1038505E-02;  0.0000000E+00; -1.9585952E-04;  9.2316514E+03;
  2.5119707E-01;  9.9999998E-03; -2.6002076E-01;3975;  3.6030125E-03;  0.0000000E+00; -8.4047133E-05;  9.9804364E+02;  1.0000000E-01; -1.6207937E+03;3; -3.1420529E+00;  0.0000000E+00; -7.3475736E-01;0;  1.0005930E-02;  3.9845930E+04;  0.0000000E+00;  7.2109556E+00;  4.0000000E+04;  0.0000000E+00;  4.0008352E+04;  9.6223149E-03;  0.0000000E+00;  3.8361418E-04;  1.1266678E+04;
  2.5108191E-01;  9.9999998E-03; -2.5001186E-01;3976;  3.5624919E-03;  0.0000000E+00; -1.2500068E-04;  9.9828485E+02;  1.0000000E-01; -1.4209475E+03;3; -2.9235179E+00;  0.0000000E+00; -2.3392687E+00;0;  9.3266154E-03;  3.9864414E+04;  0.0000000E+00;  7.0539613E+00;  4.0000000E+04;  0.0000000E+00;  4.0007672E+04;  8.5597169E-03;  0.0000000E+00;  7.6689827E-04;  1.0721686E+04;
  2.5103503E-01;  9.9999998E-03; -2.3999272E-01;3977;  3.7761822E-03;  0.0000000E+00; -4.6770678E-05;  9.9838519E+02;  1.0000000E-01; -1.3378387E+03;3; -2.4431744E+00;  0.0000000E+00; -2.6693571E+00;0;  8.3806068E-03;  3.9870695E+04;  0.0000000E+00;  5.4356098E+00;  4.0000000E+04;  0.0000000E+00;  4.0007117E+04;  7.8229960E-03;  0.0000000E+00;  5.5761065E-04;  8.2006826E+03;
  2.5108144E-01;  9.9999998E-03; -2.2995824E-01;3978;  4.2220042E-03;  0.0000000E+00;  1.3856789E-04;  9.9843085E+02;  1.0000000E-01; -1.3000126E+03;3; -1.7355680E+00;  0.0000000E+00; -2.2752974E+00;0;  7.4399402E-03;  3.9871414E+04;  0.0000000E+00;  3.5587821E+00;  4.0000000E+04;  0.0000000E+00;  4.0007727E+04;  7.2165187E-03;  0.0000000E+00;  2.2342149E-04;  5.4232188E+03;
  2.5118247E-01;  9.9999998E-03; -2.1992093E-01;3979;  4.4598742E-03;  0.0000000E+00;  1.7659825E-04;  9.9843872E+02;  1.0000000E-01; -1.2934943E+03;3; -1.1238232E+00;  0.0000000E+00; -1.6059583E+00;0;  6.9459188E-03;  3.9871555E+04;  0.0000000E+00;  2.1192186E+00;  4.0000000E+04;  0.0000000E+00;  4.0005961E+04;  6.5892874E-03;  0.0000000E+00;  3.5663144E-04;  3.2857356E+03;
  2.5126868E-01;  9.9999998E-03; -2.0992506E-01;3980;  4.5927982E-03;  0.0000000E+00;  1.7430384E-04;  9.9841132E+02;  1.0000000E-01; -1.3162097E+03;3; -6.5520471E-01;  0.0000000E+00; -9.5111585E-01;0;  6.4961547E-03;  3.9873867E+04;  0.0000000E+00;  1.2013251E+00;  4.0000000E+04;  0.0000000E+00;  3.9999523E+04;  6.0348529E-03;  0.0000000E+00;  4.6130185E-04;  1.7978220E+03;
  2.5137255E-01;  9.9999998E-03; -1.9995391E-01;3981;  4.6568457E-03;  0.0000000E+00;  1.3859877E-04;  9.9842169E+02;  1.0000000E-01; -1.3076173E+03;3; -3.0374447E-01;  0.0000000E+00; -4.9898288E-01;0;  6.0671899E-03;  3.9877715E+04;  0.0000000E+00;  6.8332505E-01;  4.0000000E+04;  0.0000000E+00;  3.9995500E+04;  5.5720219E-03;  0.0000000E+00;  4.9516803E-04;  1.0864393E+03;
  2.5149208E-01;  9.9999998E-03; -1.8998797E-01;3982;  4.6732938E-03;  0.0000000E+00;  9.9203797E-05;  9.9847717E+02;  1.0000000E-01; -1.2616433E+03;3; -8.2295306E-02;  0.0000000E+00; -2.1734045E-01;0;  5.6595979E-03;  3.9882969E+04;  0.0000000E+00;  4.7009283E-01;  4.0000000E+04;  0.0000000E+00;  3.9993418E+04;  5.2040424E-03;  0.0000000E+00;  4.5555562E-04;  9.4496472E+02;
  2.5162646E-01;  9.9999998E-03; -1.8001252E-01;3983;  4.6521374E-03;  0.0000000E+00;  7.1713948E-05;  9.9856335E+02;  1.0000000E-01; -1.1902379E+03;3;  3.2899812E-02;  0.0000000E+00; -6.0545720E-02;0;  5.3004879E-03;  3.9890027E+04;  0.0000000E+00;  4.4106048E-01;  4.0000000E+04;  0.0000000E+00;  3.9993102E+04;  4.9271551E-03;  0.0000000E+00;  3.7333296E-04;  9.8545734E+02;
  2.5176939E-01;  9.9999998E-03; -1.7001997E-01;3984;  4.6034185E-03;  0.0000000E+00;  5.6771929E-05;  9.9866766E+02;  1.0000000E-01; -1.1038207E+03;3;  8.2104594E-02;  0.0000000E+00;  1.0189430E-02;0;  5.0105480E-03;  3.9898660E+04;  0.0000000E+00;  4.8112598E-01;  4.0000000E+04;  0.0000000E+00;  3.9992430E+04;  4.7349371E-03;  0.0000000E+00;  2.7561086E-04;  1.0856755E+03;
  2.5189862E-01;  9.9999998E-03; -1.6001074E-01;3985;  4.5356276E-03;  0.0000000E+00;  5.0539373E-05;  9.9877966E+02;  1.0000000E-01; -1.0110331E+03;3;  9.8922670E-02;  0.0000000E+00;  3.1329203E-02;0;  4.7982903E-03;  3.9908441E+04;  0.0000000E+00;  5.0910091E-01;  4.0000000E+04;  0.0000000E+00;  3.9992043E+04;  4.6195011E-03;  0.0000000E+00;  1.7878904E-04;  1.2005720E+03;
  2.5196770E-01;  9.9999998E-03; -1.4999498E-01;3986;  4.4601215E-03;  0.0000000E+00;  4.7799669E-05;  9.9890350E+02;  1.0000000E-01; -9.0841876E+02;3;  1.0519449E-01;  0.0000000E+00;  3.2624476E-02;0;  4.6651703E-03;  3.9918941E+04;  0.0000000E+00;  4.9230671E-01;  4.0000000E+04;  0.0000000E+00;  3.9990812E+04;  4.5715594E-03;  0.0000000E+00;  9.3610804E-05;  1.2940248E+03;
  2.5195223E-01;  9.9999998E-03; -1.3998236E-01;3987;  4.3871659E-03;  0.0000000E+00;  4.2742035E-05;  9.9901855E+02;  1.0000000E-01; -8.1311279E+02;3;  1.0812522E-01;  0.0000000E+00;  2.9630380E-02;0;  4.6051471E-03;  3.9929344E+04;  0.0000000E+00;  4.3789491E-01;  4.0000000E+04;  0.0000000E+00;  3.9990012E+04;  4.5777448E-03;  0.0000000E+00;  2.7402248E-05;  1.3559580E+03;
  2.5187245E-01;  9.9999998E-03; -1.2997653E-01;3988;  4.3125772E-03;  0.0000000E+00;  2.7431837E-05;  9.9912701E+02;  1.0000000E-01; -7.2323883E+02;3;  1.0003702E-01;  0.0000000E+00;  2.2764359E-02;0;  4.6040979E-03;  3.9939055E+04;  0.0000000E+00;  3.6570337E-01;  4.0000000E+04;  0.0000000E+00;  3.9989402E+04;  4.6204007E-03;  0.0000000E+00; -1.6302891E-05;  1.3902516E+03;
  2.5176233E-01;  9.9999998E-03; -1.1997706E-01;3989;  4.2364327E-03;  0.0000000E+00;  7.2452799E-06;  9.9922052E+02;  1.0000000E-01; -6.4580890E+02;3;  7.8629032E-02;  0.0000000E+00;  1.4009886E-02;0;  4.6422482E-03;  3.9947238E+04;  0.0000000E+00;  2.9165465E-01;  4.0000000E+04;  0.0000000E+00;  3.9989023E+04;  4.6797465E-03;  0.0000000E+00; -3.7498256E-05;  1.4023265E+03;
  2.5166562E-01;  9.9999998E-03; -1.0998386E-01;3990;  4.2013787E-03;  0.0000000E+00; -1.7252919E-06;  9.9929199E+02;  1.0000000E-01; -5.8655133E+02;3;  6.0576603E-02;  0.0000000E+00;  5.9452285E-03;0;  4.6975277E-03;  3.9953020E+04;  0.0000000E+00;  2.2529428E-01;  4.0000000E+04;  0.0000000E+00;  3.9989074E+04;  4.7365041E-03;  0.0000000E+00; -3.8976526E-05;  1.3992212E+03;
  2.6126516E-01;  9.9999998E-03; -2.7000475E-01;4035;  3.6694321E-03;  0.0000000E+00;  2.1419830E-05;  9.9810754E+02;  1.0000000E-01; -1.5678569E+03;3; -4.3084340E+00;  0.0000000E+00;  4.4543630E-01;0;  9.5276600E-03;  3.9848133E+04;  0.0000000E+00;  4.2342796E+00;  4.0000000E+04;  0.0000000E+00;  4.0012355E+04;  9.8965969E-03;  0.0000000E+00; -3.6893666E-04;  7.2368271E+03;
  2.6117891E-01;  9.9999998E-03; -2.6000145E-01;4036;  3.5997895E-03;  0.0000000E+00; -2.3551986E-05;  9.9830347E+02;  1.0000000E-01; -1.4055405E+03;3; -3.5170014E+00;  0.0000000E+00; -1.5271385E+00;0;  9.0024900E-03;  3.9864102E+04;  0.0000000E+00;  5.1901808E+00;  4.0000000E+04;  0.0000000E+00;  4.0011809E+04;  8.7172333E-03;  0.0000000E+00;  2.8525662E-04;  8.2686738E+03;
  2.6110056E-01;  9.9999998E-03; -2.4999031E-01;4037;  3.6318270E-03;  0.0000000E+00; -5.5459644E-05;  9.9839526E+02;  1.0000000E-01; -1.3294933E+03;3; -2.8052778E+00;  0.0000000E+00; -2.3086855E+00;0;  8.5003590E-03;  3.9869949E+04;  0.0000000E+00;  4.9842277E+00;  4.0000000E+04;  0.0000000E+00;  4.0011586E+04;  7.8347549E-03;  0.0000000E+00;  6.6560408E-04;  7.7411304E+03;
  2.6107049E-01;  9.9999998E-03; -2.3996820E-01;4038;  3.9249072E-03;  0.0000000E+00;  3.9619550E-05;  9.9842297E+02;  1.0000000E-01; -1.3065310E+03;3; -2.0710824E+00;  0.0000000E+00; -2.2667015E+00;0;  7.5668236E-03;  3.9869160E+04;  0.0000000E+00;  3.8578682E+00;  4.0000000E+04;  0.0000000E+00;  4.0011852E+04;  7.1733654E-03;  0.0000000E+00;  3.9345829E-04;  6.0296685E+03;
  2.6112387E-01;  9.9999998E-03; -2.2992864E-01;4039;  4.2738477E-03;  0.0000000E+00;  1.4499640E-04;  9.9844104E+02;  1.0000000E-01; -1.2915684E+03;3; -1.3478074E+00;  0.0000000E+00; -1.8074636E+00;0;  6.8208762E-03;  3.9866559E+04;  0.0000000E+00;  2.5532997E+00;  4.0000000E+04;  0.0000000E+00;  4.0013578E+04;  6.5482608E-03;  0.0000000E+00;  2.7261543E-04;  4.2392930E+03;
  2.6120126E-01;  9.9999998E-03; -2.1989895E-01;4040;  4.4670929E-03;  0.0000000E+00;  1.9330427E-04;  9.9841882E+02;  1.0000000E-01; -1.3099877E+03;3; -8.3314919E-01;  0.0000000E+00; -1.1934283E+00;0;  6.2821098E-03;  3.9866211E+04;  0.0000000E+00;  1.6231714E+00;  4.0000000E+04;  0.0000000E+00;  4.0010434E+04;  5.9394389E-03;  0.0000000E+00;  3.4267080E-04;  2.8159717E+03;
  2.6130038E-01;  9.9999998E-03; -2.0990889E-01;4041;  4.5754779E-03;  0.0000000E+00;  1.9867376E-04;  9.9839246E+02;  1.0000000E-01; -1.3318142E+03;3; -4.5282954E-01;  0.0000000E+00; -6.6843039E-01;0;  5.8161672E-03;  3.9868758E+04;  0.0000000E+00;  1.0497586E+00;  4.0000000E+04;  0.0000000E+00;  4.0003516E+04;  5.4024532E-03;  0.0000000E+00;  4.1371409E-04;  1.6724247E+03;
  2.6142815E-01;  9.9999998E-03; -1.9993879E-01;4042;  4.6257623E-03;  0.0000000E+00;  1.6754470E-04;  9.9842499E+02;  1.0000000E-01; -1.3048519E+03;3; -1.8146397E-01;  0.0000000E+00; -3.2784253E-01;0;  5.3812573E-03;  3.9874344E+04;  0.0000000E+00;  7.6189530E-01;  4.0000000E+04;  0.0000000E+00;  3.9998766E+04;  4.9541537E-03;  0.0000000E+00;  4.2710337E-04;  1.1212195E+03;
  2.6157445E-01;  9.9999998E-03; -1.8996611E-01;4043;  4.6331864E-03;  0.0000000E+00;  1.3431383E-04;  9.9851678E+02;  1.0000000E-01; -1.2288048E+03;3; -2.0231534E-02;  0.0000000E+00; -1.2654291E-01;0;  4.9713855E-03;  3.9883410E+04;  0.0000000E+00;  6.6598892E-01;  4.0000000E+04;  0.0000000E+00;  3.9996738E+04;  4.6011396E-03;  0.0000000E+00;  3.7024595E-04;  9.9778918E+02;
  2.6172802E-01;  9.9999998E-03; -1.7998067E-01;4044;  4.6102856E-03;  0.0000000E+00;  1.1261260E-04;  9.9864911E+02;  1.0000000E-01; -1.1191782E+03;3;  5.8959447E-02;  0.0000000E+00; -2.2487666E-02;0;  4.6181399E-03;  3.9894438E+04;  0.0000000E+00;  6.6073447E-01;  4.0000000E+04;  0.0000000E+00;  3.9995895E+04;  4.3444661E-03;  0.0000000E+00;  2.7367382E-04;  1.0261373E+03;
  2.6187143E-01;  9.9999998E-03; -1.6998126E-01;4045;  4.5642983E-03;  0.0000000E+00;  1.0231778E-04;  9.9880060E+02;  1.0000000E-01; -9.9370032E+02;3;  9.0293065E-02;  0.0000000E+00;  1.8704133E-02;0;  4.3444498E-03;  3.9907121E+04;  0.0000000E+00;  6.6353154E-01;  4.0000000E+04;  0.0000000E+00;  3.9994773E+04;  4.1808351E-03;  0.0000000E+00;  1.6361478E-04;  1.0820760E+03;
  2.6197967E-01;  9.9999998E-03; -1.5997419E-01;4046;  4.5037572E-03;  0.0000000E+00;  9.8372140E-05;  9.9895502E+02;  1.0000000E-01; -8.6575330E+02;3;  1.0132597E-01;  0.0000000E+00;  2.7640440E-02;0;  4.1587213E-03;  3.9920289E+04;  0.0000000E+00;  6.2887871E-01;  4.0000000E+04;  0.0000000E+00;  3.9993789E+04;  4.1027046E-03;  0.0000000E+00;  5.6016575E-05;  1.1193335E+03;
  2.6202500E-01;  9.9999998E-03; -1.4996780E-01;4047;  4.4394927E-03;  0.0000000E+00;  9.7704389E-05;  9.9909857E+02;  1.0000000E-01; -7.4679370E+02;3;  1.0726992E-01;  0.0000000E+00;  2.7873166E-02;0;  4.0588640E-03;  3.9933176E+04;  0.0000000E+00;  5.5265301E-01;  4.0000000E+04;  0.0000000E+00;  3.9992875E+04;  4.0976349E-03;  0.0000000E+00; -3.8771042E-05;  1.1359421E+03;
  2.6199245E-01;  9.9999998E-03; -1.3996392E-01;4048;  4.3829265E-03;  0.0000000E+00;  9.7020595E-05;  9.9921985E+02;  1.0000000E-01; -6.4635211E+02;3;  1.1275744E-01;  0.0000000E+00;  2.7215622E-02;0;  4.0343059E-03;  3.9944344E+04;  0.0000000E+00;  4.5506099E-01;  4.0000000E+04;  0.0000000E+00;  3.9992012E+04;  4.1479124E-03;  0.0000000E+00; -1.1360626E-04;  1.1467063E+03;
  2.6190004E-01;  9.9999998E-03; -1.2996392E-01;4049;  4.3417122E-03;  0.0000000E+00;  9.3097529E-05;  9.9931726E+02;  1.0000000E-01; -5.6561365E+02;3;  1.1656416E-01;  0.0000000E+00;  2.5978630E-02;0;  4.0659695E-03;  3.9953082E+04;  0.0000000E+00;  3.5582477E-01;  4.0000000E+04;  0.0000000E+00;  3.9991629E+04;  4.2307526E-03;  0.0000000E+00; -1.6478311E-04;  1.1561455E+03;
  2.6178926E-01;  9.9999998E-03; -1.1996953E-01;4050;  4.3189623E-03;  0.0000000E+00;  8.6699889E-05;  9.9938165E+02;  1.0000000E-01; -5.1228180E+02;3;  1.1747887E-01;  0.0000000E+00;  2.3106817E-02;0;  4.1286410E-03;  3.9959070E+04;  0.0000000E+00;  2.6756456E-01;  4.0000000E+04;  0.0000000E+00;  3.9991113E+04;  4.3207817E-03;  0.0000000E+00; -1.9214055E-04;  1.1602952E+03;
  2.6168862E-01;  9.9999998E-03; -1.0997844E-01;4051;  4.3327184E-03;  0.0000000E+00;  8.7487933E-05;  9.9941382E+02;  1.0000000E-01; -4.8561591E+02;3;  1.2347262E-01;  0.0000000E+00;  2.2322843E-02;0;  4.1965018E-03;  3.9962359E+04;  0.0000000E+00;  1.9597606E-01;  4.0000000E+04;  0.0000000E+00;  3.9991062E+04;  4.3947082E-03;  0.0000000E+00; -1.9820621E-04;  1.1545347E+03;
  2.7117720E-01;  9.9999998E-03; -2.6999357E-01;4096;  3.6252523E-03;  0.0000000E+00;  4.7091849E-05;  9.9850452E+02;  1.0000000E-01; -1.2389773E+03;3; -4.4363670E+00;  0.0000000E+00; -7.0580083E-01;0;  8.6260876E-03;  3.9880535E+04;  0.0000000E+00;  3.6144772E+00;  4.0000000E+04;  0.0000000E+00;  4.0013664E+04;  8.9062043E-03;  0.0000000E+00; -2.8011663E-04;  6.1620830E+03;
  2.7111483E-01;  9.9999998E-03; -2.5998881E-01;4097;  3.5808582E-03;  0.0000000E+00;  6.5402101E-06;  9.9854211E+02;  1.0000000E-01; -1.2078177E+03;3; -3.3229837E+00;  0.0000000E+00; -1.7416626E+00;0;  8.2627330E-03;  3.9882570E+04;  0.0000000E+00;  3.9132798E+00;  4.0000000E+04;  0.0000000E+00;  4.0013422E+04;  7.9276785E-03;  0.0000000E+00;  3.3505444E-04;  6.3602031E+03;
  2.7107129E-01;  9.9999998E-03; -2.4997768E-01;4098;  3.6595010E-03;  0.0000000E+00; -1.9393899E-05;  9.9853009E+02;  1.0000000E-01; -1.2177927E+03;3; -2.4242473E+00;  0.0000000E+00; -1.9887344E+00;0;  7.8217415E-03;  3.9878496E+04;  0.0000000E+00;  3.4528813E+00;  4.0000000E+04;  0.0000000E+00;  4.0013305E+04;  7.1577020E-03;  0.0000000E+00;  6.6403969E-04;  5.5814292E+03;
  2.7107611E-01;  9.9999998E-03; -2.3995620E-01;4099;  3.9598248E-03;  0.0000000E+00;  5.5064775E-05;  9.9850574E+02;  1.0000000E-01; -1.2379896E+03;3; -1.6444886E+00;  0.0000000E+00; -1.7517734E+00;0;  6.9498275E-03;  3.9873059E+04;  0.0000000E+00;  2.5563681E+00;  4.0000000E+04;  0.0000000E+00;  4.0014484E+04;  6.5166107E-03;  0.0000000E+00;  4.3321660E-04;  4.3381377E+03;
  2.7114493E-01;  9.9999998E-03; -2.2991979E-01;4100;  4.2711976E-03;  0.0000000E+00;  1.4052645E-04;  9.9850281E+02;  1.0000000E-01; -1.2404094E+03;3; -9.9724686E-01;  0.0000000E+00; -1.3004280E+00;0;  6.1993962E-03;  3.9869066E+04;  0.0000000E+00;  1.7264417E+00;  4.0000000E+04;  0.0000000E+00;  4.0016152E+04;  5.8891722E-03;  0.0000000E+00;  3.1022399E-04;  3.3778059E+03;
  2.7124077E-01;  9.9999998E-03; -2.1989803E-01;4101;  4.4372021E-03;  0.0000000E+00;  1.9507576E-04;  9.9848547E+02;  1.0000000E-01; -1.2547793E+03;3; -5.7529455E-01;  0.0000000E+00; -8.1146234E-01;0;  5.6036478E-03;  3.9869176E+04;  0.0000000E+00;  1.2065943E+00;  4.0000000E+04;  0.0000000E+00;  4.0012129E+04;  5.2850563E-03;  0.0000000E+00;  3.1859140E-04;  2.4746609E+03;
  2.7136469E-01;  9.9999998E-03; -2.0991126E-01;4102;  4.5272391E-03;  0.0000000E+00;  2.0485380E-04;  9.9848297E+02;  1.0000000E-01; -1.2568534E+03;3; -2.7974555E-01;  0.0000000E+00; -4.2918020E-01;0;  5.1057069E-03;  3.9874047E+04;  0.0000000E+00;  9.3344206E-01;  4.0000000E+04;  0.0000000E+00;  4.0006039E+04;  4.7494010E-03;  0.0000000E+00;  3.5630562E-04;  1.6418781E+03;
  2.7150846E-01;  9.9999998E-03; -1.9993766E-01;4103;  4.5660529E-03;  0.0000000E+00;  1.7968839E-04;  9.9855939E+02;  1.0000000E-01; -1.1934971E+03;3; -8.3636411E-02;  0.0000000E+00; -1.9368002E-01;0;  4.6485630E-03;  3.9882859E+04;  0.0000000E+00;  8.2759541E-01;  4.0000000E+04;  0.0000000E+00;  4.0001527E+04;  4.3004225E-03;  0.0000000E+00;  3.4814049E-04;  1.2613048E+03;
  2.7165854E-01;  9.9999998E-03; -1.8995768E-01;4104;  4.5699580E-03;  0.0000000E+00;  1.5454357E-04;  9.9870233E+02;  1.0000000E-01; -1.0750807E+03;3;  2.4788627E-02;  0.0000000E+00; -6.2202487E-02;0;  4.2245379E-03;  3.9895637E+04;  0.0000000E+00;  8.0404204E-01;  4.0000000E+04;  0.0000000E+00;  3.9999605E+04;  3.9481423E-03;  0.0000000E+00;  2.7639541E-04;  1.1672258E+03;
  2.7179804E-01;  9.9999998E-03; -1.7996621E-01;4105;  4.5473166E-03;  0.0000000E+00;  1.4029647E-04;  9.9888733E+02;  1.0000000E-01; -9.2185046E+02;3;  7.4788809E-02;  0.0000000E+00; -1.3707720E-03;0;  3.8669615E-03;  3.9910848E+04;  0.0000000E+00;  7.9146838E-01;  4.0000000E+04;  0.0000000E+00;  3.9998672E+04;  3.6971255E-03;  0.0000000E+00;  1.6983598E-04;  1.1394667E+03;
  2.7191010E-01;  9.9999998E-03; -1.6996516E-01;4106;  4.5058872E-03;  0.0000000E+00;  1.3427965E-04;  9.9907605E+02;  1.0000000E-01; -7.6545984E+02;3;  9.2980430E-02;  0.0000000E+00;  1.8891405E-02;0;  3.5979962E-03;  3.9926965E+04;  0.0000000E+00;  7.4462610E-01;  4.0000000E+04;  0.0000000E+00;  3.9997629E+04;  3.5457443E-03;  0.0000000E+00;  5.2251886E-05;  1.0896511E+03;
  2.7197826E-01;  9.9999998E-03; -1.5996170E-01;4107;  4.4532148E-03;  0.0000000E+00;  1.3212727E-04;  9.9925488E+02;  1.0000000E-01; -6.1731586E+02;3;  1.0096209E-01;  0.0000000E+00;  2.1600712E-02;0;  3.4234617E-03;  3.9942844E+04;  0.0000000E+00;  6.5228647E-01;  4.0000000E+04;  0.0000000E+00;  3.9995977E+04;  3.4856140E-03;  0.0000000E+00; -6.2152329E-05;  1.0114040E+03;
  2.7199349E-01;  9.9999998E-03; -1.4996114E-01;4108;  4.3987310E-03;  0.0000000E+00;  1.3047065E-04;  9.9941010E+02;  1.0000000E-01; -4.8872693E+02;3;  1.0671462E-01;  0.0000000E+00;  2.1348221E-02;0;  3.3373453E-03;  3.9956676E+04;  0.0000000E+00;  5.3150707E-01;  4.0000000E+04;  0.0000000E+00;  3.9994969E+04;  3.5010995E-03;  0.0000000E+00; -1.6375430E-04;  9.3918469E+02;
  2.7195042E-01;  9.9999998E-03; -1.3996261E-01;4109;  4.3528862E-03;  0.0000000E+00;  1.2793049E-04;  9.9952502E+02;  1.0000000E-01; -3.9351974E+02;3;  1.1221234E-01;  0.0000000E+00;  2.1437574E-02;0;  3.3251299E-03;  3.9967676E+04;  0.0000000E+00;  4.0667588E-01;  4.0000000E+04;  0.0000000E+00;  3.9994199E+04;  3.5707641E-03;  0.0000000E+00; -2.4563435E-04;  9.0162646E+02;
  2.7186587E-01;  9.9999998E-03; -1.2996618E-01;4110;  4.3244944E-03;  0.0000000E+00;  1.2321946E-04;  9.9959546E+02;  1.0000000E-01; -3.3515100E+02;3;  1.1870281E-01;  0.0000000E+00;  2.0961361E-02;0;  3.3643653E-03;  3.9974391E+04;  0.0000000E+00;  2.9418454E-01;  4.0000000E+04;  0.0000000E+00;  3.9993344E+04;  3.6682708E-03;  0.0000000E+00; -3.0390546E-04;  8.9547406E+02;
  2.7176759E-01;  9.9999998E-03; -1.1997263E-01;4111;  4.3190918E-03;  0.0000000E+00;  1.1487782E-04;  9.9962848E+02;  1.0000000E-01; -3.0779376E+02;3;  1.2425224E-01;  0.0000000E+00;  1.9716453E-02;0;  3.4279211E-03;  3.9977578E+04;  0.0000000E+00;  2.0287111E-01;  4.0000000E+04;  0.0000000E+00;  3.9992801E+04;  3.7658943E-03;  0.0000000E+00; -3.3797324E-04;  8.9999487E+02;
  2.7168289E-01;  9.9999998E-03; -1.0998037E-01;4112;  4.3458999E-03;  0.0000000E+00;  1.0984512E-04;  9.9961957E+02;  1.0000000E-01; -3.1520096E+02;3;  1.3578139E-01;  0.0000000E+00;  1.9933682E-02;0;  3.4881979E-03;  3.9977223E+04;  0.0000000E+00;  1.3489269E-01;  4.0000000E+04;  0.0000000E+00;  3.9992484E+04;  3.8382830E-03;  0.0000000E+00; -3.5008515E-04;  8.9614233E+02;
  2.8107145E-01;  9.9999998E-03; -2.6998636E-01;4157;  3.5600923E-03;  0.0000000E+00;  5.3824398E-05;  9.9877045E+02;  1.0000000E-01; -1.0186379E+03;3; -3.8577709E+00;  0.0000000E+00; -1.1455866E+00;0;  8.1651732E-03;  3.9902102E+04;  0.0000000E+00;  3.0979512E+00;  4.0000000E+04;  0.0000000E+00;  4.0013828E+04;  8.2008457E-03;  0.0000000E+00; -3.5672092E-05;  5.2472368E+03;
  2.8103885E-01;  9.9999998E-03; -2.5998136E-01;4158;  3.5512755E-03;  0.0000000E+00;  1.8556186E-05;  9.9870801E+02;  1.0000000E-01; -1.0703895E+03;3; -2.7444406E+00;  0.0000000E+00; -1.5727538E+00;0;  7.8425957E-03;  3.9895113E+04;  0.0000000E+00;  2.8009481E+00;  4.0000000E+04;  0.0000000E+00;  4.0013875E+04;  7.3710014E-03;  0.0000000E+00;  4.7159393E-04;  4.7372964E+03;
  2.8104460E-01;  9.9999998E-03; -2.4997149E-01;4159;  3.6558888E-03;  0.0000000E+00; -9.1026832E-06;  9.9863141E+02;  1.0000000E-01; -1.1338445E+03;3; -1.8847311E+00;  0.0000000E+00; -1.5260105E+00;0;  7.4086995E-03;  3.9886000E+04;  0.0000000E+00;  2.1456907E+00;  4.0000000E+04;  0.0000000E+00;  4.0014156E+04;  6.6584442E-03;  0.0000000E+00;  7.5025525E-04;  3.8311533E+03;
  2.8110129E-01;  9.9999998E-03; -2.3995343E-01;4160;  3.9501069E-03;  0.0000000E+00;  4.6307730E-05;  9.9858862E+02;  1.0000000E-01; -1.1693003E+03;3; -1.1950321E+00;  0.0000000E+00; -1.2234800E+00;0;  6.5364391E-03;  3.9878781E+04;  0.0000000E+00;  1.4995097E+00;  4.0000000E+04;  0.0000000E+00;  4.0015449E+04;  6.0108891E-03;  0.0000000E+00;  5.2555022E-04;  3.0931553E+03;
  2.8120258E-01;  9.9999998E-03; -2.2992425E-01;4161;  4.2398651E-03;  0.0000000E+00;  1.2471396E-04;  9.9859521E+02;  1.0000000E-01; -1.1638190E+03;3; -6.7593682E-01;  0.0000000E+00; -8.4410852E-01;0;  5.7099732E-03;  3.9875926E+04;  0.0000000E+00;  1.0896345E+00;  4.0000000E+04;  0.0000000E+00;  4.0016621E+04;  5.3671268E-03;  0.0000000E+00;  3.4284653E-04;  2.7696895E+03;
  2.8131226E-01;  9.9999998E-03; -2.1991086E-01;4162;  4.3896670E-03;  0.0000000E+00;  1.8656341E-04;  9.9860461E+02;  1.0000000E-01; -1.1560660E+03;3; -3.5509279E-01;  0.0000000E+00; -4.9697593E-01;0;  5.0312397E-03;  3.9878414E+04;  0.0000000E+00;  9.1486323E-01;  4.0000000E+04;  0.0000000E+00;  4.0013012E+04;  4.7495947E-03;  0.0000000E+00;  2.8164516E-04;  2.2241924E+03;
  2.8144383E-01;  9.9999998E-03; -2.0992552E-01;4163;  4.4626184E-03;  0.0000000E+00;  1.9562755E-04;  9.9865546E+02;  1.0000000E-01; -1.1139438E+03;3; -1.4436920E-01;  0.0000000E+00; -2.4682888E-01;0;  4.4887951E-03;  3.9886629E+04;  0.0000000E+00;  8.6252129E-01;  4.0000000E+04;  0.0000000E+00;  4.0007102E+04;  4.1974294E-03;  0.0000000E+00;  2.9136587E-04;  1.6457904E+03;
  2.8158286E-01;  9.9999998E-03; -1.9994766E-01;4164;  4.4954657E-03;  0.0000000E+00;  1.7845698E-04;  9.9878448E+02;  1.0000000E-01; -1.0070333E+03;3; -1.3334487E-02;  0.0000000E+00; -9.9851474E-02;0;  3.9917622E-03;  3.9899715E+04;  0.0000000E+00;  8.6341226E-01;  4.0000000E+04;  0.0000000E+00;  4.0003379E+04;  3.7310736E-03;  0.0000000E+00;  2.6068854E-04;  1.3925918E+03;
  2.8171337E-01;  9.9999998E-03; -1.8996301E-01;4165;  4.4982508E-03;  0.0000000E+00;  1.6344317E-04;  9.9898090E+02;  1.0000000E-01; -8.4432178E+02;3;  5.3539224E-02;  0.0000000E+00; -2.3933953E-02;0;  3.5402745E-03;  3.9916156E+04;  0.0000000E+00;  8.5972965E-01;  4.0000000E+04;  0.0000000E+00;  4.0001781E+04;  3.3633711E-03;  0.0000000E+00;  1.7690333E-04;  1.2942191E+03;
  2.8182095E-01;  9.9999998E-03; -1.7996760E-01;4166;  4.4789179E-03;  0.0000000E+00;  1.5692253E-04;  9.9920416E+02;  1.0000000E-01; -6.5933936E+02;3;  8.2544714E-02;  0.0000000E+00;  6.5802215E-03;0;  3.1659931E-03;  3.9934805E+04;  0.0000000E+00;  8.1496537E-01;  4.0000000E+04;  0.0000000E+00;  4.0000715E+04;  3.1010138E-03;  0.0000000E+00;  6.4979409E-05;  1.1875024E+03;
  2.8188771E-01;  9.9999998E-03; -1.6996622E-01;4167;  4.4433759E-03;  0.0000000E+00;  1.5541370E-04;  9.9942218E+02;  1.0000000E-01; -4.7870251E+02;3;  9.3764782E-02;  0.0000000E+00;  1.4208995E-02;0;  2.8877896E-03;  3.9953781E+04;  0.0000000E+00;  7.1848732E-01;  4.0000000E+04;  0.0000000E+00;  3.9999773E+04;  2.9435237E-03;  0.0000000E+00; -5.5733984E-05;  1.0299413E+03;
  2.8191558E-01;  9.9999998E-03; -1.5996520E-01;4168;  4.3988014E-03;  0.0000000E+00;  1.5476474E-04;  9.9961621E+02;  1.0000000E-01; -3.1796631E+02;3;  1.0017060E-01;  0.0000000E+00;  1.4314486E-02;0;  2.7075966E-03;  3.9970738E+04;  0.0000000E+00;  5.8455223E-01;  4.0000000E+04;  0.0000000E+00;  3.9998355E+04;  2.8809789E-03;  0.0000000E+00; -1.7338230E-04;  8.5269061E+02;
  2.8190607E-01;  9.9999998E-03; -1.4996751E-01;4169;  4.3543042E-03;  0.0000000E+00;  1.5268735E-04;  9.9976520E+02;  1.0000000E-01; -1.9451302E+02;3;  1.0609859E-01;  0.0000000E+00;  1.4300997E-02;0;  2.6162029E-03;  3.9984688E+04;  0.0000000E+00;  4.3990234E-01;  4.0000000E+04;  0.0000000E+00;  3.9997152E+04;  2.8953589E-03;  0.0000000E+00; -2.7915597E-04;  7.1431464E+02;
  2.8185982E-01;  9.9999998E-03; -1.3997102E-01;4170;  4.3180990E-03;  0.0000000E+00;  1.4775548E-04;  9.9986865E+02;  1.0000000E-01; -1.0883643E+02;3;  1.1222288E-01;  0.0000000E+00;  1.4652292E-02;0;  2.5962298E-03;  3.9994184E+04;  0.0000000E+00;  3.0565459E-01;  4.0000000E+04;  0.0000000E+00;  3.9996117E+04;  2.9623844E-03;  0.0000000E+00; -3.6615471E-04;  6.5192151E+02;
  2.8178698E-01;  9.9999998E-03; -1.2997492E-01;4171;  4.2983321E-03;  0.0000000E+00;  1.3942955E-04;  9.9990961E+02;  1.0000000E-01; -7.4911461E+01;3;  1.1882203E-01;  0.0000000E+00;  1.4321809E-02;0;  2.6235820E-03;  3.9998645E+04;  0.0000000E+00;  1.9417194E-01;  4.0000000E+04;  0.0000000E+00;  3.9995113E+04;  3.0537406E-03;  0.0000000E+00; -4.3015848E-04;  6.5152625E+02;
  2.8171158E-01;  9.9999998E-03; -1.1998025E-01;4172;  4.3012197E-03;  0.0000000E+00;  1.2776651E-04;  9.9990253E+02;  1.0000000E-01; -8.0738457E+01;3;  1.2533316E-01;  0.0000000E+00;  1.3219421E-02;0;  2.6701344E-03;  3.9998531E+04;  0.0000000E+00;  1.1070408E-01;  4.0000000E+04;  0.0000000E+00;  3.9994594E+04;  3.1403454E-03;  0.0000000E+00; -4.7021091E-04;  6.6871259E+02;
  2.8164929E-01;  9.9999998E-03; -1.0998519E-01;4173;  4.3326090E-03;  0.0000000E+00;  1.1659878E-04;  9.9985168E+02;  1.0000000E-01; -1.2286073E+02;3;  1.3723178E-01;  0.0000000E+00;  1.3128365E-02;0;  2.7089706E-03;  3.9994754E+04;  0.0000000E+00;  5.4533862E-02;  4.0000000E+04;  0.0000000E+00;  3.9994371E+04;  3.1969957E-03;  0.0000000E+00; -4.8802508E-04;  6.6942249E+02;
  2.9098460E-01;  9.9999998E-03; -2.6998207E-01;4218;  3.5035703E-03;  0.0000000E+00;  6.1765801E-05;  9.9887616E+02;  1.0000000E-01; -9.3108478E+02;3; -2.9033234E+00;  0.0000000E+00; -1.1135830E+00;0;  8.0272295E-03;  3.9910566E+04;  0.0000000E+00;  2.1810815E+00;  4.0000000E+04;  0.0000000E+00;  4.0013562E+04;  7.8669144E-03;  0.0000000E+00;  1.6031484E-04;  3.8831394E+03;
  2.9100320E-01;  9.9999998E-03; -2.5997770E-01;4219;  3.5323508E-03;  0.0000000E+00;  2.6695012E-05;  9.9876978E+02;  1.0000000E-01; -1.0192304E+03;3; -1.9901887E+00;  0.0000000E+00; -1.2021120E+00;0;  7.7150869E-03;  3.9899590E+04;  0.0000000E+00;  1.5754566E+00;  4.0000000E+04;  0.0000000E+00;  4.0014113E+04;  7.1221036E-03;  0.0000000E+00;  5.9298344E-04;  3.1230315E+03;
  2.9108110E-01;  9.9999998E-03; -2.4997011E-01;4220;  3.6554758E-03;  0.0000000E+00; -4.0508844E-06;  9.9867975E+02;  1.0000000E-01; -1.0937963E+03;3; -1.3031336E+00;  0.0000000E+00; -1.0398204E+00;0;  7.2413213E-03;  3.9889672E+04;  0.0000000E+00;  9.9801302E-01;  4.0000000E+04;  0.0000000E+00;  4.0014414E+04;  6.4231111E-03;  0.0000000E+00;  8.1821030E-04;  2.5265190E+03;
  2.9117298E-01;  9.9999998E-03; -2.3995723E-01;4221;  3.9313738E-03;  0.0000000E+00;  3.3328510E-05;  9.9865564E+02;  1.0000000E-01; -1.1137957E+03;3; -7.7751660E-01;  0.0000000E+00; -7.6509535E-01;0;  6.3405717E-03;  3.9884594E+04;  0.0000000E+00;  7.6192772E-01;  4.0000000E+04;  0.0000000E+00;  4.0015180E+04;  5.7447227E-03;  0.0000000E+00;  5.9584901E-04;  2.3679983E+03;
  2.9127237E-01;  9.9999998E-03; -2.2993720E-01;4222;  4.1925688E-03;  0.0000000E+00;  9.7799122E-05;  9.9869977E+02;  1.0000000E-01; -1.0772041E+03;3; -4.0609595E-01;  0.0000000E+00; -4.8838699E-01;0;  5.4407213E-03;  3.9885188E+04;  0.0000000E+00;  7.2123700E-01;  4.0000000E+04;  0.0000000E+00;  4.0015777E+04;  5.0659324E-03;  0.0000000E+00;  3.7478903E-04;  2.3824192E+03;
  2.9138362E-01;  9.9999998E-03; -2.1993080E-01;4223;  4.3353220E-03;  0.0000000E+00;  1.6799533E-04;  9.9876025E+02;  1.0000000E-01; -1.0270820E+03;3; -1.8374474E-01;  0.0000000E+00; -2.7031186E-01;0;  4.6516499E-03;  3.9891602E+04;  0.0000000E+00;  7.6340580E-01;  4.0000000E+04;  0.0000000E+00;  4.0012605E+04;  4.4159023E-03;  0.0000000E+00;  2.3574768E-04;  2.0414579E+03;
  2.9150429E-01;  9.9999998E-03; -2.0994590E-01;4224;  4.3959399E-03;  0.0000000E+00;  1.7731664E-04;  9.9887146E+02;  1.0000000E-01; -9.3498590E+02;3; -4.6470210E-02;  0.0000000E+00; -1.2390088E-01;0;  4.0457477E-03;  3.9903609E+04;  0.0000000E+00;  8.2163978E-01;  4.0000000E+04;  0.0000000E+00;  4.0008422E+04;  3.8298939E-03;  0.0000000E+00;  2.1585362E-04;  1.6406317E+03;
  2.9162213E-01;  9.9999998E-03; -1.9996500E-01;4225;  4.4234283E-03;  0.0000000E+00;  1.6921409E-04;  9.9905457E+02;  1.0000000E-01; -7.8328650E+02;3;  3.2269653E-02;  0.0000000E+00; -4.3470956E-02;0;  3.4942275E-03;  3.9920359E+04;  0.0000000E+00;  8.5080898E-01;  4.0000000E+04;  0.0000000E+00;  4.0005512E+04;  3.3299793E-03;  0.0000000E+00;  1.6424819E-04;  1.4453977E+03;
  2.9172641E-01;  9.9999998E-03; -1.8997577E-01;4226;  4.4272658E-03;  0.0000000E+00;  1.6383087E-04;  9.9929340E+02;  1.0000000E-01; -5.8541553E+02;3;  6.9348730E-02;  0.0000000E+00; -5.9261895E-03;0;  3.0034699E-03;  3.9940363E+04;  0.0000000E+00;  8.2441598E-01;  4.0000000E+04;  0.0000000E+00;  4.0004137E+04;  2.9308018E-03;  0.0000000E+00;  7.2668030E-05;  1.3089113E+03;
  2.9179293E-01;  9.9999998E-03; -1.7997882E-01;4227;  4.4120657E-03;  0.0000000E+00;  1.6430771E-04;  9.9954297E+02;  1.0000000E-01; -3.7865594E+02;3;  8.6135507E-02;  0.0000000E+00;  5.4428540E-03;0;  2.6008510E-03;  3.9961445E+04;  0.0000000E+00;  7.3698217E-01;  4.0000000E+04;  0.0000000E+00;  4.0002793E+04;  2.6409386E-03;  0.0000000E+00; -4.0087678E-05;  1.1209497E+03;
  2.9181808E-01;  9.9999998E-03; -1.6997719E-01;4228;  4.3832483E-03;  0.0000000E+00;  1.6674249E-04;  9.9977557E+02;  1.0000000E-01; -1.8592067E+02;3;  9.4358400E-02;  0.0000000E+00;  6.7418343E-03;0;  2.2997637E-03;  3.9981461E+04;  0.0000000E+00;  6.0274845E-01;  4.0000000E+04;  0.0000000E+00;  4.0001332E+04;  2.4596795E-03;  0.0000000E+00; -1.5991570E-04;  8.8123309E+02;
  2.9181495E-01;  9.9999998E-03; -1.5997742E-01;4229;  4.3476485E-03;  0.0000000E+00;  1.6809251E-04;  9.9997034E+02;  1.0000000E-01; -2.4591898E+01;3;  1.0052749E-01;  0.0000000E+00;  6.7448444E-03;0;  2.0987631E-03;  3.9998496E+04;  0.0000000E+00;  4.4887817E-01;  4.0000000E+04;  0.0000000E+00;  3.9999605E+04;  2.3761936E-03;  0.0000000E+00; -2.7743060E-04;  6.4205560E+02;
  2.9178920E-01;  9.9999998E-03; -1.4998025E-01;4230;  4.3125874E-03;  0.0000000E+00;  1.6592316E-04;  1.0001072E+03;  1.0000000E-01;  8.8886375E+01;3;  1.0582837E-01;  0.0000000E+00;  7.1540638E-03;0;  1.9865017E-03;  4.0011457E+04;  0.0000000E+00;  3.0069411E-01;  4.0000000E+04;  0.0000000E+00;  3.9998137E+04;  2.3709694E-03;  0.0000000E+00; -3.8446777E-04;  4.7513794E+02;
  2.9174188E-01;  9.9999998E-03; -1.3998416E-01;4231;  4.2855665E-03;  0.0000000E+00;  1.5908880E-04;  1.0001777E+03;  1.0000000E-01;  1.4725510E+02;3;  1.1126069E-01;  0.0000000E+00;  7.2565600E-03;0;  1.9438696E-03;  4.0018891E+04;  0.0000000E+00;  1.7336550E-01;  4.0000000E+04;  0.0000000E+00;  3.9997152E+04;  2.4178890E-03;  0.0000000E+00; -4.7401935E-04;  4.3110522E+02;
  2.9168269E-01;  9.9999998E-03; -1.2998769E-01;4232;  4.2733373E-03;  0.0000000E+00;  1.4747384E-04;  1.0001940E+03;  1.0000000E-01;  1.6078558E+02;3;  1.1779631E-01;  0.0000000E+00;  7.0884442E-03;0;  1.9457710E-03;  4.0020727E+04;  0.0000000E+00;  7.5433359E-02;  4.0000000E+04;  0.0000000E+00;  3.9996094E+04;  2.4873184E-03;  0.0000000E+00; -5.4154737E-04;  4.6949924E+02;
  2.9162717E-01;  9.9999998E-03; -1.1999071E-01;4233;  4.2825695E-03;  0.0000000E+00;  1.3270028E-04;  1.0001500E+03;  1.0000000E-01;  1.2424340E+02;3;  1.2573411E-01;  0.0000000E+00;  6.2613916E-03;0;  1.9645165E-03;  4.0018000E+04;  0.0000000E+00;  9.0086339E-03;  4.0000000E+04;  0.0000000E+00;  3.9995926E+04;  2.5501817E-03;  0.0000000E+00; -5.8566534E-04;  5.0881638E+02;
  2.9158491E-01;  9.9999998E-03; -1.0999158E-01;4234;  4.3150294E-03;  0.0000000E+00;  1.1737117E-04;  1.0000671E+03;  1.0000000E-01;  5.5603367E+01;3;  1.3766432E-01;  0.0000000E+00;  5.6213527E-03;0;  1.9744281E-03;  4.0011309E+04;  0.0000000E+00; -2.8889280E-02;  4.0000000E+04;  0.0000000E+00;  3.9996082E+04;  2.5820583E-03;  0.0000000E+00; -6.0763030E-04;  5.0959003E+02;
  3.0096269E-01;  9.9999998E-03; -2.6998013E-01;4279;  3.4791089E-03;  0.0000000E+00;  7.1312716E-05;  9.9885095E+02;  1.0000000E-01; -9.5197308E+02;3; -1.9083647E+00;  0.0000000E+00; -8.4089500E-01;0;  8.2090609E-03;  3.9907457E+04;  0.0000000E+00;  9.2932677E-01;  4.0000000E+04;  0.0000000E+00;  4.0014551E+04;  7.9069082E-03;  0.0000000E+00;  3.0215303E-04;  2.3896584E+03;
  3.0100608E-01;  9.9999998E-03; -2.5997719E-01;4280;  3.5423778E-03;  0.0000000E+00;  3.4858807E-05;  9.9875861E+02;  1.0000000E-01; -1.0284647E+03;3; -1.2722956E+00;  0.0000000E+00; -7.8976363E-01;0;  7.8595662E-03;  3.9897695E+04;  0.0000000E+00;  6.4140695E-01;  4.0000000E+04;  0.0000000E+00;  4.0014578E+04;  7.1880356E-03;  0.0000000E+00;  6.7153067E-04;  2.1834304E+03;
  3.0111653E-01;  9.9999998E-03; -2.4997273E-01;4281;  3.6836560E-03;  0.0000000E+00;  6.9393786E-06;  9.9870453E+02;  1.0000000E-01; -1.0732535E+03;3; -7.8473902E-01;  0.0000000E+00; -6.1971635E-01;0;  7.2735348E-03;  3.9891051E+04;  0.0000000E+00;  4.2268553E-01;  4.0000000E+04;  0.0000000E+00;  4.0014828E+04;  6.4680320E-03;  0.0000000E+00;  8.0550264E-04;  2.0526294E+03;
  3.0122682E-01;  9.9999998E-03; -2.3996545E-01;4282;  3.9253458E-03;  0.0000000E+00;  2.9155040E-05;  9.9871362E+02;  1.0000000E-01; -1.0657477E+03;3; -4.4057664E-01;  0.0000000E+00; -4.2252946E-01;0;  6.3311518E-03;  3.9890090E+04;  0.0000000E+00;  4.5721129E-01;  4.0000000E+04;  0.0000000E+00;  4.0014809E+04;  5.7394006E-03;  0.0000000E+00;  5.9175101E-04;  2.0608884E+03;
  3.0133006E-01;  9.9999998E-03; -2.2995445E-01;4283;  4.1344166E-03;  0.0000000E+00;  5.9441678E-05;  9.9879968E+02;  1.0000000E-01; -9.9444104E+02;3; -2.0137103E-01;  0.0000000E+00; -2.4702010E-01;0;  5.4224445E-03;  3.9895004E+04;  0.0000000E+00;  5.8380705E-01;  4.0000000E+04;  0.0000000E+00;  4.0014340E+04;  5.0094696E-03;  0.0000000E+00;  4.1297491E-04;  2.1077556E+03;
  3.0143139E-01;  9.9999998E-03; -2.1995436E-01;4284;  4.2788209E-03;  0.0000000E+00;  1.4123110E-04;  9.9891888E+02;  1.0000000E-01; -8.9567834E+02;3; -6.4764298E-02;  0.0000000E+00; -1.2748359E-01;0;  4.4942764E-03;  3.9905688E+04;  0.0000000E+00;  7.0509130E-01;  4.0000000E+04;  0.0000000E+00;  4.0012008E+04;  4.3121711E-03;  0.0000000E+00;  1.8210517E-04;  1.8729518E+03;
  3.0153307E-01;  9.9999998E-03; -2.0996989E-01;4285;  4.3336409E-03;  0.0000000E+00;  1.5495086E-04;  9.9908759E+02;  1.0000000E-01; -7.5592926E+02;3;  1.3008433E-02;  0.0000000E+00; -5.3797975E-02;0;  3.8064332E-03;  3.9921637E+04;  0.0000000E+00;  7.7580726E-01;  4.0000000E+04;  0.0000000E+00;  4.0008359E+04;  3.6793100E-03;  0.0000000E+00;  1.2712317E-04;  1.5782601E+03;
  3.0162600E-01;  9.9999998E-03; -1.9998521E-01;4286;  4.3580323E-03;  0.0000000E+00;  1.5345933E-04;  9.9932013E+02;  1.0000000E-01; -5.6324335E+02;3;  5.6491401E-02;  0.0000000E+00; -1.8151723E-02;0;  3.1934346E-03;  3.9941449E+04;  0.0000000E+00;  7.7709752E-01;  4.0000000E+04;  0.0000000E+00;  4.0006508E+04;  3.1339207E-03;  0.0000000E+00;  5.9513914E-05;  1.3949941E+03;
  3.0169398E-01;  9.9999998E-03; -1.8999259E-01;4287;  4.3630581E-03;  0.0000000E+00;  1.5701784E-04;  9.9958698E+02;  1.0000000E-01; -3.4216318E+02;3;  7.6588884E-02;  0.0000000E+00; -4.5903185E-03;0;  2.6558950E-03;  3.9963656E+04;  0.0000000E+00;  7.0761645E-01;  4.0000000E+04;  0.0000000E+00;  4.0004727E+04;  2.6920324E-03;  0.0000000E+00; -3.6137419E-05;  1.2052332E+03;
  3.0172431E-01;  9.9999998E-03; -1.7999436E-01;4288;  4.3523759E-03;  0.0000000E+00;  1.6482679E-04;  9.9985071E+02;  1.0000000E-01; -1.2370020E+02;3;  8.6676300E-02;  0.0000000E+00; -1.3391733E-03;0;  2.2163237E-03;  3.9985844E+04;  0.0000000E+00;  5.8290464E-01;  4.0000000E+04;  0.0000000E+00;  4.0003227E+04;  2.3624112E-03;  0.0000000E+00; -1.4608752E-04;  9.5248450E+02;
  3.0172071E-01;  9.9999998E-03; -1.6999246E-01;4289;  4.3304106E-03;  0.0000000E+00;  1.7176541E-04;  1.0000795E+03;  1.0000000E-01;  6.5874680E+01;3;  9.4098374E-02;  0.0000000E+00; -9.3347894E-04;0;  1.8826842E-03;  4.0006141E+04;  0.0000000E+00;  4.3016261E-01;  4.0000000E+04;  0.0000000E+00;  4.0001621E+04;  2.1441234E-03;  0.0000000E+00; -2.6143927E-04;  6.6372760E+02;
  3.0169705E-01;  9.9999998E-03; -1.5999225E-01;4290;  4.3033836E-03;  0.0000000E+00;  1.7423864E-04;  1.0002601E+03;  1.0000000E-01;  2.1550008E+02;3;  1.0001739E-01;  0.0000000E+00; -4.6730158E-04;0;  1.6506659E-03;  4.0022297E+04;  0.0000000E+00;  2.7715084E-01;  4.0000000E+04;  0.0000000E+00;  4.0000508E+04;  2.0260157E-03;  0.0000000E+00; -3.7534977E-04;  3.9743271E+02;
  3.0166134E-01;  9.9999998E-03; -1.4999500E-01;4291;  4.2775283E-03;  0.0000000E+00;  1.7126153E-04;  1.0003779E+03;  1.0000000E-01;  3.1307758E+02;3;  1.0563651E-01;  0.0000000E+00;  1.6409099E-04;0;  1.5072292E-03;  4.0033414E+04;  0.0000000E+00;  1.4157434E-01;  4.0000000E+04;  0.0000000E+00;  3.9998879E+04;  1.9876116E-03;  0.0000000E+00; -4.8038250E-04;  2.5145796E+02;
  3.0161709E-01;  9.9999998E-03; -1.3999806E-01;4292;  4.2591109E-03;  0.0000000E+00;  1.6240898E-04;  1.0004235E+03;  1.0000000E-01;  3.5080490E+02;3;  1.1141524E-01;  0.0000000E+00;  1.0212929E-04;0;  1.4323310E-03;  4.0038406E+04;  0.0000000E+00;  3.3882465E-02;  4.0000000E+04;  0.0000000E+00;  3.9997824E+04;  2.0017845E-03;  0.0000000E+00; -5.6945352E-04;  3.0270026E+02;
  3.0157295E-01;  9.9999998E-03; -1.3000007E-01;4293;  4.2549302E-03;  0.0000000E+00;  1.4822424E-04;  1.0004070E+03;  1.0000000E-01;  3.3717566E+02;3;  1.1732793E-01;  0.0000000E+00; -4.0553318E-04;0;  1.4008018E-03;  4.0038023E+04;  0.0000000E+00; -4.1071009E-02;  4.0000000E+04;  0.0000000E+00;  3.9996902E+04;  2.0385364E-03;  0.0000000E+00; -6.3773460E-04;  3.9824246E+02;
  3.0153835E-01;  9.9999998E-03; -1.2000058E-01;4294;  4.2690272E-03;  0.0000000E+00;  1.3119598E-04;  1.0003361E+03;  1.0000000E-01;  2.7841187E+02;3;  1.2666523E-01;  0.0000000E+00; -8.2104997E-04;0;  1.3859787E-03;  4.0033117E+04;  0.0000000E+00; -8.4011070E-02;  4.0000000E+04;  0.0000000E+00;  3.9996875E+04;  2.0694584E-03;  0.0000000E+00; -6.8347977E-04;  4.4536157E+02;
  3.0152044E-01;  9.9999998E-03; -1.0999875E-01;4295;  4.3022675E-03;  0.0000000E+00;  1.1381644E-04;  1.0002319E+03;  1.0000000E-01;  1.9209334E+02;3;  1.3839749E-01;  0.0000000E+00; -1.3702285E-03;0;  1.3636656E-03;  4.0024070E+04;  0.0000000E+00; -9.9822879E-02;  4.0000000E+04;  0.0000000E+00;  3.9997141E+04;  2.0712765E-03;  0.0000000E+00; -7.0761092E-04;  4.2946332E+02;
  3.1098020E-01;  9.9999998E-03; -2.6997998E-01;4340;  3.5042467E-03;  0.0000000E+00;  8.2130158E-05;  9.9874988E+02;  1.0000000E-01; -1.0357238E+03;3; -1.0967132E+00;  0.0000000E+00; -5.2020586E-01;0;  8.6385580E-03;  3.9897898E+04;  0.0000000E+00;  1.3668022E-01;  4.0000000E+04;  0.0000000E+00;  4.0014176E+04;  8.2422281E-03;  0.0000000E+00;  3.9633026E-04;  1.9455288E+03;
  3.1103486E-01;  9.9999998E-03; -2.5997889E-01;4341;  3.5880734E-03;  0.0000000E+00;  4.7581139E-05;  9.9870123E+02;  1.0000000E-01; -1.0760189E+03;3; -7.0895594E-01;  0.0000000E+00; -4.4405416E-01;0;  8.1779268E-03;  3.9892258E+04;  0.0000000E+00;  1.9166559E-01;  4.0000000E+04;  0.0000000E+00;  4.0014883E+04;  7.5030196E-03;  0.0000000E+00;  6.7490694E-04;  1.9647861E+03;
  3.1116551E-01;  9.9999998E-03; -2.4997747E-01;4342;  3.7547688E-03;  0.0000000E+00;  3.4340115E-05;  9.9869611E+02;  1.0000000E-01; -1.0802657E+03;3; -3.9371487E-01;  0.0000000E+00; -3.1336361E-01;0;  7.3903054E-03;  3.9890383E+04;  0.0000000E+00;  2.4153191E-01;  4.0000000E+04;  0.0000000E+00;  4.0013855E+04;  6.7385454E-03;  0.0000000E+00;  6.5175991E-04;  1.9268196E+03;
  3.1129175E-01;  9.9999998E-03; -2.3997571E-01;4343;  3.9483411E-03;  0.0000000E+00;  4.5415243E-05;  9.9875873E+02;  1.0000000E-01; -1.0283660E+03;3; -1.9982456E-01;  0.0000000E+00; -2.0022067E-01;0;  6.4184885E-03;  3.9894328E+04;  0.0000000E+00;  3.9781362E-01;  4.0000000E+04;  0.0000000E+00;  4.0013094E+04;  5.9511559E-03;  0.0000000E+00;  4.6733257E-04;  1.8860270E+03;
  3.1138647E-01;  9.9999998E-03; -2.2997326E-01;4344;  4.0994482E-03;  0.0000000E+00;  4.7470236E-05;  9.9888672E+02;  1.0000000E-01; -9.2234430E+02;3; -6.8280436E-02;  0.0000000E+00; -1.1142455E-01;0;  5.5151796E-03;  3.9903887E+04;  0.0000000E+00;  5.6387192E-01;  4.0000000E+04;  0.0000000E+00;  4.0012715E+04;  5.1650242E-03;  0.0000000E+00;  3.5015561E-04;  1.8679105E+03;
  3.1146726E-01;  9.9999998E-03; -2.1997957E-01;4345;  4.2239772E-03;  0.0000000E+00;  1.1138487E-04;  9.9905841E+02;  1.0000000E-01; -7.8007672E+02;3;  2.9497603E-03;  0.0000000E+00; -5.6963559E-02;0;  4.5306864E-03;  3.9918812E+04;  0.0000000E+00;  6.6938227E-01;  4.0000000E+04;  0.0000000E+00;  4.0010309E+04;  4.4147777E-03;  0.0000000E+00;  1.1590861E-04;  1.6689755E+03;
  3.1154016E-01;  9.9999998E-03; -2.0999482E-01;4346;  4.2770053E-03;  0.0000000E+00;  1.2883858E-04;  9.9927527E+02;  1.0000000E-01; -6.0042749E+02;3;  4.4658553E-02;  0.0000000E+00; -2.5408512E-02;0;  3.7588796E-03;  3.9937789E+04;  0.0000000E+00;  6.9632328E-01;  4.0000000E+04;  0.0000000E+00;  4.0007652E+04;  3.7308736E-03;  0.0000000E+00;  2.8005979E-05;  1.4360774E+03;
  3.1159717E-01;  9.9999998E-03; -2.0000635E-01;4347;  4.3015783E-03;  0.0000000E+00;  1.3492265E-04;  9.9954047E+02;  1.0000000E-01; -3.8072998E+02;3;  6.5846823E-02;  0.0000000E+00; -1.2863160E-02;0;  3.0822870E-03;  3.9959852E+04;  0.0000000E+00;  6.4647394E-01;  4.0000000E+04;  0.0000000E+00;  4.0006273E+04;  3.1363117E-03;  0.0000000E+00; -5.4024535E-05;  1.2453417E+03;
  3.1162772E-01;  9.9999998E-03; -1.9001074E-01;4348;  4.3095769E-03;  0.0000000E+00;  1.4721917E-04;  9.9981860E+02;  1.0000000E-01; -1.5026735E+02;3;  7.7902764E-02;  0.0000000E+00; -9.1422247E-03;0;  2.4969764E-03;  3.9982852E+04;  0.0000000E+00;  5.3564906E-01;  4.0000000E+04;  0.0000000E+00;  4.0005121E+04;  2.6474595E-03;  0.0000000E+00; -1.5048315E-04;  1.0139229E+03;
  3.1163171E-01;  9.9999998E-03; -1.8001033E-01;4349;  4.3036249E-03;  0.0000000E+00;  1.6075838E-04;  1.0000767E+03;  1.0000000E-01;  6.3603138E+01;3;  8.6251780E-02;  0.0000000E+00; -8.6175622E-03;0;  2.0186552E-03;  4.0004742E+04;  0.0000000E+00;  3.9024234E-01;  4.0000000E+04;  0.0000000E+00;  4.0003637E+04;  2.2727768E-03;  0.0000000E+00; -2.5412173E-04;  7.2610132E+02;
  3.1161192E-01;  9.9999998E-03; -1.7000747E-01;4350;  4.2886683E-03;  0.0000000E+00;  1.6988353E-04;  1.0002952E+03;  1.0000000E-01;  2.4453630E+02;3;  9.2996582E-02;  0.0000000E+00; -8.3094435E-03;0;  1.6493681E-03;  4.0023711E+04;  0.0000000E+00;  2.3870093E-01;  4.0000000E+04;  0.0000000E+00;  4.0002047E+04;  2.0110104E-03;  0.0000000E+00; -3.6164233E-04;  4.1816000E+02;
  3.1157744E-01;  9.9999998E-03; -1.6000684E-01;4351;  4.2692982E-03;  0.0000000E+00;  1.7266446E-04;  1.0004543E+03;  1.0000000E-01;  3.7638443E+02;3;  9.9390730E-02;  0.0000000E+00; -7.5307824E-03;0;  1.3821148E-03;  4.0038070E+04;  0.0000000E+00;  1.0108487E-01;  4.0000000E+04;  0.0000000E+00;  4.0000395E+04;  1.8507526E-03;  0.0000000E+00; -4.6863774E-04;  1.4534822E+02;
  3.1153792E-01;  9.9999998E-03; -1.5000875E-01;4352;  4.2517753E-03;  0.0000000E+00;  1.6889702E-04;  1.0005386E+03;  1.0000000E-01;  4.4620959E+02;3;  1.0588089E-01;  0.0000000E+00; -7.2690523E-03;0;  1.2028576E-03;  4.0047059E+04;  0.0000000E+00; -1.0925272E-02;  4.0000000E+04;  0.0000000E+00;  3.9998949E+04;  1.7711825E-03;  0.0000000E+00; -5.6832493E-04;  1.6780334E+02;
  3.1150153E-01;  9.9999998E-03; -1.4000992E-01;4353;  4.2430870E-03;  0.0000000E+00;  1.5799154E-04;  1.0005623E+03;  1.0000000E-01;  4.6586337E+02;3;  1.1220679E-01;  0.0000000E+00; -7.3677157E-03;0;  1.0914388E-03;  4.0050043E+04;  0.0000000E+00; -9.0851083E-02;  4.0000000E+04;  0.0000000E+00;  3.9998137E+04;  1.7451479E-03;  0.0000000E+00; -6.5370899E-04;  3.3426321E+02;
  3.1147462E-01;  9.9999998E-03; -1.3000911E-01;4354;  4.2472905E-03;  0.0000000E+00;  1.4202933E-04;  1.0005251E+03;  1.0000000E-01;  4.3504944E+02;3;  1.1882856E-01;  0.0000000E+00; -7.5615025E-03;0;  1.0234364E-03;  4.0047777E+04;  0.0000000E+00; -1.3741420E-01;  4.0000000E+04;  0.0000000E+00;  3.9997383E+04;  1.7432475E-03;  0.0000000E+00; -7.1981101E-04;  4.3331744E+02;
  3.1146574E-01;  9.9999998E-03; -1.2000597E-01;4355;  4.2654080E-03;  0.0000000E+00;  1.2402919E-04;  1.0004435E+03;  1.0000000E-01;  3.6749579E+02;3;  1.2790158E-01;  0.0000000E+00; -8.0058472E-03;0;  9.7356265E-04;  4.0041211E+04;  0.0000000E+00; -1.5400890E-01;  4.0000000E+04;  0.0000000E+00;  3.9997348E+04;  1.7382297E-03;  0.0000000E+00; -7.6466700E-04;  4.5440359E+02;
  3.1148201E-01;  9.9999998E-03; -1.0999884E-01;4356;  4.2969766E-03;  0.0000000E+00;  1.0577854E-04;  1.0003301E+03;  1.0000000E-01;  2.7347375E+02;3;  1.3924794E-01;  0.0000000E+00; -8.2917782E-03;0;  9.1942353E-04;  4.0031871E+04;  0.0000000E+00; -1.4723104E-01;  4.0000000E+04;  0.0000000E+00;  3.9997406E+04;  1.7084157E-03;  0.0000000E+00; -7.8899215E-04;  4.0518259E+02;
  3.2151857E-01;  9.9999998E-03; -1.0999312E-01;4417;  4.3022684E-03;  0.0000000E+00;  9.3831201E-05;  1.0003604E+03;  1.0000000E-01;  2.9855945E+02;3;  1.4042309E-01;  0.0000000E+00; -1.5099972E-02;0;  6.4950134E-04;  4.0034461E+04;  0.0000000E+00; -1.6654755E-01;  4.0000000E+04;  0.0000000E+00;  3.9998043E+04;  1.5042978E-03;  0.0000000E+00; -8.5479650E-04;  3.9504047E+02;
  3.2145774E-01;  9.9999998E-03; -1.2000477E-01;4416;  4.2739771E-03;  0.0000000E+00;  1.1176999E-04;  1.0004630E+03;  1.0000000E-01;  3.8359409E+02;3;  1.3029900E-01;  0.0000000E+00; -1.5373091E-02;0;  7.3188066E-04;  4.0043117E+04;  0.0000000E+00; -1.9305375E-01;  4.0000000E+04;  0.0000000E+00;  3.9997504E+04;  1.5637866E-03;  0.0000000E+00; -8.3190599E-04;  4.8138586E+02;
  3.2142144E-01;  9.9999998E-03; -1.3001490E-01;4415;  4.2539123E-03;  0.0000000E+00;  1.2969246E-04;  1.0005490E+03;  1.0000000E-01;  4.5480194E+02;3;  1.2071630E-01;  0.0000000E+00; -1.4980194E-02;0;  8.1493671E-04;  4.0050098E+04;  0.0000000E+00; -2.0171735E-01;  4.0000000E+04;  0.0000000E+00;  3.9997734E+04;  1.6049797E-03;  0.0000000E+00; -7.9004304E-04;  5.0238266E+02;
  3.2141769E-01;  9.9999998E-03; -1.4001969E-01;4414;  4.2433501E-03;  0.0000000E+00;  1.4608164E-04;  1.0006002E+03;  1.0000000E-01;  4.9717111E+02;3;  1.1340508E-01;  0.0000000E+00; -1.4696227E-02;0;  9.1850176E-04;  4.0053340E+04;  0.0000000E+00; -1.8455058E-01;  4.0000000E+04;  0.0000000E+00;  3.9997816E+04;  1.6472231E-03;  0.0000000E+00; -7.2872138E-04;  4.4374625E+02;
  3.2143587E-01;  9.9999998E-03; -1.5002093E-01;4413;  4.2420998E-03;  0.0000000E+00;  1.5868126E-04;  1.0005962E+03;  1.0000000E-01;  4.9391196E+02;3;  1.0662711E-01;  0.0000000E+00; -1.4789662E-02;0;  1.0659485E-03;  4.0052113E+04;  0.0000000E+00; -1.3566858E-01;  4.0000000E+04;  0.0000000E+00;  3.9998844E+04;  1.7159142E-03;  0.0000000E+00; -6.4996572E-04;  3.0222083E+02;
  3.2146710E-01;  9.9999998E-03; -1.6002011E-01;4412;  4.2488505E-03;  0.0000000E+00;  1.6479044E-04;  1.0005320E+03;  1.0000000E-01;  4.4077765E+02;3;  9.9618599E-02;  0.0000000E+00; -1.4943816E-02;0;  1.2803545E-03;  4.0045453E+04;  0.0000000E+00; -5.2892290E-02;  4.0000000E+04;  0.0000000E+00;  4.0000371E+04;  1.8390252E-03;  0.0000000E+00; -5.5867073E-04;  8.9915428E+01;
  3.2150242E-01;  9.9999998E-03; -1.7002016E-01;4411;  4.2593442E-03;  0.0000000E+00;  1.6293400E-04;  1.0004017E+03;  1.0000000E-01;  3.3273132E+02;3;  9.3054585E-02;  0.0000000E+00; -1.5324404E-02;0;  1.5811560E-03;  4.0033523E+04;  0.0000000E+00;  6.1079346E-02;  4.0000000E+04;  0.0000000E+00;  4.0002004E+04;  2.0426973E-03;  0.0000000E+00; -4.6154123E-04;  1.9660736E+02;
  3.2153168E-01;  9.9999998E-03; -1.8002290E-01;4410;  4.2675524E-03;  0.0000000E+00;  1.5280127E-04;  1.0002128E+03;  1.0000000E-01;  1.7629131E+02;3;  8.5551076E-02;  0.0000000E+00; -1.6414573E-02;0;  1.9827641E-03;  4.0016465E+04;  0.0000000E+00;  1.9817735E-01;  4.0000000E+04;  0.0000000E+00;  4.0003410E+04;  2.3472942E-03;  0.0000000E+00; -3.6453010E-04;  4.9809128E+02;
  3.2154939E-01;  9.9999998E-03; -1.9002604E-01;4409;  4.2677359E-03;  0.0000000E+00;  1.3581241E-04;  9.9996783E+02;  1.0000000E-01; -2.6665913E+01;3;  7.7569231E-02;  0.0000000E+00; -1.8062251E-02;0;  2.4946553E-03;  3.9995941E+04;  0.0000000E+00;  3.4517848E-01;  4.0000000E+04;  0.0000000E+00;  4.0004590E+04;  2.7645826E-03;  0.0000000E+00; -2.6992738E-04;  7.8986005E+02;
  3.2155266E-01;  9.9999998E-03; -2.0002578E-01;4408;  4.2543365E-03;  0.0000000E+00;  1.1319530E-04;  9.9969092E+02;  1.0000000E-01; -2.5609152E+02;3;  6.8067826E-02;  0.0000000E+00; -2.0614816E-02;0;  3.1227781E-03;  3.9973043E+04;  0.0000000E+00;  4.8070809E-01;  4.0000000E+04;  0.0000000E+00;  4.0006008E+04;  3.2962859E-03;  0.0000000E+00; -1.7350783E-04;  1.0317802E+03;
  3.2154396E-01;  9.9999998E-03; -2.1001853E-01;4407;  4.2266441E-03;  0.0000000E+00;  9.7820935E-05;  9.9941632E+02;  1.0000000E-01; -4.8359125E+02;3;  5.5027038E-02;  0.0000000E+00; -2.3697963E-02;0;  3.8589644E-03;  3.9950188E+04;  0.0000000E+00;  5.7706016E-01;  4.0000000E+04;  0.0000000E+00;  4.0006594E+04;  3.9345524E-03;  0.0000000E+00; -7.5587937E-05;  1.2187347E+03;
  3.2151484E-01;  9.9999998E-03; -2.2000295E-01;4406;  4.1830298E-03;  0.0000000E+00;  9.4837160E-05;  9.9916498E+02;  1.0000000E-01; -6.9178290E+02;3;  3.6053304E-02;  0.0000000E+00; -3.0301835E-02;0;  4.6755853E-03;  3.9929199E+04;  0.0000000E+00;  6.0962653E-01;  4.0000000E+04;  0.0000000E+00;  4.0008559E+04;  4.6628169E-03;  0.0000000E+00;  1.2768355E-05;  1.4318026E+03;
  3.2146186E-01;  9.9999998E-03; -2.2999065E-01;4405;  4.1069943E-03;  0.0000000E+00;  8.0097510E-05;  9.9895551E+02;  1.0000000E-01; -8.6535822E+02;3;  4.6033757E-03;  0.0000000E+00; -4.7883853E-02;0;  5.5968110E-03;  3.9911562E+04;  0.0000000E+00;  5.6376761E-01;  4.0000000E+04;  0.0000000E+00;  4.0010867E+04;  5.4585100E-03;  0.0000000E+00;  1.3830110E-04;  1.6556228E+03;
  3.2138121E-01;  9.9999998E-03; -2.3998575E-01;4404;  4.0238854E-03;  0.0000000E+00;  9.7850439E-05;  9.9878705E+02;  1.0000000E-01; -1.0049099E+03;3; -5.0375510E-02;  0.0000000E+00; -8.1273079E-02;0;  6.4520803E-03;  3.9897637E+04;  0.0000000E+00;  4.3948549E-01;  4.0000000E+04;  0.0000000E+00;  4.0011980E+04;  6.2931413E-03;  0.0000000E+00;  1.5893897E-04;  1.7806195E+03;
  3.2126251E-01;  9.9999998E-03; -2.4998301E-01;4403;  3.8973105E-03;  0.0000000E+00;  1.0315659E-04;  9.9867896E+02;  1.0000000E-01; -1.0944382E+03;3; -1.5076455E-01;  0.0000000E+00; -1.3530298E-01;0;  7.3337089E-03;  3.9888746E+04;  0.0000000E+00;  2.6128978E-01;  4.0000000E+04;  0.0000000E+00;  4.0014191E+04;  7.1345414E-03;  0.0000000E+00;  1.9916744E-04;  1.8950627E+03;
  3.2112378E-01;  9.9999998E-03; -2.5998172E-01;4402;  3.7093374E-03;  0.0000000E+00;  8.7622102E-05;  9.9862592E+02;  1.0000000E-01; -1.1383876E+03;3; -3.0520961E-01;  0.0000000E+00; -2.0264663E-01;0;  8.3599603E-03;  3.9884984E+04;  0.0000000E+00;  7.6069854E-02;  4.0000000E+04;  0.0000000E+00;  4.0014844E+04;  7.9515846E-03;  0.0000000E+00;  4.0837581E-04;  1.9832177E+03;
  3.2104561E-01;  9.9999998E-03; -2.6998106E-01;4401;  3.5864459E-03;  0.0000000E+00;  1.0407498E-04;  9.9862219E+02;  1.0000000E-01; -1.1414985E+03;3; -5.4241186E-01;  0.0000000E+00; -2.6677981E-01;0;  9.0639610E-03;  3.9885727E+04;  0.0000000E+00; -1.4705034E-01;  4.0000000E+04;  0.0000000E+00;  4.0015465E+04;  8.7300604E-03;  0.0000000E+00;  3.3390062E-04;  2.0412502E+03;
  3.3110985E-01;  9.9999998E-03; -2.6998276E-01;4462;  3.8732302E-03;  0.0000000E+00;  1.8071872E-04;  9.9850885E+02;  1.0000000E-01; -1.2353724E+03;3; -1.6770540E-01;  0.0000000E+00; -1.0307173E-01;0;  8.8117812E-03;  3.9874043E+04;  0.0000000E+00; -1.0432357E-02;  4.0000000E+04;  0.0000000E+00;  4.0016445E+04;  9.2020240E-03;  0.0000000E+00; -3.9024249E-04;  2.1707310E+03;
  3.3119869E-01;  9.9999998E-03; -2.5998491E-01;4463;  3.9923624E-03;  0.0000000E+00;  1.8610968E-04;  9.9856653E+02;  1.0000000E-01; -1.1876207E+03;3; -8.6429834E-02;  0.0000000E+00; -8.2408540E-02;0;  7.9755718E-03;  3.9878523E+04;  0.0000000E+00;  2.2196753E-01;  4.0000000E+04;  0.0000000E+00;  4.0015625E+04;  8.3861351E-03;  0.0000000E+00; -4.1056343E-04;  2.0673840E+03;
  3.3132792E-01;  9.9999998E-03; -2.4998833E-01;4464;  4.0690545E-03;  0.0000000E+00;  1.7245486E-04;  9.9866711E+02;  1.0000000E-01; -1.1042650E+03;3; -1.8292932E-02;  0.0000000E+00; -5.5895649E-02;0;  7.2596613E-03;  3.9887066E+04;  0.0000000E+00;  3.8946369E-01;  4.0000000E+04;  0.0000000E+00;  4.0013648E+04;  7.5299148E-03;  0.0000000E+00; -2.7025366E-04;  1.9262401E+03;
  3.3143181E-01;  9.9999998E-03; -2.3999442E-01;4465;  4.1250875E-03;  0.0000000E+00;  1.6160580E-04;  9.9881628E+02;  1.0000000E-01; -9.8066364E+02;3;  1.5481244E-02;  0.0000000E+00; -3.8899798E-02;0;  6.4483169E-03;  3.9899988E+04;  0.0000000E+00;  4.9990496E-01;  4.0000000E+04;  0.0000000E+00;  4.0011449E+04;  6.6572079E-03;  0.0000000E+00; -2.0889110E-04;  1.7206515E+03;
  3.3149475E-01;  9.9999998E-03; -2.3000474E-01;4466;  4.1580801E-03;  0.0000000E+00;  1.4156445E-04;  9.9900946E+02;  1.0000000E-01; -8.2061877E+02;3;  3.7287511E-02;  0.0000000E+00; -2.8788313E-02;0;  5.6310683E-03;  3.9916559E+04;  0.0000000E+00;  5.4398930E-01;  4.0000000E+04;  0.0000000E+00;  4.0009227E+04;  5.7957484E-03;  0.0000000E+00; -1.6468012E-04;  1.4723016E+03;
  3.3152866E-01;  9.9999998E-03; -2.2002089E-01;4467;  4.1831597E-03;  0.0000000E+00;  1.1872061E-04;  9.9923932E+02;  1.0000000E-01; -6.3020441E+02;3;  4.9780335E-02;  0.0000000E+00; -2.6391840E-02;0;  4.8042857E-03;  3.9936324E+04;  0.0000000E+00;  5.1947403E-01;  4.0000000E+04;  0.0000000E+00;  4.0006598E+04;  4.9745589E-03;  0.0000000E+00; -1.7027346E-04;  1.1992341E+03;
  3.3154127E-01;  9.9999998E-03; -2.1003479E-01;4468;  4.2025712E-03;  0.0000000E+00;  9.6169693E-05;  9.9950049E+02;  1.0000000E-01; -4.1381546E+02;3;  5.9715893E-02;  0.0000000E+00; -2.8097982E-02;0;  4.0036375E-03;  3.9958273E+04;  0.0000000E+00;  4.3637589E-01;  4.0000000E+04;  0.0000000E+00;  4.0005617E+04;  4.2197565E-03;  0.0000000E+00; -2.1611879E-04;  9.9733673E+02;
  3.3153057E-01;  9.9999998E-03; -2.0003867E-01;4469;  4.2246180E-03;  0.0000000E+00;  1.0244110E-04;  9.9977509E+02;  1.0000000E-01; -1.8631572E+02;3;  6.8752944E-02;  0.0000000E+00; -2.7903149E-02;0;  3.2489453E-03;  3.9980512E+04;  0.0000000E+00;  3.1309649E-01;  4.0000000E+04;  0.0000000E+00;  4.0005316E+04;  3.5529709E-03;  0.0000000E+00; -3.0402548E-04;  8.1930829E+02;
  3.3149606E-01;  9.9999998E-03; -1.9003518E-01;4470;  4.2408719E-03;  0.0000000E+00;  1.2601409E-04;  1.0000255E+03;  1.0000000E-01;  2.1135204E+01;3;  7.7466369E-02;  0.0000000E+00; -2.5801102E-02;0;  2.5966410E-03;  4.0001660E+04;  0.0000000E+00;  1.7291749E-01;  4.0000000E+04;  0.0000000E+00;  4.0004359E+04;  2.9900365E-03;  0.0000000E+00; -3.9339549E-04;  5.9079028E+02;
  3.3145159E-01;  9.9999998E-03; -1.8003081E-01;4471;  4.2470568E-03;  0.0000000E+00;  1.4426213E-04;  1.0002415E+03;  1.0000000E-01;  2.0009311E+02;3;  8.5725799E-02;  0.0000000E+00; -2.3697523E-02;0;  2.0619852E-03;  4.0020184E+04;  0.0000000E+00;  3.6951046E-02;  4.0000000E+04;  0.0000000E+00;  4.0002809E+04;  2.5388692E-03;  0.0000000E+00; -4.7688393E-04;  3.2178607E+02;
  3.3141294E-01;  9.9999998E-03; -1.7002913E-01;4472;  4.2472025E-03;  0.0000000E+00;  1.5222872E-04;  1.0004078E+03;  1.0000000E-01;  3.3786697E+02;3;  9.3482606E-02;  0.0000000E+00; -2.2428354E-02;0;  1.6363477E-03;  4.0034637E+04;  0.0000000E+00; -7.9640098E-02;  4.0000000E+04;  0.0000000E+00;  4.0001129E+04;  2.1975948E-03;  0.0000000E+00; -5.6124706E-04;  1.3862796E+02;
  3.3138543E-01;  9.9999998E-03; -1.6003014E-01;4473;  4.2470009E-03;  0.0000000E+00;  1.5127625E-04;  1.0005056E+03;  1.0000000E-01;  4.1885236E+02;3;  1.0056651E-01;  0.0000000E+00; -2.1818615E-02;0;  1.3083802E-03;  4.0044469E+04;  0.0000000E+00; -1.6661184E-01;  4.0000000E+04;  0.0000000E+00;  3.9999355E+04;  1.9546668E-03;  0.0000000E+00; -6.4628659E-04;  2.7969589E+02;
  3.3137828E-01;  9.9999998E-03; -1.5003070E-01;4474;  4.2503756E-03;  0.0000000E+00;  1.4283486E-04;  1.0005512E+03;  1.0000000E-01;  4.5667844E+02;3;  1.0765391E-01;  0.0000000E+00; -2.1714289E-02;0;  1.0639490E-03;  4.0049426E+04;  0.0000000E+00; -2.1923889E-01;  4.0000000E+04;  0.0000000E+00;  3.9998070E+04;  1.7907779E-03;  0.0000000E+00; -7.2682893E-04;  4.4491443E+02;
  3.3140001E-01;  9.9999998E-03; -1.4002702E-01;4475;  4.2594783E-03;  0.0000000E+00;  1.2968195E-04;  1.0005430E+03;  1.0000000E-01;  4.4986383E+02;3;  1.1492394E-01;  0.0000000E+00; -2.1950645E-02;0;  8.8488543E-04;  4.0049512E+04;  0.0000000E+00; -2.3839188E-01;  4.0000000E+04;  0.0000000E+00;  3.9997348E+04;  1.6815951E-03;  0.0000000E+00; -7.9670968E-04;  5.3923108E+02;
  3.3145416E-01;  9.9999998E-03; -1.3001597E-01;4476;  4.2746216E-03;  0.0000000E+00;  1.1378429E-04;  1.0004944E+03;  1.0000000E-01;  4.0966742E+02;3;  1.2332182E-01;  0.0000000E+00; -2.2219138E-02;0;  7.5015688E-04;  4.0046012E+04;  0.0000000E+00; -2.2936165E-01;  4.0000000E+04;  0.0000000E+00;  3.9996969E+04;  1.6014792E-03;  0.0000000E+00; -8.5132237E-04;  5.5204871E+02;
  3.3152714E-01;  9.9999998E-03; -1.1999915E-01;4477;  4.2956956E-03;  0.0000000E+00;  9.6586002E-05;  1.0004258E+03;  1.0000000E-01;  3.5278015E+02;3;  1.3258225E-01;  0.0000000E+00; -2.2070045E-02;0;  6.3915085E-04;  4.0039941E+04;  0.0000000E+00; -2.0010725E-01;  4.0000000E+04;  0.0000000E+00;  3.9997016E+04;  1.5277129E-03;  0.0000000E+00; -8.8856206E-04;  4.9068317E+02;
  3.3159667E-01;  9.9999998E-03; -1.0998923E-01;4478;  4.3198690E-03;  0.0000000E+00;  7.9770660E-05;  1.0003469E+03;  1.0000000E-01;  2.8739929E+02;3;  1.4243026E-01;  0.0000000E+00; -2.1326935E-02;0;  5.3483411E-04;  4.0032859E+04;  0.0000000E+00; -1.5944919E-01;  4.0000000E+04;  0.0000000E+00;  3.9997812E+04;  1.4436598E-03;  0.0000000E+00; -9.0882566E-04;  3.7314041E+02;
  3.4121108E-01;  9.9999998E-03; -2.6998472E-01;4523;  4.3509775E-03;  0.0000000E+00;  2.7235807E-04;  9.9842743E+02;  1.0000000E-01; -1.3028274E+03;3;  1.8182762E-02;  0.0000000E+00; -3.6739927E-02;0;  8.1892535E-03;  3.9864570E+04;  0.0000000E+00;  1.6878331E-01;  4.0000000E+04;  0.0000000E+00;  4.0017742E+04;  9.4990954E-03;  0.0000000E+00; -1.3098419E-03;  2.3169917E+03;
  3.4128237E-01;  9.9999998E-03; -2.5998795E-01;4524;  4.2963782E-03;  0.0000000E+00;  2.6274277E-04;  9.9852789E+02;  1.0000000E-01; -1.2196199E+03;3;  3.1053305E-02;  0.0000000E+00; -2.9135626E-02;0;  7.6423781E-03;  3.9873195E+04;  0.0000000E+00;  3.5168168E-01;  4.0000000E+04;  0.0000000E+00;  4.0015984E+04;  8.6783199E-03;  0.0000000E+00; -1.0359420E-03;  2.1679785E+03;
  3.4138352E-01;  9.9999998E-03; -2.4999262E-01;4525;  4.2530559E-03;  0.0000000E+00;  2.3584293E-04;  9.9866791E+02;  1.0000000E-01; -1.1036232E+03;3;  4.1311957E-02;  0.0000000E+00; -2.5188455E-02;0;  7.1225632E-03;  3.9885484E+04;  0.0000000E+00;  4.5859829E-01;  4.0000000E+04;  0.0000000E+00;  4.0013840E+04;  7.8213839E-03;  0.0000000E+00; -6.9882045E-04;  1.9684342E+03;
  3.4146360E-01;  9.9999998E-03; -2.4000037E-01;4526;  4.2360728E-03;  0.0000000E+00;  2.1628916E-04;  9.9883698E+02;  1.0000000E-01; -9.6352832E+02;3;  4.8926540E-02;  0.0000000E+00; -2.4260012E-02;0;  6.4220857E-03;  3.9901293E+04;  0.0000000E+00;  4.9912512E-01;  4.0000000E+04;  0.0000000E+00;  4.0011395E+04;  6.9510737E-03;  0.0000000E+00; -5.2898820E-04;  1.6846600E+03;
  3.4150133E-01;  9.9999998E-03; -2.3001456E-01;4527;  4.2305714E-03;  0.0000000E+00;  1.9877186E-04;  9.9903949E+02;  1.0000000E-01; -7.9577997E+02;3;  5.3599607E-02;  0.0000000E+00; -2.5597654E-02;0;  5.6450879E-03;  3.9919645E+04;  0.0000000E+00;  4.8054871E-01;  4.0000000E+04;  0.0000000E+00;  4.0008379E+04;  6.0926010E-03;  0.0000000E+00; -4.4751316E-04;  1.3063190E+03;
  3.4150946E-01;  9.9999998E-03; -2.2003379E-01;4528;  4.2210929E-03;  0.0000000E+00;  1.6423124E-04;  9.9926831E+02;  1.0000000E-01; -6.0620508E+02;3;  5.7655536E-02;  0.0000000E+00; -2.9381067E-02;0;  4.8840051E-03;  3.9940109E+04;  0.0000000E+00;  4.1069946E-01;  4.0000000E+04;  0.0000000E+00;  4.0005473E+04;  5.2721538E-03;  0.0000000E+00; -3.8814879E-04;  9.7180280E+02;
  3.4150371E-01;  9.9999998E-03; -2.1004555E-01;4529;  4.2137718E-03;  0.0000000E+00;  1.2396876E-04;  9.9952826E+02;  1.0000000E-01; -3.9080377E+02;3;  6.3398920E-02;  0.0000000E+00; -3.1326734E-02;0;  4.1281129E-03;  3.9961254E+04;  0.0000000E+00;  3.0286542E-01;  4.0000000E+04;  0.0000000E+00;  4.0004668E+04;  4.5137471E-03;  0.0000000E+00; -3.8563408E-04;  7.9189233E+02;
  3.4148914E-01;  9.9999998E-03; -2.0004520E-01;4530;  4.2241300E-03;  0.0000000E+00;  1.1458851E-04;  9.9978711E+02;  1.0000000E-01; -1.7639008E+02;3;  7.1384966E-02;  0.0000000E+00; -3.1748809E-02;0;  3.3916989E-03;  3.9982250E+04;  0.0000000E+00;  1.7450973E-01;  4.0000000E+04;  0.0000000E+00;  4.0004340E+04;  3.8383456E-03;  0.0000000E+00; -4.4664682E-04;  6.4706342E+02;
  3.4146467E-01;  9.9999998E-03; -1.9004065E-01;4531;  4.2378395E-03;  0.0000000E+00;  1.2831348E-04;  1.0000107E+03;  1.0000000E-01;  8.8886375E+00;3;  7.8998923E-02;  0.0000000E+00; -3.0629070E-02;0;  2.7414253E-03;  4.0001008E+04;  0.0000000E+00;  4.2747069E-02;  4.0000000E+04;  0.0000000E+00;  4.0003188E+04;  3.2613936E-03;  0.0000000E+00; -5.1996839E-04;  4.3902289E+02;
  3.4143198E-01;  9.9999998E-03; -1.8003702E-01;4532;  4.2476007E-03;  0.0000000E+00;  1.3952906E-04;  1.0001904E+03;  1.0000000E-01;  1.5772394E+02;3;  8.7030657E-02;  0.0000000E+00; -2.9766319E-02;0;  2.2003250E-03;  4.0017355E+04;  0.0000000E+00; -7.6577067E-02;  4.0000000E+04;  0.0000000E+00;  4.0001492E+04;  2.7898720E-03;  0.0000000E+00; -5.8954698E-04;  2.3375200E+02;
  3.4140551E-01;  9.9999998E-03; -1.7003550E-01;4533;  4.2554601E-03;  0.0000000E+00;  1.4175217E-04;  1.0003251E+03;  1.0000000E-01;  2.6932571E+02;3;  9.4585694E-02;  0.0000000E+00; -2.8731439E-02;0;  1.7618197E-03;  4.0029316E+04;  0.0000000E+00; -1.7042002E-01;  4.0000000E+04;  0.0000000E+00;  3.9999797E+04;  2.4220047E-03;  0.0000000E+00; -6.6018495E-04;  2.4844707E+02;
  3.4140381E-01;  9.9999998E-03; -1.6003443E-01;4534;  4.2644162E-03;  0.0000000E+00;  1.3654040E-04;  1.0004027E+03;  1.0000000E-01;  3.3362021E+02;3;  1.0182279E-01;  0.0000000E+00; -2.8618939E-02;0;  1.4155845E-03;  4.0037316E+04;  0.0000000E+00; -2.3098068E-01;  4.0000000E+04;  0.0000000E+00;  3.9998582E+04;  2.1475418E-03;  0.0000000E+00; -7.3195732E-04;  4.1042169E+02;
  3.4143719E-01;  9.9999998E-03; -1.5002997E-01;4535;  4.2768545E-03;  0.0000000E+00;  1.2620367E-04;  1.0004345E+03;  1.0000000E-01;  3.5998981E+02;3;  1.0951509E-01;  0.0000000E+00; -2.8428368E-02;0;  1.1487450E-03;  4.0040871E+04;  0.0000000E+00; -2.5656655E-01;  4.0000000E+04;  0.0000000E+00;  3.9997199E+04;  1.9491174E-03;  0.0000000E+00; -8.0037245E-04;  5.3604102E+02;
  3.4150246E-01;  9.9999998E-03; -1.4001885E-01;4536;  4.2938078E-03;  0.0000000E+00;  1.1257631E-04;  1.0004263E+03;  1.0000000E-01;  3.5317520E+02;3;  1.1774519E-01;  0.0000000E+00; -2.8676612E-02;0;  9.4492629E-04;  4.0040836E+04;  0.0000000E+00; -2.5111088E-01;  4.0000000E+04;  0.0000000E+00;  3.9996379E+04;  1.8049111E-03;  0.0000000E+00; -8.5998478E-04;  5.8734113E+02;
  3.4157518E-01;  9.9999998E-03; -1.3000415E-01;4537;  4.3141264E-03;  0.0000000E+00;  9.7071039E-05;  1.0003932E+03;  1.0000000E-01;  3.2581793E+02;3;  1.2709036E-01;  0.0000000E+00; -2.8643485E-02;0;  7.8565220E-04;  4.0038059E+04;  0.0000000E+00; -2.2235897E-01;  4.0000000E+04;  0.0000000E+00;  3.9996523E+04;  1.6922427E-03;  0.0000000E+00; -9.0659049E-04;  5.6126135E+02;
  3.4162942E-01;  9.9999998E-03; -1.1999274E-01;4538;  4.3345322E-03;  0.0000000E+00;  8.1302649E-05;  1.0003455E+03;  1.0000000E-01;  2.8621414E+02;3;  1.3681704E-01;  0.0000000E+00; -2.8371325E-02;0;  6.5329415E-04;  4.0033746E+04;  0.0000000E+00; -1.7959543E-01;  4.0000000E+04;  0.0000000E+00;  3.9996980E+04;  1.5915985E-03;  0.0000000E+00; -9.3830435E-04;  4.6957458E+02;
  3.4166148E-01;  9.9999998E-03; -1.0998910E-01;4539;  4.3517235E-03;  0.0000000E+00;  6.6472086E-05;  1.0002946E+03;  1.0000000E-01;  2.4404248E+02;3;  1.4760762E-01;  0.0000000E+00; -2.8255615E-02;0;  5.3361972E-04;  4.0028539E+04;  0.0000000E+00; -1.3166539E-01;  4.0000000E+04;  0.0000000E+00;  3.9998066E+04;  1.4892614E-03;  0.0000000E+00; -9.5564168E-04;  3.3275864E+02;
  3.5131422E-01;  9.9999998E-03; -2.6998723E-01;4584;  4.7688857E-03;  0.0000000E+00;  3.0036390E-04;  9.9837268E+02;  1.0000000E-01; -1.3482087E+03;3;  2.2960168E-01;  0.0000000E+00; -1.5983423E-02;0;  8.0679692E-03;  3.9858465E+04;  0.0000000E+00;  2.4800809E-01;  4.0000000E+04;  0.0000000E+00;  4.0017789E+04;  9.5466021E-03;  0.0000000E+00; -1.4786328E-03;  2.3644707E+03;
  3.5135916E-01;  9.9999998E-03; -2.5999072E-01;4585;  4.6053194E-03;  0.0000000E+00;  2.9502821E-04;  9.9850568E+02;  1.0000000E-01; -1.2380391E+03;3;  1.6664924E-01;  0.0000000E+00; -5.0549726E-03;0;  7.5153839E-03;  3.9869871E+04;  0.0000000E+00;  3.7477449E-01;  4.0000000E+04;  0.0000000E+00;  4.0016430E+04;  8.7669110E-03;  0.0000000E+00; -1.2515269E-03;  2.2099792E+03;
  3.5142034E-01;  9.9999998E-03; -2.4999556E-01;4586;  4.4584484E-03;  0.0000000E+00;  2.7524959E-04;  9.9866895E+02;  1.0000000E-01; -1.1027343E+03;3;  1.0394027E-01;  0.0000000E+00; -8.4572341E-03;0;  6.9926511E-03;  3.9884477E+04;  0.0000000E+00;  4.3577397E-01;  4.0000000E+04;  0.0000000E+00;  4.0014383E+04;  7.9499148E-03;  0.0000000E+00; -9.5726340E-04;  1.9863779E+03;
  3.5146683E-01;  9.9999998E-03; -2.4000332E-01;4587;  4.3677194E-03;  0.0000000E+00;  2.5580928E-04;  9.9885669E+02;  1.0000000E-01; -9.4723248E+02;3;  8.1631593E-02;  0.0000000E+00; -1.4533952E-02;0;  6.3518616E-03;  3.9901355E+04;  0.0000000E+00;  4.3714455E-01;  4.0000000E+04;  0.0000000E+00;  4.0011789E+04;  7.1170744E-03;  0.0000000E+00; -7.6521299E-04;  1.6664072E+03;
  3.5148180E-01;  9.9999998E-03; -2.3001863E-01;4588;  4.3262877E-03;  0.0000000E+00;  2.5179982E-04;  9.9905243E+02;  1.0000000E-01; -7.8506421E+02;3;  7.7250369E-02;  0.0000000E+00; -1.7881691E-02;0;  5.5898735E-03;  3.9920570E+04;  0.0000000E+00;  3.9047372E-01;  4.0000000E+04;  0.0000000E+00;  4.0007793E+04;  6.2920013E-03;  0.0000000E+00; -7.0212758E-04;  1.2064685E+03;
  3.5147488E-01;  9.9999998E-03; -2.2003931E-01;4589;  4.2904662E-03;  0.0000000E+00;  2.1744688E-04;  9.9926532E+02;  1.0000000E-01; -6.0867413E+02;3;  7.4254900E-02;  0.0000000E+00; -2.3504233E-02;0;  4.8924289E-03;  3.9940391E+04;  0.0000000E+00;  3.0668274E-01;  4.0000000E+04;  0.0000000E+00;  4.0005090E+04;  5.4988558E-03;  0.0000000E+00; -6.0642709E-04;  8.1219696E+02;
  3.5145646E-01;  9.9999998E-03; -2.1004972E-01;4590;  4.2618094E-03;  0.0000000E+00;  1.6802216E-04;  9.9950928E+02;  1.0000000E-01; -4.0655640E+02;3;  7.2360709E-02;  0.0000000E+00; -3.0011285E-02;0;  4.1975458E-03;  3.9960129E+04;  0.0000000E+00;  1.9817239E-01;  4.0000000E+04;  0.0000000E+00;  4.0004594E+04;  4.7596968E-03;  0.0000000E+00; -5.6215096E-04;  6.4204877E+02;
  3.5143271E-01;  9.9999998E-03; -2.0004718E-01;4591;  4.2563397E-03;  0.0000000E+00;  1.4839043E-04;  9.9974127E+02;  1.0000000E-01; -2.1436430E+02;3;  7.6891907E-02;  0.0000000E+00; -3.1790998E-02;0;  3.5004148E-03;  3.9979078E+04;  0.0000000E+00;  7.8307025E-02;  4.0000000E+04;  0.0000000E+00;  4.0004070E+04;  4.0945937E-03;  0.0000000E+00; -5.9417891E-04;  5.1971326E+02;
  3.5140923E-01;  9.9999998E-03; -1.9004130E-01;4592;  4.2642294E-03;  0.0000000E+00;  1.4582356E-04;  9.9993250E+02;  1.0000000E-01; -5.5949036E+01;3;  8.2952559E-02;  0.0000000E+00; -3.2376789E-02;0;  2.8739835E-03;  3.9995801E+04;  0.0000000E+00; -3.8260255E-02;  4.0000000E+04;  0.0000000E+00;  4.0002652E+04;  3.5188603E-03;  0.0000000E+00; -6.4487685E-04;  3.3965466E+02;
  3.5139507E-01;  9.9999998E-03; -1.8003705E-01;4593;  4.2762388E-03;  0.0000000E+00;  1.4402298E-04;  1.0000865E+03;  1.0000000E-01;  7.1701675E+01;3;  9.1109484E-02;  0.0000000E+00; -3.2403894E-02;0;  2.3412707E-03;  4.0009496E+04;  0.0000000E+00; -1.3752957E-01;  4.0000000E+04;  0.0000000E+00;  4.0000590E+04;  3.0399179E-03;  0.0000000E+00; -6.9864729E-04;  2.2407344E+02;
  3.5140017E-01;  9.9999998E-03; -1.7003357E-01;4594;  4.2910054E-03;  0.0000000E+00;  1.3870420E-04;  1.0001969E+03;  1.0000000E-01;  1.6315588E+02;3;  9.8790973E-02;  0.0000000E+00; -3.2641564E-02;0;  1.9010101E-03;  4.0019777E+04;  0.0000000E+00; -2.0866616E-01;  4.0000000E+04;  0.0000000E+00;  3.9999016E+04;  2.6566305E-03;  0.0000000E+00; -7.5562036E-04;  3.2753058E+02;
  3.5142916E-01;  9.9999998E-03; -1.6002747E-01;4595;  4.3094466E-03;  0.0000000E+00;  1.2879817E-04;  1.0002576E+03;  1.0000000E-01;  2.1342606E+02;3;  1.0711997E-01;  0.0000000E+00; -3.2788914E-02;0;  1.5459154E-03;  4.0026227E+04;  0.0000000E+00; -2.4615009E-01;  4.0000000E+04;  0.0000000E+00;  3.9997711E+04;  2.3600142E-03;  0.0000000E+00; -8.1409886E-04;  4.7488019E+02;
  3.5147774E-01;  9.9999998E-03; -1.5001689E-01;4596;  4.3325443E-03;  0.0000000E+00;  1.1493809E-04;  1.0002869E+03;  1.0000000E-01;  2.3772166E+02;3;  1.1667660E-01;  0.0000000E+00; -3.3417281E-02;0;  1.2650054E-03;  4.0029469E+04;  0.0000000E+00; -2.5062919E-01;  4.0000000E+04;  0.0000000E+00;  3.9996598E+04;  2.1350929E-03;  0.0000000E+00; -8.7008748E-04;  5.6767792E+02;
  3.5153130E-01;  9.9999998E-03; -1.4000538E-01;4597;  4.3584057E-03;  0.0000000E+00;  9.9888319E-05;  1.0002870E+03;  1.0000000E-01;  2.3772166E+02;3;  1.2775402E-01;  0.0000000E+00; -3.3298973E-02;0;  1.0443036E-03;  4.0029891E+04;  0.0000000E+00; -2.2810861E-01;  4.0000000E+04;  0.0000000E+00;  3.9996145E+04;  1.9633698E-03;  0.0000000E+00; -9.1906614E-04;  5.8553015E+02;
  3.5157311E-01;  9.9999998E-03; -1.2999868E-01;4598;  4.3811207E-03;  0.0000000E+00;  8.5024061E-05;  1.0002693E+03;  1.0000000E-01;  2.2310480E+02;3;  1.4127265E-01;  0.0000000E+00; -3.4723409E-02;0;  8.6828461E-04;  4.0028238E+04;  0.0000000E+00; -1.8770656E-01;  4.0000000E+04;  0.0000000E+00;  3.9996543E+04;  1.8259258E-03;  0.0000000E+00; -9.5764117E-04;  5.3189075E+02;
  3.5160002E-01;  9.9999998E-03; -1.1999662E-01;4599;  4.3943776E-03;  0.0000000E+00;  7.2245224E-05;  1.0002466E+03;  1.0000000E-01;  2.0424113E+02;3;  1.5402862E-01;  0.0000000E+00; -3.5162464E-02;0;  7.2237442E-04;  4.0025488E+04;  0.0000000E+00; -1.3906382E-01;  4.0000000E+04;  0.0000000E+00;  3.9996918E+04;  1.7067153E-03;  0.0000000E+00; -9.8434091E-04;  4.2258109E+02;
  3.5161439E-01;  9.9999998E-03; -1.0999744E-01;4600;  4.3970407E-03;  0.0000000E+00;  6.0447361E-05;  1.0002210E+03;  1.0000000E-01;  1.8310593E+02;3;  1.6095465E-01;  0.0000000E+00; -3.4820568E-02;0;  5.9490977E-04;  4.0022465E+04;  0.0000000E+00; -9.0446949E-02;  4.0000000E+04;  0.0000000E+00;  3.9997867E+04;  1.5944755E-03;  0.0000000E+00; -9.9956570E-04;  2.7964969E+02;
  3.6137170E-01;  9.9999998E-03; -2.6998946E-01;4645;  4.9554664E-03;  0.0000000E+00;  2.7230865E-04;  9.9835278E+02;  1.0000000E-01; -1.3647021E+03;3;  2.8588918E-01;  0.0000000E+00; -2.1492878E-02;0;  8.3923107E-03;  3.9855238E+04;  0.0000000E+00;  2.2201134E-01;  4.0000000E+04;  0.0000000E+00;  4.0017375E+04;  9.3785096E-03;  0.0000000E+00; -9.8619866E-04;  2.3481648E+03;
  3.6140361E-01;  9.9999998E-03; -2.5999323E-01;4646;  4.8149694E-03;  0.0000000E+00;  2.8316348E-04;  9.9849799E+02;  1.0000000E-01; -1.2444093E+03;3;  2.6390976E-01;  0.0000000E+00; -1.5374809E-02;0;  7.6029026E-03;  3.9868309E+04;  0.0000000E+00;  3.1372905E-01;  4.0000000E+04;  0.0000000E+00;  4.0015789E+04;  8.6666755E-03;  0.0000000E+00; -1.0637731E-03;  2.1669744E+03;
  3.6144111E-01;  9.9999998E-03; -2.4999769E-01;4647;  4.6928138E-03;  0.0000000E+00;  2.7359204E-04;  9.9867596E+02;  1.0000000E-01; -1.0969567E+03;3;  2.3315488E-01;  0.0000000E+00; -1.0782383E-02;0;  6.9833477E-03;  3.9883625E+04;  0.0000000E+00;  3.5421500E-01;  4.0000000E+04;  0.0000000E+00;  4.0014629E+04;  7.9165706E-03;  0.0000000E+00; -9.3322294E-04;  1.9517872E+03;
  3.6145568E-01;  9.9999998E-03; -2.4000387E-01;4648;  4.5463126E-03;  0.0000000E+00;  2.7540940E-04;  9.9886395E+02;  1.0000000E-01; -9.4120795E+02;3;  1.6327494E-01;  0.0000000E+00; -4.6829712E-03;0;  6.2529603E-03;  3.9900664E+04;  0.0000000E+00;  3.4700119E-01;  4.0000000E+04;  0.0000000E+00;  4.0012465E+04;  7.1462481E-03;  0.0000000E+00; -8.9328759E-04;  1.6679211E+03;
  3.6144829E-01;  9.9999998E-03; -2.3001657E-01;4649;  4.4414070E-03;  0.0000000E+00;  2.8286484E-04;  9.9905396E+02;  1.0000000E-01; -7.8378027E+02;3;  1.1982744E-01;  0.0000000E+00; -6.3484828E-03;0;  5.5049798E-03;  3.9919172E+04;  0.0000000E+00;  2.9980066E-01;  4.0000000E+04;  0.0000000E+00;  4.0008508E+04;  6.3763447E-03;  0.0000000E+00; -8.7136507E-04;  1.2212821E+03;
  3.6143056E-01;  9.9999998E-03; -2.2003564E-01;4650;  4.3854676E-03;  0.0000000E+00;  2.6066098E-04;  9.9924713E+02;  1.0000000E-01; -6.2373547E+02;3;  1.0445867E-01;  0.0000000E+00; -1.2319568E-02;0;  4.8421361E-03;  3.9937938E+04;  0.0000000E+00;  2.2248106E-01;  4.0000000E+04;  0.0000000E+00;  4.0005043E+04;  5.6291670E-03;  0.0000000E+00; -7.8703073E-04;  7.8458124E+02;
  3.6140621E-01;  9.9999998E-03; -2.1004516E-01;4651;  4.3476359E-03;  0.0000000E+00;  2.1430034E-04;  9.9946002E+02;  1.0000000E-01; -4.4734537E+02;3;  9.6215978E-02;  0.0000000E+00; -1.9945910E-02;0;  4.2008818E-03;  3.9956098E+04;  0.0000000E+00;  1.2621270E-01;  4.0000000E+04;  0.0000000E+00;  4.0003926E+04;  4.9254037E-03;  0.0000000E+00; -7.2452181E-04;  5.8663031E+02;
  3.6138240E-01;  9.9999998E-03; -2.0004286E-01;4652;  4.3345145E-03;  0.0000000E+00;  1.8395626E-04;  9.9965790E+02;  1.0000000E-01; -2.8344876E+02;3;  9.4894283E-02;  0.0000000E+00; -2.5840012E-02;0;  3.5552499E-03;  3.9972871E+04;  0.0000000E+00;  2.3507068E-02;  4.0000000E+04;  0.0000000E+00;  4.0003348E+04;  4.2843781E-03;  0.0000000E+00; -7.2912831E-04;  4.4836746E+02;
  3.6136812E-01;  9.9999998E-03; -1.9003744E-01;4653;  4.3385844E-03;  0.0000000E+00;  1.7054249E-04;  9.9982666E+02;  1.0000000E-01; -1.4360088E+02;3;  9.9567235E-02;  0.0000000E+00; -2.9076297E-02;0;  2.9600482E-03;  3.9987438E+04;  0.0000000E+00; -7.2573446E-02;  4.0000000E+04;  0.0000000E+00;  4.0001855E+04;  3.7214281E-03;  0.0000000E+00; -7.6137990E-04;  2.7641312E+02;
  3.6136991E-01;  9.9999998E-03; -1.8003179E-01;4654;  4.3551126E-03;  0.0000000E+00;  1.6020742E-04;  9.9995947E+02;  1.0000000E-01; -3.3579296E+01;3;  1.0692877E-01;  0.0000000E+00; -2.9710863E-02;0;  2.4436403E-03;  3.9999414E+04;  0.0000000E+00; -1.5011023E-01;  4.0000000E+04;  0.0000000E+00;  4.0000336E+04;  3.2448135E-03;  0.0000000E+00; -8.0117327E-04;  2.1953029E+02;
  3.6139193E-01;  9.9999998E-03; -1.7002474E-01;4655;  4.3838038E-03;  0.0000000E+00;  1.4812435E-04;  1.0000436E+03;  1.0000000E-01;  3.6147125E+01;3;  1.2106626E-01;  0.0000000E+00; -3.1061992E-02;0;  2.0096302E-03;  4.0008344E+04;  0.0000000E+00; -2.0034550E-01;  4.0000000E+04;  0.0000000E+00;  3.9998785E+04;  2.8549926E-03;  0.0000000E+00; -8.4536237E-04;  3.4676065E+02;
  3.6143398E-01;  9.9999998E-03; -1.6001484E-01;4656;  4.4212593E-03;  0.0000000E+00;  1.3541161E-04;  1.0001082E+03;  1.0000000E-01;  8.9676476E+01;3;  1.4018592E-01;  0.0000000E+00; -3.0751171E-02;0;  1.6536572E-03;  4.0014113E+04;  0.0000000E+00; -2.1956585E-01;  4.0000000E+04;  0.0000000E+00;  3.9997270E+04;  2.5452264E-03;  0.0000000E+00; -8.9156919E-04;  4.7664108E+02;
  3.6148325E-01;  9.9999998E-03; -1.5000498E-01;4657;  4.4568726E-03;  0.0000000E+00;  1.2232631E-04;  1.0001388E+03;  1.0000000E-01;  1.1495971E+02;3;  1.7170435E-01;  0.0000000E+00; -3.1706769E-02;0;  1.3670663E-03;  4.0017523E+04;  0.0000000E+00; -2.0987189E-01;  4.0000000E+04;  0.0000000E+00;  3.9996488E+04;  2.3032795E-03;  0.0000000E+00; -9.3621318E-04;  5.4430957E+02;
  3.6152473E-01;  9.9999998E-03; -1.3999987E-01;4658;  4.4753077E-03;  0.0000000E+00;  1.1036857E-04;  1.0001519E+03;  1.0000000E-01;  1.2582360E+02;3;  1.9412425E-01;  0.0000000E+00; -3.1930316E-02;0;  1.1381682E-03;  4.0018590E+04;  0.0000000E+00; -1.7820878E-01;  4.0000000E+04;  0.0000000E+00;  3.9996352E+04;  2.1139416E-03;  0.0000000E+00; -9.7577350E-04;  5.3907642E+02;
  3.6155599E-01;  9.9999998E-03; -1.2999929E-01;4659;  4.4773817E-03;  0.0000000E+00;  9.7775039E-05;  1.0001522E+03;  1.0000000E-01;  1.2611989E+02;3;  2.0273469E-01;  0.0000000E+00; -3.0712247E-02;0;  9.5425651E-04;  4.0018250E+04;  0.0000000E+00; -1.3395925E-01;  4.0000000E+04;  0.0000000E+00;  3.9996363E+04;  1.9619516E-03;  0.0000000E+00; -1.0076951E-03;  4.7085458E+02;
  3.6157501E-01;  9.9999998E-03; -1.2000149E-01;4660;  4.4661267E-03;  0.0000000E+00;  8.3974468E-05;  1.0001475E+03;  1.0000000E-01;  1.2226815E+02;3;  2.0170628E-01;  0.0000000E+00; -3.1850543E-02;0;  8.0346246E-04;  4.0016906E+04;  0.0000000E+00; -8.6345285E-02;  4.0000000E+04;  0.0000000E+00;  3.9997191E+04;  1.8342002E-03;  0.0000000E+00; -1.0307378E-03;  3.5874109E+02;
  3.6158103E-01;  9.9999998E-03; -1.1000489E-01;4661;  4.4470611E-03;  0.0000000E+00;  7.0072470E-05;  1.0001429E+03;  1.0000000E-01;  1.1841640E+02;3;  1.9330357E-01;  0.0000000E+00; -3.3090282E-02;0;  6.7624380E-04;  4.0015309E+04;  0.0000000E+00; -4.2605586E-02;  4.0000000E+04;  0.0000000E+00;  3.9997938E+04;  1.7212962E-03;  0.0000000E+00; -1.0450524E-03;  2.2487881E+02;
  3.7140962E-01;  9.9999998E-03; -2.6999104E-01;4706;  5.0328313E-03;  0.0000000E+00;  2.5290882E-04;  9.9835876E+02;  1.0000000E-01; -1.3597146E+03;3;  2.9730153E-01;  0.0000000E+00; -2.2453476E-02;0;  8.5042473E-03;  3.9853848E+04;  0.0000000E+00;  1.4448343E-01;  4.0000000E+04;  0.0000000E+00;  4.0017555E+04;  9.0966281E-03;  0.0000000E+00; -5.9238117E-04;  2.3152561E+03;
  3.7141684E-01;  9.9999998E-03; -2.5999480E-01;4707;  4.9109971E-03;  0.0000000E+00;  2.6442669E-04;  9.9850842E+02;  1.0000000E-01; -1.2357676E+03;3;  2.8767410E-01;  0.0000000E+00; -2.3649761E-02;0;  7.6519977E-03;  3.9867496E+04;  0.0000000E+00;  2.2139443E-01;  4.0000000E+04;  0.0000000E+00;  4.0015598E+04;  8.4573729E-03;  0.0000000E+00; -8.0537534E-04;  2.1152563E+03;
  3.7143204E-01;  9.9999998E-03; -2.4999899E-01;4708;  4.8066741E-03;  0.0000000E+00;  2.6284310E-04;  9.9867780E+02;  1.0000000E-01; -1.0954258E+03;3;  2.7525467E-01;  0.0000000E+00; -2.1612287E-02;0;  6.9416063E-03;  3.9882949E+04;  0.0000000E+00;  2.5710410E-01;  4.0000000E+04;  0.0000000E+00;  4.0013977E+04;  7.7798106E-03;  0.0000000E+00; -8.3820446E-04;  1.8933073E+03;
  3.7144089E-01;  9.9999998E-03; -2.4000357E-01;4709;  4.7171307E-03;  0.0000000E+00;  2.5670626E-04;  9.9886206E+02;  1.0000000E-01; -9.4273877E+02;3;  2.5787425E-01;  0.0000000E+00; -1.6921133E-02;0;  6.2456764E-03;  3.9899285E+04;  0.0000000E+00;  2.5337490E-01;  4.0000000E+04;  0.0000000E+00;  4.0012172E+04;  7.0780115E-03;  0.0000000E+00; -8.3233503E-04;  1.6484574E+03;
  3.7143067E-01;  9.9999998E-03; -2.3001163E-01;4710;  4.6101930E-03;  0.0000000E+00;  2.7613665E-04;  9.9904254E+02;  1.0000000E-01; -7.9321216E+02;3;  2.1567869E-01;  0.0000000E+00; -6.5805875E-03;0;  5.4607536E-03;  3.9916441E+04;  0.0000000E+00;  2.1674229E-01;  4.0000000E+04;  0.0000000E+00;  4.0009316E+04;  6.3693044E-03;  0.0000000E+00; -9.0855069E-04;  1.2889795E+03;
  3.7141168E-01;  9.9999998E-03; -2.2002546E-01;4711;  4.5363195E-03;  0.0000000E+00;  2.7224733E-04;  9.9922034E+02;  1.0000000E-01; -6.4595703E+02;3;  1.8258081E-01;  0.0000000E+00; -5.3368248E-03;0;  4.7850609E-03;  3.9933516E+04;  0.0000000E+00;  1.5579863E-01;  4.0000000E+04;  0.0000000E+00;  4.0006176E+04;  5.6733959E-03;  0.0000000E+00; -8.8833529E-04;  8.7061725E+02;
  3.7139434E-01;  9.9999998E-03; -2.1003219E-01;4712;  4.5042881E-03;  0.0000000E+00;  2.3836257E-04;  9.9940411E+02;  1.0000000E-01; -4.9366504E+02;3;  1.6621312E-01;  0.0000000E+00; -1.1379321E-02;0;  4.1663875E-03;  3.9950508E+04;  0.0000000E+00;  8.0434375E-02;  4.0000000E+04;  0.0000000E+00;  4.0004953E+04;  5.0100028E-03;  0.0000000E+00; -8.4361539E-04;  6.3418195E+02;
  3.7138429E-01;  9.9999998E-03; -2.0002879E-01;4713;  4.4924035E-03;  0.0000000E+00;  2.1128211E-04;  9.9957983E+02;  1.0000000E-01; -3.4808893E+02;3;  1.6319108E-01;  0.0000000E+00; -1.4062508E-02;0;  3.5548655E-03;  3.9965320E+04;  0.0000000E+00;  1.3015060E-03;  4.0000000E+04;  0.0000000E+00;  4.0003594E+04;  4.3978537E-03;  0.0000000E+00; -8.4298820E-04;  4.5472223E+02;
  3.7138838E-01;  9.9999998E-03; -1.9002137E-01;4714;  4.5004366E-03;  0.0000000E+00;  1.9379727E-04;  9.9972528E+02;  1.0000000E-01; -2.2759850E+02;3;  1.7546356E-01;  0.0000000E+00; -1.8063828E-02;0;  2.9881953E-03;  3.9978699E+04;  0.0000000E+00; -7.0725597E-02;  4.0000000E+04;  0.0000000E+00;  4.0001973E+04;  3.8526268E-03;  0.0000000E+00; -8.6443144E-04;  2.5759683E+02;
  3.7140936E-01;  9.9999998E-03; -1.8001257E-01;4715;  4.5241341E-03;  0.0000000E+00;  1.7890918E-04;  9.9983905E+02;  1.0000000E-01; -1.3332956E+02;3;  2.0019953E-01;  0.0000000E+00; -1.8150084E-02;0;  2.4898741E-03;  3.9989449E+04;  0.0000000E+00; -1.2599196E-01;  4.0000000E+04;  0.0000000E+00;  4.0000258E+04;  3.3839399E-03;  0.0000000E+00; -8.9406560E-04;  1.8371657E+02;
  3.7144604E-01;  9.9999998E-03; -1.7000259E-01;4716;  4.5449268E-03;  0.0000000E+00;  1.6549567E-04;  9.9991870E+02;  1.0000000E-01; -6.7356117E+01;3;  2.3454605E-01;  0.0000000E+00; -2.0905452E-02;0;  2.0659205E-03;  3.9998094E+04;  0.0000000E+00; -1.5768959E-01;  4.0000000E+04;  0.0000000E+00;  3.9998605E+04;  2.9942398E-03;  0.0000000E+00; -9.2831935E-04;  3.0865283E+02;
  3.7149125E-01;  9.9999998E-03; -1.5999413E-01;4717;  4.5487531E-03;  0.0000000E+00;  1.5517176E-04;  9.9998163E+02;  1.0000000E-01; -1.5209446E+01;3;  2.4803519E-01;  0.0000000E+00; -1.9180577E-02;0;  1.7148264E-03;  4.0004008E+04;  0.0000000E+00; -1.6343178E-01;  4.0000000E+04;  0.0000000E+00;  3.9997410E+04;  2.6793480E-03;  0.0000000E+00; -9.6452155E-04;  4.2652573E+02;
  3.7153584E-01;  9.9999998E-03; -1.4999034E-01;4718;  4.5446111E-03;  0.0000000E+00;  1.4417102E-04;  1.0000242E+03;  1.0000000E-01;  2.0048815E+01;3;  2.5068358E-01;  0.0000000E+00; -1.7410433E-02;0;  1.4300938E-03;  4.0007684E+04;  0.0000000E+00; -1.4587604E-01;  4.0000000E+04;  0.0000000E+00;  3.9996938E+04;  2.4300851E-03;  0.0000000E+00; -9.9999132E-04;  4.7873340E+02;
  3.7157309E-01;  9.9999998E-03; -1.3999084E-01;4719;  4.5363177E-03;  0.0000000E+00;  1.3292253E-04;  1.0000458E+03;  1.0000000E-01;  3.7924854E+01;3;  2.4985389E-01;  0.0000000E+00; -1.6285853E-02;0;  1.2019466E-03;  4.0009344E+04;  0.0000000E+00; -1.1188806E-01;  4.0000000E+04;  0.0000000E+00;  3.9996727E+04;  2.2342212E-03;  0.0000000E+00; -1.0322746E-03;  4.6363556E+02;
  3.7159806E-01;  9.9999998E-03; -1.2999447E-01;4720;  4.5242654E-03;  0.0000000E+00;  1.2130805E-04;  1.0000574E+03;  1.0000000E-01;  4.7603592E+01;3;  2.4613918E-01;  0.0000000E+00; -1.6371261E-02;0;  1.0195022E-03;  4.0009988E+04;  0.0000000E+00; -7.0255458E-02;  4.0000000E+04;  0.0000000E+00;  3.9996855E+04;  2.0789043E-03;  0.0000000E+00; -1.0594021E-03;  3.9618909E+02;
  3.7160826E-01;  9.9999998E-03; -1.2000000E-01;4721;  4.5079365E-03;  0.0000000E+00;  1.0912416E-04;  1.0000645E+03;  1.0000000E-01;  5.3430588E+01;3;  2.3826209E-01;  0.0000000E+00; -1.8424176E-02;0;  8.7258255E-04;  4.0009543E+04;  0.0000000E+00; -2.9099008E-02;  4.0000000E+04;  0.0000000E+00;  3.9997461E+04;  1.9529301E-03;  0.0000000E+00; -1.0803476E-03;  2.9684671E+02;
  3.7160173E-01;  9.9999998E-03; -1.1000600E-01;4722;  4.4862605E-03;  0.0000000E+00;  9.5863455E-05;  1.0000706E+03;  1.0000000E-01;  5.8467484E+01;3;  2.2821166E-01;  0.0000000E+00; -1.9978022E-02;0;  7.5278291E-04;  4.0009133E+04;  0.0000000E+00;  5.7370677E-03;  4.0000000E+04;  0.0000000E+00;  3.9998586E+04;  1.8478525E-03;  0.0000000E+00; -1.0950696E-03;  1.8729849E+02;
  3.8141534E-01;  9.9999998E-03; -2.6999184E-01;4767;  5.0488245E-03;  0.0000000E+00;  2.6307598E-04;  9.9836768E+02;  1.0000000E-01; -1.3523568E+03;3;  3.0242646E-01;  0.0000000E+00; -2.3363907E-02;0;  8.2852505E-03;  3.9853480E+04;  0.0000000E+00;  6.1334785E-02;  4.0000000E+04;  0.0000000E+00;  4.0017801E+04;  8.8318745E-03;  0.0000000E+00; -5.4662360E-04;  2.2935024E+03;
  3.8141969E-01;  9.9999998E-03; -2.5999537E-01;4768;  4.9426090E-03;  0.0000000E+00;  2.6942170E-04;  9.9851581E+02;  1.0000000E-01; -1.2296443E+03;3;  2.9603755E-01;  0.0000000E+00; -2.5025420E-02;0;  7.4974364E-03;  3.9866898E+04;  0.0000000E+00;  1.2384662E-01;  4.0000000E+04;  0.0000000E+00;  4.0015570E+04;  8.2516829E-03;  0.0000000E+00; -7.5424643E-04;  2.0842729E+03;
  3.8142648E-01;  9.9999998E-03; -2.4999902E-01;4769;  4.8492881E-03;  0.0000000E+00;  2.6877181E-04;  9.9867725E+02;  1.0000000E-01; -1.0958702E+03;3;  2.8739443E-01;  0.0000000E+00; -2.4736881E-02;0;  6.7923586E-03;  3.9881613E+04;  0.0000000E+00;  1.5597287E-01;  4.0000000E+04;  0.0000000E+00;  4.0013465E+04;  7.6334397E-03;  0.0000000E+00; -8.4108132E-04;  1.8596880E+03;
  3.8143542E-01;  9.9999998E-03; -2.4000245E-01;4770;  4.7765076E-03;  0.0000000E+00;  2.5877400E-04;  9.9885016E+02;  1.0000000E-01; -9.5261505E+02;3;  2.7692866E-01;  0.0000000E+00; -2.2595536E-02;0;  6.1359215E-03;  3.9897102E+04;  0.0000000E+00;  1.5886611E-01;  4.0000000E+04;  0.0000000E+00;  4.0012125E+04;  6.9875768E-03;  0.0000000E+00; -8.5165550E-04;  1.6289030E+03;
  3.8143966E-01;  9.9999998E-03; -2.3000643E-01;4771;  4.7098412E-03;  0.0000000E+00;  2.5693534E-04;  9.9902679E+02;  1.0000000E-01; -8.0629816E+02;3;  2.6551878E-01;  0.0000000E+00; -1.9583169E-02;0;  5.4360600E-03;  3.9913410E+04;  0.0000000E+00;  1.3786711E-01;  4.0000000E+04;  0.0000000E+00;  4.0010316E+04;  6.3287863E-03;  0.0000000E+00; -8.9272636E-04;  1.3512186E+03;
  3.8144055E-01;  9.9999998E-03; -2.2001271E-01;4772;  4.6598371E-03;  0.0000000E+00;  2.5488652E-04;  9.9919366E+02;  1.0000000E-01; -6.6803052E+02;3;  2.5444007E-01;  0.0000000E+00; -1.6885489E-02;0;  4.7566760E-03;  3.9929422E+04;  0.0000000E+00;  9.9007703E-02;  4.0000000E+04;  0.0000000E+00;  4.0007477E+04;  5.6747817E-03;  0.0000000E+00; -9.1810554E-04;  1.0135185E+03;
  3.8144442E-01;  9.9999998E-03; -2.1001333E-01;4773;  4.6391892E-03;  0.0000000E+00;  2.3462017E-04;  9.9936255E+02;  1.0000000E-01; -5.2813324E+02;3;  2.5352132E-01;  0.0000000E+00; -1.7552577E-02;0;  4.1297833E-03;  3.9944914E+04;  0.0000000E+00;  4.9502686E-02;  4.0000000E+04;  0.0000000E+00;  4.0005848E+04;  5.0443327E-03;  0.0000000E+00; -9.1454946E-04;  7.6569391E+02;
  3.8145497E-01;  9.9999998E-03; -2.0000592E-01;4774;  4.6253423E-03;  0.0000000E+00;  2.1760749E-04;  9.9951520E+02;  1.0000000E-01; -4.0166766E+02;3;  2.5628832E-01;  0.0000000E+00; -1.9753143E-02;0;  3.5277186E-03;  3.9959027E+04;  0.0000000E+00; -2.5251377E-03;  4.0000000E+04;  0.0000000E+00;  4.0004027E+04;  4.4560968E-03;  0.0000000E+00; -9.2837831E-04;  5.3875085E+02;
  3.8147715E-01;  9.9999998E-03; -1.8999578E-01;4775;  4.6120426E-03;  0.0000000E+00;  2.0511421E-04;  9.9964508E+02;  1.0000000E-01; -2.9406577E+02;3;  2.5954166E-01;  0.0000000E+00; -2.0185538E-02;0;  2.9758089E-03;  3.9971512E+04;  0.0000000E+00; -4.8709597E-02;  4.0000000E+04;  0.0000000E+00;  4.0001984E+04;  3.9263964E-03;  0.0000000E+00; -9.5058756E-04;  2.8792859E+02;
  3.8151228E-01;  9.9999998E-03; -1.7998582E-01;4776;  4.5980220E-03;  0.0000000E+00;  1.9507855E-04;  9.9975043E+02;  1.0000000E-01; -2.0675958E+02;3;  2.5914761E-01;  0.0000000E+00; -2.0863062E-02;0;  2.4902546E-03;  3.9982137E+04;  0.0000000E+00; -8.1746019E-02;  4.0000000E+04;  0.0000000E+00;  4.0000078E+04;  3.4664874E-03;  0.0000000E+00; -9.7623281E-04;  1.2253809E+02;
  3.8155434E-01;  9.9999998E-03; -1.6997780E-01;4777;  4.5855907E-03;  0.0000000E+00;  1.8470113E-04;  9.9984259E+02;  1.0000000E-01; -1.3041606E+02;3;  2.5722942E-01;  0.0000000E+00; -1.8522386E-02;0;  2.0772102E-03;  3.9990551E+04;  0.0000000E+00; -9.6752532E-02;  4.0000000E+04;  0.0000000E+00;  3.9998359E+04;  3.0811799E-03;  0.0000000E+00; -1.0039697E-03;  2.3084937E+02;
  3.8159266E-01;  9.9999998E-03; -1.5997353E-01;4778;  4.5743473E-03;  0.0000000E+00;  1.7395191E-04;  9.9990631E+02;  1.0000000E-01; -7.7627434E+01;3;  2.5619298E-01;  0.0000000E+00; -1.6729407E-02;0;  1.7355426E-03;  3.9997016E+04;  0.0000000E+00; -9.2426330E-02;  4.0000000E+04;  0.0000000E+00;  3.9997387E+04;  2.7686460E-03;  0.0000000E+00; -1.0331034E-03;  3.4511353E+02;
  3.8162223E-01;  9.9999998E-03; -1.4997369E-01;4779;  4.5622862E-03;  0.0000000E+00;  1.6305302E-04;  9.9995404E+02;  1.0000000E-01; -3.8072998E+01;3;  2.5529388E-01;  0.0000000E+00; -1.4726201E-02;0;  1.4592862E-03;  4.0001074E+04;  0.0000000E+00; -7.1455806E-02;  4.0000000E+04;  0.0000000E+00;  3.9996656E+04;  2.5215135E-03;  0.0000000E+00; -1.0622273E-03;  3.9354047E+02;
  3.8164341E-01;  9.9999998E-03; -1.3997757E-01;4780;  4.5490093E-03;  0.0000000E+00;  1.5247054E-04;  9.9998706E+02;  1.0000000E-01; -1.0715746E+01;3;  2.5406843E-01;  0.0000000E+00; -1.2102834E-02;0;  1.2393873E-03;  4.0003820E+04;  0.0000000E+00; -3.9888274E-02;  4.0000000E+04;  0.0000000E+00;  3.9996840E+04;  2.3290894E-03;  0.0000000E+00; -1.0897021E-03;  3.8309677E+02;
  3.8165596E-01;  9.9999998E-03; -1.2998374E-01;4781;  4.5344718E-03;  0.0000000E+00;  1.4244278E-04;  1.0000093E+03;  1.0000000E-01;  7.7034860E+00;3;  2.5271520E-01;  0.0000000E+00; -9.4685117E-03;0;  1.0658042E-03;  4.0004699E+04;  0.0000000E+00; -5.1859040E-03;  4.0000000E+04;  0.0000000E+00;  3.9996934E+04;  2.1799344E-03;  0.0000000E+00; -1.1141303E-03;  3.3159152E+02;
  3.8165888E-01;  9.9999998E-03; -1.1999097E-01;4782;  4.5185951E-03;  0.0000000E+00;  1.3257544E-04;  1.0000201E+03;  1.0000000E-01;  1.6690886E+01;3;  2.4921858E-01;  0.0000000E+00; -8.6221062E-03;0;  9.2910731E-04;  4.0004855E+04;  0.0000000E+00;  2.6158264E-02;  4.0000000E+04;  0.0000000E+00;  3.9997613E+04;  2.0638264E-03;  0.0000000E+00; -1.1347191E-03;  2.5868823E+02;
  3.8165167E-01;  9.9999998E-03; -1.0999802E-01;4783;  4.5015221E-03;  0.0000000E+00;  1.2218370E-04;  1.0000256E+03;  1.0000000E-01;  2.1233967E+01;3;  2.4320807E-01;  0.0000000E+00; -8.5663768E-03;0;  8.2118821E-04;  4.0004840E+04;  0.0000000E+00;  4.9940355E-02;  4.0000000E+04;  0.0000000E+00;  3.9998418E+04;  1.9725084E-03;  0.0000000E+00; -1.1513202E-03;  1.8374857E+02;
  3.9141577E-01;  9.9999998E-03; -2.6999202E-01;4828;  5.0409064E-03;  0.0000000E+00;  2.8522898E-04;  9.9837817E+02;  1.0000000E-01; -1.3436656E+03;3;  3.0553582E-01;  0.0000000E+00; -2.4374992E-02;0;  8.0702854E-03;  3.9853152E+04;  0.0000000E+00; -1.4586624E-02;  4.0000000E+04;  0.0000000E+00;  4.0017262E+04;  8.7084640E-03;  0.0000000E+00; -6.3817872E-04;  2.2820835E+03;
  3.9141771E-01;  9.9999998E-03; -2.5999516E-01;4829;  4.9433089E-03;  0.0000000E+00;  2.8998585E-04;  9.9851910E+02;  1.0000000E-01; -1.2268789E+03;3;  3.0034989E-01;  0.0000000E+00; -2.6456453E-02;0;  7.3249592E-03;  3.9866324E+04;  0.0000000E+00;  3.0520318E-02;  4.0000000E+04;  0.0000000E+00;  4.0015770E+04;  8.1628803E-03;  0.0000000E+00; -8.3792134E-04;  2.0746340E+03;
  3.9143032E-01;  9.9999998E-03; -2.4999826E-01;4830;  4.8585404E-03;  0.0000000E+00;  2.8675466E-04;  9.9867645E+02;  1.0000000E-01; -1.0965122E+03;3;  2.9230186E-01;  0.0000000E+00; -2.5373919E-02;0;  6.6659618E-03;  3.9880402E+04;  0.0000000E+00;  5.7227347E-02;  4.0000000E+04;  0.0000000E+00;  4.0013434E+04;  7.5790021E-03;  0.0000000E+00; -9.1304001E-04;  1.8495237E+03;
  3.9145055E-01;  9.9999998E-03; -2.4000049E-01;4831;  4.7933855E-03;  0.0000000E+00;  2.7250109E-04;  9.9884167E+02;  1.0000000E-01; -9.5962720E+02;3;  2.8347683E-01;  0.0000000E+00; -2.3506003E-02;0;  6.0537807E-03;  3.9895602E+04;  0.0000000E+00;  6.6510081E-02;  4.0000000E+04;  0.0000000E+00;  4.0012270E+04;  6.9650016E-03;  0.0000000E+00; -9.1122079E-04;  1.6362517E+03;
  3.9146677E-01;  9.9999998E-03; -2.3000111E-01;4832;  4.7428524E-03;  0.0000000E+00;  2.5819521E-04;  9.9901697E+02;  1.0000000E-01; -8.1444611E+02;3;  2.7697650E-01;  0.0000000E+00; -2.2595195E-02;0;  5.4096878E-03;  3.9910945E+04;  0.0000000E+00;  6.1257880E-02;  4.0000000E+04;  0.0000000E+00;  4.0010816E+04;  6.3337628E-03;  0.0000000E+00; -9.2407520E-04;  1.4229617E+03;
  3.9148107E-01;  9.9999998E-03; -2.2000031E-01;4833;  4.6976483E-03;  0.0000000E+00;  2.5214575E-04;  9.9918402E+02;  1.0000000E-01; -6.7603027E+02;3;  2.7008960E-01;  0.0000000E+00; -2.1739246E-02;0;  4.7412431E-03;  3.9926523E+04;  0.0000000E+00;  4.4786107E-02;  4.0000000E+04;  0.0000000E+00;  4.0008609E+04;  5.7018618E-03;  0.0000000E+00; -9.6061866E-04;  1.1710637E+03;
  3.9149925E-01;  9.9999998E-03; -2.0999485E-01;4834;  4.6665715E-03;  0.0000000E+00;  2.4332239E-04;  9.9933850E+02;  1.0000000E-01; -5.4803387E+02;3;  2.6641911E-01;  0.0000000E+00; -2.0840049E-02;0;  4.1033798E-03;  3.9941207E+04;  0.0000000E+00;  2.1630762E-02;  4.0000000E+04;  0.0000000E+00;  4.0006730E+04;  5.0880420E-03;  0.0000000E+00; -9.8466233E-04;  9.2074237E+02;
  3.9152372E-01;  9.9999998E-03; -1.9998552E-01;4835;  4.6431450E-03;  0.0000000E+00;  2.3454634E-04;  9.9948163E+02;  1.0000000E-01; -4.2946933E+02;3;  2.6395220E-01;  0.0000000E+00; -2.0450911E-02;0;  3.5052490E-03;  3.9955016E+04;  0.0000000E+00; -2.8266693E-03;  4.0000000E+04;  0.0000000E+00;  4.0004609E+04;  4.5116055E-03;  0.0000000E+00; -1.0063563E-03;  6.4043201E+02;
  3.9155400E-01;  9.9999998E-03; -1.8997617E-01;4836;  4.6238764E-03;  0.0000000E+00;  2.2546017E-04;  9.9961115E+02;  1.0000000E-01; -3.2216373E+02;3;  2.6284680E-01;  0.0000000E+00; -2.0266069E-02;0;  2.9624889E-03;  3.9967504E+04;  0.0000000E+00; -2.3036581E-02;  4.0000000E+04;  0.0000000E+00;  4.0002285E+04;  3.9898162E-03;  0.0000000E+00; -1.0273273E-03;  3.4310349E+02;
  3.9158496E-01;  9.9999998E-03; -1.7996883E-01;4837;  4.6079899E-03;  0.0000000E+00;  2.1568024E-04;  9.9971826E+02;  1.0000000E-01; -2.3342549E+02;3;  2.6042911E-01;  0.0000000E+00; -1.8221464E-02;0;  2.4861773E-03;  3.9978379E+04;  0.0000000E+00; -3.4304198E-02;  4.0000000E+04;  0.0000000E+00;  4.0000176E+04;  3.5353175E-03;  0.0000000E+00; -1.0491402E-03;  8.9983162E+01;
  3.9161184E-01;  9.9999998E-03; -1.6996467E-01;4838;  4.5939004E-03;  0.0000000E+00;  2.0496582E-04;  9.9981036E+02;  1.0000000E-01; -1.5713136E+02;3;  2.5859529E-01;  0.0000000E+00; -1.6857715E-02;0;  2.0819521E-03;  3.9986969E+04;  0.0000000E+00; -3.3753801E-02;  4.0000000E+04;  0.0000000E+00;  3.9998871E+04;  3.1545670E-03;  0.0000000E+00; -1.0726150E-03;  1.3864948E+02;
  3.9163330E-01;  9.9999998E-03; -1.5996425E-01;4839;  4.5797527E-03;  0.0000000E+00;  1.9416574E-04;  9.9988672E+02;  1.0000000E-01; -9.3873886E+01;3;  2.5718939E-01;  0.0000000E+00; -1.4706183E-02;0;  1.7497397E-03;  3.9994180E+04;  0.0000000E+00; -2.1113785E-02;  4.0000000E+04;  0.0000000E+00;  3.9997562E+04;  2.8473560E-03;  0.0000000E+00; -1.0976163E-03;  2.5806537E+02;
  3.9164823E-01;  9.9999998E-03; -1.4996701E-01;4840;  4.5645745E-03;  0.0000000E+00;  1.8328408E-04;  9.9994153E+02;  1.0000000E-01; -4.8443073E+01;3;  2.5543258E-01;  0.0000000E+00; -1.2366205E-02;0;  1.4841853E-03;  3.9999012E+04;  0.0000000E+00;  1.0695886E-03;  4.0000000E+04;  0.0000000E+00;  3.9997227E+04;  2.6074792E-03;  0.0000000E+00; -1.1232939E-03;  3.1458142E+02;
  3.9165995E-01;  9.9999998E-03; -1.3997206E-01;4841;  4.5485338E-03;  0.0000000E+00;  1.7279130E-04;  9.9997961E+02;  1.0000000E-01; -1.6888411E+01;3;  2.5413060E-01;  0.0000000E+00; -9.6087828E-03;0;  1.2762786E-03;  4.0002070E+04;  0.0000000E+00;  2.7981410E-02;  4.0000000E+04;  0.0000000E+00;  3.9997301E+04;  2.4248760E-03;  0.0000000E+00; -1.1485973E-03;  3.2183807E+02;
  3.9166966E-01;  9.9999998E-03; -1.2997831E-01;4842;  4.5319614E-03;  0.0000000E+00;  1.6294932E-04;  1.0000024E+03;  1.0000000E-01;  1.9752527E+00;3;  2.5286075E-01;  0.0000000E+00; -6.8407403E-03;0;  1.1158278E-03;  4.0003602E+04;  0.0000000E+00;  5.3975202E-02;  4.0000000E+04;  0.0000000E+00;  3.9997449E+04;  2.2884004E-03;  0.0000000E+00; -1.1725726E-03;  2.9707806E+02;
  3.9167500E-01;  9.9999998E-03; -1.1998478E-01;4843;  4.5159506E-03;  0.0000000E+00;  1.5386172E-04;  1.0000142E+03;  1.0000000E-01;  1.1752754E+01;3;  2.5096351E-01;  0.0000000E+00; -4.6623056E-03;0;  9.9296554E-04;  4.0004180E+04;  0.0000000E+00;  7.4486285E-02;  4.0000000E+04;  0.0000000E+00;  3.9997863E+04;  2.1876015E-03;  0.0000000E+00; -1.1946360E-03;  2.5594670E+02;
  3.9167428E-01;  9.9999998E-03; -1.0999028E-01;4844;  4.5012543E-03;  0.0000000E+00;  1.4460841E-04;  1.0000184E+03;  1.0000000E-01;  1.5209446E+01;3;  2.4773797E-01;  0.0000000E+00; -3.6232618E-03;0;  8.9881581E-04;  4.0003531E+04;  0.0000000E+00;  8.7044880E-02;  4.0000000E+04;  0.0000000E+00;  3.9998812E+04;  2.1133679E-03;  0.0000000E+00; -1.2145521E-03;  2.1088910E+02;
  4.0140554E-01;  9.9999998E-03; -2.6999170E-01;4889;  5.0237360E-03;  0.0000000E+00;  3.1130630E-04;  9.9838202E+02;  1.0000000E-01; -1.3404559E+03;3;  3.0662233E-01;  0.0000000E+00; -2.3558527E-02;0;  8.0523584E-03;  3.9852289E+04;  0.0000000E+00; -7.6349668E-02;  4.0000000E+04;  0.0000000E+00;  4.0017234E+04;  8.8217808E-03;  0.0000000E+00; -7.6942192E-04;  2.2899788E+03;
  4.0140963E-01;  9.9999998E-03; -2.5999451E-01;4890;  4.9336632E-03;  0.0000000E+00;  3.1279470E-04;  9.9852155E+02;  1.0000000E-01; -1.2248542E+03;3;  3.0218294E-01;  0.0000000E+00; -2.5191361E-02;0;  7.3483041E-03;  3.9865398E+04;  0.0000000E+00; -4.9823642E-02;  4.0000000E+04;  0.0000000E+00;  4.0015566E+04;  8.2812356E-03;  0.0000000E+00; -9.3293161E-04;  2.0841152E+03;
  4.0142277E-01;  9.9999998E-03; -2.4999705E-01;4891;  4.8545268E-03;  0.0000000E+00;  3.0745074E-04;  9.9867664E+02;  1.0000000E-01; -1.0963640E+03;3;  2.9469219E-01;  0.0000000E+00; -2.4173746E-02;0;  6.7090737E-03;  3.9879184E+04;  0.0000000E+00; -3.1336576E-02;  4.0000000E+04;  0.0000000E+00;  4.0013770E+04;  7.7018295E-03;  0.0000000E+00; -9.9275575E-04;  1.8625732E+03;
  4.0144527E-01;  9.9999998E-03; -2.3999831E-01;4892;  4.7935182E-03;  0.0000000E+00;  2.9059616E-04;  9.9883917E+02;  1.0000000E-01; -9.6170117E+02;3;  2.8660253E-01;  0.0000000E+00; -2.2544380E-02;0;  6.1113969E-03;  3.9894156E+04;  0.0000000E+00; -1.9326651E-02;  4.0000000E+04;  0.0000000E+00;  4.0012324E+04;  7.0907944E-03;  0.0000000E+00; -9.7939745E-04;  1.6651107E+03;
  4.0146890E-01;  9.9999998E-03; -2.2999625E-01;4893;  4.7473223E-03;  0.0000000E+00;  2.7068530E-04;  9.9901508E+02;  1.0000000E-01; -8.1597693E+02;3;  2.8108767E-01;  0.0000000E+00; -2.2365047E-02;0;  5.4828548E-03;  3.9909176E+04;  0.0000000E+00; -1.2726215E-02;  4.0000000E+04;  0.0000000E+00;  4.0011156E+04;  6.4601908E-03;  0.0000000E+00; -9.7733608E-04;  1.5066492E+03;
  4.0148959E-01;  9.9999998E-03; -2.1999130E-01;4894;  4.7009797E-03;  0.0000000E+00;  2.6522530E-04;  9.9918445E+02;  1.0000000E-01; -6.7568457E+02;3;  2.7271149E-01;  0.0000000E+00; -2.0659367E-02;0;  4.8054219E-03;  3.9924484E+04;  0.0000000E+00; -1.0431306E-02;  4.0000000E+04;  0.0000000E+00;  4.0009469E+04;  5.8264872E-03;  0.0000000E+00; -1.0210654E-03;  1.2985206E+03;
  4.0151146E-01;  9.9999998E-03; -2.0998478E-01;4895;  4.6659857E-03;  0.0000000E+00;  2.6214347E-04;  9.9933948E+02;  1.0000000E-01; -5.4724377E+02;3;  2.6811758E-01;  0.0000000E+00; -1.9320510E-02;0;  4.1546137E-03;  3.9939355E+04;  0.0000000E+00; -1.0345594E-02;  4.0000000E+04;  0.0000000E+00;  4.0007469E+04;  5.2091079E-03;  0.0000000E+00; -1.0544941E-03;  1.0176679E+03;
  4.0153581E-01;  9.9999998E-03; -1.9997773E-01;4896;  4.6411455E-03;  0.0000000E+00;  2.5538672E-04;  9.9948419E+02;  1.0000000E-01; -4.2734595E+02;3;  2.6523298E-01;  0.0000000E+00; -1.9429255E-02;0;  3.5521965E-03;  3.9953484E+04;  0.0000000E+00; -9.7984793E-03;  4.0000000E+04;  0.0000000E+00;  4.0004859E+04;  4.6281181E-03;  0.0000000E+00; -1.0759217E-03;  7.0088000E+02;
  4.0156049E-01;  9.9999998E-03; -1.8997188E-01;4897;  4.6220608E-03;  0.0000000E+00;  2.4622917E-04;  9.9961493E+02;  1.0000000E-01; -3.1900333E+02;3;  2.6216546E-01;  0.0000000E+00; -1.8083077E-02;0;  3.0071537E-03;  3.9966379E+04;  0.0000000E+00; -6.0682199E-03;  4.0000000E+04;  0.0000000E+00;  4.0002527E+04;  4.1018138E-03;  0.0000000E+00; -1.0946600E-03;  3.9217221E+02;
  4.0158251E-01;  9.9999998E-03; -1.7996819E-01;4898;  4.6057785E-03;  0.0000000E+00;  2.3588046E-04;  9.9972772E+02;  1.0000000E-01; -2.2557387E+02;3;  2.6013964E-01;  0.0000000E+00; -1.6692344E-02;0;  2.5298838E-03;  3.9978043E+04;  0.0000000E+00;  2.8915666E-03;  4.0000000E+04;  0.0000000E+00;  4.0000453E+04;  3.6442589E-03;  0.0000000E+00; -1.1143751E-03;  1.3192372E+02;
  4.0160114E-01;  9.9999998E-03; -1.6996720E-01;4899;  4.5911078E-03;  0.0000000E+00;  2.2509199E-04;  9.9982806E+02;  1.0000000E-01; -1.4246510E+02;3;  2.5855237E-01;  0.0000000E+00; -1.4843606E-02;0;  2.1273787E-03;  3.9987590E+04;  0.0000000E+00;  1.7899316E-02;  4.0000000E+04;  0.0000000E+00;  3.9999145E+04;  3.2633985E-03;  0.0000000E+00; -1.1360198E-03;  6.4556885E+01;
  4.0161720E-01;  9.9999998E-03; -1.5996870E-01;4900;  4.5755003E-03;  0.0000000E+00;  2.1436134E-04;  9.9991528E+02;  1.0000000E-01; -7.0170853E+01;3;  2.5650173E-01;  0.0000000E+00; -1.2968302E-02;0;  1.8006234E-03;  3.9994848E+04;  0.0000000E+00;  3.8156040E-02;  4.0000000E+04;  0.0000000E+00;  3.9998246E+04;  2.9601594E-03;  0.0000000E+00; -1.1595361E-03;  1.9076900E+02;
  4.0163219E-01;  9.9999998E-03; -1.4997229E-01;4901;  4.5588021E-03;  0.0000000E+00;  2.0373568E-04;  9.9997614E+02;  1.0000000E-01; -1.9752527E+01;3;  2.5493217E-01;  0.0000000E+00; -1.0786902E-02;0;  1.5444729E-03;  4.0000133E+04;  0.0000000E+00;  6.1247312E-02;  4.0000000E+04;  0.0000000E+00;  3.9997758E+04;  2.7288955E-03;  0.0000000E+00; -1.1844226E-03;  2.6241278E+02;
  4.0164441E-01;  9.9999998E-03; -1.3997704E-01;4902;  4.5413431E-03;  0.0000000E+00;  1.9332145E-04;  1.0000151E+03;  1.0000000E-01;  1.2444093E+01;3;  2.5380066E-01;  0.0000000E+00; -7.8461897E-03;0;  1.3493603E-03;  4.0003766E+04;  0.0000000E+00;  8.3599500E-02;  4.0000000E+04;  0.0000000E+00;  3.9997961E+04;  2.5593420E-03;  0.0000000E+00; -1.2099816E-03;  2.9300433E+02;
  4.0165496E-01;  9.9999998E-03; -1.2998196E-01;4903;  4.5233965E-03;  0.0000000E+00;  1.8308562E-04;  1.0000414E+03;  1.0000000E-01;  3.4270638E+01;3;  2.5139049E-01;  0.0000000E+00; -6.0328078E-03;0;  1.2040037E-03;  4.0005648E+04;  0.0000000E+00;  1.0148104E-01;  4.0000000E+04;  0.0000000E+00;  3.9997984E+04;  2.4395746E-03;  0.0000000E+00; -1.2355709E-03;  2.9528540E+02;
  4.0166396E-01;  9.9999998E-03; -1.1998619E-01;4904;  4.5073312E-03;  0.0000000E+00;  1.7354345E-04;  1.0000445E+03;  1.0000000E-01;  3.6838463E+01;3;  2.4961145E-01;  0.0000000E+00; -3.8175022E-03;0;  1.0970455E-03;  4.0006156E+04;  0.0000000E+00;  1.1231012E-01;  4.0000000E+04;  0.0000000E+00;  3.9998328E+04;  2.3577947E-03;  0.0000000E+00; -1.2607492E-03;  2.7956970E+02;
  4.0166852E-01;  9.9999998E-03; -1.0998923E-01;4905;  4.4939034E-03;  0.0000000E+00;  1.6380924E-04;  1.0000375E+03;  1.0000000E-01;  3.1110231E+01;3;  2.4839614E-01;  0.0000000E+00; -1.9903069E-03;0;  1.0178433E-03;  4.0005199E+04;  0.0000000E+00;  1.1524683E-01;  4.0000000E+04;  0.0000000E+00;  3.9998801E+04;  2.3030068E-03;  0.0000000E+00; -1.2851636E-03;  2.5296802E+02;
  4.1140407E-01;  9.9999998E-03; -2.6999119E-01;4950;  5.0026118E-03;  0.0000000E+00;  3.4019444E-04;  9.9837964E+02;  1.0000000E-01; -1.3424312E+03;3;  3.0766463E-01;  0.0000000E+00; -2.1827109E-02;0;  8.2985954E-03;  3.9851629E+04;  0.0000000E+00; -1.3296218E-01;  4.0000000E+04;  0.0000000E+00;  4.0017191E+04;  9.2244046E-03;  0.0000000E+00; -9.2580880E-04;  2.3111172E+03;
  4.1140816E-01;  9.9999998E-03; -2.5999370E-01;4951;  4.9205953E-03;  0.0000000E+00;  3.3694273E-04;  9.9852191E+02;  1.0000000E-01; -1.2245580E+03;3;  3.0282623E-01;  0.0000000E+00; -2.2568952E-02;0;  7.6286821E-03;  3.9864449E+04;  0.0000000E+00; -1.2036835E-01;  4.0000000E+04;  0.0000000E+00;  4.0015848E+04;  8.6592352E-03;  0.0000000E+00; -1.0305531E-03;  2.1055745E+03;
  4.1141641E-01;  9.9999998E-03; -2.4999587E-01;4952;  4.8465603E-03;  0.0000000E+00;  3.2930114E-04;  9.9867572E+02;  1.0000000E-01; -1.0971542E+03;3;  2.9588446E-01;  0.0000000E+00; -2.1546686E-02;0;  6.9842259E-03;  3.9878289E+04;  0.0000000E+00; -1.0883479E-01;  4.0000000E+04;  0.0000000E+00;  4.0013949E+04;  8.0542844E-03;  0.0000000E+00; -1.0700586E-03;  1.8891499E+03;
  4.1143286E-01;  9.9999998E-03; -2.3999648E-01;4953;  4.7869212E-03;  0.0000000E+00;  3.1194859E-04;  9.9883527E+02;  1.0000000E-01; -9.6496039E+02;3;  2.8792092E-01;  0.0000000E+00; -2.0139523E-02;0;  6.3649979E-03;  3.9893145E+04;  0.0000000E+00; -9.6242450E-02;  4.0000000E+04;  0.0000000E+00;  4.0012594E+04;  7.4173054E-03;  0.0000000E+00; -1.0523073E-03;  1.7045872E+03;
  4.1145205E-01;  9.9999998E-03; -2.2999328E-01;4954;  4.7404575E-03;  0.0000000E+00;  2.9014895E-04;  9.9901794E+02;  1.0000000E-01; -8.1360663E+02;3;  2.8247589E-01;  0.0000000E+00; -2.0617945E-02;0;  5.7187509E-03;  3.9908461E+04;  0.0000000E+00; -8.2060851E-02;  4.0000000E+04;  0.0000000E+00;  4.0011691E+04;  6.7606396E-03;  0.0000000E+00; -1.0418888E-03;  1.5679442E+03;
  4.1147026E-01;  9.9999998E-03; -2.1998835E-01;4955;  4.6928301E-03;  0.0000000E+00;  2.8667910E-04;  9.9919049E+02;  1.0000000E-01; -6.7064771E+02;3;  2.7335304E-01;  0.0000000E+00; -1.8573307E-02;0;  5.0129625E-03;  3.9923988E+04;  0.0000000E+00; -6.6212602E-02;  4.0000000E+04;  0.0000000E+00;  4.0010055E+04;  6.1013601E-03;  0.0000000E+00; -1.0883976E-03;  1.3484615E+03;
  4.1148984E-01;  9.9999998E-03; -2.0998521E-01;4956;  4.6578385E-03;  0.0000000E+00;  2.8441066E-04;  9.9934888E+02;  1.0000000E-01; -5.3944153E+02;3;  2.6791841E-01;  0.0000000E+00; -1.7445846E-02;0;  4.3397970E-03;  3.9939211E+04;  0.0000000E+00; -4.8298549E-02;  4.0000000E+04;  0.0000000E+00;  4.0007523E+04;  5.4597901E-03;  0.0000000E+00; -1.1199930E-03;  1.0324456E+03;
  4.1151032E-01;  9.9999998E-03; -1.9998239E-01;4957;  4.6333927E-03;  0.0000000E+00;  2.7651919E-04;  9.9949927E+02;  1.0000000E-01; -4.1485248E+02;3;  2.6485968E-01;  0.0000000E+00; -1.6726764E-02;0;  3.7185370E-03;  3.9953816E+04;  0.0000000E+00; -2.7787108E-02;  4.0000000E+04;  0.0000000E+00;  4.0005117E+04;  4.8568635E-03;  0.0000000E+00; -1.1383265E-03;  7.1516748E+02;
  4.1153005E-01;  9.9999998E-03; -1.8998024E-01;4958;  4.6145311E-03;  0.0000000E+00;  2.6613980E-04;  9.9963800E+02;  1.0000000E-01; -2.9989276E+02;3;  2.6145983E-01;  0.0000000E+00; -1.6238315E-02;0;  3.1565670E-03;  3.9967461E+04;  0.0000000E+00; -4.3327520E-03;  4.0000000E+04;  0.0000000E+00;  4.0003039E+04;  4.3121492E-03;  0.0000000E+00; -1.1555821E-03;  4.2805585E+02;
  4.1154870E-01;  9.9999998E-03; -1.7997937E-01;4959;  4.5984015E-03;  0.0000000E+00;  2.5518710E-04;  9.9976611E+02;  1.0000000E-01; -1.9377229E+02;3;  2.5926828E-01;  0.0000000E+00; -1.4805449E-02;0;  2.6663865E-03;  3.9979348E+04;  0.0000000E+00;  2.1795822E-02;  4.0000000E+04;  0.0000000E+00;  4.0001309E+04;  3.8412679E-03;  0.0000000E+00; -1.1748814E-03;  1.9332333E+02;
  4.1156602E-01;  9.9999998E-03; -1.6997993E-01;4960;  4.5830826E-03;  0.0000000E+00;  2.4444686E-04;  9.9987286E+02;  1.0000000E-01; -1.0533035E+02;3;  2.5778973E-01;  0.0000000E+00; -1.3360932E-02;0;  2.2568384E-03;  3.9989719E+04;  0.0000000E+00;  4.9528491E-02;  4.0000000E+04;  0.0000000E+00;  3.9999930E+04;  3.4535183E-03;  0.0000000E+00; -1.1966799E-03;  7.0075348E+01;
  4.1158280E-01;  9.9999998E-03; -1.5998186E-01;4961;  4.5670229E-03;  0.0000000E+00;  2.3396376E-04;  9.9996222E+02;  1.0000000E-01; -3.1307756E+01;3;  2.5525421E-01;  0.0000000E+00; -1.1677303E-02;0;  1.9298287E-03;  3.9997824E+04;  0.0000000E+00;  7.6972120E-02;  4.0000000E+04;  0.0000000E+00;  3.9999035E+04;  3.1506915E-03;  0.0000000E+00; -1.2208628E-03;  1.5625587E+02;
  4.1159877E-01;  9.9999998E-03; -1.4998475E-01;4962;  4.5499504E-03;  0.0000000E+00;  2.2343532E-04;  1.0000334E+03;  1.0000000E-01;  2.7752302E+01;3;  2.5397354E-01;  0.0000000E+00; -9.4787152E-03;0;  1.6801731E-03;  4.0004082E+04;  0.0000000E+00;  1.0167836E-01;  4.0000000E+04;  0.0000000E+00;  3.9998305E+04;  2.9272840E-03;  0.0000000E+00; -1.2471109E-03;  2.3807567E+02;
  4.1161427E-01;  9.9999998E-03; -1.3998790E-01;4963;  4.5320014E-03;  0.0000000E+00;  2.1307543E-04;  1.0000773E+03;  1.0000000E-01;  6.3998192E+01;3;  2.5240901E-01;  0.0000000E+00; -7.5155664E-03;0;  1.4974637E-03;  4.0007875E+04;  0.0000000E+00;  1.2110705E-01;  4.0000000E+04;  0.0000000E+00;  3.9998273E+04;  2.7724067E-03;  0.0000000E+00; -1.2749430E-03;  2.8755734E+02;
  4.1162771E-01;  9.9999998E-03; -1.2999067E-01;4964;  4.5139873E-03;  0.0000000E+00;  2.0252482E-04;  1.0000981E+03;  1.0000000E-01;  8.1281654E+01;3;  2.5064483E-01;  0.0000000E+00; -5.4160436E-03;0;  1.3685824E-03;  4.0009961E+04;  0.0000000E+00;  1.3319944E-01;  4.0000000E+04;  0.0000000E+00;  3.9998395E+04;  2.6724392E-03;  0.0000000E+00; -1.3038568E-03;  3.1010397E+02;
  4.1163847E-01;  9.9999998E-03; -1.1999251E-01;4965;  4.4983113E-03;  0.0000000E+00;  1.9192789E-04;  1.0001028E+03;  1.0000000E-01;  8.5232155E+01;3;  2.4866058E-01;  0.0000000E+00; -3.8471650E-03;0;  1.2797264E-03;  4.0010125E+04;  0.0000000E+00;  1.3707185E-01;  4.0000000E+04;  0.0000000E+00;  3.9998504E+04;  2.6131596E-03;  0.0000000E+00; -1.3334332E-03;  3.1221353E+02;
  4.1164708E-01;  9.9999998E-03; -1.0999305E-01;4966;  4.4860933E-03;  0.0000000E+00;  1.8070453E-04;  1.0000824E+03;  1.0000000E-01;  6.8244980E+01;3;  2.4744366E-01;  0.0000000E+00; -2.5247696E-03;0;  1.2176792E-03;  4.0008840E+04;  0.0000000E+00;  1.3324673E-01;  4.0000000E+04;  0.0000000E+00;  3.9998625E+04;  2.5808653E-03;  0.0000000E+00; -1.3631860E-03;  2.9913385E+02;
  4.2142433E-01;  9.9999998E-03; -2.6999071E-01;5011;  4.9839495E-03;  0.0000000E+00;  3.7081024E-04;  9.9837537E+02;  1.0000000E-01; -1.3459866E+03;3;  3.0886212E-01;  0.0000000E+00; -2.0314455E-02;0;  8.8280952E-03;  3.9850617E+04;  0.0000000E+00; -1.8204910E-01;  4.0000000E+04;  0.0000000E+00;  4.0017613E+04;  9.9207321E-03;  0.0000000E+00; -1.0926373E-03;  2.3348826E+03;
  4.2143023E-01;  9.9999998E-03; -2.5999305E-01;5012;  4.9102297E-03;  0.0000000E+00;  3.6311342E-04;  9.9851880E+02;  1.0000000E-01; -1.2271257E+03;3;  3.0345398E-01;  0.0000000E+00; -2.0192884E-02;0;  8.1693158E-03;  3.9863539E+04;  0.0000000E+00; -1.8096516E-01;  4.0000000E+04;  0.0000000E+00;  4.0015875E+04;  9.3056262E-03;  0.0000000E+00; -1.1363106E-03;  2.1316785E+03;
  4.2143163E-01;  9.9999998E-03; -2.4999499E-01;5013;  4.8400634E-03;  0.0000000E+00;  3.5374073E-04;  9.9867145E+02;  1.0000000E-01; -1.1006603E+03;3;  2.9700202E-01;  0.0000000E+00; -1.8766122E-02;0;  7.4952063E-03;  3.9877484E+04;  0.0000000E+00; -1.7414629E-01;  4.0000000E+04;  0.0000000E+00;  4.0014332E+04;  8.6493101E-03;  0.0000000E+00; -1.1541037E-03;  1.9184213E+03;
  4.2143673E-01;  9.9999998E-03; -2.3999576E-01;5014;  4.7809496E-03;  0.0000000E+00;  3.3599735E-04;  9.9883893E+02;  1.0000000E-01; -9.6194812E+02;3;  2.8916609E-01;  0.0000000E+00; -1.7991237E-02;0;  6.8334336E-03;  3.9892648E+04;  0.0000000E+00; -1.6135670E-01;  4.0000000E+04;  0.0000000E+00;  4.0012762E+04;  7.9616029E-03;  0.0000000E+00; -1.1281691E-03;  1.7223243E+03;
  4.2144501E-01;  9.9999998E-03; -2.2999266E-01;5015;  4.7339331E-03;  0.0000000E+00;  3.1310000E-04;  9.9902197E+02;  1.0000000E-01; -8.1029810E+02;3;  2.8363803E-01;  0.0000000E+00; -1.8035021E-02;0;  6.1474536E-03;  3.9908207E+04;  0.0000000E+00; -1.4284940E-01;  4.0000000E+04;  0.0000000E+00;  4.0011918E+04;  7.2561428E-03;  0.0000000E+00; -1.1086892E-03;  1.5894829E+03;
  4.2145473E-01;  9.9999998E-03; -2.1999012E-01;5016;  4.6860580E-03;  0.0000000E+00;  3.1064780E-04;  9.9919434E+02;  1.0000000E-01; -6.6748730E+02;3;  2.7414533E-01;  0.0000000E+00; -1.5908092E-02;0;  5.3975522E-03;  3.9923949E+04;  0.0000000E+00; -1.1880773E-01;  4.0000000E+04;  0.0000000E+00;  4.0009688E+04;  6.5511372E-03;  0.0000000E+00; -1.1535850E-03;  1.3389369E+03;
  4.2146829E-01;  9.9999998E-03; -2.0999216E-01;5017;  4.6508969E-03;  0.0000000E+00;  3.0666607E-04;  9.9936206E+02;  1.0000000E-01; -5.2852826E+02;3;  2.6833200E-01;  0.0000000E+00; -1.5254767E-02;0;  4.6881102E-03;  3.9939781E+04;  0.0000000E+00; -8.9502551E-02;  4.0000000E+04;  0.0000000E+00;  4.0007430E+04;  5.8679515E-03;  0.0000000E+00; -1.1798416E-03;  9.9911487E+02;
  4.2148399E-01;  9.9999998E-03; -1.9999386E-01;5018;  4.6261735E-03;  0.0000000E+00;  2.9637737E-04;  9.9952264E+02;  1.0000000E-01; -3.9549500E+02;3;  2.6482081E-01;  0.0000000E+00; -1.4793218E-02;0;  4.0329080E-03;  3.9955113E+04;  0.0000000E+00; -5.5580795E-02;  4.0000000E+04;  0.0000000E+00;  4.0005023E+04;  5.2283956E-03;  0.0000000E+00; -1.1954876E-03;  7.0449426E+02;
  4.2150036E-01;  9.9999998E-03; -1.8999469E-01;5019;  4.6070702E-03;  0.0000000E+00;  2.8470560E-04;  9.9967365E+02;  1.0000000E-01; -2.7036273E+02;3;  2.6127270E-01;  0.0000000E+00; -1.4296762E-02;0;  3.4406541E-03;  3.9969281E+04;  0.0000000E+00; -1.8264486E-02;  4.0000000E+04;  0.0000000E+00;  4.0003488E+04;  4.6534929E-03;  0.0000000E+00; -1.2128388E-03;  4.5332538E+02;
  4.2151678E-01;  9.9999998E-03; -1.7999527E-01;5020;  4.5905015E-03;  0.0000000E+00;  2.7342816E-04;  9.9981097E+02;  1.0000000E-01; -1.5658817E+02;3;  2.5880566E-01;  0.0000000E+00; -1.3380223E-02;0;  2.9270153E-03;  3.9982367E+04;  0.0000000E+00;  2.0491244E-02;  4.0000000E+04;  0.0000000E+00;  4.0002020E+04;  4.1604182E-03;  0.0000000E+00; -1.2334029E-03;  2.4556535E+02;
  4.2153329E-01;  9.9999998E-03; -1.6999617E-01;5021;  4.5747398E-03;  0.0000000E+00;  2.6271670E-04;  9.9993170E+02;  1.0000000E-01; -5.6590992E+01;3;  2.5732672E-01;  0.0000000E+00; -1.2155214E-02;0;  2.5027734E-03;  3.9993277E+04;  0.0000000E+00;  5.8122639E-02;  4.0000000E+04;  0.0000000E+00;  4.0000703E+04;  3.7598282E-03;  0.0000000E+00; -1.2570547E-03;  1.1145138E+02;
  4.2154971E-01;  9.9999998E-03; -1.5999748E-01;5022;  4.5585646E-03;  0.0000000E+00;  2.5231671E-04;  1.0000272E+03;  1.0000000E-01;  2.2517881E+01;3;  2.5470638E-01;  0.0000000E+00; -1.0733807E-02;0;  2.1706051E-03;  4.0002113E+04;  0.0000000E+00;  9.1778710E-02;  4.0000000E+04;  0.0000000E+00;  3.9999738E+04;  3.4542743E-03;  0.0000000E+00; -1.2836690E-03;  1.4067772E+02;
  4.2156583E-01;  9.9999998E-03; -1.4999905E-01;5023;  4.5415796E-03;  0.0000000E+00;  2.4184541E-04;  1.0001027E+03;  1.0000000E-01;  8.5133392E+01;3;  2.5340477E-01;  0.0000000E+00; -9.2083402E-03;0;  1.9252632E-03;  4.0008996E+04;  0.0000000E+00;  1.1884937E-01;  4.0000000E+04;  0.0000000E+00;  3.9999227E+04;  3.2382603E-03;  0.0000000E+00; -1.3129971E-03;  2.2320039E+02;
  4.2158175E-01;  9.9999998E-03; -1.4000037E-01;5024;  4.5237420E-03;  0.0000000E+00;  2.3131931E-04;  1.0001514E+03;  1.0000000E-01;  1.2542855E+02;3;  2.5178158E-01;  0.0000000E+00; -7.7372901E-03;0;  1.7552790E-03;  4.0013121E+04;  0.0000000E+00;  1.3745606E-01;  4.0000000E+04;  0.0000000E+00;  3.9998527E+04;  3.0998953E-03;  0.0000000E+00; -1.3446163E-03;  2.8579868E+02;
  4.2159748E-01;  9.9999998E-03; -1.3000099E-01;5025;  4.5066918E-03;  0.0000000E+00;  2.2023919E-04;  1.0001723E+03;  1.0000000E-01;  1.4271201E+02;3;  2.5000003E-01;  0.0000000E+00; -6.1398870E-03;0;  1.6452728E-03;  4.0015258E+04;  0.0000000E+00;  1.4676636E-01;  4.0000000E+04;  0.0000000E+00;  3.9998617E+04;  3.0233415E-03;  0.0000000E+00; -1.3780687E-03;  3.2410550E+02;
  4.2161182E-01;  9.9999998E-03; -1.2000061E-01;5026;  4.4921949E-03;  0.0000000E+00;  2.0828872E-04;  1.0001707E+03;  1.0000000E-01;  1.4142810E+02;3;  2.4889909E-01;  0.0000000E+00; -4.8756013E-03;0;  1.5782833E-03;  4.0015547E+04;  0.0000000E+00;  1.4713809E-01;  4.0000000E+04;  0.0000000E+00;  3.9998309E+04;  2.9911562E-03;  0.0000000E+00; -1.4128729E-03;  3.4185657E+02;
  4.2162398E-01;  9.9999998E-03; -1.0999911E-01;5027;  4.4819606E-03;  0.0000000E+00;  1.9523608E-04;  1.0001462E+03;  1.0000000E-01;  1.2118176E+02;3;  2.4886210E-01;  0.0000000E+00; -4.2686951E-03;0;  1.5377848E-03;  4.0013508E+04;  0.0000000E+00;  1.3994513E-01;  4.0000000E+04;  0.0000000E+00;  3.9998023E+04;  2.9861382E-03;  0.0000000E+00; -1.4483534E-03;  3.4265833E+02;
  4.3145323E-01;  9.9999998E-03; -2.6999041E-01;5072;  4.9786936E-03;  0.0000000E+00;  4.0099715E-04;  9.9837671E+02;  1.0000000E-01; -1.3448508E+03;3;  3.0955550E-01;  0.0000000E+00; -1.7104318E-02;0;  9.6230181E-03;  3.9850695E+04;  0.0000000E+00; -2.0274042E-01;  4.0000000E+04;  0.0000000E+00;  4.0017578E+04;  1.0864672E-02;  0.0000000E+00; -1.2416544E-03;  2.3429968E+03;
  4.3146122E-01;  9.9999998E-03; -2.5999272E-01;5073;  4.9108695E-03;  0.0000000E+00;  3.9000806E-04;  9.9852271E+02;  1.0000000E-01; -1.2239160E+03;3;  3.0495697E-01;  0.0000000E+00; -1.7764378E-02;0;  8.9460192E-03;  3.9863781E+04;  0.0000000E+00; -2.1636099E-01;  4.0000000E+04;  0.0000000E+00;  4.0016105E+04;  1.0182651E-02;  0.0000000E+00; -1.2366314E-03;  2.1390120E+03;
  4.3145943E-01;  9.9999998E-03; -2.4999475E-01;5074;  4.8430553E-03;  0.0000000E+00;  3.7947838E-04;  9.9867548E+02;  1.0000000E-01; -1.0973517E+03;3;  2.9893595E-01;  0.0000000E+00; -1.6673913E-02;0;  8.2221422E-03;  3.9877941E+04;  0.0000000E+00; -2.1714079E-01;  4.0000000E+04;  0.0000000E+00;  4.0014500E+04;  9.4580278E-03;  0.0000000E+00; -1.2358857E-03;  1.9233668E+03;
  4.3145755E-01;  9.9999998E-03; -2.3999608E-01;5075;  4.7835116E-03;  0.0000000E+00;  3.6190398E-04;  9.9884686E+02;  1.0000000E-01; -9.5533099E+02;3;  2.9128173E-01;  0.0000000E+00; -1.5664048E-02;0;  7.5004487E-03;  3.9893098E+04;  0.0000000E+00; -2.0748751E-01;  4.0000000E+04;  0.0000000E+00;  4.0012617E+04;  8.7035382E-03;  0.0000000E+00; -1.2030896E-03;  1.7112299E+03;
  4.3145913E-01;  9.9999998E-03; -2.2999419E-01;5076;  4.7360454E-03;  0.0000000E+00;  3.3671618E-04;  9.9903479E+02;  1.0000000E-01; -7.9968109E+02;3;  2.8549391E-01;  0.0000000E+00; -1.5946049E-02;0;  6.7647141E-03;  3.9909070E+04;  0.0000000E+00; -1.8881515E-01;  4.0000000E+04;  0.0000000E+00;  4.0011355E+04;  7.9347966E-03;  0.0000000E+00; -1.1700826E-03;  1.5625078E+03;
  4.3146142E-01;  9.9999998E-03; -2.1999441E-01;5077;  4.6867142E-03;  0.0000000E+00;  3.3326235E-04;  9.9920825E+02;  1.0000000E-01; -6.5593207E+02;3;  2.7567250E-01;  0.0000000E+00; -1.3960112E-02;0;  5.9606130E-03;  3.9925426E+04;  0.0000000E+00; -1.6204427E-01;  4.0000000E+04;  0.0000000E+00;  4.0009492E+04;  7.1712635E-03;  0.0000000E+00; -1.2106503E-03;  1.2938724E+03;
  4.3146765E-01;  9.9999998E-03; -2.1000059E-01;5078;  4.6504592E-03;  0.0000000E+00;  3.2711393E-04;  9.9937970E+02;  1.0000000E-01; -5.1391138E+02;3;  2.6975131E-01;  0.0000000E+00; -1.3451355E-02;0;  5.2017723E-03;  3.9941516E+04;  0.0000000E+00; -1.2791319E-01;  4.0000000E+04;  0.0000000E+00;  4.0006980E+04;  6.4355270E-03;  0.0000000E+00; -1.2337547E-03;  9.5503021E+02;
  4.3147692E-01;  9.9999998E-03; -2.0000592E-01;5079;  4.6239342E-03;  0.0000000E+00;  3.1445207E-04;  9.9954822E+02;  1.0000000E-01; -3.7431039E+02;3;  2.6555625E-01;  0.0000000E+00; -1.3227196E-02;0;  4.5014303E-03;  3.9957559E+04;  0.0000000E+00; -8.7617360E-02;  4.0000000E+04;  0.0000000E+00;  4.0005012E+04;  5.7505649E-03;  0.0000000E+00; -1.2491343E-03;  6.8908368E+02;
  4.3148801E-01;  9.9999998E-03; -1.9000891E-01;5080;  4.6030008E-03;  0.0000000E+00;  3.0190637E-04;  9.9971350E+02;  1.0000000E-01; -2.3737601E+02;3;  2.6213413E-01;  0.0000000E+00; -1.2586226E-02;0;  3.8700774E-03;  3.9972309E+04;  0.0000000E+00; -4.3151032E-02;  4.0000000E+04;  0.0000000E+00;  4.0003863E+04;  5.1387986E-03;  0.0000000E+00; -1.2687211E-03;  4.7100598E+02;
  4.3149996E-01;  9.9999998E-03; -1.8001042E-01;5081;  4.5853630E-03;  0.0000000E+00;  2.9012721E-04;  9.9986700E+02;  1.0000000E-01; -1.1016972E+02;3;  2.5924793E-01;  0.0000000E+00; -1.2225543E-02;0;  3.3266845E-03;  3.9985891E+04;  0.0000000E+00;  2.5891268E-03;  4.0000000E+04;  0.0000000E+00;  4.0002410E+04;  4.6189371E-03;  0.0000000E+00; -1.2922527E-03;  2.8228906E+02;
  4.3151289E-01;  9.9999998E-03; -1.7001118E-01;5082;  4.5688795E-03;  0.0000000E+00;  2.7933577E-04;  9.9999316E+02;  1.0000000E-01; -5.6788516E+00;3;  2.5696069E-01;  0.0000000E+00; -1.1057674E-02;0;  2.8835833E-03;  3.9997273E+04;  0.0000000E+00;  4.6125345E-02;  4.0000000E+04;  0.0000000E+00;  4.0000992E+04;  4.2029722E-03;  0.0000000E+00; -1.3193890E-03;  1.3800136E+02;
  4.3152696E-01;  9.9999998E-03; -1.6001165E-01;5083;  4.5527625E-03;  0.0000000E+00;  2.6887585E-04;  1.0000970E+03;  1.0000000E-01;  8.0392792E+01;3;  2.5482571E-01;  0.0000000E+00; -1.0120659E-02;0;  2.5443267E-03;  4.0006750E+04;  0.0000000E+00;  8.3965071E-02;  4.0000000E+04;  0.0000000E+00;  4.0000164E+04;  3.8942718E-03;  0.0000000E+00; -1.3499450E-03;  1.2033904E+02;
  4.3154216E-01;  9.9999998E-03; -1.5001193E-01;5084;  4.5362306E-03;  0.0000000E+00;  2.5835913E-04;  1.0001729E+03;  1.0000000E-01;  1.4320583E+02;3;  2.5357386E-01;  0.0000000E+00; -9.5662819E-03;0;  2.3036788E-03;  4.0013652E+04;  0.0000000E+00;  1.1331615E-01;  4.0000000E+04;  0.0000000E+00;  3.9999312E+04;  3.6873473E-03;  0.0000000E+00; -1.3836685E-03;  2.0102509E+02;
  4.3155879E-01;  9.9999998E-03; -1.4001173E-01;5085;  4.5196246E-03;  0.0000000E+00;  2.4739443E-04;  1.0002200E+03;  1.0000000E-01;  1.8221707E+02;3;  2.5211719E-01;  0.0000000E+00; -8.2484223E-03;0;  2.1489551E-03;  4.0018293E+04;  0.0000000E+00;  1.3263576E-01;  4.0000000E+04;  0.0000000E+00;  3.9998867E+04;  3.5690675E-03;  0.0000000E+00; -1.4201122E-03;  2.7557419E+02;
  4.3157628E-01;  9.9999998E-03; -1.3001077E-01;5086;  4.5045456E-03;  0.0000000E+00;  2.3530232E-04;  1.0002421E+03;  1.0000000E-01;  2.0058691E+02;3;  2.5102457E-01;  0.0000000E+00; -7.1977228E-03;0;  2.0621438E-03;  4.0020574E+04;  0.0000000E+00;  1.4184499E-01;  4.0000000E+04;  0.0000000E+00;  3.9998285E+04;  3.5209185E-03;  0.0000000E+00; -1.4587749E-03;  3.2888718E+02;
  4.3159401E-01;  9.9999998E-03; -1.2000899E-01;5087;  4.4922517E-03;  0.0000000E+00;  2.2176352E-04;  1.0002397E+03;  1.0000000E-01;  1.9861166E+02;3;  2.5128075E-01;  0.0000000E+00; -6.8129119E-03;0;  2.0228222E-03;  4.0020637E+04;  0.0000000E+00;  1.4195496E-01;  4.0000000E+04;  0.0000000E+00;  3.9997641E+04;  3.5219318E-03;  0.0000000E+00; -1.4991097E-03;  3.6220981E+02;
  4.3161055E-01;  9.9999998E-03; -1.1000636E-01;5088;  4.4846362E-03;  0.0000000E+00;  2.0664750E-04;  1.0002054E+03;  1.0000000E-01;  1.7016803E+02;3;  2.5222853E-01;  0.0000000E+00; -7.2349552E-03;0;  2.0106933E-03;  4.0018598E+04;  0.0000000E+00;  1.3470286E-01;  4.0000000E+04;  0.0000000E+00;  3.9997609E+04;  3.5509740E-03;  0.0000000E+00; -1.5402808E-03;  3.7759540E+02;
  4.4149345E-01;  9.9999998E-03; -2.6999053E-01;5133;  4.9996558E-03;  0.0000000E+00;  4.2913895E-04;  9.9839899E+02;  1.0000000E-01; -1.3264316E+03;3;  3.1210124E-01;  0.0000000E+00; -1.5450201E-02;0;  1.0615342E-02;  3.9852434E+04;  0.0000000E+00; -1.9089782E-01;  4.0000000E+04;  0.0000000E+00;  4.0017375E+04;  1.1968290E-02;  0.0000000E+00; -1.3529483E-03;  2.3111155E+03;
  4.4149992E-01;  9.9999998E-03; -2.5999296E-01;5134;  4.9338550E-03;  0.0000000E+00;  4.1698947E-04;  9.9854236E+02;  1.0000000E-01; -1.2076201E+03;3;  3.0889574E-01;  0.0000000E+00; -1.6140599E-02;0;  9.8903803E-03;  3.9865750E+04;  0.0000000E+00; -2.2181085E-01;  4.0000000E+04;  0.0000000E+00;  4.0015828E+04;  1.1214607E-02;  0.0000000E+00; -1.3242274E-03;  2.1075950E+03;
  4.4149622E-01;  9.9999998E-03; -2.4999534E-01;5135;  4.8668198E-03;  0.0000000E+00;  4.0543551E-04;  9.9869781E+02;  1.0000000E-01; -1.0788337E+03;3;  3.0419227E-01;  0.0000000E+00; -1.5801730E-02;0;  9.1097998E-03;  3.9880031E+04;  0.0000000E+00; -2.3301116E-01;  4.0000000E+04;  0.0000000E+00;  4.0014066E+04;  1.0417196E-02;  0.0000000E+00; -1.3073965E-03;  1.8820586E+03;
  4.4148993E-01;  9.9999998E-03; -2.3999748E-01;5136;  4.8042219E-03;  0.0000000E+00;  3.8869333E-04;  9.9886609E+02;  1.0000000E-01; -9.3943024E+02;3;  2.9756105E-01;  0.0000000E+00; -1.4738392E-02;0;  8.3192559E-03;  3.9895340E+04;  0.0000000E+00; -2.2958863E-01;  4.0000000E+04;  0.0000000E+00;  4.0012379E+04;  9.5917834E-03;  0.0000000E+00; -1.2725274E-03;  1.6556802E+03;
  4.4148707E-01;  9.9999998E-03; -2.2999731E-01;5137;  4.7531892E-03;  0.0000000E+00;  3.6210718E-04;  9.9905121E+02;  1.0000000E-01; -7.8605182E+02;3;  2.9010609E-01;  0.0000000E+00; -1.4333790E-02;0;  7.5266385E-03;  3.9911398E+04;  0.0000000E+00; -2.1453388E-01;  4.0000000E+04;  0.0000000E+00;  4.0010812E+04;  8.7562585E-03;  0.0000000E+00; -1.2296200E-03;  1.4877336E+03;
  4.4148493E-01;  9.9999998E-03; -2.1999955E-01;5138;  4.6998588E-03;  0.0000000E+00;  3.5444065E-04;  9.9923242E+02;  1.0000000E-01; -6.3593262E+02;3;  2.8079835E-01;  0.0000000E+00; -1.2593885E-02;0;  6.6714850E-03;  3.9927805E+04;  0.0000000E+00; -1.8977086E-01;  4.0000000E+04;  0.0000000E+00;  4.0009293E+04;  7.9315891E-03;  0.0000000E+00; -1.2601040E-03;  1.2250990E+03;
  4.4148481E-01;  9.9999998E-03; -2.1000743E-01;5139;  4.6589361E-03;  0.0000000E+00;  3.4529626E-04;  9.9940607E+02;  1.0000000E-01; -4.9208484E+02;3;  2.7287361E-01;  0.0000000E+00; -1.1728950E-02;0;  5.8592604E-03;  3.9944105E+04;  0.0000000E+00; -1.5654042E-01;  4.0000000E+04;  0.0000000E+00;  4.0006844E+04;  7.1415282E-03;  0.0000000E+00; -1.2822675E-03;  9.1424243E+02;
  4.4148687E-01;  9.9999998E-03; -2.0001477E-01;5140;  4.6290560E-03;  0.0000000E+00;  3.3067889E-04;  9.9958722E+02;  1.0000000E-01; -3.4196564E+02;3;  2.6721394E-01;  0.0000000E+00; -1.1391358E-02;0;  5.1098969E-03;  3.9960043E+04;  0.0000000E+00; -1.1628443E-01;  4.0000000E+04;  0.0000000E+00;  4.0005051E+04;  6.4105904E-03;  0.0000000E+00; -1.3006936E-03;  6.7414417E+02;
  4.4149074E-01;  9.9999998E-03; -1.9001901E-01;5141;  4.6054381E-03;  0.0000000E+00;  3.1699610E-04;  9.9975476E+02;  1.0000000E-01; -2.0315475E+02;3;  2.6332343E-01;  0.0000000E+00; -1.1265039E-02;0;  4.4378159E-03;  3.9975438E+04;  0.0000000E+00; -7.1229950E-02;  4.0000000E+04;  0.0000000E+00;  4.0003723E+04;  5.7626176E-03;  0.0000000E+00; -1.3248017E-03;  4.7907022E+02;
  4.4149667E-01;  9.9999998E-03; -1.8002106E-01;5142;  4.5856568E-03;  0.0000000E+00;  3.0513253E-04;  9.9991296E+02;  1.0000000E-01; -7.2096725E+01;3;  2.6040494E-01;  0.0000000E+00; -1.1327688E-02;0;  3.8643715E-03;  3.9989234E+04;  0.0000000E+00; -2.4529142E-02;  4.0000000E+04;  0.0000000E+00;  4.0002074E+04;  5.2177627E-03;  0.0000000E+00; -1.3533912E-03;  3.0121887E+02;
  4.4150519E-01;  9.9999998E-03; -1.7002183E-01;5143;  4.5682136E-03;  0.0000000E+00;  2.9409380E-04;  1.0000422E+03;  1.0000000E-01;  3.4961975E+01;3;  2.5797129E-01;  0.0000000E+00; -1.0752980E-02;0;  3.4035654E-03;  4.0000941E+04;  0.0000000E+00;  2.0078190E-02;  4.0000000E+04;  0.0000000E+00;  4.0001012E+04;  4.7892127E-03;  0.0000000E+00; -1.3856472E-03;  1.4582474E+02;
  4.4151643E-01;  9.9999998E-03; -1.6002193E-01;5144;  4.5520933E-03;  0.0000000E+00;  2.8330518E-04;  1.0001498E+03;  1.0000000E-01;  1.2414464E+02;3;  2.5640824E-01;  0.0000000E+00; -1.0559046E-02;0;  3.0596652E-03;  4.0010680E+04;  0.0000000E+00;  5.8916628E-02;  4.0000000E+04;  0.0000000E+00;  4.0000332E+04;  4.4811047E-03;  0.0000000E+00; -1.4214393E-03;  8.4554222E+01;
  4.4153041E-01;  9.9999998E-03; -1.5002152E-01;5145;  4.5367298E-03;  0.0000000E+00;  2.7231663E-04;  1.0002327E+03;  1.0000000E-01;  1.9278467E+02;3;  2.5452667E-01;  0.0000000E+00; -9.7429994E-03;0;  2.8274050E-03;  4.0017980E+04;  0.0000000E+00;  8.9180373E-02;  4.0000000E+04;  0.0000000E+00;  3.9999355E+04;  4.2878897E-03;  0.0000000E+00; -1.4604848E-03;  1.6944379E+02;
  4.4154686E-01;  9.9999998E-03; -1.4002046E-01;5146;  4.5226226E-03;  0.0000000E+00;  2.6024529E-04;  1.0002768E+03;  1.0000000E-01;  2.2932684E+02;3;  2.5359380E-01;  0.0000000E+00; -9.2225568E-03;0;  2.6928063E-03;  4.0022762E+04;  0.0000000E+00;  1.0955753E-01;  4.0000000E+04;  0.0000000E+00;  3.9998391E+04;  4.1950978E-03;  0.0000000E+00; -1.5022915E-03;  2.5704172E+02;
  4.4156501E-01;  9.9999998E-03; -1.3001874E-01;5147;  4.5103235E-03;  0.0000000E+00;  2.4668701E-04;  1.0002966E+03;  1.0000000E-01;  2.4572145E+02;3;  2.5402299E-01;  0.0000000E+00; -9.4234170E-03;0;  2.6352548E-03;  4.0025207E+04;  0.0000000E+00;  1.2025975E-01;  4.0000000E+04;  0.0000000E+00;  3.9998090E+04;  4.1815806E-03;  0.0000000E+00; -1.5463259E-03;  3.2395059E+02;
  4.4158402E-01;  9.9999998E-03; -1.2001646E-01;5148;  4.5009884E-03;  0.0000000E+00;  2.3146642E-04;  1.0002899E+03;  1.0000000E-01;  2.4009198E+02;3;  2.5511861E-01;  0.0000000E+00; -9.7157583E-03;0;  2.6307541E-03;  4.0024887E+04;  0.0000000E+00;  1.2245016E-01;  4.0000000E+04;  0.0000000E+00;  3.9997457E+04;  4.2227642E-03;  0.0000000E+00; -1.5920100E-03;  3.7058679E+02;
  4.4160175E-01;  9.9999998E-03; -1.1001356E-01;5149;  4.4970526E-03;  0.0000000E+00;  2.1392162E-04;  1.0002562E+03;  1.0000000E-01;  2.1224091E+02;3;  2.5947401E-01;  0.0000000E+00; -1.0501835E-02;0;  2.6551345E-03;  4.0022727E+04;  0.0000000E+00;  1.1776884E-01;  4.0000000E+04;  0.0000000E+00;  3.9997254E+04;  4.2935838E-03;  0.0000000E+00; -1.6384493E-03;  3.9788046E+02;
  4.5155358E-01;  9.9999998E-03; -2.6999098E-01;5194;  5.0708409E-03;  0.0000000E+00;  4.5425585E-04;  9.9843573E+02;  1.0000000E-01; -1.2959634E+03;3;  3.2122850E-01;  0.0000000E+00; -1.3012676E-02;0;  1.1702134E-02;  3.9856352E+04;  0.0000000E+00; -1.5416515E-01;  4.0000000E+04;  0.0000000E+00;  4.0016965E+04;  1.3114079E-02;  0.0000000E+00; -1.4119443E-03;  2.2493145E+03;
  4.5155212E-01;  9.9999998E-03; -2.5999361E-01;5195;  4.9973554E-03;  0.0000000E+00;  4.4335544E-04;  9.9857629E+02;  1.0000000E-01; -1.1795222E+03;3;  3.1785598E-01;  0.0000000E+00; -1.5108776E-02;0;  1.0908734E-02;  3.9869074E+04;  0.0000000E+00; -2.0237574E-01;  4.0000000E+04;  0.0000000E+00;  4.0015078E+04;  1.2300561E-02;  0.0000000E+00; -1.3918271E-03;  2.0408401E+03;
  4.5154545E-01;  9.9999998E-03; -2.4999647E-01;5196;  4.9226466E-03;  0.0000000E+00;  4.3214526E-04;  9.9873029E+02;  1.0000000E-01; -1.0519209E+03;3;  3.1385243E-01;  0.0000000E+00; -1.4693537E-02;0;  1.0070620E-02;  3.9883457E+04;  0.0000000E+00; -2.2475843E-01;  4.0000000E+04;  0.0000000E+00;  4.0013480E+04;  1.1441787E-02;  0.0000000E+00; -1.3711663E-03;  1.8054346E+03;
  4.5153654E-01;  9.9999998E-03; -2.3999950E-01;5197;  4.8544346E-03;  0.0000000E+00;  4.1517653E-04;  9.9889197E+02;  1.0000000E-01; -9.1799872E+02;3;  3.0684856E-01;  0.0000000E+00; -1.4395039E-02;0;  9.2252940E-03;  3.9898492E+04;  0.0000000E+00; -2.2857465E-01;  4.0000000E+04;  0.0000000E+00;  4.0011801E+04;  1.0555948E-02;  0.0000000E+00; -1.3306537E-03;  1.5655306E+03;
  4.5152900E-01;  9.9999998E-03; -2.3000170E-01;5198;  4.7982307E-03;  0.0000000E+00;  3.8617759E-04;  9.9908105E+02;  1.0000000E-01; -7.6131183E+02;3;  3.0061105E-01;  0.0000000E+00; -1.4368768E-02;0;  8.3849877E-03;  3.9914387E+04;  0.0000000E+00; -2.1873212E-01;  4.0000000E+04;  0.0000000E+00;  4.0010320E+04;  9.6631525E-03;  0.0000000E+00; -1.2781644E-03;  1.3612902E+03;
  4.5152056E-01;  9.9999998E-03; -2.2000436E-01;5199;  4.7380063E-03;  0.0000000E+00;  3.7124899E-04;  9.9925781E+02;  1.0000000E-01; -6.1489618E+02;3;  2.8978872E-01;  0.0000000E+00; -1.2288474E-02;0;  7.4892216E-03;  3.9930684E+04;  0.0000000E+00; -1.9852304E-01;  4.0000000E+04;  0.0000000E+00;  4.0008418E+04;  8.7859854E-03;  0.0000000E+00; -1.2967639E-03;  1.1403191E+03;
  4.5151201E-01;  9.9999998E-03; -2.1001144E-01;5200;  4.6853921E-03;  0.0000000E+00;  3.5953912E-04;  9.9943958E+02;  1.0000000E-01; -4.6428317E+02;3;  2.8116488E-01;  0.0000000E+00; -1.1436351E-02;0;  6.6256775E-03;  3.9947258E+04;  0.0000000E+00; -1.6989486E-01;  4.0000000E+04;  0.0000000E+00;  4.0006355E+04;  7.9499800E-03;  0.0000000E+00; -1.3243027E-03;  8.7514691E+02;
  4.5150563E-01;  9.9999998E-03; -2.0001835E-01;5201;  4.6453867E-03;  0.0000000E+00;  3.4526075E-04;  9.9961658E+02;  1.0000000E-01; -3.1767001E+02;3;  2.7257082E-01;  0.0000000E+00; -1.1229825E-02;0;  5.8300239E-03;  3.9963215E+04;  0.0000000E+00; -1.3443802E-01;  4.0000000E+04;  0.0000000E+00;  4.0004816E+04;  7.1814810E-03;  0.0000000E+00; -1.3514570E-03;  6.5859180E+02;
  4.5150205E-01;  9.9999998E-03; -1.9002286E-01;5202;  4.6157371E-03;  0.0000000E+00;  3.3149443E-04;  9.9978729E+02;  1.0000000E-01; -1.7624193E+02;3;  2.6637745E-01;  0.0000000E+00; -1.0955297E-02;0;  5.1229578E-03;  3.9978164E+04;  0.0000000E+00; -9.4226196E-02;  4.0000000E+04;  0.0000000E+00;  4.0003469E+04;  6.5059634E-03;  0.0000000E+00; -1.3830058E-03;  4.7400168E+02;
  4.5150155E-01;  9.9999998E-03; -1.8002534E-01;5203;  4.5927926E-03;  0.0000000E+00;  3.1887204E-04;  9.9994141E+02;  1.0000000E-01; -4.8541836E+01;3;  2.6259339E-01;  0.0000000E+00; -1.0752791E-02;0;  4.5262803E-03;  3.9991984E+04;  0.0000000E+00; -5.2111343E-02;  4.0000000E+04;  0.0000000E+00;  4.0002453E+04;  5.9447596E-03;  0.0000000E+00; -1.4184791E-03;  3.0026865E+02;
  4.5150438E-01;  9.9999998E-03; -1.7002647E-01;5204;  4.5740828E-03;  0.0000000E+00;  3.0715979E-04;  1.0000804E+03;  1.0000000E-01;  6.6566017E+01;3;  2.5995660E-01;  0.0000000E+00; -1.0772868E-02;0;  4.0545785E-03;  4.0003793E+04;  0.0000000E+00; -1.1470207E-02;  4.0000000E+04;  0.0000000E+00;  4.0001043E+04;  5.5119568E-03;  0.0000000E+00; -1.4573784E-03;  1.3778940E+02;
  4.5151082E-01;  9.9999998E-03; -1.6002662E-01;5205;  4.5582363E-03;  0.0000000E+00;  2.9525365E-04;  1.0001862E+03;  1.0000000E-01;  1.5426724E+02;3;  2.5799689E-01;  0.0000000E+00; -1.0541880E-02;0;  3.7127743E-03;  4.0013633E+04;  0.0000000E+00;  2.4406943E-02;  4.0000000E+04;  0.0000000E+00;  4.0000266E+04;  5.2122083E-03;  0.0000000E+00; -1.4994339E-03;  3.5734047E+01;
  4.5152083E-01;  9.9999998E-03; -1.5002611E-01;5206;  4.5449487E-03;  0.0000000E+00;  2.8259470E-04;  1.0002645E+03;  1.0000000E-01;  2.1915430E+02;3;  2.5706461E-01;  0.0000000E+00; -1.1113793E-02;0;  3.4954227E-03;  4.0020789E+04;  0.0000000E+00;  5.3069517E-02;  4.0000000E+04;  0.0000000E+00;  3.9999230E+04;  5.0397562E-03;  0.0000000E+00; -1.5443335E-03;  1.4251030E+02;
  4.5153424E-01;  9.9999998E-03; -1.4002508E-01;5207;  4.5340764E-03;  0.0000000E+00;  2.6908482E-04;  1.0003113E+03;  1.0000000E-01;  2.5796802E+02;3;  2.5826070E-01;  0.0000000E+00; -1.2244368E-02;0;  3.3873660E-03;  4.0025531E+04;  0.0000000E+00;  7.3450327E-02;  4.0000000E+04;  0.0000000E+00;  3.9998734E+04;  4.9789497E-03;  0.0000000E+00; -1.5915838E-03;  2.3970073E+02;
  4.5154998E-01;  9.9999998E-03; -1.3002354E-01;5208;  4.5266068E-03;  0.0000000E+00;  2.5393537E-04;  1.0003296E+03;  1.0000000E-01;  2.7307870E+02;3;  2.6066789E-01;  0.0000000E+00; -1.2231341E-02;0;  3.3655828E-03;  4.0027820E+04;  0.0000000E+00;  8.5808784E-02;  4.0000000E+04;  0.0000000E+00;  3.9998059E+04;  5.0062942E-03;  0.0000000E+00; -1.6407114E-03;  3.1350558E+02;
  4.5156649E-01;  9.9999998E-03; -1.2002133E-01;5209;  4.5244568E-03;  0.0000000E+00;  2.3624119E-04;  1.0003210E+03;  1.0000000E-01;  2.6596777E+02;3;  2.6849204E-01;  0.0000000E+00; -1.3780107E-02;0;  3.4028734E-03;  4.0027746E+04;  0.0000000E+00;  9.1089837E-02;  4.0000000E+04;  0.0000000E+00;  3.9997617E+04;  5.0941077E-03;  0.0000000E+00; -1.6912344E-03;  3.6613788E+02;
  4.5158353E-01;  9.9999998E-03; -1.1001823E-01;5210;  4.5296452E-03;  0.0000000E+00;  2.1666809E-04;  1.0002866E+03;  1.0000000E-01;  2.3742538E+02;3;  2.8042430E-01;  0.0000000E+00; -1.4860323E-02;0;  3.4718118E-03;  4.0025133E+04;  0.0000000E+00;  9.0491958E-02;  4.0000000E+04;  0.0000000E+00;  3.9997141E+04;  5.2141366E-03;  0.0000000E+00; -1.7423247E-03;  3.9849503E+02;
  4.6162754E-01;  9.9999998E-03; -2.6999173E-01;5255;  5.4023867E-03;  0.0000000E+00;  4.7716501E-04;  9.9848047E+02;  1.0000000E-01; -1.2589274E+03;3;  4.3712541E-01;  0.0000000E+00; -1.6152596E-02;0;  1.2741800E-02;  3.9860715E+04;  0.0000000E+00; -1.0057624E-01;  4.0000000E+04;  0.0000000E+00;  4.0016055E+04;  1.4172631E-02;  0.0000000E+00; -1.4308310E-03;  2.1536599E+03;
  4.6161708E-01;  9.9999998E-03; -2.5999469E-01;5256;  5.1935567E-03;  0.0000000E+00;  4.7064258E-04;  9.9861700E+02;  1.0000000E-01; -1.1457948E+03;3;  3.8077402E-01;  0.0000000E+00; -1.5541149E-02;0;  1.1878347E-02;  3.9873598E+04;  0.0000000E+00; -1.6375974E-01;  4.0000000E+04;  0.0000000E+00;  4.0014441E+04;  1.3331754E-02;  0.0000000E+00; -1.4534070E-03;  1.9379983E+03;
  4.6160337E-01;  9.9999998E-03; -2.4999800E-01;5257;  5.0604478E-03;  0.0000000E+00;  4.5775270E-04;  9.9876361E+02;  1.0000000E-01; -1.0243167E+03;3;  3.4796107E-01;  0.0000000E+00; -1.7793544E-02;0;  1.1024062E-02;  3.9887562E+04;  0.0000000E+00; -1.9673559E-01;  4.0000000E+04;  0.0000000E+00;  4.0012699E+04;  1.2440282E-02;  0.0000000E+00; -1.4162206E-03;  1.6975844E+03;
  4.6158892E-01;  9.9999998E-03; -2.4000210E-01;5258;  4.9656671E-03;  0.0000000E+00;  4.3856344E-04;  9.9892657E+02;  1.0000000E-01; -8.8930817E+02;3;  3.3443344E-01;  0.0000000E+00; -1.8058008E-02;0;  1.0154014E-02;  3.9902090E+04;  0.0000000E+00; -2.0749216E-01;  4.0000000E+04;  0.0000000E+00;  4.0010656E+04;  1.1519500E-02;  0.0000000E+00; -1.3654868E-03;  1.4386960E+03;
  4.6157619E-01;  9.9999998E-03; -2.3000604E-01;5259;  4.8915390E-03;  0.0000000E+00;  4.0911650E-04;  9.9909973E+02;  1.0000000E-01; -7.4585547E+02;3;  3.2534942E-01;  0.0000000E+00; -1.7815262E-02;0;  9.2754969E-03;  3.9918012E+04;  0.0000000E+00; -2.0289350E-01;  4.0000000E+04;  0.0000000E+00;  4.0008824E+04;  1.0592205E-02;  0.0000000E+00; -1.3167078E-03;  1.2179230E+03;
  4.6156153E-01;  9.9999998E-03; -2.2000916E-01;5260;  4.8206472E-03;  0.0000000E+00;  3.8457481E-04;  9.9928217E+02;  1.0000000E-01; -5.9469922E+02;3;  3.1494173E-01;  0.0000000E+00; -1.7096635E-02;0;  8.3601298E-03;  3.9933875E+04;  0.0000000E+00; -1.8783742E-01;  4.0000000E+04;  0.0000000E+00;  4.0007641E+04;  9.6831331E-03;  0.0000000E+00; -1.3230032E-03;  1.0290618E+03;
  4.6154508E-01;  9.9999998E-03; -2.1001318E-01;5261;  4.7490168E-03;  0.0000000E+00;  3.7000462E-04;  9.9947009E+02;  1.0000000E-01; -4.3899994E+02;3;  2.9920286E-01;  0.0000000E+00; -1.4515862E-02;0;  7.4589285E-03;  3.9950113E+04;  0.0000000E+00; -1.6531169E-01;  4.0000000E+04;  0.0000000E+00;  4.0006012E+04;  8.8197226E-03;  0.0000000E+00; -1.3607939E-03;  8.2740955E+02;
  4.6152857E-01;  9.9999998E-03; -2.0001712E-01;5262;  4.6882611E-03;  0.0000000E+00;  3.5769612E-04;  9.9964246E+02;  1.0000000E-01; -2.9623853E+02;3;  2.8622171E-01;  0.0000000E+00; -1.1717399E-02;0;  6.6284686E-03;  3.9965793E+04;  0.0000000E+00; -1.3726754E-01;  4.0000000E+04;  0.0000000E+00;  4.0004887E+04;  8.0305040E-03;  0.0000000E+00; -1.4020355E-03;  6.3491290E+02;
  4.6151438E-01;  9.9999998E-03; -1.9002029E-01;5263;  4.6428572E-03;  0.0000000E+00;  3.4446994E-04;  9.9981293E+02;  1.0000000E-01; -1.5500797E+02;3;  2.7583110E-01;  0.0000000E+00; -1.1167161E-02;0;  5.8986591E-03;  3.9980656E+04;  0.0000000E+00; -1.0552654E-01;  4.0000000E+04;  0.0000000E+00;  4.0003359E+04;  7.3427963E-03;  0.0000000E+00; -1.4441370E-03;  4.5240659E+02;
  4.6150333E-01;  9.9999998E-03; -1.8002240E-01;5264;  4.6108197E-03;  0.0000000E+00;  3.3121640E-04;  9.9996185E+02;  1.0000000E-01; -3.1604044E+01;3;  2.6880473E-01;  0.0000000E+00; -1.1682056E-02;0;  5.2905674E-03;  3.9993887E+04;  0.0000000E+00; -7.2288111E-02;  4.0000000E+04;  0.0000000E+00;  4.0002211E+04;  6.7791929E-03;  0.0000000E+00; -1.4886255E-03;  2.7919781E+02;
  4.6149635E-01;  9.9999998E-03; -1.7002383E-01;5265;  4.5889760E-03;  0.0000000E+00;  3.1769698E-04;  1.0000869E+03;  1.0000000E-01;  7.1997963E+01;3;  2.6469749E-01;  0.0000000E+00; -1.2099853E-02;0;  4.8190053E-03;  4.0005496E+04;  0.0000000E+00; -4.0047091E-02;  4.0000000E+04;  0.0000000E+00;  4.0001230E+04;  6.3545294E-03;  0.0000000E+00; -1.5355240E-03;  1.1936355E+02;
  4.6149448E-01;  9.9999998E-03; -1.6002464E-01;5266;  4.5738444E-03;  0.0000000E+00;  3.0389725E-04;  1.0001896E+03;  1.0000000E-01;  1.5703259E+02;3;  2.6435408E-01;  0.0000000E+00; -1.3480443E-02;0;  4.4889580E-03;  4.0014551E+04;  0.0000000E+00; -1.1158485E-02;  4.0000000E+04;  0.0000000E+00;  3.9999699E+04;  6.0735792E-03;  0.0000000E+00; -1.5846214E-03;  3.3736107E+01;
  4.6149787E-01;  9.9999998E-03; -1.5002485E-01;5267;  4.5642727E-03;  0.0000000E+00;  2.8936856E-04;  1.0002650E+03;  1.0000000E-01;  2.1954935E+02;3;  2.6562330E-01;  0.0000000E+00; -1.4699887E-02;0;  4.2945785E-03;  4.0021457E+04;  0.0000000E+00;  1.2699769E-02;  4.0000000E+04;  0.0000000E+00;  3.9999164E+04;  5.9301378E-03;  0.0000000E+00; -1.6355593E-03;  1.4462486E+02;
  4.6150607E-01;  9.9999998E-03; -1.4002454E-01;5268;  4.5632743E-03;  0.0000000E+00;  2.7299812E-04;  1.0003107E+03;  1.0000000E-01;  2.5747421E+02;3;  2.7321181E-01;  0.0000000E+00; -1.5548827E-02;0;  4.2195418E-03;  4.0025891E+04;  0.0000000E+00;  3.0870855E-02;  4.0000000E+04;  0.0000000E+00;  3.9998547E+04;  5.9075342E-03;  0.0000000E+00; -1.6879925E-03;  2.3596649E+02;
  4.6151793E-01;  9.9999998E-03; -1.3002358E-01;5269;  4.5706579E-03;  0.0000000E+00;  2.5519493E-04;  1.0003320E+03;  1.0000000E-01;  2.7505396E+02;3;  2.8551221E-01;  0.0000000E+00; -1.8366925E-02;0;  4.2390460E-03;  4.0028141E+04;  0.0000000E+00;  4.3597322E-02;  4.0000000E+04;  0.0000000E+00;  3.9997707E+04;  5.9807282E-03;  0.0000000E+00; -1.7416823E-03;  3.0373340E+02;
  4.6153241E-01;  9.9999998E-03; -1.2002183E-01;5270;  4.5840293E-03;  0.0000000E+00;  2.3634525E-04;  1.0003218E+03;  1.0000000E-01;  2.6665912E+02;3;  2.9839730E-01;  0.0000000E+00; -1.9153804E-02;0;  4.3236497E-03;  4.0027832E+04;  0.0000000E+00;  5.1476859E-02;  4.0000000E+04;  0.0000000E+00;  3.9997586E+04;  6.1200582E-03;  0.0000000E+00; -1.7964086E-03;  3.5056851E+02;
  4.6154913E-01;  9.9999998E-03; -1.1001923E-01;5271;  4.5969631E-03;  0.0000000E+00;  2.1631380E-04;  1.0002883E+03;  1.0000000E-01;  2.3890683E+02;3;  3.1180114E-01;  0.0000000E+00; -1.9541154E-02;0;  4.4434303E-03;  4.0025520E+04;  0.0000000E+00;  5.5117294E-02;  4.0000000E+04;  0.0000000E+00;  3.9997223E+04;  6.2949369E-03;  0.0000000E+00; -1.8515068E-03;  3.7785016E+02;
  4.7166130E-01;  9.9999998E-03; -2.6999244E-01;5316;  6.0155340E-03;  0.0000000E+00;  4.5760599E-04;  9.9851331E+02;  1.0000000E-01; -1.2317183E+03;3;  5.7744730E-01;  0.0000000E+00; -2.1870766E-02;0;  1.4113246E-02;  3.9864887E+04;  0.0000000E+00; -4.6976965E-02;  4.0000000E+04;  0.0000000E+00;  4.0015176E+04;  1.5046891E-02;  0.0000000E+00; -9.3364442E-04;  2.0582344E+03;
  4.7164184E-01;  9.9999998E-03; -2.5999564E-01;5317;  5.6910068E-03;  0.0000000E+00;  4.7575124E-04;  9.9864459E+02;  1.0000000E-01; -1.1229312E+03;3;  5.3819841E-01;  0.0000000E+00; -2.7041063E-02;0;  1.2915671E-02;  3.9877402E+04;  0.0000000E+00; -1.1630607E-01;  4.0000000E+04;  0.0000000E+00;  4.0013781E+04;  1.4219860E-02;  0.0000000E+00; -1.3041887E-03;  1.8395654E+03;
  4.7161973E-01;  9.9999998E-03; -2.4999946E-01;5318;  5.4260953E-03;  0.0000000E+00;  4.7470126E-04;  9.9878876E+02;  1.0000000E-01; -1.0034778E+03;3;  4.8792976E-01;  0.0000000E+00; -2.4373770E-02;0;  1.1941108E-02;  3.9890879E+04;  0.0000000E+00; -1.5520163E-01;  4.0000000E+04;  0.0000000E+00;  4.0011766E+04;  1.3335722E-02;  0.0000000E+00; -1.3946149E-03;  1.5875922E+03;
  4.7159988E-01;  9.9999998E-03; -2.4000406E-01;5319;  5.2311672E-03;  0.0000000E+00;  4.4984586E-04;  9.9894586E+02;  1.0000000E-01; -8.7335803E+02;3;  4.3936646E-01;  0.0000000E+00; -2.2952929E-02;0;  1.1079783E-02;  3.9905324E+04;  0.0000000E+00; -1.7075142E-01;  4.0000000E+04;  0.0000000E+00;  4.0009793E+04;  1.2416743E-02;  0.0000000E+00; -1.3369597E-03;  1.3280088E+03;
  4.7158334E-01;  9.9999998E-03; -2.3000956E-01;5320;  5.0907764E-03;  0.0000000E+00;  4.2088897E-04;  9.9911090E+02;  1.0000000E-01; -7.3662115E+02;3;  3.9885050E-01;  0.0000000E+00; -2.4689719E-02;0;  1.0171942E-02;  3.9920555E+04;  0.0000000E+00; -1.7040075E-01;  4.0000000E+04;  0.0000000E+00;  4.0008113E+04;  1.1487833E-02;  0.0000000E+00; -1.3158912E-03;  1.0817657E+03;
  4.7156644E-01;  9.9999998E-03; -2.2001363E-01;5321;  4.9897423E-03;  0.0000000E+00;  3.8833625E-04;  9.9929065E+02;  1.0000000E-01; -5.8768707E+02;3;  3.7520432E-01;  0.0000000E+00; -2.5511401E-02;0;  9.2483778E-03;  3.9936320E+04;  0.0000000E+00; -1.5990806E-01;  4.0000000E+04;  0.0000000E+00;  4.0006594E+04;  1.0576293E-02;  0.0000000E+00; -1.3279148E-03;  9.0191418E+02;
  4.7154638E-01;  9.9999998E-03; -2.1001478E-01;5322;  4.8876614E-03;  0.0000000E+00;  3.7104488E-04;  9.9947437E+02;  1.0000000E-01; -4.3549387E+02;3;  3.5205188E-01;  0.0000000E+00; -2.4102712E-02;0;  8.3257230E-03;  3.9952008E+04;  0.0000000E+00; -1.4334854E-01;  4.0000000E+04;  0.0000000E+00;  4.0005637E+04;  9.7118774E-03;  0.0000000E+00; -1.3861548E-03;  7.5456720E+02;
  4.7152424E-01;  9.9999998E-03; -2.0001507E-01;5323;  4.7867671E-03;  0.0000000E+00;  3.6426200E-04;  9.9965045E+02;  1.0000000E-01; -2.8957205E+02;3;  3.2747763E-01;  0.0000000E+00; -1.9670682E-02;0;  7.4745137E-03;  3.9967141E+04;  0.0000000E+00; -1.2331834E-01;  4.0000000E+04;  0.0000000E+00;  4.0004078E+04;  8.9254538E-03;  0.0000000E+00; -1.4509399E-03;  5.8621356E+02;
  4.7150278E-01;  9.9999998E-03; -1.9001555E-01;5324;  4.7083558E-03;  0.0000000E+00;  3.5547765E-04;  9.9980951E+02;  1.0000000E-01; -1.5782269E+02;3;  3.0552363E-01;  0.0000000E+00; -1.6597083E-02;0;  6.7374175E-03;  3.9981285E+04;  0.0000000E+00; -1.0159928E-01;  4.0000000E+04;  0.0000000E+00;  4.0002758E+04;  8.2461825E-03;  0.0000000E+00; -1.5087652E-03;  4.0670502E+02;
  4.7148407E-01;  9.9999998E-03; -1.8001635E-01;5325;  4.6571605E-03;  0.0000000E+00;  3.4243715E-04;  9.9995538E+02;  1.0000000E-01; -3.6986607E+01;3;  2.9122987E-01;  0.0000000E+00; -1.5221333E-02;0;  6.1334996E-03;  3.9994340E+04;  0.0000000E+00; -7.9700798E-02;  4.0000000E+04;  0.0000000E+00;  4.0001375E+04;  7.6979208E-03;  0.0000000E+00; -1.5644210E-03;  2.3607182E+02;
  4.7147033E-01;  9.9999998E-03; -1.7001738E-01;5326;  4.6276352E-03;  0.0000000E+00;  3.2656148E-04;  1.0000703E+03;  1.0000000E-01;  5.8171196E+01;3;  2.8578994E-01;  0.0000000E+00; -1.5921419E-02;0;  5.6755366E-03;  4.0004863E+04;  0.0000000E+00; -5.8966406E-02;  4.0000000E+04;  0.0000000E+00;  4.0000273E+04;  7.2960486E-03;  0.0000000E+00; -1.6205120E-03;  9.8092941E+01;
  4.7146231E-01;  9.9999998E-03; -1.6001853E-01;5327;  4.6151425E-03;  0.0000000E+00;  3.0895928E-04;  1.0001681E+03;  1.0000000E-01;  1.3925533E+02;3;  2.8813821E-01;  0.0000000E+00; -1.8366976E-02;0;  5.3678984E-03;  4.0013688E+04;  0.0000000E+00; -4.0432401E-02;  4.0000000E+04;  0.0000000E+00;  3.9999734E+04;  7.0450753E-03;  0.0000000E+00; -1.6771769E-03;  9.4731010E+01;
  4.7146028E-01;  9.9999998E-03; -1.5001971E-01;5328;  4.6176417E-03;  0.0000000E+00;  2.9100114E-04;  1.0002360E+03;  1.0000000E-01;  1.9555002E+02;3;  2.9776704E-01;  0.0000000E+00; -2.1721270E-02;0;  5.2041048E-03;  4.0019875E+04;  0.0000000E+00; -2.4650389E-02;  4.0000000E+04;  0.0000000E+00;  3.9998738E+04;  6.9382307E-03;  0.0000000E+00; -1.7341260E-03;  1.8124771E+02;
  4.7146374E-01;  9.9999998E-03; -1.4002061E-01;5329;  4.6352600E-03;  0.0000000E+00;  2.7288153E-04;  1.0002778E+03;  1.0000000E-01;  2.3011694E+02;3;  3.1172055E-01;  0.0000000E+00; -2.1611899E-02;0;  5.1669166E-03;  4.0023828E+04;  0.0000000E+00; -1.1611570E-02;  4.0000000E+04;  0.0000000E+00;  3.9998102E+04;  6.9582211E-03;  0.0000000E+00; -1.7913044E-03;  2.5244107E+02;
  4.7147211E-01;  9.9999998E-03; -1.3002098E-01;5330;  4.6607750E-03;  0.0000000E+00;  2.5534062E-04;  1.0002948E+03;  1.0000000E-01;  2.4424001E+02;3;  3.3087185E-01;  0.0000000E+00; -2.2057125E-02;0;  5.2305670E-03;  4.0025516E+04;  0.0000000E+00; -9.2536042E-04;  4.0000000E+04;  0.0000000E+00;  3.9997637E+04;  7.0794947E-03;  0.0000000E+00; -1.8489276E-03;  3.0107428E+02;
  4.7148460E-01;  9.9999998E-03; -1.2002044E-01;5331;  4.6807895E-03;  0.0000000E+00;  2.3803434E-04;  1.0002866E+03;  1.0000000E-01;  2.3742538E+02;3;  3.4870535E-01;  0.0000000E+00; -2.1922540E-02;0;  5.3644921E-03;  4.0025203E+04;  0.0000000E+00;  7.7174408E-03;  4.0000000E+04;  0.0000000E+00;  3.9997789E+04;  7.2716763E-03;  0.0000000E+00; -1.9071844E-03;  3.2970782E+02;
  4.7150052E-01;  9.9999998E-03; -1.1001904E-01;5332;  4.6902839E-03;  0.0000000E+00;  2.2027809E-04;  1.0002579E+03;  1.0000000E-01;  2.1362358E+02;3;  3.5782075E-01;  0.0000000E+00; -2.1852646E-02;0;  5.5374056E-03;  4.0023039E+04;  0.0000000E+00;  1.4387516E-02;  4.0000000E+04;  0.0000000E+00;  3.9997516E+04;  7.5030825E-03;  0.0000000E+00; -1.9656769E-03;  3.4070813E+02;
  4.8148492E-01;  9.9999998E-03; -1.1001915E-01;5393;  4.7886088E-03;  0.0000000E+00;  2.3500279E-04;  1.0002171E+03;  1.0000146E-01;  1.7984677E+02;3;  3.9721289E-01;  0.0000000E+00; -1.7789263E-02;0;  6.7142583E-03;  4.0018406E+04;  0.0000000E+00; -2.8669443E-02;  4.0000000E+04;  0.0000000E+00;  3.9997637E+04;  8.7992288E-03;  0.0000000E+00; -2.0849702E-03;  2.9839627E+02;
  4.8146880E-01;  9.9999998E-03; -1.2001948E-01;5392;  4.7758627E-03;  0.0000000E+00;  2.5105313E-04;  1.0002378E+03;  1.0000150E-01;  1.9703146E+02;3;  3.9330035E-01;  0.0000000E+00; -2.0075351E-02;0;  6.4920271E-03;  4.0020336E+04;  0.0000000E+00; -3.6128774E-02;  4.0000000E+04;  0.0000000E+00;  3.9997270E+04;  8.5156616E-03;  0.0000000E+00; -2.0236343E-03;  3.1222354E+02;
  4.8145702E-01;  9.9999998E-03; -1.3001892E-01;5391;  4.7573624E-03;  0.0000000E+00;  2.6443214E-04;  1.0002459E+03;  1.0000146E-01;  2.0374733E+02;3;  3.8134223E-01;  0.0000000E+00; -2.2369649E-02;0;  6.3119745E-03;  4.0020387E+04;  0.0000000E+00; -4.2838983E-02;  4.0000000E+04;  0.0000000E+00;  3.9997457E+04;  8.2744518E-03;  0.0000000E+00; -1.9624776E-03;  3.0934854E+02;
  4.8144963E-01;  9.9999998E-03; -1.4001754E-01;5390;  4.7336877E-03;  0.0000000E+00;  2.7826807E-04;  1.0002271E+03;  1.0000150E-01;  1.8814282E+02;3;  3.6157745E-01;  0.0000000E+00; -2.3758082E-02;0;  6.2056808E-03;  4.0019441E+04;  0.0000000E+00; -4.8527367E-02;  4.0000000E+04;  0.0000000E+00;  3.9997629E+04;  8.1071863E-03;  0.0000000E+00; -1.9015053E-03;  2.8498434E+02;
  4.8144659E-01;  9.9999998E-03; -1.5001574E-01;5389;  4.7067008E-03;  0.0000000E+00;  2.9474762E-04;  1.0001889E+03;  1.0000141E-01;  1.5653879E+02;3;  3.4097236E-01;  0.0000000E+00; -2.4927249E-02;0;  6.2037199E-03;  4.0016008E+04;  0.0000000E+00; -5.3484153E-02;  4.0000000E+04;  0.0000000E+00;  3.9998332E+04;  8.0437018E-03;  0.0000000E+00; -1.8399819E-03;  2.3424808E+02;
  4.8144752E-01;  9.9999998E-03; -1.6001393E-01;5388;  4.6948264E-03;  0.0000000E+00;  3.1395996E-04;  1.0001329E+03;  1.0000144E-01;  1.1012035E+02;3;  3.2838890E-01;  0.0000000E+00; -2.2257861E-02;0;  6.3319895E-03;  4.0010379E+04;  0.0000000E+00; -5.8522012E-02;  4.0000000E+04;  0.0000000E+00;  3.9999152E+04;  8.1090787E-03;  0.0000000E+00; -1.7770892E-03;  1.5740649E+02;
  4.8145258E-01;  9.9999998E-03; -1.7001253E-01;5387;  4.7056344E-03;  0.0000000E+00;  3.3512447E-04;  1.0000444E+03;  1.0000145E-01;  3.6739700E+01;3;  3.2526237E-01;  0.0000000E+00; -2.1370891E-02;0;  6.6082510E-03;  4.0002305E+04;  0.0000000E+00; -6.4610250E-02;  4.0000000E+04;  0.0000000E+00;  4.0000039E+04;  8.3207022E-03;  0.0000000E+00; -1.7124513E-03;  9.1007843E+01;
  4.8146144E-01;  9.9999998E-03; -1.8001205E-01;5386;  4.7475253E-03;  0.0000000E+00;  3.5317169E-04;  9.9993262E+02;  1.0000140E-01; -5.5800892E+01;3;  3.3464029E-01;  0.0000000E+00; -2.1551412E-02;0;  7.0396382E-03;  3.9992457E+04;  0.0000000E+00; -7.2558790E-02;  4.0000000E+04;  0.0000000E+00;  4.0001043E+04;  8.6858254E-03;  0.0000000E+00; -1.6461874E-03;  1.7330136E+02;
  4.8147386E-01;  9.9999998E-03; -1.9001280E-01;5385;  4.8256204E-03;  0.0000000E+00;  3.6507368E-04;  9.9979871E+02;  1.0000148E-01; -1.6676071E+02;3;  3.5501558E-01;  0.0000000E+00; -2.3321142E-02;0;  7.6228436E-03;  3.9980301E+04;  0.0000000E+00; -8.2741670E-02;  4.0000000E+04;  0.0000000E+00;  4.0002320E+04;  9.2003560E-03;  0.0000000E+00; -1.5775124E-03;  3.3740485E+02;
  4.8148933E-01;  9.9999998E-03; -2.0001505E-01;5384;  4.9425438E-03;  0.0000000E+00;  3.7000127E-04;  9.9964148E+02;  1.0000140E-01; -2.9702863E+02;3;  3.8924268E-01;  0.0000000E+00; -2.5609009E-02;0;  8.3471695E-03;  3.9966352E+04;  0.0000000E+00; -9.4908081E-02;  4.0000000E+04;  0.0000000E+00;  4.0003629E+04;  9.8490613E-03;  0.0000000E+00; -1.5018919E-03;  5.1117499E+02;
  4.8150542E-01;  9.9999998E-03; -2.1001762E-01;5383;  5.0833258E-03;  0.0000000E+00;  3.7507084E-04;  9.9946790E+02;  1.0000147E-01; -4.4082703E+02;3;  4.3067992E-01;  0.0000000E+00; -2.9052353E-02;0;  9.1922386E-03;  3.9951582E+04;  0.0000000E+00; -1.0804673E-01;  4.0000000E+04;  0.0000000E+00;  4.0004766E+04;  1.0607354E-02;  0.0000000E+00; -1.4151161E-03;  6.5690961E+02;
  4.8152161E-01;  9.9999998E-03; -2.2001725E-01;5382;  5.2231876E-03;  0.0000000E+00;  3.9714048E-04;  9.9928802E+02;  1.0000146E-01; -5.8985986E+02;3;  4.7104049E-01;  0.0000000E+00; -2.9209774E-02;0;  1.0104460E-02;  3.9936266E+04;  0.0000000E+00; -1.2027054E-01;  4.0000000E+04;  0.0000000E+00;  4.0005566E+04;  1.1444735E-02;  0.0000000E+00; -1.3402754E-03;  7.8109827E+02;
  4.8153967E-01;  9.9999998E-03; -2.3001146E-01;5381;  5.3835199E-03;  0.0000000E+00;  4.2758690E-04;  9.9911450E+02;  1.0000141E-01; -7.3360889E+02;3;  5.1119000E-01;  0.0000000E+00; -2.9728292E-02;0;  1.1032567E-02;  3.9920816E+04;  0.0000000E+00; -1.2861812E-01;  4.0000000E+04;  0.0000000E+00;  4.0007137E+04;  1.2328239E-02;  0.0000000E+00; -1.2956714E-03;  9.8552710E+02;
  4.8156255E-01;  9.9999998E-03; -2.4000506E-01;5380;  5.5876463E-03;  0.0000000E+00;  4.4860135E-04;  9.9895172E+02;  1.0000148E-01; -8.6846924E+02;3;  5.4998332E-01;  0.0000000E+00; -3.1004060E-02;0;  1.1980135E-02;  3.9905742E+04;  0.0000000E+00; -1.2883061E-01;  4.0000000E+04;  0.0000000E+00;  4.0009398E+04;  1.3226094E-02;  0.0000000E+00; -1.2459591E-03;  1.2556678E+03;
  4.8158678E-01;  9.9999998E-03; -2.5000036E-01;5379;  5.8180639E-03;  0.0000000E+00;  4.7051170E-04;  9.9880328E+02;  1.0000146E-01; -9.9147815E+02;3;  5.8623511E-01;  0.0000000E+00; -3.3003446E-02;0;  1.2881948E-02;  3.9891645E+04;  0.0000000E+00; -1.1497320E-01;  4.0000000E+04;  0.0000000E+00;  4.0011180E+04;  1.4108696E-02;  0.0000000E+00; -1.2267480E-03;  1.5107571E+03;
  4.8161212E-01;  9.9999998E-03; -2.5999624E-01;5378;  6.1123576E-03;  0.0000000E+00;  4.6164822E-04;  9.9866156E+02;  1.0000148E-01; -1.1088575E+03;3;  6.2382364E-01;  0.0000000E+00; -3.0968094E-02;0;  1.3980393E-02;  3.9878480E+04;  0.0000000E+00; -7.9856381E-02;  4.0000000E+04;  0.0000000E+00;  4.0013129E+04;  1.4950418E-02;  0.0000000E+00; -9.7002473E-04;  1.7700144E+03;
  4.8163736E-01;  9.9999998E-03; -2.6999295E-01;5377;  6.4411028E-03;  0.0000000E+00;  4.4272357E-04;  9.9853723E+02;  1.0000148E-01; -1.2118669E+03;3;  6.4747179E-01;  0.0000000E+00; -1.7372336E-02;0;  1.5251643E-02;  3.9866418E+04;  0.0000000E+00; -1.7532766E-02;  4.0000000E+04;  0.0000000E+00;  4.0014605E+04;  1.5731115E-02;  0.0000000E+00; -4.7947178E-04;  1.9829022E+03;
  4.9154273E-01;  9.9999998E-03; -1.1000501E-01;5454;  4.8866174E-03;  0.0000000E+00;  2.6015696E-04;  1.0001471E+03;  1.0000202E-01;  1.2187309E+02;3;  4.3221542E-01;  0.0000000E+00; -1.0162054E-02;0;  7.9262555E-03;  4.0012301E+04;  0.0000000E+00; -7.0787691E-02;  4.0000000E+04;  0.0000000E+00;  3.9997871E+04;  1.0135597E-02;  0.0000000E+00; -2.2093414E-03;  2.6476538E+02;
  4.9151987E-01;  9.9999998E-03; -1.2000496E-01;5453;  4.8562684E-03;  0.0000000E+00;  2.7426836E-04;  1.0001617E+03;  1.0000196E-01;  1.3402090E+02;3;  4.2255011E-01;  0.0000000E+00; -1.4156396E-02;0;  7.6668574E-03;  4.0014023E+04;  0.0000000E+00; -7.6338746E-02;  4.0000000E+04;  0.0000000E+00;  3.9997734E+04;  9.8125283E-03;  0.0000000E+00; -2.1456708E-03;  3.0421509E+02;
  4.9150291E-01;  9.9999998E-03; -1.3000418E-01;5452;  4.8258109E-03;  0.0000000E+00;  2.8558000E-04;  1.0001663E+03;  1.0000198E-01;  1.3777388E+02;3;  4.0989000E-01;  0.0000000E+00; -1.8469306E-02;0;  7.4510938E-03;  4.0014199E+04;  0.0000000E+00; -7.8242078E-02;  4.0000000E+04;  0.0000000E+00;  3.9997461E+04;  9.5332246E-03;  0.0000000E+00; -2.0821306E-03;  3.2636053E+02;
  4.9149269E-01;  9.9999998E-03; -1.4000267E-01;5451;  4.8021632E-03;  0.0000000E+00;  2.9681966E-04;  1.0001559E+03;  1.0000201E-01;  1.2918153E+02;3;  3.9589134E-01;  0.0000000E+00; -2.2179520E-02;0;  7.3100915E-03;  4.0013113E+04;  0.0000000E+00; -7.6220743E-02;  4.0000000E+04;  0.0000000E+00;  3.9997309E+04;  9.3283476E-03;  0.0000000E+00; -2.0182559E-03;  3.2364111E+02;
  4.9148929E-01;  9.9999998E-03; -1.5000078E-01;5450;  4.7868751E-03;  0.0000000E+00;  3.1093054E-04;  1.0001197E+03;  1.0000207E-01;  9.9157692E+01;3;  3.8014194E-01;  0.0000000E+00; -2.3514198E-02;0;  7.2738896E-03;  4.0010406E+04;  0.0000000E+00; -7.0855856E-02;  4.0000000E+04;  0.0000000E+00;  3.9997711E+04;  9.2265932E-03;  0.0000000E+00; -1.9527036E-03;  2.8836807E+02;
  4.9149224E-01;  9.9999998E-03; -1.5999901E-01;5449;  4.7809817E-03;  0.0000000E+00;  3.3005109E-04;  1.0000671E+03;  1.0000201E-01;  5.5603367E+01;3;  3.6918831E-01;  0.0000000E+00; -2.3040945E-02;0;  7.3680496E-03;  4.0005250E+04;  0.0000000E+00; -6.3688666E-02;  4.0000000E+04;  0.0000000E+00;  3.9998246E+04;  9.2521198E-03;  0.0000000E+00; -1.8840700E-03;  2.1536848E+02;
  4.9150068E-01;  9.9999998E-03; -1.6999817E-01;5448;  4.7981874E-03;  0.0000000E+00;  3.5315577E-04;  9.9998474E+02;  1.0000210E-01; -1.2641618E+01;3;  3.6692652E-01;  0.0000000E+00; -2.0478768E-02;0;  7.6103150E-03;  3.9998363E+04;  0.0000000E+00; -5.6883007E-02;  4.0000000E+04;  0.0000000E+00;  3.9999672E+04;  9.4219204E-03;  0.0000000E+00; -1.8116055E-03;  1.1054833E+02;
  4.9151340E-01;  9.9999998E-03; -1.7999870E-01;5447;  4.8516239E-03;  0.0000000E+00;  3.7450282E-04;  9.9988403E+02;  1.0000210E-01; -9.6096046E+01;3;  3.8011923E-01;  0.0000000E+00; -1.9949105E-02;0;  8.0077201E-03;  3.9988516E+04;  0.0000000E+00; -5.2734941E-02;  4.0000000E+04;  0.0000000E+00;  4.0000566E+04;  9.7433487E-03;  0.0000000E+00; -1.7356290E-03;  1.1246370E+02;
  4.9152809E-01;  9.9999998E-03; -1.9000119E-01;5446;  4.9498430E-03;  0.0000000E+00;  3.8830630E-04;  9.9975488E+02;  1.0000215E-01; -2.0305598E+02;3;  4.0885878E-01;  0.0000000E+00; -2.0617504E-02;0;  8.5568065E-03;  3.9976863E+04;  0.0000000E+00; -5.3024046E-02;  4.0000000E+04;  0.0000000E+00;  4.0002141E+04;  1.0212563E-02;  0.0000000E+00; -1.6557564E-03;  2.9330109E+02;
  4.9154264E-01;  9.9999998E-03; -2.0000571E-01;5445;  5.0907908E-03;  0.0000000E+00;  3.9237825E-04;  9.9960565E+02;  1.0000205E-01; -3.2670682E+02;3;  4.5142081E-01;  0.0000000E+00; -2.1676339E-02;0;  9.2476374E-03;  3.9963230E+04;  0.0000000E+00; -5.8474105E-02;  4.0000000E+04;  0.0000000E+00;  4.0003598E+04;  1.0814580E-02;  0.0000000E+00; -1.5669431E-03;  4.9786234E+02;
  4.9155879E-01;  9.9999998E-03; -2.1001165E-01;5444;  5.2595050E-03;  0.0000000E+00;  3.9455661E-04;  9.9943536E+02;  1.0000203E-01; -4.6778925E+02;3;  4.9535757E-01;  0.0000000E+00; -2.5017876E-02;0;  1.0062085E-02;  3.9948688E+04;  0.0000000E+00; -6.8473950E-02;  4.0000000E+04;  0.0000000E+00;  4.0004898E+04;  1.1525387E-02;  0.0000000E+00; -1.4633017E-03;  6.6487695E+02;
  4.9157429E-01;  9.9999998E-03; -2.2001454E-01;5443;  5.4315017E-03;  0.0000000E+00;  4.1377320E-04;  9.9925696E+02;  1.0000205E-01; -6.1558752E+02;3;  5.3443199E-01;  0.0000000E+00; -2.7205326E-02;0;  1.0946372E-02;  3.9933270E+04;  0.0000000E+00; -8.1067733E-02;  4.0000000E+04;  0.0000000E+00;  4.0005465E+04;  1.2313646E-02;  0.0000000E+00; -1.3672746E-03;  7.8739203E+02;
  4.9158800E-01;  9.9999998E-03; -2.3000966E-01;5442;  5.6250407E-03;  0.0000000E+00;  4.3716308E-04;  9.9907935E+02;  1.0000207E-01; -7.6274384E+02;3;  5.6946611E-01;  0.0000000E+00; -2.8541451E-02;0;  1.1862781E-02;  3.9917566E+04;  0.0000000E+00; -9.2935227E-02;  4.0000000E+04;  0.0000000E+00;  4.0007402E+04;  1.3144771E-02;  0.0000000E+00; -1.2819897E-03;  1.0090219E+03;
  4.9160367E-01;  9.9999998E-03; -2.4000409E-01;5441;  5.8555198E-03;  0.0000000E+00;  4.5131470E-04;  9.9891962E+02;  1.0000210E-01; -8.9508582E+02;3;  6.0528803E-01;  0.0000000E+00; -3.0115670E-02;0;  1.2816870E-02;  3.9902672E+04;  0.0000000E+00; -9.9667847E-02;  4.0000000E+04;  0.0000000E+00;  4.0009414E+04;  1.3985983E-02;  0.0000000E+00; -1.1691133E-03;  1.2803447E+03;
  4.9161157E-01;  9.9999998E-03; -2.4999970E-01;5440;  6.1052390E-03;  0.0000000E+00;  4.6845939E-04;  9.9876801E+02;  1.0000207E-01; -1.0206625E+03;3;  6.3849521E-01;  0.0000000E+00; -3.0432319E-02;0;  1.3739841E-02;  3.9888688E+04;  0.0000000E+00; -9.5097244E-02;  4.0000000E+04;  0.0000000E+00;  4.0011371E+04;  1.4806843E-02;  0.0000000E+00; -1.0670020E-03;  1.5388555E+03;
  4.9161541E-01;  9.9999998E-03; -2.5999585E-01;5439;  6.4092306E-03;  0.0000000E+00;  4.5729204E-04;  9.9863092E+02;  1.0000200E-01; -1.1342395E+03;3;  6.6992772E-01;  0.0000000E+00; -2.6343210E-02;0;  1.4865735E-02;  3.9875617E+04;  0.0000000E+00; -7.2852068E-02;  4.0000000E+04;  0.0000000E+00;  4.0013637E+04;  1.5583328E-02;  0.0000000E+00; -7.1759330E-04;  1.7922566E+03;
  4.9162307E-01;  9.9999998E-03; -2.6999262E-01;5438;  6.7205555E-03;  0.0000000E+00;  4.4881046E-04;  9.9850696E+02;  1.0000207E-01; -1.2369526E+03;3;  6.9082314E-01;  0.0000000E+00; -1.0818251E-02;0;  1.6033525E-02;  3.9864039E+04;  0.0000000E+00; -2.8492359E-02;  4.0000000E+04;  0.0000000E+00;  4.0014984E+04;  1.6299162E-02;  0.0000000E+00; -2.6563817E-04;  2.0027606E+03;
  5.0168431E-01;  9.9999998E-03; -2.6999158E-01;5499;  6.8907384E-03;  0.0000000E+00;  4.7829238E-04;  9.9843506E+02;  1.0000364E-01; -1.2965066E+03;3;  7.2411782E-01;  0.0000000E+00; -7.3655620E-03;0;  1.6541807E-02;  3.9856434E+04;  0.0000000E+00; -7.4334860E-02;  4.0000000E+04;  0.0000000E+00;  4.0015664E+04;  1.6867217E-02;  0.0000000E+00; -3.2540917E-04;  2.1044873E+03;
  5.0167418E-01;  9.9999998E-03; -2.5999460E-01;5500;  6.6105807E-03;  0.0000000E+00;  4.7387619E-04;  9.9856293E+02;  1.0000370E-01; -1.1905836E+03;3;  7.0251042E-01;  0.0000000E+00; -1.9739835E-02;0;  1.5561778E-02;  3.9868391E+04;  0.0000000E+00; -9.5138408E-02;  4.0000000E+04;  0.0000000E+00;  4.0014332E+04;  1.6216613E-02;  0.0000000E+00; -6.5483543E-04;  1.8952430E+03;
  5.0166267E-01;  9.9999998E-03; -2.4999803E-01;5501;  6.3118199E-03;  0.0000000E+00;  4.8119738E-04;  9.9870514E+02;  1.0000373E-01; -1.0727598E+03;3;  6.7009676E-01;  0.0000000E+00; -2.3766497E-02;0;  1.4502917E-02;  3.9881684E+04;  0.0000000E+00; -9.6962087E-02;  4.0000000E+04;  0.0000000E+00;  4.0012254E+04;  1.5508898E-02;  0.0000000E+00; -1.0059801E-03;  1.6436874E+03;
  5.0164086E-01;  9.9999998E-03; -2.4000162E-01;5502;  6.0456917E-03;  0.0000000E+00;  4.6941827E-04;  9.9886237E+02;  1.0000383E-01; -9.4249188E+02;3;  6.3679302E-01;  0.0000000E+00; -2.2989361E-02;0;  1.3592171E-02;  3.9896012E+04;  0.0000000E+00; -8.4654845E-02;  4.0000000E+04;  0.0000000E+00;  4.0010273E+04;  1.4756286E-02;  0.0000000E+00; -1.1641150E-03;  1.3874772E+03;
  5.0161397E-01;  9.9999998E-03; -2.3000562E-01;5503;  5.7941070E-03;  0.0000000E+00;  4.6303691E-04;  9.9902710E+02;  1.0000373E-01; -8.0605127E+02;3;  6.0321045E-01;  0.0000000E+00; -2.2457790E-02;0;  1.2661631E-02;  3.9911551E+04;  0.0000000E+00; -6.5626279E-02;  4.0000000E+04;  0.0000000E+00;  4.0008598E+04;  1.3981138E-02;  0.0000000E+00; -1.3195068E-03;  1.1195377E+03;
  5.0159228E-01;  9.9999998E-03; -2.2000809E-01;5504;  5.5705584E-03;  0.0000000E+00;  4.5106403E-04;  9.9920172E+02;  1.0000384E-01; -6.6136401E+02;3;  5.6681561E-01;  0.0000000E+00; -1.9551044E-02;0;  1.1777317E-02;  3.9927375E+04;  0.0000000E+00; -4.5861725E-02;  4.0000000E+04;  0.0000000E+00;  4.0006668E+04;  1.3213118E-02;  0.0000000E+00; -1.4358008E-03;  8.8990002E+02;
  5.0156915E-01;  9.9999998E-03; -2.1000358E-01;5505;  5.3709880E-03;  0.0000000E+00;  4.4001793E-04;  9.9938525E+02;  1.0000365E-01; -5.0931894E+02;3;  5.2968055E-01;  0.0000000E+00; -1.6652904E-02;0;  1.0940914E-02;  3.9943172E+04;  0.0000000E+00; -2.9283581E-02;  4.0000000E+04;  0.0000000E+00;  4.0005566E+04;  1.2484535E-02;  0.0000000E+00; -1.5436204E-03;  7.2600195E+02;
  5.0154638E-01;  9.9999998E-03; -1.9999632E-01;5506;  5.1860767E-03;  0.0000000E+00;  4.3863340E-04;  9.9955365E+02;  1.0000372E-01; -3.6981671E+02;3;  4.8854208E-01;  0.0000000E+00; -1.2197438E-02;0;  1.0179741E-02;  3.9957824E+04;  0.0000000E+00; -1.9202635E-02;  4.0000000E+04;  0.0000000E+00;  4.0003891E+04;  1.1829856E-02;  0.0000000E+00; -1.6501143E-03;  5.1456500E+02;
  5.0152719E-01;  9.9999998E-03; -1.8999077E-01;5507;  5.0353855E-03;  0.0000000E+00;  4.3062607E-04;  9.9970117E+02;  1.0000368E-01; -2.4759793E+02;3;  4.4684571E-01;  0.0000000E+00; -1.0162551E-02;0;  9.5365923E-03;  3.9971496E+04;  0.0000000E+00; -1.7472912E-02;  4.0000000E+04;  0.0000000E+00;  4.0001902E+04;  1.1280064E-02;  0.0000000E+00; -1.7434725E-03;  2.7056900E+02;
  5.0151259E-01;  9.9999998E-03; -1.7998733E-01;5508;  4.9304026E-03;  0.0000000E+00;  4.1224860E-04;  9.9982648E+02;  1.0000376E-01; -1.4374902E+02;3;  4.1661119E-01;  0.0000000E+00; -1.1062684E-02;0;  9.0277987E-03;  3.9983223E+04;  0.0000000E+00; -2.4365518E-02;  4.0000000E+04;  0.0000000E+00;  4.0000238E+04;  1.0858807E-02;  0.0000000E+00; -1.8310082E-03;  5.6053089E+01;
  5.0150186E-01;  9.9999998E-03; -1.6998559E-01;5509;  4.8699956E-03;  0.0000000E+00;  3.8616598E-04;  9.9992426E+02;  1.0000373E-01; -6.2763657E+01;3;  4.0153086E-01;  0.0000000E+00; -1.3321825E-02;0;  8.6647924E-03;  3.9992414E+04;  0.0000000E+00; -3.8471397E-02;  4.0000000E+04;  0.0000000E+00;  3.9998602E+04;  1.0580126E-02;  0.0000000E+00; -1.9153341E-03;  1.4084442E+02;
  5.0149649E-01;  9.9999998E-03; -1.5998533E-01;5510;  4.8416252E-03;  0.0000000E+00;  3.6137662E-04;  9.9999695E+02;  1.0000366E-01; -2.5184474E+00;3;  3.9851573E-01;  0.0000000E+00; -1.6613625E-02;0;  8.4521258E-03;  3.9999250E+04;  0.0000000E+00; -5.6937572E-02;  4.0000000E+04;  0.0000000E+00;  3.9998113E+04;  1.0447360E-02;  0.0000000E+00; -1.9952336E-03;  2.6337527E+02;
  5.0149763E-01;  9.9999998E-03; -1.4998600E-01;5511;  4.8357551E-03;  0.0000000E+00;  3.4073257E-04;  1.0000525E+03;  1.0000379E-01;  4.3455563E+01;3;  4.0437642E-01;  0.0000000E+00; -1.7802434E-02;0;  8.3834510E-03;  4.0003887E+04;  0.0000000E+00; -7.6155901E-02;  4.0000000E+04;  0.0000000E+00;  3.9997160E+04;  1.0452997E-02;  0.0000000E+00; -2.0695454E-03;  3.3480414E+02;
  5.0150597E-01;  9.9999998E-03; -1.3998704E-01;5512;  4.8502036E-03;  0.0000000E+00;  3.2553810E-04;  1.0000839E+03;  1.0000389E-01;  6.9528900E+01;3;  4.1485184E-01;  0.0000000E+00; -1.5809301E-02;0;  8.4411474E-03;  4.0006355E+04;  0.0000000E+00; -9.2714399E-02;  4.0000000E+04;  0.0000000E+00;  3.9997242E+04;  1.0580188E-02;  0.0000000E+00; -2.1390400E-03;  3.5984323E+02;
  5.0152129E-01;  9.9999998E-03; -1.2998794E-01;5513;  4.8832349E-03;  0.0000000E+00;  3.1388577E-04;  1.0000936E+03;  1.0000376E-01;  7.7528671E+01;3;  4.2888159E-01;  0.0000000E+00; -1.0891489E-02;0;  8.5999798E-03;  4.0007203E+04;  0.0000000E+00; -1.0414646E-01;  4.0000000E+04;  0.0000000E+00;  3.9997543E+04;  1.0805507E-02;  0.0000000E+00; -2.2055279E-03;  3.4720328E+02;
  5.0154269E-01;  9.9999998E-03; -1.1998852E-01;5514;  4.9295356E-03;  0.0000000E+00;  3.0382455E-04;  1.0000910E+03;  1.0000389E-01;  7.5355896E+01;3;  4.4517073E-01;  0.0000000E+00; -5.3345379E-03;0;  8.8306386E-03;  4.0006863E+04;  0.0000000E+00; -1.0929115E-01;  4.0000000E+04;  0.0000000E+00;  3.9997949E+04;  1.1101584E-02;  0.0000000E+00; -2.2709449E-03;  3.0746283E+02;
  5.0156856E-01;  9.9999998E-03; -1.0998874E-01;5515;  4.9825921E-03;  0.0000000E+00;  2.9173476E-04;  1.0000873E+03;  1.0000384E-01;  7.2393013E+01;3;  4.6424058E-01;  0.0000000E+00; -1.1514938E-03;0;  9.1031026E-03;  4.0005465E+04;  0.0000000E+00; -1.0808057E-01;  4.0000000E+04;  0.0000000E+00;  3.9998359E+04;  1.1439404E-02;  0.0000000E+00; -2.3363014E-03;  2.5173758E+02;
  5.1163691E-01;  9.9999998E-03; -2.6998982E-01;5560;  6.9782729E-03;  0.0000000E+00;  5.2542996E-04;  9.9832001E+02;  1.0000632E-01; -1.3918618E+03;3;  7.4012196E-01;  0.0000000E+00;  4.7555706E-04;0;  1.6947817E-02;  3.9844117E+04;  0.0000000E+00; -1.1862317E-01;  4.0000000E+04;  0.0000000E+00;  4.0017199E+04;  1.7546425E-02;  0.0000000E+00; -5.9860758E-04;  2.2882732E+03;
  5.1163703E-01;  9.9999998E-03; -2.5999257E-01;5561;  6.7193364E-03;  0.0000000E+00;  5.1497272E-04;  9.9845715E+02;  1.0000619E-01; -1.2782355E+03;3;  7.2290963E-01;  0.0000000E+00; -9.5515233E-03;0;  1.6127158E-02;  3.9856668E+04;  0.0000000E+00; -1.2095357E-01;  4.0000000E+04;  0.0000000E+00;  4.0015602E+04;  1.6948922E-02;  0.0000000E+00; -8.2176371E-04;  2.0738826E+03;
  5.1163203E-01;  9.9999998E-03; -2.4999541E-01;5562;  6.4402809E-03;  0.0000000E+00;  5.1561644E-04;  9.9860980E+02;  1.0000618E-01; -1.1517699E+03;3;  6.9686717E-01;  0.0000000E+00; -1.5345807E-02;0;  1.5204841E-02;  3.9870797E+04;  0.0000000E+00; -1.0517803E-01;  4.0000000E+04;  0.0000000E+00;  4.0013434E+04;  1.6300717E-02;  0.0000000E+00; -1.0958764E-03;  1.8236211E+03;
  5.1161677E-01;  9.9999998E-03; -2.3999789E-01;5563;  6.1710132E-03;  0.0000000E+00;  5.0755002E-04;  9.9877612E+02;  1.0000615E-01; -1.0139467E+03;3;  6.6280329E-01;  0.0000000E+00; -1.5084541E-02;0;  1.4353397E-02;  3.9886074E+04;  0.0000000E+00; -7.7949509E-02;  4.0000000E+04;  0.0000000E+00;  4.0011961E+04;  1.5611039E-02;  0.0000000E+00; -1.2576414E-03;  1.5721201E+03;
  5.1159543E-01;  9.9999998E-03; -2.3000009E-01;5564;  5.9027192E-03;  0.0000000E+00;  5.0827971E-04;  9.9895294E+02;  1.0000625E-01; -8.6748163E+02;3;  6.2468088E-01;  0.0000000E+00; -1.2334044E-02;0;  1.3478482E-02;  3.9902133E+04;  0.0000000E+00; -4.7022372E-02;  4.0000000E+04;  0.0000000E+00;  4.0009691E+04;  1.4899516E-02;  0.0000000E+00; -1.4210345E-03;  1.3056489E+03;
  5.1157469E-01;  9.9999998E-03; -2.2000070E-01;5565;  5.6545041E-03;  0.0000000E+00;  5.0875684E-04;  9.9913470E+02;  1.0000622E-01; -7.1686859E+02;3;  5.8703244E-01;  0.0000000E+00; -8.6436905E-03;0;  1.2645563E-02;  3.9918699E+04;  0.0000000E+00; -1.8317498E-02;  4.0000000E+04;  0.0000000E+00;  4.0007680E+04;  1.4193257E-02;  0.0000000E+00; -1.5476944E-03;  1.0494169E+03;
  5.1155293E-01;  9.9999998E-03; -2.0999587E-01;5566;  5.4360949E-03;  0.0000000E+00;  5.0520193E-04;  9.9932178E+02;  1.0000617E-01; -5.6191003E+02;3;  5.4941165E-01;  0.0000000E+00; -5.0394153E-03;0;  1.1873294E-02;  3.9935062E+04;  0.0000000E+00;  4.0075434E-03;  4.0000000E+04;  0.0000000E+00;  4.0006129E+04;  1.3523207E-02;  0.0000000E+00; -1.6499129E-03;  8.2688092E+02;
  5.1153147E-01;  9.9999998E-03; -1.9998847E-01;5567;  5.2419389E-03;  0.0000000E+00;  5.0222082E-04;  9.9948615E+02;  1.0000618E-01; -4.2571637E+02;3;  5.1113862E-01;  0.0000000E+00; -1.1091481E-03;0;  1.1175074E-02;  3.9950512E+04;  0.0000000E+00;  1.6661683E-02;  4.0000000E+04;  0.0000000E+00;  4.0004047E+04;  1.2922126E-02;  0.0000000E+00; -1.7470522E-03;  5.6691638E+02;
  5.1151371E-01;  9.9999998E-03; -1.8998240E-01;5568;  5.0904490E-03;  0.0000000E+00;  4.8761626E-04;  9.9963733E+02;  1.0000610E-01; -3.0048532E+02;3;  4.7355676E-01;  0.0000000E+00;  8.7366876E-04;0;  1.0581402E-02;  3.9964379E+04;  0.0000000E+00;  1.7740868E-02;  4.0000000E+04;  0.0000000E+00;  4.0002086E+04;  1.2419439E-02;  0.0000000E+00; -1.8380363E-03;  2.8635699E+02;
  5.1150143E-01;  9.9999998E-03; -1.7997795E-01;5569;  4.9851956E-03;  0.0000000E+00;  4.6235922E-04;  9.9976257E+02;  1.0000620E-01; -1.9668579E+02;3;  4.4426039E-01;  0.0000000E+00;  2.1549700E-04;0;  1.0108094E-02;  3.9976160E+04;  0.0000000E+00;  7.0391446E-03;  4.0000000E+04;  0.0000000E+00;  4.0000109E+04;  1.2037895E-02;  0.0000000E+00; -1.9298006E-03;  3.5995468E+01;
  5.1149511E-01;  9.9999998E-03; -1.6997494E-01;5570;  4.9170279E-03;  0.0000000E+00;  4.3163201E-04;  9.9985956E+02;  1.0000616E-01; -1.1634239E+02;3;  4.2749506E-01;  0.0000000E+00; -3.9574816E-03;0;  9.7698411E-03;  3.9985570E+04;  0.0000000E+00; -1.3728833E-02;  4.0000000E+04;  0.0000000E+00;  3.9998918E+04;  1.1791004E-02;  0.0000000E+00; -2.0211630E-03;  1.6148012E+02;
  5.1149446E-01;  9.9999998E-03; -1.5997331E-01;5571;  4.8858263E-03;  0.0000000E+00;  4.0353069E-04;  9.9993500E+02;  1.0000635E-01; -5.3875019E+01;3;  4.2296231E-01;  0.0000000E+00; -8.1699640E-03;0;  9.5732100E-03;  3.9992383E+04;  0.0000000E+00; -4.1057099E-02;  4.0000000E+04;  0.0000000E+00;  3.9997723E+04;  1.1681291E-02;  0.0000000E+00; -2.1080817E-03;  2.9501990E+02;
  5.1150048E-01;  9.9999998E-03; -1.4997272E-01;5572;  4.8781168E-03;  0.0000000E+00;  3.7887221E-04;  9.9998395E+02;  1.0000607E-01; -1.3283575E+01;3;  4.2508122E-01;  0.0000000E+00; -9.9745002E-03;0;  9.5127244E-03;  3.9996961E+04;  0.0000000E+00; -7.0374511E-02;  4.0000000E+04;  0.0000000E+00;  3.9997121E+04;  1.1700876E-02;  0.0000000E+00; -2.1881515E-03;  3.6798260E+02;
  5.1151353E-01;  9.9999998E-03; -1.3997285E-01;5573;  4.8967400E-03;  0.0000000E+00;  3.6012765E-04;  1.0000140E+03;  1.0000619E-01;  1.1555229E+01;3;  4.3242502E-01;  0.0000000E+00; -7.2052656E-03;0;  9.5709478E-03;  3.9999125E+04;  0.0000000E+00; -9.7170450E-02;  4.0000000E+04;  0.0000000E+00;  3.9996918E+04;  1.1832678E-02;  0.0000000E+00; -2.2617299E-03;  3.8788248E+02;
  5.1153296E-01;  9.9999998E-03; -1.2997340E-01;5574;  4.9391752E-03;  0.0000000E+00;  3.4610520E-04;  1.0000263E+03;  1.0000630E-01;  2.1826544E+01;3;  4.4772369E-01;  0.0000000E+00; -4.3273452E-03;0;  9.7228745E-03;  3.9999828E+04;  0.0000000E+00; -1.1804945E-01;  4.0000000E+04;  0.0000000E+00;  3.9997320E+04;  1.2053697E-02;  0.0000000E+00; -2.3308229E-03;  3.6611349E+02;
  5.1155692E-01;  9.9999998E-03; -1.1997417E-01;5575;  5.0024637E-03;  0.0000000E+00;  3.3526859E-04;  1.0000268E+03;  1.0000610E-01;  2.2221594E+01;3;  4.6904105E-01;  0.0000000E+00;  1.9207756E-03;0;  9.9400235E-03;  3.9999414E+04;  0.0000000E+00; -1.3112140E-01;  4.0000000E+04;  0.0000000E+00;  3.9998348E+04;  1.2337897E-02;  0.0000000E+00; -2.3978734E-03;  3.1667618E+02;
  5.1158315E-01;  9.9999998E-03; -1.0997533E-01;5576;  5.0778170E-03;  0.0000000E+00;  3.2475975E-04;  1.0000258E+03;  1.0000629E-01;  2.1332729E+01;3;  4.9519694E-01;  0.0000000E+00;  8.8720191E-03;0;  1.0193798E-02;  3.9998320E+04;  0.0000000E+00; -1.3574228E-01;  4.0000000E+04;  0.0000000E+00;  3.9998895E+04;  1.2658250E-02;  0.0000000E+00; -2.4644521E-03;  2.5596851E+02;
  5.2158785E-01;  9.9999998E-03; -2.6998776E-01;5621;  7.0153433E-03;  0.0000000E+00;  5.8638258E-04;  9.9818762E+02;  1.0001041E-01; -1.5015377E+03;3;  7.5759172E-01;  0.0000000E+00;  5.8255205E-03;0;  1.7395362E-02;  3.9828172E+04;  0.0000000E+00; -1.6605395E-01;  4.0000000E+04;  0.0000000E+00;  4.0018430E+04;  1.8440653E-02;  0.0000000E+00; -1.0452897E-03;  2.5125181E+03;
  5.2159607E-01;  9.9999998E-03; -2.5999013E-01;5622;  6.7834612E-03;  0.0000000E+00;  5.6745933E-04;  9.9833551E+02;  1.0001060E-01; -1.3790227E+03;3;  7.3883718E-01;  0.0000000E+00; -3.2879307E-03;0;  1.6768968E-02;  3.9841559E+04;  0.0000000E+00; -1.5454541E-01;  4.0000000E+04;  0.0000000E+00;  4.0017133E+04;  1.7873088E-02;  0.0000000E+00; -1.1041205E-03;  2.2918433E+03;
  5.2159762E-01;  9.9999998E-03; -2.4999242E-01;5623;  6.5207407E-03;  0.0000000E+00;  5.6262634E-04;  9.9850238E+02;  1.0001060E-01; -1.2407550E+03;3;  7.1174449E-01;  0.0000000E+00; -6.4312583E-03;0;  1.5983172E-02;  3.9856613E+04;  0.0000000E+00; -1.2324955E-01;  4.0000000E+04;  0.0000000E+00;  4.0015406E+04;  1.7262938E-02;  0.0000000E+00; -1.2797666E-03;  2.0384916E+03;
  5.2158809E-01;  9.9999998E-03; -2.3999400E-01;5624;  6.2509980E-03;  0.0000000E+00;  5.5836077E-04;  9.9868054E+02;  1.0001048E-01; -1.0931543E+03;3;  6.8001962E-01;  0.0000000E+00; -6.6309427E-03;0;  1.5198071E-02;  3.9872875E+04;  0.0000000E+00; -8.1917681E-02;  4.0000000E+04;  0.0000000E+00;  4.0013738E+04;  1.6617147E-02;  0.0000000E+00; -1.4190766E-03;  1.7857214E+03;
  5.2157027E-01;  9.9999998E-03; -2.2999498E-01;5625;  5.9725242E-03;  0.0000000E+00;  5.6818384E-04;  9.9887256E+02;  1.0001051E-01; -9.3404767E+02;3;  6.4250422E-01;  0.0000000E+00; -2.2620554E-03;0;  1.4377518E-02;  3.9890184E+04;  0.0000000E+00; -3.9296925E-02;  4.0000000E+04;  0.0000000E+00;  4.0011262E+04;  1.5952751E-02;  0.0000000E+00; -1.5752336E-03;  1.5105702E+03;
  5.2155119E-01;  9.9999998E-03; -2.1999471E-01;5626;  5.7068020E-03;  0.0000000E+00;  5.8148446E-04;  9.9906274E+02;  1.0001040E-01; -7.7652124E+02;3;  6.0035145E-01;  0.0000000E+00;  4.1697756E-03;0;  1.3599472E-02;  3.9907863E+04;  0.0000000E+00; -1.4929869E-03;  4.0000000E+04;  0.0000000E+00;  4.0008816E+04;  1.5293779E-02;  0.0000000E+00; -1.6943071E-03;  1.2219069E+03;
  5.2153134E-01;  9.9999998E-03; -2.0999122E-01;5627;  5.4743318E-03;  0.0000000E+00;  5.8186834E-04;  9.9925568E+02;  1.0001054E-01; -6.1667389E+02;3;  5.6147885E-01;  0.0000000E+00;  9.3884924E-03;0;  1.2895092E-02;  3.9925070E+04;  0.0000000E+00;  2.7404172E-02;  4.0000000E+04;  0.0000000E+00;  4.0006891E+04;  1.4668091E-02;  0.0000000E+00; -1.7729991E-03;  9.3811798E+02;
  5.2151281E-01;  9.9999998E-03; -1.9998558E-01;5628;  5.2814600E-03;  0.0000000E+00;  5.7113904E-04;  9.9943158E+02;  1.0001054E-01; -4.7094965E+02;3;  5.2345890E-01;  0.0000000E+00;  1.2274484E-02;0;  1.2256588E-02;  3.9941418E+04;  0.0000000E+00;  4.4250391E-02;  4.0000000E+04;  0.0000000E+00;  4.0004527E+04;  1.4105530E-02;  0.0000000E+00; -1.8489416E-03;  6.3578003E+02;
  5.2149832E-01;  9.9999998E-03; -1.8998004E-01;5629;  5.1317774E-03;  0.0000000E+00;  5.4921699E-04;  9.9958545E+02;  1.0001057E-01; -3.4344708E+02;3;  4.9048814E-01;  0.0000000E+00;  1.1937270E-02;0;  1.1699734E-02;  3.9956059E+04;  0.0000000E+00;  4.7217820E-02;  4.0000000E+04;  0.0000000E+00;  4.0002402E+04;  1.3633595E-02;  0.0000000E+00; -1.9338604E-03;  3.3188144E+02;
  5.2148944E-01;  9.9999998E-03; -1.7997532E-01;5630;  5.0293691E-03;  0.0000000E+00;  5.1791256E-04;  9.9971265E+02;  1.0001040E-01; -2.3806734E+02;3;  4.7001606E-01;  0.0000000E+00;  1.1379828E-02;0;  1.1245834E-02;  3.9968586E+04;  0.0000000E+00;  3.6087152E-02;  4.0000000E+04;  0.0000000E+00;  4.0000355E+04;  1.3273709E-02;  0.0000000E+00; -2.0278748E-03;  7.3916237E+01;
  5.2148700E-01;  9.9999998E-03; -1.6997166E-01;5631;  4.9622101E-03;  0.0000000E+00;  4.8272376E-04;  9.9981531E+02;  1.0001042E-01; -1.5303271E+02;3;  4.4919118E-01;  0.0000000E+00;  6.1992044E-03;0;  1.0913668E-02;  3.9978348E+04;  0.0000000E+00;  1.2597691E-02;  4.0000000E+04;  0.0000000E+00;  3.9998734E+04;  1.3038836E-02;  0.0000000E+00; -2.1251682E-03;  1.6260880E+02;
  5.2149051E-01;  9.9999998E-03; -1.5996911E-01;5632;  4.9301824E-03;  0.0000000E+00;  4.4999772E-04;  9.9989227E+02;  1.0001034E-01; -8.9232040E+01;3;  4.4759744E-01;  0.0000000E+00;  2.6416755E-03;0;  1.0711942E-02;  3.9985355E+04;  0.0000000E+00; -1.9532135E-02;  4.0000000E+04;  0.0000000E+00;  3.9997223E+04;  1.2930776E-02;  0.0000000E+00; -2.2188339E-03;  3.0519000E+02;
  5.2149993E-01;  9.9999998E-03; -1.4996749E-01;5633;  4.9257893E-03;  0.0000000E+00;  4.2056086E-04;  9.9994287E+02;  1.0001054E-01; -4.7307304E+01;3;  4.4443709E-01;  0.0000000E+00;  1.3991042E-04;0;  1.0635986E-02;  3.9989918E+04;  0.0000000E+00; -5.5225715E-02;  4.0000000E+04;  0.0000000E+00;  3.9996531E+04;  1.2940913E-02;  0.0000000E+00; -2.3049267E-03;  3.8359576E+02;
  5.2151531E-01;  9.9999998E-03; -1.3996682E-01;5634;  4.9503772E-03;  0.0000000E+00;  3.9684205E-04;  9.9997253E+02;  1.0001052E-01; -2.2764788E+01;3;  4.5335612E-01;  0.0000000E+00;  2.4893865E-05;0;  1.0668559E-02;  3.9992047E+04;  0.0000000E+00; -8.9274362E-02;  4.0000000E+04;  0.0000000E+00;  3.9997094E+04;  1.3051604E-02;  0.0000000E+00; -2.3830452E-03;  4.0368417E+02;
  5.2153558E-01;  9.9999998E-03; -1.2996705E-01;5635;  5.0048134E-03;  0.0000000E+00;  3.7842587E-04;  9.9998761E+02;  1.0001041E-01; -1.0271315E+01;3;  4.7161952E-01;  0.0000000E+00;  3.5223521E-03;0;  1.0784695E-02;  3.9992684E+04;  0.0000000E+00; -1.1763066E-01;  4.0000000E+04;  0.0000000E+00;  3.9997613E+04;  1.3239839E-02;  0.0000000E+00; -2.4551442E-03;  3.7814035E+02;
  5.2155882E-01;  9.9999998E-03; -1.1996815E-01;5636;  5.0830063E-03;  0.0000000E+00;  3.6500729E-04;  9.9998975E+02;  1.0001054E-01; -8.4935865E+00;3;  4.9827573E-01;  0.0000000E+00;  8.0983918E-03;0;  1.0956585E-02;  3.9991980E+04;  0.0000000E+00; -1.3775256E-01;  4.0000000E+04;  0.0000000E+00;  3.9998305E+04;  1.3480602E-02;  0.0000000E+00; -2.5240160E-03;  3.2395172E+02;
  5.2158284E-01;  9.9999998E-03; -1.0997011E-01;5637;  5.1835068E-03;  0.0000000E+00;  3.5337798E-04;  9.9998169E+02;  1.0001040E-01; -1.5160065E+01;3;  5.3388578E-01;  0.0000000E+00;  1.4608520E-02;0;  1.1156926E-02;  3.9990828E+04;  0.0000000E+00; -1.4835894E-01;  4.0000000E+04;  0.0000000E+00;  3.9999023E+04;  1.3748643E-02;  0.0000000E+00; -2.5917168E-03;  2.6247211E+02;
  5.3156197E-01;  9.9999998E-03; -2.6998562E-01;5682;  7.0153349E-03;  0.0000000E+00;  6.5746374E-04;  9.9806079E+02;  1.0001741E-01; -1.6066212E+03;3;  7.6302248E-01;  0.0000000E+00;  1.4073528E-02;0;  1.7979650E-02;  3.9810488E+04;  0.0000000E+00; -2.0781472E-01;  4.0000000E+04;  0.0000000E+00;  4.0020461E+04;  1.9604901E-02;  0.0000000E+00; -1.6252513E-03;  2.7342212E+03;
  5.3157294E-01;  9.9999998E-03; -2.5998768E-01;5683;  6.8048281E-03;  0.0000000E+00;  6.3323410E-04;  9.9822150E+02;  1.0001738E-01; -1.4734398E+03;3;  7.4825746E-01;  0.0000000E+00;  6.6057900E-03;0;  1.7515318E-02;  3.9825574E+04;  0.0000000E+00; -1.9007149E-01;  4.0000000E+04;  0.0000000E+00;  4.0018766E+04;  1.9036509E-02;  0.0000000E+00; -1.5211906E-03;  2.5038962E+03;
  5.3157437E-01;  9.9999998E-03; -2.4998952E-01;5684;  6.5629459E-03;  0.0000000E+00;  6.2413613E-04;  9.9840118E+02;  1.0001735E-01; -1.3246045E+03;3;  7.2505277E-01;  0.0000000E+00;  1.9174764E-03;0;  1.6859664E-02;  3.9841707E+04;  0.0000000E+00; -1.4716884E-01;  4.0000000E+04;  0.0000000E+00;  4.0016926E+04;  1.8433401E-02;  0.0000000E+00; -1.5737383E-03;  2.2445066E+03;
  5.3156281E-01;  9.9999998E-03; -2.3999090E-01;5685;  6.2989295E-03;  0.0000000E+00;  6.2371994E-04;  9.9859894E+02;  1.0001748E-01; -1.1607573E+03;3;  6.9432884E-01;  0.0000000E+00;  2.9097577E-03;0;  1.6142903E-02;  3.9859129E+04;  0.0000000E+00; -9.3945928E-02;  4.0000000E+04;  0.0000000E+00;  4.0014727E+04;  1.7802279E-02;  0.0000000E+00; -1.6593760E-03;  1.9716787E+03;
  5.3154242E-01;  9.9999998E-03; -2.2999175E-01;5686;  6.0146833E-03;  0.0000000E+00;  6.4241869E-04;  9.9880273E+02;  1.0001731E-01; -9.9192255E+02;3;  6.5755802E-01;  0.0000000E+00;  8.5720569E-03;0;  1.5375772E-02;  3.9877504E+04;  0.0000000E+00; -4.1323140E-02;  4.0000000E+04;  0.0000000E+00;  4.0012402E+04;  1.7158268E-02;  0.0000000E+00; -1.7824960E-03;  1.6776367E+03;
  5.3152013E-01;  9.9999998E-03; -2.1999319E-01;5687;  5.7394705E-03;  0.0000000E+00;  6.6184584E-04;  9.9900488E+02;  1.0001730E-01; -8.2442114E+02;3;  6.1602819E-01;  0.0000000E+00;  1.5496579E-02;0;  1.4659747E-02;  3.9896473E+04;  0.0000000E+00;  4.3643322E-03;  4.0000000E+04;  0.0000000E+00;  4.0009941E+04;  1.6521707E-02;  0.0000000E+00; -1.8619610E-03;  1.3378560E+03;
  5.3149951E-01;  9.9999998E-03; -2.0999341E-01;5688;  5.5098035E-03;  0.0000000E+00;  6.5811916E-04;  9.9920502E+02;  1.0001735E-01; -6.5864801E+02;3;  5.7453591E-01;  0.0000000E+00;  1.9955482E-02;0;  1.4017515E-02;  3.9914609E+04;  0.0000000E+00;  3.9244223E-02;  4.0000000E+04;  0.0000000E+00;  4.0007137E+04;  1.5915988E-02;  0.0000000E+00; -1.8984735E-03;  1.0068470E+03;
  5.3148264E-01;  9.9999998E-03; -1.9999078E-01;5689;  5.3231707E-03;  0.0000000E+00;  6.3918333E-04;  9.9939331E+02;  1.0001750E-01; -5.0265244E+02;3;  5.4245180E-01;  0.0000000E+00;  2.2892058E-02;0;  1.3418304E-02;  3.9932184E+04;  0.0000000E+00;  6.0646042E-02;  4.0000000E+04;  0.0000000E+00;  4.0004984E+04;  1.5367901E-02;  0.0000000E+00; -1.9495973E-03;  6.9230121E+02;
  5.3147107E-01;  9.9999998E-03; -1.8998656E-01;5690;  5.1799347E-03;  0.0000000E+00;  6.0934544E-04;  9.9956085E+02;  1.0001754E-01; -3.6384155E+02;3;  5.1102942E-01;  0.0000000E+00;  2.1706121E-02;0;  1.2877015E-02;  3.9947504E+04;  0.0000000E+00;  6.7074880E-02;  4.0000000E+04;  0.0000000E+00;  4.0002547E+04;  1.4902723E-02;  0.0000000E+00; -2.0257081E-03;  3.8850055E+02;
  5.3146583E-01;  9.9999998E-03; -1.7998208E-01;5691;  5.0794305E-03;  0.0000000E+00;  5.7264708E-04;  9.9969940E+02;  1.0001744E-01; -2.4903000E+02;3;  4.8820055E-01;  0.0000000E+00;  1.9100819E-02;0;  1.2420161E-02;  3.9960664E+04;  0.0000000E+00;  5.8412202E-02;  4.0000000E+04;  0.0000000E+00;  4.0000738E+04;  1.4540648E-02;  0.0000000E+00; -2.1204872E-03;  1.2669790E+02;
  5.3146726E-01;  9.9999998E-03; -1.6997798E-01;5692;  5.0141001E-03;  0.0000000E+00;  5.3300377E-04;  9.9980902E+02;  1.0001736E-01; -1.5821774E+02;3;  4.7483397E-01;  0.0000000E+00;  1.4700372E-02;0;  1.2070913E-02;  3.9971164E+04;  0.0000000E+00;  3.6311191E-02;  4.0000000E+04;  0.0000000E+00;  3.9998672E+04;  1.4293783E-02;  0.0000000E+00; -2.2228700E-03;  1.4253801E+02;
  5.3147483E-01;  9.9999998E-03; -1.5997455E-01;5693;  4.9863714E-03;  0.0000000E+00;  4.9547566E-04;  9.9988623E+02;  1.0001750E-01; -9.4268936E+01;3;  4.6741053E-01;  0.0000000E+00;  1.1519874E-02;0;  1.1839789E-02;  3.9978504E+04;  0.0000000E+00;  4.3307641E-03;  4.0000000E+04;  0.0000000E+00;  3.9997262E+04;  1.4162999E-02;  0.0000000E+00; -2.3232091E-03;  2.9149585E+02;
  5.3148788E-01;  9.9999998E-03; -1.4997202E-01;5694;  4.9888282E-03;  0.0000000E+00;  4.6105572E-04;  9.9993854E+02;  1.0001726E-01; -5.0912140E+01;3;  4.6687061E-01;  0.0000000E+00;  6.0831504E-03;0;  1.1723071E-02;  3.9983094E+04;  0.0000000E+00; -3.2516267E-02;  4.0000000E+04;  0.0000000E+00;  3.9996723E+04;  1.4138886E-02;  0.0000000E+00; -2.4158142E-03;  3.7957397E+02;
  5.3150535E-01;  9.9999998E-03; -1.3997072E-01;5695;  5.0249025E-03;  0.0000000E+00;  4.3159656E-04;  9.9996552E+02;  1.0001726E-01; -2.8591784E+01;3;  4.7822118E-01;  0.0000000E+00;  5.6585521E-03;0;  1.1703491E-02;  3.9985281E+04;  0.0000000E+00; -6.8988942E-02;  4.0000000E+04;  0.0000000E+00;  3.9996965E+04;  1.4202784E-02;  0.0000000E+00; -2.4992928E-03;  4.0534836E+02;
  5.3152579E-01;  9.9999998E-03; -1.2997067E-01;5696;  5.0906576E-03;  0.0000000E+00;  4.0820811E-04;  9.9997485E+02;  1.0001732E-01; -2.0838917E+01;3;  5.0085741E-01;  0.0000000E+00;  7.4246237E-03;0;  1.1756159E-02;  3.9985520E+04;  0.0000000E+00; -1.0091743E-01;  4.0000000E+04;  0.0000000E+00;  3.9997125E+04;  1.4331448E-02;  0.0000000E+00; -2.5752890E-03;  3.8065482E+02;
  5.3154749E-01;  9.9999998E-03; -1.1997171E-01;5697;  5.1889108E-03;  0.0000000E+00;  3.9002951E-04;  9.9997278E+02;  1.0001743E-01; -2.2567263E+01;3;  5.3339094E-01;  0.0000000E+00;  1.1626576E-02;0;  1.1853242E-02;  3.9984723E+04;  0.0000000E+00; -1.2544918E-01;  4.0000000E+04;  0.0000000E+00;  3.9997867E+04;  1.4499952E-02;  0.0000000E+00; -2.6467098E-03;  3.2388260E+02;
  5.3156847E-01;  9.9999998E-03; -1.0997383E-01;5698;  5.3107096E-03;  0.0000000E+00;  3.7437864E-04;  9.9996228E+02;  1.0001746E-01; -3.1258375E+01;3;  5.7833999E-01;  0.0000000E+00;  1.6449774E-02;0;  1.1969152E-02;  3.9983066E+04;  0.0000000E+00; -1.4080806E-01;  4.0000000E+04;  0.0000000E+00;  3.9998543E+04;  1.4685073E-02;  0.0000000E+00; -2.7159210E-03;  2.5904150E+02;
  5.4156739E-01;  9.9999998E-03; -2.6998404E-01;5743;  7.0058303E-03;  0.0000000E+00;  7.2964886E-04;  9.9798779E+02;  1.0002949E-01; -1.6670640E+03;3;  7.6676893E-01;  0.0000000E+00;  1.9580368E-02;0;  1.8792871E-02;  3.9794121E+04;  0.0000000E+00; -2.3895970E-01;  4.0000000E+04;  0.0000000E+00;  4.0021465E+04;  2.1031046E-02;  0.0000000E+00; -2.2381758E-03;  2.8733374E+03;
  5.4157746E-01;  9.9999998E-03; -2.5998595E-01;5744;  6.8121525E-03;  0.0000000E+00;  7.0331001E-04;  9.9816510E+02;  1.0002950E-01; -1.5202040E+03;3;  7.5356382E-01;  0.0000000E+00;  1.4983591E-02;0;  1.8433794E-02;  3.9809875E+04;  0.0000000E+00; -2.2335185E-01;  4.0000000E+04;  0.0000000E+00;  4.0019223E+04;  2.0428587E-02;  0.0000000E+00; -1.9947928E-03;  2.6249363E+03;
  5.4157549E-01;  9.9999998E-03; -2.4998784E-01;5745;  6.5906337E-03;  0.0000000E+00;  6.9142168E-04;  9.9836047E+02;  1.0002951E-01; -1.3583319E+03;3;  7.3690659E-01;  0.0000000E+00;  1.0906652E-02;0;  1.7876897E-02;  3.9827387E+04;  0.0000000E+00; -1.7398834E-01;  4.0000000E+04;  0.0000000E+00;  4.0017406E+04;  1.9797925E-02;  0.0000000E+00; -1.9210280E-03;  2.3486648E+03;
  5.4155630E-01;  9.9999998E-03; -2.3998970E-01;5746;  6.3400897E-03;  0.0000000E+00;  6.9371372E-04;  9.9856995E+02;  1.0002956E-01; -1.1847566E+03;3;  7.1089554E-01;  0.0000000E+00;  1.0439609E-02;0;  1.7213359E-02;  3.9846254E+04;  0.0000000E+00; -1.1192822E-01;  4.0000000E+04;  0.0000000E+00;  4.0015203E+04;  1.9147227E-02;  0.0000000E+00; -1.9338675E-03;  2.0555781E+03;
  5.4152703E-01;  9.9999998E-03; -2.2999206E-01;5747;  6.0635759E-03;  0.0000000E+00;  7.1265013E-04;  9.9878577E+02;  1.0002951E-01; -1.0059468E+03;3;  6.7307621E-01;  0.0000000E+00;  1.5915552E-02;0;  1.6503753E-02;  3.9865672E+04;  0.0000000E+00; -5.1739004E-02;  4.0000000E+04;  0.0000000E+00;  4.0012516E+04;  1.8490935E-02;  0.0000000E+00; -1.9871814E-03;  1.7314388E+03;
  5.4149616E-01;  9.9999998E-03; -2.1999718E-01;5748;  5.7917447E-03;  0.0000000E+00;  7.3187129E-04;  9.9899707E+02;  1.0002942E-01; -8.3089008E+02;3;  6.3253111E-01;  0.0000000E+00;  2.2594959E-02;0;  1.5830813E-02;  3.9885430E+04;  0.0000000E+00; -1.7699882E-04;  4.0000000E+04;  0.0000000E+00;  4.0009605E+04;  1.7845975E-02;  0.0000000E+00; -2.0151630E-03;  1.3523544E+03;
  5.4147023E-01;  9.9999998E-03; -2.1000254E-01;5749;  5.5681611E-03;  0.0000000E+00;  7.2096428E-04;  9.9920929E+02;  1.0002949E-01; -6.5509259E+02;3;  5.9587669E-01;  0.0000000E+00;  2.7325951E-02;0;  1.5221667E-02;  3.9904820E+04;  0.0000000E+00;  3.9338060E-02;  4.0000000E+04;  0.0000000E+00;  4.0006984E+04;  1.7231017E-02;  0.0000000E+00; -2.0093501E-03;  1.0090739E+03;
  5.4145110E-01;  9.9999998E-03; -2.0000324E-01;5750;  5.3882152E-03;  0.0000000E+00;  6.9488102E-04;  9.9941144E+02;  1.0002949E-01; -4.8759116E+02;3;  5.6261206E-01;  0.0000000E+00;  2.8143317E-02;0;  1.4630800E-02;  3.9922973E+04;  0.0000000E+00;  6.4818755E-02;  4.0000000E+04;  0.0000000E+00;  4.0005094E+04;  1.6669776E-02;  0.0000000E+00; -2.0389759E-03;  7.2208466E+02;
  5.4144001E-01;  9.9999998E-03; -1.9000033E-01;5751;  5.2469317E-03;  0.0000000E+00;  6.6160603E-04;  9.9958966E+02;  1.0002939E-01; -3.3994101E+02;3;  5.3326070E-01;  0.0000000E+00;  2.8411105E-02;0;  1.4077403E-02;  3.9939379E+04;  0.0000000E+00;  7.5395219E-02;  4.0000000E+04;  0.0000000E+00;  4.0003102E+04;  1.6185712E-02;  0.0000000E+00; -2.1083090E-03;  4.4440726E+02;
  5.4143745E-01;  9.9999998E-03; -1.7999600E-01;5752;  5.1488280E-03;  0.0000000E+00;  6.2052184E-04;  9.9973889E+02;  1.0002954E-01; -2.1633955E+02;3;  5.1344168E-01;  0.0000000E+00;  2.4624743E-02;0;  1.3593696E-02;  3.9953109E+04;  0.0000000E+00;  7.1383350E-02;  4.0000000E+04;  0.0000000E+00;  4.0000930E+04;  1.5797034E-02;  0.0000000E+00; -2.2033374E-03;  1.8722620E+02;
  5.4144287E-01;  9.9999998E-03; -1.6999142E-01;5753;  5.0884993E-03;  0.0000000E+00;  5.7696842E-04;  9.9985217E+02;  1.0002955E-01; -1.2246568E+02;3;  5.0052005E-01;  0.0000000E+00;  1.9225413E-02;0;  1.3204273E-02;  3.9964055E+04;  0.0000000E+00;  5.4497741E-02;  4.0000000E+04;  0.0000000E+00;  3.9998801E+04;  1.5514756E-02;  0.0000000E+00; -2.3104823E-03;  1.0989433E+02;
  5.4145461E-01;  9.9999998E-03; -1.5998730E-01;5754;  5.0672246E-03;  0.0000000E+00;  5.3598924E-04;  9.9993451E+02;  1.0002933E-01; -5.4270069E+01;3;  4.9495807E-01;  0.0000000E+00;  1.5274971E-02;0;  1.2921021E-02;  3.9971770E+04;  0.0000000E+00;  2.7923862E-02;  4.0000000E+04;  0.0000000E+00;  3.9997547E+04;  1.5338679E-02;  0.0000000E+00; -2.4176575E-03;  2.5651828E+02;
  5.4147124E-01;  9.9999998E-03; -1.4998406E-01;5755;  5.0816676E-03;  0.0000000E+00;  4.9511879E-04;  9.9998572E+02;  1.0002962E-01; -1.1851517E+01;3;  4.9862498E-01;  0.0000000E+00;  9.9342549E-03;0;  1.2740850E-02;  3.9976543E+04;  0.0000000E+00; -4.0081590E-03;  4.0000000E+04;  0.0000000E+00;  3.9996910E+04;  1.5258285E-02;  0.0000000E+00; -2.5174352E-03;  3.5747348E+02;
  5.4149073E-01;  9.9999998E-03; -1.3998222E-01;5756;  5.1306239E-03;  0.0000000E+00;  4.6115066E-04;  1.0000151E+03;  1.0002943E-01;  1.2542855E+01;3;  5.1299560E-01;  0.0000000E+00;  7.6640900E-03;0;  1.2646893E-02;  3.9978785E+04;  0.0000000E+00; -3.6833107E-02;  4.0000000E+04;  0.0000000E+00;  3.9996895E+04;  1.5254230E-02;  0.0000000E+00; -2.6073372E-03;  3.9411118E+02;
  5.4151142E-01;  9.9999998E-03; -1.2998189E-01;5757;  5.2170935E-03;  0.0000000E+00;  4.3172514E-04;  1.0000154E+03;  1.0002955E-01;  1.2839143E+01;3;  5.4082692E-01;  0.0000000E+00;  8.2788942E-03;0;  1.2613712E-02;  3.9978672E+04;  0.0000000E+00; -6.6995993E-02;  4.0000000E+04;  0.0000000E+00;  3.9997051E+04;  1.5302195E-02;  0.0000000E+00; -2.6884838E-03;  3.7516705E+02;
  5.4153138E-01;  9.9999998E-03; -1.1998285E-01;5758;  5.3342441E-03;  0.0000000E+00;  4.0768218E-04;  1.0000043E+03;  1.0002952E-01;  3.5554550E+00;3;  5.8294290E-01;  0.0000000E+00;  9.3988860E-03;0;  1.2614295E-02;  3.9977344E+04;  0.0000000E+00; -9.1881767E-02;  4.0000000E+04;  0.0000000E+00;  3.9997457E+04;  1.5377911E-02;  0.0000000E+00; -2.7636157E-03;  3.1792560E+02;
  5.4154903E-01;  9.9999998E-03; -1.0998489E-01;5759;  5.4781637E-03;  0.0000000E+00;  3.8643085E-04;  9.9998511E+02;  1.0002936E-01; -1.2345330E+01;3;  6.3586861E-01;  0.0000000E+00;  1.4570587E-02;0;  1.2624125E-02;  3.9974562E+04;  0.0000000E+00; -1.0956705E-01;  4.0000000E+04;  0.0000000E+00;  3.9998188E+04;  1.5459290E-02;  0.0000000E+00; -2.8351650E-03;  2.4544232E+02;
  5.5161613E-01;  9.9999998E-03; -2.6998338E-01;5804;  7.0169154E-03;  0.0000000E+00;  7.9059467E-04;  9.9800397E+02;  1.0004872E-01; -1.6536816E+03;3;  7.7261627E-01;  0.0000000E+00;  2.6995156E-02;0;  1.9904990E-02;  3.9779551E+04;  0.0000000E+00; -2.7485901E-01;  4.0000000E+04;  0.0000000E+00;  4.0020902E+04;  2.2642087E-02;  0.0000000E+00; -2.7370965E-03;  2.8730154E+03;
  5.5162299E-01;  9.9999998E-03; -2.5998530E-01;5805;  6.8388404E-03;  0.0000000E+00;  7.6484261E-04;  9.9819189E+02;  1.0004855E-01; -1.4979823E+03;3;  7.6127625E-01;  0.0000000E+00;  2.4031157E-02;0;  1.9568507E-02;  3.9796316E+04;  0.0000000E+00; -2.6072547E-01;  4.0000000E+04;  0.0000000E+00;  4.0018895E+04;  2.1975901E-02;  0.0000000E+00; -2.4073934E-03;  2.6067629E+03;
  5.5161428E-01;  9.9999998E-03; -2.4998756E-01;5806;  6.6355965E-03;  0.0000000E+00;  7.5171288E-04;  9.9839673E+02;  1.0004877E-01; -1.3282588E+03;3;  7.4772042E-01;  0.0000000E+00;  1.8498905E-02;0;  1.9049538E-02;  3.9814949E+04;  0.0000000E+00; -2.0437831E-01;  4.0000000E+04;  0.0000000E+00;  4.0016648E+04;  2.1285603E-02;  0.0000000E+00; -2.2360652E-03;  2.3107539E+03;
  5.5158311E-01;  9.9999998E-03; -2.3999074E-01;5807;  6.3993391E-03;  0.0000000E+00;  7.5494783E-04;  9.9861639E+02;  1.0004855E-01; -1.1462886E+03;3;  7.2451872E-01;  0.0000000E+00;  1.6287146E-02;0;  1.8403789E-02;  3.9834547E+04;  0.0000000E+00; -1.3390692E-01;  4.0000000E+04;  0.0000000E+00;  4.0014477E+04;  2.0582758E-02;  0.0000000E+00; -2.1789689E-03;  1.9872979E+03;
  5.5153924E-01;  9.9999998E-03; -2.2999595E-01;5808;  6.1407997E-03;  0.0000000E+00;  7.6792226E-04;  9.9884290E+02;  1.0004845E-01; -9.5863953E+02;3;  6.9175661E-01;  0.0000000E+00;  2.0788597E-02;0;  1.7728077E-02;  3.9854809E+04;  0.0000000E+00; -6.7826189E-02;  4.0000000E+04;  0.0000000E+00;  4.0011750E+04;  1.9881565E-02;  0.0000000E+00; -2.1534883E-03;  1.6362308E+03;
  5.5149567E-01;  9.9999998E-03; -2.2000575E-01;5809;  5.8841198E-03;  0.0000000E+00;  7.7825307E-04;  9.9906366E+02;  1.0004871E-01; -7.7573114E+02;3;  6.5601289E-01;  0.0000000E+00;  2.5908878E-02;0;  1.7071679E-02;  3.9875246E+04;  0.0000000E+00; -1.2607184E-02;  4.0000000E+04;  0.0000000E+00;  4.0008988E+04;  1.9197326E-02;  0.0000000E+00; -2.1256469E-03;  1.2492410E+03;
  5.5146027E-01;  9.9999998E-03; -2.1001619E-01;5810;  5.6689824E-03;  0.0000000E+00;  7.6081156E-04;  9.9928552E+02;  1.0004860E-01; -5.9193390E+02;3;  6.2206572E-01;  0.0000000E+00;  2.8129971E-02;0;  1.6452987E-02;  3.9895168E+04;  0.0000000E+00;  2.9712010E-02;  4.0000000E+04;  0.0000000E+00;  4.0006664E+04;  1.8544937E-02;  0.0000000E+00; -2.0919496E-03;  9.4099103E+02;
  5.5143487E-01;  9.9999998E-03; -2.0001982E-01;5811;  5.4912884E-03;  0.0000000E+00;  7.3223136E-04;  9.9949792E+02;  1.0004871E-01; -4.1593884E+02;3;  5.9333426E-01;  0.0000000E+00;  2.9013293E-02;0;  1.5834896E-02;  3.9913887E+04;  0.0000000E+00;  5.8105003E-02;  4.0000000E+04;  0.0000000E+00;  4.0004910E+04;  1.7945511E-02;  0.0000000E+00; -2.1106161E-03;  7.1801978E+02;
  5.5142087E-01;  9.9999998E-03; -1.9001760E-01;5812;  5.3518908E-03;  0.0000000E+00;  6.9814373E-04;  9.9968970E+02;  1.0004846E-01; -2.5707916E+02;3;  5.6603199E-01;  0.0000000E+00;  2.8334735E-02;0;  1.5243054E-02;  3.9930883E+04;  0.0000000E+00;  7.2685465E-02;  4.0000000E+04;  0.0000000E+00;  4.0003359E+04;  1.7419919E-02;  0.0000000E+00; -2.1768652E-03;  4.9038467E+02;
  5.5141813E-01;  9.9999998E-03; -1.8001293E-01;5813;  5.2555404E-03;  0.0000000E+00;  6.5583031E-04;  9.9984106E+02;  1.0004858E-01; -1.3165060E+02;3;  5.4519910E-01;  0.0000000E+00;  2.5928782E-02;0;  1.4710964E-02;  3.9944992E+04;  0.0000000E+00;  7.4595653E-02;  4.0000000E+04;  0.0000000E+00;  4.0001469E+04;  1.6984515E-02;  0.0000000E+00; -2.2735510E-03;  2.5142723E+02;
  5.5142522E-01;  9.9999998E-03; -1.7000766E-01;5814;  5.2052583E-03;  0.0000000E+00;  6.0937519E-04;  9.9996155E+02;  1.0004850E-01; -3.1850950E+01;3;  5.3723752E-01;  0.0000000E+00;  2.0637000E-02;0;  1.4262132E-02;  3.9956125E+04;  0.0000000E+00;  6.5909103E-02;  4.0000000E+04;  0.0000000E+00;  3.9999207E+04;  1.6647937E-02;  0.0000000E+00; -2.3858049E-03;  9.2817436E+01;
  5.5143970E-01;  9.9999998E-03; -1.6000274E-01;5815;  5.1935315E-03;  0.0000000E+00;  5.6463358E-04;  1.0000447E+03;  1.0004857E-01;  3.7035988E+01;3;  5.3501427E-01;  0.0000000E+00;  1.4695649E-02;0;  1.3909619E-02;  3.9964297E+04;  0.0000000E+00;  4.9404044E-02;  4.0000000E+04;  0.0000000E+00;  3.9997961E+04;  1.6409820E-02;  0.0000000E+00; -2.5002002E-03;  2.0834978E+02;
  5.5145866E-01;  9.9999998E-03; -1.4999884E-01;5816;  5.2232440E-03;  0.0000000E+00;  5.2081136E-04;  1.0000946E+03;  1.0004828E-01;  7.8417534E+01;3;  5.4320210E-01;  0.0000000E+00;  9.4483029E-03;0;  1.3650218E-02;  3.9969117E+04;  0.0000000E+00;  2.8232351E-02;  4.0000000E+04;  0.0000000E+00;  3.9997301E+04;  1.6258098E-02;  0.0000000E+00; -2.6078797E-03;  3.2303214E+02;
  5.5147976E-01;  9.9999998E-03; -1.3999648E-01;5817;  5.2968613E-03;  0.0000000E+00;  4.8034309E-04;  1.0001181E+03;  1.0004857E-01;  9.7873772E+01;3;  5.6714106E-01;  0.0000000E+00;  4.9171331E-03;0;  1.3467035E-02;  3.9970938E+04;  0.0000000E+00;  5.2924422E-03;  4.0000000E+04;  0.0000000E+00;  3.9996926E+04;  1.6172364E-02;  0.0000000E+00; -2.7053291E-03;  3.7524921E+02;
  5.5150104E-01;  9.9999998E-03; -1.2999578E-01;5818;  5.4058712E-03;  0.0000000E+00;  4.4746717E-04;  1.0001044E+03;  1.0004845E-01;  8.6516075E+01;3;  6.0475922E-01;  0.0000000E+00;  4.0282826E-03;0;  1.3336035E-02;  3.9970363E+04;  0.0000000E+00; -1.7243655E-02;  4.0000000E+04;  0.0000000E+00;  3.9996820E+04;  1.6129015E-02;  0.0000000E+00; -2.7929794E-03;  3.6811899E+02;
  5.5152023E-01;  9.9999998E-03; -1.1999653E-01;5819;  5.5515319E-03;  0.0000000E+00;  4.1741747E-04;  1.0000839E+03;  1.0004851E-01;  6.9430138E+01;3;  6.5781194E-01;  0.0000000E+00;  6.2775416E-03;0;  1.3229931E-02;  3.9967844E+04;  0.0000000E+00; -3.7680872E-02;  4.0000000E+04;  0.0000000E+00;  3.9996770E+04;  1.6103124E-02;  0.0000000E+00; -2.8731935E-03;  3.1623965E+02;
  5.5153614E-01;  9.9999998E-03; -1.0999828E-01;5820;  5.7133920E-03;  0.0000000E+00;  3.8820013E-04;  1.0000558E+03;  1.0004858E-01;  4.6220917E+01;3;  7.2370458E-01;  0.0000000E+00;  9.3046334E-03;0;  1.3127656E-02;  3.9964406E+04;  0.0000000E+00; -5.4452658E-02;  4.0000000E+04;  0.0000000E+00;  3.9997973E+04;  1.6075913E-02;  0.0000000E+00; -2.9482571E-03;  2.3861307E+02;
  5.6172019E-01;  9.9999998E-03; -2.6998386E-01;5865;  7.0968606E-03;  0.0000000E+00;  8.2759105E-04;  9.9811682E+02;  1.0007987E-01; -1.5601534E+03;3;  7.7925324E-01;  0.0000000E+00;  3.1436041E-02;0;  2.1324564E-02;  3.9764984E+04;  0.0000000E+00; -3.6405721E-01;  4.0000000E+04;  0.0000000E+00;  4.0019441E+04;  2.4295041E-02;  0.0000000E+00; -2.9704783E-03;  2.7257817E+03;
  5.6172389E-01;  9.9999998E-03; -2.5998572E-01;5866;  6.9225887E-03;  0.0000000E+00;  8.0358377E-04;  9.9830896E+02;  1.0007985E-01; -1.4009974E+03;3;  7.7233738E-01;  0.0000000E+00;  2.9123830E-02;0;  2.0922853E-02;  3.9782160E+04;  0.0000000E+00; -3.2789502E-01;  4.0000000E+04;  0.0000000E+00;  4.0017156E+04;  2.3548726E-02;  0.0000000E+00; -2.6258740E-03;  2.4390933E+03;
  5.6170160E-01;  9.9999998E-03; -2.4998862E-01;5867;  6.7290617E-03;  0.0000000E+00;  7.9126412E-04;  9.9851971E+02;  1.0007981E-01; -1.2263850E+03;3;  7.6267636E-01;  0.0000000E+00;  2.3618000E-02;0;  2.0353751E-02;  3.9801371E+04;  0.0000000E+00; -2.4649279E-01;  4.0000000E+04;  0.0000000E+00;  4.0015066E+04;  2.2777205E-02;  0.0000000E+00; -2.4234538E-03;  2.1116194E+03;
  5.6165403E-01;  9.9999998E-03; -2.3999371E-01;5868;  6.5070293E-03;  0.0000000E+00;  7.9456030E-04;  9.9874225E+02;  1.0007977E-01; -1.0420446E+03;3;  7.4454319E-01;  0.0000000E+00;  2.0438667E-02;0;  1.9666828E-02;  3.9821520E+04;  0.0000000E+00; -1.5999562E-01;  4.0000000E+04;  0.0000000E+00;  4.0012219E+04;  2.1998052E-02;  0.0000000E+00; -2.3312240E-03;  1.7529197E+03;
  5.6159490E-01;  9.9999998E-03; -2.3000230E-01;5869;  6.2748375E-03;  0.0000000E+00;  7.9566112E-04;  9.9896973E+02;  1.0007978E-01; -8.5355609E+02;3;  7.1996278E-01;  0.0000000E+00;  2.0524751E-02;0;  1.8986793E-02;  3.9842016E+04;  0.0000000E+00; -8.6662717E-02;  4.0000000E+04;  0.0000000E+00;  4.0009410E+04;  2.1225987E-02;  0.0000000E+00; -2.2391931E-03;  1.3905868E+03;
  5.6153738E-01;  9.9999998E-03; -2.2001635E-01;5870;  6.0458994E-03;  0.0000000E+00;  7.8910316E-04;  9.9920062E+02;  1.0008001E-01; -6.6225287E+02;3;  6.9136542E-01;  0.0000000E+00;  2.1779878E-02;0;  1.8309439E-02;  3.9862727E+04;  0.0000000E+00; -2.8916290E-02;  4.0000000E+04;  0.0000000E+00;  4.0006941E+04;  2.0476695E-02;  0.0000000E+00; -2.1672563E-03;  1.0417445E+03;
  5.6148922E-01;  9.9999998E-03; -2.1003057E-01;5871;  5.8436557E-03;  0.0000000E+00;  7.6552876E-04;  9.9943591E+02;  1.0007975E-01; -4.6734482E+02;3;  6.6130489E-01;  0.0000000E+00;  2.2856256E-02;0;  1.7634630E-02;  3.9882715E+04;  0.0000000E+00;  1.4316656E-02;  4.0000000E+04;  0.0000000E+00;  4.0005324E+04;  1.9764468E-02;  0.0000000E+00; -2.1298386E-03;  8.1337646E+02;
  5.6145346E-01;  9.9999998E-03; -2.0003588E-01;5872;  5.6653824E-03;  0.0000000E+00;  7.3892082E-04;  9.9965796E+02;  1.0007975E-01; -2.8335001E+02;3;  6.3255942E-01;  0.0000000E+00;  2.4223521E-02;0;  1.6953466E-02;  3.9901285E+04;  0.0000000E+00;  4.3898635E-02;  4.0000000E+04;  0.0000000E+00;  4.0004555E+04;  1.9108821E-02;  0.0000000E+00; -2.1553542E-03;  6.8166064E+02;
  5.6143153E-01;  9.9999998E-03; -1.9003353E-01;5873;  5.5218986E-03;  0.0000000E+00;  7.0879329E-04;  9.9985205E+02;  1.0007992E-01; -1.2256444E+02;3;  6.0810912E-01;  0.0000000E+00;  2.3035100E-02;0;  1.6299495E-02;  3.9917875E+04;  0.0000000E+00;  6.1489381E-02;  4.0000000E+04;  0.0000000E+00;  4.0003715E+04;  1.8527240E-02;  0.0000000E+00; -2.2277441E-03;  5.2010999E+02;
  5.6142318E-01;  9.9999998E-03; -1.8002792E-01;5874;  5.4263524E-03;  0.0000000E+00;  6.7056192E-04;  1.0000098E+03;  1.0007997E-01;  8.0985365E+00;3;  5.9162807E-01;  0.0000000E+00;  1.9868128E-02;0;  1.5702652E-02;  3.9932105E+04;  0.0000000E+00;  6.9461867E-02;  4.0000000E+04;  0.0000000E+00;  4.0001758E+04;  1.8032983E-02;  0.0000000E+00; -2.3303314E-03;  3.1167398E+02;
  5.6142735E-01;  9.9999998E-03; -1.7002152E-01;5875;  5.3866943E-03;  0.0000000E+00;  6.2496745E-04;  1.0001254E+03;  1.0007987E-01;  1.0389829E+02;3;  5.8422375E-01;  0.0000000E+00;  1.5629219E-02;0;  1.5182870E-02;  3.9943145E+04;  0.0000000E+00;  7.0554718E-02;  4.0000000E+04;  0.0000000E+00;  3.9999828E+04;  1.7632080E-02;  0.0000000E+00; -2.4492107E-03;  1.1994260E+02;
  5.6144118E-01;  9.9999998E-03; -1.6001542E-01;5876;  5.3950879E-03;  0.0000000E+00;  5.7480508E-04;  1.0002080E+03;  1.0007964E-01;  1.7234081E+02;3;  5.9091550E-01;  0.0000000E+00;  8.2870526E-03;0;  1.4751898E-02;  3.9950918E+04;  0.0000000E+00;  6.7197070E-02;  4.0000000E+04;  0.0000000E+00;  3.9998715E+04;  1.7323326E-02;  0.0000000E+00; -2.5714287E-03;  1.5998917E+02;
  5.6146181E-01;  9.9999998E-03; -1.5001042E-01;5877;  5.4525500E-03;  0.0000000E+00;  5.3029833E-04;  1.0002509E+03;  1.0007985E-01;  2.0779659E+02;3;  6.1180121E-01;  0.0000000E+00;  2.0427431E-03;0;  1.4406553E-02;  3.9955730E+04;  0.0000000E+00;  6.1094116E-02;  4.0000000E+04;  0.0000000E+00;  3.9997484E+04;  1.7094225E-02;  0.0000000E+00; -2.6876724E-03;  2.8491431E+02;
  5.6148541E-01;  9.9999998E-03; -1.4000721E-01;5878;  5.5575310E-03;  0.0000000E+00;  4.8888830E-04;  1.0002665E+03;  1.0007970E-01;  2.2083327E+02;3;  6.4761531E-01;  0.0000000E+00; -1.6963002E-03;0;  1.4131157E-02;  3.9957266E+04;  0.0000000E+00;  5.3093459E-02;  4.0000000E+04;  0.0000000E+00;  3.9996426E+04;  1.6924718E-02;  0.0000000E+00; -2.7935612E-03;  3.5634726E+02;
  5.6150877E-01;  9.9999998E-03; -1.3000599E-01;5879;  5.7013980E-03;  0.0000000E+00;  4.5123638E-04;  1.0002541E+03;  1.0007964E-01;  2.1046318E+02;3;  7.0050472E-01;  0.0000000E+00; -2.6334077E-03;0;  1.3902731E-02;  3.9956102E+04;  0.0000000E+00;  4.3378823E-02;  4.0000000E+04;  0.0000000E+00;  3.9996852E+04;  1.6791621E-02;  0.0000000E+00; -2.8888900E-03;  3.6868768E+02;
  5.6152934E-01;  9.9999998E-03; -1.2000629E-01;5880;  5.8575147E-03;  0.0000000E+00;  4.1708254E-04;  1.0002163E+03;  1.0007966E-01;  1.7925420E+02;3;  7.6060176E-01;  0.0000000E+00; -2.8600547E-04;0;  1.3699507E-02;  3.9953078E+04;  0.0000000E+00;  3.2032795E-02;  4.0000000E+04;  0.0000000E+00;  3.9996934E+04;  1.6674977E-02;  0.0000000E+00; -2.9754695E-03;  3.3290863E+02;
  5.6154585E-01;  9.9999998E-03; -1.1000744E-01;5881;  6.0115797E-03;  0.0000000E+00;  3.8217814E-04;  1.0001662E+03;  1.0007960E-01;  1.3767513E+02;3;  8.2268924E-01;  0.0000000E+00;  9.2029962E-04;0;  1.3501404E-02;  3.9948473E+04;  0.0000000E+00;  1.9708863E-02;  4.0000000E+04;  0.0000000E+00;  3.9997148E+04;  1.6556688E-02;  0.0000000E+00; -3.0552838E-03;  2.6469556E+02;
  5.7188267E-01;  9.9999998E-03; -2.6998553E-01;5926;  7.3110582E-03;  0.0000000E+00;  8.3460001E-04;  9.9831494E+02;  1.0013127E-01; -1.3960593E+03;3;  8.0087078E-01;  0.0000000E+00;  3.6610134E-02;0;  2.2940185E-02;  3.9742465E+04;  0.0000000E+00; -5.7305819E-01;  4.0000000E+04;  0.0000000E+00;  4.0016887E+04;  2.5797674E-02;  0.0000000E+00; -2.8574897E-03;  2.4855747E+03;
  5.7187533E-01;  9.9999998E-03; -2.5998721E-01;5927;  7.1174852E-03;  0.0000000E+00;  8.0829859E-04;  9.9850494E+02;  1.0013119E-01; -1.2386316E+03;3;  7.9383248E-01;  0.0000000E+00;  3.1640422E-02;0;  2.2436317E-02;  3.9759793E+04;  0.0000000E+00; -4.5378664E-01;  4.0000000E+04;  0.0000000E+00;  4.0014645E+04;  2.4976715E-02;  0.0000000E+00; -2.5403982E-03;  2.1536367E+03;
  5.7183623E-01;  9.9999998E-03; -2.4999064E-01;5928;  6.9169388E-03;  0.0000000E+00;  7.9568778E-04;  9.9871301E+02;  1.0013124E-01; -1.0662415E+03;3;  7.9171121E-01;  0.0000000E+00;  2.4456225E-02;0;  2.1741979E-02;  3.9778594E+04;  0.0000000E+00; -3.1243941E-01;  4.0000000E+04;  0.0000000E+00;  4.0011824E+04;  2.4123307E-02;  0.0000000E+00; -2.3813290E-03;  1.7796216E+03;
  5.7177466E-01;  9.9999998E-03; -2.3999763E-01;5929;  6.7042457E-03;  0.0000000E+00;  7.9333317E-04;  9.9893494E+02;  1.0013139E-01; -8.8239478E+02;3;  7.8177375E-01;  0.0000000E+00;  1.8271748E-02;0;  2.0964177E-02;  3.9798508E+04;  0.0000000E+00; -1.9395024E-01;  4.0000000E+04;  0.0000000E+00;  4.0008980E+04;  2.3260707E-02;  0.0000000E+00; -2.2965299E-03;  1.3821194E+03;
  5.7170326E-01;  9.9999998E-03; -2.3000893E-01;5930;  6.5098205E-03;  0.0000000E+00;  7.7418168E-04;  9.9915979E+02;  1.0013141E-01; -6.9607910E+02;3;  7.6629418E-01;  0.0000000E+00;  1.5138652E-02;0;  2.0229654E-02;  3.9818695E+04;  0.0000000E+00; -1.0690221E-01;  4.0000000E+04;  0.0000000E+00;  4.0006523E+04;  2.2402894E-02;  0.0000000E+00; -2.1732398E-03;  1.0389724E+03;
  5.7163101E-01;  9.9999998E-03; -2.2002456E-01;5931;  6.3219620E-03;  0.0000000E+00;  7.4590743E-04;  9.9939276E+02;  1.0013144E-01; -5.0309689E+02;3;  7.4191713E-01;  0.0000000E+00;  1.1661214E-02;0;  1.9470524E-02;  3.9838855E+04;  0.0000000E+00; -4.5367781E-02;  4.0000000E+04;  0.0000000E+00;  4.0004703E+04;  2.1571504E-02;  0.0000000E+00; -2.1009806E-03;  7.8890131E+02;
  5.7156760E-01;  9.9999998E-03; -2.1003948E-01;5932;  6.1372682E-03;  0.0000000E+00;  7.1889727E-04;  9.9962952E+02;  1.0013153E-01; -3.0695428E+02;3;  7.1846133E-01;  0.0000000E+00;  1.0248451E-02;0;  1.8683240E-02;  3.9858492E+04;  0.0000000E+00; -2.5706489E-03;  4.0000000E+04;  0.0000000E+00;  4.0003750E+04;  2.0786526E-02;  0.0000000E+00; -2.1032863E-03;  6.7196161E+02;
  5.7151747E-01;  9.9999998E-03; -2.0004475E-01;5933;  5.9554251E-03;  0.0000000E+00;  6.9975312E-04;  9.9985699E+02;  1.0013146E-01; -1.1846578E+02;3;  6.9416064E-01;  0.0000000E+00;  1.0244448E-02;0;  1.7902713E-02;  3.9876805E+04;  0.0000000E+00;  2.6193405E-02;  4.0000000E+04;  0.0000000E+00;  4.0004160E+04;  2.0067209E-02;  0.0000000E+00; -2.1644963E-03;  6.3302747E+02;
  5.7148284E-01;  9.9999998E-03; -1.9004162E-01;5934;  5.8018616E-03;  0.0000000E+00;  6.8227475E-04;  1.0000543E+03;  1.0013139E-01;  4.4937000E+01;3;  6.7486620E-01;  0.0000000E+00;  9.0660527E-03;0;  1.7166812E-02;  3.9892906E+04;  0.0000000E+00;  4.4987295E-02;  4.0000000E+04;  0.0000000E+00;  4.0003562E+04;  1.9426703E-02;  0.0000000E+00; -2.2598919E-03;  5.3528229E+02;
  5.7146484E-01;  9.9999998E-03; -1.8003494E-01;5935;  5.7037743E-03;  0.0000000E+00;  6.5341761E-04;  1.0002052E+03;  1.0013138E-01;  1.6997050E+02;3;  6.6229761E-01;  0.0000000E+00;  5.7750521E-03;0;  1.6497504E-02;  3.9906285E+04;  0.0000000E+00;  5.7844527E-02;  4.0000000E+04;  0.0000000E+00;  4.0001945E+04;  1.8873144E-02;  0.0000000E+00; -2.3756407E-03;  3.6050555E+02;
  5.7146198E-01;  9.9999998E-03; -1.7002745E-01;5936;  5.6677740E-03;  0.0000000E+00;  6.1225874E-04;  1.0003206E+03;  1.0013123E-01;  2.6567151E+02;3;  6.5607262E-01;  0.0000000E+00;  8.7938563E-04;0;  1.5906895E-02;  3.9916734E+04;  0.0000000E+00;  6.8383776E-02;  4.0000000E+04;  0.0000000E+00;  4.0000348E+04;  1.8410953E-02;  0.0000000E+00; -2.5040589E-03;  1.6725038E+02;
  5.7147211E-01;  9.9999998E-03; -1.6002025E-01;5937;  5.7022027E-03;  0.0000000E+00;  5.6576327E-04;  1.0003907E+03;  1.0013103E-01;  3.2374393E+02;3;  6.7485923E-01;  0.0000000E+00; -5.0042397E-03;0;  1.5399802E-02;  3.9924039E+04;  0.0000000E+00;  7.8819260E-02;  4.0000000E+04;  0.0000000E+00;  3.9999168E+04;  1.8034963E-02;  0.0000000E+00; -2.6351612E-03;  1.2689195E+02;
  5.7149148E-01;  9.9999998E-03; -1.5001436E-01;5938;  5.7962714E-03;  0.0000000E+00;  5.1989540E-04;  1.0004333E+03;  1.0013118E-01;  3.5900220E+02;3;  7.0931697E-01;  0.0000000E+00; -9.8161483E-03;0;  1.4974397E-02;  3.9928012E+04;  0.0000000E+00;  8.9425042E-02;  4.0000000E+04;  0.0000000E+00;  3.9997805E+04;  1.7734671E-02;  0.0000000E+00; -2.7602739E-03;  2.5136035E+02;
  5.7151634E-01;  9.9999998E-03; -1.4001036E-01;5939;  5.9294105E-03;  0.0000000E+00;  4.8110637E-04;  1.0004363E+03;  1.0013114E-01;  3.6147125E+02;3;  7.5907725E-01;  0.0000000E+00; -1.2397082E-02;0;  1.4619690E-02;  3.9929371E+04;  0.0000000E+00;  9.8917276E-02;  4.0000000E+04;  0.0000000E+00;  3.9996629E+04;  1.7494652E-02;  0.0000000E+00; -2.8749621E-03;  3.4285886E+02;
  5.7154340E-01;  9.9999998E-03; -1.3000831E-01;5940;  6.0863891E-03;  0.0000000E+00;  4.4458394E-04;  1.0004080E+03;  1.0013101E-01;  3.3806451E+02;3;  8.1621718E-01;  0.0000000E+00; -1.1915518E-02;0;  1.4316033E-02;  3.9927711E+04;  0.0000000E+00;  1.0523631E-01;  4.0000000E+04;  0.0000000E+00;  3.9996246E+04;  1.7294614E-02;  0.0000000E+00; -2.9785810E-03;  3.8028467E+02;
  5.7156891E-01;  9.9999998E-03; -1.2000781E-01;5941;  6.2326989E-03;  0.0000000E+00;  4.0629244E-04;  1.0003626E+03;  1.0013115E-01;  3.0043594E+02;3;  8.7808186E-01;  0.0000000E+00; -9.3439436E-03;0;  1.4045704E-02;  3.9923883E+04;  0.0000000E+00;  1.0646076E-01;  4.0000000E+04;  0.0000000E+00;  3.9996398E+04;  1.7118115E-02;  0.0000000E+00; -3.0724108E-03;  3.7027359E+02;
  5.7159120E-01;  9.9999998E-03; -1.1000787E-01;5942;  6.3430769E-03;  0.0000000E+00;  3.6662290E-04;  1.0002975E+03;  1.0013121E-01;  2.4641278E+02;3;  9.2504168E-01;  0.0000000E+00; -1.0273103E-02;0;  1.3791975E-02;  3.9918629E+04;  0.0000000E+00;  1.0177641E-01;  4.0000000E+04;  0.0000000E+00;  3.9997262E+04;  1.6950021E-02;  0.0000000E+00; -3.1580455E-03;  3.2582391E+02;
  5.8207673E-01;  9.9999998E-03; -2.6998809E-01;5987;  8.0248965E-03;  0.0000000E+00;  7.9048146E-04;  9.9853015E+02;  1.0021430E-01; -1.2177433E+03;3;  9.7505337E-01;  0.0000000E+00;  3.7004199E-02;0;  2.4734471E-02;  3.9697465E+04;  0.0000000E+00; -8.9925545E-01;  4.0000000E+04;  0.0000000E+00;  4.0013227E+04;  2.6872780E-02;  0.0000000E+00; -2.1383082E-03;  2.3299150E+03;
  5.8205539E-01;  9.9999998E-03; -2.5998911E-01;5988;  7.5964076E-03;  0.0000000E+00;  7.7368313E-04;  9.9871155E+02;  1.0021447E-01; -1.0674760E+03;3;  9.0921175E-01;  0.0000000E+00;  2.7760670E-02;0;  2.3964148E-02;  3.9713656E+04;  0.0000000E+00; -6.3545609E-01;  4.0000000E+04;  0.0000000E+00;  4.0010879E+04;  2.6058666E-02;  0.0000000E+00; -2.0945175E-03;  1.8847020E+03;
  5.8200610E-01;  9.9999998E-03; -2.4999233E-01;5989;  7.2929692E-03;  0.0000000E+00;  7.6066441E-04;  9.9890546E+02;  1.0021477E-01; -9.0678918E+02;3;  8.7299067E-01;  0.0000000E+00;  1.7421925E-02;0;  2.3095388E-02;  3.9731723E+04;  0.0000000E+00; -4.0528372E-01;  4.0000000E+04;  0.0000000E+00;  4.0008457E+04;  2.5168523E-02;  0.0000000E+00; -2.0731359E-03;  1.4381736E+03;
  5.8193183E-01;  9.9999998E-03; -2.3999999E-01;5990;  7.0505333E-03;  0.0000000E+00;  7.4490550E-04;  9.9911920E+02;  1.0021478E-01; -7.2970776E+02;3;  8.5460508E-01;  0.0000000E+00;  9.6634747E-03;0;  2.2204984E-02;  3.9750902E+04;  0.0000000E+00; -2.3697472E-01;  4.0000000E+04;  0.0000000E+00;  4.0005645E+04;  2.4244068E-02;  0.0000000E+00; -2.0390844E-03;  1.0043223E+03;
  5.8184606E-01;  9.9999998E-03; -2.3001178E-01;5991;  6.8926811E-03;  0.0000000E+00;  6.9364998E-04;  9.9933905E+02;  1.0021497E-01; -5.4758948E+02;3;  8.4818888E-01;  0.0000000E+00;  3.3065651E-03;0;  2.1382911E-02;  3.9770355E+04;  0.0000000E+00; -1.2802702E-01;  4.0000000E+04;  0.0000000E+00;  4.0003605E+04;  2.3303989E-02;  0.0000000E+00; -1.9210785E-03;  7.0390161E+02;
  5.8175695E-01;  9.9999998E-03; -2.2002575E-01;5992;  6.7643691E-03;  0.0000000E+00;  6.3961308E-04;  9.9957605E+02;  1.0021490E-01; -3.5124933E+02;3;  8.4265590E-01;  0.0000000E+00; -4.1307327E-03;0;  2.0477908E-02;  3.9789562E+04;  0.0000000E+00; -6.0486447E-02;  4.0000000E+04;  0.0000000E+00;  4.0002703E+04;  2.2385377E-02;  0.0000000E+00; -1.9074690E-03;  5.7172290E+02;
  5.8167595E-01;  9.9999998E-03; -2.1003915E-01;5993;  6.6030915E-03;  0.0000000E+00;  6.1539462E-04;  9.9981073E+02;  1.0021475E-01; -1.5678569E+02;3;  8.2015353E-01;  0.0000000E+00; -9.1185700E-03;0;  1.9520160E-02;  3.9808195E+04;  0.0000000E+00; -1.8816931E-02;  4.0000000E+04;  0.0000000E+00;  4.0002539E+04;  2.1527164E-02;  0.0000000E+00; -2.0070036E-03;  5.4927142E+02;
  5.8160895E-01;  9.9999998E-03; -2.0004438E-01;5994;  6.4106430E-03;  0.0000000E+00;  6.1207457E-04;  1.0000301E+03;  1.0021470E-01;  2.4888186E+01;3;  7.9130191E-01;  0.0000000E+00; -1.1469634E-02;0;  1.8610429E-02;  3.9824938E+04;  0.0000000E+00;  7.3756371E-03;  4.0000000E+04;  0.0000000E+00;  4.0003133E+04;  2.0750521E-02;  0.0000000E+00; -2.1400908E-03;  5.7333832E+02;
  5.8155954E-01;  9.9999998E-03; -1.9004162E-01;5995;  6.2288786E-03;  0.0000000E+00;  6.1390799E-04;  1.0002156E+03;  1.0021468E-01;  1.7866162E+02;3;  7.6885849E-01;  0.0000000E+00; -1.1919192E-02;0;  1.7786233E-02;  3.9839941E+04;  0.0000000E+00;  2.5328610E-02;  4.0000000E+04;  0.0000000E+00;  4.0002934E+04;  2.0063704E-02;  0.0000000E+00; -2.2774714E-03;  5.2434802E+02;
  5.8152896E-01;  9.9999998E-03; -1.8003537E-01;5996;  6.1080172E-03;  0.0000000E+00;  5.9990957E-04;  1.0003615E+03;  1.0021465E-01;  2.9944833E+02;3;  7.5599855E-01;  0.0000000E+00; -1.4023149E-02;0;  1.7051533E-02;  3.9852445E+04;  0.0000000E+00;  4.0872615E-02;  4.0000000E+04;  0.0000000E+00;  4.0001680E+04;  1.9467026E-02;  0.0000000E+00; -2.4154929E-03;  3.8296674E+02;
  5.8151662E-01;  9.9999998E-03; -1.7002825E-01;5997;  6.0760081E-03;  0.0000000E+00;  5.7106256E-04;  1.0004606E+03;  1.0021455E-01;  3.8161884E+02;3;  7.6323587E-01;  0.0000000E+00; -1.8424034E-02;0;  1.6400939E-02;  3.9862004E+04;  0.0000000E+00;  5.8547545E-02;  4.0000000E+04;  0.0000000E+00;  4.0000410E+04;  1.8958181E-02;  0.0000000E+00; -2.5572430E-03;  2.0259187E+02;
  5.8151966E-01;  9.9999998E-03; -1.6002132E-01;5998;  6.1240564E-03;  0.0000000E+00;  5.3435063E-04;  1.0005234E+03;  1.0021445E-01;  4.3356799E+02;3;  7.8703499E-01;  0.0000000E+00; -2.1654129E-02;0;  1.5836975E-02;  3.9868457E+04;  0.0000000E+00;  8.0588862E-02;  4.0000000E+04;  0.0000000E+00;  3.9999090E+04;  1.8534986E-02;  0.0000000E+00; -2.6980122E-03;  1.1347332E+02;
  5.8153462E-01;  9.9999998E-03; -1.5001538E-01;5999;  6.2416079E-03;  0.0000000E+00;  4.9645721E-04;  1.0005482E+03;  1.0021443E-01;  4.5420938E+02;3;  8.3062094E-01;  0.0000000E+00; -2.3786854E-02;0;  1.5356054E-02;  3.9871980E+04;  0.0000000E+00;  1.0624099E-01;  4.0000000E+04;  0.0000000E+00;  3.9997539E+04;  1.8187763E-02;  0.0000000E+00; -2.8317093E-03;  2.2456210E+02;
  5.8155721E-01;  9.9999998E-03; -1.4001109E-01;6000;  6.3873506E-03;  0.0000000E+00;  4.6069009E-04;  1.0005442E+03;  1.0021447E-01;  4.5085144E+02;3;  8.8919437E-01;  0.0000000E+00; -2.4624795E-02;0;  1.4953518E-02;  3.9872484E+04;  0.0000000E+00;  1.3240296E-01;  4.0000000E+04;  0.0000000E+00;  3.9996559E+04;  1.7908301E-02;  0.0000000E+00; -2.9547825E-03;  3.3224652E+02;
  5.8158469E-01;  9.9999998E-03; -1.3000834E-01;6001;  6.5151411E-03;  0.0000000E+00;  4.2673669E-04;  1.0005131E+03;  1.0021418E-01;  4.2507440E+02;3;  9.4589925E-01;  0.0000000E+00; -2.2308161E-02;0;  1.4619458E-02;  3.9870586E+04;  0.0000000E+00;  1.5495385E-01;  4.0000000E+04;  0.0000000E+00;  3.9996422E+04;  1.7685916E-02;  0.0000000E+00; -3.0664583E-03;  3.9383838E+02;
  5.8161545E-01;  9.9999998E-03; -1.2000653E-01;6002;  6.5722172E-03;  0.0000000E+00;  3.9244158E-04;  1.0004581E+03;  1.0021426E-01;  3.7954483E+02;3;  9.9293506E-01;  0.0000000E+00; -2.5677560E-02;0;  1.4343040E-02;  3.9866527E+04;  0.0000000E+00;  1.6999362E-01;  4.0000000E+04;  0.0000000E+00;  3.9996277E+04;  1.7510660E-02;  0.0000000E+00; -3.1676202E-03;  4.1070737E+02;
  5.8164686E-01;  9.9999998E-03; -1.1000508E-01;6003;  6.5772394E-03;  0.0000000E+00;  3.6196079E-04;  1.0003931E+03;  1.0021417E-01;  3.2562042E+02;3;  1.0042545E+00;  0.0000000E+00; -2.4343522E-02;0;  1.4097168E-02;  3.9861000E+04;  0.0000000E+00;  1.7501938E-01;  4.0000000E+04;  0.0000000E+00;  3.9996543E+04;  1.7356653E-02;  0.0000000E+00; -3.2594844E-03;  3.9214642E+02;
  5.9221953E-01;  9.9999998E-03; -2.6999086E-01;6048;  8.9260871E-03;  0.0000000E+00;  7.2181644E-04;  9.9866345E+02;  1.0034879E-01; -1.1073267E+03;3;  1.1498824E+00;  0.0000000E+00;  2.8357185E-02;0;  2.6357157E-02;  3.9605836E+04;  0.0000000E+00; -1.1407510E+00;  4.0000000E+04;  0.0000000E+00;  4.0010281E+04;  2.7476707E-02;  0.0000000E+00; -1.1195502E-03;  2.3140828E+03;
  5.9218973E-01;  9.9999998E-03; -2.5999036E-01;6049;  8.4278025E-03;  0.0000000E+00;  7.0745958E-04;  9.9883417E+02;  1.0034929E-01; -9.6584924E+02;3;  1.1094868E+00;  0.0000000E+00;  9.0006525E-03;0;  2.5320981E-02;  3.9620820E+04;  0.0000000E+00; -7.6254898E-01;  4.0000000E+04;  0.0000000E+00;  4.0007863E+04;  2.6672792E-02;  0.0000000E+00; -1.3518105E-03;  1.7381251E+03;
  5.9213173E-01;  9.9999998E-03; -2.4999203E-01;6050;  7.9550380E-03;  0.0000000E+00;  7.0100999E-04;  9.9900995E+02;  1.0034923E-01; -8.2022369E+02;3;  1.0617615E+00;  0.0000000E+00; -1.8505118E-03;0;  2.4213450E-02;  3.9637520E+04;  0.0000000E+00; -4.6474543E-01;  4.0000000E+04;  0.0000000E+00;  4.0005367E+04;  2.5805628E-02;  0.0000000E+00; -1.5921777E-03;  1.2226797E+03;
  5.9204900E-01;  9.9999998E-03; -2.3999807E-01;6051;  7.5919139E-03;  0.0000000E+00;  6.7170605E-04;  9.9920734E+02;  1.0034949E-01; -6.5672217E+02;3;  1.0024319E+00;  0.0000000E+00; -7.7133048E-03;0;  2.3218814E-02;  3.9655094E+04;  0.0000000E+00; -2.6257080E-01;  4.0000000E+04;  0.0000000E+00;  4.0002602E+04;  2.4876669E-02;  0.0000000E+00; -1.6578549E-03;  7.7331677E+02;
  5.9195203E-01;  9.9999998E-03; -2.3000720E-01;6052;  7.4009351E-03;  0.0000000E+00;  5.9131492E-04;  9.9942133E+02;  1.0034961E-01; -4.7944324E+02;3;  9.7850299E-01;  0.0000000E+00; -1.7837303E-02;0;  2.2302341E-02;  3.9673355E+04;  0.0000000E+00; -1.4083633E-01;  4.0000000E+04;  0.0000000E+00;  4.0001164E+04;  2.3896629E-02;  0.0000000E+00; -1.5942885E-03;  5.1732660E+02;
  5.9184813E-01;  9.9999998E-03; -2.2001819E-01;6053;  7.2442121E-03;  0.0000000E+00;  5.2947033E-04;  9.9964819E+02;  1.0034963E-01; -2.9144855E+02;3;  9.7155625E-01;  0.0000000E+00; -2.4161804E-02;0;  2.1231018E-02;  3.9691395E+04;  0.0000000E+00; -7.2468340E-02;  4.0000000E+04;  0.0000000E+00;  4.0000734E+04;  2.2932060E-02;  0.0000000E+00; -1.7010415E-03;  4.3742838E+02;
  5.9175283E-01;  9.9999998E-03; -2.1003272E-01;6054;  7.0607443E-03;  0.0000000E+00;  5.1647006E-04;  9.9987097E+02;  1.0034940E-01; -1.0691055E+02;3;  9.5894361E-01;  0.0000000E+00; -2.8621152E-02;0;  2.0114707E-02;  3.9708508E+04;  0.0000000E+00; -3.5180271E-02;  4.0000000E+04;  0.0000000E+00;  4.0000617E+04;  2.2029329E-02;  0.0000000E+00; -1.9146231E-03;  4.1742368E+02;
  5.9167373E-01;  9.9999998E-03; -2.0004156E-01;6055;  6.8802712E-03;  0.0000000E+00;  5.2768830E-04;  1.0000745E+03;  1.0034940E-01;  6.1726650E+01;3;  9.3966192E-01;  0.0000000E+00; -2.9949561E-02;0;  1.9085700E-02;  3.9724254E+04;  0.0000000E+00; -1.3825605E-02;  4.0000000E+04;  0.0000000E+00;  4.0001297E+04;  2.1206431E-02;  0.0000000E+00; -2.1207309E-03;  4.6095883E+02;
  5.9161288E-01;  9.9999998E-03; -1.9004230E-01;6056;  6.7077735E-03;  0.0000000E+00;  5.4301869E-04;  1.0002471E+03;  1.0034945E-01;  2.0473495E+02;3;  9.0201217E-01;  0.0000000E+00; -3.2049447E-02;0;  1.8181799E-02;  3.9737867E+04;  0.0000000E+00;  1.2063608E-03;  4.0000000E+04;  0.0000000E+00;  4.0001465E+04;  2.0482277E-02;  0.0000000E+00; -2.3004790E-03;  4.5581320E+02;
  5.9157181E-01;  9.9999998E-03; -1.8003869E-01;6057;  6.5794024E-03;  0.0000000E+00;  5.4168800E-04;  1.0003754E+03;  1.0034906E-01;  3.1100354E+02;3;  8.8101494E-01;  0.0000000E+00; -3.3008955E-02;0;  1.7397206E-02;  3.9748906E+04;  0.0000000E+00;  1.6801991E-02;  4.0000000E+04;  0.0000000E+00;  4.0000844E+04;  1.9859796E-02;  0.0000000E+00; -2.4625906E-03;  3.5855167E+02;
  5.9155047E-01;  9.9999998E-03; -1.7003323E-01;6058;  6.5370142E-03;  0.0000000E+00;  5.2381237E-04;  1.0004633E+03;  1.0034908E-01;  3.8389038E+02;3;  8.8297886E-01;  0.0000000E+00; -3.3970486E-02;0;  1.6713427E-02;  3.9757461E+04;  0.0000000E+00;  3.7999842E-02;  4.0000000E+04;  0.0000000E+00;  3.9999664E+04;  1.9331748E-02;  0.0000000E+00; -2.6183210E-03;  2.0559943E+02;
  5.9154624E-01;  9.9999998E-03; -1.6002694E-01;6059;  6.5838210E-03;  0.0000000E+00;  4.9853243E-04;  1.0005150E+03;  1.0034893E-01;  4.2665460E+02;3;  9.1326743E-01;  0.0000000E+00; -3.6262129E-02;0;  1.6124772E-02;  3.9763035E+04;  0.0000000E+00;  6.7187108E-02;  4.0000000E+04;  0.0000000E+00;  3.9998070E+04;  1.8893119E-02;  0.0000000E+00; -2.7683473E-03;  9.8022514E+01;
  5.9155571E-01;  9.9999998E-03; -1.5002075E-01;6060;  6.6784075E-03;  0.0000000E+00;  4.7150577E-04;  1.0005341E+03;  1.0034863E-01;  4.4255539E+02;3;  9.6659732E-01;  0.0000000E+00; -3.6034685E-02;0;  1.5634244E-02;  3.9765984E+04;  0.0000000E+00;  1.0319608E-01;  4.0000000E+04;  0.0000000E+00;  3.9996902E+04;  1.8543756E-02;  0.0000000E+00; -2.9095111E-03;  1.9492671E+02;
  5.9157646E-01;  9.9999998E-03; -1.4001517E-01;6061;  6.6990210E-03;  0.0000000E+00;  4.5147166E-04;  1.0005250E+03;  1.0034855E-01;  4.3495065E+02;3;  1.0007504E+00;  0.0000000E+00; -3.6821008E-02;0;  1.5259188E-02;  3.9766059E+04;  0.0000000E+00;  1.4188087E-01;  4.0000000E+04;  0.0000000E+00;  3.9996062E+04;  1.8298782E-02;  0.0000000E+00; -3.0395945E-03;  3.1189471E+02;
  5.9160703E-01;  9.9999998E-03; -1.3001032E-01;6062;  6.7007421E-03;  0.0000000E+00;  4.3393075E-04;  1.0004940E+03;  1.0034847E-01;  4.0927237E+02;3;  1.0079477E+00;  0.0000000E+00; -3.2357715E-02;0;  1.4965151E-02;  3.9764141E+04;  0.0000000E+00;  1.7771062E-01;  4.0000000E+04;  0.0000000E+00;  3.9995766E+04;  1.8123256E-02;  0.0000000E+00; -3.1581051E-03;  3.9025009E+02;
  5.9164590E-01;  9.9999998E-03; -1.2000608E-01;6063;  6.7078802E-03;  0.0000000E+00;  4.1225782E-04;  1.0004391E+03;  1.0034828E-01;  3.6384155E+02;3;  1.0157484E+00;  0.0000000E+00; -2.9876091E-02;0;  1.4722522E-02;  3.9760324E+04;  0.0000000E+00;  2.0521183E-01;  4.0000000E+04;  0.0000000E+00;  3.9995613E+04;  1.7988294E-02;  0.0000000E+00; -3.2657720E-03;  4.2725604E+02;
  5.9168875E-01;  9.9999998E-03; -1.1000254E-01;6064;  6.7080059E-03;  0.0000000E+00;  3.8439970E-04;  1.0003726E+03;  1.0034831E-01;  3.0873199E+02;3;  1.0201117E+00;  0.0000000E+00; -2.7068237E-02;0;  1.4510322E-02;  3.9755094E+04;  0.0000000E+00;  2.2036856E-01;  4.0000000E+04;  0.0000000E+00;  3.9995629E+04;  1.7873934E-02;  0.0000000E+00; -3.3636107E-03;  4.2887604E+02;
  6.0225570E-01;  9.9999998E-03; -2.6999339E-01;6109;  9.5756548E-03;  0.0000000E+00;  6.8104541E-04;  9.9862860E+02;  1.0056274E-01; -1.1361654E+03;3;  1.2906106E+00;  0.0000000E+00;  1.9459223E-02;0;  2.7402850E-02;  3.9437461E+04;  0.0000000E+00; -1.0796969E+00;  4.0000000E+04;  0.0000000E+00;  4.0008465E+04;  2.7812900E-02;  0.0000000E+00; -4.1004934E-04;  2.2437727E+03;
  6.0222292E-01;  9.9999998E-03; -2.5999022E-01;6110;  9.0935612E-03;  0.0000000E+00;  6.6070684E-04;  9.9878168E+02;  1.0056362E-01; -1.0093542E+03;3;  1.2488023E+00;  0.0000000E+00; -1.7410072E-03;0;  2.6250940E-02;  3.9451117E+04;  0.0000000E+00; -7.0348126E-01;  4.0000000E+04;  0.0000000E+00;  4.0006465E+04;  2.7018065E-02;  0.0000000E+00; -7.6712563E-04;  1.6829862E+03;
  6.0216278E-01;  9.9999998E-03; -2.4998857E-01;6111;  8.6051738E-03;  0.0000000E+00;  6.5001642E-04;  9.9894910E+02;  1.0056366E-01; -8.7064203E+02;3;  1.1995105E+00;  0.0000000E+00; -1.6947096E-02;0;  2.5009992E-02;  3.9466211E+04;  0.0000000E+00; -4.1994318E-01;  4.0000000E+04;  0.0000000E+00;  4.0003648E+04;  2.6163626E-02;  0.0000000E+00; -1.1536342E-03;  1.1885544E+03;
  6.0207605E-01;  9.9999998E-03; -2.3998985E-01;6112;  8.1784641E-03;  0.0000000E+00;  6.1598798E-04;  9.9913239E+02;  1.0056426E-01; -7.1879449E+02;3;  1.1540744E+00;  0.0000000E+00; -2.5663953E-02;0;  2.3904815E-02;  3.9482570E+04;  0.0000000E+00; -2.3513280E-01;  4.0000000E+04;  0.0000000E+00;  4.0001422E+04;  2.5250668E-02;  0.0000000E+00; -1.3458516E-03;  7.8818433E+02;
  6.0197210E-01;  9.9999998E-03; -2.2999203E-01;6113;  7.8755897E-03;  0.0000000E+00;  5.3393631E-04;  9.9933075E+02;  1.0056435E-01; -5.5445343E+02;3;  1.1050287E+00;  0.0000000E+00; -2.9789610E-02;0;  2.2892050E-02;  3.9499199E+04;  0.0000000E+00; -1.3037451E-01;  4.0000000E+04;  0.0000000E+00;  4.0000418E+04;  2.4288349E-02;  0.0000000E+00; -1.3962976E-03;  5.9935791E+02;
  6.0185850E-01;  9.9999998E-03; -2.1999845E-01;6114;  7.5977463E-03;  0.0000000E+00;  4.9441954E-04;  9.9953662E+02;  1.0056438E-01; -3.8389038E+02;3;  1.0682607E+00;  0.0000000E+00; -3.6150426E-02;0;  2.1700256E-02;  3.9515762E+04;  0.0000000E+00; -7.7121556E-02;  4.0000000E+04;  0.0000000E+00;  3.9999660E+04;  2.3336560E-02;  0.0000000E+00; -1.6363044E-03;  4.8304614E+02;
  6.0175627E-01;  9.9999998E-03; -2.1001653E-01;6115;  7.3130545E-03;  0.0000000E+00;  5.1068357E-04;  9.9972723E+02;  1.0056417E-01; -2.2596892E+02;3;  1.0358639E+00;  0.0000000E+00; -3.8442887E-02;0;  2.0507501E-02;  3.9531875E+04;  0.0000000E+00; -5.2277520E-02;  4.0000000E+04;  0.0000000E+00;  3.9998613E+04;  2.2439966E-02;  0.0000000E+00; -1.9324649E-03;  3.4340512E+02;
  6.0167223E-01;  9.9999998E-03; -2.0003292E-01;6116;  7.0996634E-03;  0.0000000E+00;  5.2034605E-04;  9.9990900E+02;  1.0056413E-01; -7.5405273E+01;3;  1.0124635E+00;  0.0000000E+00; -3.8568780E-02;0;  1.9448243E-02;  3.9546344E+04;  0.0000000E+00; -3.9904702E-02;  4.0000000E+04;  0.0000000E+00;  3.9998816E+04;  2.1607984E-02;  0.0000000E+00; -2.1597415E-03;  3.3401837E+02;
  6.0160697E-01;  9.9999998E-03; -1.9004019E-01;6117;  6.9421465E-03;  0.0000000E+00;  5.2840245E-04;  1.0000740E+03;  1.0056392E-01;  6.1331600E+01;3;  1.0006115E+00;  0.0000000E+00; -3.8590100E-02;0;  1.8513003E-02;  3.9559148E+04;  0.0000000E+00; -3.0585404E-02;  4.0000000E+04;  0.0000000E+00;  3.9999062E+04;  2.0867985E-02;  0.0000000E+00; -2.3549807E-03;  3.4934912E+02;
  6.0156119E-01;  9.9999998E-03; -1.8004066E-01;6118;  6.8457946E-03;  0.0000000E+00;  5.2658748E-04;  1.0001953E+03;  1.0056404E-01;  1.6177321E+02;3;  9.9340665E-01;  0.0000000E+00; -3.9318334E-02;0;  1.7701618E-02;  3.9569188E+04;  0.0000000E+00; -1.7962687E-02;  4.0000000E+04;  0.0000000E+00;  3.9998508E+04;  2.0232914E-02;  0.0000000E+00; -2.5312954E-03;  2.9597101E+02;
  6.0153568E-01;  9.9999998E-03; -1.7003709E-01;6119;  6.8054390E-03;  0.0000000E+00;  5.1274989E-04;  1.0002784E+03;  1.0056351E-01;  2.3061076E+02;3;  9.9727219E-01;  0.0000000E+00; -4.0484719E-02;0;  1.7011903E-02;  3.9576648E+04;  0.0000000E+00;  2.4291191E-03;  4.0000000E+04;  0.0000000E+00;  3.9998031E+04;  1.9709049E-02;  0.0000000E+00; -2.6971451E-03;  1.7676825E+02;
  6.0152942E-01;  9.9999998E-03; -1.6003084E-01;6120;  6.7798211E-03;  0.0000000E+00;  4.9786706E-04;  1.0003206E+03;  1.0056325E-01;  2.6567151E+02;3;  1.0003073E+00;  0.0000000E+00; -4.2901345E-02;0;  1.6450068E-02;  3.9581520E+04;  0.0000000E+00;  3.2868627E-02;  4.0000000E+04;  0.0000000E+00;  3.9996934E+04;  1.9304311E-02;  0.0000000E+00; -2.8542432E-03;  5.5958187E+01;
  6.0154068E-01;  9.9999998E-03; -1.5002313E-01;6121;  6.7590764E-03;  0.0000000E+00;  4.8645432E-04;  1.0003358E+03;  1.0056295E-01;  2.7821436E+02;3;  1.0047672E+00;  0.0000000E+00; -4.0090073E-02;0;  1.6010622E-02;  3.9584086E+04;  0.0000000E+00;  7.2360888E-02;  4.0000000E+04;  0.0000000E+00;  3.9995465E+04;  1.9011542E-02;  0.0000000E+00; -3.0009213E-03;  1.4897083E+02;
  6.0156786E-01;  9.9999998E-03; -1.4001541E-01;6122;  6.7579201E-03;  0.0000000E+00;  4.7603203E-04;  1.0003277E+03;  1.0056274E-01;  2.7149850E+02;3;  1.0072069E+00;  0.0000000E+00; -3.7389603E-02;0;  1.5675334E-02;  3.9584277E+04;  0.0000000E+00;  1.1675338E-01;  4.0000000E+04;  0.0000000E+00;  3.9994828E+04;  1.8811416E-02;  0.0000000E+00; -3.1360821E-03;  2.6740164E+02;
  6.0160679E-01;  9.9999998E-03; -1.3000888E-01;6123;  6.7728339E-03;  0.0000000E+00;  4.6187270E-04;  1.0002980E+03;  1.0056226E-01;  2.4690660E+02;3;  1.0160697E+00;  0.0000000E+00; -3.2753106E-02;0;  1.5424567E-02;  3.9582895E+04;  0.0000000E+00;  1.6022548E-01;  4.0000000E+04;  0.0000000E+00;  3.9994531E+04;  1.8684087E-02;  0.0000000E+00; -3.2595203E-03;  3.5068716E+02;
  6.0165232E-01;  9.9999998E-03; -1.2000425E-01;6124;  6.7962552E-03;  0.0000000E+00;  4.4232575E-04;  1.0002519E+03;  1.0056242E-01;  2.0868546E+02;3;  1.0252759E+00;  0.0000000E+00; -2.8970640E-02;0;  1.5235624E-02;  3.9579691E+04;  0.0000000E+00;  1.9661333E-01;  4.0000000E+04;  0.0000000E+00;  3.9994059E+04;  1.8607585E-02;  0.0000000E+00; -3.3719605E-03;  3.9652942E+02;
  6.0169917E-01;  9.9999998E-03; -1.1000165E-01;6125;  6.8117115E-03;  0.0000000E+00;  4.1507831E-04;  1.0001997E+03;  1.0056213E-01;  1.6542741E+02;3;  1.0331461E+00;  0.0000000E+00; -2.5483023E-02;0;  1.5086154E-02;  3.9575863E+04;  0.0000000E+00;  2.2088884E-01;  4.0000000E+04;  0.0000000E+00;  3.9994383E+04;  1.8560521E-02;  0.0000000E+00; -3.4743673E-03;  4.0978238E+02;
  6.1221743E-01;  9.9999998E-03; -2.6999655E-01;6170;  9.9906791E-03;  0.0000000E+00;  6.7523832E-04;  9.9841260E+02;  1.0089727E-01; -1.3151233E+03;3;  1.3822410E+00;  0.0000000E+00;  1.6089011E-02;0;  2.7993742E-02;  3.9160977E+04;  0.0000000E+00; -7.6055729E-01;  4.0000000E+04;  0.0000000E+00;  4.0008250E+04;  2.8078429E-02;  0.0000000E+00; -8.4687374E-05;  2.2094963E+03;
  6.1218244E-01;  9.9999998E-03; -2.5998971E-01;6171;  9.5447162E-03;  0.0000000E+00;  6.4697594E-04;  9.9855481E+02;  1.0089819E-01; -1.1972994E+03;3;  1.3470507E+00;  0.0000000E+00; -7.5379545E-03;0;  2.6830764E-02;  3.9173371E+04;  0.0000000E+00; -4.7692832E-01;  4.0000000E+04;  0.0000000E+00;  4.0006191E+04;  2.7293580E-02;  0.0000000E+00; -4.6281528E-04;  1.7925033E+03;
  6.1212200E-01;  9.9999998E-03; -2.4998288E-01;6172;  9.0683931E-03;  0.0000000E+00;  6.3238584E-04;  9.9870782E+02;  1.0089882E-01; -1.0705376E+03;3;  1.2942573E+00;  0.0000000E+00; -2.0718299E-02;0;  2.5537055E-02;  3.9186973E+04;  0.0000000E+00; -2.7386370E-01;  4.0000000E+04;  0.0000000E+00;  4.0003953E+04;  2.6458347E-02;  0.0000000E+00; -9.2129258E-04;  1.4160844E+03;
  6.1203778E-01;  9.9999998E-03; -2.3997656E-01;6173;  8.6295931E-03;  0.0000000E+00;  5.9381558E-04;  9.9888342E+02;  1.0089970E-01; -9.2506024E+02;3;  1.2400577E+00;  0.0000000E+00; -2.7990302E-02;0;  2.4390504E-02;  3.9202270E+04;  0.0000000E+00; -1.5272626E-01;  4.0000000E+04;  0.0000000E+00;  4.0001992E+04;  2.5569299E-02;  0.0000000E+00; -1.1787958E-03;  1.1143820E+03;
  6.1193281E-01;  9.9999998E-03; -2.2996756E-01;6174;  8.2661472E-03;  0.0000000E+00;  5.1244994E-04;  9.9908069E+02;  1.0089993E-01; -7.6160809E+02;3;  1.2024858E+00;  0.0000000E+00; -3.7158553E-02;0;  2.3333743E-02;  3.9217844E+04;  0.0000000E+00; -9.3328334E-02;  4.0000000E+04;  0.0000000E+00;  4.0001324E+04;  2.4639655E-02;  0.0000000E+00; -1.3059126E-03;  1.0047007E+03;
  6.1181593E-01;  9.9999998E-03; -2.1996351E-01;6175;  7.8419680E-03;  0.0000000E+00;  5.3080998E-04;  9.9925439E+02;  1.0089993E-01; -6.1771094E+02;3;  1.1372404E+00;  0.0000000E+00; -3.5859875E-02;0;  2.2023324E-02;  3.9233199E+04;  0.0000000E+00; -7.2146475E-02;  4.0000000E+04;  0.0000000E+00;  3.9999883E+04;  2.3735926E-02;  0.0000000E+00; -1.7126021E-03;  8.2164978E+02;
  6.1171323E-01;  9.9999998E-03; -2.0998274E-01;6176;  7.4476330E-03;  0.0000000E+00;  5.8594666E-04;  9.9941736E+02;  1.0090019E-01; -4.8270239E+02;3;  1.0755709E+00;  0.0000000E+00; -3.3528846E-02;0;  2.0821646E-02;  3.9248418E+04;  0.0000000E+00; -6.9489032E-02;  4.0000000E+04;  0.0000000E+00;  3.9996852E+04;  2.2874936E-02;  0.0000000E+00; -2.0532899E-03;  4.5077145E+02;
  6.1163050E-01;  9.9999998E-03; -2.0000695E-01;6177;  7.1876114E-03;  0.0000000E+00;  5.8858935E-04;  9.9957587E+02;  1.0089987E-01; -3.5139746E+02;3;  1.0388049E+00;  0.0000000E+00; -3.4167632E-02;0;  1.9801423E-02;  3.9262609E+04;  0.0000000E+00; -7.1820490E-02;  4.0000000E+04;  0.0000000E+00;  3.9995879E+04;  2.2063944E-02;  0.0000000E+00; -2.2625213E-03;  2.9392276E+02;
  6.1156559E-01;  9.9999998E-03; -1.9002169E-01;6178;  7.0106224E-03;  0.0000000E+00;  5.7649025E-04;  9.9972449E+02;  1.0089956E-01; -2.2824046E+02;3;  1.0180511E+00;  0.0000000E+00; -3.4539025E-02;0;  1.8892162E-02;  3.9274340E+04;  0.0000000E+00; -7.2048925E-02;  4.0000000E+04;  0.0000000E+00;  3.9995766E+04;  2.1341080E-02;  0.0000000E+00; -2.4489190E-03;  2.7154993E+02;
  6.1151928E-01;  9.9999998E-03; -1.8002754E-01;6179;  6.8977689E-03;  0.0000000E+00;  5.6036934E-04;  9.9984387E+02;  1.0089894E-01; -1.2932968E+02;3;  1.0115867E+00;  0.0000000E+00; -3.6210168E-02;0;  1.8100431E-02;  3.9284051E+04;  0.0000000E+00; -6.6067025E-02;  4.0000000E+04;  0.0000000E+00;  3.9995668E+04;  2.0728361E-02;  0.0000000E+00; -2.6279301E-03;  2.3425427E+02;
  6.1149311E-01;  9.9999998E-03; -1.7002729E-01;6180;  6.8267896E-03;  0.0000000E+00;  5.4380199E-04;  9.9991931E+02;  1.0089874E-01; -6.6862305E+01;3;  1.0088637E+00;  0.0000000E+00; -3.9249238E-02;0;  1.7439822E-02;  3.9291227E+04;  0.0000000E+00; -5.1186800E-02;  4.0000000E+04;  0.0000000E+00;  3.9994902E+04;  2.0239102E-02;  0.0000000E+00; -2.7992793E-03;  1.4632242E+02;
  6.1148679E-01;  9.9999998E-03; -1.6002348E-01;6181;  6.7864195E-03;  0.0000000E+00;  5.2974728E-04;  9.9996356E+02;  1.0089814E-01; -3.0171986E+01;3;  1.0073850E+00;  0.0000000E+00; -3.9220430E-02;0;  1.6914280E-02;  3.9295914E+04;  0.0000000E+00; -2.5931802E-02;  4.0000000E+04;  0.0000000E+00;  3.9993816E+04;  1.9875096E-02;  0.0000000E+00; -2.9608158E-03;  3.7468124E+01;
  6.1149883E-01;  9.9999998E-03; -1.5001838E-01;6182;  6.7708343E-03;  0.0000000E+00;  5.1592500E-04;  9.9997803E+02;  1.0089783E-01; -1.8221706E+01;3;  1.0067205E+00;  0.0000000E+00; -3.8038127E-02;0;  1.6518218E-02;  3.9298430E+04;  0.0000000E+00;  9.2001772E-03;  4.0000000E+04;  0.0000000E+00;  3.9992902E+04;  1.9629100E-02;  0.0000000E+00; -3.1108814E-03;  1.0638689E+02;
  6.1152607E-01;  9.9999998E-03; -1.4001386E-01;6183;  6.7849737E-03;  0.0000000E+00;  5.0297572E-04;  9.9997644E+02;  1.0089713E-01; -1.9505621E+01;3;  1.0138290E+00;  0.0000000E+00; -3.5066005E-02;0;  1.6235506E-02;  3.9299203E+04;  0.0000000E+00;  5.1142886E-02;  4.0000000E+04;  0.0000000E+00;  3.9992762E+04;  1.9484181E-02;  0.0000000E+00; -3.2486753E-03;  2.0516382E+02;
  6.1156380E-01;  9.9999998E-03; -1.3001110E-01;6184;  6.8160156E-03;  0.0000000E+00;  4.8920885E-04;  9.9995593E+02;  1.0089687E-01; -3.6492794E+01;3;  1.0243945E+00;  0.0000000E+00; -3.0148128E-02;0;  1.6047630E-02;  3.9298559E+04;  0.0000000E+00;  9.5083483E-02;  4.0000000E+04;  0.0000000E+00;  3.9992141E+04;  1.9421961E-02;  0.0000000E+00; -3.3743307E-03;  2.7342932E+02;
  6.1160719E-01;  9.9999998E-03; -1.2001034E-01;6185;  6.8549006E-03;  0.0000000E+00;  4.7029200E-04;  9.9992267E+02;  1.0089651E-01; -6.4047569E+01;3;  1.0350962E+00;  0.0000000E+00; -2.5314799E-02;0;  1.5930625E-02;  3.9296422E+04;  0.0000000E+00;  1.3533276E-01;  4.0000000E+04;  0.0000000E+00;  3.9991852E+04;  1.9419603E-02;  0.0000000E+00; -3.4889779E-03;  3.1052817E+02;
  6.1165196E-01;  9.9999998E-03; -1.1001101E-01;6186;  6.8947622E-03;  0.0000000E+00;  4.4402713E-04;  9.9987573E+02;  1.0089607E-01; -1.0296005E+02;3;  1.0495639E+00;  0.0000000E+00; -2.1529155E-02;0;  1.5857819E-02;  3.9293461E+04;  0.0000000E+00;  1.6660443E-01;  4.0000000E+04;  0.0000000E+00;  3.9992109E+04;  1.9451626E-02;  0.0000000E+00; -3.5938052E-03;  3.2254190E+02;
  6.2211823E-01;  9.9999998E-03; -2.7000239E-01;6231;  1.0217052E-02;  0.0000000E+00;  7.1173784E-04;  9.9808264E+02;  1.0140579E-01; -1.5884983E+03;3;  1.4228458E+00;  0.0000000E+00;  2.4655249E-02;0;  2.8253634E-02;  3.8745777E+04;  0.0000000E+00; -3.1271422E-01;  4.0000000E+04;  0.0000000E+00;  4.0008578E+04;  2.8481361E-02;  0.0000000E+00; -2.2772732E-04;  2.4607312E+03;
  6.2208527E-01;  9.9999998E-03; -2.5999156E-01;6232;  9.7994264E-03;  0.0000000E+00;  6.7755906E-04;  9.9822827E+02;  1.0140748E-01; -1.4678597E+03;3;  1.4028708E+00;  0.0000000E+00; -9.7986066E-04;0;  2.7161453E-02;  3.8757422E+04;  0.0000000E+00; -1.5951724E-01;  4.0000000E+04;  0.0000000E+00;  4.0006590E+04;  2.7703127E-02;  0.0000000E+00; -5.4167403E-04;  2.1779336E+03;
  6.2202948E-01;  9.9999998E-03; -2.4997894E-01;6233;  9.3505466E-03;  0.0000000E+00;  6.5792608E-04;  9.9838281E+02;  1.0140868E-01; -1.3398140E+03;3;  1.3651320E+00;  0.0000000E+00; -1.7470816E-02;0;  2.5917308E-02;  3.8770543E+04;  0.0000000E+00; -6.6518173E-02;  4.0000000E+04;  0.0000000E+00;  4.0004570E+04;  2.6883300E-02;  0.0000000E+00; -9.6599222E-04;  1.8967115E+03;
  6.2195182E-01;  9.9999998E-03; -2.3996378E-01;6234;  8.9231133E-03;  0.0000000E+00;  6.1183987E-04;  9.9856293E+02;  1.0140960E-01; -1.1905836E+03;3;  1.3160712E+00;  0.0000000E+00; -2.6669852E-02;0;  2.4823809E-02;  3.8785008E+04;  0.0000000E+00; -2.9892858E-02;  4.0000000E+04;  0.0000000E+00;  4.0003191E+04;  2.6019910E-02;  0.0000000E+00; -1.1961010E-03;  1.6714451E+03;
  6.2185287E-01;  9.9999998E-03; -2.2994107E-01;6235;  8.5337348E-03;  0.0000000E+00;  5.3895940E-04;  9.9875793E+02;  1.0141005E-01; -1.0290079E+03;3;  1.2571412E+00;  0.0000000E+00; -3.0346569E-02;0;  2.3760632E-02;  3.8800082E+04;  0.0000000E+00; -3.2317996E-02;  4.0000000E+04;  0.0000000E+00;  4.0002570E+04;  2.5127800E-02;  0.0000000E+00; -1.3671678E-03;  1.6287360E+03;
  6.2173873E-01;  9.9999998E-03; -2.1992315E-01;6236;  8.0086393E-03;  0.0000000E+00;  6.1733794E-04;  9.9892932E+02;  1.0141039E-01; -8.8703662E+02;3;  1.1877785E+00;  0.0000000E+00; -3.0293996E-02;0;  2.2374621E-02;  3.8815227E+04;  0.0000000E+00; -5.5420149E-02;  4.0000000E+04;  0.0000000E+00;  4.0000473E+04;  2.4271738E-02;  0.0000000E+00; -1.8971178E-03;  1.3472596E+03;
  6.2164068E-01;  9.9999998E-03; -2.0993884E-01;6237;  7.5004874E-03;  0.0000000E+00;  7.1972847E-04;  9.9905396E+02;  1.0141014E-01; -7.8378027E+02;3;  1.1127981E+00;  0.0000000E+00; -2.1644983E-02;0;  2.1202091E-02;  3.8830043E+04;  0.0000000E+00; -8.3763994E-02;  4.0000000E+04;  0.0000000E+00;  3.9995668E+04;  2.3459701E-02;  0.0000000E+00; -2.2576107E-03;  7.0448761E+02;
  6.2156218E-01;  9.9999998E-03; -1.9996889E-01;6238;  7.2067338E-03;  0.0000000E+00;  7.0522074E-04;  9.9919434E+02;  1.0140969E-01; -6.6748730E+02;3;  1.0607607E+00;  0.0000000E+00; -2.3112571E-02;0;  2.0268364E-02;  3.8843785E+04;  0.0000000E+00; -1.0727674E-01;  4.0000000E+04;  0.0000000E+00;  3.9992590E+04;  2.2684406E-02;  0.0000000E+00; -2.4160433E-03;  3.3806674E+02;
  6.2149954E-01;  9.9999998E-03; -1.8999192E-01;6239;  7.0197228E-03;  0.0000000E+00;  6.6548504E-04;  9.9932520E+02;  1.0140939E-01; -5.5904590E+02;3;  1.0305990E+00;  0.0000000E+00; -2.5864184E-02;0;  1.9415783E-02;  3.8855527E+04;  0.0000000E+00; -1.2181688E-01;  4.0000000E+04;  0.0000000E+00;  3.9991543E+04;  2.1993415E-02;  0.0000000E+00; -2.5776320E-03;  2.4724387E+02;
  6.2145233E-01;  9.9999998E-03; -1.8000548E-01;6240;  6.8931421E-03;  0.0000000E+00;  6.2803843E-04;  9.9944067E+02;  1.0140860E-01; -4.6339429E+02;3;  1.0171853E+00;  0.0000000E+00; -3.0131083E-02;0;  1.8664353E-02;  3.8865520E+04;  0.0000000E+00; -1.2660685E-01;  4.0000000E+04;  0.0000000E+00;  3.9991477E+04;  2.1415791E-02;  0.0000000E+00; -2.7514379E-03;  2.1773500E+02;
  6.2142336E-01;  9.9999998E-03; -1.7001215E-01;6241;  6.8125762E-03;  0.0000000E+00;  5.9598160E-04;  9.9951880E+02;  1.0140774E-01; -3.9865540E+02;3;  1.0101434E+00;  0.0000000E+00; -3.3467110E-02;0;  1.8041607E-02;  3.8872742E+04;  0.0000000E+00; -1.2195719E-01;  4.0000000E+04;  0.0000000E+00;  3.9990309E+04;  2.0965803E-02;  0.0000000E+00; -2.9241964E-03;  1.8248346E+02;
  6.2141275E-01;  9.9999998E-03; -1.6001481E-01;6242;  6.7733945E-03;  0.0000000E+00;  5.6959584E-04;  9.9956799E+02;  1.0140680E-01; -3.5791580E+02;3;  1.0075359E+00;  0.0000000E+00; -3.5308417E-02;0;  1.7557912E-02;  3.8877898E+04;  0.0000000E+00; -1.0805937E-01;  4.0000000E+04;  0.0000000E+00;  3.9989898E+04;  2.0646015E-02;  0.0000000E+00; -3.0881031E-03;  1.6022285E+02;
  6.2141943E-01;  9.9999998E-03; -1.5001579E-01;6243;  6.7626638E-03;  0.0000000E+00;  5.4686284E-04;  9.9959235E+02;  1.0140602E-01; -3.3771884E+02;3;  1.0092108E+00;  0.0000000E+00; -3.4624714E-02;0;  1.7211642E-02;  3.8880980E+04;  0.0000000E+00; -8.4966712E-02;  4.0000000E+04;  0.0000000E+00;  3.9989363E+04;  2.0451277E-02;  0.0000000E+00; -3.2396358E-03;  1.7575441E+02;
  6.2144101E-01;  9.9999998E-03; -1.4001685E-01;6244;  6.7828270E-03;  0.0000000E+00;  5.2713486E-04;  9.9959564E+02;  1.0140539E-01; -3.3500287E+02;3;  1.0175965E+00;  0.0000000E+00; -3.2698479E-02;0;  1.6987620E-02;  3.8882633E+04;  0.0000000E+00; -5.3671148E-02;  4.0000000E+04;  0.0000000E+00;  3.9988730E+04;  2.0365383E-02;  0.0000000E+00; -3.3777640E-03;  2.0491939E+02;
  6.2147391E-01;  9.9999998E-03; -1.3001843E-01;6245;  6.8280604E-03;  0.0000000E+00;  5.1017327E-04;  9.9958789E+02;  1.0140461E-01; -3.4142245E+02;3;  1.0278667E+00;  0.0000000E+00; -2.7933551E-02;0;  1.6864680E-02;  3.8882934E+04;  0.0000000E+00; -1.6725343E-02;  4.0000000E+04;  0.0000000E+00;  3.9988336E+04;  2.0367796E-02;  0.0000000E+00; -3.5031165E-03;  2.1797913E+02;
  6.2151355E-01;  9.9999998E-03; -1.2002050E-01;6246;  6.8897000E-03;  0.0000000E+00;  4.9108901E-04;  9.9956824E+02;  1.0140344E-01; -3.5771829E+02;3;  1.0446558E+00;  0.0000000E+00; -2.2492306E-02;0;  1.6817354E-02;  3.8882172E+04;  0.0000000E+00;  2.1783935E-02;  4.0000000E+04;  0.0000000E+00;  3.9988520E+04;  2.0434842E-02;  0.0000000E+00; -3.6174871E-03;  2.0805559E+02;
  6.2155497E-01;  9.9999998E-03; -1.1002292E-01;6247;  6.9465199E-03;  0.0000000E+00;  4.6593597E-04;  9.9954309E+02;  1.0140334E-01; -3.7855719E+02;3;  1.0597714E+00;  0.0000000E+00; -1.9411346E-02;0;  1.6820595E-02;  3.8880727E+04;  0.0000000E+00;  5.7133038E-02;  4.0000000E+04;  0.0000000E+00;  3.9989121E+04;  2.0543126E-02;  0.0000000E+00; -3.7225320E-03;  1.8421051E+02;
  6.3194913E-01;  9.9999998E-03; -2.7001411E-01;6292;  1.0292529E-02;  0.0000000E+00;  7.8909995E-04;  9.9780426E+02;  1.0214782E-01; -1.8191090E+03;3;  1.4509695E+00;  0.0000000E+00;  3.4450915E-02;0;  2.8368635E-02;  3.8165980E+04;  0.0000000E+00;  3.8153961E-02;  4.0000000E+04;  0.0000000E+00;  4.0007324E+04;  2.9201159E-02;  0.0000000E+00; -8.3252444E-04;  2.8877856E+03;
  6.3192379E-01;  9.9999998E-03; -2.5999993E-01;6293;  9.9099129E-03;  0.0000000E+00;  7.4525375E-04;  9.9796655E+02;  1.0215039E-01; -1.6846931E+03;3;  1.4319658E+00;  0.0000000E+00;  1.2418333E-02;0;  2.7464688E-02;  3.8178055E+04;  0.0000000E+00;  1.1616433E-01;  4.0000000E+04;  0.0000000E+00;  4.0005141E+04;  2.8411452E-02;  0.0000000E+00; -9.4676332E-04;  2.6429314E+03;
  6.3187844E-01;  9.9999998E-03; -2.4998239E-01;6294;  9.4879149E-03;  0.0000000E+00;  7.2082219E-04;  9.9813678E+02;  1.0215224E-01; -1.5436600E+03;3;  1.3989577E+00;  0.0000000E+00; -3.0700779E-03;0;  2.6337875E-02;  3.8191250E+04;  0.0000000E+00;  1.3493192E-01;  4.0000000E+04;  0.0000000E+00;  4.0003312E+04;  2.7594451E-02;  0.0000000E+00; -1.2565757E-03;  2.3933933E+03;
  6.3181382E-01;  9.9999998E-03; -2.3995940E-01;6295;  9.0704300E-03;  0.0000000E+00;  6.7671738E-04;  9.9832666E+02;  1.0215345E-01; -1.3863312E+03;3;  1.3511691E+00;  0.0000000E+00; -1.1297146E-02;0;  2.5314525E-02;  3.8206152E+04;  0.0000000E+00;  1.0416496E-01;  4.0000000E+04;  0.0000000E+00;  4.0001961E+04;  2.6750032E-02;  0.0000000E+00; -1.4355062E-03;  2.2126631E+03;
  6.3172680E-01;  9.9999998E-03; -2.2992542E-01;6296;  8.6558703E-03;  0.0000000E+00;  6.3191063E-04;  9.9853619E+02;  1.0215431E-01; -1.2127559E+03;3;  1.3015786E+00;  0.0000000E+00; -1.7444378E-02;0;  2.4247635E-02;  3.8221418E+04;  0.0000000E+00;  4.4425078E-02;  4.0000000E+04;  0.0000000E+00;  4.0002125E+04;  2.5892321E-02;  0.0000000E+00; -1.6446857E-03;  2.1804170E+03;
  6.3162363E-01;  9.9999998E-03; -2.1989594E-01;6297;  8.0451285E-03;  0.0000000E+00;  7.6963083E-04;  9.9870508E+02;  1.0215443E-01; -1.0728092E+03;3;  1.2241558E+00;  0.0000000E+00; -1.5639314E-02;0;  2.2845136E-02;  3.8237211E+04;  0.0000000E+00; -2.4972074E-02;  4.0000000E+04;  0.0000000E+00;  3.9999117E+04;  2.5071060E-02;  0.0000000E+00; -2.2259243E-03;  1.7892701E+03;
  6.3153720E-01;  9.9999998E-03; -2.0990694E-01;6298;  7.5131226E-03;  0.0000000E+00;  8.6975371E-04;  9.9881702E+02;  1.0215411E-01; -9.8007104E+02;3;  1.1383432E+00;  0.0000000E+00; -4.0818797E-03;0;  2.1784449E-02;  3.8252477E+04;  0.0000000E+00; -8.9092985E-02;  4.0000000E+04;  0.0000000E+00;  3.9992090E+04;  2.4286008E-02;  0.0000000E+00; -2.5015587E-03;  9.1823682E+02;
  6.3146687E-01;  9.9999998E-03; -1.9993964E-01;6299;  7.2128768E-03;  0.0000000E+00;  8.3233515E-04;  9.9893909E+02;  1.0215338E-01; -8.7893811E+02;3;  1.0812153E+00;  0.0000000E+00; -6.4116698E-03;0;  2.0948332E-02;  3.8266633E+04;  0.0000000E+00; -1.3928482E-01;  4.0000000E+04;  0.0000000E+00;  3.9987184E+04;  2.3545578E-02;  0.0000000E+00; -2.5972468E-03;  3.7643222E+02;
  6.3140833E-01;  9.9999998E-03; -1.8996909E-01;6300;  7.0172767E-03;  0.0000000E+00;  7.6712074E-04;  9.9907910E+02;  1.0215213E-01; -7.6294141E+02;3;  1.0458574E+00;  0.0000000E+00; -1.2587068E-02;0;  2.0159746E-02;  3.8279383E+04;  0.0000000E+00; -1.7326459E-01;  4.0000000E+04;  0.0000000E+00;  3.9985820E+04;  2.2890100E-02;  0.0000000E+00; -2.7303540E-03;  2.6724429E+02;
  6.3136244E-01;  9.9999998E-03; -1.7998955E-01;6301;  6.8831015E-03;  0.0000000E+00;  7.0776028E-04;  9.9919116E+02;  1.0215112E-01; -6.7010449E+02;3;  1.0247911E+00;  0.0000000E+00; -1.9586615E-02;0;  1.9451290E-02;  3.8289809E+04;  0.0000000E+00; -1.9333138E-01;  4.0000000E+04;  0.0000000E+00;  3.9985086E+04;  2.2346737E-02;  0.0000000E+00; -2.8954465E-03;  2.8192749E+02;
  6.3133150E-01;  9.9999998E-03; -1.7000294E-01;6302;  6.8024863E-03;  0.0000000E+00;  6.5872242E-04;  9.9928009E+02;  1.0214944E-01; -5.9642755E+02;3;  1.0164850E+00;  0.0000000E+00; -2.4592340E-02;0;  1.8863376E-02;  3.8297664E+04;  0.0000000E+00; -2.0330387E-01;  4.0000000E+04;  0.0000000E+00;  3.9984543E+04;  2.1930763E-02;  0.0000000E+00; -3.0673882E-03;  3.0084579E+02;
  6.3131744E-01;  9.9999998E-03; -1.6001174E-01;6303;  6.7592473E-03;  0.0000000E+00;  6.1733800E-04;  9.9933679E+02;  1.0214797E-01; -5.4946594E+02;3;  1.0104032E+00;  0.0000000E+00; -2.8484378E-02;0;  1.8416595E-02;  3.8303488E+04;  0.0000000E+00; -2.0575863E-01;  4.0000000E+04;  0.0000000E+00;  3.9984344E+04;  2.1648727E-02;  0.0000000E+00; -3.2321333E-03;  3.2065485E+02;
  6.3132018E-01;  9.9999998E-03; -1.5001801E-01;6304;  6.7513124E-03;  0.0000000E+00;  5.8202812E-04;  9.9937115E+02;  1.0214671E-01; -5.2097290E+02;3;  1.0123204E+00;  0.0000000E+00; -2.9958000E-02;0;  1.8110836E-02;  3.8307551E+04;  0.0000000E+00; -2.0068026E-01;  4.0000000E+04;  0.0000000E+00;  3.9984012E+04;  2.1494608E-02;  0.0000000E+00; -3.3837729E-03;  3.3952585E+02;
  6.3133866E-01;  9.9999998E-03; -1.4002295E-01;6305;  6.7717205E-03;  0.0000000E+00;  5.5243075E-04;  9.9938373E+02;  1.0214566E-01; -5.1055347E+02;3;  1.0201243E+00;  0.0000000E+00; -2.9136039E-02;0;  1.7933346E-02;  3.8310445E+04;  0.0000000E+00; -1.8656747E-01;  4.0000000E+04;  0.0000000E+00;  3.9983410E+04;  2.1454083E-02;  0.0000000E+00; -3.5207360E-03;  3.4389716E+02;
  6.3137132E-01;  9.9999998E-03; -1.3002697E-01;6306;  6.8237437E-03;  0.0000000E+00;  5.2762852E-04;  9.9939124E+02;  1.0214410E-01; -5.0433142E+02;3;  1.0315994E+00;  0.0000000E+00; -2.6077570E-02;0;  1.7861402E-02;  3.8312219E+04;  0.0000000E+00; -1.6284661E-01;  4.0000000E+04;  0.0000000E+00;  3.9983426E+04;  2.1505512E-02;  0.0000000E+00; -3.6441104E-03;  3.2009268E+02;
  6.3141596E-01;  9.9999998E-03; -1.2002981E-01;6307;  6.8959463E-03;  0.0000000E+00;  5.0520495E-04;  9.9938922E+02;  1.0214268E-01; -5.0601038E+02;3;  1.0492358E+00;  0.0000000E+00; -2.1718506E-02;0;  1.7869158E-02;  3.8313062E+04;  0.0000000E+00; -1.3114789E-01;  4.0000000E+04;  0.0000000E+00;  3.9984055E+04;  2.1625664E-02;  0.0000000E+00; -3.7565071E-03;  2.6431253E+02;
  6.3146913E-01;  9.9999998E-03; -1.1003114E-01;6308;  6.9753919E-03;  0.0000000E+00;  4.8136615E-04;  9.9938818E+02;  1.0214174E-01; -5.0689923E+02;3;  1.0694805E+00;  0.0000000E+00; -1.5424410E-02;0;  1.7929239E-02;  3.8313629E+04;  0.0000000E+00; -9.4962589E-02;  4.0000000E+04;  0.0000000E+00;  3.9984344E+04;  2.1789469E-02;  0.0000000E+00; -3.8602289E-03;  1.8390158E+02;
  6.4174020E-01;  9.9999998E-03; -2.7003482E-01;6353;  1.0276239E-02;  0.0000000E+00;  8.9256960E-04;  9.9774506E+02;  1.0317664E-01; -1.8681941E+03;3;  1.4627109E+00;  0.0000000E+00;  4.4943441E-02;0;  2.8618922E-02;  3.7407855E+04;  0.0000000E+00; -9.3055435E-02;  4.0000000E+04;  0.0000000E+00;  4.0001816E+04;  3.0351952E-02;  0.0000000E+00; -1.7330289E-03;  3.0752925E+03;
  6.4172524E-01;  9.9999998E-03; -2.6001891E-01;6354;  9.9148303E-03;  0.0000000E+00;  8.4851094E-04;  9.9793390E+02;  1.0317994E-01; -1.7117047E+03;3;  1.4432634E+00;  0.0000000E+00;  2.7618743E-02;0;  2.7852623E-02;  3.7420602E+04;  0.0000000E+00;  1.2502107E-01;  4.0000000E+04;  0.0000000E+00;  3.9999941E+04;  2.9526930E-02;  0.0000000E+00; -1.6743072E-03;  2.8176572E+03;
  6.4169419E-01;  9.9999998E-03; -2.4999884E-01;6355;  9.5174955E-03;  0.0000000E+00;  8.2225376E-04;  9.9812860E+02;  1.0318225E-01; -1.5504253E+03;3;  1.4196918E+00;  0.0000000E+00;  1.4955919E-02;0;  2.6878241E-02;  3.7435234E+04;  0.0000000E+00;  2.1017526E-01;  4.0000000E+04;  0.0000000E+00;  3.9998195E+04;  2.8689345E-02;  0.0000000E+00; -1.8111044E-03;  2.5879963E+03;
  6.4164710E-01;  9.9999998E-03; -2.3997204E-01;6356;  9.1158338E-03;  0.0000000E+00;  7.8560883E-04;  9.9834351E+02;  1.0318413E-01; -1.3723562E+03;3;  1.3856622E+00;  0.0000000E+00;  4.5036860E-03;0;  2.5948172E-02;  3.7450910E+04;  0.0000000E+00;  1.9256693E-01;  4.0000000E+04;  0.0000000E+00;  3.9997055E+04;  2.7842425E-02;  0.0000000E+00; -1.8942518E-03;  2.4235881E+03;
  6.4157915E-01;  9.9999998E-03; -2.2993363E-01;6357;  8.6720409E-03;  0.0000000E+00;  7.7642023E-04;  9.9857190E+02;  1.0318504E-01; -1.1831764E+03;3;  1.3288535E+00;  0.0000000E+00;  1.5019204E-03;0;  2.4896823E-02;  3.7467895E+04;  0.0000000E+00;  1.1527976E-01;  4.0000000E+04;  0.0000000E+00;  3.9996641E+04;  2.6997067E-02;  0.0000000E+00; -2.1002446E-03;  2.3542441E+03;
  6.4149761E-01;  9.9999998E-03; -2.1990059E-01;6358;  8.0431141E-03;  0.0000000E+00;  9.3286729E-04;  9.9875543E+02;  1.0318518E-01; -1.0310819E+03;3;  1.2476292E+00;  0.0000000E+00;  8.9913383E-03;0;  2.3577539E-02;  3.7484660E+04;  0.0000000E+00;  1.6152332E-02;  4.0000000E+04;  0.0000000E+00;  3.9992547E+04;  2.6177332E-02;  0.0000000E+00; -2.5997921E-03;  1.8700553E+03;
  6.4142942E-01;  9.9999998E-03; -2.0990619E-01;6359;  7.5517702E-03;  0.0000000E+00;  1.0020137E-03;  9.9887659E+02;  1.0318411E-01; -9.3073914E+02;3;  1.1689107E+00;  0.0000000E+00;  1.4090911E-02;0;  2.2650741E-02;  3.7501051E+04;  0.0000000E+00; -7.8991733E-02;  4.0000000E+04;  0.0000000E+00;  3.9985141E+04;  2.5399454E-02;  0.0000000E+00; -2.7487124E-03;  9.3738245E+02;
  6.4137232E-01;  9.9999998E-03; -1.9993539E-01;6360;  7.2468100E-03;  0.0000000E+00;  9.4940112E-04;  9.9900629E+02;  1.0318274E-01; -8.2328534E+02;3;  1.1127874E+00;  0.0000000E+00;  1.1693605E-02;0;  2.1891432E-02;  3.7516430E+04;  0.0000000E+00; -1.5666126E-01;  4.0000000E+04;  0.0000000E+00;  3.9980199E+04;  2.4682984E-02;  0.0000000E+00; -2.7915514E-03;  3.5612247E+02;
  6.4132482E-01;  9.9999998E-03; -1.8996546E-01;6361;  7.0392862E-03;  0.0000000E+00;  8.6901354E-04;  9.9914984E+02;  1.0318115E-01; -7.0432574E+02;3;  1.0683544E+00;  0.0000000E+00;  4.6288474E-03;0;  2.1154106E-02;  3.7529910E+04;  0.0000000E+00; -2.1330556E-01;  4.0000000E+04;  0.0000000E+00;  3.9977938E+04;  2.4053022E-02;  0.0000000E+00; -2.8989171E-03;  3.1710620E+02;
  6.4129245E-01;  9.9999998E-03; -1.7998783E-01;6362;  6.8997145E-03;  0.0000000E+00;  7.9436123E-04;  9.9927710E+02;  1.0317864E-01; -5.9889667E+02;3;  1.0429602E+00;  0.0000000E+00; -4.1455110E-03;0;  2.0478964E-02;  3.7541625E+04;  0.0000000E+00; -2.5220683E-01;  4.0000000E+04;  0.0000000E+00;  3.9977441E+04;  2.3532642E-02;  0.0000000E+00; -3.0536789E-03;  3.8989120E+02;
  6.4128399E-01;  9.9999998E-03; -1.7000052E-01;6363;  6.8099275E-03;  0.0000000E+00;  7.2931172E-04;  9.9937622E+02;  1.0317668E-01; -5.1677551E+02;3;  1.0261927E+00;  0.0000000E+00; -1.2417750E-02;0;  1.9916346E-02;  3.7550754E+04;  0.0000000E+00; -2.8003478E-01;  4.0000000E+04;  0.0000000E+00;  3.9977281E+04;  2.3139382E-02;  0.0000000E+00; -3.2230350E-03;  4.4381079E+02;
  6.4129794E-01;  9.9999998E-03; -1.6000547E-01;6364;  6.7658019E-03;  0.0000000E+00;  6.7315361E-04;  9.9944788E+02;  1.0317381E-01; -4.5741916E+02;3;  1.0203384E+00;  0.0000000E+00; -1.7797899E-02;0;  1.9491218E-02;  3.7558051E+04;  0.0000000E+00; -3.0188569E-01;  4.0000000E+04;  0.0000000E+00;  3.9977238E+04;  2.2879180E-02;  0.0000000E+00; -3.3879611E-03;  4.9040756E+02;
  6.4132583E-01;  9.9999998E-03; -1.5000747E-01;6365;  6.7553557E-03;  0.0000000E+00;  6.2655337E-04;  9.9949451E+02;  1.0317156E-01; -4.1880298E+02;3;  1.0204599E+00;  0.0000000E+00; -2.2297865E-02;0;  1.9207003E-02;  3.7563672E+04;  0.0000000E+00; -3.1825945E-01;  4.0000000E+04;  0.0000000E+00;  3.9976758E+04;  2.2746487E-02;  0.0000000E+00; -3.5394838E-03;  5.2876495E+02;
  6.4136416E-01;  9.9999998E-03; -1.4000869E-01;6366;  6.7808134E-03;  0.0000000E+00;  5.8486365E-04;  9.9952228E+02;  1.0316910E-01; -3.9579129E+02;3;  1.0278904E+00;  0.0000000E+00; -2.3358785E-02;0;  1.9051082E-02;  3.7567594E+04;  0.0000000E+00; -3.2547432E-01;  4.0000000E+04;  0.0000000E+00;  3.9976660E+04;  2.2726124E-02;  0.0000000E+00; -3.6750408E-03;  5.4619513E+02;
  6.4141196E-01;  9.9999998E-03; -1.3000932E-01;6367;  6.8378188E-03;  0.0000000E+00;  5.5049639E-04;  9.9954053E+02;  1.0316669E-01; -3.8068060E+02;3;  1.0440979E+00;  0.0000000E+00; -2.1453574E-02;0;  1.9001516E-02;  3.7570824E+04;  0.0000000E+00; -3.1950659E-01;  4.0000000E+04;  0.0000000E+00;  3.9976906E+04;  2.2797517E-02;  0.0000000E+00; -3.7960019E-03;  5.3132959E+02;
  6.4146727E-01;  9.9999998E-03; -1.2000937E-01;6368;  6.9200564E-03;  0.0000000E+00;  5.2352936E-04;  9.9955884E+02;  1.0316452E-01; -3.6547113E+02;3;  1.0613196E+00;  0.0000000E+00; -1.7932735E-02;0;  1.9031446E-02;  3.7573125E+04;  0.0000000E+00; -2.9892853E-01;  4.0000000E+04;  0.0000000E+00;  3.9977527E+04;  2.2937113E-02;  0.0000000E+00; -3.9056663E-03;  4.8287408E+02;
  6.4152640E-01;  9.9999998E-03; -1.1000901E-01;6369;  7.0236120E-03;  0.0000000E+00;  4.9796683E-04;  9.9957080E+02;  1.0316254E-01; -3.5559488E+02;3;  1.0864869E+00;  0.0000000E+00; -1.1909345E-02;0;  1.9113040E-02;  3.7575711E+04;  0.0000000E+00; -2.6537865E-01;  4.0000000E+04;  0.0000000E+00;  3.9978262E+04;  2.3120040E-02;  0.0000000E+00; -4.0070000E-03;  4.1189914E+02;
  6.5151685E-01;  9.9999998E-03; -1.0999376E-01;6430;  7.2082421E-03;  0.0000000E+00;  5.3509715E-04;  1.0000194E+03;  1.0449031E-01;  1.6098310E+01;3;  1.1448474E+00;  0.0000000E+00;  7.3553121E-04;0;  2.0262510E-02;  3.6658574E+04;  0.0000000E+00; -4.1951302E-01;  4.0000000E+04;  0.0000000E+00;  3.9969750E+04;  2.4419658E-02;  0.0000000E+00; -4.1571492E-03;  6.5975745E+02;
  6.5145707E-01;  9.9999998E-03; -1.1999471E-01;6429;  7.0461347E-03;  0.0000000E+00;  5.5865524E-04;  9.9999670E+02;  1.0449348E-01; -2.7159727E+00;3;  1.0955416E+00;  0.0000000E+00; -6.9484767E-03;0;  2.0203618E-02;  3.6655016E+04;  0.0000000E+00; -4.4661704E-01;  4.0000000E+04;  0.0000000E+00;  3.9968930E+04;  2.4261901E-02;  0.0000000E+00; -4.0582828E-03;  7.1577478E+02;
  6.5140539E-01;  9.9999998E-03; -1.2999527E-01;6428;  6.9277612E-03;  0.0000000E+00;  5.8929512E-04;  9.9997870E+02;  1.0449724E-01; -1.7629131E+01;3;  1.0679753E+00;  0.0000000E+00; -1.1657484E-02;0;  2.0197177E-02;  3.6651836E+04;  0.0000000E+00; -4.5272973E-01;  4.0000000E+04;  0.0000000E+00;  3.9968520E+04;  2.4148421E-02;  0.0000000E+00; -3.9512445E-03;  7.4324707E+02;
  6.5136528E-01;  9.9999998E-03; -1.3999514E-01;6427;  6.8520666E-03;  0.0000000E+00;  6.2801276E-04;  9.9995612E+02;  1.0450092E-01; -3.6344650E+01;3;  1.0511937E+00;  0.0000000E+00; -1.3368231E-02;0;  2.0268086E-02;  3.6647441E+04;  0.0000000E+00; -4.3847823E-01;  4.0000000E+04;  0.0000000E+00;  3.9968254E+04;  2.4100721E-02;  0.0000000E+00; -3.8326350E-03;  7.3389008E+02;
  6.5133911E-01;  9.9999998E-03; -1.4999406E-01;6426;  6.8160533E-03;  0.0000000E+00;  6.7852769E-04;  9.9992255E+02;  1.0450477E-01; -6.4146332E+01;3;  1.0434085E+00;  0.0000000E+00; -9.9332603E-03;0;  2.0442087E-02;  3.6642367E+04;  0.0000000E+00; -4.0846354E-01;  4.0000000E+04;  0.0000000E+00;  3.9967863E+04;  2.4140842E-02;  0.0000000E+00; -3.6987551E-03;  6.9092035E+02;
  6.5132862E-01;  9.9999998E-03; -1.5999165E-01;6425;  6.8193139E-03;  0.0000000E+00;  7.3968124E-04;  9.9986737E+02;  1.0450931E-01; -1.0987344E+02;3;  1.0427407E+00;  0.0000000E+00; -4.5759534E-03;0;  2.0740537E-02;  3.6635785E+04;  0.0000000E+00; -3.6990777E-01;  4.0000000E+04;  0.0000000E+00;  3.9967773E+04;  2.4288880E-02;  0.0000000E+00; -3.5483427E-03;  6.2634772E+02;
  6.5155119E-01;  9.9999998E-03; -2.7006555E-01;6414;  1.0239965E-02;  0.0000000E+00;  1.0011914E-03;  9.9792743E+02;  1.0452000E-01; -1.7170873E+03;3;  1.4705929E+00;  0.0000000E+00;  5.6289885E-02;0;  2.9300876E-02;  3.6470473E+04;  0.0000000E+00; -9.8735487E-01;  4.0000000E+04;  0.0000000E+00;  3.9991496E+04;  3.1991102E-02;  0.0000000E+00; -2.6902256E-03;  3.2994216E+03;
  6.5133333E-01;  9.9999998E-03; -1.6998748E-01;6424;  6.8684164E-03;  0.0000000E+00;  8.0517185E-04;  9.9979028E+02;  1.0451332E-01; -1.7372348E+02;3;  1.0554163E+00;  0.0000000E+00;  4.3020733E-03;0;  2.1174530E-02;  3.6627492E+04;  0.0000000E+00; -3.2790667E-01;  4.0000000E+04;  0.0000000E+00;  3.9968258E+04;  2.4559623E-02;  0.0000000E+00; -3.3850926E-03;  5.5068939E+02;
  6.5154511E-01;  9.9999998E-03; -2.6004985E-01;6415;  9.8997001E-03;  0.0000000E+00;  9.5731753E-04;  9.9814325E+02;  1.0452384E-01; -1.5382775E+03;3;  1.4515196E+00;  0.0000000E+00;  4.3851528E-02;0;  2.8637031E-02;  3.6485348E+04;  0.0000000E+00; -3.0962169E-01;  4.0000000E+04;  0.0000000E+00;  3.9989637E+04;  3.1096753E-02;  0.0000000E+00; -2.4597212E-03;  2.6788640E+03;
  6.5135121E-01;  9.9999998E-03; -1.7998041E-01;6423;  6.9661974E-03;  0.0000000E+00;  8.7996293E-04;  9.9968231E+02;  1.0451690E-01; -2.6320242E+02;3;  1.0716329E+00;  0.0000000E+00;  1.3426091E-02;0;  2.1737605E-02;  3.6617035E+04;  0.0000000E+00; -2.8109539E-01;  4.0000000E+04;  0.0000000E+00;  3.9968637E+04;  2.4958041E-02;  0.0000000E+00; -3.2204357E-03;  4.6154800E+02;
  6.5153432E-01;  9.9999998E-03; -2.5003055E-01;6416;  9.5295692E-03;  0.0000000E+00;  9.3081087E-04;  9.9837598E+02;  1.0452656E-01; -1.3454928E+03;3;  1.4347583E+00;  0.0000000E+00;  2.8956119E-02;0;  2.7774399E-02;  3.6501273E+04;  0.0000000E+00;  6.0440090E-02;  4.0000000E+04;  0.0000000E+00;  3.9987766E+04;  3.0205850E-02;  0.0000000E+00; -2.4314509E-03;  2.3608062E+03;
  6.5137827E-01;  9.9999998E-03; -1.8996947E-01;6422;  7.1247546E-03;  0.0000000E+00;  9.6314447E-04;  9.9954724E+02;  1.0452082E-01; -3.7510049E+02;3;  1.1034247E+00;  0.0000000E+00;  2.3298049E-02;0;  2.2401525E-02;  3.6604379E+04;  0.0000000E+00; -2.2233713E-01;  4.0000000E+04;  0.0000000E+00;  3.9969320E+04;  2.5478784E-02;  0.0000000E+00; -3.0772595E-03;  3.4476962E+02;
  6.5140647E-01;  9.9999998E-03; -1.9995548E-01;6421;  7.3510725E-03;  0.0000000E+00;  1.0422312E-03;  9.9938995E+02;  1.0452387E-01; -5.0541782E+02;3;  1.1459882E+00;  0.0000000E+00;  2.9609190E-02;0;  2.3118323E-02;  3.6589230E+04;  0.0000000E+00; -1.4396702E-01;  4.0000000E+04;  0.0000000E+00;  3.9971395E+04;  2.6106369E-02;  0.0000000E+00; -2.9880463E-03;  3.0300494E+02;
  6.5151280E-01;  9.9999998E-03; -2.4000520E-01;6417;  9.1441479E-03;  0.0000000E+00;  9.0355019E-04;  9.9861932E+02;  1.0452791E-01; -1.1438689E+03;3;  1.4029049E+00;  0.0000000E+00;  2.1037314E-02;0;  2.6904732E-02;  3.6518398E+04;  0.0000000E+00;  1.8592103E-01;  4.0000000E+04;  0.0000000E+00;  3.9986391E+04;  2.9323544E-02;  0.0000000E+00; -2.4188124E-03;  2.1879270E+03;
  6.5142578E-01;  9.9999998E-03; -2.0994441E-01;6420;  7.6638418E-03;  0.0000000E+00;  1.0988833E-03;  9.9922595E+02;  1.0452623E-01; -6.4126581E+02;3;  1.2064030E+00;  0.0000000E+00;  3.3722349E-02;0;  2.3841718E-02;  3.6572766E+04;  0.0000000E+00; -4.3920897E-02;  4.0000000E+04;  0.0000000E+00;  3.9975180E+04;  2.6820919E-02;  0.0000000E+00; -2.9792003E-03;  7.2486682E+02;
  6.5147805E-01;  9.9999998E-03; -2.2997180E-01;6418;  8.6812414E-03;  0.0000000E+00;  9.3303225E-04;  9.9886737E+02;  1.0452833E-01; -9.3834381E+02;3;  1.3487215E+00;  0.0000000E+00;  2.0617908E-02;0;  2.5832821E-02;  3.6536645E+04;  0.0000000E+00;  1.6128972E-01;  4.0000000E+04;  0.0000000E+00;  3.9985207E+04;  2.8453296E-02;  0.0000000E+00; -2.6204747E-03;  2.0246294E+03;
  6.5144122E-01;  9.9999998E-03; -2.1994649E-01;6419;  8.1017418E-03;  0.0000000E+00;  1.0697271E-03;  9.9906604E+02;  1.0452799E-01; -7.7375592E+02;3;  1.2794468E+00;  0.0000000E+00;  2.7857926E-02;0;  2.4655029E-02;  3.6554859E+04;  0.0000000E+00;  6.7130379E-02;  4.0000000E+04;  0.0000000E+00;  3.9981117E+04;  2.7606785E-02;  0.0000000E+00; -2.9517568E-03;  1.4704841E+03;
  6.6158980E-01;  9.9999998E-03; -1.0997214E-01;6491;  7.7925534E-03;  0.0000000E+00;  5.8850239E-04;  1.0004679E+03;  1.0611613E-01;  3.8764337E+02;3;  1.3466141E+00;  0.0000000E+00;  2.1982493E-02;0;  2.1407429E-02;  3.5571410E+04;  0.0000000E+00; -5.1994294E-01;  4.0000000E+04;  0.0000000E+00;  3.9959602E+04;  2.5718821E-02;  0.0000000E+00; -4.3113912E-03;  8.4712732E+02;
  6.6152751E-01;  9.9999998E-03; -1.1997449E-01;6490;  7.4448306E-03;  0.0000000E+00;  6.1472744E-04;  1.0004572E+03;  1.0612210E-01;  3.7875473E+02;3;  1.2150893E+00;  0.0000000E+00;  1.0265943E-02;0;  2.1387087E-02;  3.5567781E+04;  0.0000000E+00; -5.3622687E-01;  4.0000000E+04;  0.0000000E+00;  3.9958703E+04;  2.5601367E-02;  0.0000000E+00; -4.2142789E-03;  8.8310297E+02;
  6.6146934E-01;  9.9999998E-03; -1.2997802E-01;6489;  7.2006392E-03;  0.0000000E+00;  6.4212596E-04;  1.0004534E+03;  1.0612801E-01;  3.7559433E+02;3;  1.1411121E+00;  0.0000000E+00;  2.8998435E-03;0;  2.1428922E-02;  3.5563820E+04;  0.0000000E+00; -5.2516341E-01;  4.0000000E+04;  0.0000000E+00;  3.9957938E+04;  2.5537448E-02;  0.0000000E+00; -4.1085253E-03;  8.8286731E+02;
  6.6142136E-01;  9.9999998E-03; -1.3998207E-01;6488;  7.0576114E-03;  0.0000000E+00;  6.8403478E-04;  1.0004455E+03;  1.0613424E-01;  3.6907599E+02;3;  1.1041706E+00;  0.0000000E+00;  3.0898803E-03;0;  2.1551935E-02;  3.5559461E+04;  0.0000000E+00; -4.8990676E-01;  4.0000000E+04;  0.0000000E+00;  3.9957910E+04;  2.5542619E-02;  0.0000000E+00; -3.9906842E-03;  8.4252313E+02;
  6.6138703E-01;  9.9999998E-03; -1.4998622E-01;6487;  6.9867312E-03;  0.0000000E+00;  7.3745719E-04;  1.0004193E+03;  1.0614074E-01;  3.4734821E+02;3;  1.0913662E+00;  0.0000000E+00;  4.6676425E-03;0;  2.1774128E-02;  3.5553926E+04;  0.0000000E+00; -4.3812558E-01;  4.0000000E+04;  0.0000000E+00;  3.9957410E+04;  2.5631189E-02;  0.0000000E+00; -3.8570620E-03;  7.6861401E+02;
  6.6136765E-01;  9.9999998E-03; -1.5999025E-01;6486;  6.9808303E-03;  0.0000000E+00;  8.0164749E-04;  1.0003687E+03;  1.0614753E-01;  3.0537408E+02;3;  1.0916926E+00;  0.0000000E+00;  1.0215719E-02;0;  2.2114631E-02;  3.5546887E+04;  0.0000000E+00; -3.7929273E-01;  4.0000000E+04;  0.0000000E+00;  3.9957066E+04;  2.5821490E-02;  0.0000000E+00; -3.7068590E-03;  6.7393103E+02;
  6.6136390E-01;  9.9999998E-03; -1.6999394E-01;6485;  7.0293727E-03;  0.0000000E+00;  8.7869394E-04;  1.0002941E+03;  1.0615339E-01;  2.4364743E+02;3;  1.1020417E+00;  0.0000000E+00;  2.1041799E-02;0;  2.2581518E-02;  3.5537668E+04;  0.0000000E+00; -3.1885928E-01;  4.0000000E+04;  0.0000000E+00;  3.9957523E+04;  2.6126884E-02;  0.0000000E+00; -3.5453667E-03;  5.6673236E+02;
  6.6137528E-01;  9.9999998E-03; -1.7999676E-01;6484;  7.1360157E-03;  0.0000000E+00;  9.5437502E-04;  1.0001882E+03;  1.0615946E-01;  1.5594621E+02;3;  1.1243315E+00;  0.0000000E+00;  2.9970063E-02;0;  2.3169139E-02;  3.5526305E+04;  0.0000000E+00; -2.5450918E-01;  4.0000000E+04;  0.0000000E+00;  3.9958039E+04;  2.6555011E-02;  0.0000000E+00; -3.3858721E-03;  4.4293539E+02;
  6.6139972E-01;  9.9999998E-03; -1.8999943E-01;6483;  7.3177521E-03;  0.0000000E+00;  1.0297901E-03;  1.0000464E+03;  1.0616510E-01;  3.8418667E+01;3;  1.1578635E+00;  0.0000000E+00;  3.6212251E-02;0;  2.3854800E-02;  3.5512512E+04;  0.0000000E+00; -1.7857331E-01;  4.0000000E+04;  0.0000000E+00;  3.9958918E+04;  2.7106190E-02;  0.0000000E+00; -3.2513898E-03;  2.9415912E+02;
  6.6143298E-01;  9.9999998E-03; -2.0000301E-01;6482;  7.5748954E-03;  0.0000000E+00;  1.0937615E-03;  9.9986945E+02;  1.0617015E-01; -1.0814509E+02;3;  1.2107980E+00;  0.0000000E+00;  4.1572347E-02;0;  2.4599509E-02;  3.5496648E+04;  0.0000000E+00; -8.4056728E-02;  4.0000000E+04;  0.0000000E+00;  3.9960418E+04;  2.7769160E-02;  0.0000000E+00; -3.1696500E-03;  2.0511243E+02;
  6.6147041E-01;  9.9999998E-03; -2.1000895E-01;6481;  7.8978380E-03;  0.0000000E+00;  1.1382260E-03;  9.9966687E+02;  1.0617392E-01; -2.7599219E+02;3;  1.2612087E+00;  0.0000000E+00;  4.4158150E-02;0;  2.5361942E-02;  3.5478395E+04;  0.0000000E+00;  2.7302841E-02;  4.0000000E+04;  0.0000000E+00;  3.9962719E+04;  2.8525937E-02;  0.0000000E+00; -3.1639950E-03;  4.5570529E+02;
  6.6150796E-01;  9.9999998E-03; -2.2001801E-01;6480;  8.3077122E-03;  0.0000000E+00;  1.1337273E-03;  9.9944904E+02;  1.0617704E-01; -4.5648093E+02;3;  1.3222594E+00;  0.0000000E+00;  3.8647305E-02;0;  2.6172135E-02;  3.5458797E+04;  0.0000000E+00;  1.3617751E-01;  4.0000000E+04;  0.0000000E+00;  3.9965902E+04;  2.9364631E-02;  0.0000000E+00; -3.1924946E-03;  9.1836157E+02;
  6.6154373E-01;  9.9999998E-03; -2.3003244E-01;6479;  8.7859891E-03;  0.0000000E+00;  1.0538398E-03;  9.9921484E+02;  1.0617916E-01; -6.5050012E+02;3;  1.3785845E+00;  0.0000000E+00;  3.3157431E-02;0;  2.7207443E-02;  3.5438617E+04;  0.0000000E+00;  1.9518259E-01;  4.0000000E+04;  0.0000000E+00;  3.9970172E+04;  3.0270448E-02;  0.0000000E+00; -3.0630047E-03;  1.4359933E+03;
  6.6157353E-01;  9.9999998E-03; -2.4005447E-01;6478;  9.2402007E-03;  0.0000000E+00;  9.9999236E-04;  9.9895441E+02;  1.0617968E-01; -8.6624713E+02;3;  1.4233713E+00;  0.0000000E+00;  3.5127889E-02;0;  2.8344385E-02;  3.5418938E+04;  0.0000000E+00;  1.1793883E-01;  4.0000000E+04;  0.0000000E+00;  3.9972262E+04;  3.1217515E-02;  0.0000000E+00; -2.8731294E-03;  1.7249434E+03;
  6.6157621E-01;  9.9999998E-03; -2.5007433E-01;6477;  9.6016834E-03;  0.0000000E+00;  1.0191997E-03;  9.9868207E+02;  1.0617909E-01; -1.0918704E+03;3;  1.4534234E+00;  0.0000000E+00;  4.0370695E-02;0;  2.9240092E-02;  3.5399758E+04;  0.0000000E+00; -2.3960462E-01;  4.0000000E+04;  0.0000000E+00;  3.9974285E+04;  3.2179881E-02;  0.0000000E+00; -2.9397889E-03;  2.0349969E+03;
  6.6152924E-01;  9.9999998E-03; -2.7010480E-01;6475;  1.0258708E-02;  0.0000000E+00;  1.0944802E-03;  9.9818689E+02;  1.0617355E-01; -1.5021304E+03;3;  1.4823936E+00;  0.0000000E+00;  6.2239528E-02;0;  3.0689685E-02;  3.5366020E+04;  0.0000000E+00; -2.4540133E+00;  4.0000000E+04;  0.0000000E+00;  3.9978590E+04;  3.4157209E-02;  0.0000000E+00; -3.4675251E-03;  4.7542910E+03;
  6.6154635E-01;  9.9999998E-03; -2.6009083E-01;6476;  9.9352617E-03;  0.0000000E+00;  1.0498194E-03;  9.9843500E+02;  1.0617708E-01; -1.2965559E+03;3;  1.4691792E+00;  0.0000000E+00;  5.2095406E-02;0;  3.0048050E-02;  3.5382574E+04;  0.0000000E+00; -1.0665764E+00;  4.0000000E+04;  0.0000000E+00;  3.9976398E+04;  3.3158556E-02;  0.0000000E+00; -3.1105061E-03;  2.8898882E+03;
  6.7168289E-01;  9.9999998E-03; -2.7014938E-01;6536;  1.0378161E-02;  0.0000000E+00;  1.1623063E-03;  9.9830255E+02;  1.0811607E-01; -1.4062812E+03;3;  1.5170337E+00;  0.0000000E+00;  6.8631582E-02;0;  3.2884650E-02;  3.4118320E+04;  0.0000000E+00; -4.0388517E+00;  4.0000000E+04;  0.0000000E+00;  3.9964973E+04;  3.6830626E-02;  0.0000000E+00; -3.9459751E-03;  7.2098667E+03;
  6.7162460E-01;  9.9999998E-03; -2.6013744E-01;6537;  1.0055519E-02;  0.0000000E+00;  1.1177316E-03;  9.9858099E+02;  1.0811608E-01; -1.1756211E+03;3;  1.4932528E+00;  0.0000000E+00;  5.9960529E-02;0;  3.2113023E-02;  3.4138703E+04;  0.0000000E+00; -2.0580258E+00;  4.0000000E+04;  0.0000000E+00;  3.9962281E+04;  3.5664190E-02;  0.0000000E+00; -3.5511653E-03;  4.1027026E+03;
  6.7160428E-01;  9.9999998E-03; -2.5012481E-01;6538;  9.7447177E-03;  0.0000000E+00;  1.0857621E-03;  9.9886029E+02;  1.0811627E-01; -9.4422021E+02;3;  1.4758105E+00;  0.0000000E+00;  5.0913565E-02;0;  3.1210708E-02;  3.4158699E+04;  0.0000000E+00; -7.5310445E-01;  4.0000000E+04;  0.0000000E+00;  3.9959785E+04;  3.4535415E-02;  0.0000000E+00; -3.3247084E-03;  2.1976479E+03;
  6.7159355E-01;  9.9999998E-03; -2.4011156E-01;6539;  9.4137909E-03;  0.0000000E+00;  1.0674098E-03;  9.9914508E+02;  1.0811513E-01; -7.0827625E+02;3;  1.4519866E+00;  0.0000000E+00;  4.3694764E-02;0;  3.0225100E-02;  3.4178723E+04;  0.0000000E+00; -7.3496424E-02;  4.0000000E+04;  0.0000000E+00;  3.9957223E+04;  3.3443891E-02;  0.0000000E+00; -3.2187903E-03;  1.3767968E+03;
  6.7158216E-01;  9.9999998E-03; -2.3010188E-01;6540;  9.0088388E-03;  0.0000000E+00;  1.1145388E-03;  9.9940936E+02;  1.0811218E-01; -4.8931949E+02;3;  1.4234594E+00;  0.0000000E+00;  3.7271634E-02;0;  2.9037595E-02;  3.4199863E+04;  0.0000000E+00;  1.8442528E-01;  4.0000000E+04;  0.0000000E+00;  3.9953676E+04;  3.2384779E-02;  0.0000000E+00; -3.3471845E-03;  9.2983405E+02;
  6.7157173E-01;  9.9999998E-03; -2.2009850E-01;6541;  8.6234836E-03;  0.0000000E+00;  1.1358114E-03;  9.9966107E+02;  1.0810775E-01; -2.8078220E+02;3;  1.3856924E+00;  0.0000000E+00;  3.7118599E-02;0;  2.8059365E-02;  3.4221176E+04;  0.0000000E+00;  2.1000969E-01;  4.0000000E+04;  0.0000000E+00;  3.9950508E+04;  3.1393602E-02;  0.0000000E+00; -3.3342375E-03;  5.2845502E+02;
  6.7155874E-01;  9.9999998E-03; -2.1008189E-01;6542;  8.2907397E-03;  0.0000000E+00;  1.1032766E-03;  9.9992175E+02;  1.0810217E-01; -6.4837669E+01;3;  1.3365723E+00;  0.0000000E+00;  3.9806996E-02;0;  2.7206691E-02;  3.4241602E+04;  0.0000000E+00;  1.3324530E-01;  4.0000000E+04;  0.0000000E+00;  3.9949645E+04;  3.0484859E-02;  0.0000000E+00; -3.2781675E-03;  3.7064972E+02;
  6.7154306E-01;  9.9999998E-03; -2.0005578E-01;6543;  7.9435520E-03;  0.0000000E+00;  1.0816597E-03;  1.0001545E+03;  1.0809516E-01;  1.2799638E+02;3;  1.2885644E+00;  0.0000000E+00;  4.1469075E-02;0;  2.6328884E-02;  3.4260992E+04;  0.0000000E+00;  2.9183699E-02;  4.0000000E+04;  0.0000000E+00;  3.9949000E+04;  2.9648485E-02;  0.0000000E+00; -3.3196006E-03;  2.4144705E+02;
  6.7152739E-01;  9.9999998E-03; -1.9003177E-01;6544;  7.6612150E-03;  0.0000000E+00;  1.0464434E-03;  1.0003365E+03;  1.0808740E-01;  2.7880692E+02;3;  1.2436432E+00;  0.0000000E+00;  3.9920934E-02;0;  2.5505148E-02;  3.4278160E+04;  0.0000000E+00; -6.9324523E-02;  4.0000000E+04;  0.0000000E+00;  3.9947918E+04;  2.8918639E-02;  0.0000000E+00; -3.4134900E-03;  1.6514012E+02;
  6.7151606E-01;  9.9999998E-03; -1.8001285E-01;6545;  7.4592363E-03;  0.0000000E+00;  9.9090603E-04;  1.0004783E+03;  1.0807878E-01;  3.9633447E+02;3;  1.2081964E+00;  0.0000000E+00;  3.6989499E-02;0;  2.4763046E-02;  3.4292574E+04;  0.0000000E+00; -1.5465079E-01;  4.0000000E+04;  0.0000000E+00;  3.9946688E+04;  2.8309617E-02;  0.0000000E+00; -3.5465714E-03;  2.8425613E+02;
  6.7151219E-01;  9.9999998E-03; -1.6999814E-01;6546;  7.3433090E-03;  0.0000000E+00;  9.2228519E-04;  1.0005757E+03;  1.0807087E-01;  4.7692477E+02;3;  1.1799450E+00;  0.0000000E+00;  2.8421905E-02;0;  2.4124701E-02;  3.4304582E+04;  0.0000000E+00; -2.3121956E-01;  4.0000000E+04;  0.0000000E+00;  3.9945875E+04;  2.7827527E-02;  0.0000000E+00; -3.7028263E-03;  4.4205026E+02;
  6.7151916E-01;  9.9999998E-03; -1.5998621E-01;6547;  7.3115877E-03;  0.0000000E+00;  8.4539648E-04;  1.0006415E+03;  1.0806111E-01;  5.3154053E+02;3;  1.1685476E+00;  0.0000000E+00;  2.1223042E-02;0;  2.3605241E-02;  3.4313930E+04;  0.0000000E+00; -3.0571359E-01;  4.0000000E+04;  0.0000000E+00;  3.9945633E+04;  2.7468469E-02;  0.0000000E+00; -3.8632278E-03;  5.8529156E+02;
  6.7153794E-01;  9.9999998E-03; -1.4997609E-01;6548;  7.3708603E-03;  0.0000000E+00;  7.7704358E-04;  1.0006650E+03;  1.0805163E-01;  5.5099677E+02;3;  1.1867677E+00;  0.0000000E+00;  1.2054615E-02;0;  2.3208898E-02;  3.4321020E+04;  0.0000000E+00; -3.8042960E-01;  4.0000000E+04;  0.0000000E+00;  3.9945801E+04;  2.7222829E-02;  0.0000000E+00; -4.0139318E-03;  7.1160736E+02;
  6.7156756E-01;  9.9999998E-03; -1.3996737E-01;6549;  7.5389454E-03;  0.0000000E+00;  7.2183216E-04;  1.0006697E+03;  1.0804205E-01;  5.5484851E+02;3;  1.2329592E+00;  0.0000000E+00;  7.5306697E-03;0;  2.2929968E-02;  3.4326160E+04;  0.0000000E+00; -4.5013848E-01;  4.0000000E+04;  0.0000000E+00;  3.9945391E+04;  2.7078463E-02;  0.0000000E+00; -4.1484949E-03;  8.1641681E+02;
  6.7160463E-01;  9.9999998E-03; -1.2996046E-01;6550;  7.8559406E-03;  0.0000000E+00;  6.7539100E-04;  1.0006509E+03;  1.0803253E-01;  5.3924402E+02;3;  1.3417987E+00;  0.0000000E+00;  7.8121396E-03;0;  2.2761075E-02;  3.4330254E+04;  0.0000000E+00; -5.0433213E-01;  4.0000000E+04;  0.0000000E+00;  3.9945930E+04;  2.7028035E-02;  0.0000000E+00; -4.2669601E-03;  8.8851526E+02;
  6.7164457E-01;  9.9999998E-03; -1.1995597E-01;6551;  8.2532391E-03;  0.0000000E+00;  6.4001983E-04;  1.0006328E+03;  1.0802379E-01;  5.2423212E+02;3;  1.4891318E+00;  0.0000000E+00;  1.4926641E-02;0;  2.2666298E-02;  3.4333758E+04;  0.0000000E+00; -5.3332013E-01;  4.0000000E+04;  0.0000000E+00;  3.9946770E+04;  2.7038788E-02;  0.0000000E+00; -4.3724901E-03;  9.1942297E+02;
  6.7168164E-01;  9.9999998E-03; -1.0995438E-01;6552;  8.6373221E-03;  0.0000000E+00;  5.9704046E-04;  1.0006138E+03;  1.0801467E-01;  5.0852884E+02;3;  1.6421388E+00;  0.0000000E+00;  2.4680711E-02;0;  2.2609526E-02;  3.4337094E+04;  0.0000000E+00; -5.3177625E-01;  4.0000000E+04;  0.0000000E+00;  3.9947855E+04;  2.7077844E-02;  0.0000000E+00; -4.4683185E-03;  9.0915680E+02;
  6.8207878E-01;  9.9999998E-03; -2.7019784E-01;6597;  1.0629366E-02;  0.0000000E+00;  1.2131789E-03;  9.9821027E+02;  1.1035354E-01; -1.4827728E+03;3;  1.5733600E+00;  0.0000000E+00;  7.7528477E-02;0;  3.5743114E-02;  3.2749156E+04;  0.0000000E+00; -5.3078384E+00;  4.0000000E+04;  0.0000000E+00;  3.9952133E+04;  3.9960038E-02;  0.0000000E+00; -4.2169248E-03;  9.6406328E+03;
  6.8193805E-01;  9.9999998E-03; -2.6018715E-01;6598;  1.0252060E-02;  0.0000000E+00;  1.1684654E-03;  9.9849976E+02;  1.1034176E-01; -1.2429279E+03;3;  1.5336210E+00;  0.0000000E+00;  6.5959819E-02;0;  3.4735542E-02;  3.2775863E+04;  0.0000000E+00; -2.9393098E+00;  4.0000000E+04;  0.0000000E+00;  3.9949031E+04;  3.8575184E-02;  0.0000000E+00; -3.8396413E-03;  5.6996689E+03;
  6.8187064E-01;  9.9999998E-03; -2.5017715E-01;6599;  9.9492529E-03;  0.0000000E+00;  1.1340448E-03;  9.9877716E+02;  1.1033082E-01; -1.0131072E+03;3;  1.5196446E+00;  0.0000000E+00;  4.9209904E-02;0;  3.3652570E-02;  3.2801223E+04;  0.0000000E+00; -1.2451178E+00;  4.0000000E+04;  0.0000000E+00;  3.9946023E+04;  3.7254125E-02;  0.0000000E+00; -3.6015545E-03;  2.9502000E+03;
  6.8186879E-01;  9.9999998E-03; -2.4016882E-01;6600;  9.6596116E-03;  0.0000000E+00;  1.1083415E-03;  9.9904578E+02;  1.1032353E-01; -7.9054553E+02;3;  1.5017412E+00;  0.0000000E+00;  3.9955124E-02;0;  3.2540634E-02;  3.2823449E+04;  0.0000000E+00; -2.6120296E-01;  4.0000000E+04;  0.0000000E+00;  3.9942941E+04;  3.5999183E-02;  0.0000000E+00; -3.4585488E-03;  1.4952533E+03;
  6.8186349E-01;  9.9999998E-03; -2.3016888E-01;6601;  9.3169138E-03;  0.0000000E+00;  1.1322477E-03;  9.9930438E+02;  1.1031590E-01; -5.7632941E+02;3;  1.4811500E+00;  0.0000000E+00;  3.4718942E-02;0;  3.1274118E-02;  3.2846016E+04;  0.0000000E+00;  1.7152019E-01;  4.0000000E+04;  0.0000000E+00;  3.9938820E+04;  3.4789711E-02;  0.0000000E+00; -3.5155930E-03;  7.7756537E+02;
  6.8184584E-01;  9.9999998E-03; -2.2017281E-01;6602;  9.0351542E-03;  0.0000000E+00;  1.0960579E-03;  9.9956873E+02;  1.1030684E-01; -3.5732324E+02;3;  1.4654031E+00;  0.0000000E+00;  2.9374203E-02;0;  3.0269278E-02;  3.2869047E+04;  0.0000000E+00;  2.9211915E-01;  4.0000000E+04;  0.0000000E+00;  3.9936008E+04;  3.3676937E-02;  0.0000000E+00; -3.4076590E-03;  5.0692834E+02;
  6.8181384E-01;  9.9999998E-03; -2.1014936E-01;6603;  8.7630264E-03;  0.0000000E+00;  1.0313964E-03;  9.9986493E+02;  1.1029662E-01; -1.1189807E+02;3;  1.4314336E+00;  0.0000000E+00;  2.5914932E-02;0;  2.9293241E-02;  3.2891375E+04;  0.0000000E+00;  2.6610658E-01;  4.0000000E+04;  0.0000000E+00;  3.9936746E+04;  3.2652065E-02;  0.0000000E+00; -3.3588237E-03;  5.8336841E+02;
  6.8177766E-01;  9.9999998E-03; -2.0010921E-01;6604;  8.4323864E-03;  0.0000000E+00;  1.0173190E-03;  1.0001201E+03;  1.1028607E-01;  9.9453979E+01;3;  1.3890492E+00;  0.0000000E+00;  2.6880462E-02;0;  2.8261632E-02;  3.2912391E+04;  0.0000000E+00;  1.8885513E-01;  4.0000000E+04;  0.0000000E+00;  3.9937492E+04;  3.1703819E-02;  0.0000000E+00; -3.4421871E-03;  5.5501111E+02;
  6.8174481E-01;  9.9999998E-03; -1.9007272E-01;6605;  8.1428522E-03;  0.0000000E+00;  1.0029257E-03;  1.0003096E+03;  1.1027415E-01;  2.5648657E+02;3;  1.3563938E+00;  0.0000000E+00;  2.3916831E-02;0;  2.7317151E-02;  3.2931234E+04;  0.0000000E+00;  1.0269647E-01;  4.0000000E+04;  0.0000000E+00;  3.9936176E+04;  3.0876292E-02;  0.0000000E+00; -3.5591412E-03;  3.5312033E+02;
  6.8171924E-01;  9.9999998E-03; -1.8004362E-01;6606;  7.9397112E-03;  0.0000000E+00;  9.6423842E-04;  1.0004445E+03;  1.1026178E-01;  3.6818710E+02;3;  1.3240086E+00;  0.0000000E+00;  2.2146974E-02;0;  2.6489837E-02;  3.2947246E+04;  0.0000000E+00;  2.0074733E-02;  4.0000000E+04;  0.0000000E+00;  3.9934832E+04;  3.0188574E-02;  0.0000000E+00; -3.6987369E-03;  1.2574577E+02;
  6.8170244E-01;  9.9999998E-03; -1.7002089E-01;6607;  7.8393025E-03;  0.0000000E+00;  9.0236630E-04;  1.0005306E+03;  1.1024835E-01;  4.3959250E+02;3;  1.3090659E+00;  0.0000000E+00;  1.3679733E-02;0;  2.5785699E-02;  3.2959926E+04;  0.0000000E+00; -5.9821017E-02;  4.0000000E+04;  0.0000000E+00;  3.9933590E+04;  2.9641697E-02;  0.0000000E+00; -3.8559977E-03;  1.6485036E+02;
  6.8169612E-01;  9.9999998E-03; -1.6000301E-01;6608;  7.8514591E-03;  0.0000000E+00;  8.3179655E-04;  1.0005735E+03;  1.1023516E-01;  4.7514706E+02;3;  1.3234143E+00;  0.0000000E+00;  4.4175857E-03;0;  2.5209680E-02;  3.2970203E+04;  0.0000000E+00; -1.4097030E-01;  4.0000000E+04;  0.0000000E+00;  3.9932375E+04;  2.9227117E-02;  0.0000000E+00; -4.0174359E-03;  3.3910437E+02;
  6.8169957E-01;  9.9999998E-03; -1.4998773E-01;6609;  8.0001140E-03;  0.0000000E+00;  7.6134829E-04;  1.0005755E+03;  1.1022166E-01;  4.7682602E+02;3;  1.3752617E+00;  0.0000000E+00; -3.4807425E-03;0;  2.4765264E-02;  3.2977227E+04;  0.0000000E+00; -2.2441527E-01;  4.0000000E+04;  0.0000000E+00;  3.9932141E+04;  2.8935187E-02;  0.0000000E+00; -4.1699233E-03;  4.9204321E+02;
  6.8170953E-01;  9.9999998E-03; -1.3997473E-01;6610;  8.2643386E-03;  0.0000000E+00;  7.0543599E-04;  1.0005419E+03;  1.1020774E-01;  4.4897495E+02;3;  1.4726607E+00;  0.0000000E+00; -6.7843092E-03;0;  2.4432236E-02;  3.2982363E+04;  0.0000000E+00; -3.0520278E-01;  4.0000000E+04;  0.0000000E+00;  3.9931934E+04;  2.8739031E-02;  0.0000000E+00; -4.3067946E-03;  6.1998059E+02;
  6.8172228E-01;  9.9999998E-03; -1.2996475E-01;6611;  8.6126029E-03;  0.0000000E+00;  6.5887143E-04;  1.0004914E+03;  1.1019445E-01;  4.0709961E+02;3;  1.6035072E+00;  0.0000000E+00; -9.2260685E-04;0;  2.4184665E-02;  3.2985859E+04;  0.0000000E+00; -3.7326956E-01;  4.0000000E+04;  0.0000000E+00;  3.9932539E+04;  2.8611952E-02;  0.0000000E+00; -4.4272873E-03;  7.1675995E+02;
  6.8173367E-01;  9.9999998E-03; -1.1995829E-01;6612;  8.9262389E-03;  0.0000000E+00;  6.1333663E-04;  1.0004272E+03;  1.1018089E-01;  3.5386655E+02;3;  1.7337171E+00;  0.0000000E+00;  5.0155437E-03;0;  2.3971297E-02;  3.2988711E+04;  0.0000000E+00; -4.1847664E-01;  4.0000000E+04;  0.0000000E+00;  3.9933477E+04;  2.8505133E-02;  0.0000000E+00; -4.5338375E-03;  7.7539624E+02;
  6.8174088E-01;  9.9999998E-03; -1.0995530E-01;6613;  9.1651278E-03;  0.0000000E+00;  5.6079566E-04;  1.0003672E+03;  1.1016810E-01;  3.0418893E+02;3;  1.8316084E+00;  0.0000000E+00;  8.3359918E-03;0;  2.3776008E-02;  3.2991230E+04;  0.0000000E+00; -4.3443519E-01;  4.0000000E+04;  0.0000000E+00;  3.9934441E+04;  2.8405340E-02;  0.0000000E+00; -4.6293326E-03;  7.9446191E+02;
  6.9355500E-01;  9.9999998E-03; -2.7025315E-01;6658;  1.1122109E-02;  0.0000000E+00;  1.2569869E-03;  9.9799670E+02;  1.1302149E-01; -1.6597062E+03;3;  1.7221560E+00;  0.0000000E+00;  8.6766273E-02;0;  3.9373714E-02;  3.1219977E+04;  0.0000000E+00; -4.2048659E+00;  4.0000000E+04;  0.0000000E+00;  3.9937371E+04;  4.3727558E-02;  0.0000000E+00; -4.3538432E-03;  8.4344932E+03;
  6.9326192E-01;  9.9999998E-03; -2.6024187E-01;6659;  1.0616199E-02;  0.0000000E+00;  1.2077745E-03;  9.9824451E+02;  1.1297819E-01; -1.4543787E+03;3;  1.6266565E+00;  0.0000000E+00;  7.1345128E-02;0;  3.8050722E-02;  3.1259598E+04;  0.0000000E+00; -2.4362099E+00;  4.0000000E+04;  0.0000000E+00;  3.9934852E+04;  4.2048879E-02;  0.0000000E+00; -3.9981576E-03;  5.3789370E+03;
  6.9306201E-01;  9.9999998E-03; -2.5023252E-01;6660;  1.0271168E-02;  0.0000000E+00;  1.1674098E-03;  9.9849420E+02;  1.1294331E-01; -1.2475203E+03;3;  1.5953126E+00;  0.0000000E+00;  5.2577462E-02;0;  3.6685754E-02;  3.1295264E+04;  0.0000000E+00; -1.0320917E+00;  4.0000000E+04;  0.0000000E+00;  3.9932098E+04;  4.0454950E-02;  0.0000000E+00; -3.7691982E-03;  3.0402241E+03;
  6.9291610E-01;  9.9999998E-03; -2.4022706E-01;6661;  9.9953078E-03;  0.0000000E+00;  1.1291015E-03;  9.9875873E+02;  1.1291521E-01; -1.0283660E+03;3;  1.5822409E+00;  0.0000000E+00;  3.6338128E-02;0;  3.5338353E-02;  3.1327826E+04;  0.0000000E+00; -1.7184538E-01;  4.0000000E+04;  0.0000000E+00;  3.9929066E+04;  3.8944650E-02;  0.0000000E+00; -3.6062973E-03;  1.7032539E+03;
  6.9279635E-01;  9.9999998E-03; -2.3023264E-01;6662;  9.7024329E-03;  0.0000000E+00;  1.1260695E-03;  9.9900806E+02;  1.1288901E-01; -8.2180389E+02;3;  1.5676440E+00;  0.0000000E+00;  2.4173822E-02;0;  3.3895645E-02;  3.1359266E+04;  0.0000000E+00;  2.5494084E-01;  4.0000000E+04;  0.0000000E+00;  3.9924059E+04;  3.7511855E-02;  0.0000000E+00; -3.6162103E-03;  9.3845795E+02;
  6.9269294E-01;  9.9999998E-03; -2.2024627E-01;6663;  9.4866967E-03;  0.0000000E+00;  1.0621491E-03;  9.9926764E+02;  1.1286337E-01; -6.0674829E+02;3;  1.5660001E+00;  0.0000000E+00;  1.3984523E-02;0;  3.2712489E-02;  3.1389514E+04;  0.0000000E+00;  4.1268834E-01;  4.0000000E+04;  0.0000000E+00;  3.9920609E+04;  3.6210518E-02;  0.0000000E+00; -3.4980301E-03;  6.5225275E+02;
  6.9259953E-01;  9.9999998E-03; -2.1022829E-01;6664;  9.2767663E-03;  0.0000000E+00;  9.6528698E-04;  9.9957178E+02;  1.1284046E-01; -3.5475540E+02;3;  1.5483762E+00;  0.0000000E+00;  5.5201426E-03;0;  3.1574190E-02;  3.1417600E+04;  0.0000000E+00;  4.2817447E-01;  4.0000000E+04;  0.0000000E+00;  3.9922367E+04;  3.5027497E-02;  0.0000000E+00; -3.4533085E-03;  8.2357367E+02;
  6.9252247E-01;  9.9999998E-03; -2.0018533E-01;6665;  8.9726886E-03;  0.0000000E+00;  9.4115466E-04;  9.9984229E+02;  1.1282057E-01; -1.3066296E+02;3;  1.5225322E+00;  0.0000000E+00;  2.1952617E-03;0;  3.0374136E-02;  3.1442641E+04;  0.0000000E+00;  3.8497049E-01;  4.0000000E+04;  0.0000000E+00;  3.9923574E+04;  3.3940360E-02;  0.0000000E+00; -3.5662251E-03;  8.9162360E+02;
  6.9246507E-01;  9.9999998E-03; -1.9014400E-01;6666;  8.6927461E-03;  0.0000000E+00;  9.3065202E-04;  1.0000358E+03;  1.1280186E-01;  2.9628792E+01;3;  1.4930606E+00;  0.0000000E+00; -3.3374091E-03;0;  2.9294815E-02;  3.1464051E+04;  0.0000000E+00;  3.2327402E-01;  4.0000000E+04;  0.0000000E+00;  3.9922555E+04;  3.3000443E-02;  0.0000000E+00; -3.7056284E-03;  7.2245978E+02;
  6.9242382E-01;  9.9999998E-03; -1.8011145E-01;6667;  8.5027292E-03;  0.0000000E+00;  8.9862349E-04;  1.0001671E+03;  1.1278380E-01;  1.3846523E+02;3;  1.4778543E+00;  0.0000000E+00; -8.7159155E-03;0;  2.8372146E-02;  3.1481611E+04;  0.0000000E+00;  2.5612277E-01;  4.0000000E+04;  0.0000000E+00;  3.9920781E+04;  3.2228213E-02;  0.0000000E+00; -3.8560657E-03;  4.7030872E+02;
  6.9239515E-01;  9.9999998E-03; -1.7008565E-01;6668;  8.4141400E-03;  0.0000000E+00;  8.4479060E-04;  1.0002338E+03;  1.1276562E-01;  1.9367354E+02;3;  1.4816833E+00;  0.0000000E+00; -1.7380381E-02;0;  2.7595842E-02;  3.1495357E+04;  0.0000000E+00;  1.8460390E-01;  4.0000000E+04;  0.0000000E+00;  3.9919145E+04;  3.1614318E-02;  0.0000000E+00; -4.0184767E-03;  2.4375969E+02;
  6.9237739E-01;  9.9999998E-03; -1.6006477E-01;6669;  8.4502753E-03;  0.0000000E+00;  7.8155921E-04;  1.0002482E+03;  1.1274809E-01;  2.0562381E+02;3;  1.5091022E+00;  0.0000000E+00; -2.4969302E-02;0;  2.6962318E-02;  3.1505553E+04;  0.0000000E+00;  1.0749854E-01;  4.0000000E+04;  0.0000000E+00;  3.9917910E+04;  3.1145668E-02;  0.0000000E+00; -4.1833497E-03;  1.0402048E+02;
  6.9236887E-01;  9.9999998E-03; -1.5004708E-01;6670;  8.6057857E-03;  0.0000000E+00;  7.1876886E-04;  1.0002195E+03;  1.1273090E-01;  1.8182202E+02;3;  1.5790721E+00;  0.0000000E+00; -3.0115305E-02;0;  2.6455585E-02;  3.1512129E+04;  0.0000000E+00;  2.5671631E-02;  4.0000000E+04;  0.0000000E+00;  3.9917121E+04;  3.0795069E-02;  0.0000000E+00; -4.3394850E-03;  1.5467923E+02;
  6.9236559E-01;  9.9999998E-03; -1.4003175E-01;6671;  8.8248244E-03;  0.0000000E+00;  6.6739839E-04;  1.0001470E+03;  1.1271386E-01;  1.2177433E+02;3;  1.6762098E+00;  0.0000000E+00; -2.9939646E-02;0;  2.6038112E-02;  3.1515922E+04;  0.0000000E+00; -5.6380518E-02;  4.0000000E+04;  0.0000000E+00;  3.9917109E+04;  3.0518521E-02;  0.0000000E+00; -4.4804085E-03;  2.5958716E+02;
  6.9236219E-01;  9.9999998E-03; -1.3001902E-01;6672;  9.0520345E-03;  0.0000000E+00;  6.2532647E-04;  1.0000463E+03;  1.1269723E-01;  3.8319904E+01;3;  1.7678798E+00;  0.0000000E+00; -2.2412211E-02;0;  2.5675211E-02;  3.1518154E+04;  0.0000000E+00; -1.3053918E-01;  4.0000000E+04;  0.0000000E+00;  3.9917332E+04;  3.0279819E-02;  0.0000000E+00; -4.6046088E-03;  3.5078488E+02;
  6.9235432E-01;  9.9999998E-03; -1.2000930E-01;6673;  9.2465002E-03;  0.0000000E+00;  5.7778857E-04;  9.9993018E+02;  1.1267979E-01; -5.7825523E+01;3;  1.8545587E+00;  0.0000000E+00; -1.8821491E-02;0;  2.5344502E-02;  3.1519312E+04;  0.0000000E+00; -1.8801662E-01;  4.0000000E+04;  0.0000000E+00;  3.9917734E+04;  3.0058155E-02;  0.0000000E+00; -4.7136517E-03;  4.2045102E+02;
  6.9234002E-01;  9.9999998E-03; -1.1000252E-01;6674;  9.3696360E-03;  0.0000000E+00;  5.2747136E-04;  9.9982172E+02;  1.1266281E-01; -1.4769952E+02;3;  1.9211535E+00;  0.0000000E+00; -1.7127728E-02;0;  2.5033398E-02;  3.1520715E+04;  0.0000000E+00; -2.2266045E-01;  4.0000000E+04;  0.0000000E+00;  3.9918793E+04;  2.9843487E-02;  0.0000000E+00; -4.8100892E-03;  4.6772739E+02;
  7.0611238E-01;  9.9999998E-03; -2.7032286E-01;6719;  1.2317261E-02;  0.0000000E+00;  1.2175775E-03;  9.9813763E+02;  1.1626185E-01; -1.5429193E+03;3;  2.0621130E+00;  0.0000000E+00;  8.1031017E-02;0;  4.4652093E-02;  2.9534160E+04;  0.0000000E+00; -2.5773878E+00;  4.0000000E+04;  0.0000000E+00;  3.9915719E+04;  4.8071146E-02;  0.0000000E+00; -3.4190535E-03;  6.1743491E+03;
  7.0573604E-01;  9.9999998E-03; -2.6031086E-01;6720;  1.1576351E-02;  0.0000000E+00;  1.1889826E-03;  9.9829419E+02;  1.1619013E-01; -1.4132440E+03;3;  1.9642581E+00;  0.0000000E+00;  5.9613060E-02;0;  4.2534404E-02;  2.9579916E+04;  0.0000000E+00; -1.3857926E+00;  4.0000000E+04;  0.0000000E+00;  3.9913945E+04;  4.6102189E-02;  0.0000000E+00; -3.5677832E-03;  4.0067874E+03;
  7.0543122E-01;  9.9999998E-03; -2.5030172E-01;6721;  1.1065166E-02;  0.0000000E+00;  1.1439689E-03;  9.9846594E+02;  1.1612611E-01; -1.2709270E+03;3;  1.8576984E+00;  0.0000000E+00;  3.7799407E-02;0;  4.0676560E-02;  2.9623479E+04;  0.0000000E+00; -4.1563228E-01;  4.0000000E+04;  0.0000000E+00;  3.9911871E+04;  4.4200301E-02;  0.0000000E+00; -3.5237400E-03;  2.3521636E+03;
  7.0520937E-01;  9.9999998E-03; -2.4029787E-01;6722;  1.0717837E-02;  0.0000000E+00;  1.0808139E-03;  9.9867096E+02;  1.1607354E-01; -1.1011046E+03;3;  1.8041482E+00;  0.0000000E+00;  2.0661484E-02;0;  3.8987350E-02;  2.9662301E+04;  0.0000000E+00;  2.0663437E-01;  4.0000000E+04;  0.0000000E+00;  3.9909148E+04;  4.2404309E-02;  0.0000000E+00; -3.4169576E-03;  1.4497257E+03;
  7.0501447E-01;  9.9999998E-03; -2.3030639E-01;6723;  1.0399112E-02;  0.0000000E+00;  1.0505855E-03;  9.9887164E+02;  1.1602541E-01; -9.3483777E+02;3;  1.7679816E+00;  0.0000000E+00;  1.2180975E-03;0;  3.7205447E-02;  2.9700232E+04;  0.0000000E+00;  5.1089454E-01;  4.0000000E+04;  0.0000000E+00;  3.9905137E+04;  4.0704664E-02;  0.0000000E+00; -3.4992176E-03;  9.7839771E+02;
  7.0484710E-01;  9.9999998E-03; -2.2033904E-01;6724;  1.0142375E-02;  0.0000000E+00;  1.0098595E-03;  9.9907153E+02;  1.1598013E-01; -7.6921283E+02;3;  1.7498497E+00;  0.0000000E+00; -9.9694300E-03;0;  3.5594489E-02;  2.9736482E+04;  0.0000000E+00;  6.2304848E-01;  4.0000000E+04;  0.0000000E+00;  3.9900188E+04;  3.9150752E-02;  0.0000000E+00; -3.5562636E-03;  7.4578320E+02;
  7.0469189E-01;  9.9999998E-03; -2.1036106E-01;6725;  9.9618314E-03;  0.0000000E+00;  9.0198440E-04;  9.9933527E+02;  1.1593700E-01; -5.5070050E+02;3;  1.7343516E+00;  0.0000000E+00; -2.0274831E-02;0;  3.4206554E-02;  2.9771572E+04;  0.0000000E+00;  6.3469082E-01;  4.0000000E+04;  0.0000000E+00;  3.9900395E+04;  3.7769824E-02;  0.0000000E+00; -3.5632690E-03;  8.2122076E+02;
  7.0456475E-01;  9.9999998E-03; -2.0034431E-01;6726;  9.6838772E-03;  0.0000000E+00;  8.5021020E-04;  9.9961914E+02;  1.1590143E-01; -3.1554663E+02;3;  1.7001806E+00;  0.0000000E+00; -2.7091881E-02;0;  3.2824084E-02;  2.9801939E+04;  0.0000000E+00;  6.0593891E-01;  4.0000000E+04;  0.0000000E+00;  3.9902891E+04;  3.6525503E-02;  0.0000000E+00; -3.7014177E-03;  9.2225439E+02;
  7.0447123E-01;  9.9999998E-03; -1.9031192E-01;6727;  9.3657654E-03;  0.0000000E+00;  8.4419444E-04;  9.9982184E+02;  1.1587207E-01; -1.4760077E+02;3;  1.6658199E+00;  0.0000000E+00; -3.2930717E-02;0;  3.1573586E-02;  2.9827033E+04;  0.0000000E+00;  5.6452990E-01;  4.0000000E+04;  0.0000000E+00;  3.9903559E+04;  3.5448190E-02;  0.0000000E+00; -3.8746037E-03;  9.3448785E+02;
  7.0440316E-01;  9.9999998E-03; -1.8028215E-01;6728;  9.1265803E-03;  0.0000000E+00;  8.2892081E-04;  9.9996240E+02;  1.1584578E-01; -3.1159613E+01;3;  1.6535852E+00;  0.0000000E+00; -3.6910202E-02;0;  3.0528158E-02;  2.9847588E+04;  0.0000000E+00;  5.1802868E-01;  4.0000000E+04;  0.0000000E+00;  3.9902867E+04;  3.4572642E-02;  0.0000000E+00; -4.0444853E-03;  8.3136871E+02;
  7.0436162E-01;  9.9999998E-03; -1.7025797E-01;6729;  9.0050129E-03;  0.0000000E+00;  7.9270318E-04;  1.0000344E+03;  1.1582267E-01;  2.8443640E+01;3;  1.6602859E+00;  0.0000000E+00; -4.2987604E-02;0;  2.9676825E-02;  2.9862451E+04;  0.0000000E+00;  4.6562535E-01;  4.0000000E+04;  0.0000000E+00;  3.9901520E+04;  3.3893220E-02;  0.0000000E+00; -4.2163953E-03;  6.9917096E+02;
  7.0434171E-01;  9.9999998E-03; -1.6023904E-01;6730;  8.9898827E-03;  0.0000000E+00;  7.4451591E-04;  1.0000300E+03;  1.1580241E-01;  2.4789423E+01;3;  1.6898456E+00;  0.0000000E+00; -4.8447929E-02;0;  2.8987845E-02;  2.9872043E+04;  0.0000000E+00;  4.0613738E-01;  4.0000000E+04;  0.0000000E+00;  3.9900352E+04;  3.3375315E-02;  0.0000000E+00; -4.3874700E-03;  5.8590155E+02;
  7.0434004E-01;  9.9999998E-03; -1.5022330E-01;6731;  9.0722097E-03;  0.0000000E+00;  6.9383468E-04;  9.9997083E+02;  1.1578504E-01; -2.4147465E+01;3;  1.7383878E+00;  0.0000000E+00; -4.8165098E-02;0;  2.8431755E-02;  2.9876455E+04;  0.0000000E+00;  3.4101930E-01;  4.0000000E+04;  0.0000000E+00;  3.9899246E+04;  3.2981474E-02;  0.0000000E+00; -4.5497194E-03;  4.9507440E+02;
  7.0435286E-01;  9.9999998E-03; -1.4020908E-01;6732;  9.2038857E-03;  0.0000000E+00;  6.4627663E-04;  9.9985590E+02;  1.1577030E-01; -1.1940403E+02;3;  1.8080993E+00;  0.0000000E+00; -4.8209306E-02;0;  2.7967546E-02;  2.9876475E+04;  0.0000000E+00;  2.7338827E-01;  4.0000000E+04;  0.0000000E+00;  3.9899035E+04;  3.2664739E-02;  0.0000000E+00; -4.6971925E-03;  4.0829269E+02;
  7.0437318E-01;  9.9999998E-03; -1.3019584E-01;6733;  9.3177920E-03;  0.0000000E+00;  6.0425926E-04;  9.9970892E+02;  1.1575778E-01; -2.4112898E+02;3;  1.8752784E+00;  0.0000000E+00; -4.4729136E-02;0;  2.7553450E-02;  2.9873150E+04;  0.0000000E+00;  2.0745845E-01;  4.0000000E+04;  0.0000000E+00;  3.9899000E+04;  3.2381028E-02;  0.0000000E+00; -4.8275776E-03;  3.1006808E+02;
  7.0439523E-01;  9.9999998E-03; -1.2018324E-01;6734;  9.4037866E-03;  0.0000000E+00;  5.6352088E-04;  9.9953876E+02;  1.1574624E-01; -3.8211264E+02;3;  1.9275784E+00;  0.0000000E+00; -4.1825838E-02;0;  2.7175901E-02;  2.9868131E+04;  0.0000000E+00;  1.4820717E-01;  4.0000000E+04;  0.0000000E+00;  3.9899430E+04;  3.2117441E-02;  0.0000000E+00; -4.9415394E-03;  2.0088557E+02;
  7.0441282E-01;  9.9999998E-03; -1.1017136E-01;6735;  9.4388509E-03;  0.0000000E+00;  5.2264443E-04;  9.9936249E+02;  1.1573510E-01; -5.2818262E+02;3;  1.9680187E+00;  0.0000000E+00; -3.9531443E-02;0;  2.6825402E-02;  2.9862799E+04;  0.0000000E+00;  9.9483207E-02;  4.0000000E+04;  0.0000000E+00;  3.9899801E+04;  3.1866789E-02;  0.0000000E+00; -5.0413869E-03;  1.0452958E+02;
  7.1824789E-01;  9.9999998E-03; -2.7039725E-01;6780;  1.3598729E-02;  0.0000000E+00;  1.1490686E-03;  9.9847327E+02;  1.1973206E-01; -1.2648531E+03;3;  2.3338075E+00;  0.0000000E+00;  7.5061150E-02;0;  5.0044615E-02;  2.7888939E+04;  0.0000000E+00; -3.0763819E+00;  4.0000000E+04;  0.0000000E+00;  3.9890461E+04;  5.2101344E-02;  0.0000000E+00; -2.0567293E-03;  7.2504155E+03;
  7.1809357E-01;  9.9999998E-03; -2.6038641E-01;6781;  1.2879158E-02;  0.0000000E+00;  1.1008456E-03;  9.9859277E+02;  1.1970442E-01; -1.1658436E+03;3;  2.2933109E+00;  0.0000000E+00;  3.8366839E-02;0;  4.7619458E-02;  2.7908844E+04;  0.0000000E+00; -1.5466795E+00;  4.0000000E+04;  0.0000000E+00;  3.9889086E+04;  5.0048098E-02;  0.0000000E+00; -2.4286381E-03;  4.2702808E+03;
  7.1787447E-01;  9.9999998E-03; -2.5037828E-01;6782;  1.2266517E-02;  0.0000000E+00;  1.0533131E-03;  9.9871362E+02;  1.1964690E-01; -1.0657477E+03;3;  2.2269945E+00;  0.0000000E+00;  1.0479232E-02;0;  4.5196764E-02;  2.7943480E+04;  0.0000000E+00; -4.3616018E-01;  4.0000000E+04;  0.0000000E+00;  3.9887340E+04;  4.7966305E-02;  0.0000000E+00; -2.7695415E-03;  2.1388420E+03;
  7.1768141E-01;  9.9999998E-03; -2.4037592E-01;6783;  1.1788427E-02;  0.0000000E+00;  9.8098919E-04;  9.9887109E+02;  1.1959382E-01; -9.3528217E+02;3;  2.1702714E+00;  0.0000000E+00; -2.7630315E-03;0;  4.3001298E-02;  2.7977820E+04;  0.0000000E+00;  2.3150954E-01;  4.0000000E+04;  0.0000000E+00;  3.9885359E+04;  4.5943037E-02;  0.0000000E+00; -2.9417386E-03;  1.0013647E+03;
  7.1751624E-01;  9.9999998E-03; -2.3038514E-01;6784;  1.1401319E-02;  0.0000000E+00;  9.1440219E-04;  9.9906274E+02;  1.1954912E-01; -7.7652124E+02;3;  2.1139088E+00;  0.0000000E+00; -2.5186725E-02;0;  4.0861540E-02;  2.8009836E+04;  0.0000000E+00;  5.6913429E-01;  4.0000000E+04;  0.0000000E+00;  3.9882445E+04;  4.4025384E-02;  0.0000000E+00; -3.1638443E-03;  6.9021045E+02;
  7.1736568E-01;  9.9999998E-03; -2.2042142E-01;6785;  1.1037852E-02;  0.0000000E+00;  8.8023255E-04;  9.9926105E+02;  1.1950796E-01; -6.1222961E+02;3;  2.0603409E+00;  0.0000000E+00; -3.4647077E-02;0;  3.8800169E-02;  2.8041643E+04;  0.0000000E+00;  7.0956492E-01;  4.0000000E+04;  0.0000000E+00;  3.9878316E+04;  4.2248018E-02;  0.0000000E+00; -3.4478498E-03;  7.7284772E+02;
  7.1723068E-01;  9.9999998E-03; -2.1046793E-01;6786;  1.0763552E-02;  0.0000000E+00;  8.0417871E-04;  9.9949872E+02;  1.1946791E-01; -4.1529691E+02;3;  2.0103426E+00;  0.0000000E+00; -5.1187698E-02;0;  3.7037179E-02;  2.8072684E+04;  0.0000000E+00;  7.4906433E-01;  4.0000000E+04;  0.0000000E+00;  3.9877059E+04;  4.0669784E-02;  0.0000000E+00; -3.6326062E-03;  9.4494519E+02;
  7.1710390E-01;  9.9999998E-03; -2.0047742E-01;6787;  1.0455979E-02;  0.0000000E+00;  7.5478217E-04;  9.9978400E+02;  1.1942969E-01; -1.7895790E+02;3;  1.9574939E+00;  0.0000000E+00; -5.3304832E-02;0;  3.5436593E-02;  2.8102383E+04;  0.0000000E+00;  7.4475324E-01;  4.0000000E+04;  0.0000000E+00;  3.9880363E+04;  3.9285701E-02;  0.0000000E+00; -3.8491094E-03;  1.0002802E+03;
  7.1699876E-01;  9.9999998E-03; -1.9045670E-01;6788;  1.0082253E-02;  0.0000000E+00;  7.6875434E-04;  1.0000220E+03;  1.1939494E-01;  1.8271088E+01;3;  1.8845588E+00;  0.0000000E+00; -5.5072892E-02;0;  3.4032181E-02;  2.8128615E+04;  0.0000000E+00;  7.2543705E-01;  4.0000000E+04;  0.0000000E+00;  3.9882695E+04;  3.8109023E-02;  0.0000000E+00; -4.0768418E-03;  1.0854053E+03;
  7.1693140E-01;  9.9999998E-03; -1.8042691E-01;6789;  9.7576380E-03;  0.0000000E+00;  7.8227458E-04;  1.0001798E+03;  1.1936641E-01;  1.4893407E+02;3;  1.8376635E+00;  0.0000000E+00; -5.7835285E-02;0;  3.2895137E-02;  2.8149293E+04;  0.0000000E+00;  7.0094341E-01;  4.0000000E+04;  0.0000000E+00;  3.9882934E+04;  3.7172142E-02;  0.0000000E+00; -4.2770049E-03;  1.0930254E+03;
  7.1690327E-01;  9.9999998E-03; -1.7039919E-01;6790;  9.5536932E-03;  0.0000000E+00;  7.6753617E-04;  1.0002623E+03;  1.1934421E-01;  2.1727780E+02;3;  1.8226408E+00;  0.0000000E+00; -5.9038337E-02;0;  3.2009210E-02;  2.8163371E+04;  0.0000000E+00;  6.7244750E-01;  4.0000000E+04;  0.0000000E+00;  3.9881777E+04;  3.6473256E-02;  0.0000000E+00; -4.4640461E-03;  1.0501279E+03;
  7.1690935E-01;  9.9999998E-03; -1.6037653E-01;6791;  9.4682211E-03;  0.0000000E+00;  7.3668826E-04;  1.0002686E+03;  1.1932784E-01;  2.2251222E+02;3;  1.8402414E+00;  0.0000000E+00; -6.2022906E-02;0;  3.1329561E-02;  2.8170637E+04;  0.0000000E+00;  6.3985425E-01;  4.0000000E+04;  0.0000000E+00;  3.9880496E+04;  3.5974558E-02;  0.0000000E+00; -4.6449965E-03;  1.0116161E+03;
  7.1694332E-01;  9.9999998E-03; -1.5035924E-01;6792;  9.4607603E-03;  0.0000000E+00;  6.9806667E-04;  1.0002039E+03;  1.1931631E-01;  1.6898288E+02;3;  1.8693237E+00;  0.0000000E+00; -6.2311608E-02;0;  3.0805681E-02;  2.8171535E+04;  0.0000000E+00;  6.0440153E-01;  4.0000000E+04;  0.0000000E+00;  3.9879711E+04;  3.5621412E-02;  0.0000000E+00; -4.8157307E-03;  9.8898651E+02;
  7.1699911E-01;  9.9999998E-03; -1.4034468E-01;6793;  9.4971228E-03;  0.0000000E+00;  6.5820839E-04;  1.0000762E+03;  1.1931024E-01;  6.3109325E+01;3;  1.9096888E+00;  0.0000000E+00; -5.8921993E-02;0;  3.0391615E-02;  2.8166635E+04;  0.0000000E+00;  5.6694186E-01;  4.0000000E+04;  0.0000000E+00;  3.9878816E+04;  3.5362892E-02;  0.0000000E+00; -4.9712774E-03;  9.6566254E+02;
  7.1706855E-01;  9.9999998E-03; -1.3033053E-01;6794;  9.5152073E-03;  0.0000000E+00;  6.2185986E-04;  9.9990771E+02;  1.1930790E-01; -7.6442284E+01;3;  1.9555584E+00;  0.0000000E+00; -5.8499504E-02;0;  3.0041059E-02;  2.8157529E+04;  0.0000000E+00;  5.2654409E-01;  4.0000000E+04;  0.0000000E+00;  3.9878715E+04;  3.5150032E-02;  0.0000000E+00; -5.1089725E-03;  9.2495099E+02;
  7.1714199E-01;  9.9999998E-03; -1.2031616E-01;6795;  9.5059825E-03;  0.0000000E+00;  5.8989041E-04;  9.9972003E+02;  1.1930835E-01; -2.3194406E+02;3;  1.9798945E+00;  0.0000000E+00; -5.3156801E-02;0;  2.9730858E-02;  2.8146084E+04;  0.0000000E+00;  4.8204803E-01;  4.0000000E+04;  0.0000000E+00;  3.9878891E+04;  3.4959845E-02;  0.0000000E+00; -5.2289865E-03;  8.6357697E+02;
  7.1721065E-01;  9.9999998E-03; -1.1030111E-01;6796;  9.4934590E-03;  0.0000000E+00;  5.5449508E-04;  9.9952045E+02;  1.1930906E-01; -3.9732208E+02;3;  1.9911233E+00;  0.0000000E+00; -5.1511265E-02;0;  2.9454920E-02;  2.8133807E+04;  0.0000000E+00;  4.3276045E-01;  4.0000000E+04;  0.0000000E+00;  3.9879301E+04;  3.4788471E-02;  0.0000000E+00; -5.3335493E-03;  7.8761200E+02;
  7.2971511E-01;  9.9999998E-03; -2.7046406E-01;6841;  1.4366105E-02;  0.0000000E+00;  1.1896893E-03;  9.9836737E+02;  1.2324633E-01; -1.3526038E+03;3;  2.4847434E+00;  0.0000000E+00;  8.4991403E-02;0;  5.3806867E-02;  2.6332604E+04;  0.0000000E+00; -3.3150239E+00;  4.0000000E+04;  0.0000000E+00;  3.9871547E+04;  5.5690020E-02;  0.0000000E+00; -1.8831517E-03;  7.9192490E+03;
  7.2968960E-01;  9.9999998E-03; -2.6045209E-01;6842;  1.3662733E-02;  0.0000000E+00;  1.1201189E-03;  9.9850787E+02;  1.2325551E-01; -1.2362119E+03;3;  2.4500220E+00;  0.0000000E+00;  4.4435643E-02;0;  5.1364243E-02;  2.6337283E+04;  0.0000000E+00; -1.8882829E+00;  4.0000000E+04;  0.0000000E+00;  3.9869660E+04;  5.3539310E-02;  0.0000000E+00; -2.1750685E-03;  5.0451157E+03;
  7.2966892E-01;  9.9999998E-03; -2.5044253E-01;6843;  1.3056185E-02;  0.0000000E+00;  1.0571886E-03;  9.9866211E+02;  1.2325747E-01; -1.1084131E+03;3;  2.4211991E+00;  0.0000000E+00;  1.3159189E-02;0;  4.8813328E-02;  2.6346625E+04;  0.0000000E+00; -7.6776809E-01;  4.0000000E+04;  0.0000000E+00;  3.9867578E+04;  5.1372614E-02;  0.0000000E+00; -2.5592837E-03;  2.7948679E+03;
  7.2964239E-01;  9.9999998E-03; -2.4043706E-01;6844;  1.2537783E-02;  0.0000000E+00;  9.7721035E-04;  9.9885651E+02;  1.2325612E-01; -9.4738062E+02;3;  2.3755171E+00;  0.0000000E+00; -9.8210899E-03;0;  4.6394799E-02;  2.6359014E+04;  0.0000000E+00; -3.1093966E-02;  4.0000000E+04;  0.0000000E+00;  3.9865277E+04;  4.9237944E-02;  0.0000000E+00; -2.8431446E-03;  1.3664484E+03;
  7.2959870E-01;  9.9999998E-03; -2.3043671E-01;6845;  1.2071768E-02;  0.0000000E+00;  8.9472084E-04;  9.9908667E+02;  1.2324939E-01; -7.5666998E+02;3;  2.3164959E+00;  0.0000000E+00; -1.9913800E-02;0;  4.4050381E-02;  2.6375084E+04;  0.0000000E+00;  3.8913533E-01;  4.0000000E+04;  0.0000000E+00;  3.9863641E+04;  4.7186464E-02;  0.0000000E+00; -3.1360821E-03;  7.7977490E+02;
  7.2952467E-01;  9.9999998E-03; -2.2045583E-01;6846;  1.1593563E-02;  0.0000000E+00;  8.7872217E-04;  9.9932953E+02;  1.2323272E-01; -5.5549048E+02;3;  2.2601185E+00;  0.0000000E+00; -3.5028573E-02;0;  4.1707441E-02;  2.6396465E+04;  0.0000000E+00;  6.0121644E-01;  4.0000000E+04;  0.0000000E+00;  3.9860652E+04;  4.5268204E-02;  0.0000000E+00; -3.5607617E-03;  6.2797229E+02;
  7.2943485E-01;  9.9999998E-03; -2.1049684E-01;6847;  1.1180720E-02;  0.0000000E+00;  8.5548713E-04;  9.9959454E+02;  1.2320623E-01; -3.3589172E+02;3;  2.1840217E+00;  0.0000000E+00; -3.6974393E-02;0;  3.9688013E-02;  2.6421623E+04;  0.0000000E+00;  6.9307804E-01;  4.0000000E+04;  0.0000000E+00;  3.9858719E+04;  4.3556754E-02;  0.0000000E+00; -3.8687408E-03;  7.6178827E+02;
  7.2932136E-01;  9.9999998E-03; -2.0052125E-01;6848;  1.0816435E-02;  0.0000000E+00;  8.3002489E-04;  9.9987872E+02;  1.2316848E-01; -1.0049098E+02;3;  2.1168251E+00;  0.0000000E+00; -4.7976039E-02;0;  3.7966020E-02;  2.6450090E+04;  0.0000000E+00;  7.2328550E-01;  4.0000000E+04;  0.0000000E+00;  3.9859598E+04;  4.2087726E-02;  0.0000000E+00; -4.1217078E-03;  9.1015961E+02;
  7.2918677E-01;  9.9999998E-03; -1.9051361E-01;6849;  1.0441370E-02;  0.0000000E+00;  8.3254813E-04;  1.0001359E+03;  1.2312231E-01;  1.1258941E+02;3;  2.0321927E+00;  0.0000000E+00; -4.6193577E-02;0;  3.6521506E-02;  2.6481080E+04;  0.0000000E+00;  7.2638571E-01;  4.0000000E+04;  0.0000000E+00;  3.9861352E+04;  4.0877316E-02;  0.0000000E+00; -4.3558101E-03;  1.0331257E+03;
  7.2906870E-01;  9.9999998E-03; -1.8049145E-01;6850;  1.0114196E-02;  0.0000000E+00;  8.3775650E-04;  1.0003265E+03;  1.2307723E-01;  2.7051086E+02;3;  1.9698356E+00;  0.0000000E+00; -5.2337110E-02;0;  3.5381503E-02;  2.6509369E+04;  0.0000000E+00;  7.1969545E-01;  4.0000000E+04;  0.0000000E+00;  3.9861789E+04;  3.9947599E-02;  0.0000000E+00; -4.5660944E-03;  1.0919576E+03;
  7.2898877E-01;  9.9999998E-03; -1.7046328E-01;6851;  9.8859947E-03;  0.0000000E+00;  8.2028628E-04;  1.0004252E+03;  1.2303560E-01;  3.5228635E+02;3;  1.9428073E+00;  0.0000000E+00; -5.6947719E-02;0;  3.4527827E-02;  2.6531580E+04;  0.0000000E+00;  7.1106452E-01;  4.0000000E+04;  0.0000000E+00;  3.9861121E+04;  3.9290611E-02;  0.0000000E+00; -4.7627836E-03;  1.1180758E+03;
  7.2895843E-01;  9.9999998E-03; -1.6043468E-01;6852;  9.7592194E-03;  0.0000000E+00;  7.8681723E-04;  1.0004520E+03;  1.2300518E-01;  3.7440915E+02;3;  1.9382508E+00;  0.0000000E+00; -6.1405148E-02;0;  3.3917349E-02;  2.6545348E+04;  0.0000000E+00;  7.0422095E-01;  4.0000000E+04;  0.0000000E+00;  3.9859801E+04;  3.8869139E-02;  0.0000000E+00; -4.9517890E-03;  1.1618645E+03;
  7.2897381E-01;  9.9999998E-03; -1.5040964E-01;6853;  9.6969176E-03;  0.0000000E+00;  7.4947067E-04;  1.0004092E+03;  1.2298559E-01;  3.3905212E+02;3;  1.9647205E+00;  0.0000000E+00; -6.0735732E-02;0;  3.3495147E-02;  2.6550754E+04;  0.0000000E+00;  7.0089418E-01;  4.0000000E+04;  0.0000000E+00;  3.9858934E+04;  3.8624581E-02;  0.0000000E+00; -5.1294332E-03;  1.2306643E+03;
  7.2902387E-01;  9.9999998E-03; -1.4038731E-01;6854;  9.6498607E-03;  0.0000000E+00;  7.1733847E-04;  1.0002995E+03;  1.2297449E-01;  2.4809175E+02;3;  1.9793161E+00;  0.0000000E+00; -6.1158966E-02;0;  3.3202615E-02;  2.6549100E+04;  0.0000000E+00;  6.9960046E-01;  4.0000000E+04;  0.0000000E+00;  3.9858355E+04;  3.8493462E-02;  0.0000000E+00; -5.2908482E-03;  1.3018062E+03;
  7.2909558E-01;  9.9999998E-03; -1.3036668E-01;6855;  9.6153840E-03;  0.0000000E+00;  6.8454357E-04;  1.0001496E+03;  1.2296884E-01;  1.2394711E+02;3;  2.0005362E+00;  0.0000000E+00; -5.7723060E-02;0;  3.2993622E-02;  2.6542143E+04;  0.0000000E+00;  6.9438469E-01;  4.0000000E+04;  0.0000000E+00;  3.9858535E+04;  3.8427003E-02;  0.0000000E+00; -5.4333797E-03;  1.3502758E+03;
  7.2917485E-01;  9.9999998E-03; -1.2034567E-01;6856;  9.5915450E-03;  0.0000000E+00;  6.4819120E-04;  9.9996765E+02;  1.2296759E-01; -2.6814056E+01;3;  2.0085101E+00;  0.0000000E+00; -5.4476146E-02;0;  3.2830980E-02;  2.6532084E+04;  0.0000000E+00;  6.7742980E-01;  4.0000000E+04;  0.0000000E+00;  3.9858734E+04;  3.8388163E-02;  0.0000000E+00; -5.5571822E-03;  1.3596853E+03;
  7.2925007E-01;  9.9999998E-03; -1.1032401E-01;6857;  9.5683653E-03;  0.0000000E+00;  6.0727983E-04;  9.9978424E+02;  1.2296824E-01; -1.7876038E+02;3;  2.0227468E+00;  0.0000000E+00; -5.0668258E-02;0;  3.2687563E-02;  2.6521109E+04;  0.0000000E+00;  6.4246786E-01;  4.0000000E+04;  0.0000000E+00;  3.9859125E+04;  3.8352046E-02;  0.0000000E+00; -5.6644841E-03;  1.3219006E+03;
  7.4164832E-01;  9.9999998E-03; -2.7052695E-01;6902;  1.4834595E-02;  0.0000000E+00;  1.3297207E-03;  9.9771179E+02;  1.2709929E-01; -1.8957489E+03;3;  2.5713151E+00;  0.0000000E+00;  9.9899285E-02;0;  5.6717426E-02;  2.4741113E+04;  0.0000000E+00; -1.5751618E+00;  4.0000000E+04;  0.0000000E+00;  3.9858180E+04;  5.9417412E-02;  0.0000000E+00; -2.6999863E-03;  4.9922827E+03;
  7.4159497E-01;  9.9999998E-03; -2.6051033E-01;6903;  1.4151602E-02;  0.0000000E+00;  1.2421691E-03;  9.9791284E+02;  1.2709917E-01; -1.7291857E+03;3;  2.5329642E+00;  0.0000000E+00;  6.2721521E-02;0;  5.4428201E-02;  2.4752168E+04;  0.0000000E+00; -1.1157433E+00;  4.0000000E+04;  0.0000000E+00;  3.9855965E+04;  5.7143632E-02;  0.0000000E+00; -2.7154326E-03;  4.0500232E+03;
  7.4156249E-01;  9.9999998E-03; -2.5049371E-01;6904;  1.3517543E-02;  0.0000000E+00;  1.1706413E-03;  9.9812646E+02;  1.2709978E-01; -1.5522030E+03;3;  2.5071580E+00;  0.0000000E+00;  3.2160614E-02;0;  5.1886719E-02;  2.4764830E+04;  0.0000000E+00; -5.8812517E-01;  4.0000000E+04;  0.0000000E+00;  3.9853215E+04;  5.4861233E-02;  0.0000000E+00; -2.9745125E-03;  3.0256428E+03;
  7.4152941E-01;  9.9999998E-03; -2.4047647E-01;6905;  1.2953966E-02;  0.0000000E+00;  1.0948901E-03;  9.9837140E+02;  1.2709661E-01; -1.3492458E+03;3;  2.4766574E+00;  0.0000000E+00;  1.2487355E-02;0;  4.9381372E-02;  2.4780445E+04;  0.0000000E+00; -1.3088970E-01;  4.0000000E+04;  0.0000000E+00;  3.9851258E+04;  5.2615754E-02;  0.0000000E+00; -3.2343834E-03;  2.2233169E+03;
  7.4150020E-01;  9.9999998E-03; -2.3045395E-01;6906;  1.2471257E-02;  0.0000000E+00;  9.8855677E-04;  9.9866248E+02;  1.2709397E-01; -1.1081168E+03;3;  2.4211521E+00;  0.0000000E+00; -4.0860791E-03;0;  4.7051109E-02;  2.4796838E+04;  0.0000000E+00;  1.9869241E-01;  4.0000000E+04;  0.0000000E+00;  3.9851086E+04;  5.0469324E-02;  0.0000000E+00; -3.4182156E-03;  1.8742759E+03;
  7.4145573E-01;  9.9999998E-03; -2.2043453E-01;6907;  1.1884956E-02;  0.0000000E+00;  1.0018724E-03;  9.9896686E+02;  1.2708713E-01; -8.5592639E+02;3;  2.3518305E+00;  0.0000000E+00; -7.7939671E-03;0;  4.4568364E-02;  2.4815684E+04;  0.0000000E+00;  4.0396300E-01;  4.0000000E+04;  0.0000000E+00;  3.9849191E+04;  4.8470836E-02;  0.0000000E+00; -3.9024742E-03;  1.5868242E+03;
  7.4139190E-01;  9.9999998E-03; -2.1044378E-01;6908;  1.1318733E-02;  0.0000000E+00;  1.0640458E-03;  9.9923492E+02;  1.2706958E-01; -6.3385864E+02;3;  2.2637272E+00;  0.0000000E+00; -1.6707169E-02;0;  4.2398214E-02;  2.4838135E+04;  0.0000000E+00;  5.1607001E-01;  4.0000000E+04;  0.0000000E+00;  3.9844484E+04;  4.6695970E-02;  0.0000000E+00; -4.2977547E-03;  1.0636125E+03;
  7.4132305E-01;  9.9999998E-03; -2.0046955E-01;6909;  1.0879043E-02;  0.0000000E+00;  1.0629524E-03;  9.9951038E+02;  1.2704642E-01; -4.0566754E+02;3;  2.1770532E+00;  0.0000000E+00; -1.4264892E-02;0;  4.0680327E-02;  2.4862301E+04;  0.0000000E+00;  5.6593645E-01;  4.0000000E+04;  0.0000000E+00;  3.9841668E+04;  4.5206994E-02;  0.0000000E+00; -4.5266678E-03;  7.8519586E+02;
  7.4123609E-01;  9.9999998E-03; -1.9048434E-01;6910;  1.0531945E-02;  0.0000000E+00;  1.0391194E-03;  9.9976990E+02;  1.2701201E-01; -1.9061189E+02;3;  2.1082487E+00;  0.0000000E+00; -2.4382237E-02;0;  3.9296582E-02;  2.4888852E+04;  0.0000000E+00;  5.7941359E-01;  4.0000000E+04;  0.0000000E+00;  3.9840469E+04;  4.4025358E-02;  0.0000000E+00; -4.7287741E-03;  7.5596667E+02;
  7.4114221E-01;  9.9999998E-03; -1.8048061E-01;6911;  1.0247024E-02;  0.0000000E+00;  1.0002422E-03;  9.9998358E+02;  1.2696826E-01; -1.3579863E+01;3;  2.0489955E+00;  0.0000000E+00; -3.1149421E-02;0;  3.8227584E-02;  2.4915998E+04;  0.0000000E+00;  5.7770848E-01;  4.0000000E+04;  0.0000000E+00;  3.9839387E+04;  4.3156996E-02;  0.0000000E+00; -4.9294112E-03;  7.8535718E+02;
  7.4108100E-01;  9.9999998E-03; -1.7047162E-01;6912;  1.0044329E-02;  0.0000000E+00;  9.5509604E-04;  1.0001364E+03;  1.2692876E-01;  1.1298446E+02;3;  2.0308454E+00;  0.0000000E+00; -3.7683599E-02;0;  3.7463188E-02;  2.4938275E+04;  0.0000000E+00;  5.7639658E-01;  4.0000000E+04;  0.0000000E+00;  3.9838750E+04;  4.2594425E-02;  0.0000000E+00; -5.1312358E-03;  8.4940051E+02;
  7.4105066E-01;  9.9999998E-03; -1.6045865E-01;6913;  9.9132108E-03;  0.0000000E+00;  9.0795435E-04;  1.0002019E+03;  1.2689398E-01;  1.6730391E+02;3;  2.0183856E+00;  0.0000000E+00; -4.6583589E-02;0;  3.6965176E-02;  2.4954797E+04;  0.0000000E+00;  5.8599907E-01;  4.0000000E+04;  0.0000000E+00;  3.9837801E+04;  4.2292397E-02;  0.0000000E+00; -5.3272219E-03;  9.7061121E+02;
  7.4105090E-01;  9.9999998E-03; -1.5044253E-01;6914;  9.8308884E-03;  0.0000000E+00;  8.6244987E-04;  1.0002006E+03;  1.2686396E-01;  1.6611876E+02;3;  2.0281456E+00;  0.0000000E+00; -4.6870284E-02;0;  3.6680222E-02;  2.4965393E+04;  0.0000000E+00;  6.1039621E-01;  4.0000000E+04;  0.0000000E+00;  3.9837344E+04;  4.2190336E-02;  0.0000000E+00; -5.5101141E-03;  1.1346019E+03;
  7.4108195E-01;  9.9999998E-03; -1.4042258E-01;6915;  9.7845197E-03;  0.0000000E+00;  8.2013407E-04;  1.0001381E+03;  1.2684186E-01;  1.1436713E+02;3;  2.0382791E+00;  0.0000000E+00; -4.5417417E-02;0;  3.6547940E-02;  2.4969760E+04;  0.0000000E+00;  6.4565313E-01;  4.0000000E+04;  0.0000000E+00;  3.9837020E+04;  4.2222891E-02;  0.0000000E+00; -5.6749512E-03;  1.3092960E+03;
  7.4113840E-01;  9.9999998E-03; -1.3039786E-01;6916;  9.7598033E-03;  0.0000000E+00;  7.7610789E-04;  1.0000364E+03;  1.2682652E-01;  3.0221367E+01;3;  2.0547903E+00;  0.0000000E+00; -4.4902463E-02;0;  3.6507852E-02;  2.4968607E+04;  0.0000000E+00;  6.8076628E-01;  4.0000000E+04;  0.0000000E+00;  3.9837348E+04;  4.2327456E-02;  0.0000000E+00; -5.8196038E-03;  1.4632889E+03;
  7.4121016E-01;  9.9999998E-03; -1.2037046E-01;6917;  9.7368695E-03;  0.0000000E+00;  7.2923960E-04;  9.9990295E+02;  1.2681894E-01; -8.0392792E+01;3;  2.0686445E+00;  0.0000000E+00; -4.3084208E-02;0;  3.6507465E-02;  2.4963350E+04;  0.0000000E+00;  7.0115423E-01;  4.0000000E+04;  0.0000000E+00;  3.9838070E+04;  4.2452224E-02;  0.0000000E+00; -5.9447582E-03;  1.5677535E+03;
  7.4128711E-01;  9.9999998E-03; -1.1034182E-01;6918;  9.7155189E-03;  0.0000000E+00;  6.7773135E-04;  9.9977527E+02;  1.2681650E-01; -1.8616757E+02;3;  2.0781312E+00;  0.0000000E+00; -4.1114479E-02;0;  3.6509056E-02;  2.4956064E+04;  0.0000000E+00;  6.9452262E-01;  4.0000000E+04;  0.0000000E+00;  3.9838914E+04;  4.2561948E-02;  0.0000000E+00; -6.0528936E-03;  1.6002853E+03;
  7.5431782E-01;  9.9999998E-03; -2.7059263E-01;6963;  1.5191476E-02;  0.0000000E+00;  1.5275998E-03;  9.9690991E+02;  1.3134730E-01; -2.5600757E+03;3;  2.6518884E+00;  0.0000000E+00;  1.1311252E-01;0;  5.9525978E-02;  2.3140881E+04;  0.0000000E+00;  1.0880418E+00;  4.0000000E+04;  0.0000000E+00;  3.9845051E+04;  6.3496523E-02;  0.0000000E+00; -3.9705434E-03;  4.6632988E+03;
  7.5442600E-01;  9.9999998E-03; -2.6057142E-01;6964;  1.4523631E-02;  0.0000000E+00;  1.4387335E-03;  9.9720453E+02;  1.3139151E-01; -2.3159839E+03;3;  2.6403105E+00;  0.0000000E+00;  8.0839522E-02;0;  5.7467621E-02;  2.3141014E+04;  0.0000000E+00;  2.3202688E-01;  4.0000000E+04;  0.0000000E+00;  3.9841637E+04;  6.1214618E-02;  0.0000000E+00; -3.7469969E-03;  3.6576973E+03;
  7.5458771E-01;  9.9999998E-03; -2.5054768E-01;6965;  1.3873702E-02;  0.0000000E+00;  1.3673605E-03;  9.9751410E+02;  1.3144511E-01; -2.0594973E+03;3;  2.5851760E+00;  0.0000000E+00;  5.5498075E-02;0;  5.5134840E-02;  2.3139533E+04;  0.0000000E+00; -8.5397892E-02;  4.0000000E+04;  0.0000000E+00;  3.9838426E+04;  5.8939412E-02;  0.0000000E+00; -3.8045703E-03;  3.3388291E+03;
  7.5465322E-01;  9.9999998E-03; -2.4051824E-01;6966;  1.3254958E-02;  0.0000000E+00;  1.3044587E-03;  9.9783899E+02;  1.3146858E-01; -1.7903691E+03;3;  2.5439103E+00;  0.0000000E+00;  4.0461801E-02;0;  5.2706659E-02;  2.3148963E+04;  0.0000000E+00; -6.0794245E-02;  4.0000000E+04;  0.0000000E+00;  3.9836129E+04;  5.6674495E-02;  0.0000000E+00; -3.9678374E-03;  3.0451484E+03;
  7.5458902E-01;  9.9999998E-03; -2.3047440E-01;6967;  1.2717789E-02;  0.0000000E+00;  1.2186973E-03;  9.9817853E+02;  1.3145687E-01; -1.5090437E+03;3;  2.5001574E+00;  0.0000000E+00;  2.1363584E-02;0;  5.0382771E-02;  2.3170438E+04;  0.0000000E+00;  8.1878640E-02;  4.0000000E+04;  0.0000000E+00;  3.9835641E+04;  5.4469496E-02;  0.0000000E+00; -4.0867236E-03;  2.9063635E+03;
  7.5446928E-01;  9.9999998E-03; -2.2042084E-01;6968;  1.2050975E-02;  0.0000000E+00;  1.2653007E-03;  9.9851562E+02;  1.3142803E-01; -1.2297924E+03;3;  2.4119160E+00;  0.0000000E+00;  1.8595412E-02;0;  4.7898650E-02;  2.3197719E+04;  0.0000000E+00;  2.2338428E-01;  4.0000000E+04;  0.0000000E+00;  3.9833762E+04;  5.2426994E-02;  0.0000000E+00; -4.5283423E-03;  2.6169138E+03;
  7.5432932E-01;  9.9999998E-03; -2.1039277E-01;6969;  1.1378281E-02;  0.0000000E+00;  1.3698143E-03;  9.9878357E+02;  1.3138728E-01; -1.0077740E+03;3;  2.3216379E+00;  0.0000000E+00;  2.4815731E-02;0;  4.5743667E-02;  2.3228654E+04;  0.0000000E+00;  3.1845832E-01;  4.0000000E+04;  0.0000000E+00;  3.9827848E+04;  5.0626565E-02;  0.0000000E+00; -4.8828991E-03;  1.7932151E+03;
  7.5418216E-01;  9.9999998E-03; -2.0039688E-01;6970;  1.0931753E-02;  0.0000000E+00;  1.3586624E-03;  9.9902924E+02;  1.3133949E-01; -8.0427356E+02;3;  2.2391381E+00;  0.0000000E+00;  1.6222861E-02;0;  4.4085089E-02;  2.3261406E+04;  0.0000000E+00;  3.5846579E-01;  4.0000000E+04;  0.0000000E+00;  3.9821688E+04;  4.9122434E-02;  0.0000000E+00; -5.0373455E-03;  9.5660278E+02;
  7.5402516E-01;  9.9999998E-03; -1.9041321E-01;6971;  1.0602158E-02;  0.0000000E+00;  1.2909778E-03;  9.9926672E+02;  1.3128249E-01; -6.0748901E+02;3;  2.1740773E+00;  0.0000000E+00;  1.1489776E-02;0;  4.2755090E-02;  2.3294844E+04;  0.0000000E+00;  3.5608274E-01;  4.0000000E+04;  0.0000000E+00;  3.9817617E+04;  4.7948699E-02;  0.0000000E+00; -5.1936083E-03;  4.3957629E+02;
  7.5387383E-01;  9.9999998E-03; -1.8042484E-01;6972;  1.0366551E-02;  0.0000000E+00;  1.2151209E-03;  9.9946851E+02;  1.3122162E-01; -4.4033322E+02;3;  2.1379519E+00;  0.0000000E+00;  3.3395151E-03;0;  4.1734178E-02;  2.3326908E+04;  0.0000000E+00;  3.3404902E-01;  4.0000000E+04;  0.0000000E+00;  3.9815785E+04;  4.7117691E-02;  0.0000000E+00; -5.3835129E-03;  2.4157277E+02;
  7.5375295E-01;  9.9999998E-03; -1.7043255E-01;6973;  1.0200216E-02;  0.0000000E+00;  1.1389347E-03;  9.9962073E+02;  1.3116391E-01; -3.1421335E+02;3;  2.1195991E+00;  0.0000000E+00; -9.2585254E-03;0;  4.1030880E-02;  2.3354336E+04;  0.0000000E+00;  3.1645653E-01;  4.0000000E+04;  0.0000000E+00;  3.9814664E+04;  4.6618026E-02;  0.0000000E+00; -5.5871443E-03;  3.1645380E+02;
  7.5368077E-01;  9.9999998E-03; -1.6043504E-01;6974;  1.0092217E-02;  0.0000000E+00;  1.0694622E-03;  9.9971313E+02;  1.3111445E-01; -2.3767229E+02;3;  2.1051130E+00;  0.0000000E+00; -1.9690018E-02;0;  4.0622599E-02;  2.3375189E+04;  0.0000000E+00;  3.2151988E-01;  4.0000000E+04;  0.0000000E+00;  3.9814176E+04;  4.6410333E-02;  0.0000000E+00; -5.7877335E-03;  4.9370944E+02;
  7.5369567E-01;  9.9999998E-03; -1.5043013E-01;6975;  1.0045381E-02;  0.0000000E+00;  1.0058903E-03;  9.9975696E+02;  1.3108554E-01; -2.0137701E+02;3;  2.1199124E+00;  0.0000000E+00; -2.0652108E-02;0;  4.0468119E-02;  2.3385709E+04;  0.0000000E+00;  3.5594872E-01;  4.0000000E+04;  0.0000000E+00;  3.9813797E+04;  4.6443693E-02;  0.0000000E+00; -5.9755738E-03;  7.0745685E+02;
  7.5378007E-01;  9.9999998E-03; -1.4042032E-01;6976;  1.0033702E-02;  0.0000000E+00;  9.4888109E-04;  9.9976270E+02;  1.3107625E-01; -1.9658704E+02;3;  2.1430926E+00;  0.0000000E+00; -2.2221440E-02;0;  4.0494502E-02;  2.3387588E+04;  0.0000000E+00;  4.1489530E-01;  4.0000000E+04;  0.0000000E+00;  3.9813938E+04;  4.6638995E-02;  0.0000000E+00; -6.1444947E-03;  9.4495325E+02;
  7.5389129E-01;  9.9999998E-03; -1.3040717E-01;6977;  1.0051062E-02;  0.0000000E+00;  8.9441863E-04;  9.9973474E+02;  1.3107230E-01; -2.1974687E+02;3;  2.1673887E+00;  0.0000000E+00; -1.8548572E-02;0;  4.0617287E-02;  2.3384846E+04;  0.0000000E+00;  4.8374858E-01;  4.0000000E+04;  0.0000000E+00;  3.9814812E+04;  4.6908874E-02;  0.0000000E+00; -6.2915850E-03;  1.1852743E+03;
  7.5401604E-01;  9.9999998E-03; -1.2039137E-01;6978;  1.0079443E-02;  0.0000000E+00;  8.3787547E-04;  9.9968835E+02;  1.3107395E-01; -2.5821490E+02;3;  2.1953373E+00;  0.0000000E+00; -1.8461850E-02;0;  4.0770240E-02;  2.3378896E+04;  0.0000000E+00;  5.4189342E-01;  4.0000000E+04;  0.0000000E+00;  3.9815594E+04;  4.7188524E-02;  0.0000000E+00; -6.4182836E-03;  1.3890728E+03;
  7.5413930E-01;  9.9999998E-03; -1.1037088E-01;6979;  1.0101073E-02;  0.0000000E+00;  7.7467097E-04;  9.9964465E+02;  1.3107868E-01; -2.9441144E+02;3;  2.2313135E+00;  0.0000000E+00; -1.6538270E-02;0;  4.0902831E-02;  2.3371732E+04;  0.0000000E+00;  5.7110322E-01;  4.0000000E+04;  0.0000000E+00;  3.9816914E+04;  4.7430165E-02;  0.0000000E+00; -6.5273349E-03;  1.5162876E+03;
  7.6809025E-01;  9.9999998E-03; -2.7067462E-01;7024;  1.5706796E-02;  0.0000000E+00;  1.7333578E-03;  9.9676685E+02;  1.3612583E-01; -2.6785908E+03;3;  2.7610240E+00;  0.0000000E+00;  1.2528406E-01;0;  6.2827915E-02;  2.1549373E+04;  0.0000000E+00;  2.2046747E+00;  4.0000000E+04;  0.0000000E+00;  3.9822531E+04;  6.7878179E-02;  0.0000000E+00; -5.0502657E-03;  7.4632915E+03;
  7.6820070E-01;  9.9999998E-03; -2.6065090E-01;7025;  1.4954879E-02;  0.0000000E+00;  1.6469647E-03;  9.9713013E+02;  1.3617751E-01; -2.3776118E+03;3;  2.6993513E+00;  0.0000000E+00;  1.0215531E-01;0;  6.0994763E-02;  2.1551340E+04;  0.0000000E+00;  7.1235728E-01;  4.0000000E+04;  0.0000000E+00;  3.9818660E+04;  6.5677792E-02;  0.0000000E+00; -4.6830289E-03;  4.3385723E+03;
  7.6840091E-01;  9.9999998E-03; -2.5062460E-01;7026;  1.4247154E-02;  0.0000000E+00;  1.5914567E-03;  9.9752753E+02;  1.3625185E-01; -2.0483865E+03;3;  2.6777780E+00;  0.0000000E+00;  8.1274115E-02;0;  5.8790322E-02;  2.1547754E+04;  0.0000000E+00;  1.3436525E-02;  4.0000000E+04;  0.0000000E+00;  3.9814809E+04;  6.3479245E-02;  0.0000000E+00; -4.6889237E-03;  3.3628789E+03;
  7.6847935E-01;  9.9999998E-03; -2.4059065E-01;7027;  1.3552184E-02;  0.0000000E+00;  1.5587813E-03;  9.9788879E+02;  1.3629137E-01; -1.7490863E+03;3;  2.6251943E+00;  0.0000000E+00;  5.5577476E-02;0;  5.6435037E-02;  2.1554252E+04;  0.0000000E+00; -1.2343343E-01;  4.0000000E+04;  0.0000000E+00;  3.9811938E+04;  6.1277807E-02;  0.0000000E+00; -4.8427708E-03;  3.0899302E+03;
  7.6840103E-01;  9.9999998E-03; -2.3054023E-01;7028;  1.2903635E-02;  0.0000000E+00;  1.5216715E-03;  9.9823871E+02;  1.3628122E-01; -1.4592180E+03;3;  2.5645103E+00;  0.0000000E+00;  5.0150264E-02;0;  5.4159794E-02;  2.1574750E+04;  0.0000000E+00; -2.8319405E-02;  4.0000000E+04;  0.0000000E+00;  3.9811211E+04;  5.9120044E-02;  0.0000000E+00; -4.9602492E-03;  2.9459819E+03;
  7.6824462E-01;  9.9999998E-03; -2.2046788E-01;7029;  1.2240994E-02;  0.0000000E+00;  1.5595744E-03;  9.9856714E+02;  1.3624436E-01; -1.1870775E+03;3;  2.4941432E+00;  0.0000000E+00;  4.8637956E-02;0;  5.1874097E-02;  2.1603062E+04;  0.0000000E+00;  1.0355587E-01;  4.0000000E+04;  0.0000000E+00;  3.9810492E+04;  5.7112370E-02;  0.0000000E+00; -5.2382713E-03;  2.7629233E+03;
  7.6804143E-01;  9.9999998E-03; -2.1040209E-01;7030;  1.1582643E-02;  0.0000000E+00;  1.6345528E-03;  9.9882312E+02;  1.3618807E-01; -9.7503418E+02;3;  2.3993325E+00;  0.0000000E+00;  4.5547262E-02;0;  4.9860373E-02;  2.1636760E+04;  0.0000000E+00;  1.8709429E-01;  4.0000000E+04;  0.0000000E+00;  3.9805555E+04;  5.5335045E-02;  0.0000000E+00; -5.4746731E-03;  2.0688293E+03;
  7.6785243E-01;  9.9999998E-03; -2.0036803E-01;7031;  1.1093996E-02;  0.0000000E+00;  1.6139769E-03;  9.9902698E+02;  1.3612954E-01; -8.0615002E+02;3;  2.3205557E+00;  0.0000000E+00;  5.0394468E-02;0;  4.8258375E-02;  2.1670037E+04;  0.0000000E+00;  2.0005015E-01;  4.0000000E+04;  0.0000000E+00;  3.9798418E+04;  5.3849757E-02;  0.0000000E+00; -5.5913809E-03;  1.1388622E+03;
  7.6768219E-01;  9.9999998E-03; -1.9036040E-01;7032;  1.0779337E-02;  0.0000000E+00;  1.5341819E-03;  9.9921503E+02;  1.3606837E-01; -6.5035199E+02;3;  2.2705002E+00;  0.0000000E+00;  4.6119887E-02;0;  4.6961393E-02;  2.1701803E+04;  0.0000000E+00;  1.5520473E-01;  4.0000000E+04;  0.0000000E+00;  3.9793023E+04;  5.2697200E-02;  0.0000000E+00; -5.7358085E-03;  4.6712195E+02;
  7.6753896E-01;  9.9999998E-03; -1.8035705E-01;7033;  1.0574335E-02;  0.0000000E+00;  1.4346569E-03;  9.9937946E+02;  1.3600737E-01; -5.1410889E+02;3;  2.2350273E+00;  0.0000000E+00;  3.0462977E-02;0;  4.5971729E-02;  2.1730570E+04;  0.0000000E+00;  8.2373127E-02;  4.0000000E+04;  0.0000000E+00;  3.9789953E+04;  5.1898200E-02;  0.0000000E+00; -5.9264726E-03;  3.6672037E+02;
  7.6744932E-01;  9.9999998E-03; -1.7035094E-01;7034;  1.0459139E-02;  0.0000000E+00;  1.3274417E-03;  9.9950873E+02;  1.3595594E-01; -4.0700082E+02;3;  2.2243164E+00;  0.0000000E+00;  1.8187372E-02;0;  4.5309208E-02;  2.1753574E+04;  0.0000000E+00;  1.6253628E-02;  4.0000000E+04;  0.0000000E+00;  3.9788195E+04;  5.1447209E-02;  0.0000000E+00; -6.1379988E-03;  4.9313461E+02;
  7.6743990E-01;  9.9999998E-03; -1.6033538E-01;7035;  1.0408432E-02;  0.0000000E+00;  1.2332128E-03;  9.9960638E+02;  1.3592215E-01; -3.2611423E+02;3;  2.2394142E+00;  0.0000000E+00;  7.6155262E-03;0;  4.4961777E-02;  2.1767811E+04;  0.0000000E+00; -1.6238363E-02;  4.0000000E+04;  0.0000000E+00;  3.9787863E+04;  5.1310208E-02;  0.0000000E+00; -6.3484306E-03;  5.1503168E+02;
  7.6745045E-01;  9.9999998E-03; -1.5031770E-01;7036;  1.0438074E-02;  0.0000000E+00;  1.1542389E-03;  9.9964954E+02;  1.3588914E-01; -2.9036215E+02;3;  2.2656634E+00;  0.0000000E+00;  5.4712812E-03;0;  4.4855084E-02;  2.1778645E+04;  0.0000000E+00; -1.8786174E-03;  4.0000000E+04;  0.0000000E+00;  3.9787969E+04;  5.1395699E-02;  0.0000000E+00; -6.5406156E-03;  4.2737375E+02;
  7.6747549E-01;  9.9999998E-03; -1.4029624E-01;7037;  1.0550094E-02;  0.0000000E+00;  1.0811860E-03;  9.9965704E+02;  1.3585576E-01; -2.8414011E+02;3;  2.3370881E+00;  0.0000000E+00;  8.4042456E-03;0;  4.4912111E-02;  2.1786773E+04;  0.0000000E+00;  5.5537622E-02;  4.0000000E+04;  0.0000000E+00;  3.9788738E+04;  5.1621016E-02;  0.0000000E+00; -6.7089056E-03;  3.5559528E+02;
  7.6753092E-01;  9.9999998E-03; -1.3027103E-01;7038;  1.0705746E-02;  0.0000000E+00;  1.0123837E-03;  9.9964655E+02;  1.3582963E-01; -2.9283124E+02;3;  2.4283574E+00;  0.0000000E+00;  7.6803467E-03;0;  4.5061018E-02;  2.1791008E+04;  0.0000000E+00;  1.3776417E-01;  4.0000000E+04;  0.0000000E+00;  3.9790027E+04;  5.1915057E-02;  0.0000000E+00; -6.8540392E-03;  4.9710657E+02;
  7.6769847E-01;  9.9999998E-03; -1.2024055E-01;7039;  1.0884645E-02;  0.0000000E+00;  9.4627851E-04;  9.9967078E+02;  1.3584030E-01; -2.7273303E+02;3;  2.5186682E+00;  0.0000000E+00;  8.7622348E-03;0;  4.5258895E-02;  2.1783787E+04;  0.0000000E+00;  2.1788822E-01;  4.0000000E+04;  0.0000000E+00;  3.9791777E+04;  5.2241560E-02;  0.0000000E+00; -6.9826655E-03;  7.5207635E+02;
  7.6791728E-01;  9.9999998E-03; -1.1020453E-01;7040;  1.1062832E-02;  0.0000000E+00;  8.7435427E-04;  9.9971393E+02;  1.3587174E-01; -2.3698096E+02;3;  2.6132405E+00;  0.0000000E+00;  1.5220901E-02;0;  4.5436468E-02;  2.1770820E+04;  0.0000000E+00;  2.7459955E-01;  4.0000000E+04;  0.0000000E+00;  3.9793293E+04;  5.2532528E-02;  0.0000000E+00; -7.0960582E-03;  9.8032953E+02;
  7.8291184E-01;  9.9999998E-03; -2.7077752E-01;7085;  1.6599653E-02;  0.0000000E+00;  1.9306011E-03;  9.9755890E+02;  1.4155322E-01; -2.0224117E+03;3;  2.9920678E+00;  0.0000000E+00;  1.3891810E-01;0;  6.6060573E-02;  1.9966404E+04;  0.0000000E+00;  1.3384528E+00;  4.0000000E+04;  0.0000000E+00;  3.9787156E+04;  7.1793035E-02;  0.0000000E+00; -5.7324590E-03;  6.3552402E+03;
  7.8290266E-01;  9.9999998E-03; -2.6075411E-01;7086;  1.5623515E-02;  0.0000000E+00;  1.8558406E-03;  9.9791565E+02;  1.4157403E-01; -1.7268646E+03;3;  2.8510883E+00;  0.0000000E+00;  1.1351226E-01;0;  6.4495005E-02;  1.9977277E+04;  0.0000000E+00;  1.8427408E-01;  4.0000000E+04;  0.0000000E+00;  3.9783840E+04;  6.9918327E-02;  0.0000000E+00; -5.4233205E-03;  3.1825474E+03;
  7.8304964E-01;  9.9999998E-03; -2.5073034E-01;7087;  1.4805204E-02;  0.0000000E+00;  1.8031509E-03;  9.9832159E+02;  1.4163868E-01; -1.3905284E+03;3;  2.7667916E+00;  0.0000000E+00;  9.8463722E-02;0;  6.2605143E-02;  1.9978207E+04;  0.0000000E+00; -2.6629823E-01;  4.0000000E+04;  0.0000000E+00;  3.9780004E+04;  6.7972027E-02;  0.0000000E+00; -5.3668874E-03;  2.3074243E+03;
  7.8312612E-01;  9.9999998E-03; -2.4070244E-01;7088;  1.4002278E-02;  0.0000000E+00;  1.8002549E-03;  9.9869086E+02;  1.4168164E-01; -1.0846112E+03;3;  2.7167184E+00;  0.0000000E+00;  8.0598898E-02;0;  6.0414754E-02;  1.9984264E+04;  0.0000000E+00; -2.3682056E-01;  4.0000000E+04;  0.0000000E+00;  3.9776707E+04;  6.6008769E-02;  0.0000000E+00; -5.5940137E-03;  2.0306816E+03;
  7.8301418E-01;  9.9999998E-03; -2.3066461E-01;7089;  1.3238103E-02;  0.0000000E+00;  1.8205045E-03;  9.9900531E+02;  1.4166144E-01; -8.2407538E+02;3;  2.6507924E+00;  0.0000000E+00;  6.2099300E-02;0;  5.8243304E-02;  2.0005951E+04;  0.0000000E+00; -4.6543818E-02;  4.0000000E+04;  0.0000000E+00;  3.9775480E+04;  6.4051822E-02;  0.0000000E+00; -5.8085192E-03;  1.7510645E+03;
  7.8279215E-01;  9.9999998E-03; -2.2060007E-01;7090;  1.2588901E-02;  0.0000000E+00;  1.7895694E-03;  9.9930334E+02;  1.4160043E-01; -5.7716882E+02;3;  2.5850112E+00;  0.0000000E+00;  5.6199916E-02;0;  5.6323595E-02;  2.0037986E+04;  0.0000000E+00;  1.1677264E-01;  4.0000000E+04;  0.0000000E+00;  3.9775949E+04;  6.2173683E-02;  0.0000000E+00; -5.8500865E-03;  1.7211454E+03;
  7.8251255E-01;  9.9999998E-03; -2.1051148E-01;7091;  1.1982699E-02;  0.0000000E+00;  1.8020938E-03;  9.9954108E+02;  1.4151695E-01; -3.8018674E+02;3;  2.5247993E+00;  0.0000000E+00;  5.8572974E-02;0;  5.4476541E-02;  2.0075225E+04;  0.0000000E+00;  1.8797378E-01;  4.0000000E+04;  0.0000000E+00;  3.9775426E+04;  6.0478445E-02;  0.0000000E+00; -6.0019041E-03;  1.5406746E+03;
  7.8224784E-01;  9.9999998E-03; -2.0044132E-01;7092;  1.1491116E-02;  0.0000000E+00;  1.7887073E-03;  9.9970355E+02;  1.4143313E-01; -2.4562267E+02;3;  2.4548929E+00;  0.0000000E+00;  6.2847130E-02;0;  5.2893240E-02;  2.0111633E+04;  0.0000000E+00;  1.5947351E-01;  4.0000000E+04;  0.0000000E+00;  3.9770949E+04;  5.9041992E-02;  0.0000000E+00; -6.1487523E-03;  9.0897321E+02;
  7.8204519E-01;  9.9999998E-03; -1.9039920E-01;7093;  1.1167279E-02;  0.0000000E+00;  1.7034709E-03;  9.9983044E+02;  1.4136027E-01; -1.4048984E+02;3;  2.4123070E+00;  0.0000000E+00;  4.9499203E-02;0;  5.1604398E-02;  2.0142785E+04;  0.0000000E+00;  5.5252358E-02;  4.0000000E+04;  0.0000000E+00;  3.9765770E+04;  5.7915732E-02;  0.0000000E+00; -6.3113351E-03;  4.9982471E+02;
  7.8192019E-01;  9.9999998E-03; -1.8036215E-01;7094;  1.0991687E-02;  0.0000000E+00;  1.5850967E-03;  9.9994257E+02;  1.4130555E-01; -4.7603588E+01;3;  2.3918240E+00;  0.0000000E+00;  3.5642218E-02;0;  5.0608024E-02;  2.0166770E+04;  0.0000000E+00; -8.4685504E-02;  4.0000000E+04;  0.0000000E+00;  3.9762457E+04;  5.7126168E-02;  0.0000000E+00; -6.5181437E-03;  7.8599341E+02;
  7.8188181E-01;  9.9999998E-03; -1.7032562E-01;7095;  1.0960473E-02;  0.0000000E+00;  1.4560290E-03;  1.0000352E+03;  1.4127007E-01;  2.9134975E+01;3;  2.4113376E+00;  0.0000000E+00;  2.2890113E-02;0;  4.9920388E-02;  2.0182461E+04;  0.0000000E+00; -2.1759772E-01;  4.0000000E+04;  0.0000000E+00;  3.9760480E+04;  5.6665838E-02;  0.0000000E+00; -6.7454483E-03;  1.0908622E+03;
  7.8190535E-01;  9.9999998E-03; -1.6029321E-01;7096;  1.1080641E-02;  0.0000000E+00;  1.3315580E-03;  1.0000944E+03;  1.4124726E-01;  7.8220001E+01;3;  2.4891696E+00;  0.0000000E+00;  6.6649336E-03;0;  4.9516749E-02;  2.0191760E+04;  0.0000000E+00; -3.0967560E-01;  4.0000000E+04;  0.0000000E+00;  3.9759652E+04;  5.6483556E-02;  0.0000000E+00; -6.9668056E-03;  1.2121506E+03;
  7.8196955E-01;  9.9999998E-03; -1.5026352E-01;7097;  1.1322957E-02;  0.0000000E+00;  1.2332755E-03;  1.0001269E+03;  1.4123185E-01;  1.0508344E+02;3;  2.6000283E+00;  0.0000000E+00;  2.5892577E-03;0;  4.9342293E-02;  2.0196291E+04;  0.0000000E+00; -3.4405878E-01;  4.0000000E+04;  0.0000000E+00;  3.9760555E+04;  5.6509696E-02;  0.0000000E+00; -7.1674022E-03;  1.1342667E+03;
  7.8205562E-01;  9.9999998E-03; -1.4022794E-01;7098;  1.1712213E-02;  0.0000000E+00;  1.1470459E-03;  1.0001395E+03;  1.4121765E-01;  1.1555228E+02;3;  2.7500396E+00;  0.0000000E+00;  5.9222612E-03;0;  4.9316175E-02;  2.0197541E+04;  0.0000000E+00; -3.2273409E-01;  4.0000000E+04;  0.0000000E+00;  3.9761715E+04;  5.6659151E-02;  0.0000000E+00; -7.3429737E-03;  8.9347644E+02;
  7.8215104E-01;  9.9999998E-03; -1.3018642E-01;7099;  1.2182773E-02;  0.0000000E+00;  1.0616777E-03;  1.0001372E+03;  1.4120556E-01;  1.1367579E+02;3;  2.9497900E+00;  0.0000000E+00;  1.3560165E-02;0;  4.9367055E-02;  2.0196910E+04;  0.0000000E+00; -2.6239255E-01;  4.0000000E+04;  0.0000000E+00;  3.9763973E+04;  5.6861728E-02;  0.0000000E+00; -7.4946731E-03;  5.5913721E+02;
  7.8224486E-01;  9.9999998E-03; -1.2014243E-01;7100;  1.2600449E-02;  0.0000000E+00;  9.7580563E-04;  1.0001426E+03;  1.4119275E-01;  1.1821887E+02;3;  3.1340475E+00;  0.0000000E+00;  1.6771020E-02;0;  4.9440958E-02;  2.0195459E+04;  0.0000000E+00; -1.8633734E-01;  4.0000000E+04;  0.0000000E+00;  3.9766219E+04;  5.7066806E-02;  0.0000000E+00; -7.6258462E-03;  2.7892770E+02;
  7.8231555E-01;  9.9999998E-03; -1.1009882E-01;7101;  1.2910225E-02;  0.0000000E+00;  8.9071481E-04;  1.0001624E+03;  1.4117579E-01;  1.3451471E+02;3;  3.2792356E+00;  0.0000000E+00;  2.1765601E-02;0;  4.9490288E-02;  2.0195000E+04;  0.0000000E+00; -1.1575428E-01;  4.0000000E+04;  0.0000000E+00;  3.9768223E+04;  5.7229992E-02;  0.0000000E+00; -7.7397046E-03;  3.8800626E+02;
  7.9861087E-01;  9.9999998E-03; -2.7089098E-01;7146;  1.8771140E-02;  0.0000000E+00;  2.0113601E-03;  9.9853864E+02;  1.4760318E-01; -1.2107311E+03;3;  3.4846807E+00;  0.0000000E+00;  1.3457090E-01;0;  6.8781480E-02;  1.8400111E+04;  0.0000000E+00;  4.0670356E-01;  4.0000000E+04;  0.0000000E+00;  3.9746824E+04;  7.3512584E-02;  0.0000000E+00; -4.7311019E-03;  4.2192993E+03;
  7.9844111E-01;  9.9999998E-03; -2.6086891E-01;7147;  1.7381761E-02;  0.0000000E+00;  1.9427250E-03;  9.9885156E+02;  1.4757507E-01; -9.5147919E+02;3;  3.3365395E+00;  0.0000000E+00;  1.1429781E-01;0;  6.7546040E-02;  1.8420396E+04;  0.0000000E+00; -1.8501858E-01;  4.0000000E+04;  0.0000000E+00;  3.9744312E+04;  7.2382912E-02;  0.0000000E+00; -4.8368727E-03;  1.6781208E+03;
  7.9839051E-01;  9.9999998E-03; -2.5084862E-01;7148;  1.6196841E-02;  0.0000000E+00;  1.8934865E-03;  9.9919788E+02;  1.4758663E-01; -6.6452435E+02;3;  3.1394055E+00;  0.0000000E+00;  9.4077431E-02;0;  6.5938234E-02;  1.8432961E+04;  0.0000000E+00; -2.8999150E-01;  4.0000000E+04;  0.0000000E+00;  3.9741172E+04;  7.1050882E-02;  0.0000000E+00; -5.1126499E-03;  9.5508405E+02;
  7.9825920E-01;  9.9999998E-03; -2.4082872E-01;7149;  1.5119929E-02;  0.0000000E+00;  1.9057576E-03;  9.9951239E+02;  1.4756992E-01; -4.0398856E+02;3;  2.9987667E+00;  0.0000000E+00;  6.7047015E-02;0;  6.3941143E-02;  1.8451879E+04;  0.0000000E+00; -1.2463663E-01;  4.0000000E+04;  0.0000000E+00;  3.9738777E+04;  6.9599800E-02;  0.0000000E+00; -5.6586559E-03;  6.3934503E+02;
  7.9805291E-01;  9.9999998E-03; -2.3081402E-01;7150;  1.4076525E-02;  0.0000000E+00;  1.9993719E-03;  9.9976837E+02;  1.4752582E-01; -1.9189580E+02;3;  2.8825865E+00;  0.0000000E+00;  3.7400197E-02;0;  6.1853956E-02;  1.8476834E+04;  0.0000000E+00;  7.6179020E-02;  4.0000000E+04;  0.0000000E+00;  3.9735848E+04;  6.8117775E-02;  0.0000000E+00; -6.2638186E-03;  1.7172406E+02;
  7.9775620E-01;  9.9999998E-03; -2.2080170E-01;7151;  1.3300329E-02;  0.0000000E+00;  1.9974194E-03;  9.9998865E+02;  1.4744078E-01; -9.3824501E+00;3;  2.7987444E+00;  0.0000000E+00;  3.2921746E-02;0;  6.0201976E-02;  1.8511213E+04;  0.0000000E+00;  2.0666531E-01;  4.0000000E+04;  0.0000000E+00;  3.9733840E+04;  6.6611484E-02;  0.0000000E+00; -6.4095077E-03;  2.7097348E+02;
  7.9738051E-01;  9.9999998E-03; -2.1075398E-01;7152;  1.2784916E-02;  0.0000000E+00;  1.8999688E-03;  1.0002104E+03;  1.4732142E-01;  1.7431604E+02;3;  2.7481742E+00;  0.0000000E+00;  2.6596859E-02;0;  5.8696356E-02;  1.8553045E+04;  0.0000000E+00;  2.2935826E-01;  4.0000000E+04;  0.0000000E+00;  3.9735969E+04;  6.5154254E-02;  0.0000000E+00; -6.4578978E-03;  2.1855252E+02;
  7.9697913E-01;  9.9999998E-03; -2.0067981E-01;7153;  1.2357378E-02;  0.0000000E+00;  1.8111850E-03;  1.0003679E+03;  1.4718838E-01;  3.0478149E+02;3;  2.6975868E+00;  0.0000000E+00;  1.6463079E-02;0;  5.7235286E-02;  1.8596965E+04;  0.0000000E+00;  1.5156573E-01;  4.0000000E+04;  0.0000000E+00;  3.9737012E+04;  6.3860551E-02;  0.0000000E+00; -6.6252653E-03;  3.9475399E+01;
  7.9663092E-01;  9.9999998E-03; -1.9060817E-01;7154;  1.2074787E-02;  0.0000000E+00;  1.7060532E-03;  1.0004624E+03;  1.4706442E-01;  3.8310025E+02;3;  2.6756699E+00;  0.0000000E+00;  4.5516347E-03;0;  5.5949673E-02;  1.8636818E+04;  0.0000000E+00;  2.0389522E-03;  4.0000000E+04;  0.0000000E+00;  3.9735691E+04;  6.2794350E-02;  0.0000000E+00; -6.8446784E-03;  4.1764532E+02;
  7.9637820E-01;  9.9999998E-03; -1.8053655E-01;7155;  1.2005687E-02;  0.0000000E+00;  1.5783343E-03;  1.0005167E+03;  1.4696394E-01;  4.2813602E+02;3;  2.7051926E+00;  0.0000000E+00; -8.0575272E-03;0;  5.4898001E-02;  1.8669188E+04;  0.0000000E+00; -1.8195686E-01;  4.0000000E+04;  0.0000000E+00;  3.9733852E+04;  6.1988514E-02;  0.0000000E+00; -7.0905127E-03;  9.3036414E+02;
  7.9624432E-01;  9.9999998E-03; -1.7047106E-01;7156;  1.2190903E-02;  0.0000000E+00;  1.4353751E-03;  1.0005396E+03;  1.4689316E-01;  4.4699966E+02;3;  2.7909279E+00;  0.0000000E+00; -2.1989146E-02;0;  5.4109935E-02;  1.8691049E+04;  0.0000000E+00; -3.6055779E-01;  4.0000000E+04;  0.0000000E+00;  3.9732891E+04;  6.1450675E-02;  0.0000000E+00; -7.3407395E-03;  1.3733408E+03;
  7.9622269E-01;  9.9999998E-03; -1.6041237E-01;7157;  1.2647284E-02;  0.0000000E+00;  1.2971543E-03;  1.0005356E+03;  1.4685601E-01;  4.4374051E+02;3;  2.9652333E+00;  0.0000000E+00; -2.8684558E-02;0;  5.3577717E-02;  1.8702459E+04;  0.0000000E+00; -5.0078779E-01;  4.0000000E+04;  0.0000000E+00;  3.9732457E+04;  6.1154351E-02;  0.0000000E+00; -7.5766346E-03;  1.6504987E+03;
  7.9628491E-01;  9.9999998E-03; -1.5036182E-01;7158;  1.3237678E-02;  0.0000000E+00;  1.1921639E-03;  1.0005133E+03;  1.4684173E-01;  4.2527188E+02;3;  3.1948836E+00;  0.0000000E+00; -3.1136775E-02;0;  5.3270813E-02;  1.8704756E+04;  0.0000000E+00; -5.8467239E-01;  4.0000000E+04;  0.0000000E+00;  3.9733383E+04;  6.1059400E-02;  0.0000000E+00; -7.7885888E-03;  1.7341195E+03;
  7.9639024E-01;  9.9999998E-03; -1.4031927E-01;7159;  1.3867042E-02;  0.0000000E+00;  1.1038407E-03;  1.0004810E+03;  1.4684117E-01;  3.9850723E+02;3;  3.4250054E+00;  0.0000000E+00; -1.8802810E-02;0;  5.3128064E-02;  1.8701814E+04;  0.0000000E+00; -6.1124885E-01;  4.0000000E+04;  0.0000000E+00;  3.9735016E+04;  6.1104681E-02;  0.0000000E+00; -7.9766177E-03;  1.6565242E+03;
  7.9649490E-01;  9.9999998E-03; -1.3027599E-01;7160;  1.4375045E-02;  0.0000000E+00;  1.0076952E-03;  1.0004347E+03;  1.4684059E-01;  3.6008856E+02;3;  3.6425848E+00;  0.0000000E+00; -1.2186652E-02;0;  5.3090464E-02;  1.8696623E+04;  0.0000000E+00; -5.9187561E-01;  4.0000000E+04;  0.0000000E+00;  3.9737246E+04;  6.1233781E-02;  0.0000000E+00; -8.1433179E-03;  1.4883989E+03;
  7.9656261E-01;  9.9999998E-03; -1.2022177E-01;7161;  1.4638375E-02;  0.0000000E+00;  9.1618649E-04;  1.0003793E+03;  1.4682902E-01;  3.1426270E+02;3;  3.7852778E+00;  0.0000000E+00; -1.0071112E-02;0;  5.3103797E-02;  1.8693172E+04;  0.0000000E+00; -5.4281706E-01;  4.0000000E+04;  0.0000000E+00;  3.9739590E+04;  6.1395101E-02;  0.0000000E+00; -8.2913050E-03;  1.3157195E+03;
  7.9657954E-01;  9.9999998E-03; -1.1017238E-01;7162;  1.4722226E-02;  0.0000000E+00;  8.3147292E-04;  1.0003239E+03;  1.4680086E-01;  2.6833807E+02;3;  3.8598111E+00;  0.0000000E+00; -7.9605058E-03;0;  5.3117149E-02;  1.8693096E+04;  0.0000000E+00; -4.7985476E-01;  4.0000000E+04;  0.0000000E+00;  3.9742109E+04;  6.1540816E-02;  0.0000000E+00; -8.4236665E-03;  1.2073671E+03;
  8.1318372E-01;  9.9999998E-03; -2.7098495E-01;7207;  2.1504769E-02;  0.0000000E+00;  1.9299781E-03;  9.9852112E+02;  1.5345527E-01; -1.2252491E+03;3;  3.7235734E+00;  0.0000000E+00;  1.3516384E-01;0;  7.0742473E-02;  1.7022150E+04;  0.0000000E+00;  1.2946048E+00;  4.0000000E+04;  0.0000000E+00;  3.9717531E+04;  7.2452746E-02;  0.0000000E+00; -1.7102755E-03;  5.5577559E+03;
  8.1321114E-01;  9.9999998E-03; -2.6096407E-01;7208;  2.0168627E-02;  0.0000000E+00;  1.8072367E-03;  9.9883197E+02;  1.5351753E-01; -9.6767627E+02;3;  3.6917801E+00;  0.0000000E+00;  9.6161775E-02;0;  6.9938682E-02;  1.7020129E+04;  0.0000000E+00;  6.7045033E-01;  4.0000000E+04;  0.0000000E+00;  3.9714621E+04;  7.2062515E-02;  0.0000000E+00; -2.1238355E-03;  3.0268430E+03;
  8.1325769E-01;  9.9999998E-03; -2.5094578E-01;7209;  1.8799402E-02;  0.0000000E+00;  1.7934053E-03;  9.9916284E+02;  1.5357992E-01; -6.9356061E+02;3;  3.7015402E+00;  0.0000000E+00;  4.8516195E-02;0;  6.8016179E-02;  1.7019752E+04;  0.0000000E+00;  4.3124160E-01;  4.0000000E+04;  0.0000000E+00;  3.9711363E+04;  7.1530454E-02;  0.0000000E+00; -3.5142771E-03;  1.7845089E+03;
  8.1309068E-01;  9.9999998E-03; -2.4092975E-01;7210;  1.7484590E-02;  0.0000000E+00;  1.8315207E-03;  9.9945648E+02;  1.5356342E-01; -4.5030823E+02;3;  3.6190245E+00;  0.0000000E+00;  1.5666945E-02;0;  6.6029444E-02;  1.7036480E+04;  0.0000000E+00;  3.8904223E-01;  4.0000000E+04;  0.0000000E+00;  3.9708766E+04;  7.0868261E-02;  0.0000000E+00; -4.8388136E-03;  1.2949401E+03;
  8.1280768E-01;  9.9999998E-03; -2.3092580E-01;7211;  1.6152540E-02;  0.0000000E+00;  1.9481861E-03;  9.9969043E+02;  1.5350179E-01; -2.5648654E+02;3;  3.4425206E+00;  0.0000000E+00;  4.4231876E-03;0;  6.4133599E-02;  1.7062480E+04;  0.0000000E+00;  3.6853418E-01;  4.0000000E+04;  0.0000000E+00;  3.9704828E+04;  7.0111342E-02;  0.0000000E+00; -5.9777438E-03;  1.1029562E+03;
  8.1245983E-01;  9.9999998E-03; -2.2094110E-01;7212;  1.5173125E-02;  0.0000000E+00;  1.9474742E-03;  9.9988477E+02;  1.5340520E-01; -9.5454086E+01;3;  3.2834601E+00;  0.0000000E+00; -3.6322204E-03;0;  6.2811688E-02;  1.7096049E+04;  0.0000000E+00;  3.1680033E-01;  4.0000000E+04;  0.0000000E+00;  3.9701422E+04;  6.9254205E-02;  0.0000000E+00; -6.4425180E-03;  1.1849990E+03;
  8.1205195E-01;  9.9999998E-03; -2.1093947E-01;7213;  1.4584751E-02;  0.0000000E+00;  1.8096616E-03;  1.0000914E+03;  1.5327969E-01;  7.5652176E+01;3;  3.1969922E+00;  0.0000000E+00; -2.3826871E-02;0;  6.1681483E-02;  1.7135455E+04;  0.0000000E+00;  2.1798307E-01;  4.0000000E+04;  0.0000000E+00;  3.9702750E+04;  6.8351686E-02;  0.0000000E+00; -6.6702021E-03;  9.2752710E+02;
  8.1160730E-01;  9.9999998E-03; -2.0090789E-01;7214;  1.4149596E-02;  0.0000000E+00;  1.6838162E-03;  1.0002606E+03;  1.5313540E-01;  2.1589511E+02;3;  3.1436815E+00;  0.0000000E+00; -4.1933592E-02;0;  6.0507406E-02;  1.7177504E+04;  0.0000000E+00;  7.7676311E-02;  4.0000000E+04;  0.0000000E+00;  3.9705730E+04;  6.7490682E-02;  0.0000000E+00; -6.9832760E-03;  4.8098318E+02;
  8.1117105E-01;  9.9999998E-03; -1.9085556E-01;7215;  1.3928656E-02;  0.0000000E+00;  1.5747076E-03;  1.0003580E+03;  1.5298584E-01;  2.9658417E+02;3;  3.1560059E+00;  0.0000000E+00; -5.0704997E-02;0;  5.9409335E-02;  1.7218957E+04;  0.0000000E+00; -9.1278538E-02;  4.0000000E+04;  0.0000000E+00;  3.9707266E+04;  6.6724710E-02;  0.0000000E+00; -7.3153768E-03;  3.5287775E+02;
  8.1079996E-01;  9.9999998E-03; -1.8077672E-01;7216;  1.3978329E-02;  0.0000000E+00;  1.4610897E-03;  1.0003875E+03;  1.5284875E-01;  3.2097855E+02;3;  3.2220781E+00;  0.0000000E+00; -5.7835788E-02;0;  5.8476258E-02;  1.7255568E+04;  0.0000000E+00; -2.7298325E-01;  4.0000000E+04;  0.0000000E+00;  3.9707961E+04;  6.6104785E-02;  0.0000000E+00; -7.6285270E-03;  7.5967383E+02;
  8.1051898E-01;  9.9999998E-03; -1.7068841E-01;7217;  1.4346066E-02;  0.0000000E+00;  1.3511837E-03;  1.0003571E+03;  1.5273291E-01;  2.9579407E+02;3;  3.3656480E+00;  0.0000000E+00; -6.4148724E-02;0;  5.7751246E-02;  1.7284926E+04;  0.0000000E+00; -4.4808549E-01;  4.0000000E+04;  0.0000000E+00;  3.9707602E+04;  6.5664291E-02;  0.0000000E+00; -7.9130447E-03;  1.2390927E+03;
  8.1036305E-01;  9.9999998E-03; -1.6059843E-01;7218;  1.4877054E-02;  0.0000000E+00;  1.2530593E-03;  1.0002974E+03;  1.5265664E-01;  2.4631400E+02;3;  3.5803454E+00;  0.0000000E+00; -5.7578929E-02;0;  5.7261050E-02;  1.7303268E+04;  0.0000000E+00; -5.9739929E-01;  4.0000000E+04;  0.0000000E+00;  3.9707418E+04;  6.5428078E-02;  0.0000000E+00; -8.1670266E-03;  1.6387595E+03;
  8.1033993E-01;  9.9999998E-03; -1.5051669E-01;7219;  1.5231418E-02;  0.0000000E+00;  1.1885691E-03;  1.0002176E+03;  1.5262416E-01;  1.8024181E+02;3;  3.7312839E+00;  0.0000000E+00; -4.4641059E-02;0;  5.6995798E-02;  1.7309332E+04;  0.0000000E+00; -7.0718521E-01;  4.0000000E+04;  0.0000000E+00;  3.9708066E+04;  6.5390781E-02;  0.0000000E+00; -8.3949817E-03;  1.9065901E+03;
  8.1042212E-01;  9.9999998E-03; -1.4044553E-01;7220;  1.5362785E-02;  0.0000000E+00;  1.1311872E-03;  1.0001343E+03;  1.5262903E-01;  1.1130549E+02;3;  3.8031449E+00;  0.0000000E+00; -3.7090886E-02;0;  5.6905530E-02;  1.7305145E+04;  0.0000000E+00; -7.7282912E-01;  4.0000000E+04;  0.0000000E+00;  3.9709438E+04;  6.5511107E-02;  0.0000000E+00; -8.6055780E-03;  2.0509973E+03;
  8.1054002E-01;  9.9999998E-03; -1.3038379E-01;7221;  1.5410253E-02;  0.0000000E+00;  1.0708043E-03;  1.0000461E+03;  1.5264326E-01;  3.8221138E+01;3;  3.8560004E+00;  0.0000000E+00; -2.7073262E-02;0;  5.6929555E-02;  1.7297211E+04;  0.0000000E+00; -7.9670638E-01;  4.0000000E+04;  0.0000000E+00;  3.9711520E+04;  6.5732524E-02;  0.0000000E+00; -8.8029699E-03;  2.1107512E+03;
  8.1064421E-01;  9.9999998E-03; -1.2033106E-01;7222;  1.5414218E-02;  0.0000000E+00;  1.0000407E-03;  9.9995514E+02;  1.5264978E-01; -3.7184132E+01;3;  3.8888245E+00;  0.0000000E+00; -2.4734680E-02;0;  5.7016604E-02;  1.7290037E+04;  0.0000000E+00; -7.8428060E-01;  4.0000000E+04;  0.0000000E+00;  3.9713801E+04;  6.6006012E-02;  0.0000000E+00; -8.9894077E-03;  2.1179170E+03;
  8.1074518E-01;  9.9999998E-03; -1.1029708E-01;7223;  1.5368215E-02;  0.0000000E+00;  9.2470547E-04;  9.9987097E+02;  1.5265469E-01; -1.0691055E+02;3;  3.9227452E+00;  0.0000000E+00; -1.7784219E-02;0;  5.7133086E-02;  1.7282764E+04;  0.0000000E+00; -7.4260622E-01;  4.0000000E+04;  0.0000000E+00;  3.9715840E+04;  6.6301212E-02;  0.0000000E+00; -9.1681248E-03;  2.0783093E+03;
  8.2531554E-01;  9.9999998E-03; -1.3040107E-01;7282;  1.5697666E-02;  0.0000000E+00;  1.2405462E-03;  9.9940942E+02;  1.5894723E-01; -4.8927008E+02;3;  3.8518806E+00;  0.0000000E+00; -4.0559802E-02;0;  6.1690986E-02;  1.5943525E+04;  0.0000000E+00; -8.7567651E-01;  4.0000000E+04;  0.0000000E+00;  3.9685496E+04;  7.1230024E-02;  0.0000000E+00; -9.5390389E-03;  2.3132161E+03;
  8.2538301E-01;  9.9999998E-03; -1.2034570E-01;7283;  1.5659111E-02;  0.0000000E+00;  1.1688991E-03;  9.9928540E+02;  1.5894783E-01; -5.9203259E+02;3;  3.8874722E+00;  0.0000000E+00; -3.6320399E-02;0;  6.2020957E-02;  1.5939443E+04;  0.0000000E+00; -8.9695209E-01;  4.0000000E+04;  0.0000000E+00;  3.9687465E+04;  7.1807094E-02;  0.0000000E+00; -9.7861374E-03;  2.5132659E+03;
  8.2533401E-01;  9.9999998E-03; -1.4048596E-01;7281;  1.5705545E-02;  0.0000000E+00;  1.3032161E-03;  9.9953790E+02;  1.5897886E-01; -3.8285333E+02;3;  3.8187971E+00;  0.0000000E+00; -4.7925316E-02;0;  6.1460391E-02;  1.5940846E+04;  0.0000000E+00; -8.2220405E-01;  4.0000000E+04;  0.0000000E+00;  3.9683469E+04;  7.0754476E-02;  0.0000000E+00; -9.2940843E-03;  2.0322013E+03;
  8.2537305E-01;  9.9999998E-03; -1.5058435E-01;7280;  1.5672063E-02;  0.0000000E+00;  1.3566525E-03;  9.9965643E+02;  1.5901160E-01; -2.8463391E+02;3;  3.7798610E+00;  0.0000000E+00; -5.3055868E-02;0;  6.1333816E-02;  1.5936171E+04;  0.0000000E+00; -7.4560380E-01;  4.0000000E+04;  0.0000000E+00;  3.9682293E+04;  7.0377290E-02;  0.0000000E+00; -9.0434728E-03;  1.7054216E+03;
  8.2540447E-01;  9.9999998E-03; -1.6067843E-01;7279;  1.5644783E-02;  0.0000000E+00;  1.4055172E-03;  9.9974066E+02;  1.5903653E-01; -2.1485811E+02;3;  3.7365100E+00;  0.0000000E+00; -6.0819004E-02;0;  6.1330236E-02;  1.5931090E+04;  0.0000000E+00; -6.5416437E-01;  4.0000000E+04;  0.0000000E+00;  3.9681898E+04;  7.0109174E-02;  0.0000000E+00; -8.7789362E-03;  1.3525656E+03;
  8.2555336E-01;  9.9999998E-03; -1.1032334E-01;7284;  1.5598304E-02;  0.0000000E+00;  1.0895639E-03;  9.9917999E+02;  1.5898904E-01; -6.7933875E+02;3;  3.9148562E+00;  0.0000000E+00; -3.5575490E-02;0;  6.2428363E-02;  1.5927283E+04;  0.0000000E+00; -8.8090914E-01;  4.0000000E+04;  0.0000000E+00;  3.9688406E+04;  7.2467722E-02;  0.0000000E+00; -1.0039359E-02;  2.5890664E+03;
  8.2548130E-01;  9.9999998E-03; -1.7075916E-01;7278;  1.5585658E-02;  0.0000000E+00;  1.4623710E-03;  9.9980359E+02;  1.5906896E-01; -1.6271144E+02;3;  3.6755104E+00;  0.0000000E+00; -6.4065255E-02;0;  6.1473351E-02;  1.5921849E+04;  0.0000000E+00; -5.5266708E-01;  4.0000000E+04;  0.0000000E+00;  3.9682871E+04;  6.9964357E-02;  0.0000000E+00; -8.4910048E-03;  9.9225720E+02;
  8.2562232E-01;  9.9999998E-03; -1.8082950E-01;7277;  1.5525617E-02;  0.0000000E+00;  1.5440515E-03;  9.9981189E+02;  1.5911849E-01; -1.5584743E+02;3;  3.6110864E+00;  0.0000000E+00; -6.0323156E-02;0;  6.1767668E-02;  1.5907485E+04;  0.0000000E+00; -4.3915001E-01;  4.0000000E+04;  0.0000000E+00;  3.9683707E+04;  6.9934554E-02;  0.0000000E+00; -8.1668878E-03;  6.5422839E+02;
  8.2584500E-01;  9.9999998E-03; -1.9089016E-01;7276;  1.5570940E-02;  0.0000000E+00;  1.6445125E-03;  9.9976459E+02;  1.5918867E-01; -1.9505620E+02;3;  3.5573027E+00;  0.0000000E+00; -5.2740756E-02;0;  6.2203422E-02;  1.5886842E+04;  0.0000000E+00; -3.0473548E-01;  4.0000000E+04;  0.0000000E+00;  3.9684230E+04;  7.0004761E-02;  0.0000000E+00; -7.8013372E-03;  3.8525952E+02;
  8.2616782E-01;  9.9999998E-03; -2.0092496E-01;7275;  1.5894992E-02;  0.0000000E+00;  1.7370746E-03;  9.9965833E+02;  1.5928806E-01; -2.8305371E+02;3;  3.5815327E+00;  0.0000000E+00; -3.3042122E-02;0;  6.2760107E-02;  1.5858583E+04;  0.0000000E+00; -1.3747217E-01;  4.0000000E+04;  0.0000000E+00;  3.9684062E+04;  7.0151120E-02;  0.0000000E+00; -7.3910104E-03;  4.5591440E+02;
  8.2649606E-01;  9.9999998E-03; -2.1095195E-01;7274;  1.6466843E-02;  0.0000000E+00;  1.8106662E-03;  9.9947748E+02;  1.5937988E-01; -4.3287662E+02;3;  3.6426444E+00;  0.0000000E+00; -2.0436076E-02;0;  6.3393414E-02;  1.5830214E+04;  0.0000000E+00;  7.7666208E-02;  4.0000000E+04;  0.0000000E+00;  3.9683902E+04;  7.0310526E-02;  0.0000000E+00; -6.9171134E-03;  9.0877338E+02;
  9.6306068E-01;  9.9999998E-03; -2.7188918E-01;7695;  2.5211228E-02;  0.0000000E+00;  5.1970053E-03;  9.9608228E+02;  2.2774397E-01; -3.2457844E+03;3; -4.1024866E+00;  0.0000000E+00; -6.1135232E-01;0; -2.1637725E-02;  7.7827510E+03;  0.0000000E+00; -9.2813313E-01;  4.0000000E+04;  0.0000000E+00;  3.9464852E+04; -1.3526714E-02;  0.0000000E+00; -8.1110103E-03;  8.5579688E+03;
  8.2677323E-01;  9.9999998E-03; -2.2097710E-01;7273;  1.7225351E-02;  0.0000000E+00;  1.8852993E-03;  9.9923865E+02;  1.5944397E-01; -6.3074756E+02;3;  3.7309906E+00;  0.0000000E+00; -2.0286590E-02;0;  6.4052053E-02;  1.5806062E+04;  0.0000000E+00;  3.4907639E-01;  4.0000000E+04;  0.0000000E+00;  3.9683254E+04;  7.0435993E-02;  0.0000000E+00; -6.3839420E-03;  1.5529122E+03;
  8.2684588E-01;  9.9999998E-03; -2.7106258E-01;7268;  2.3026695E-02;  0.0000000E+00;  2.0466503E-03;  9.9774811E+02;  1.5924133E-01; -1.8656261E+03;3;  3.7866790E+00;  0.0000000E+00;  1.1427524E-01;0;  6.9032565E-02;  1.5789963E+04;  0.0000000E+00;  2.1472340E+00;  4.0000000E+04;  0.0000000E+00;  3.9699293E+04;  6.9924630E-02;  0.0000000E+00; -8.9206337E-04;  6.5353906E+03;
  8.2685387E-01;  9.9999998E-03; -2.6103824E-01;7269;  2.1869047E-02;  0.0000000E+00;  1.9113563E-03;  9.9807288E+02;  1.5929127E-01; -1.5965967E+03;3;  3.8237176E+00;  0.0000000E+00;  7.3437259E-02;0;  6.8726473E-02;  1.5790519E+04;  0.0000000E+00;  1.7205949E+00;  4.0000000E+04;  0.0000000E+00;  3.9696074E+04;  7.0217878E-02;  0.0000000E+00; -1.4914058E-03;  5.3360405E+03;
  8.2691199E-01;  9.9999998E-03; -2.3098777E-01;7272;  1.8148188E-02;  0.0000000E+00;  1.9400015E-03;  9.9898254E+02;  1.5945144E-01; -8.4293909E+02;3;  3.8040555E+00;  0.0000000E+00; -2.0086126E-02;0;  6.4755961E-02;  1.5792869E+04;  0.0000000E+00;  6.6970217E-01;  4.0000000E+04;  0.0000000E+00;  3.9684637E+04;  7.0498422E-02;  0.0000000E+00; -5.7424572E-03;  2.3996685E+03;
  8.2695234E-01;  9.9999998E-03; -2.5101659E-01;7270;  2.0586250E-02;  0.0000000E+00;  1.8822547E-03;  9.9840851E+02;  1.5937358E-01; -1.3185305E+03;3;  3.8563063E+00;  0.0000000E+00;  2.7751051E-02;0;  6.7320958E-02;  1.5785773E+04;  0.0000000E+00;  1.3531756E+00;  4.0000000E+04;  0.0000000E+00;  3.9692590E+04;  7.0396952E-02;  0.0000000E+00; -3.0759943E-03;  4.3124043E+03;
  8.2695782E-01;  9.9999998E-03; -2.4099779E-01;7271;  1.9318346E-02;  0.0000000E+00;  1.9029296E-03;  9.9871515E+02;  1.5942051E-01; -1.0644636E+03;3;  3.8646123E+00;  0.0000000E+00; -8.8024242E-03;0;  6.5895662E-02;  1.5787711E+04;  0.0000000E+00;  1.0117264E+00;  4.0000000E+04;  0.0000000E+00;  3.9688516E+04;  7.0491485E-02;  0.0000000E+00; -4.5958217E-03;  3.3682500E+03;
  9.3929464E-01;  9.9999998E-03; -2.7175754E-01;7634;  2.5688883E-02;  0.0000000E+00;  4.9800780E-03;  9.9650220E+02;  2.1439682E-01; -2.8978438E+03;3; -4.0379515E+00;  0.0000000E+00;  2.2881258E-01;0; -5.4868679E-03;  8.7842910E+03;  0.0000000E+00; -4.8676026E-01;  4.0000000E+04;  0.0000000E+00;  3.9503992E+04;  4.6973205E-03;  0.0000000E+00; -1.0184188E-02;  4.9784395E+03;
  8.4246546E-01;  9.9999998E-03; -2.7114886E-01;7329;  2.3645675E-02;  0.0000000E+00;  2.4505765E-03;  9.9700287E+02;  1.6589199E-01; -2.4830901E+03;3;  3.7643335E+00;  0.0000000E+00;  1.0234417E-01;0;  6.2498774E-02;  1.4545346E+04;  0.0000000E+00;  2.4844809E+00;  4.0000000E+04;  0.0000000E+00;  3.9680539E+04;  6.5262616E-02;  0.0000000E+00; -2.7638397E-03;  6.4892847E+03;
  8.4190613E-01;  9.9999998E-03; -1.1055387E-01;7345;  1.5753169E-02;  0.0000000E+00;  1.3010262E-03;  9.9887524E+02;  1.6609991E-01; -9.3182544E+02;3;  3.9204714E+00;  0.0000000E+00; -5.0598718E-02;0;  6.9894351E-02;  1.4604607E+04;  0.0000000E+00; -8.8504070E-01;  4.0000000E+04;  0.0000000E+00;  3.9658723E+04;  8.1020206E-02;  0.0000000E+00; -1.1125853E-02;  2.5905596E+03;
  8.4244955E-01;  9.9999998E-03; -2.6112044E-01;7330;  2.2577375E-02;  0.0000000E+00;  2.3354320E-03;  9.9738147E+02;  1.6592348E-01; -2.1694199E+03;3;  3.8092360E+00;  0.0000000E+00;  7.3807217E-02;0;  6.3167483E-02;  1.4550108E+04;  0.0000000E+00;  2.3278327E+00;  4.0000000E+04;  0.0000000E+00;  3.9676395E+04;  6.6388406E-02;  0.0000000E+00; -3.2209258E-03;  6.8098643E+03;
  8.4184545E-01;  9.9999998E-03; -1.2056464E-01;7344;  1.5780440E-02;  0.0000000E+00;  1.3888621E-03;  9.9894202E+02;  1.6610283E-01; -8.7651837E+02;3;  3.8870633E+00;  0.0000000E+00; -5.1804207E-02;0;  6.9046602E-02;  1.4603931E+04;  0.0000000E+00; -8.8654971E-01;  4.0000000E+04;  0.0000000E+00;  3.9657984E+04;  7.9813734E-02;  0.0000000E+00; -1.0767128E-02;  2.4108423E+03;
  8.4248143E-01;  9.9999998E-03; -2.5109285E-01;7331;  2.1440387E-02;  0.0000000E+00;  2.2999048E-03;  9.9775110E+02;  1.6597581E-01; -1.8631570E+03;3;  3.8601081E+00;  0.0000000E+00;  3.4508996E-02;0;  6.3056991E-02;  1.4551434E+04;  0.0000000E+00;  1.8664888E+00;  4.0000000E+04;  0.0000000E+00;  3.9672168E+04;  6.7475505E-02;  0.0000000E+00; -4.4185184E-03;  6.1224316E+03;
  8.4236157E-01;  9.9999998E-03; -2.4106510E-01;7332;  2.0233197E-02;  0.0000000E+00;  2.2975367E-03;  9.9810236E+02;  1.6597667E-01; -1.5721530E+03;3;  3.8785777E+00;  0.0000000E+00;  9.0034958E-03;0;  6.2972531E-02;  1.4561534E+04;  0.0000000E+00;  1.2553229E+00;  4.0000000E+04;  0.0000000E+00;  3.9668527E+04;  6.8534367E-02;  0.0000000E+00; -5.5618384E-03;  4.7993354E+03;
  8.4166175E-01;  9.9999998E-03; -1.3058776E-01;7343;  1.5799491E-02;  0.0000000E+00;  1.4648302E-03;  9.9901068E+02;  1.6605876E-01; -8.1963110E+02;3;  3.8503172E+00;  0.0000000E+00; -5.2442618E-02;0;  6.8158761E-02;  1.4611482E+04;  0.0000000E+00; -8.5298145E-01;  4.0000000E+04;  0.0000000E+00;  3.9656996E+04;  7.8571625E-02;  0.0000000E+00; -1.0412868E-02;  2.0751499E+03;
  8.4077764E-01;  9.9999998E-03; -1.7071277E-01;7339;  1.5780821E-02;  0.0000000E+00;  1.7345572E-03;  9.9921954E+02;  1.6575202E-01; -6.4659894E+02;3;  3.7275491E+00;  0.0000000E+00; -5.9203375E-02;0;  6.5293126E-02;  1.4657812E+04;  0.0000000E+00; -7.2653848E-01;  4.0000000E+04;  0.0000000E+00;  3.9657250E+04;  7.4342340E-02;  0.0000000E+00; -9.0492126E-03;  1.0062820E+03;
  8.4080410E-01;  9.9999998E-03; -1.6068879E-01;7340;  1.5756322E-02;  0.0000000E+00;  1.6561812E-03;  9.9918292E+02;  1.6576836E-01; -6.7691907E+02;3;  3.7525730E+00;  0.0000000E+00; -5.9962407E-02;0;  6.5802149E-02;  1.4658220E+04;  0.0000000E+00; -7.2817916E-01;  4.0000000E+04;  0.0000000E+00;  3.9656250E+04;  7.5192519E-02;  0.0000000E+00; -9.3903709E-03;  1.0824016E+03;
  8.4101009E-01;  9.9999998E-03; -1.5065871E-01;7341;  1.5799114E-02;  0.0000000E+00;  1.5900399E-03;  9.9912915E+02;  1.6584438E-01; -7.2146100E+02;3;  3.7872565E+00;  0.0000000E+00; -5.9761304E-02;0;  6.6466495E-02;  1.4647121E+04;  0.0000000E+00; -7.5389361E-01;  4.0000000E+04;  0.0000000E+00;  3.9655914E+04;  7.6191396E-02;  0.0000000E+00; -9.7249001E-03;  1.3188602E+03;
  8.4132838E-01;  9.9999998E-03; -1.4061993E-01;7342;  1.5806440E-02;  0.0000000E+00;  1.5300716E-03;  9.9907013E+02;  1.6595395E-01; -7.7039789E+02;3;  3.8180189E+00;  0.0000000E+00; -5.4979384E-02;0;  6.7264982E-02;  1.4629354E+04;  0.0000000E+00; -8.0139601E-01;  4.0000000E+04;  0.0000000E+00;  3.9656164E+04;  7.7328928E-02;  0.0000000E+00; -1.0063945E-02;  1.6774265E+03;
  8.4217662E-01;  9.9999998E-03; -2.3104110E-01;7333;  1.9009158E-02;  0.0000000E+00;  2.3238170E-03;  9.9841406E+02;  1.6596627E-01; -1.3139380E+03;3;  3.8597293E+00;  0.0000000E+00; -9.0842918E-03;0;  6.3013226E-02;  1.4573165E+04;  0.0000000E+00;  6.2930471E-01;  4.0000000E+04;  0.0000000E+00;  3.9664762E+04;  6.9512419E-02;  0.0000000E+00; -6.4991973E-03;  3.2502627E+03;
  8.4090650E-01;  9.9999998E-03; -1.8073763E-01;7338;  1.5853515E-02;  0.0000000E+00;  1.8452974E-03;  9.9922736E+02;  1.6578287E-01; -6.4013000E+02;3;  3.7037559E+00;  0.0000000E+00; -4.9817398E-02;0;  6.4888306E-02;  1.4647609E+04;  0.0000000E+00; -7.2891134E-01;  4.0000000E+04;  0.0000000E+00;  3.9658824E+04;  7.3575772E-02;  0.0000000E+00; -8.6874655E-03;  1.0857515E+03;
  8.4194189E-01;  9.9999998E-03; -2.2098801E-01;7334;  1.8018596E-02;  0.0000000E+00;  2.2274654E-03;  9.9873767E+02;  1.6594751E-01; -1.0457975E+03;3;  3.8128085E+00;  0.0000000E+00; -3.8089482E-03;0;  6.3503832E-02;  1.4586182E+04;  0.0000000E+00;  8.5900098E-02;  4.0000000E+04;  0.0000000E+00;  3.9666398E+04;  7.0449553E-02;  0.0000000E+00; -6.9457195E-03;  2.3061748E+03;
  8.4113228E-01;  9.9999998E-03; -1.9077232E-01;7337;  1.6042572E-02;  0.0000000E+00;  1.9738323E-03;  9.9919940E+02;  1.6583627E-01; -6.6328986E+02;3;  3.6903625E+00;  0.0000000E+00; -3.8242187E-02;0;  6.4531907E-02;  1.4632089E+04;  0.0000000E+00; -6.9450599E-01;  4.0000000E+04;  0.0000000E+00;  3.9661594E+04;  7.2834231E-02;  0.0000000E+00; -8.3023245E-03;  1.3034440E+03;
  8.4139961E-01;  9.9999998E-03; -2.0081343E-01;7336;  1.6421694E-02;  0.0000000E+00;  2.0908997E-03;  9.9913690E+02;  1.6588798E-01; -7.1504144E+02;3;  3.7151997E+00;  0.0000000E+00; -2.3067746E-02;0;  6.4179488E-02;  1.4615418E+04;  0.0000000E+00; -5.7280302E-01;  4.0000000E+04;  0.0000000E+00;  3.9666180E+04;  7.2076678E-02;  0.0000000E+00; -7.8971926E-03;  1.7119169E+03;
  8.4166884E-01;  9.9999998E-03; -2.1088780E-01;7335;  1.7097548E-02;  0.0000000E+00;  2.1626509E-03;  9.9900098E+02;  1.6592231E-01; -8.2768024E+02;3;  3.7480211E+00;  0.0000000E+00; -1.2550630E-02;0;  6.3845903E-02;  1.4600509E+04;  0.0000000E+00; -3.1897652E-01;  4.0000000E+04;  0.0000000E+00;  3.9669031E+04;  7.1291089E-02;  0.0000000E+00; -7.4451854E-03;  2.1480352E+03;
  8.6007053E-01;  9.9999998E-03; -1.1073904E-01;7406;  1.6348539E-02;  0.0000000E+00;  1.5891269E-03;  9.9942792E+02;  1.7433594E-01; -4.7396185E+02;3;  3.9840534E+00;  0.0000000E+00; -2.8026165E-02;0;  7.9056039E-02;  1.3292064E+04;  0.0000000E+00; -7.8628200E-01;  4.0000000E+04;  0.0000000E+00;  3.9625836E+04;  9.1546260E-02;  0.0000000E+00; -1.2490224E-02;  2.1416497E+03;
  8.6002624E-01;  9.9999998E-03; -1.2078466E-01;7405;  1.6276691E-02;  0.0000000E+00;  1.6943552E-03;  9.9946576E+02;  1.7432036E-01; -4.4260474E+02;3;  3.9312587E+00;  0.0000000E+00; -4.4740461E-02;0;  7.7601597E-02;  1.3291521E+04;  0.0000000E+00; -7.9537094E-01;  4.0000000E+04;  0.0000000E+00;  3.9625043E+04;  8.9563876E-02;  0.0000000E+00; -1.1962283E-02;  1.8877527E+03;
  8.5981643E-01;  9.9999998E-03; -1.3082483E-01;7404;  1.6175279E-02;  0.0000000E+00;  1.7884165E-03;  9.9949811E+02;  1.7424037E-01; -4.1579068E+02;3;  3.8827181E+00;  0.0000000E+00; -4.7251876E-02;0;  7.6034665E-02;  1.3300950E+04;  0.0000000E+00; -7.8386396E-01;  4.0000000E+04;  0.0000000E+00;  3.9624148E+04;  8.7486044E-02;  0.0000000E+00; -1.1451377E-02;  1.4934551E+03;
  8.5961229E-01;  9.9999998E-03; -1.4087722E-01;7403;  1.6090661E-02;  0.0000000E+00;  1.8788432E-03;  9.9953387E+02;  1.7416176E-01; -3.8616190E+02;3;  3.8403506E+00;  0.0000000E+00; -5.0752152E-02;0;  7.4457131E-02;  1.3310337E+04;  0.0000000E+00; -7.7959585E-01;  4.0000000E+04;  0.0000000E+00;  3.9623523E+04;  8.5428007E-02;  0.0000000E+00; -1.0970877E-02;  1.0969294E+03;
  8.5945588E-01;  9.9999998E-03; -1.5092003E-01;7402;  1.6049685E-02;  0.0000000E+00;  1.9711079E-03;  9.9956885E+02;  1.7409930E-01; -3.5722443E+02;3;  3.8051746E+00;  0.0000000E+00; -4.9187232E-02;0;  7.2902434E-02;  1.3317382E+04;  0.0000000E+00; -8.1542122E-01;  4.0000000E+04;  0.0000000E+00;  3.9623094E+04;  8.3419792E-02;  0.0000000E+00; -1.0517356E-02;  8.5128833E+02;
  8.5936522E-01;  9.9999998E-03; -1.6094923E-01;7401;  1.6065581E-02;  0.0000000E+00;  2.0739008E-03;  9.9958929E+02;  1.7405508E-01; -3.4023727E+02;3;  3.7818034E+00;  0.0000000E+00; -4.1373439E-02;0;  7.1373783E-02;  1.3320911E+04;  0.0000000E+00; -9.1519833E-01;  4.0000000E+04;  0.0000000E+00;  3.9623230E+04;  8.1454813E-02;  0.0000000E+00; -1.0081029E-02;  8.6418365E+02;
  8.5933608E-01;  9.9999998E-03; -1.7096502E-01;7400;  1.6149377E-02;  0.0000000E+00;  2.1975629E-03;  9.9959045E+02;  1.7402804E-01; -3.3929901E+02;3;  3.7758362E+00;  0.0000000E+00; -4.1808683E-02;0;  6.9851317E-02;  1.3321500E+04;  0.0000000E+00; -1.0773717E+00;  4.0000000E+04;  0.0000000E+00;  3.9623578E+04;  7.9502784E-02;  0.0000000E+00; -9.6514663E-03;  1.1539313E+03;
  8.5932529E-01;  9.9999998E-03; -1.8097472E-01;7399;  1.6294803E-02;  0.0000000E+00;  2.3627600E-03;  9.9954840E+02;  1.7399713E-01; -3.7416223E+02;3;  3.7671468E+00;  0.0000000E+00; -2.9126965E-02;0;  6.8287730E-02;  1.3321905E+04;  0.0000000E+00; -1.2656868E+00;  4.0000000E+04;  0.0000000E+00;  3.9624785E+04;  7.7513270E-02;  0.0000000E+00; -9.2255427E-03;  1.6361870E+03;
  8.5929346E-01;  9.9999998E-03; -1.9098958E-01;7398;  1.6567441E-02;  0.0000000E+00;  2.5321096E-03;  9.9945502E+02;  1.7393865E-01; -4.5149338E+02;3;  3.7627270E+00;  0.0000000E+00; -1.2772532E-02;0;  6.6649430E-02;  1.3324866E+04;  0.0000000E+00; -1.4134132E+00;  4.0000000E+04;  0.0000000E+00;  3.9626137E+04;  7.5467020E-02;  0.0000000E+00; -8.8175898E-03;  2.1170994E+03;
  8.5917288E-01;  9.9999998E-03; -2.0100416E-01;7397;  1.7004153E-02;  0.0000000E+00;  2.6762383E-03;  9.9931281E+02;  1.7383802E-01; -5.6931720E+02;3;  3.7790923E+00;  0.0000000E+00; -3.0296692E-03;0;  6.4916179E-02;  1.3333514E+04;  0.0000000E+00; -1.4307548E+00;  4.0000000E+04;  0.0000000E+00;  3.9628770E+04;  7.3364973E-02;  0.0000000E+00; -8.4487982E-03;  2.3623096E+03;
  8.5902351E-01;  9.9999998E-03; -2.1103215E-01;7396;  1.7649639E-02;  0.0000000E+00;  2.7797758E-03;  9.9911987E+02;  1.7371981E-01; -7.2916449E+02;3;  3.7894044E+00;  0.0000000E+00;  4.7151572E-03;0;  6.3110933E-02;  1.3344070E+04;  0.0000000E+00; -1.2451488E+00;  4.0000000E+04;  0.0000000E+00;  3.9632359E+04;  7.1240470E-02;  0.0000000E+00; -8.1295408E-03;  2.2399966E+03;
  8.5888833E-01;  9.9999998E-03; -2.2108610E-01;7395;  1.8580884E-02;  0.0000000E+00;  2.8483027E-03;  9.9883466E+02;  1.7360167E-01; -9.6545410E+02;3;  3.8206561E+00;  0.0000000E+00;  8.1605827E-03;0;  6.1290897E-02;  1.3353345E+04;  0.0000000E+00; -8.2016659E-01;  4.0000000E+04;  0.0000000E+00;  3.9633867E+04;  6.9143139E-02;  0.0000000E+00; -7.8522395E-03;  1.7323246E+03;
  8.5878116E-01;  9.9999998E-03; -2.3112527E-01;7394;  1.9659415E-02;  0.0000000E+00;  2.8783588E-03;  9.9851208E+02;  1.7350204E-01; -1.2327058E+03;3;  3.8439960E+00;  0.0000000E+00;  1.7719964E-02;0;  5.9507489E-02;  1.3359717E+04;  0.0000000E+00; -1.7843273E-01;  4.0000000E+04;  0.0000000E+00;  3.9635918E+04;  6.7057423E-02;  0.0000000E+00; -7.5499346E-03;  2.1500513E+03;
  8.5870039E-01;  9.9999998E-03; -2.4115761E-01;7393;  2.0782640E-02;  0.0000000E+00;  2.8664751E-03;  9.9814618E+02;  1.7342499E-01; -1.5358577E+03;3;  3.8425360E+00;  0.0000000E+00;  2.7274445E-02;0;  5.7914089E-02;  1.3362998E+04;  0.0000000E+00;  5.8828318E-01;  4.0000000E+04;  0.0000000E+00;  3.9639879E+04;  6.4967439E-02;  0.0000000E+00; -7.0533506E-03;  3.6280959E+03;
  8.5868150E-01;  9.9999998E-03; -2.5119001E-01;7392;  2.1834029E-02;  0.0000000E+00;  2.8897710E-03;  9.9774774E+02;  1.7338832E-01; -1.8659718E+03;3;  3.8161628E+00;  0.0000000E+00;  3.4642860E-02;0;  5.6272749E-02;  1.3359909E+04;  0.0000000E+00;  1.2978994E+00;  4.0000000E+04;  0.0000000E+00;  3.9643727E+04;  6.2841244E-02;  0.0000000E+00; -6.5684961E-03;  4.8957446E+03;
  8.5872388E-01;  9.9999998E-03; -2.6122126E-01;7391;  2.2818083E-02;  0.0000000E+00;  2.9385784E-03;  9.9731604E+02;  1.7338814E-01; -2.2235913E+03;3;  3.7883596E+00;  0.0000000E+00;  4.1265775E-02;0;  5.4562081E-02;  1.3350726E+04;  0.0000000E+00;  1.6953334E+00;  4.0000000E+04;  0.0000000E+00;  3.9648699E+04;  6.0715519E-02;  0.0000000E+00; -6.1534392E-03;  5.1018496E+03;
  8.5898048E-01;  9.9999998E-03; -2.7125371E-01;7390;  2.3726981E-02;  0.0000000E+00;  3.0396127E-03;  9.9686023E+02;  1.7348425E-01; -2.6012595E+03;3;  3.7578728E+00;  0.0000000E+00;  4.8394818E-02;0;  5.2312754E-02;  1.3325822E+04;  0.0000000E+00;  1.6217164E+00;  4.0000000E+04;  0.0000000E+00;  3.9653543E+04;  5.8556832E-02;  0.0000000E+00; -6.2440787E-03;  4.4483242E+03;
  8.7752789E-01;  9.9999998E-03; -1.1074095E-01;7467;  1.8480496E-02;  0.0000000E+00;  1.9141486E-03;  9.9989081E+02;  1.8275844E-01; -9.0466568E+01;3;  4.3658409E+00;  0.0000000E+00;  2.6442939E-02;0;  8.5547358E-02;  1.2121252E+04;  0.0000000E+00; -6.2692225E-01;  4.0000000E+04;  0.0000000E+00;  3.9593750E+04;  9.9478126E-02;  0.0000000E+00; -1.3930764E-02;  1.4292119E+03;
  8.7760293E-01;  9.9999998E-03; -1.2079427E-01;7466;  1.8124871E-02;  0.0000000E+00;  2.0343137E-03;  9.9993048E+02;  1.8278958E-01; -5.7578613E+01;3;  4.1936955E+00;  0.0000000E+00;  1.9155543E-02;0;  8.3666667E-02;  1.2113692E+04;  0.0000000E+00; -6.5831310E-01;  4.0000000E+04;  0.0000000E+00;  3.9592211E+04;  9.6873499E-02;  0.0000000E+00; -1.3206833E-02;  1.1459723E+03;
  8.7758744E-01;  9.9999998E-03; -1.3084903E-01;7465;  1.7710740E-02;  0.0000000E+00;  2.1397965E-03;  9.9997662E+02;  1.8278068E-01; -1.9357475E+01;3;  4.0326495E+00;  0.0000000E+00;  1.0100404E-02;0;  8.1670620E-02;  1.2112220E+04;  0.0000000E+00; -6.8582904E-01;  4.0000000E+04;  0.0000000E+00;  3.9590555E+04;  9.4186977E-02;  0.0000000E+00; -1.2516357E-02;  7.6143024E+02;
  8.7749565E-01;  9.9999998E-03; -1.4090222E-01;7464;  1.7345758E-02;  0.0000000E+00;  2.2422711E-03;  1.0000338E+03;  1.8273625E-01;  2.7949825E+01;3;  3.9098299E+00;  0.0000000E+00; -6.4490358E-03;0;  7.9564743E-02;  1.2116062E+04;  0.0000000E+00; -7.3785532E-01;  4.0000000E+04;  0.0000000E+00;  3.9588926E+04;  9.1432050E-02;  0.0000000E+00; -1.1867310E-02;  4.1994418E+02;
  8.7736070E-01;  9.9999998E-03; -1.5094855E-01;7463;  1.7051347E-02;  0.0000000E+00;  2.3647386E-03;  1.0000901E+03;  1.8266727E-01;  7.4664551E+01;3;  3.8403320E+00;  0.0000000E+00; -2.1039566E-02;0;  7.7341832E-02;  1.2123377E+04;  0.0000000E+00; -8.4545851E-01;  4.0000000E+04;  0.0000000E+00;  3.9587727E+04;  8.8600576E-02;  0.0000000E+00; -1.1258744E-02;  2.5244292E+02;
  8.7722909E-01;  9.9999998E-03; -1.6098307E-01;7462;  1.6895166E-02;  0.0000000E+00;  2.5207389E-03;  1.0001360E+03;  1.8259618E-01;  1.1268816E+02;3;  3.8011429E+00;  0.0000000E+00; -2.3471614E-02;0;  7.5001389E-02;  1.2131076E+04;  0.0000000E+00; -1.0294403E+00;  4.0000000E+04;  0.0000000E+00;  3.9587508E+04;  8.5687675E-02;  0.0000000E+00; -1.0686287E-02;  4.5604953E+02;
  8.7716562E-01;  9.9999998E-03; -1.7100684E-01;7461;  1.6915502E-02;  0.0000000E+00;  2.6928186E-03;  1.0001505E+03;  1.8255143E-01;  1.2463844E+02;3;  3.7803345E+00;  0.0000000E+00; -1.5135250E-02;0;  7.2532520E-02;  1.2135263E+04;  0.0000000E+00; -1.2863603E+00;  4.0000000E+04;  0.0000000E+00;  3.9587578E+04;  8.2680508E-02;  0.0000000E+00; -1.0147987E-02;  1.0759872E+03;
  8.7716621E-01;  9.9999998E-03; -1.8102486E-01;7460;  1.7112803E-02;  0.0000000E+00;  2.8762114E-03;  1.0001301E+03;  1.8252826E-01;  1.0784879E+02;3;  3.7698646E+00;  0.0000000E+00; -4.6397471E-03;0;  6.9905423E-02;  1.2136188E+04;  0.0000000E+00; -1.5779495E+00;  4.0000000E+04;  0.0000000E+00;  3.9588230E+04;  7.9554319E-02;  0.0000000E+00; -9.6488940E-03;  1.9459855E+03;
  8.7719160E-01;  9.9999998E-03; -1.9104657E-01;7459;  1.7468169E-02;  0.0000000E+00;  3.0568943E-03;  1.0000470E+03;  1.8250385E-01;  3.8912476E+01;3;  3.7652755E+00;  0.0000000E+00;  7.8942524E-03;0;  6.7083143E-02;  1.2136499E+04;  0.0000000E+00; -1.8355085E+00;  4.0000000E+04;  0.0000000E+00;  3.9589578E+04;  7.6291762E-02;  0.0000000E+00; -9.2086196E-03;  2.8282332E+03;
  8.7722421E-01;  9.9999998E-03; -2.0107879E-01;7458;  1.8022288E-02;  0.0000000E+00;  3.2150748E-03;  9.9990424E+02;  1.8246844E-01; -7.9355774E+01;3;  3.7777112E+00;  0.0000000E+00;  2.3998899E-02;0;  6.4063407E-02;  1.2137062E+04;  0.0000000E+00; -1.9774001E+00;  4.0000000E+04;  0.0000000E+00;  3.9591984E+04;  7.2920717E-02;  0.0000000E+00; -8.8573080E-03;  3.4468665E+03;
  8.7725037E-01;  9.9999998E-03; -2.1112153E-01;7457;  1.8757915E-02;  0.0000000E+00;  3.3057402E-03;  9.9968481E+02;  1.8241771E-01; -2.6112839E+02;3;  3.7847965E+00;  0.0000000E+00;  6.3550547E-02;0;  6.0895987E-02;  1.2138118E+04;  0.0000000E+00; -1.9328163E+00;  4.0000000E+04;  0.0000000E+00;  3.9595195E+04;  6.9478936E-02;  0.0000000E+00; -8.5829515E-03;  3.5892483E+03;
  8.7726557E-01;  9.9999998E-03; -2.2118735E-01;7456;  1.9637324E-02;  0.0000000E+00;  3.3536796E-03;  9.9936011E+02;  1.8235521E-01; -5.3015778E+02;3;  3.7706170E+00;  0.0000000E+00;  5.7550851E-02;0;  5.7635490E-02;  1.2139388E+04;  0.0000000E+00; -1.6580658E+00;  4.0000000E+04;  0.0000000E+00;  3.9595992E+04;  6.6006377E-02;  0.0000000E+00; -8.3708884E-03;  3.0697971E+03;
  8.7721169E-01;  9.9999998E-03; -2.3123881E-01;7455;  2.0595508E-02;  0.0000000E+00;  3.4058744E-03;  9.9896918E+02;  1.8226907E-01; -8.5400049E+02;3;  3.7584858E+00;  0.0000000E+00;  4.9582928E-02;0;  5.4299682E-02;  1.2143391E+04;  0.0000000E+00; -1.1484859E+00;  4.0000000E+04;  0.0000000E+00;  3.9597328E+04;  6.2574923E-02;  0.0000000E+00; -8.2752416E-03;  2.1310520E+03;
  8.7707043E-01;  9.9999998E-03; -2.4127398E-01;7454;  2.1541873E-02;  0.0000000E+00;  3.4274291E-03;  9.9856451E+02;  1.8215969E-01; -1.1892502E+03;3;  3.7370391E+00;  0.0000000E+00;  4.0639684E-02;0;  5.1062465E-02;  1.2150537E+04;  0.0000000E+00; -4.7553065E-01;  4.0000000E+04;  0.0000000E+00;  3.9601422E+04;  5.9226822E-02;  0.0000000E+00; -8.1643555E-03;  1.8352268E+03;
  8.7696302E-01;  9.9999998E-03; -2.5130820E-01;7453;  2.2411004E-02;  0.0000000E+00;  3.4915651E-03;  9.9811749E+02;  1.8209074E-01; -1.5596101E+03;3;  3.7327549E+00;  0.0000000E+00;  3.4999583E-02;0;  4.7617245E-02;  1.2152671E+04;  0.0000000E+00;  1.7007823E-01;  4.0000000E+04;  0.0000000E+00;  3.9606246E+04;  5.5940941E-02;  0.0000000E+00; -8.3236955E-03;  2.4932302E+03;
  8.7726003E-01;  9.9999998E-03; -2.6134303E-01;7452;  2.3234079E-02;  0.0000000E+00;  3.5791229E-03;  9.9762671E+02;  1.8223773E-01; -1.9662158E+03;3;  3.7189205E+00;  0.0000000E+00;  2.9713392E-02;0;  4.3842793E-02;  1.2125391E+04;  0.0000000E+00;  5.2978343E-01;  4.0000000E+04;  0.0000000E+00;  3.9611730E+04;  5.2597333E-02;  0.0000000E+00; -8.7545412E-03;  3.1771094E+03;
  8.7772959E-01;  9.9999998E-03; -2.7137887E-01;7451;  2.4031339E-02;  0.0000000E+00;  3.6671679E-03;  9.9712488E+02;  1.8247740E-01; -2.3820066E+03;3;  3.6795270E+00;  0.0000000E+00;  3.7820477E-02;0;  4.0016338E-02;  1.2085174E+04;  0.0000000E+00;  6.3452923E-01;  4.0000000E+04;  0.0000000E+00;  3.9616879E+04;  4.9328808E-02;  0.0000000E+00; -9.3124704E-03;  4.4486216E+03;
  8.9667541E-01;  9.9999998E-03; -2.7150753E-01;7512;  2.5628239E-02;  0.0000000E+00;  4.0099663E-03;  9.9766882E+02;  1.9199100E-01; -1.9313527E+03;3;  1.2173191E+00;  0.0000000E+00; -1.6251536E-01;0;  2.9545680E-02;  1.0955579E+04;  0.0000000E+00; -2.8982648E-01;  4.0000000E+04;  0.0000000E+00;  3.9574168E+04;  3.8405664E-02;  0.0000000E+00; -8.8599846E-03;  5.6072251E+03;
  8.9614433E-01;  9.9999998E-03; -2.6147002E-01;7513;  2.4826847E-02;  0.0000000E+00;  3.9145374E-03;  9.9819006E+02;  1.9173323E-01; -1.4995131E+03;3;  2.7578146E+00;  0.0000000E+00;  1.5422270E-01;0;  3.4120575E-02;  1.0993083E+04;  0.0000000E+00; -1.8452325E-01;  4.0000000E+04;  0.0000000E+00;  3.9568387E+04;  4.2389467E-02;  0.0000000E+00; -8.2688909E-03;  2.8742971E+03;
  8.9556205E-01;  9.9999998E-03; -2.5143254E-01;7514;  2.4189541E-02;  0.0000000E+00;  3.7602873E-03;  9.9871222E+02;  1.9143374E-01; -1.0668833E+03;3;  3.2792363E+00;  0.0000000E+00;  2.0514002E-01;0;  3.9181329E-02;  1.1033838E+04;  0.0000000E+00; -3.2459742E-01;  4.0000000E+04;  0.0000000E+00;  3.9563340E+04;  4.6769351E-02;  0.0000000E+00; -7.5880201E-03;  1.4610078E+03;
  8.9554375E-01;  9.9999998E-03; -2.4139494E-01;7515;  2.3522742E-02;  0.0000000E+00;  3.6404796E-03;  9.9914038E+02;  1.9141844E-01; -7.1217731E+02;3;  3.5143721E+00;  0.0000000E+00;  2.1342291E-01;0;  4.3567304E-02;  1.1039448E+04;  0.0000000E+00; -7.2505957E-01;  4.0000000E+04;  0.0000000E+00;  3.9559086E+04;  5.1003449E-02;  0.0000000E+00; -7.4361446E-03;  1.1071627E+03;
  8.9569402E-01;  9.9999998E-03; -2.3135227E-01;7516;  2.2754388E-02;  0.0000000E+00;  3.5571279E-03;  9.9950793E+02;  1.9151023E-01; -4.0764276E+02;3;  3.5939519E+00;  0.0000000E+00;  1.2818564E-01;0;  4.7634508E-02;  1.1032456E+04;  0.0000000E+00; -1.2447439E+00;  4.0000000E+04;  0.0000000E+00;  3.9555824E+04;  5.5275571E-02;  0.0000000E+00; -7.6410607E-03;  1.9244266E+03;
  8.9576167E-01;  9.9999998E-03; -2.2127575E-01;7517;  2.1881007E-02;  0.0000000E+00;  3.4327321E-03;  9.9987830E+02;  1.9158123E-01; -1.0083665E+02;3;  3.6150835E+00;  0.0000000E+00;  1.1307012E-01;0;  5.1818952E-02;  1.1028286E+04;  0.0000000E+00; -1.6844703E+00;  4.0000000E+04;  0.0000000E+00;  3.9558098E+04;  5.9679847E-02;  0.0000000E+00; -7.8608943E-03;  3.0431455E+03;
  8.9572799E-01;  9.9999998E-03; -2.1117318E-01;7518;  2.0940935E-02;  0.0000000E+00;  3.3968284E-03;  1.0001691E+03;  1.9161187E-01;  1.4014418E+02;3;  3.6366866E+00;  0.0000000E+00;  1.2152661E-01;0;  5.5807397E-02;  1.1028161E+04;  0.0000000E+00; -1.9368587E+00;  4.0000000E+04;  0.0000000E+00;  3.9559531E+04;  6.4149968E-02;  0.0000000E+00; -8.3425734E-03;  3.6585486E+03;
  8.9568740E-01;  9.9999998E-03; -2.0109901E-01;7519;  2.0154610E-02;  0.0000000E+00;  3.3691628E-03;  1.0003239E+03;  1.9163433E-01;  2.6833807E+02;3;  3.6653247E+00;  0.0000000E+00;  1.2943424E-01;0;  5.9758045E-02;  1.1027918E+04;  0.0000000E+00; -1.9923146E+00;  4.0000000E+04;  0.0000000E+00;  3.9556297E+04;  6.8602182E-02;  0.0000000E+00; -8.8441381E-03;  3.5538987E+03;
  8.9566010E-01;  9.9999998E-03; -1.9105257E-01;7520;  1.9605277E-02;  0.0000000E+00;  3.2728771E-03;  1.0003838E+03;  1.9164902E-01;  3.1791690E+02;3;  3.6968646E+00;  0.0000000E+00;  1.3510075E-01;0;  6.3613176E-02;  1.1026837E+04;  0.0000000E+00; -1.8802441E+00;  4.0000000E+04;  0.0000000E+00;  3.9552648E+04;  7.2958931E-02;  0.0000000E+00; -9.3457522E-03;  2.9480559E+03;
  8.9566618E-01;  9.9999998E-03; -1.8102944E-01;7521;  1.9282009E-02;  0.0000000E+00;  3.1272743E-03;  1.0003792E+03;  1.9166999E-01;  3.1416394E+02;3;  3.7369411E+00;  0.0000000E+00;  1.4962979E-01;0;  6.7226365E-02;  1.1024055E+04;  0.0000000E+00; -1.6550604E+00;  4.0000000E+04;  0.0000000E+00;  3.9550496E+04;  7.7129811E-02;  0.0000000E+00; -9.9034449E-03;  2.0617412E+03;
  8.9571291E-01;  9.9999998E-03; -1.7100683E-01;7522;  1.9290639E-02;  0.0000000E+00;  2.9536404E-03;  1.0003309E+03;  1.9170292E-01;  2.7416507E+02;3;  3.8221879E+00;  0.0000000E+00;  1.6985051E-01;0;  7.0567712E-02;  1.1019322E+04;  0.0000000E+00; -1.3831663E+00;  4.0000000E+04;  0.0000000E+00;  3.9549652E+04;  8.1094578E-02;  0.0000000E+00; -1.0526866E-02;  1.1372738E+03;
  8.9575058E-01;  9.9999998E-03; -1.6095704E-01;7523;  1.9592470E-02;  0.0000000E+00;  2.7778579E-03;  1.0002381E+03;  1.9173066E-01;  1.9722897E+02;3;  3.9657271E+00;  0.0000000E+00;  2.1923743E-01;0;  7.3628195E-02;  1.1015080E+04;  0.0000000E+00; -1.1215684E+00;  4.0000000E+04;  0.0000000E+00;  3.9550219E+04;  8.4841304E-02;  0.0000000E+00; -1.1213106E-02;  3.9223306E+02;
  8.9587390E-01;  9.9999998E-03; -1.5089743E-01;7524;  2.0265026E-02;  0.0000000E+00;  2.6114967E-03;  1.0001387E+03;  1.9179848E-01;  1.1486094E+02;3;  4.1840434E+00;  0.0000000E+00;  3.1465417E-01;0;  7.6398000E-02;  1.1006737E+04;  0.0000000E+00; -9.0582651E-01;  4.0000000E+04;  0.0000000E+00;  3.9551223E+04;  8.8359155E-02;  0.0000000E+00; -1.1961152E-02;  2.0268257E+02;
  8.9606076E-01;  9.9999998E-03; -1.4082778E-01;7525;  2.1195808E-02;  0.0000000E+00;  2.4686572E-03;  1.0000427E+03;  1.9189313E-01;  3.5357021E+01;3;  4.4364338E+00;  0.0000000E+00;  5.0330585E-01;0;  7.8903750E-02;  1.0996039E+04;  0.0000000E+00; -7.4462694E-01;  4.0000000E+04;  0.0000000E+00;  3.9553258E+04;  9.1679029E-02;  0.0000000E+00; -1.2775277E-02;  4.4664926E+02;
  8.9625424E-01;  9.9999998E-03; -1.3075405E-01;7526;  2.2149369E-02;  0.0000000E+00;  2.3753003E-03;  9.9996832E+02;  1.9198896E-01; -2.6221479E+01;3;  4.5301294E+00;  0.0000000E+00;  7.7848566E-01;0;  8.1191450E-02;  1.0986034E+04;  0.0000000E+00; -6.2901777E-01;  4.0000000E+04;  0.0000000E+00;  3.9555273E+04;  9.4847888E-02;  0.0000000E+00; -1.3656438E-02;  6.5207574E+02;
  8.9640385E-01;  9.9999998E-03; -1.2068954E-01;7527;  2.2869816E-02;  0.0000000E+00;  2.2978408E-03;  9.9990253E+02;  1.9206555E-01; -8.0738449E+01;3;  4.5741658E+00;  0.0000000E+00;  9.1863239E-01;0;  8.3312891E-02;  1.0979446E+04;  0.0000000E+00; -5.4231375E-01;  4.0000000E+04;  0.0000000E+00;  3.9557434E+04;  9.7911507E-02;  0.0000000E+00; -1.4598618E-02;  8.6620172E+02;
  8.9646274E-01;  9.9999998E-03; -1.1064363E-01;7528;  2.3381051E-02;  0.0000000E+00;  2.2031059E-03;  9.9985748E+02;  1.9210176E-01; -1.1807072E+02;3;  4.6559281E+00;  0.0000000E+00;  9.8025161E-01;0;  8.5349716E-02;  1.0978282E+04;  0.0000000E+00; -4.6788403E-01;  4.0000000E+04;  0.0000000E+00;  3.9559121E+04;  1.0093658E-01;  0.0000000E+00; -1.5586871E-02;  1.0462207E+03;
  9.1716856E-01;  9.9999998E-03; -2.7163318E-01;7573;  2.6019206E-02;  0.0000000E+00;  4.4009886E-03;  9.9734619E+02;  2.0254900E-01; -2.1986538E+03;3; -4.0058336E+00;  0.0000000E+00;  1.0601131E+00;0;  1.4830050E-02;  9.8511475E+03;  0.0000000E+00; -4.1691101E-01;  4.0000000E+04;  0.0000000E+00;  3.9537117E+04;  2.2925943E-02;  0.0000000E+00; -8.0958931E-03;  3.9982004E+03;
  9.1669285E-01;  9.9999998E-03; -2.6159126E-01;7574;  2.5735494E-02;  0.0000000E+00;  4.3176827E-03;  9.9791742E+02;  2.0229708E-01; -1.7253832E+03;3; -3.7580128E+00;  0.0000000E+00;  1.0937730E+00;0;  1.9539978E-02;  9.8839199E+03;  0.0000000E+00; -4.0993547E-01;  4.0000000E+04;  0.0000000E+00;  3.9531398E+04;  2.7317269E-02;  0.0000000E+00; -7.7772914E-03;  2.6294634E+03;
  9.1623533E-01;  9.9999998E-03; -2.5154805E-01;7575;  2.5509285E-02;  0.0000000E+00;  4.2112791E-03;  9.9845679E+02;  2.0204093E-01; -1.2785316E+03;3; -3.4648480E+00;  0.0000000E+00;  1.1363121E+00;0;  2.4603348E-02;  9.9151338E+03;  0.0000000E+00; -5.1262045E-01;  4.0000000E+04;  0.0000000E+00;  3.9526398E+04;  3.2049812E-02;  0.0000000E+00; -7.4464632E-03;  1.7130562E+03;
  9.1613179E-01;  9.9999998E-03; -2.4150163E-01;7576;  2.5312314E-02;  0.0000000E+00;  4.1127768E-03;  9.9891711E+02;  2.0196849E-01; -8.9715973E+02;3; -3.1449509E+00;  0.0000000E+00;  1.1707896E+00;0;  2.9427152E-02;  9.9257256E+03;  0.0000000E+00; -7.1551955E-01;  4.0000000E+04;  0.0000000E+00;  3.9522305E+04;  3.6793135E-02;  0.0000000E+00; -7.3659830E-03;  1.2724969E+03;
  9.1619337E-01;  9.9999998E-03; -2.3144734E-01;7577;  2.5134383E-02;  0.0000000E+00;  4.0367804E-03;  9.9928912E+02;  2.0199654E-01; -5.8897095E+02;3; -2.7261200E+00;  0.0000000E+00;  1.2207397E+00;0;  3.4089148E-02;  9.9251250E+03;  0.0000000E+00; -9.7187299E-01;  4.0000000E+04;  0.0000000E+00;  3.9518965E+04;  4.1639194E-02;  0.0000000E+00; -7.5500454E-03;  1.4175558E+03;
  9.1611153E-01;  9.9999998E-03; -2.2135541E-01;7578;  2.4924804E-02;  0.0000000E+00;  3.8995722E-03;  9.9964111E+02;  2.0197153E-01; -2.9732489E+02;3; -2.0057473E+00;  0.0000000E+00;  1.3751861E+00;0;  3.9039429E-02;  9.9300742E+03;  0.0000000E+00; -1.2127045E+00;  4.0000000E+04;  0.0000000E+00;  3.9521203E+04;  4.6765652E-02;  0.0000000E+00; -7.7262232E-03;  1.9806570E+03;
  9.1588610E-01;  9.9999998E-03; -2.1123663E-01;7579;  2.4659701E-02;  0.0000000E+00;  3.8001039E-03;  9.9990411E+02;  2.0188989E-01; -7.9454536E+01;3; -6.8284708E-01;  0.0000000E+00;  1.6565380E+00;0;  4.3905608E-02;  9.9403066E+03;  0.0000000E+00; -1.3834519E+00;  4.0000000E+04;  0.0000000E+00;  3.9522219E+04;  5.2059770E-02;  0.0000000E+00; -8.1541613E-03;  2.3030413E+03;
  9.1552383E-01;  9.9999998E-03; -2.0114692E-01;7580;  2.4351761E-02;  0.0000000E+00;  3.7203501E-03;  9.9999933E+02;  2.0174253E-01; -5.4319447E-01;3;  7.8936577E-01;  0.0000000E+00;  1.8083233E+00;0;  4.8666611E-02;  9.9551553E+03;  0.0000000E+00; -1.4687371E+00;  4.0000000E+04;  0.0000000E+00;  3.9518980E+04;  5.7376843E-02;  0.0000000E+00; -8.7102316E-03;  2.1561790E+03;
  9.1510332E-01;  9.9999998E-03; -1.9107610E-01;7581;  2.4067851E-02;  0.0000000E+00;  3.6182983E-03;  9.9998987E+02;  2.0156506E-01; -8.3948240E+00;3;  1.8367749E+00;  0.0000000E+00;  1.8462378E+00;0;  5.3229243E-02;  9.9716006E+03;  0.0000000E+00; -1.4726002E+00;  4.0000000E+04;  0.0000000E+00;  3.9515406E+04;  6.2561303E-02;  0.0000000E+00; -9.3320599E-03;  1.8439624E+03;
  9.1483611E-01;  9.9999998E-03; -1.8102229E-01;7582;  2.3939054E-02;  0.0000000E+00;  3.5176892E-03;  9.9992493E+02;  2.0145521E-01; -6.2220459E+01;3;  2.3758039E+00;  0.0000000E+00;  1.8243388E+00;0;  5.7347264E-02;  9.9805254E+03;  0.0000000E+00; -1.4010371E+00;  4.0000000E+04;  0.0000000E+00;  3.9513250E+04;  6.7380883E-02;  0.0000000E+00; -1.0033620E-02;  1.4013268E+03;
  9.1472846E-01;  9.9999998E-03; -1.7096820E-01;7583;  2.4029449E-02;  0.0000000E+00;  3.4370176E-03;  9.9982056E+02;  2.0141892E-01; -1.4868715E+02;3;  2.5586395E+00;  0.0000000E+00;  1.8238747E+00;0;  6.0977567E-02;  9.9817959E+03;  0.0000000E+00; -1.2745351E+00;  4.0000000E+04;  0.0000000E+00;  3.9512730E+04;  7.1795031E-02;  0.0000000E+00; -1.0817464E-02;  8.5942151E+02;
  9.1475838E-01;  9.9999998E-03; -1.6090560E-01;7584;  2.4328368E-02;  0.0000000E+00;  3.3785608E-03;  9.9969836E+02;  2.0144808E-01; -2.4991884E+02;3;  2.5026057E+00;  0.0000000E+00;  1.8047807E+00;0;  6.4122371E-02;  9.9765918E+03;  0.0000000E+00; -1.1173345E+00;  4.0000000E+04;  0.0000000E+00;  3.9513852E+04;  7.5806871E-02;  0.0000000E+00; -1.1684500E-02;  3.2486227E+02;
  9.1490090E-01;  9.9999998E-03; -1.5083581E-01;7585;  2.4747897E-02;  0.0000000E+00;  3.3372534E-03;  9.9956720E+02;  2.0153262E-01; -3.5855774E+02;3;  2.3188624E+00;  0.0000000E+00;  1.7695775E+00;0;  6.6815101E-02;  9.9662529E+03;  0.0000000E+00; -9.4839007E-01;  4.0000000E+04;  0.0000000E+00;  3.9515793E+04;  7.9452224E-02;  0.0000000E+00; -1.2637122E-02;  3.8897797E+02;
  9.1512716E-01;  9.9999998E-03; -1.4076282E-01;7586;  2.5197648E-02;  0.0000000E+00;  3.2895741E-03;  9.9944800E+02;  2.0166172E-01; -4.5732037E+02;3;  2.2243738E+00;  0.0000000E+00;  1.6740816E+00;0;  6.9133744E-02;  9.9524902E+03;  0.0000000E+00; -7.8031814E-01;  4.0000000E+04;  0.0000000E+00;  3.9518312E+04;  8.2809292E-02;  0.0000000E+00; -1.3675546E-02;  8.7398645E+02;
  9.1538572E-01;  9.9999998E-03; -1.3068943E-01;7587;  2.5618916E-02;  0.0000000E+00;  3.2192497E-03;  9.9934381E+02;  2.0180783E-01; -5.4363892E+02;3;  2.2788198E+00;  0.0000000E+00;  1.5780175E+00;0;  7.1200326E-02;  9.9379922E+03;  0.0000000E+00; -6.2181056E-01;  4.0000000E+04;  0.0000000E+00;  3.9520730E+04;  8.5998535E-02;  0.0000000E+00; -1.4798207E-02;  1.3100167E+03;
  9.1562372E-01;  9.9999998E-03; -1.2062144E-01;7588;  2.5989430E-02;  0.0000000E+00;  3.1201015E-03;  9.9926093E+02;  2.0194417E-01; -6.1232831E+02;3;  2.4929819E+00;  0.0000000E+00;  1.4990202E+00;0;  7.3140860E-02;  9.9254199E+03;  0.0000000E+00; -4.7951555E-01;  4.0000000E+04;  0.0000000E+00;  3.9522684E+04;  8.9139514E-02;  0.0000000E+00; -1.5998654E-02;  1.6297396E+03;
  9.1579747E-01;  9.9999998E-03; -1.1056703E-01;7589;  2.6301237E-02;  0.0000000E+00;  2.9877243E-03;  9.9919086E+02;  2.0204930E-01; -6.7035138E+02;3;  2.8192794E+00;  0.0000000E+00;  1.4255829E+00;0;  7.5063244E-02;  9.9170713E+03;  0.0000000E+00; -3.5793722E-01;  4.0000000E+04;  0.0000000E+00;  3.9524145E+04;  9.2322782E-02;  0.0000000E+00; -1.7259538E-02;  1.7903102E+03;
  9.3872058E-01;  9.9999998E-03; -2.6170853E-01;7635;  2.5445940E-02;  0.0000000E+00;  4.8557934E-03;  9.9716693E+02;  2.1408853E-01; -2.3471433E+03;3; -3.7603202E+00;  0.0000000E+00;  2.7846989E-01;0;  1.5082769E-05;  8.8191650E+03;  0.0000000E+00; -5.9925950E-01;  4.0000000E+04;  0.0000000E+00;  3.9497406E+04;  8.7569542E-03;  0.0000000E+00; -8.7418715E-03;  3.3296541E+03;
  9.3832344E-01;  9.9999998E-03; -2.5165853E-01;7636;  2.5246438E-02;  0.0000000E+00;  4.7446322E-03;  9.9779279E+02;  2.1386153E-01; -1.8286395E+03;3; -3.4821851E+00;  0.0000000E+00;  2.9509366E-01;0;  5.1784711E-03;  8.8455566E+03;  0.0000000E+00; -5.1144892E-01;  4.0000000E+04;  0.0000000E+00;  3.9492031E+04;  1.3028506E-02;  0.0000000E+00; -7.8500351E-03;  2.4621907E+03;
  9.3844432E-01;  9.9999998E-03; -2.4160691E-01;7637;  2.5078954E-02;  0.0000000E+00;  4.6778107E-03;  9.9835931E+02;  2.1391046E-01; -1.3592701E+03;3; -3.1778593E+00;  0.0000000E+00;  2.6506209E-01;0;  9.6361600E-03;  8.8469971E+03;  0.0000000E+00; -2.9994959E-01;  4.0000000E+04;  0.0000000E+00;  3.9486473E+04;  1.7174326E-02;  0.0000000E+00; -7.5381654E-03;  1.9042213E+03;
  9.3841207E-01;  9.9999998E-03; -2.3154674E-01;7638;  2.4951620E-02;  0.0000000E+00;  4.6351240E-03;  9.9881659E+02;  2.1387824E-01; -9.8041663E+02;3; -2.8355329E+00;  0.0000000E+00;  2.3288518E-01;0;  1.4154581E-02;  8.8533320E+03;  0.0000000E+00; -1.1154918E-01;  4.0000000E+04;  0.0000000E+00;  3.9481781E+04;  2.1730337E-02;  0.0000000E+00; -7.5757559E-03;  2.0833940E+03;
  9.3813044E-01;  9.9999998E-03; -2.2144754E-01;7639;  2.4860777E-02;  0.0000000E+00;  4.5472528E-03;  9.9921277E+02;  2.1372281E-01; -6.5222839E+02;3; -2.5114422E+00;  0.0000000E+00;  2.3768696E-01;0;  1.9050619E-02;  8.8692744E+03;  0.0000000E+00; -2.9180860E-02;  4.0000000E+04;  0.0000000E+00;  3.9482602E+04;  2.6754191E-02;  0.0000000E+00; -7.7035725E-03;  2.7226294E+03;
  9.3766272E-01;  9.9999998E-03; -2.1130988E-01;7640;  2.4845837E-02;  0.0000000E+00;  4.4958252E-03;  9.9948877E+02;  2.1349463E-01; -4.2354355E+02;3; -2.3260577E+00;  0.0000000E+00;  2.9730031E-01;0;  2.4008855E-02;  8.8908164E+03;  0.0000000E+00; -6.6416621E-02;  4.0000000E+04;  0.0000000E+00;  3.9484773E+04;  3.2120075E-02;  0.0000000E+00; -8.1112189E-03;  3.0036201E+03;
  9.3715268E-01;  9.9999998E-03; -2.0120597E-01;7641;  2.4920003E-02;  0.0000000E+00;  4.4904370E-03;  9.9958008E+02;  2.1325412E-01; -3.4789136E+02;3; -1.9646590E+00;  0.0000000E+00;  3.5244903E-01;0;  2.8863644E-02;  8.9120225E+03;  0.0000000E+00; -1.9650090E-01;  4.0000000E+04;  0.0000000E+00;  3.9480891E+04;  3.7564460E-02;  0.0000000E+00; -8.7008160E-03;  2.6617385E+03;
  9.3669438E-01;  9.9999998E-03; -1.9112974E-01;7642;  2.5048831E-02;  0.0000000E+00;  4.4605150E-03;  9.9957202E+02;  2.1303785E-01; -3.5455786E+02;3; -1.5681725E+00;  0.0000000E+00;  4.3817478E-01;0;  3.3511020E-02;  8.9297930E+03;  0.0000000E+00; -3.8156444E-01;  4.0000000E+04;  0.0000000E+00;  3.9476742E+04;  4.2892959E-02;  0.0000000E+00; -9.3819378E-03;  2.1435376E+03;
  9.3638384E-01;  9.9999998E-03; -1.8106879E-01;7643;  2.5218196E-02;  0.0000000E+00;  4.3976037E-03;  9.9951721E+02;  2.1289772E-01; -3.9998865E+02;3; -1.1028814E+00;  0.0000000E+00;  5.2968645E-01;0;  3.7740923E-02;  8.9403760E+03;  0.0000000E+00; -5.7404947E-01;  4.0000000E+04;  0.0000000E+00;  3.9474535E+04;  4.7919221E-02;  0.0000000E+00; -1.0178299E-02;  1.6257272E+03;
  9.3623894E-01;  9.9999998E-03; -1.7101456E-01;7644;  2.5427010E-02;  0.0000000E+00;  4.3088421E-03;  9.9943524E+02;  2.1284074E-01; -4.6788797E+02;3; -5.5829781E-01;  0.0000000E+00;  6.1750287E-01;0;  4.1459396E-02;  8.9434424E+03;  0.0000000E+00; -7.3179883E-01;  4.0000000E+04;  0.0000000E+00;  3.9474324E+04;  5.2562118E-02;  0.0000000E+00; -1.1102721E-02;  1.1826929E+03;
  9.3622988E-01;  9.9999998E-03; -1.6096257E-01;7645;  2.5669761E-02;  0.0000000E+00;  4.2002965E-03;  9.9933276E+02;  2.1285442E-01; -5.5277448E+02;3; -2.5048086E-02;  0.0000000E+00;  6.9441193E-01;0;  4.4678483E-02;  8.9401934E+03;  0.0000000E+00; -8.2225734E-01;  4.0000000E+04;  0.0000000E+00;  3.9475480E+04;  5.6831736E-02;  0.0000000E+00; -1.2153252E-02;  9.0892743E+02;
  9.3634009E-01;  9.9999998E-03; -1.5091181E-01;7646;  2.5940306E-02;  0.0000000E+00;  4.0770643E-03;  9.9922845E+02;  2.1293572E-01; -6.3919177E+02;3;  4.7844917E-01;  0.0000000E+00;  7.5483066E-01;0;  4.7446296E-02;  8.9316836E+03;  0.0000000E+00; -8.2844239E-01;  4.0000000E+04;  0.0000000E+00;  3.9477664E+04;  6.0768545E-02;  0.0000000E+00; -1.3322247E-02;  9.6237701E+02;
  9.3657273E-01;  9.9999998E-03; -1.4086439E-01;7647;  2.6242021E-02;  0.0000000E+00;  3.9426554E-03;  9.9912537E+02;  2.1308316E-01; -7.2462140E+02;3;  9.8010093E-01;  0.0000000E+00;  8.1599259E-01;0;  4.9826398E-02;  8.9178838E+03;  0.0000000E+00; -7.5400978E-01;  4.0000000E+04;  0.0000000E+00;  3.9480586E+04;  6.4428486E-02;  0.0000000E+00; -1.4602086E-02;  1.3762885E+03;
  9.3691146E-01;  9.9999998E-03; -1.3082652E-01;7648;  2.6559459E-02;  0.0000000E+00;  3.7948652E-03;  9.9903735E+02;  2.1328987E-01; -7.9755762E+02;3;  1.4964273E+00;  0.0000000E+00;  8.5586357E-01;0;  5.1915482E-02;  8.8998574E+03;  0.0000000E+00; -6.2065315E-01;  4.0000000E+04;  0.0000000E+00;  3.9483109E+04;  6.7901477E-02;  0.0000000E+00; -1.5985996E-02;  1.9553418E+03;
  9.3727911E-01;  9.9999998E-03; -1.2079759E-01;7649;  2.6882701E-02;  0.0000000E+00;  3.6313455E-03;  9.9895966E+02;  2.1351278E-01; -8.6190149E+02;3;  2.0389607E+00;  0.0000000E+00;  8.7261516E-01;0;  5.3866796E-02;  8.8812148E+03;  0.0000000E+00; -4.6014205E-01;  4.0000000E+04;  0.0000000E+00;  3.9484930E+04;  7.1329564E-02;  0.0000000E+00; -1.7462766E-02;  2.4949443E+03;
  9.3759590E-01;  9.9999998E-03; -1.1077758E-01;7650;  2.7201870E-02;  0.0000000E+00;  3.4472686E-03;  9.9890082E+02;  2.1370988E-01; -9.1064087E+02;3;  2.5566120E+00;  0.0000000E+00;  8.9041954E-01;0;  5.5820201E-02;  8.8656006E+03;  0.0000000E+00; -3.0448130E-01;  4.0000000E+04;  0.0000000E+00;  3.9485535E+04;  7.4830256E-02;  0.0000000E+00; -1.9010056E-02;  2.8370867E+03;
  9.6233153E-01;  9.9999998E-03; -2.6183057E-01;7696;  2.5011888E-02;  0.0000000E+00;  5.1001552E-03;  9.9672284E+02;  2.2734883E-01; -2.7150835E+03;3; -3.8154051E+00;  0.0000000E+00; -5.3940642E-01;0; -1.6805939E-02;  7.8178892E+03;  0.0000000E+00; -7.6531714E-01;  4.0000000E+04;  0.0000000E+00;  3.9459875E+04; -9.9937310E-03;  0.0000000E+00; -6.8122093E-03;  4.7036455E+03;
  9.6196908E-01;  9.9999998E-03; -2.5177389E-01;7697;  2.4843728E-02;  0.0000000E+00;  5.0312858E-03;  9.9742682E+02;  2.2714178E-01; -2.1318408E+03;3; -3.5279469E+00;  0.0000000E+00; -5.0441164E-01;0; -1.2574907E-02;  7.8407959E+03;  0.0000000E+00; -2.0234443E-01;  4.0000000E+04;  0.0000000E+00;  3.9453164E+04; -6.4162556E-03;  0.0000000E+00; -6.1586513E-03;  3.6401465E+03;
  9.6212882E-01;  9.9999998E-03; -2.4172004E-01;7698;  2.4696011E-02;  0.0000000E+00;  4.9942601E-03;  9.9812274E+02;  2.2721927E-01; -1.5552645E+03;3; -3.2278032E+00;  0.0000000E+00; -4.9885017E-01;0; -8.9237234E-03;  7.8428311E+03;  0.0000000E+00;  6.1456460E-01;  4.0000000E+04;  0.0000000E+00;  3.9445086E+04; -2.9405982E-03;  0.0000000E+00; -5.9831254E-03;  4.8387578E+03;
  9.6207720E-01;  9.9999998E-03; -2.3166312E-01;7699;  2.4600308E-02;  0.0000000E+00;  4.9564526E-03;  9.9867053E+02;  2.2717871E-01; -1.1014502E+03;3; -2.9095528E+00;  0.0000000E+00; -4.8064676E-01;0; -5.1404596E-03;  7.8513164E+03;  0.0000000E+00;  1.3333969E+00;  4.0000000E+04;  0.0000000E+00;  3.9438727E+04;  9.6367119E-04;  0.0000000E+00; -6.1041308E-03;  7.6872925E+03;
  9.6168625E-01;  9.9999998E-03; -2.2156920E-01;7700;  2.4567660E-02;  0.0000000E+00;  4.8644380E-03;  9.9912054E+02;  2.2694761E-01; -7.2862134E+02;3; -2.5799394E+00;  0.0000000E+00; -4.5012933E-01;0; -9.8804012E-04;  7.8716113E+03;  0.0000000E+00;  1.7593017E+00;  4.0000000E+04;  0.0000000E+00;  3.9439684E+04;  5.4008178E-03;  0.0000000E+00; -6.3888580E-03;  1.0108314E+04;
  9.6095705E-01;  9.9999998E-03; -2.1142846E-01;7701;  2.4591884E-02;  0.0000000E+00;  4.7855820E-03;  9.9938971E+02;  2.2655092E-01; -5.0561530E+02;3; -2.3586328E+00;  0.0000000E+00; -3.8421574E-01;0;  3.3695530E-03;  7.9022197E+03;  0.0000000E+00;  1.8392149E+00;  4.0000000E+04;  0.0000000E+00;  3.9442531E+04;  1.0360329E-02;  0.0000000E+00; -6.9907764E-03;  1.1106468E+04;
  9.6016282E-01;  9.9999998E-03; -2.0130524E-01;7702;  2.4695348E-02;  0.0000000E+00;  4.7318661E-03;  9.9950214E+02;  2.2613300E-01; -4.1248212E+02;3; -2.0899572E+00;  0.0000000E+00; -3.4955236E-01;0;  7.7336449E-03;  7.9336348E+03;  0.0000000E+00;  1.6331586E+00;  4.0000000E+04;  0.0000000E+00;  3.9440457E+04;  1.5534034E-02;  0.0000000E+00; -7.8003891E-03;  1.0702716E+04;
  9.5951056E-01;  9.9999998E-03; -1.9120647E-01;7703;  2.4880201E-02;  0.0000000E+00;  4.6758475E-03;  9.9953162E+02;  2.2579321E-01; -3.8803839E+02;3; -1.6985238E+00;  0.0000000E+00; -2.8587589E-01;0;  1.1933838E-02;  7.9587275E+03;  0.0000000E+00;  1.2205971E+00;  4.0000000E+04;  0.0000000E+00;  3.9436922E+04;  2.0671383E-02;  0.0000000E+00; -8.7375445E-03;  9.2570967E+03;
  9.5904595E-01;  9.9999998E-03; -1.8113080E-01;7704;  2.5126455E-02;  0.0000000E+00;  4.6086274E-03;  9.9950964E+02;  2.2555958E-01; -4.0626007E+02;3; -1.2731189E+00;  0.0000000E+00; -1.9443054E-01;0;  1.5867475E-02;  7.9754922E+03;  0.0000000E+00;  6.9305700E-01;  4.0000000E+04;  0.0000000E+00;  3.9435270E+04;  2.5665941E-02;  0.0000000E+00; -9.7984662E-03;  7.1882700E+03;
  9.5879239E-01;  9.9999998E-03; -1.7106745E-01;7705;  2.5418142E-02;  0.0000000E+00;  4.5243264E-03;  9.9944653E+02;  2.2544582E-01; -4.5855490E+02;3; -8.1453401E-01;  0.0000000E+00; -1.0413121E-01;0;  1.9462366E-02;  7.9829961E+03;  0.0000000E+00;  1.5987825E-01;  4.0000000E+04;  0.0000000E+00;  3.9435293E+04;  3.0448318E-02;  0.0000000E+00; -1.0985951E-02;  5.0227656E+03;
  9.5873165E-01;  9.9999998E-03; -1.6101341E-01;7706;  2.5753012E-02;  0.0000000E+00;  4.4242078E-03;  9.9935767E+02;  2.2544096E-01; -5.3218243E+02;3; -3.5546380E-01;  0.0000000E+00; -2.8914157E-02;0;  2.2710569E-02;  7.9820615E+03;  0.0000000E+00; -2.8043386E-01;  4.0000000E+04;  0.0000000E+00;  3.9436504E+04;  3.5010472E-02;  0.0000000E+00; -1.2299902E-02;  3.2504399E+03;
  9.5882171E-01;  9.9999998E-03; -1.5096647E-01;7707;  2.6109869E-02;  0.0000000E+00;  4.3028956E-03;  9.9926270E+02;  2.2552197E-01; -6.1084686E+02;3;  2.1828502E-01;  0.0000000E+00;  6.9882698E-02;0;  2.5662240E-02;  7.9746313E+03;  0.0000000E+00; -5.6511247E-01;  4.0000000E+04;  0.0000000E+00;  3.9438625E+04;  3.9396480E-02;  0.0000000E+00; -1.3734241E-02;  2.2149746E+03;
  9.5902294E-01;  9.9999998E-03; -1.4093126E-01;7708;  2.6475839E-02;  0.0000000E+00;  4.1611134E-03;  9.9916150E+02;  2.2566670E-01; -6.9469635E+02;3;  7.0912594E-01;  0.0000000E+00;  1.3047333E-01;0;  2.8384171E-02;  7.9627544E+03;  0.0000000E+00; -6.7762321E-01;  4.0000000E+04;  0.0000000E+00;  3.9441180E+04;  4.3664493E-02;  0.0000000E+00; -1.5280321E-02;  2.0139189E+03;
  9.5931584E-01;  9.9999998E-03; -1.3090859E-01;7709;  2.6859557E-02;  0.0000000E+00;  4.0021790E-03;  9.9907880E+02;  2.2586304E-01; -7.6318823E+02;3;  1.2611849E+00;  0.0000000E+00;  1.9434972E-01;0;  3.0933762E-02;  7.9476201E+03;  0.0000000E+00; -6.4236826E-01;  4.0000000E+04;  0.0000000E+00;  3.9443078E+04;  4.7863998E-02;  0.0000000E+00; -1.6930236E-02;  2.3900718E+03;
  9.5963168E-01;  9.9999998E-03; -1.2089116E-01;7710;  2.7256446E-02;  0.0000000E+00;  3.8254170E-03;  9.9902576E+02;  2.2607064E-01; -8.0713763E+02;3;  1.8243811E+00;  0.0000000E+00;  2.5015396E-01;0;  3.3405416E-02;  7.9322559E+03;  0.0000000E+00; -5.1026106E-01;  4.0000000E+04;  0.0000000E+00;  3.9444395E+04;  5.2078992E-02;  0.0000000E+00; -1.8673576E-02;  2.9825469E+03;
  9.5990205E-01;  9.9999998E-03; -1.1086716E-01;7711;  2.7658282E-02;  0.0000000E+00;  3.6289310E-03;  9.9897510E+02;  2.2624746E-01; -8.4911169E+02;3;  2.3653536E+00;  0.0000000E+00;  2.8072548E-01;0;  3.5877988E-02;  7.9195215E+03;  0.0000000E+00; -3.4032637E-01;  4.0000000E+04;  0.0000000E+00;  3.9444293E+04;  5.6369353E-02;  0.0000000E+00; -2.0491363E-02;  3.5043997E+03;
  9.8662084E-01;  9.9999998E-03; -2.6196393E-01;7757;  2.4311464E-02;  0.0000000E+00;  5.0669909E-03;  9.9704987E+02;  2.4158233E-01; -2.4441282E+03;3; -3.9648936E+00;  0.0000000E+00; -1.3377223E+00;0; -2.8401352E-02;  6.9327583E+03;  0.0000000E+00; -8.7393409E-01;  4.0000000E+04;  0.0000000E+00;  3.9414426E+04; -2.6102999E-02;  0.0000000E+00; -2.2983530E-03;  4.6984985E+03;
  9.8613608E-01;  9.9999998E-03; -2.5189719E-01;7758;  2.4202861E-02;  0.0000000E+00;  5.0920793E-03;  9.9766772E+02;  2.4128719E-01; -1.9322415E+03;3; -3.6779842E+00;  0.0000000E+00; -1.2761476E+00;0; -2.5578296E-02;  6.9560400E+03;  0.0000000E+00;  1.7259577E-01;  4.0000000E+04;  0.0000000E+00;  3.9409391E+04; -2.2966688E-02;  0.0000000E+00; -2.6116071E-03;  4.1663350E+03;
  9.8593652E-01;  9.9999998E-03; -2.4183343E-01;7759;  2.4114629E-02;  0.0000000E+00;  5.1226141E-03;  9.9828479E+02;  2.4115974E-01; -1.4209967E+03;3; -3.3882749E+00;  0.0000000E+00; -1.2266937E+00;0; -2.2779444E-02;  6.9695898E+03;  0.0000000E+00;  1.3428018E+00;  4.0000000E+04;  0.0000000E+00;  3.9402117E+04; -1.9716522E-02;  0.0000000E+00; -3.0629223E-03;  6.8612310E+03;
  9.8550647E-01;  9.9999998E-03; -2.3176892E-01;7760;  2.4088336E-02;  0.0000000E+00;  5.1188720E-03;  9.9876447E+02;  2.4089551E-01; -1.0236253E+03;3; -3.0886140E+00;  0.0000000E+00; -1.1843041E+00;0; -1.9642277E-02;  6.9899697E+03;  0.0000000E+00;  2.2830811E+00;  4.0000000E+04;  0.0000000E+00;  3.9397074E+04; -1.6048929E-02;  0.0000000E+00; -3.5933484E-03;  1.1132175E+04;
  9.8488224E-01;  9.9999998E-03; -2.2168742E-01;7761;  2.4127772E-02;  0.0000000E+00;  5.0596660E-03;  9.9915497E+02;  2.4052031E-01; -7.0007892E+02;3; -2.7752068E+00;  0.0000000E+00; -1.1574595E+00;0; -1.6232260E-02;  7.0160981E+03;  0.0000000E+00;  2.8638082E+00;  4.0000000E+04;  0.0000000E+00;  3.9395930E+04; -1.1976381E-02;  0.0000000E+00; -4.2558792E-03;  1.4755981E+04;
  9.8408473E-01;  9.9999998E-03; -2.1160279E-01;7762;  2.4227025E-02;  0.0000000E+00;  5.0076162E-03;  9.9938885E+02;  2.4007264E-01; -5.0630664E+02;3; -2.4387488E+00;  0.0000000E+00; -1.1003906E+00;0; -1.2704257E-02;  7.0461860E+03;  0.0000000E+00;  3.0460129E+00;  4.0000000E+04;  0.0000000E+00;  3.9394770E+04; -7.5174756E-03;  0.0000000E+00; -5.1867818E-03;  1.6670090E+04;
  9.8334628E-01;  9.9999998E-03; -2.0154819E-01;7763;  2.4377346E-02;  0.0000000E+00;  4.9375440E-03;  9.9951953E+02;  2.3966977E-01; -3.9806277E+02;3; -2.1915703E+00;  0.0000000E+00; -1.0486213E+00;0; -9.1244821E-03;  7.0729009E+03;  0.0000000E+00;  2.8561010E+00;  4.0000000E+04;  0.0000000E+00;  3.9392273E+04; -2.8574956E-03;  0.0000000E+00; -6.2669865E-03;  1.6713463E+04;
  9.8259234E-01;  9.9999998E-03; -1.9147815E-01;7764;  2.4600735E-02;  0.0000000E+00;  4.8450348E-03;  9.9958685E+02;  2.3925562E-01; -3.4226190E+02;3; -1.8737642E+00;  0.0000000E+00; -1.0068481E+00;0; -5.4534934E-03;  7.0993237E+03;  0.0000000E+00;  2.3454859E+00;  4.0000000E+04;  0.0000000E+00;  3.9392211E+04;  2.0413625E-03;  0.0000000E+00; -7.4948557E-03;  1.5000819E+04;
  9.8191345E-01;  9.9999998E-03; -1.8138804E-01;7765;  2.4903482E-02;  0.0000000E+00;  4.7553037E-03;  9.9957611E+02;  2.3888750E-01; -3.5119992E+02;3; -1.4899404E+00;  0.0000000E+00; -9.3965060E-01;0; -1.7667552E-03;  7.1220967E+03;  0.0000000E+00;  1.6310652E+00;  4.0000000E+04;  0.0000000E+00;  3.9392828E+04;  7.0913024E-03;  0.0000000E+00; -8.8580577E-03;  1.2077294E+04;
  9.8141575E-01;  9.9999998E-03; -1.7128855E-01;7766;  2.5270103E-02;  0.0000000E+00;  4.6644052E-03;  9.9950854E+02;  2.3863174E-01; -4.0714896E+02;3; -1.0390669E+00;  0.0000000E+00; -8.4585458E-01;0;  1.8508295E-03;  7.1373584E+03;  0.0000000E+00;  8.5760492E-01;  4.0000000E+04;  0.0000000E+00;  3.9394066E+04;  1.2190484E-02;  0.0000000E+00; -1.0339655E-02;  8.7234609E+03;
  9.8112500E-01;  9.9999998E-03; -1.6119041E-01;7767;  2.5680045E-02;  0.0000000E+00;  4.5599532E-03;  9.9939972E+02;  2.3849915E-01; -4.9731924E+02;3; -6.2021929E-01;  0.0000000E+00; -7.6358622E-01;0;  5.3595845E-03;  7.1442866E+03;  0.0000000E+00;  1.6488741E-01;  4.0000000E+04;  0.0000000E+00;  3.9395715E+04;  1.7295923E-02;  0.0000000E+00; -1.1936339E-02;  5.7059751E+03;
  9.8104018E-01;  9.9999998E-03; -1.5109992E-01;7768;  2.6115470E-02;  0.0000000E+00;  4.4318112E-03;  9.9927222E+02;  2.3848854E-01; -6.0294586E+02;3; -7.9510100E-02;  0.0000000E+00; -6.5768903E-01;0;  8.7469360E-03;  7.1432085E+03;  0.0000000E+00; -3.4687334E-01;  4.0000000E+04;  0.0000000E+00;  3.9398020E+04;  2.2391859E-02;  0.0000000E+00; -1.3644923E-02;  3.5834751E+03;
  9.8116744E-01;  9.9999998E-03; -1.4101802E-01;7769;  2.6559625E-02;  0.0000000E+00;  4.2783795E-03;  9.9915753E+02;  2.3860632E-01; -6.9795551E+02;3;  3.9425370E-01;  0.0000000E+00; -5.8159912E-01;0;  1.2006817E-02;  7.1342485E+03;  0.0000000E+00; -6.3801813E-01;  4.0000000E+04;  0.0000000E+00;  3.9400117E+04;  2.7467916E-02;  0.0000000E+00; -1.5461098E-02;  2.5882402E+03;
  9.8149872E-01;  9.9999998E-03; -1.3093846E-01;7770;  2.7026623E-02;  0.0000000E+00;  4.1028908E-03;  9.9906494E+02;  2.3884131E-01; -7.7469409E+02;3;  9.4342488E-01;  0.0000000E+00; -4.8613313E-01;0;  1.5144968E-02;  7.1182832E+03;  0.0000000E+00; -7.2588909E-01;  4.0000000E+04;  0.0000000E+00;  3.9401914E+04;  3.2529578E-02;  0.0000000E+00; -1.7384609E-02;  2.5339314E+03;
  9.8192012E-01;  9.9999998E-03; -1.2086786E-01;7771;  2.7513277E-02;  0.0000000E+00;  3.9069550E-03;  9.9900519E+02;  2.3912510E-01; -8.2417413E+02;3;  1.4442694E+00;  0.0000000E+00; -4.1673312E-01;0;  1.8210337E-02;  7.0998037E+03;  0.0000000E+00; -6.6508102E-01;  4.0000000E+04;  0.0000000E+00;  3.9402820E+04;  3.7620939E-02;  0.0000000E+00; -1.9410603E-02;  2.9638472E+03;
  9.8236775E-01;  9.9999998E-03; -1.1081294E-01;7772;  2.8030792E-02;  0.0000000E+00;  3.6933559E-03;  9.9897058E+02;  2.3941459E-01; -8.5286469E+02;3;  1.9606833E+00;  0.0000000E+00; -3.4545198E-01;0;  2.1204267E-02;  7.0812495E+03;  0.0000000E+00; -5.2561271E-01;  4.0000000E+04;  0.0000000E+00;  3.9402473E+04;  4.2727571E-02;  0.0000000E+00; -2.1523304E-02;  3.4887957E+03;
  1.0061117E+00;  9.9999998E-03; -1.4101911E-01;7830;  2.6670219E-02;  0.0000000E+00;  4.4356473E-03;  9.9904266E+02;  2.5382406E-01; -7.9311328E+02;3; -1.0467453E-01;  0.0000000E+00; -1.3211466E+00;0;  1.2476705E-03;  6.3155688E+03;  0.0000000E+00; -6.2047505E-01;  4.0000000E+04;  0.0000000E+00;  3.9354449E+04;  1.6228734E-02;  0.0000000E+00; -1.4981063E-02;  3.1329978E+03;
  1.0060922E+00;  9.9999998E-03; -1.5115541E-01;7829;  2.6089992E-02;  0.0000000E+00;  4.5877458E-03;  9.9921265E+02;  2.5375408E-01; -6.5232721E+02;3; -4.8995012E-01;  0.0000000E+00; -1.4187199E+00;0; -2.5862427E-03;  6.3212471E+03;  0.0000000E+00; -3.1966445E-01;  4.0000000E+04;  0.0000000E+00;  3.9352133E+04;  1.0259051E-02;  0.0000000E+00; -1.2845294E-02;  4.3486299E+03;
  1.0061942E+00;  9.9999998E-03; -1.3089204E-01;7831;  2.7285565E-02;  0.0000000E+00;  4.2576133E-03;  9.9890808E+02;  2.5391522E-01; -9.0461633E+02;3;  3.6844113E-01;  0.0000000E+00; -1.1996998E+00;0;  5.0839856E-03;  6.3083721E+03;  0.0000000E+00; -7.6176447E-01;  4.0000000E+04;  0.0000000E+00;  3.9356879E+04;  2.2315653E-02;  0.0000000E+00; -1.7231667E-02;  2.7023293E+03;
  1.0061316E+00;  9.9999998E-03; -1.6128065E-01;7828;  2.5542799E-02;  0.0000000E+00;  4.7154697E-03;  9.9938977E+02;  2.5370869E-01; -5.0556592E+02;3; -9.6233261E-01;  0.0000000E+00; -1.5252628E+00;0; -6.3527357E-03;  6.3250396E+03;  0.0000000E+00;  1.4797433E-01;  4.0000000E+04;  0.0000000E+00;  3.9350152E+04;  4.4766823E-03;  0.0000000E+00; -1.0829418E-02;  6.4054785E+03;
  1.0064828E+00;  9.9999998E-03; -1.2079395E-01;7832;  2.7932931E-02;  0.0000000E+00;  4.0558749E-03;  9.9882556E+02;  2.5412270E-01; -9.7300946E+02;3;  7.9299784E-01;  0.0000000E+00; -1.0822258E+00;0;  8.7996777E-03;  6.2953604E+03;  0.0000000E+00; -7.7727747E-01;  4.0000000E+04;  0.0000000E+00;  3.9357910E+04;  2.8392063E-02;  0.0000000E+00; -1.9592386E-02;  2.7352124E+03;
  1.0063258E+00;  9.9999998E-03; -1.7138352E-01;7827;  2.5024276E-02;  0.0000000E+00;  4.8154271E-03;  9.9954352E+02;  2.5375369E-01; -3.7816211E+02;3; -1.3583829E+00;  0.0000000E+00; -1.6109217E+00;0; -1.0043577E-02;  6.3233003E+03;  0.0000000E+00;  7.4536103E-01;  4.0000000E+04;  0.0000000E+00;  3.9349270E+04; -1.1094076E-03;  0.0000000E+00; -8.9341700E-03;  9.0634697E+03;
  1.0067743E+00;  9.9999998E-03; -1.8148191E-01;7826;  2.4573440E-02;  0.0000000E+00;  4.9124984E-03;  9.9965375E+02;  2.5396422E-01; -2.8685605E+02;3; -1.7439926E+00;  0.0000000E+00; -1.6845241E+00;0; -1.3671260E-02;  6.3123853E+03;  0.0000000E+00;  1.3869419E+00;  4.0000000E+04;  0.0000000E+00;  3.9348293E+04; -6.5283575E-03;  0.0000000E+00; -7.1429028E-03;  1.1821321E+04;
  1.0070748E+00;  9.9999998E-03; -1.1073748E-01;7833;  2.8631987E-02;  0.0000000E+00;  3.8331947E-03;  9.9878333E+02;  2.5452000E-01; -1.0079714E+03;3;  1.1825615E+00;  0.0000000E+00; -9.8801911E-01;0;  1.2285419E-02;  6.2736665E+03;  0.0000000E+00; -7.1465719E-01;  4.0000000E+04;  0.0000000E+00;  3.9357852E+04;  3.4344830E-02;  0.0000000E+00; -2.2059411E-02;  2.8676941E+03;
  1.0072877E+00;  9.9999998E-03; -1.9155946E-01;7825;  2.4215195E-02;  0.0000000E+00;  5.0213668E-03;  9.9968506E+02;  2.5421661E-01; -2.6093088E+02;3; -2.0778399E+00;  0.0000000E+00; -1.7336510E+00;0; -1.7152693E-02;  6.2982388E+03;  0.0000000E+00;  1.9681947E+00;  4.0000000E+04;  0.0000000E+00;  3.9348223E+04; -1.1681660E-02;  0.0000000E+00; -5.4710340E-03;  1.4070284E+04;
  1.0078855E+00;  9.9999998E-03; -2.0162956E-01;7824;  2.3918943E-02;  0.0000000E+00;  5.1155589E-03;  9.9962616E+02;  2.5452822E-01; -3.0971960E+02;3; -2.3723521E+00;  0.0000000E+00; -1.7884110E+00;0; -2.0496229E-02;  6.2801851E+03;  0.0000000E+00;  2.3833168E+00;  4.0000000E+04;  0.0000000E+00;  3.9349473E+04; -1.6567217E-02;  0.0000000E+00; -3.9290115E-03;  1.5239167E+04;
  1.0085763E+00;  9.9999998E-03; -2.1170059E-01;7823;  2.3677645E-02;  0.0000000E+00;  5.1815300E-03;  9.9949811E+02;  2.5490865E-01; -4.1579068E+02;3; -2.6817453E+00;  0.0000000E+00; -1.8281054E+00;0; -2.3705155E-02;  6.2580234E+03;  0.0000000E+00;  2.5456617E+00;  4.0000000E+04;  0.0000000E+00;  3.9352180E+04; -2.1176977E-02;  0.0000000E+00; -2.5281776E-03;  1.4948835E+04;
  1.0093204E+00;  9.9999998E-03; -2.2179872E-01;7822;  2.3482110E-02;  0.0000000E+00;  5.2146437E-03;  9.9926233E+02;  2.5534040E-01; -6.1114319E+02;3; -2.9995050E+00;  0.0000000E+00; -1.8885133E+00;0; -2.6766188E-02;  6.2329385E+03;  0.0000000E+00;  2.4003353E+00;  4.0000000E+04;  0.0000000E+00;  3.9353633E+04; -2.5486901E-02;  0.0000000E+00; -1.2792861E-03;  1.3083089E+04;
  1.0100955E+00;  9.9999998E-03; -2.3189563E-01;7821;  2.3343826E-02;  0.0000000E+00;  5.2498928E-03;  9.9891125E+02;  2.5582644E-01; -9.0199908E+02;3; -3.3035986E+00;  0.0000000E+00; -1.9471047E+00;0; -2.9759398E-02;  6.2053823E+03;  0.0000000E+00;  1.9281037E+00;  4.0000000E+04;  0.0000000E+00;  3.9352980E+04; -2.9474573E-02;  0.0000000E+00; -2.8482371E-04;  9.8476631E+03;
  1.0107363E+00;  9.9999998E-03; -2.4197190E-01;7820;  2.3272524E-02;  0.0000000E+00;  5.2222223E-03;  9.9850726E+02;  2.5624380E-01; -1.2367057E+03;3; -3.5917995E+00;  0.0000000E+00; -2.0037510E+00;0; -3.2506347E-02;  6.1813252E+03;  0.0000000E+00;  1.1382490E+00;  4.0000000E+04;  0.0000000E+00;  3.9356160E+04; -3.3065431E-02;  0.0000000E+00;  5.5908383E-04;  6.0817378E+03;
  1.0112267E+00;  9.9999998E-03; -2.5204509E-01;7819;  2.3270035E-02;  0.0000000E+00;  5.0861575E-03;  9.9804602E+02;  2.5657123E-01; -1.6188182E+03;3; -3.8659048E+00;  0.0000000E+00; -2.0655584E+00;0; -3.4545731E-02;  6.1618809E+03;  0.0000000E+00;  8.4092095E-02;  4.0000000E+04;  0.0000000E+00;  3.9361039E+04; -3.6275398E-02;  0.0000000E+00;  1.7296673E-03;  3.6202493E+03;
  1.0117586E+00;  9.9999998E-03; -2.6211864E-01;7818;  2.3306800E-02;  0.0000000E+00;  4.8420224E-03;  9.9758459E+02;  2.5692320E-01; -2.0011284E+03;3; -4.1403060E+00;  0.0000000E+00; -2.1198983E+00;0; -3.5239533E-02;  6.1416191E+03;  0.0000000E+00; -1.0444163E+00;  4.0000000E+04;  0.0000000E+00;  3.9365180E+04; -3.9204858E-02;  0.0000000E+00;  3.9653257E-03;  3.8027292E+03;
  1.0341905E+00;  9.9999998E-03; -1.1079335E-01;7894;  2.9971801E-02;  0.0000000E+00;  4.4104755E-03;  9.9873682E+02;  2.7175477E-01; -1.0465382E+03;3; -1.0329893E+00;  0.0000000E+00; -1.9761820E+00;0;  6.1068740E-03;  5.5129077E+03;  0.0000000E+00; -6.1926889E-01;  4.0000000E+04;  0.0000000E+00;  3.9310270E+04;  2.8147629E-02;  0.0000000E+00; -2.2040755E-02;  2.5294485E+03;
  1.0336933E+00;  9.9999998E-03; -1.6127361E-01;7889;  2.5425112E-02;  0.0000000E+00;  5.0212317E-03;  9.9936493E+02;  2.7116022E-01; -5.2615790E+02;3; -1.6653198E+00;  0.0000000E+00; -2.4286416E+00;0; -1.3177455E-02;  5.5473525E+03;  0.0000000E+00; -5.7318473E-01;  4.0000000E+04;  0.0000000E+00;  3.9300848E+04; -4.3157171E-03;  0.0000000E+00; -8.8617383E-03;  4.7863203E+03;
  1.0339167E+00;  9.9999998E-03; -1.5118900E-01;7890;  2.6206275E-02;  0.0000000E+00;  4.9489997E-03;  9.9917682E+02;  2.7141127E-01; -6.8200537E+02;3; -1.4446850E+00;  0.0000000E+00; -2.3727183E+00;0; -9.2290249E-03;  5.5361030E+03;  0.0000000E+00; -6.7231268E-01;  4.0000000E+04;  0.0000000E+00;  3.9302473E+04;  1.9447585E-03;  0.0000000E+00; -1.1173783E-02;  4.0153721E+03;
  1.0336268E+00;  9.9999998E-03; -1.7137888E-01;7888;  2.4727974E-02;  0.0000000E+00;  5.0769416E-03;  9.9954388E+02;  2.7100098E-01; -3.7786581E+02;3; -1.8406703E+00;  0.0000000E+00; -2.4436214E+00;0; -1.7065791E-02;  5.5538813E+03;  0.0000000E+00; -4.2228287E-01;  4.0000000E+04;  0.0000000E+00;  3.9299918E+04; -1.0387771E-02;  0.0000000E+00; -6.6780206E-03;  5.6464766E+03;
  1.0342772E+00;  9.9999998E-03; -1.4110881E-01;7891;  2.7040189E-02;  0.0000000E+00;  4.8464243E-03;  9.9900500E+02;  2.7174011E-01; -8.2432227E+02;3; -1.3351843E+00;  0.0000000E+00; -2.3458259E+00;0; -5.2825203E-03;  5.5211519E+03;  0.0000000E+00; -7.1403575E-01;  4.0000000E+04;  0.0000000E+00;  3.9304355E+04;  8.3456105E-03;  0.0000000E+00; -1.3628131E-02;  3.4298328E+03;
  1.0345018E+00;  9.9999998E-03; -1.2090641E-01;7893;  2.8949883E-02;  0.0000000E+00;  4.5873229E-03;  9.9879108E+02;  2.7196631E-01; -1.0015518E+03;3; -1.3684725E+00;  0.0000000E+00; -2.1659806E+00;0;  2.4643485E-03;  5.5070288E+03;  0.0000000E+00; -6.7060781E-01;  4.0000000E+04;  0.0000000E+00;  3.9308598E+04;  2.1527415E-02;  0.0000000E+00; -1.9063067E-02;  2.7536365E+03;
  1.0335717E+00;  9.9999998E-03; -1.8149403E-01;7887;  2.4142120E-02;  0.0000000E+00;  5.1438245E-03;  9.9967590E+02;  2.7083954E-01; -2.6848621E+02;3; -2.1237648E+00;  0.0000000E+00; -2.4768360E+00;0; -2.0793254E-02;  5.5592778E+03;  0.0000000E+00; -2.3269573E-01;  4.0000000E+04;  0.0000000E+00;  3.9300531E+04; -1.6172033E-02;  0.0000000E+00; -4.6212203E-03;  6.4624097E+03;
  1.0335181E+00;  9.9999998E-03; -1.9161998E-01;7886;  2.3678094E-02;  0.0000000E+00;  5.2291295E-03;  9.9971545E+02;  2.7068356E-01; -2.3574640E+02;3; -2.3870335E+00;  0.0000000E+00; -2.4991181E+00;0; -2.4318358E-02;  5.5634102E+03;  0.0000000E+00; -2.8977277E-02;  4.0000000E+04;  0.0000000E+00;  3.9302441E+04; -2.1625828E-02;  0.0000000E+00; -2.6925306E-03;  7.0854688E+03;
  1.0345306E+00;  9.9999998E-03; -1.3101360E-01;7892;  2.7958900E-02;  0.0000000E+00;  4.7262381E-03;  9.9887750E+02;  2.7196309E-01; -9.2994885E+02;3; -1.3368837E+00;  0.0000000E+00; -2.2894518E+00;0; -1.3632374E-03;  5.5097671E+03;  0.0000000E+00; -7.0729321E-01;  4.0000000E+04;  0.0000000E+00;  3.9306688E+04;  1.4889530E-02;  0.0000000E+00; -1.6252767E-02;  3.0297927E+03;
  1.0336757E+00;  9.9999998E-03; -2.0174459E-01;7885;  2.3263957E-02;  0.0000000E+00;  5.2849916E-03;  9.9965302E+02;  2.7069023E-01; -2.8744864E+02;3; -2.6828375E+00;  0.0000000E+00; -2.5435812E+00;0; -2.7677981E-02;  5.5602300E+03;  0.0000000E+00;  1.3546650E-01;  4.0000000E+04;  0.0000000E+00;  3.9304234E+04; -2.6786856E-02;  0.0000000E+00; -8.9112460E-04;  7.3033398E+03;
  1.0339800E+00;  9.9999998E-03; -2.1184666E-01;7884;  2.2914525E-02;  0.0000000E+00;  5.3139147E-03;  9.9948822E+02;  2.7081475E-01; -4.2398798E+02;3; -2.9759851E+00;  0.0000000E+00; -2.5906861E+00;0; -3.0851768E-02;  5.5514912E+03;  0.0000000E+00;  2.2718979E-01;  4.0000000E+04;  0.0000000E+00;  3.9306871E+04; -3.1615544E-02;  0.0000000E+00;  7.6377555E-04;  7.0446147E+03;
  1.0345182E+00;  9.9999998E-03; -2.2194973E-01;7883;  2.2608571E-02;  0.0000000E+00;  5.2957502E-03;  9.9923199E+02;  2.7112269E-01; -6.3627820E+02;3; -3.2542958E+00;  0.0000000E+00; -2.6446557E+00;0; -3.3855271E-02;  5.5347368E+03;  0.0000000E+00;  2.0231737E-01;  4.0000000E+04;  0.0000000E+00;  3.9309387E+04; -3.6156718E-02;  0.0000000E+00;  2.3014457E-03;  6.2623350E+03;
  1.0352062E+00;  9.9999998E-03; -2.3205937E-01;7882;  2.2357916E-02;  0.0000000E+00;  5.2958932E-03;  9.9883337E+02;  2.7156866E-01; -9.6654041E+02;3; -3.5220106E+00;  0.0000000E+00; -2.6997056E+00;0; -3.6799122E-02;  5.5122954E+03;  0.0000000E+00;  3.7701827E-02;  4.0000000E+04;  0.0000000E+00;  3.9307379E+04; -4.0387087E-02;  0.0000000E+00;  3.5879633E-03;  4.9040371E+03;
  1.0358887E+00;  9.9999998E-03; -2.4213734E-01;7881;  2.2173801E-02;  0.0000000E+00;  5.2572135E-03;  9.9841547E+02;  2.7204636E-01; -1.3127528E+03;3; -3.7826293E+00;  0.0000000E+00; -2.7672098E+00;0; -3.9626986E-02;  5.4893047E+03;  0.0000000E+00; -2.8146237E-01;  4.0000000E+04;  0.0000000E+00;  3.9309383E+04; -4.4236675E-02;  0.0000000E+00;  4.6096877E-03;  3.5307307E+03;
  1.0365330E+00;  9.9999998E-03; -2.5221142E-01;7880;  2.2056282E-02;  0.0000000E+00;  5.0878758E-03;  9.9800952E+02;  2.7251616E-01; -1.6490889E+03;3; -4.0304699E+00;  0.0000000E+00; -2.8322330E+00;0; -4.1765898E-02;  5.4676914E+03;  0.0000000E+00; -7.6986086E-01;  4.0000000E+04;  0.0000000E+00;  3.9313727E+04; -4.7710743E-02;  0.0000000E+00;  5.9448434E-03;  2.9841995E+03;
  1.0369732E+00;  9.9999998E-03; -2.6228359E-01;7879;  2.2010248E-02;  0.0000000E+00;  4.7027725E-03;  9.9760034E+02;  2.7284783E-01; -1.9880917E+03;3; -4.2716913E+00;  0.0000000E+00; -2.8480690E+00;0; -4.1633647E-02;  5.4519805E+03;  0.0000000E+00; -1.3872832E+00;  4.0000000E+04;  0.0000000E+00;  3.9318828E+04; -5.0746687E-02;  0.0000000E+00;  9.1130408E-03;  3.6645725E+03;
  1.0623281E+00;  9.9999998E-03; -2.5239354E-01;7941;  2.0571411E-02;  0.0000000E+00;  5.1321192E-03;  9.9790479E+02;  2.8922209E-01; -1.7358519E+03;3; -4.1434617E+00;  0.0000000E+00; -3.5117998E+00;0; -5.0616350E-02;  4.8600371E+03;  0.0000000E+00; -1.9871747E+00;  4.0000000E+04;  0.0000000E+00;  3.9262785E+04; -6.0098376E-02;  0.0000000E+00;  9.4820252E-03;  2.2512991E+03;
  1.0617661E+00;  9.9999998E-03; -2.4232852E-01;7942;  2.0832915E-02;  0.0000000E+00;  5.2599427E-03;  9.9842200E+02;  2.8875276E-01; -1.3073208E+03;3; -3.9549625E+00;  0.0000000E+00; -3.4592798E+00;0; -4.7566794E-02;  4.8792036E+03;  0.0000000E+00; -2.0674982E+00;  4.0000000E+04;  0.0000000E+00;  3.9257652E+04; -5.6179769E-02;  0.0000000E+00;  8.6129764E-03;  1.6582555E+03;
  1.0612866E+00;  9.9999998E-03; -2.3226595E-01;7943;  2.1142699E-02;  0.0000000E+00;  5.3004348E-03;  9.9889722E+02;  2.8837797E-01; -9.1365302E+02;3; -3.7458403E+00;  0.0000000E+00; -3.4131272E+00;0; -4.4330474E-02;  4.8957261E+03;  0.0000000E+00; -2.1691225E+00;  4.0000000E+04;  0.0000000E+00;  3.9255066E+04; -5.1917296E-02;  0.0000000E+00;  7.5868228E-03;  1.4325013E+03;
  1.0629832E+00;  9.9999998E-03; -2.6246229E-01;7940;  2.0373644E-02;  0.0000000E+00;  4.8474539E-03;  9.9739209E+02;  2.8976682E-01; -2.1605806E+03;3; -4.3049750E+00;  0.0000000E+00; -3.4629657E+00;0; -5.2475180E-02;  4.8385879E+03;  0.0000000E+00; -1.9375440E+00;  4.0000000E+04;  0.0000000E+00;  3.9268641E+04; -6.3676089E-02;  0.0000000E+00;  1.1200910E-02;  3.9034468E+03;
  1.0608919E+00;  9.9999998E-03; -2.2217126E-01;7944;  2.1497687E-02;  0.0000000E+00;  5.2915481E-03;  9.9934900E+02;  2.8811157E-01; -5.3934271E+02;3; -3.5413942E+00;  0.0000000E+00; -3.3943870E+00;0; -4.1119337E-02;  4.9090210E+03;  0.0000000E+00; -2.2346480E+00;  4.0000000E+04;  0.0000000E+00;  3.9257953E+04; -4.7295980E-02;  0.0000000E+00;  6.1766445E-03;  1.6417833E+03;
  1.0606660E+00;  9.9999998E-03; -2.1209645E-01;7945;  2.1915428E-02;  0.0000000E+00;  5.3518037E-03;  9.9962207E+02;  2.8800994E-01; -3.1312689E+02;3; -3.3079348E+00;  0.0000000E+00; -3.2891614E+00;0; -3.7994511E-02;  4.9164243E+03;  0.0000000E+00; -2.2340238E+00;  4.0000000E+04;  0.0000000E+00;  3.9256070E+04; -4.2371392E-02;  0.0000000E+00;  4.3768813E-03;  1.6637313E+03;
  1.0605865E+00;  9.9999998E-03; -2.0202549E-01;7946;  2.2386674E-02;  0.0000000E+00;  5.3654537E-03;  9.9977289E+02;  2.8803805E-01; -1.8814279E+02;3; -3.0825830E+00;  0.0000000E+00; -3.2267575E+00;0; -3.4705557E-02;  4.9185249E+03;  0.0000000E+00; -2.1550798E+00;  4.0000000E+04;  0.0000000E+00;  3.9254484E+04; -3.7142958E-02;  0.0000000E+00;  2.4374009E-03;  2.0912979E+03;
  1.0606251E+00;  9.9999998E-03; -1.9192740E-01;7947;  2.2926006E-02;  0.0000000E+00;  5.3526247E-03;  9.9979852E+02;  2.8817761E-01; -1.6690883E+02;3; -2.8855476E+00;  0.0000000E+00; -3.1937466E+00;0; -3.1260673E-02;  4.9161470E+03;  0.0000000E+00; -2.0048640E+00;  4.0000000E+04;  0.0000000E+00;  3.9253918E+04; -3.1604972E-02;  0.0000000E+00;  3.4429884E-04;  2.8059919E+03;
  1.0607944E+00;  9.9999998E-03; -1.8181154E-01;7948;  2.3549605E-02;  0.0000000E+00;  5.3190365E-03;  9.9971393E+02;  2.8843358E-01; -2.3698091E+02;3; -2.6462221E+00;  0.0000000E+00; -3.1226535E+00;0; -2.7686672E-02;  4.9092627E+03;  0.0000000E+00; -1.8082441E+00;  4.0000000E+04;  0.0000000E+00;  3.9253254E+04; -2.5804343E-02;  0.0000000E+00; -1.8823294E-03;  3.5210454E+03;
  1.0612525E+00;  9.9999998E-03; -1.7169636E-01;7949;  2.4278667E-02;  0.0000000E+00;  5.2891462E-03;  9.9955084E+02;  2.8890446E-01; -3.7213757E+02;3; -2.6116872E+00;  0.0000000E+00; -3.1682930E+00;0; -2.4073567E-02;  4.8943032E+03;  0.0000000E+00; -1.5953680E+00;  4.0000000E+04;  0.0000000E+00;  3.9252566E+04; -1.9862510E-02;  0.0000000E+00; -4.2110574E-03;  4.0160510E+03;
  1.0620103E+00;  9.9999998E-03; -1.6158681E-01;7950;  2.5179740E-02;  0.0000000E+00;  5.3144009E-03;  9.9936682E+02;  2.8958610E-01; -5.2457770E+02;3; -2.6627402E+00;  0.0000000E+00; -3.1600142E+00;0; -2.0481061E-02;  4.8716064E+03;  0.0000000E+00; -1.3815713E+00;  4.0000000E+04;  0.0000000E+00;  3.9252809E+04; -1.3841099E-02;  0.0000000E+00; -6.6399621E-03;  4.1600728E+03;
  1.0638531E+00;  9.9999998E-03; -1.1095715E-01;7955;  3.1124573E-02;  0.0000000E+00;  4.9699391E-03;  9.9897156E+02;  2.9127285E-01; -8.5202515E+02;3; -3.1280673E+00;  0.0000000E+00; -2.7482967E+00;0; -3.8885120E-03;  4.8095400E+03;  0.0000000E+00; -3.5232335E-01;  4.0000000E+04;  0.0000000E+00;  3.9260762E+04;  1.7665757E-02;  0.0000000E+00; -2.1554269E-02;  2.9650171E+03;
  1.0627352E+00;  9.9999998E-03; -1.5146074E-01;7951;  2.6210103E-02;  0.0000000E+00;  5.3193416E-03;  9.9919128E+02;  2.9023317E-01; -6.7000562E+02;3; -2.7743940E+00;  0.0000000E+00; -3.1212280E+00;0; -1.6909771E-02;  4.8496816E+03;  0.0000000E+00; -1.1670820E+00;  4.0000000E+04;  0.0000000E+00;  3.9253945E+04; -7.6783164E-03;  0.0000000E+00; -9.2314538E-03;  3.9640464E+03;
  1.0633354E+00;  9.9999998E-03; -1.4132975E-01;7952;  2.7340025E-02;  0.0000000E+00;  5.2759210E-03;  9.9905872E+02;  2.9076111E-01; -7.7982965E+02;3; -2.9077635E+00;  0.0000000E+00; -3.0609205E+00;0; -1.3412070E-02;  4.8310347E+03;  0.0000000E+00; -9.5607787E-01;  4.0000000E+04;  0.0000000E+00;  3.9255691E+04; -1.4128531E-03;  0.0000000E+00; -1.1999216E-02;  3.5931160E+03;
  1.0639321E+00;  9.9999998E-03; -1.2107685E-01;7954;  2.9818306E-02;  0.0000000E+00;  5.0929217E-03;  9.9895367E+02;  2.9130855E-01; -8.6683954E+02;3; -3.1274669E+00;  0.0000000E+00; -2.8593044E+00;0; -6.8479180E-03;  4.8100381E+03;  0.0000000E+00; -5.4423231E-01;  4.0000000E+04;  0.0000000E+00;  3.9259672E+04;  1.1292884E-02;  0.0000000E+00; -1.8140802E-02;  3.0684243E+03;
  1.0637400E+00;  9.9999998E-03; -1.3120201E-01;7953;  2.8550295E-02;  0.0000000E+00;  5.1957364E-03;  9.9897833E+02;  2.9112703E-01; -8.4644507E+02;3; -2.9787743E+00;  0.0000000E+00; -2.9708803E+00;0; -1.0034773E-02;  4.8176519E+03;  0.0000000E+00; -7.4818861E-01;  4.0000000E+04;  0.0000000E+00;  3.9257738E+04;  4.9249427E-03;  0.0000000E+00; -1.4959716E-02;  3.2599214E+03;
  1.0915452E+00;  9.9999998E-03; -2.5259036E-01;8002;  1.8601371E-02;  0.0000000E+00;  4.8101791E-03;  9.9798639E+02;  3.0885571E-01; -1.6682488E+03;3; -4.2094622E+00;  0.0000000E+00; -3.9601901E+00;0; -6.2365536E-02;  4.2676016E+03;  0.0000000E+00; -3.3467481E+00;  4.0000000E+04;  0.0000000E+00;  3.9208340E+04; -7.7589221E-02;  0.0000000E+00;  1.5223686E-02;  3.6114788E+03;
  1.0921694E+00;  9.9999998E-03; -2.6265943E-01;8001;  1.8244196E-02;  0.0000000E+00;  4.8272461E-03;  9.9718927E+02;  3.0948088E-01; -2.3286250E+03;3; -4.3018041E+00;  0.0000000E+00; -3.8995528E+00;0; -6.7659013E-02;  4.2458477E+03;  0.0000000E+00; -2.9768353E+00;  4.0000000E+04;  0.0000000E+00;  3.9213840E+04; -8.1907183E-02;  0.0000000E+00;  1.4248168E-02;  6.3404771E+03;
  1.0909697E+00;  9.9999998E-03; -2.4252686E-01;8003;  1.9039590E-02;  0.0000000E+00;  4.9619577E-03;  9.9870941E+02;  3.0827972E-01; -1.0692041E+03;3; -4.1038337E+00;  0.0000000E+00; -4.0364218E+00;0; -5.8945745E-02;  4.2877090E+03;  0.0000000E+00; -3.5332355E+00;  4.0000000E+04;  0.0000000E+00;  3.9203027E+04; -7.2895996E-02;  0.0000000E+00;  1.3950251E-02;  1.7036732E+03;
  1.0904953E+00;  9.9999998E-03; -2.3247075E-01;8004;  1.9503519E-02;  0.0000000E+00;  5.1075560E-03;  9.9927942E+02;  3.0783543E-01; -5.9697064E+02;3; -3.9903767E+00;  0.0000000E+00; -4.0097899E+00;0; -5.5700809E-02;  4.3038955E+03;  0.0000000E+00; -3.6182261E+00;  4.0000000E+04;  0.0000000E+00;  3.9199312E+04; -6.7915641E-02;  0.0000000E+00;  1.2214830E-02;  6.0181885E+02;
  1.0902028E+00;  9.9999998E-03; -2.2237518E-01;8005;  1.9974131E-02;  0.0000000E+00;  5.1206076E-03;  9.9974359E+02;  3.0760959E-01; -2.1243839E+02;3; -3.8603356E+00;  0.0000000E+00; -3.9572601E+00;0; -5.2322768E-02;  4.3138984E+03;  0.0000000E+00; -3.5705507E+00;  4.0000000E+04;  0.0000000E+00;  3.9203848E+04; -6.2695928E-02;  0.0000000E+00;  1.0373158E-02;  9.3851691E+02;
  1.0900567E+00;  9.9999998E-03; -2.1229257E-01;8006;  2.0528536E-02;  0.0000000E+00;  5.3043198E-03;  9.9996027E+02;  3.0754671E-01; -3.2937332E+01;3; -3.7394969E+00;  0.0000000E+00; -3.8935478E+00;0; -4.9246691E-02;  4.3186533E+03;  0.0000000E+00; -3.3746510E+00;  4.0000000E+04;  0.0000000E+00;  3.9204324E+04; -5.7211492E-02;  0.0000000E+00;  7.9648001E-03;  1.5044755E+03;
  1.0900315E+00;  9.9999998E-03; -2.0223412E-01;8007;  2.1150913E-02;  0.0000000E+00;  5.4448997E-03;  1.0000037E+03;  3.0761340E-01;  3.0616412E+00;3; -3.5905013E+00;  0.0000000E+00; -3.7283218E+00;0; -4.6016201E-02;  4.3189644E+03;  0.0000000E+00; -3.0728247E+00;  4.0000000E+04;  0.0000000E+00;  3.9202949E+04; -5.1523268E-02;  0.0000000E+00;  5.5070650E-03;  2.5955779E+03;
  1.0903180E+00;  9.9999998E-03; -1.9215868E-01;8008;  2.1829730E-02;  0.0000000E+00;  5.5091274E-03;  9.9990021E+02;  3.0795157E-01; -8.2664307E+01;3; -3.4889550E+00;  0.0000000E+00; -3.5832946E+00;0; -4.2807776E-02;  4.3108975E+03;  0.0000000E+00; -2.7069232E+00;  4.0000000E+04;  0.0000000E+00;  3.9202836E+04; -4.5778900E-02;  0.0000000E+00;  2.9711232E-03;  3.9054119E+03;
  1.0908033E+00;  9.9999998E-03; -1.8206714E-01;8009;  2.2608325E-02;  0.0000000E+00;  5.5306675E-03;  9.9969305E+02;  3.0846280E-01; -2.5431374E+02;3; -3.4048109E+00;  0.0000000E+00; -3.4024308E+00;0; -3.9643109E-02;  4.2972432E+03;  0.0000000E+00; -2.3196592E+00;  4.0000000E+04;  0.0000000E+00;  3.9202469E+04; -3.9968740E-02;  0.0000000E+00;  3.2563208E-04;  4.9566611E+03;
  1.0914888E+00;  9.9999998E-03; -1.7195825E-01;8010;  2.3521533E-02;  0.0000000E+00;  5.5602156E-03;  9.9941534E+02;  3.0914071E-01; -4.8438126E+02;3; -3.5123143E+00;  0.0000000E+00; -3.4114416E+00;0; -3.6565512E-02;  4.2785947E+03;  0.0000000E+00; -1.9525440E+00;  4.0000000E+04;  0.0000000E+00;  3.9202535E+04; -3.4157451E-02;  0.0000000E+00; -2.4080593E-03;  5.4227109E+03;
  1.0923197E+00;  9.9999998E-03; -1.6182685E-01;8011;  2.4618452E-02;  0.0000000E+00;  5.6179948E-03;  9.9914270E+02;  3.0992323E-01; -7.1025134E+02;3; -3.6638682E+00;  0.0000000E+00; -3.3622913E+00;0; -3.3598009E-02;  4.2567861E+03;  0.0000000E+00; -1.6284753E+00;  4.0000000E+04;  0.0000000E+00;  3.9203008E+04; -2.8382324E-02;  0.0000000E+00; -5.2156844E-03;  5.2031675E+03;
  1.0931087E+00;  9.9999998E-03; -1.5167703E-01;8012;  2.5840271E-02;  0.0000000E+00;  5.6195832E-03;  9.9891125E+02;  3.1065720E-01; -9.0199896E+02;3; -3.8335953E+00;  0.0000000E+00; -3.2677929E+00;0; -3.0728880E-02;  4.2359873E+03;  0.0000000E+00; -1.3449122E+00;  4.0000000E+04;  0.0000000E+00;  3.9204418E+04; -2.2627108E-02;  0.0000000E+00; -8.1017716E-03;  4.5174756E+03;
  1.0941305E+00;  9.9999998E-03; -1.1116877E-01;8016;  3.1588860E-02;  0.0000000E+00;  5.3061214E-03;  9.9887286E+02;  3.1176689E-01; -9.3380054E+02;3; -4.6445618E+00;  0.0000000E+00; -2.8333936E+00;0; -2.0321285E-02;  4.2028984E+03;  0.0000000E+00; -2.5059101E-01;  4.0000000E+04;  0.0000000E+00;  3.9212105E+04;  6.3045404E-04;  0.0000000E+00; -2.0951739E-02;  3.6410947E+03;
  1.0937128E+00;  9.9999998E-03; -1.4152513E-01;8013;  2.7165521E-02;  0.0000000E+00;  5.5706627E-03;  9.9877960E+02;  3.1123698E-01; -1.0110823E+03;3; -4.0975146E+00;  0.0000000E+00; -3.1995566E+00;0; -2.7924094E-02;  4.2194429E+03;  0.0000000E+00; -1.0803275E+00;  4.0000000E+04;  0.0000000E+00;  3.9206895E+04; -1.6853509E-02;  0.0000000E+00; -1.1070585E-02;  3.8379412E+03;
  1.0942420E+00;  9.9999998E-03; -1.2126768E-01;8015;  3.0073753E-02;  0.0000000E+00;  5.4112026E-03;  9.9877930E+02;  3.1180906E-01; -1.0113292E+03;3; -4.5873737E+00;  0.0000000E+00; -3.0007041E+00;0; -2.2669166E-02;  4.2024043E+03;  0.0000000E+00; -5.3053743E-01;  4.0000000E+04;  0.0000000E+00;  3.9211391E+04; -5.2326433E-03;  0.0000000E+00; -1.7436523E-02;  3.5456885E+03;
  1.0940841E+00;  9.9999998E-03; -1.3138425E-01;8014;  2.8586812E-02;  0.0000000E+00;  5.4979366E-03;  9.9873676E+02;  3.1161663E-01; -1.0465874E+03;3; -4.3608146E+00;  0.0000000E+00; -3.1199114E+00;0; -2.5209505E-02;  4.2083301E+03;  0.0000000E+00; -8.1153560E-01;  4.0000000E+04;  0.0000000E+00;  3.9209465E+04; -1.1048504E-02;  0.0000000E+00; -1.4161000E-02;  3.5336069E+03;
  1.1238618E+00;  9.9999998E-03; -2.4270715E-01;8064;  1.6247712E-02;  0.0000000E+00;  4.6655554E-03;  9.9912756E+02;  3.3099705E-01; -7.2279413E+02;3; -4.2471223E+00;  0.0000000E+00; -4.2053652E+00;0; -7.6887786E-02;  3.7244700E+03;  0.0000000E+00; -3.8612411E+00;  4.0000000E+04;  0.0000000E+00;  3.9149910E+04; -9.5761605E-02;  0.0000000E+00;  1.8873820E-02;  5.4956177E+03;
  1.1247127E+00;  9.9999998E-03; -2.5278157E-01;8063;  1.5580767E-02;  0.0000000E+00;  4.2117559E-03;  9.9817096E+02;  3.3187920E-01; -1.5153146E+03;3; -4.2388229E+00;  0.0000000E+00; -4.1938148E+00;0; -7.9464443E-02;  3.6996006E+03;  0.0000000E+00; -4.1177483E+00;  4.0000000E+04;  0.0000000E+00;  3.9156711E+04; -1.0164181E-01;  0.0000000E+00;  2.2177367E-02;  8.7661230E+03;
  1.1232650E+00;  9.9999998E-03; -2.3263296E-01;8065;  1.6925368E-02;  0.0000000E+00;  5.0769080E-03;  9.9975916E+02;  3.3037955E-01; -1.9954984E+02;3; -4.2630787E+00;  0.0000000E+00; -4.2217555E+00;0; -7.3876098E-02;  3.7419614E+03;  0.0000000E+00; -3.5803132E+00;  4.0000000E+04;  0.0000000E+00;  3.9145363E+04; -8.9756019E-02;  0.0000000E+00;  1.5879920E-02;  3.1075132E+03;
  1.1229035E+00;  9.9999998E-03; -2.2251526E-01;8066;  1.7600900E-02;  0.0000000E+00;  5.2570459E-03;  1.0001602E+03;  3.3004874E-01;  1.3273694E+02;3; -4.2612600E+00;  0.0000000E+00; -4.1439972E+00;0; -7.0252955E-02;  3.7521265E+03;  0.0000000E+00; -3.2683518E+00;  4.0000000E+04;  0.0000000E+00;  3.9150410E+04; -8.3626181E-02;  0.0000000E+00;  1.3373222E-02;  1.7528529E+03;
  1.1256567E+00;  9.9999998E-03; -2.6285997E-01;8062;  1.4940940E-02;  0.0000000E+00;  3.9377930E-03;  9.9693646E+02;  3.3286148E-01; -2.5381001E+03;3; -4.2218990E+00;  0.0000000E+00; -4.1473174E+00;0; -8.3262168E-02;  3.6714800E+03;  0.0000000E+00; -4.1759100E+00;  4.0000000E+04;  0.0000000E+00;  3.9163801E+04; -1.0726611E-01;  0.0000000E+00;  2.4003936E-02;  1.1987055E+04;
  1.1226944E+00;  9.9999998E-03; -2.1240422E-01;8067;  1.8362388E-02;  0.0000000E+00;  5.5689425E-03;  1.0002300E+03;  3.2992473E-01;  1.9061182E+02;3; -4.2625322E+00;  0.0000000E+00; -3.9986720E+00;0; -6.6998169E-02;  3.7567651E+03;  0.0000000E+00; -2.9090705E+00;  4.0000000E+04;  0.0000000E+00;  3.9150840E+04; -7.7340938E-02;  0.0000000E+00;  1.0342770E-02;  1.5250527E+03;
  1.1226400E+00;  9.9999998E-03; -2.0233360E-01;8068;  1.9201754E-02;  0.0000000E+00;  5.7910546E-03;  1.0000441E+03;  3.2997870E-01;  3.6542164E+01;3; -4.2458086E+00;  0.0000000E+00; -3.7386420E+00;0; -6.3698217E-02;  3.7563364E+03;  0.0000000E+00; -2.5337124E+00;  4.0000000E+04;  0.0000000E+00;  3.9148461E+04; -7.1011573E-02;  0.0000000E+00;  7.3133595E-03;  2.7290520E+03;
  1.1265872E+00;  9.9999998E-03; -1.1127631E-01;8077;  3.1084595E-02;  0.0000000E+00;  5.0716419E-03;  9.9835034E+02;  3.3428270E-01; -1.3667263E+03;3; -6.0084000E+00;  0.0000000E+00; -2.7735686E+00;0; -4.0303282E-02;  3.6551750E+03;  0.0000000E+00; -2.5300574E-01;  4.0000000E+04;  0.0000000E+00;  3.9159828E+04; -2.0305168E-02;  0.0000000E+00; -1.9998115E-02;  4.2052358E+03;
  1.1229210E+00;  9.9999998E-03; -1.9225223E-01;8069;  2.0089291E-02;  0.0000000E+00;  5.8440752E-03;  9.9971869E+02;  3.3032998E-01; -2.3307974E+02;3; -4.2601261E+00;  0.0000000E+00; -3.5287819E+00;0; -6.0565099E-02;  3.7482676E+03;  0.0000000E+00; -2.1591158E+00;  4.0000000E+04;  0.0000000E+00;  3.9146980E+04; -6.4812921E-02;  0.0000000E+00;  4.2478219E-03;  4.1943369E+03;
  1.1233952E+00;  9.9999998E-03; -1.8213555E-01;8070;  2.1066580E-02;  0.0000000E+00;  5.8089159E-03;  9.9930511E+02;  3.3086202E-01; -5.7568719E+02;3; -4.3342900E+00;  0.0000000E+00; -3.4155040E+00;0; -5.7619527E-02;  3.7357227E+03;  0.0000000E+00; -1.8112649E+00;  4.0000000E+04;  0.0000000E+00;  3.9147293E+04; -5.8716252E-02;  0.0000000E+00;  1.0967258E-03;  5.1845747E+03;
  1.1271073E+00;  9.9999998E-03; -1.2135851E-01;8076;  2.9378962E-02;  0.0000000E+00;  5.1445807E-03;  9.9821533E+02;  3.3463681E-01; -1.4785750E+03;3; -5.7961407E+00;  0.0000000E+00; -2.9246755E+00;0; -4.2682666E-02;  3.6475215E+03;  0.0000000E+00; -4.6993110E-01;  4.0000000E+04;  0.0000000E+00;  3.9158578E+04; -2.5875470E-02;  0.0000000E+00; -1.6807197E-02;  4.1063838E+03;
  1.1240609E+00;  9.9999998E-03; -1.7198800E-01;8071;  2.2152161E-02;  0.0000000E+00;  5.7234303E-03;  9.9887891E+02;  3.3155906E-01; -9.2881287E+02;3; -4.4143991E+00;  0.0000000E+00; -3.2984812E+00;0; -5.4867517E-02;  3.7192092E+03;  0.0000000E+00; -1.5155629E+00;  4.0000000E+04;  0.0000000E+00;  3.9147488E+04; -5.2805714E-02;  0.0000000E+00; -2.0618020E-03;  5.4373057E+03;
  1.1248840E+00;  9.9999998E-03; -1.6182710E-01;8072;  2.3359930E-02;  0.0000000E+00;  5.6112413E-03;  9.9851581E+02;  3.3237830E-01; -1.2296438E+03;3; -4.7247157E+00;  0.0000000E+00; -3.2919796E+00;0; -5.2287150E-02;  3.6998967E+03;  0.0000000E+00; -1.2762747E+00;  4.0000000E+04;  0.0000000E+00;  3.9148777E+04; -4.7138106E-02;  0.0000000E+00; -5.1490450E-03;  5.0285254E+03;
  1.1270796E+00;  9.9999998E-03; -1.3144676E-01;8075;  2.7726559E-02;  0.0000000E+00;  5.2404301E-03;  9.9813275E+02;  3.3452651E-01; -1.5469680E+03;3; -5.6672535E+00;  0.0000000E+00; -3.0876827E+00;0; -4.5074716E-02;  3.6502034E+03;  0.0000000E+00; -6.8660104E-01;  4.0000000E+04;  0.0000000E+00;  3.9156516E+04; -3.1228002E-02;  0.0000000E+00; -1.3846712E-02;  3.9435276E+03;
  1.1257817E+00;  9.9999998E-03; -1.5167603E-01;8073;  2.4706401E-02;  0.0000000E+00;  5.4902690E-03;  9.9825421E+02;  3.3324629E-01; -1.4463290E+03;3; -5.0620818E+00;  0.0000000E+00; -3.2467577E+00;0; -4.9837533E-02;  3.6797141E+03;  0.0000000E+00; -1.0761988E+00;  4.0000000E+04;  0.0000000E+00;  3.9151051E+04; -4.1715190E-02;  0.0000000E+00; -8.1223426E-03;  4.3583423E+03;
  1.1265360E+00;  9.9999998E-03; -1.4154777E-01;8074;  2.6164822E-02;  0.0000000E+00;  5.3620017E-03;  9.9813104E+02;  3.3398107E-01; -1.5484000E+03;3; -5.4129653E+00;  0.0000000E+00; -3.1959348E+00;0; -4.7427252E-02;  3.6627136E+03;  0.0000000E+00; -8.8761991E-01;  4.0000000E+04;  0.0000000E+00;  3.9153926E+04; -3.6432322E-02;  0.0000000E+00; -1.0994928E-02;  3.9432310E+03;
  1.1596311E+00;  9.9999998E-03; -2.4289298E-01;8125;  1.1917178E-02;  0.0000000E+00;  4.6296665E-03;  9.9878180E+02;  3.5607576E-01; -1.0092548E+03;3; -4.3966484E+00;  0.0000000E+00; -4.1499004E+00;0; -1.0116468E-01;  3.2194900E+03;  0.0000000E+00; -2.2595866E+00;  4.0000000E+04;  0.0000000E+00;  3.9092445E+04; -1.2058111E-01;  0.0000000E+00;  1.9416427E-02;  7.2003042E+03;
  1.1591811E+00;  9.9999998E-03; -2.3281240E-01;8126;  1.2875249E-02;  0.0000000E+00;  5.3226682E-03;  9.9928571E+02;  3.5558486E-01; -5.9178540E+02;3; -4.5556521E+00;  0.0000000E+00; -3.9660447E+00;0; -9.7625710E-02;  3.2306228E+03;  0.0000000E+00; -1.7961112E+00;  4.0000000E+04;  0.0000000E+00;  3.9085297E+04; -1.1371854E-01;  0.0000000E+00;  1.6092829E-02;  4.6379888E+03;
  1.1611737E+00;  9.9999998E-03; -2.5297740E-01;8124;  1.0872042E-02;  0.0000000E+00;  3.5574900E-03;  9.9790918E+02;  3.5757369E-01; -1.7321969E+03;3; -4.1886644E+00;  0.0000000E+00; -3.9697421E+00;0; -1.0220778E-01;  3.1884880E+03;  0.0000000E+00; -2.9748063E+00;  4.0000000E+04;  0.0000000E+00;  3.9102336E+04; -1.2777340E-01;  0.0000000E+00;  2.5565624E-02;  1.1308681E+04;
  1.1589414E+00;  9.9999998E-03; -2.2268586E-01;8127;  1.3867532E-02;  0.0000000E+00;  5.4983334E-03;  9.9959650E+02;  3.5535097E-01; -3.3431134E+02;3; -4.7107701E+00;  0.0000000E+00; -3.8161547E+00;0; -9.2614368E-02;  3.2363660E+03;  0.0000000E+00; -1.4800001E+00;  4.0000000E+04;  0.0000000E+00;  3.9088008E+04; -1.0666800E-01;  0.0000000E+00;  1.4053638E-02;  2.9153101E+03;
  1.1587943E+00;  9.9999998E-03; -2.1253513E-01;8128;  1.4938788E-02;  0.0000000E+00;  5.6293472E-03;  9.9961603E+02;  3.5528097E-01; -3.1811426E+02;3; -4.8421416E+00;  0.0000000E+00; -3.6495552E+00;0; -8.8144265E-02;  3.2385994E+03;  0.0000000E+00; -1.2406876E+00;  4.0000000E+04;  0.0000000E+00;  3.9090242E+04; -9.9461555E-02;  0.0000000E+00;  1.1317292E-02;  1.7601694E+03;
  1.1643622E+00;  9.9999998E-03; -2.6308176E-01;8123;  9.5397998E-03;  0.0000000E+00;  2.6240197E-03;  9.9658051E+02;  3.6059088E-01; -2.8330046E+03;3; -3.9995322E+00;  0.0000000E+00; -3.7936890E+00;0; -1.0351349E-01;  3.1289238E+03;  0.0000000E+00; -4.0588455E+00;  4.0000000E+04;  0.0000000E+00;  3.9107922E+04; -1.3562526E-01;  0.0000000E+00;  3.2111760E-02;  1.6896895E+04;
  1.1587397E+00;  9.9999998E-03; -2.0240802E-01;8129;  1.6079774E-02;  0.0000000E+00;  5.6817913E-03;  9.9935449E+02;  3.5535285E-01; -5.3479938E+02;3; -4.9882321E+00;  0.0000000E+00; -3.5334320E+00;0; -8.4036216E-02;  3.2375288E+03;  0.0000000E+00; -1.0409490E+00;  4.0000000E+04;  0.0000000E+00;  3.9088039E+04; -9.2244610E-02;  0.0000000E+00;  8.2083903E-03;  1.6106575E+03;
  1.1622756E+00;  9.9999998E-03; -1.1139643E-01;8138;  2.9624088E-02;  0.0000000E+00;  4.2007547E-03;  9.9773920E+02;  3.5961017E-01; -1.8730323E+03;3; -7.7008371E+00;  0.0000000E+00; -2.5036159E+00;0; -5.5215918E-02;  3.1568789E+03;  0.0000000E+00; -1.4912465E-01;  4.0000000E+04;  0.0000000E+00;  3.9095625E+04; -3.8468670E-02;  0.0000000E+00; -1.6747246E-02;  3.9529851E+03;
  1.1587844E+00;  9.9999998E-03; -1.9228530E-01;8130;  1.7284917E-02;  0.0000000E+00;  5.6286398E-03;  9.9894623E+02;  3.5555217E-01; -8.7301184E+02;3; -5.1744142E+00;  0.0000000E+00; -3.4537783E+00;0; -8.0190144E-02;  3.2335701E+03;  0.0000000E+00; -8.6660850E-01;  4.0000000E+04;  0.0000000E+00;  3.9085715E+04; -8.5123807E-02;  0.0000000E+00;  4.9336618E-03;  2.6470571E+03;
  1.1589844E+00;  9.9999998E-03; -1.8213977E-01;8131;  1.8560432E-02;  0.0000000E+00;  5.5111470E-03;  9.9848578E+02;  3.5590285E-01; -1.2544823E+03;3; -5.3513942E+00;  0.0000000E+00; -3.3508980E+00;0; -7.6586299E-02;  3.2264448E+03;  0.0000000E+00; -7.1559465E-01;  4.0000000E+04;  0.0000000E+00;  3.9084758E+04; -7.8217544E-02;  0.0000000E+00;  1.6312442E-03;  3.6193750E+03;
  1.1627697E+00;  9.9999998E-03; -1.2148302E-01;8137;  2.7753431E-02;  0.0000000E+00;  4.2934925E-03;  9.9764331E+02;  3.5995552E-01; -1.9524868E+03;3; -7.3065047E+00;  0.0000000E+00; -2.6336064E+00;0; -5.7960574E-02;  3.1508025E+03;  0.0000000E+00; -1.9733641E-01;  4.0000000E+04;  0.0000000E+00;  3.9094219E+04; -4.3856088E-02;  0.0000000E+00; -1.4104485E-02;  3.9860735E+03;
  1.1594788E+00;  9.9999998E-03; -1.7197901E-01;8132;  1.9885682E-02;  0.0000000E+00;  5.3354530E-03;  9.9806201E+02;  3.5650578E-01; -1.6055833E+03;3; -5.5659757E+00;  0.0000000E+00; -3.2284994E+00;0; -7.3220305E-02;  3.2146384E+03;  0.0000000E+00; -5.8673859E-01;  4.0000000E+04;  0.0000000E+00;  3.9084586E+04; -7.1688175E-02;  0.0000000E+00; -1.5321284E-03;  4.1303013E+03;
  1.1628264E+00;  9.9999998E-03; -1.3156800E-01;8136;  2.5954219E-02;  0.0000000E+00;  4.4326866E-03;  9.9755261E+02;  3.5990858E-01; -2.0275957E+03;3; -7.0134530E+00;  0.0000000E+00; -2.7908485E+00;0; -6.0931005E-02;  3.1516646E+03;  0.0000000E+00; -2.5445575E-01;  4.0000000E+04;  0.0000000E+00;  3.9091539E+04; -4.9230751E-02;  0.0000000E+00; -1.1700254E-02;  3.9226753E+03;
  1.1603131E+00;  9.9999998E-03; -1.6183379E-01;8133;  2.1262767E-02;  0.0000000E+00;  5.1134424E-03;  9.9772729E+02;  3.5738668E-01; -1.8829086E+03;3; -5.8796916E+00;  0.0000000E+00; -3.1383622E+00;0; -7.0056111E-02;  3.1979551E+03;  0.0000000E+00; -4.7984537E-01;  4.0000000E+04;  0.0000000E+00;  3.9085707E+04; -6.5621264E-02;  0.0000000E+00; -4.4348426E-03;  4.1917451E+03;
  1.1613001E+00;  9.9999998E-03; -1.5172867E-01;8134;  2.2730837E-02;  0.0000000E+00;  4.8781135E-03;  9.9754559E+02;  3.5837659E-01; -2.0334227E+03;3; -6.2543855E+00;  0.0000000E+00; -3.0401564E+00;0; -6.6989020E-02;  3.1795747E+03;  0.0000000E+00; -3.9278886E-01;  4.0000000E+04;  0.0000000E+00;  3.9086887E+04; -5.9945937E-02;  0.0000000E+00; -7.0430799E-03;  4.0266609E+03;
  1.1622046E+00;  9.9999998E-03; -1.4164840E-01;8135;  2.4288280E-02;  0.0000000E+00;  4.6419245E-03;  9.9750024E+02;  3.5927233E-01; -2.0710020E+03;3; -6.6157999E+00;  0.0000000E+00; -2.9132910E+00;0; -6.3944712E-02;  3.1631580E+03;  0.0000000E+00; -3.1983957E-01;  4.0000000E+04;  0.0000000E+00;  3.9089332E+04; -5.4528296E-02;  0.0000000E+00; -9.4164135E-03;  3.9020591E+03;
  1.1977695E+00;  9.9999998E-03; -2.1269885E-01;8189;  1.0363155E-02;  0.0000000E+00;  4.2699743E-03;  9.9867859E+02;  3.8358042E-01; -1.0947826E+03;3; -5.4022923E+00;  0.0000000E+00; -3.1849988E+00;0; -1.0314268E-01;  2.7793035E+03;  0.0000000E+00;  7.4386144E-01;  4.0000000E+04;  0.0000000E+00;  3.9019656E+04; -1.1794399E-01;  0.0000000E+00;  1.4801312E-02;  3.5055215E+03;
  1.1977752E+00;  9.9999998E-03; -2.0251659E-01;8190;  1.1926784E-02;  0.0000000E+00;  4.2599812E-03;  9.9854626E+02;  3.8374349E-01; -1.2044091E+03;3; -5.7029510E+00;  0.0000000E+00; -3.0876825E+00;0; -9.7784035E-02;  2.7773533E+03;  0.0000000E+00;  6.3130224E-01;  4.0000000E+04;  0.0000000E+00;  3.9017727E+04; -1.1014012E-01;  0.0000000E+00;  1.2356079E-02;  4.1453125E+03;
  1.1977749E+00;  9.9999998E-03; -2.2288586E-01;8188;  8.8564800E-03;  0.0000000E+00;  4.2932327E-03;  9.9845380E+02;  3.8348985E-01; -1.2809994E+03;3; -5.0770669E+00;  0.0000000E+00; -3.2372351E+00;0; -1.0907714E-01;  2.7794773E+03;  0.0000000E+00;  7.6255286E-01;  4.0000000E+04;  0.0000000E+00;  3.9016086E+04; -1.2562025E-01;  0.0000000E+00;  1.6543107E-02;  2.2041340E+03;
  1.1978606E+00;  9.9999998E-03; -2.3302425E-01;8187;  7.4186935E-03;  0.0000000E+00;  4.3476811E-03;  9.9792871E+02;  3.8354814E-01; -1.7159989E+03;3; -4.7643147E+00;  0.0000000E+00; -3.2931669E+00;0; -1.1613116E-01;  2.7770991E+03;  0.0000000E+00;  5.6270868E-01;  4.0000000E+04;  0.0000000E+00;  3.9013297E+04; -1.3303551E-01;  0.0000000E+00;  1.6904354E-02;  3.0411365E+02;
  1.1978776E+00;  9.9999998E-03; -1.9234748E-01;8191;  1.3513977E-02;  0.0000000E+00;  4.1806330E-03;  9.9822003E+02;  3.8401905E-01; -1.4746727E+03;3; -6.0371327E+00;  0.0000000E+00; -3.0048232E+00;0; -9.2700511E-02;  2.7730549E+03;  0.0000000E+00;  5.0637698E-01;  4.0000000E+04;  0.0000000E+00;  3.9013852E+04; -1.0237727E-01;  0.0000000E+00;  9.6767582E-03;  4.5535386E+03;
  1.1980978E+00;  9.9999998E-03; -1.8218578E-01;8192;  1.5127274E-02;  0.0000000E+00;  4.0392075E-03;  9.9783319E+02;  3.8440526E-01; -1.7951571E+03;3; -6.3470817E+00;  0.0000000E+00; -2.8859961E+00;0; -8.7787800E-02;  2.7667913E+03;  0.0000000E+00;  4.0474322E-01;  4.0000000E+04;  0.0000000E+00;  3.9010594E+04; -9.4781727E-02;  0.0000000E+00;  6.9939299E-03;  4.8266060E+03;
  1.1986204E+00;  9.9999998E-03; -2.4310330E-01;8186;  5.9664794E-03;  0.0000000E+00;  3.9861812E-03;  9.9734210E+02;  3.8427100E-01; -2.2020093E+03;3; -4.4247313E+00;  0.0000000E+00; -3.3529150E+00;0; -1.2332046E-01;  2.7647837E+03;  0.0000000E+00;  4.3811378E-04;  4.0000000E+04;  0.0000000E+00;  3.9024535E+04; -1.4031592E-01;  0.0000000E+00;  1.6995458E-02;  4.0680186E+03;
  1.1984590E+00;  9.9999998E-03; -1.7203206E-01;8193;  1.6754581E-02;  0.0000000E+00;  3.8437243E-03;  9.9748401E+02;  3.8490012E-01; -2.0844326E+03;3; -6.7356744E+00;  0.0000000E+00; -2.7829301E+00;0; -8.2969844E-02;  2.7588191E+03;  0.0000000E+00;  3.3341950E-01;  4.0000000E+04;  0.0000000E+00;  3.9009125E+04; -8.7455094E-02;  0.0000000E+00;  4.4852532E-03;  4.8981934E+03;
  1.2008432E+00;  9.9999998E-03; -2.5319034E-01;8185;  4.3776860E-03;  0.0000000E+00;  2.7012657E-03;  9.9669885E+02;  3.8636887E-01; -2.7349319E+03;3; -4.0143762E+00;  0.0000000E+00; -3.1746061E+00;0; -1.2647632E-01;  2.7321924E+03;  0.0000000E+00; -1.1037519E+00;  4.0000000E+04;  0.0000000E+00;  3.9039379E+04; -1.4771514E-01;  0.0000000E+00;  2.1238813E-02;  9.5325635E+03;
  1.1992801E+00;  9.9999998E-03; -1.6191758E-01;8194;  1.8375413E-02;  0.0000000E+00;  3.5900662E-03;  9.9725983E+02;  3.8577446E-01; -2.2701555E+03;3; -7.1228781E+00;  0.0000000E+00; -2.6344109E+00;0; -7.8238964E-02;  2.7455383E+03;  0.0000000E+00;  2.9190952E-01;  4.0000000E+04;  0.0000000E+00;  3.9008699E+04; -8.0585897E-02;  0.0000000E+00;  2.3469357E-03;  4.7550186E+03;
  1.2000036E+00;  9.9999998E-03; -1.1147096E-01;8199;  2.7565246E-02;  0.0000000E+00;  2.7620867E-03;  9.9724872E+02;  3.8684869E-01; -2.2793896E+03;3; -9.4183073E+00;  0.0000000E+00; -1.9593303E+00;0; -5.6607183E-02;  2.7283333E+03;  0.0000000E+00; -6.1314993E-02;  4.0000000E+04;  0.0000000E+00;  3.9022324E+04; -4.8757512E-02;  0.0000000E+00; -7.8496700E-03;  2.6052432E+03;
  1.2002771E+00;  9.9999998E-03; -1.5183803E-01;8195;  2.0003770E-02;  0.0000000E+00;  3.3017916E-03;  9.9717694E+02;  3.8678613E-01; -2.3388447E+03;3; -7.5437126E+00;  0.0000000E+00; -2.4713190E+00;0; -7.3526472E-02;  2.7306145E+03;  0.0000000E+00;  2.5785267E-01;  4.0000000E+04;  0.0000000E+00;  3.9009332E+04; -7.4048825E-02;  0.0000000E+00;  5.2235456E-04;  4.3959385E+03;
  1.2005512E+00;  9.9999998E-03; -1.2156792E-01;8198;  2.5559871E-02;  0.0000000E+00;  2.8120715E-03;  9.9722955E+02;  3.8726795E-01; -2.2952412E+03;3; -8.9066257E+00;  0.0000000E+00; -2.0901005E+00;0; -6.0280066E-02;  2.7225654E+03;  0.0000000E+00;  4.2041712E-02;  4.0000000E+04;  0.0000000E+00;  3.9019484E+04; -5.4903258E-02;  0.0000000E+00; -5.3768079E-03;  2.9003025E+03;
  1.2010710E+00;  9.9999998E-03; -1.3165869E-01;8197;  2.3582637E-02;  0.0000000E+00;  2.8831812E-03;  9.9720996E+02;  3.8766527E-01; -2.3114875E+03;3; -8.5486059E+00;  0.0000000E+00; -2.2321396E+00;0; -6.4392321E-02;  2.7172717E+03;  0.0000000E+00;  1.3704714E-01;  4.0000000E+04;  0.0000000E+00;  3.9015492E+04; -6.1250579E-02;  0.0000000E+00; -3.1417436E-03;  3.3537590E+03;
  1.2010375E+00;  9.9999998E-03; -1.4175406E-01;8196;  2.1721689E-02;  0.0000000E+00;  3.0443273E-03;  9.9718591E+02;  3.8756248E-01; -2.3314375E+03;3; -8.0572186E+00;  0.0000000E+00; -2.3549638E+00;0; -6.8863235E-02;  2.7191946E+03;  0.0000000E+00;  2.1046810E-01;  4.0000000E+04;  0.0000000E+00;  3.9011902E+04; -6.7658775E-02;  0.0000000E+00; -1.2044633E-03;  3.8918479E+03;
  1.2053159E+00;  9.9999998E-03; -2.6331782E-01;8184;  2.3596724E-03;  0.0000000E+00;  8.3976495E-04;  9.9633478E+02;  3.9065021E-01; -3.0365525E+03;3; -3.6293697E+00;  0.0000000E+00; -2.8272779E+00;0; -1.2401870E-01;  2.6708264E+03;  0.0000000E+00; -3.0596581E+00;  4.0000000E+04;  0.0000000E+00;  3.9041984E+04; -1.5531114E-01;  0.0000000E+00;  3.1292435E-02;  1.5952805E+04;
  1.2386169E+00;  9.9999998E-03; -2.0264527E-01;8251;  7.4102967E-03;  0.0000000E+00;  5.0584594E-04;  9.9916492E+02;  4.1428587E-01; -6.9183093E+02;3; -6.2938175E+00;  0.0000000E+00; -2.1716857E+00;0; -1.0475183E-01;  2.3912673E+03;  0.0000000E+00;  1.5954469E+00;  4.0000000E+04;  0.0000000E+00;  3.8946898E+04; -1.2951598E-01;  0.0000000E+00;  2.4764152E-02;  1.0513662E+04;
  1.2386551E+00;  9.9999998E-03; -1.9248471E-01;8252;  9.3427692E-03;  0.0000000E+00;  6.8907661E-04;  9.9889465E+02;  4.1449100E-01; -9.1577478E+02;3; -6.8130207E+00;  0.0000000E+00; -2.1860335E+00;0; -9.8559521E-02;  2.3884304E+03;  0.0000000E+00;  1.2473438E+00;  4.0000000E+04;  0.0000000E+00;  3.8942082E+04; -1.2146659E-01;  0.0000000E+00;  2.2907071E-02;  9.2406875E+03;
  1.2388353E+00;  9.9999998E-03; -2.1285495E-01;8250;  5.4475297E-03;  0.0000000E+00;  3.0898955E-04;  9.9923505E+02;  4.1432539E-01; -6.3375861E+02;3; -5.8100481E+00;  0.0000000E+00; -2.1821506E+00;0; -1.1104309E-01;  2.3906370E+03;  0.0000000E+00;  1.8768446E+00;  4.0000000E+04;  0.0000000E+00;  3.8947699E+04; -1.3748814E-01;  0.0000000E+00;  2.6445052E-02;  1.1117976E+04;
  1.2389674E+00;  9.9999998E-03; -1.8235038E-01;8253;  1.1255979E-02;  0.0000000E+00;  8.0904120E-04;  9.9859222E+02;  4.1494831E-01; -1.1663351E+03;3; -7.3507867E+00;  0.0000000E+00; -2.1644092E+00;0; -9.2362069E-02;  2.3823972E+03;  0.0000000E+00;  9.0727526E-01;  4.0000000E+04;  0.0000000E+00;  3.8938242E+04; -1.1346895E-01;  0.0000000E+00;  2.1106875E-02;  7.7285488E+03;
  1.2394900E+00;  9.9999998E-03; -1.7222470E-01;8254;  1.3164138E-02;  0.0000000E+00;  8.7821455E-04;  9.9832233E+02;  4.1558030E-01; -1.3899332E+03;3; -7.9021201E+00;  0.0000000E+00; -2.1733966E+00;0; -8.6121574E-02;  2.3742485E+03;  0.0000000E+00;  6.1156732E-01;  4.0000000E+04;  0.0000000E+00;  3.8936242E+04; -1.0557412E-01;  0.0000000E+00;  1.9452542E-02;  6.1503521E+03;
  1.2391087E+00;  9.9999998E-03; -2.2308619E-01;8249;  3.4709657E-03;  0.0000000E+00;  2.2591784E-04;  9.9886768E+02;  4.1446418E-01; -9.3809509E+02;3; -5.3109980E+00;  0.0000000E+00; -2.1625535E+00;0; -1.1773026E-01;  2.3882170E+03;  0.0000000E+00;  1.9633434E+00;  4.0000000E+04;  0.0000000E+00;  3.8939707E+04; -1.4509495E-01;  0.0000000E+00;  2.7364684E-02;  1.0232438E+04;
  1.2399259E+00;  9.9999998E-03; -1.6209397E-01;8255;  1.5123001E-02;  0.0000000E+00;  9.6313999E-04;  9.9812006E+02;  4.1609925E-01; -1.5574838E+03;3; -8.5928078E+00;  0.0000000E+00; -2.3549514E+00;0; -7.9816841E-02;  2.3673711E+03;  0.0000000E+00;  3.6689004E-01;  4.0000000E+04;  0.0000000E+00;  3.8936578E+04; -9.7680703E-02;  0.0000000E+00;  1.7863864E-02;  4.5856431E+03;
  1.2404153E+00;  9.9999998E-03; -1.5197496E-01;8256;  1.7126586E-02;  0.0000000E+00;  1.0936392E-03;  9.9799951E+02;  4.1663823E-01; -1.6573820E+03;3; -9.4028587E+00;  0.0000000E+00; -2.6491010E+00;0; -7.3539406E-02;  2.3604622E+03;  0.0000000E+00;  1.5682876E-01;  4.0000000E+04;  0.0000000E+00;  3.8937797E+04; -8.9936592E-02;  0.0000000E+00;  1.6397182E-02;  3.1036218E+03;
  1.2410102E+00;  9.9999998E-03; -1.4186758E-01;8257;  1.9178890E-02;  0.0000000E+00;  1.2997976E-03;  9.9798151E+02;  4.1725296E-01; -1.6722949E+03;3; -1.0261476E+01;  0.0000000E+00; -3.0595713E+00;0; -6.7387886E-02;  2.3529648E+03;  0.0000000E+00; -3.1375729E-02;  4.0000000E+04;  0.0000000E+00;  3.8939863E+04; -8.2404822E-02;  0.0000000E+00;  1.5016933E-02;  1.8246040E+03;
  1.2396284E+00;  9.9999998E-03; -2.3325554E-01;8248;  1.5163062E-03;  0.0000000E+00;  3.3672372E-04;  9.9816724E+02;  4.1489601E-01; -1.5184232E+03;3; -4.8058367E+00;  0.0000000E+00; -2.1227107E+00;0; -1.2577103E-01;  2.3821714E+03;  0.0000000E+00;  1.6888392E+00;  4.0000000E+04;  0.0000000E+00;  3.8930586E+04; -1.5229107E-01;  0.0000000E+00;  2.6520044E-02;  7.1593882E+03;
  1.2411398E+00;  9.9999998E-03; -1.3176394E-01;8258;  2.1354994E-02;  0.0000000E+00;  1.5495896E-03;  9.9796552E+02;  4.1741446E-01; -1.6855292E+03;3; -1.1380724E+01;  0.0000000E+00; -3.4660661E+00;0; -6.1484158E-02;  2.3507007E+03;  0.0000000E+00; -1.9421694E-01;  4.0000000E+04;  0.0000000E+00;  3.8942938E+04; -7.4841149E-02;  0.0000000E+00;  1.3356991E-02;  1.0786270E+03;
  1.2411540E+00;  9.9999998E-03; -1.2164825E-01;8259;  2.3604631E-02;  0.0000000E+00;  1.7951583E-03;  9.9796509E+02;  4.1746899E-01; -1.6858748E+03;3; -1.2510965E+01;  0.0000000E+00; -3.6415591E+00;0; -5.6003250E-02;  2.3498542E+03;  0.0000000E+00; -3.2648534E-01;  4.0000000E+04;  0.0000000E+00;  3.8945559E+04; -6.7456804E-02;  0.0000000E+00;  1.1453553E-02;  1.1650848E+03;
  1.2411575E+00;  9.9999998E-03; -1.1151946E-01;8260;  2.5866752E-02;  0.0000000E+00;  1.9570033E-03;  9.9795398E+02;  4.1753274E-01; -1.6951091E+03;3; -1.3523273E+01;  0.0000000E+00; -3.4967096E+00;0; -5.1086552E-02;  2.3491633E+03;  0.0000000E+00; -4.1702312E-01;  4.0000000E+04;  0.0000000E+00;  3.8947379E+04; -6.0344357E-02;  0.0000000E+00;  9.2578046E-03;  1.4899202E+03;
  1.2409257E+00;  9.9999998E-03; -2.4335864E-01;8247; -5.0403265E-04;  0.0000000E+00;  2.5395417E-04;  9.9752435E+02;  4.1610086E-01; -2.0509995E+03;3; -4.2693167E+00;  0.0000000E+00; -2.0202923E+00;0; -1.3532208E-01;  2.3672634E+03;  0.0000000E+00;  8.7103760E-01;  4.0000000E+04;  0.0000000E+00;  3.8932258E+04; -1.5926827E-01;  0.0000000E+00;  2.3946196E-02;  1.6394990E+03;
  1.2433889E+00;  9.9999998E-03; -2.5347477E-01;8246; -2.6134937E-03;  0.0000000E+00;  1.4575776E-04;  9.9698578E+02;  4.1846326E-01; -2.4972083E+03;3; -3.7018228E+00;  0.0000000E+00; -1.8673494E+00;0; -1.4847814E-01;  2.3395688E+03;  0.0000000E+00; -6.8149030E-01;  4.0000000E+04;  0.0000000E+00;  3.8931199E+04; -1.6624272E-01;  0.0000000E+00;  1.7764581E-02;  5.7850923E+03;
  1.2478853E+00;  9.9999998E-03; -2.6360792E-01;8245; -5.0820098E-03;  0.0000000E+00; -5.0806359E-04;  9.9714746E+02;  4.2290828E-01; -2.3632859E+03;3; -3.1020672E+00;  0.0000000E+00; -1.6298393E+00;0; -1.6363837E-01;  2.2910247E+03;  0.0000000E+00; -3.2251267E+00;  4.0000000E+04;  0.0000000E+00;  3.8926180E+04; -1.7359166E-01;  0.0000000E+00;  9.9532846E-03;  1.4176165E+04;
  1.2815260E+00;  9.9999998E-03; -1.9258574E-01;8313;  4.0579713E-03;  0.0000000E+00; -4.2285640E-03;  9.9951678E+02;  4.4720545E-01; -4.0033292E+02;3; -7.3257546E+00;  0.0000000E+00; -2.1446504E-01;0; -1.1423445E-01;  2.0569873E+03;  0.0000000E+00;  1.0699632E+00;  4.0000000E+04;  0.0000000E+00;  3.8882680E+04; -1.5237242E-01;  0.0000000E+00;  3.8137965E-02;  9.4500557E+03;
  1.2814227E+00;  9.9999998E-03; -2.0272346E-01;8312;  1.8619670E-03;  0.0000000E+00; -4.7981655E-03;  9.9967175E+02;  4.4693494E-01; -2.7194196E+02;3; -6.6233435E+00;  0.0000000E+00; -2.2774343E-01;0; -1.2115563E-01;  2.0597148E+03;  0.0000000E+00;  1.4591634E+00;  4.0000000E+04;  0.0000000E+00;  3.8887328E+04; -1.6086765E-01;  0.0000000E+00;  3.9712016E-02;  1.1728393E+04;
  1.2821109E+00;  9.9999998E-03; -1.8249360E-01;8314;  6.2321662E-03;  0.0000000E+00; -3.7674431E-03;  9.9937946E+02;  4.4794905E-01; -5.1410699E+02;3; -8.0726175E+00;  0.0000000E+00; -1.7386213E-01;0; -1.0737240E-01;  2.0497214E+03;  0.0000000E+00;  6.4235818E-01;  4.0000000E+04;  0.0000000E+00;  3.8879762E+04; -1.4399444E-01;  0.0000000E+00;  3.6622036E-02;  6.7535190E+03;
  1.2818207E+00;  9.9999998E-03; -2.1292508E-01;8311; -3.8333371E-04;  0.0000000E+00; -5.5566859E-03;  9.9972107E+02;  4.4716322E-01; -2.3110370E+02;3; -5.9299035E+00;  0.0000000E+00; -1.7193334E-01;0; -1.2805288E-01;  2.0575449E+03;  0.0000000E+00;  1.7136093E+00;  4.0000000E+04;  0.0000000E+00;  3.8889867E+04; -1.6939734E-01;  0.0000000E+00;  4.1344460E-02;  1.2871145E+04;
  1.2827874E+00;  9.9999998E-03; -1.7240311E-01;8315;  8.4616356E-03;  0.0000000E+00; -3.3551420E-03;  9.9926282E+02;  4.4876894E-01; -6.1074585E+02;3; -8.8736391E+00;  0.0000000E+00; -1.0693847E-01;0; -1.0034260E-01;  2.0417271E+03;  0.0000000E+00;  2.4173588E-01;  4.0000000E+04;  0.0000000E+00;  3.8878676E+04; -1.3550656E-01;  0.0000000E+00;  3.5163958E-02;  4.1523486E+03;
  1.2831324E+00;  9.9999998E-03; -1.6227436E-01;8316;  1.0802675E-02;  0.0000000E+00; -2.9739810E-03;  9.9914557E+02;  4.4921580E-01; -7.0787854E+02;3; -9.7467346E+00;  0.0000000E+00; -7.0941247E-02;0; -9.2933625E-02;  2.0370674E+03;  0.0000000E+00; -1.0400409E-01;  4.0000000E+04;  0.0000000E+00;  3.8878977E+04; -1.2670529E-01;  0.0000000E+00;  3.3771664E-02;  2.1504653E+03;
  1.2824881E+00;  9.9999998E-03; -2.2316377E-01;8310; -2.6298431E-03;  0.0000000E+00; -6.3401177E-03;  9.9946484E+02;  4.4767165E-01; -4.4334381E+02;3; -5.2312112E+00;  0.0000000E+00; -6.0391661E-02;0; -1.3476680E-01;  2.0524392E+03;  0.0000000E+00;  1.6961682E+00;  4.0000000E+04;  0.0000000E+00;  3.8884500E+04; -1.7763640E-01;  0.0000000E+00;  4.2869594E-02;  1.1849884E+04;
  1.2835534E+00;  9.9999998E-03; -1.5212646E-01;8317;  1.3179576E-02;  0.0000000E+00; -2.6255285E-03;  9.9907257E+02;  4.4969609E-01; -7.6837036E+02;3; -1.0709731E+01;  0.0000000E+00; -6.1888278E-02;0; -8.5411474E-02;  2.0322104E+03;  0.0000000E+00; -3.9710894E-01;  4.0000000E+04;  0.0000000E+00;  3.8879801E+04; -1.1806078E-01;  0.0000000E+00;  3.2649301E-02;  1.6117745E+03;
  1.2841771E+00;  9.9999998E-03; -1.4199498E-01;8318;  1.5581057E-02;  0.0000000E+00; -2.2637562E-03;  9.9905969E+02;  4.5035258E-01; -7.7903668E+02;3; -1.1877145E+01;  0.0000000E+00; -2.0000237E-01;0; -7.7916585E-02;  2.0259802E+03;  0.0000000E+00; -6.2966651E-01;  4.0000000E+04;  0.0000000E+00;  3.8880934E+04; -1.0982558E-01;  0.0000000E+00;  3.1908996E-02;  2.2093831E+03;
  1.2834078E+00;  9.9999998E-03; -2.3335165E-01;8309; -4.8429919E-03;  0.0000000E+00; -7.0197345E-03;  9.9896545E+02;  4.4848806E-01; -8.5710834E+02;3; -4.5225067E+00;  0.0000000E+00;  1.7513101E-01;0; -1.4155892E-01;  2.0445616E+03;  0.0000000E+00;  1.2499874E+00;  4.0000000E+04;  0.0000000E+00;  3.8878160E+04; -1.8542379E-01;  0.0000000E+00;  4.3864883E-02;  8.0381255E+03;
  1.2846223E+00;  9.9999998E-03; -1.3188234E-01;8319;  1.8070756E-02;  0.0000000E+00; -1.8243021E-03;  9.9903912E+02;  4.5081702E-01; -7.9607318E+02;3; -1.3227603E+01;  0.0000000E+00; -5.6506842E-01;0; -7.0401713E-02;  2.0215981E+03;  0.0000000E+00; -7.8672796E-01;  4.0000000E+04;  0.0000000E+00;  3.8881559E+04; -1.0185964E-01;  0.0000000E+00;  3.1457927E-02;  2.5368904E+03;
  1.2848328E+00;  9.9999998E-03; -1.2176908E-01;8320;  2.0665176E-02;  0.0000000E+00; -1.2869122E-03;  9.9896442E+02;  4.5104402E-01; -8.5794775E+02;3; -1.4895099E+01;  0.0000000E+00; -1.1228070E+00;0; -6.3002788E-02;  2.0194155E+03;  0.0000000E+00; -8.6094338E-01;  4.0000000E+04;  0.0000000E+00;  3.8881270E+04; -9.4218768E-02;  0.0000000E+00;  3.1215979E-02;  2.3774482E+03;
  1.2847925E+00;  9.9999998E-03; -1.1165533E-01;8321;  2.3330696E-02;  0.0000000E+00; -7.0287596E-04;  9.9881647E+02;  4.5103565E-01; -9.8051172E+02;3; -1.6647234E+01;  0.0000000E+00; -1.6781616E+00;0; -5.5906810E-02;  2.0194137E+03;  0.0000000E+00; -8.5317987E-01;  4.0000000E+04;  0.0000000E+00;  3.8879910E+04; -8.6968869E-02;  0.0000000E+00;  3.1062059E-02;  1.9794604E+03;
  1.2849842E+00;  9.9999998E-03; -2.4347576E-01;8308; -7.0631644E-03;  0.0000000E+00; -8.2446830E-03;  9.9857617E+02;  4.5001581E-01; -1.1796165E+03;3; -3.8085582E+00;  0.0000000E+00;  5.3184861E-01;0; -1.4679289E-01;  2.0302047E+03;  0.0000000E+00;  2.1694015E-01;  4.0000000E+04;  0.0000000E+00;  3.8884266E+04; -1.9309333E-01;  0.0000000E+00;  4.6300448E-02;  2.8160439E+03;
  1.2877264E+00;  9.9999998E-03; -2.5363138E-01;8307; -9.5509393E-03;  0.0000000E+00; -9.4909370E-03;  9.9823212E+02;  4.5280939E-01; -1.4646440E+03;3; -3.1023736E+00;  0.0000000E+00;  1.1557413E+00;0; -1.5229508E-01;  2.0046227E+03;  0.0000000E+00; -1.5707762E+00;  4.0000000E+04;  0.0000000E+00;  3.8882000E+04; -2.0111918E-01;  0.0000000E+00;  4.8824094E-02;  6.7731362E+03;
  1.2925524E+00;  9.9999998E-03; -2.6381731E-01;8306; -1.2575901E-02;  0.0000000E+00; -1.0552390E-02;  9.9817627E+02;  4.5790195E-01; -1.5109137E+03;3; -2.2590284E+00;  0.0000000E+00;  1.6334258E+00;0; -1.6317844E-01;  1.9599495E+03;  0.0000000E+00; -4.3710775E+00;  4.0000000E+04;  0.0000000E+00;  3.8863086E+04; -2.1038564E-01;  0.0000000E+00;  4.7207195E-02;  1.6100622E+04;
  1.3272346E+00;  9.9999998E-03; -2.0289543E-01;8373; -6.9760936E-03;  0.0000000E+00; -1.2219222E-02;  9.9705334E+02;  4.8234385E-01; -2.4412463E+03;3; -6.9915481E+00;  0.0000000E+00;  3.7871857E+00;0; -1.4912467E-01;  1.7613256E+03;  0.0000000E+00;  3.6746693E-01;  4.0000000E+04;  0.0000000E+00;  3.8817863E+04; -1.8665029E-01;  0.0000000E+00;  3.7525628E-02;  5.8983525E+03;
  1.3275487E+00;  9.9999998E-03; -1.9277060E-01;8374; -4.3490697E-03;  0.0000000E+00; -1.1830343E-02;  9.9698364E+02;  4.8285136E-01; -2.4989727E+03;3; -8.0354795E+00;  0.0000000E+00;  3.9881949E+00;0; -1.3934302E-01;  1.7576482E+03;  0.0000000E+00;  8.1646621E-02;  4.0000000E+04;  0.0000000E+00;  3.8812777E+04; -1.7578460E-01;  0.0000000E+00;  3.6441579E-02;  4.1125630E+03;
  1.3275766E+00;  9.9999998E-03; -2.1309040E-01;8372; -9.7095426E-03;  0.0000000E+00; -1.2863498E-02;  9.9704993E+02;  4.8250371E-01; -2.4440610E+03;3; -5.9578242E+00;  0.0000000E+00;  3.7797930E+00;0; -1.5857586E-01;  1.7597223E+03;  0.0000000E+00;  5.1299322E-01;  4.0000000E+04;  0.0000000E+00;  3.8822832E+04; -1.9677858E-01;  0.0000000E+00;  3.8202725E-02;  7.0351689E+03;
  1.3284097E+00;  9.9999998E-03; -1.8268251E-01;8375; -1.7887756E-03;  0.0000000E+00; -1.1658636E-02;  9.9693536E+02;  4.8391744E-01; -2.5389712E+03;3; -9.0950756E+00;  0.0000000E+00;  4.3851876E+00;0; -1.2880588E-01;  1.7496460E+03;  0.0000000E+00; -2.4378453E-01;  4.0000000E+04;  0.0000000E+00;  3.8809828E+04; -1.6404615E-01;  0.0000000E+00;  3.5240278E-02;  2.5630151E+03;
  1.3282934E+00;  9.9999998E-03; -2.2334507E-01;8371; -1.2438714E-02;  0.0000000E+00; -1.3562878E-02;  9.9681848E+02;  4.8305926E-01; -2.6358071E+03;3; -4.9365010E+00;  0.0000000E+00;  3.9112067E+00;0; -1.6795546E-01;  1.7550300E+03;  0.0000000E+00;  4.0167135E-01;  4.0000000E+04;  0.0000000E+00;  3.8819965E+04; -2.0624577E-01;  0.0000000E+00;  3.8290314E-02;  6.4538447E+03;
  1.3293705E+00;  9.9999998E-03; -1.7257635E-01;8376;  8.4489211E-04;  0.0000000E+00; -1.1578130E-02;  9.9690948E+02;  4.8508200E-01; -2.5604021E+03;3; -1.0147745E+01;  0.0000000E+00;  4.8920245E+00;0; -1.1697853E-01;  1.7409894E+03;  0.0000000E+00; -5.3458768E-01;  4.0000000E+04;  0.0000000E+00;  3.8808980E+04; -1.5141506E-01;  0.0000000E+00;  3.4436543E-02;  2.1807102E+03;
  1.3300601E+00;  9.9999998E-03; -1.6242242E-01;8377;  3.6290840E-03;  0.0000000E+00; -1.1498537E-02;  9.9690808E+02;  4.8591253E-01; -2.5615872E+03;3; -1.1237566E+01;  0.0000000E+00;  5.4317932E+00;0; -1.0352913E-01;  1.7348553E+03;  0.0000000E+00; -7.6544541E-01;  4.0000000E+04;  0.0000000E+00;  3.8808289E+04; -1.3805152E-01;  0.0000000E+00;  3.4522392E-02;  2.7375759E+03;
  1.3294139E+00;  9.9999998E-03; -2.3355645E-01;8370; -1.5134168E-02;  0.0000000E+00; -1.4122305E-02;  9.9640363E+02;  4.8406526E-01; -2.9794983E+03;3; -3.9346087E+00;  0.0000000E+00;  4.2367716E+00;0; -1.7801143E-01;  1.7471079E+03;  0.0000000E+00; -9.8001823E-02;  4.0000000E+04;  0.0000000E+00;  3.8814688E+04; -2.1494591E-01;  0.0000000E+00;  3.6934476E-02;  4.1066084E+03;
  1.3305143E+00;  9.9999998E-03; -1.5224013E-01;8378;  6.5116552E-03;  0.0000000E+00; -1.1399544E-02;  9.9692053E+02;  4.8642075E-01; -2.5512664E+03;3; -1.2357286E+01;  0.0000000E+00;  5.9739127E+00;0; -8.8209406E-02;  1.7310876E+03;  0.0000000E+00; -9.3591768E-01;  4.0000000E+04;  0.0000000E+00;  3.8808559E+04; -1.2403215E-01;  0.0000000E+00;  3.5822753E-02;  3.2867771E+03;
  1.3309571E+00;  9.9999998E-03; -1.4207804E-01;8379;  9.3981363E-03;  0.0000000E+00; -1.1303901E-02;  9.9691638E+02;  4.8687387E-01; -2.5547229E+03;3; -1.3535336E+01;  0.0000000E+00;  6.5120835E+00;0; -7.0729882E-02;  1.7277449E+03;  0.0000000E+00; -1.0350775E+00;  4.0000000E+04;  0.0000000E+00;  3.8808926E+04; -1.0931249E-01;  0.0000000E+00;  3.8582612E-02;  3.4565928E+03;
  1.3311752E+00;  9.9999998E-03; -2.4367826E-01;8369; -1.7797403E-02;  0.0000000E+00; -1.5549844E-02;  9.9615112E+02;  4.8585203E-01; -3.1886753E+03;3; -2.9944341E+00;  0.0000000E+00;  4.6780457E+00;0; -1.8605694E-01;  1.7334438E+03;  0.0000000E+00; -1.1090038E+00;  4.0000000E+04;  0.0000000E+00;  3.8829477E+04; -2.2273950E-01;  0.0000000E+00;  3.6682557E-02;  5.4448506E+03;
  1.3314607E+00;  9.9999998E-03; -1.3196938E-01;8380;  1.2251683E-02;  0.0000000E+00; -1.1194517E-02;  9.9687170E+02;  4.8736385E-01; -2.5917090E+03;3; -1.4772147E+01;  0.0000000E+00;  7.0160069E+00;0; -5.0960589E-02;  1.7239927E+03;  0.0000000E+00; -1.0544674E+00;  4.0000000E+04;  0.0000000E+00;  3.8808605E+04; -9.3973361E-02;  0.0000000E+00;  4.3012772E-02;  3.1871885E+03;
  1.3341402E+00;  9.9999998E-03; -2.5382766E-01;8368; -2.0644642E-02;  0.0000000E+00; -1.8545751E-02;  9.9584027E+02;  4.8910031E-01; -3.4462451E+03;3; -2.1151564E+00;  0.0000000E+00;  5.3237801E+00;0; -1.8437512E-01;  1.7088157E+03;  0.0000000E+00; -2.7500448E+00;  4.0000000E+04;  0.0000000E+00;  3.8846469E+04; -2.2910254E-01;  0.0000000E+00;  4.4727411E-02;  1.1768574E+04;
  1.3320060E+00;  9.9999998E-03; -1.2188052E-01;8381;  1.5076050E-02;  0.0000000E+00; -1.1033566E-02;  9.9673871E+02;  4.8791561E-01; -2.7018779E+03;3; -1.5856688E+01;  0.0000000E+00;  7.3141465E+00;0; -2.8914019E-02;  1.7198215E+03;  0.0000000E+00; -9.9490392E-01;  4.0000000E+04;  0.0000000E+00;  3.8806371E+04; -7.8154117E-02;  0.0000000E+00;  4.9240097E-02;  2.6526750E+03;
  1.3323270E+00;  9.9999998E-03; -1.1177135E-01;8382;  1.7902389E-02;  0.0000000E+00; -1.0723189E-02;  9.9652539E+02;  4.8827064E-01; -2.8786118E+03;3; -1.7566492E+01;  0.0000000E+00;  7.4429235E+00;0; -5.4752938E-03;  1.7171042E+03;  0.0000000E+00; -8.6939001E-01;  4.0000000E+04;  0.0000000E+00;  3.8802746E+04; -6.2605962E-02;  0.0000000E+00;  5.7130668E-02;  2.2475210E+03;
  1.3385266E+00;  9.9999998E-03; -2.6403040E-01;8367; -2.4115007E-02;  0.0000000E+00; -2.1112146E-02;  9.9517706E+02;  4.9424583E-01; -3.9956548E+03;3; -1.2721531E+00;  0.0000000E+00;  6.2998228E+00;0; -1.7870992E-01;  1.6710774E+03;  0.0000000E+00; -5.1605592E+00;  4.0000000E+04;  0.0000000E+00;  3.8840746E+04; -2.3236500E-01;  0.0000000E+00;  5.3655073E-02;  2.1288633E+04;
  1.3778633E+00;  9.9999998E-03; -2.0332554E-01;8434; -1.8626057E-02;  0.0000000E+00; -2.6532173E-02;  9.9456085E+02;  5.2110058E-01; -4.5061724E+03;3; -7.8101716E+00;  0.0000000E+00;  1.0266071E+01;0;  4.2836398E-01;  1.5043966E+03;  0.0000000E+00; -1.5190171E+00;  4.0000000E+04;  0.0000000E+00;  3.8719555E+04;  4.2511547E-01;  0.0000000E+00;  3.2485048E-03;  2.2037847E+03;
  1.3782980E+00;  9.9999998E-03; -1.9317700E-01;8435; -1.5305082E-02;  0.0000000E+00; -2.6678449E-02;  9.9474976E+02;  5.2174425E-01; -4.3496362E+03;3; -9.5422421E+00;  0.0000000E+00;  1.0050813E+01;0;  4.5178300E-01;  1.5014803E+03;  0.0000000E+00; -1.4509988E+00;  4.0000000E+04;  0.0000000E+00;  3.8711734E+04;  4.4388008E-01;  0.0000000E+00;  7.9029258E-03;  2.6858877E+03;
  1.3779192E+00;  9.9999998E-03; -2.1351767E-01;8433; -2.1952514E-02;  0.0000000E+00; -2.6496718E-02;  9.9440051E+02;  5.2095461E-01; -4.6390063E+03;3; -6.2224250E+00;  0.0000000E+00;  1.0551985E+01;0;  4.1543689E-01;  1.5043043E+03;  0.0000000E+00; -1.6118133E+00;  4.0000000E+04;  0.0000000E+00;  3.8728176E+04;  4.1731328E-01;  0.0000000E+00; -1.8763802E-03;  2.3072830E+03;
  1.3792295E+00;  9.9999998E-03; -1.8304792E-01;8436; -1.1963765E-02;  0.0000000E+00; -2.6930468E-02;  9.9497937E+02;  5.2288735E-01; -4.1594209E+03;3; -1.1317074E+01;  0.0000000E+00;  1.0172616E+01;0;  4.8738894E-01;  1.4956616E+03;  0.0000000E+00; -1.3655286E+00;  4.0000000E+04;  0.0000000E+00;  3.8704742E+04;  4.7442529E-01;  0.0000000E+00;  1.2963653E-02;  3.1203320E+03;
  1.3784707E+00;  9.9999998E-03; -2.2375458E-01;8432; -2.5274009E-02;  0.0000000E+00; -2.6528023E-02;  9.9417004E+02;  5.2130854E-01; -4.8299111E+03;3; -4.8043880E+00;  0.0000000E+00;  1.0816377E+01;0;  4.1226327E-01;  1.5013129E+03;  0.0000000E+00; -1.7658920E+00;  4.0000000E+04;  0.0000000E+00;  3.8729934E+04;  4.2066029E-01;  0.0000000E+00; -8.3970204E-03;  2.5591309E+03;
  1.3806403E+00;  9.9999998E-03; -1.7292574E-01;8437; -8.5931858E-03;  0.0000000E+00; -2.7325395E-02;  9.9524512E+02;  5.2449244E-01; -3.9392817E+03;3; -1.3175249E+01;  0.0000000E+00;  1.0548201E+01;0;  5.3668350E-01;  1.4872881E+03;  0.0000000E+00; -1.2262416E+00;  4.0000000E+04;  0.0000000E+00;  3.8698129E+04;  5.1730084E-01;  0.0000000E+00;  1.9382630E-02;  3.2251812E+03;
  1.3791945E+00;  9.9999998E-03; -2.3398019E-01;8431; -2.8444249E-02;  0.0000000E+00; -2.6423199E-02;  9.9382642E+02;  5.2189082E-01; -5.1146382E+03;3; -3.5536380E+00;  0.0000000E+00;  1.1086180E+01;0;  4.0832186E-01;  1.4972556E+03;  0.0000000E+00; -2.0203648E+00;  4.0000000E+04;  0.0000000E+00;  3.8723887E+04;  4.2538637E-01;  0.0000000E+00; -1.7064514E-02;  2.9900530E+03;
  1.3820937E+00;  9.9999998E-03; -1.6275793E-01;8438; -5.0819428E-03;  0.0000000E+00; -2.7767165E-02;  9.9551550E+02;  5.2606094E-01; -3.7152410E+03;3; -1.4291556E+01;  0.0000000E+00;  1.1367517E+01;0;  5.8813787E-01;  1.4791490E+03;  0.0000000E+00; -1.0328329E+00;  4.0000000E+04;  0.0000000E+00;  3.8692605E+04;  5.6005055E-01;  0.0000000E+00;  2.8087294E-02;  3.0725215E+03;
  1.3802111E+00;  9.9999998E-03; -2.4411327E-01;8430; -3.1525325E-02;  0.0000000E+00; -2.6371742E-02;  9.9363782E+02;  5.2293694E-01; -5.2708774E+03;3; -2.4546351E+00;  0.0000000E+00;  1.1332041E+01;0;  4.0690219E-01;  1.4908060E+03;  0.0000000E+00; -2.4456112E+00;  4.0000000E+04;  0.0000000E+00;  3.8732109E+04;  4.3571189E-01;  0.0000000E+00; -2.8809695E-02;  6.4747974E+03;
  1.3830782E+00;  9.9999998E-03; -1.5251920E-01;8439; -1.4891000E-03;  0.0000000E+00; -2.8137440E-02;  9.9574738E+02;  5.2704281E-01; -3.5231497E+03;3; -1.3627994E+01;  0.0000000E+00;  1.2407269E+01;0;  6.2713116E-01;  1.4741205E+03;  0.0000000E+00; -8.1196654E-01;  4.0000000E+04;  0.0000000E+00;  3.8689531E+04;  5.8762103E-01;  0.0000000E+00;  3.9510157E-02;  2.7354639E+03;
  1.3826144E+00;  9.9999998E-03; -1.3206983E-01;8441;  5.0790841E-03;  0.0000000E+00; -2.7795903E-02;  9.9593414E+02;  5.2636325E-01; -3.3684409E+03;3; -1.5617877E+01;  0.0000000E+00;  1.3313827E+01;0;  6.4364374E-01;  1.4780175E+03;  0.0000000E+00; -4.6694997E-01;  4.0000000E+04;  0.0000000E+00;  3.8695422E+04;  5.7406795E-01;  0.0000000E+00;  6.9575757E-02;  1.5321566E+03;
  1.3830334E+00;  9.9999998E-03; -1.4225864E-01;8440;  1.9802197E-03;  0.0000000E+00; -2.8179472E-02;  9.9588214E+02;  5.2690238E-01; -3.4115005E+03;3; -1.4443615E+01;  0.0000000E+00;  1.2505507E+01;0;  6.3794565E-01;  1.4750465E+03;  0.0000000E+00; -6.1453784E-01;  4.0000000E+04;  0.0000000E+00;  3.8691141E+04;  5.8465415E-01;  0.0000000E+00;  5.3291522E-02;  2.1668723E+03;
  1.3826065E+00;  9.9999998E-03; -1.2194769E-01;8442;  7.9756984E-03;  0.0000000E+00; -2.7307699E-02;  9.9593597E+02;  5.2628767E-01; -3.3669102E+03;3; -1.7348797E+01;  0.0000000E+00;  1.4923318E+01;0;  6.6877729E-01;  1.4783545E+03;  0.0000000E+00; -3.5268447E-01;  4.0000000E+04;  0.0000000E+00;  3.8697816E+04;  5.7944882E-01;  0.0000000E+00;  8.9328445E-02;  1.2219429E+03;
  1.3830030E+00;  9.9999998E-03; -1.1183742E-01;8443;  1.0736740E-02;  0.0000000E+00; -2.6820630E-02;  9.9588153E+02;  5.2670401E-01; -3.4119941E+03;3; -1.9292742E+01;  0.0000000E+00;  1.6526848E+01;0;  7.1230650E-01;  1.4760090E+03;  0.0000000E+00; -2.5210327E-01;  4.0000000E+04;  0.0000000E+00;  3.8697523E+04;  5.9930795E-01;  0.0000000E+00;  1.1299857E-01;  1.4859186E+03;
  1.3820767E+00;  9.9999998E-03; -2.5421974E-01;8429; -3.4821529E-02;  0.0000000E+00; -2.7169045E-02;  9.9362897E+02;  5.2508926E-01; -5.2781831E+03;3; -1.5344758E+00;  0.0000000E+00;  1.1745908E+01;0;  4.2933485E-01;  1.4778898E+03;  0.0000000E+00; -3.1223276E+00;  4.0000000E+04;  0.0000000E+00;  3.8759691E+04;  4.7119325E-01;  0.0000000E+00; -4.1858401E-02;  1.4402419E+04;
  1.3861524E+00;  9.9999998E-03; -2.6440060E-01;8428; -3.8873840E-02;  0.0000000E+00; -2.8615166E-02;  9.9322247E+02;  5.2975726E-01; -5.6149521E+03;3; -7.6728469E-01;  0.0000000E+00;  1.2335424E+01;0;  5.2515554E-01;  1.4504796E+03;  0.0000000E+00; -4.1621604E+00;  4.0000000E+04;  0.0000000E+00;  3.8764020E+04;  5.8670360E-01;  0.0000000E+00; -6.1548077E-02;  2.6386807E+04;
  1.4320208E+00;  9.9999998E-03; -2.0375994E-01;8495; -2.5861165E-02;  0.0000000E+00; -5.0540596E-02;  1.0017504E+03;  5.4855633E-01;  1.4501798E+03;3; -8.1788549E+00;  0.0000000E+00;  1.8850758E+01;0;  3.3145678E+00;  1.3796699E+03;  0.0000000E+00; -1.1085097E+00;  4.0000000E+04;  0.0000000E+00;  3.8621738E+04;  3.3289366E+00;  0.0000000E+00; -1.4368780E-02;  5.4134082E+03;
  1.4321144E+00;  9.9999998E-03; -2.1400601E-01;8494; -2.9524392E-02;  0.0000000E+00; -4.9919788E-02;  1.0012853E+03;  5.4848099E-01;  1.0648214E+03;3; -6.6589561E+00;  0.0000000E+00;  1.8831148E+01;0;  3.3363554E+00;  1.3785660E+03;  0.0000000E+00; -1.0786886E+00;  4.0000000E+04;  0.0000000E+00;  3.8625453E+04;  3.3845620E+00;  0.0000000E+00; -4.8206683E-02;  5.2817915E+03;
  1.4327192E+00;  9.9999998E-03; -1.9355068E-01;8496; -2.2174146E-02;  0.0000000E+00; -5.1467355E-02;  1.0022335E+03;  5.4894233E-01;  1.8503513E+03;3; -9.7591982E+00;  0.0000000E+00;  1.8967016E+01;0;  3.3238065E+00;  1.3792101E+03;  0.0000000E+00; -1.1020033E+00;  4.0000000E+04;  0.0000000E+00;  3.8613836E+04;  3.3060002E+00;  0.0000000E+00;  1.7806174E-02;  6.0683247E+03;
  1.4327265E+00;  9.9999998E-03; -2.2428089E-01;8493; -3.3226702E-02;  0.0000000E+00; -4.9397551E-02;  1.0007281E+03;  5.4854971E-01;  6.0322083E+02;3; -5.2287459E+00;  0.0000000E+00;  1.8852381E+01;0;  3.3712637E+00;  1.3766971E+03;  0.0000000E+00; -1.1041541E+00;  4.0000000E+04;  0.0000000E+00;  3.8617844E+04;  3.4571834E+00;  0.0000000E+00; -8.5919663E-02;  6.5431279E+03;
  1.4343696E+00;  9.9999998E-03; -1.8341811E-01;8497; -1.8331502E-02;  0.0000000E+00; -5.2842084E-02;  1.0027813E+03;  5.4970592E-01;  2.3041477E+03;3; -1.1348045E+01;  0.0000000E+00;  1.9248709E+01;0;  3.3731015E+00;  1.3768491E+03;  0.0000000E+00; -1.0051388E+00;  4.0000000E+04;  0.0000000E+00;  3.8604059E+04;  3.3223023E+00;  0.0000000E+00;  5.0799064E-02;  6.7903145E+03;
  1.4338368E+00;  9.9999998E-03; -2.3452918E-01;8492; -3.6933988E-02;  0.0000000E+00; -4.8762180E-02;  1.0000359E+03;  5.4874855E-01;  2.9825243E+01;3; -3.9288092E+00;  0.0000000E+00;  1.8931715E+01;0;  3.4183409E+00;  1.3743816E+03;  0.0000000E+00; -1.3143111E+00;  4.0000000E+04;  0.0000000E+00;  3.8595559E+04;  3.5480299E+00;  0.0000000E+00; -1.2968889E-01;  9.8995117E+03;
  1.4355122E+00;  9.9999998E-03; -2.4467199E-01;8491; -4.0630333E-02;  0.0000000E+00; -4.8028577E-02;  9.9946735E+02;  5.4921126E-01; -4.4125519E+02;3; -2.8507936E+00;  0.0000000E+00;  1.9211931E+01;0;  3.4838779E+00;  1.3708468E+03;  0.0000000E+00; -1.8853884E+00;  4.0000000E+04;  0.0000000E+00;  3.8581527E+04;  3.6657708E+00;  0.0000000E+00; -1.8189283E-01;  1.4039132E+04;
  1.4370822E+00;  9.9999998E-03; -1.7340027E-01;8498; -1.4056868E-02;  0.0000000E+00; -5.4885816E-02;  1.0033961E+03;  5.5080247E-01;  2.8135422E+03;3; -1.3165988E+01;  0.0000000E+00;  2.0026615E+01;0;  3.4654281E+00;  1.3727653E+03;  0.0000000E+00; -8.0479789E-01;  4.0000000E+04;  0.0000000E+00;  3.8594410E+04;  3.3782582E+00;  0.0000000E+00;  8.7169796E-02;  7.4028066E+03;
  1.4379395E+00;  9.9999998E-03; -2.5478745E-01;8490; -4.4340480E-02;  0.0000000E+00; -4.7042757E-02;  9.9889777E+02;  5.5016249E-01; -9.1312439E+02;3; -2.0340109E+00;  0.0000000E+00;  1.9818403E+01;0;  3.5815561E+00;  1.3646835E+03;  0.0000000E+00; -2.9920850E+00;  4.0000000E+04;  0.0000000E+00;  3.8574621E+04;  3.8291848E+00;  0.0000000E+00; -2.4762870E-01;  2.0236041E+04;
  1.4395648E+00;  9.9999998E-03; -1.6329136E-01;8499; -9.0641500E-03;  0.0000000E+00; -5.7077073E-02;  1.0038986E+03;  5.5160761E-01;  3.2297078E+03;3; -1.6602934E+01;  0.0000000E+00;  2.1436628E+01;0;  3.5200453E+00;  1.3698862E+03;  0.0000000E+00; -5.3144950E-01;  4.0000000E+04;  0.0000000E+00;  3.8585355E+04;  3.3949306E+00;  0.0000000E+00;  1.2511462E-01;  8.0704189E+03;
  1.4404409E+00;  9.9999998E-03; -1.5296742E-01;8500; -1.8609891E-03;  0.0000000E+00; -5.8751959E-02;  1.0042168E+03;  5.5175090E-01;  3.4933918E+03;3; -3.1100826E+01;  0.0000000E+00;  2.4041321E+01;0;  3.4707153E+00;  1.3699359E+03;  0.0000000E+00; -2.3681034E-01;  4.0000000E+04;  0.0000000E+00;  3.8579762E+04;  3.3115969E+00;  0.0000000E+00;  1.5911832E-01;  8.6352725E+03;
  1.4401673E+00;  9.9999998E-03; -1.4260463E-01;8501;  4.9864226E-03;  0.0000000E+00; -5.9446186E-02;  1.0044407E+03;  5.5148858E-01;  3.6789604E+03;3; -4.0911873E+01;  0.0000000E+00;  2.4154135E+01;0;  3.3596077E+00;  1.3716719E+03;  0.0000000E+00;  2.8855674E-02;  4.0000000E+04;  0.0000000E+00;  3.8580238E+04;  3.1701753E+00;  0.0000000E+00;  1.8943238E-01;  8.6618037E+03;
  1.4386305E+00;  9.9999998E-03; -1.2215848E-01;8503;  1.4750180E-02;  0.0000000E+00; -5.9584524E-02;  1.0047255E+03;  5.5073744E-01;  3.9147996E+03;3; -4.5788620E+01;  0.0000000E+00;  2.4556076E+01;0;  3.1143928E+00;  1.3758315E+03;  0.0000000E+00;  3.4740570E-01;  4.0000000E+04;  0.0000000E+00;  3.8592598E+04;  2.8638062E+00;  0.0000000E+00;  2.5058660E-01;  7.6099600E+03;
  1.4393724E+00;  9.9999998E-03; -1.3232800E-01;8502;  9.3663167E-03;  0.0000000E+00; -5.9498101E-02;  1.0046162E+03;  5.5107147E-01;  3.8243350E+03;3; -4.2659592E+01;  0.0000000E+00;  2.4172846E+01;0;  3.2297781E+00;  1.3740024E+03;  0.0000000E+00;  2.2712334E-01;  4.0000000E+04;  0.0000000E+00;  3.8586004E+04;  3.0109944E+00;  0.0000000E+00;  2.1878371E-01;  8.2142939E+03;
  1.4385692E+00;  9.9999998E-03; -1.1202741E-01;8504;  2.7504150E-02;  0.0000000E+00; -6.0410757E-02;  1.0048410E+03;  5.5076873E-01;  4.0104971E+03;3; -5.0936909E+01;  0.0000000E+00;  2.3301245E+01;0;  3.0417352E+00;  1.3759133E+03;  0.0000000E+00;  4.0041021E-01;  4.0000000E+04;  0.0000000E+00;  3.8597395E+04;  2.7532461E+00;  0.0000000E+00;  2.8848916E-01;  7.0918486E+03;
  1.4422003E+00;  9.9999998E-03; -2.6491666E-01;8489; -4.7923509E-02;  0.0000000E+00; -4.4964682E-02;  9.9810138E+02;  5.5196649E-01; -1.5729285E+03;3; -1.3405974E+00;  0.0000000E+00;  1.9883211E+01;0;  3.7763500E+00;  1.3535542E+03;  0.0000000E+00; -4.7419567E+00;  4.0000000E+04;  0.0000000E+00;  3.8565070E+04;  4.1250696E+00;  0.0000000E+00; -3.4871954E-01;  2.8912170E+04;
  1.4882423E+00;  9.9999998E-03; -2.1387994E-01;8555;  4.5603418E-01;  0.0000000E+00; -1.4586830E-01;  1.0025885E+03;  5.2981234E-01;  2.1443574E+03;3; -2.2506241E+01;  0.0000000E+00;  2.7029698E+00;0;  4.7804966E+00;  1.4822061E+03;  0.0000000E+00;  8.5474867E-01;  4.0000000E+04;  0.0000000E+00;  3.8608410E+04;  4.6702471E+00;  0.0000000E+00;  1.1024942E-01;  5.3814326E+03;
  1.4884065E+00;  9.9999998E-03; -2.0369865E-01;8556;  4.5336518E-01;  0.0000000E+00; -1.4532329E-01;  1.0030008E+03;  5.2963150E-01;  2.4858503E+03;3; -1.3536968E+01;  0.0000000E+00;  2.4626694E+00;0;  4.6334329E+00;  1.4844414E+03;  0.0000000E+00;  9.2641431E-01;  4.0000000E+04;  0.0000000E+00;  3.8605285E+04;  4.4849138E+00;  0.0000000E+00;  1.4851917E-01;  4.8249604E+03;
  1.4889250E+00;  9.9999998E-03; -2.2409543E-01;8554;  4.6039751E-01;  0.0000000E+00; -1.4566383E-01;  1.0021967E+03;  5.2947891E-01;  1.8197495E+03;3; -3.0221661E+01;  0.0000000E+00;  2.2541649E+00;0;  4.9118929E+00;  1.4826705E+03;  0.0000000E+00;  5.7426357E-01;  4.0000000E+04;  0.0000000E+00;  3.8606891E+04;  4.8282156E+00;  0.0000000E+00;  8.3677232E-02;  6.9886006E+03;
  1.4894898E+00;  9.9999998E-03; -1.9357331E-01;8557;  4.5165497E-01;  0.0000000E+00; -1.4416048E-01;  1.0034719E+03;  5.2905315E-01;  2.8761248E+03;3; -3.2433732E+00;  0.0000000E+00;  1.1182582E+00;0;  4.4635096E+00;  1.4887162E+03;  0.0000000E+00;  8.9335686E-01;  4.0000000E+04;  0.0000000E+00;  3.8600363E+04;  4.2677894E+00;  0.0000000E+00;  1.9571997E-01;  5.0000850E+03;
  1.4901066E+00;  9.9999998E-03; -2.3432334E-01;8553;  4.6631896E-01;  0.0000000E+00; -1.4486353E-01;  1.0017626E+03;  5.2878600E-01;  1.4601821E+03;3; -3.6705189E+01;  0.0000000E+00;  1.5154891E+00;0;  5.0410595E+00;  1.4851554E+03;  0.0000000E+00; -7.1566090E-02;  4.0000000E+04;  0.0000000E+00;  3.8595824E+04;  4.9700508E+00;  0.0000000E+00;  7.1008787E-02;  1.0010588E+04;
  1.4912876E+00;  9.9999998E-03; -1.8349834E-01;8558;  4.4920719E-01;  0.0000000E+00; -1.4214648E-01;  1.0039685E+03;  5.2824605E-01;  3.2875283E+03;3;  8.0717678E+00;  0.0000000E+00; -1.3835995E+00;0;  4.2708097E+00;  1.4940790E+03;  0.0000000E+00;  8.1226647E-01;  4.0000000E+04;  0.0000000E+00;  3.8595168E+04;  4.0230665E+00;  0.0000000E+00;  2.4774316E-01;  5.4931724E+03;
  1.4933666E+00;  9.9999998E-03; -1.7341308E-01;8559;  4.4441754E-01;  0.0000000E+00; -1.3790037E-01;  1.0043940E+03;  5.2733886E-01;  3.6399724E+03;3;  1.9647203E+01;  0.0000000E+00; -5.0419202E+00;0;  4.0652432E+00;  1.4996925E+03;  0.0000000E+00;  7.1134996E-01;  4.0000000E+04;  0.0000000E+00;  3.8589699E+04;  3.7654414E+00;  0.0000000E+00;  2.9980186E-01;  6.1238901E+03;
  1.4918233E+00;  9.9999998E-03; -2.4450260E-01;8552;  4.7600171E-01;  0.0000000E+00; -1.4293602E-01;  1.0013986E+03;  5.2785170E-01;  1.1585839E+03;3; -4.1142033E+01;  0.0000000E+00;  7.4483699E-01;0;  5.1648355E+00;  1.4892169E+03;  0.0000000E+00; -1.2688621E+00;  4.0000000E+04;  0.0000000E+00;  3.8584773E+04;  5.0917058E+00;  0.0000000E+00;  7.3129885E-02;  1.4463083E+04;
  1.4951138E+00;  9.9999998E-03; -1.6322172E-01;8560;  4.3604064E-01;  0.0000000E+00; -1.3047761E-01;  1.0046017E+03;  5.2645725E-01;  3.8120913E+03;3;  3.0323837E+01;  0.0000000E+00; -7.5837941E+00;0;  3.8681426E+00;  1.5046553E+03;  0.0000000E+00;  6.0041076E-01;  4.0000000E+04;  0.0000000E+00;  3.8584164E+04;  3.5210216E+00;  0.0000000E+00;  3.4712094E-01;  6.8092769E+03;
  1.4941998E+00;  9.9999998E-03; -2.5465438E-01;8551;  4.9137324E-01;  0.0000000E+00; -1.3894065E-01;  1.0011408E+03;  5.2687711E-01;  9.4507440E+02;3; -4.3091705E+01;  0.0000000E+00;  2.2390938E-01;0;  5.2677550E+00;  1.4937197E+03;  0.0000000E+00; -3.1624582E+00;  4.0000000E+04;  0.0000000E+00;  3.8575852E+04;  5.1849594E+00;  0.0000000E+00;  8.2795672E-02;  2.0888832E+04;
  1.4963773E+00;  9.9999998E-03; -1.5292880E-01;8561;  4.2534652E-01;  0.0000000E+00; -1.2109979E-01;  1.0045779E+03;  5.2567834E-01;  3.7923345E+03;3;  3.9994770E+01;  0.0000000E+00; -7.5641203E+00;0;  3.6865396E+00;  1.5084960E+03;  0.0000000E+00;  4.9849641E-01;  4.0000000E+04;  0.0000000E+00;  3.8580891E+04;  3.2992697E+00;  0.0000000E+00;  3.8726988E-01;  7.2394297E+03;
  1.4948059E+00;  9.9999998E-03; -1.1192095E-01;8565;  3.7779978E-01;  0.0000000E+00; -9.6362524E-02;  1.0033735E+03;  5.2582335E-01;  2.7946328E+03;3;  6.3687592E+01;  0.0000000E+00; -5.6942377E+00;0;  3.2263680E+00;  1.5033715E+03;  0.0000000E+00;  3.9648685E-01;  4.0000000E+04;  0.0000000E+00;  3.8603996E+04;  2.7317092E+00;  0.0000000E+00;  4.9465883E-01;  5.7840737E+03;
  1.4956678E+00;  9.9999998E-03; -1.2206101E-01;8564;  3.8900885E-01;  0.0000000E+00; -1.0124291E-01;  1.0036838E+03;  5.2544534E-01;  3.0516853E+03;3;  5.9445572E+01;  0.0000000E+00; -5.6930871E+00;0;  3.3188872E+00;  1.5064009E+03;  0.0000000E+00;  3.8831547E-01;  4.0000000E+04;  0.0000000E+00;  3.8596227E+04;  2.8490872E+00;  0.0000000E+00;  4.6980008E-01;  6.3201226E+03;
  1.4969697E+00;  9.9999998E-03; -1.4258781E-01;8562;  4.1360703E-01;  0.0000000E+00; -1.1263844E-01;  1.0043816E+03;  5.2518725E-01;  3.6296843E+03;3;  4.8449741E+01;  0.0000000E+00; -6.5628982E+00;0;  3.5297623E+00;  1.5102678E+03;  0.0000000E+00;  4.2476964E-01;  4.0000000E+04;  0.0000000E+00;  3.8582477E+04;  3.1101794E+00;  0.0000000E+00;  4.1958290E-01;  7.1772007E+03;
  1.4965885E+00;  9.9999998E-03; -1.3228025E-01;8563;  4.0111884E-01;  0.0000000E+00; -1.0624646E-01;  1.0040514E+03;  5.2516872E-01;  3.3562375E+03;3;  5.4716457E+01;  0.0000000E+00; -5.8517017E+00;0;  3.4127002E+00;  1.5091501E+03;  0.0000000E+00;  3.8995081E-01;  4.0000000E+04;  0.0000000E+00;  3.8588203E+04;  2.9669449E+00;  0.0000000E+00;  4.4575530E-01;  6.7883213E+03;
  1.4978486E+00;  9.9999998E-03; -2.6479515E-01;8550;  5.1767421E-01;  0.0000000E+00; -1.2895228E-01;  1.0010574E+03;  5.2587926E-01;  8.7594226E+02;3; -4.2320415E+01;  0.0000000E+00;  5.5590147E-01;0;  5.2675967E+00;  1.4985190E+03;  0.0000000E+00; -5.6893668E+00;  4.0000000E+04;  0.0000000E+00;  3.8567754E+04;  5.2153373E+00;  0.0000000E+00;  5.2259505E-02;  2.7808348E+04;
  1.5385195E+00;  9.9999998E-03; -2.0343252E-01;8617;  5.5552006E-01;  0.0000000E+00; -1.0902459E-01;  1.0059562E+03;  4.8689049E-01;  4.9338218E+03;3;  6.2757084E+01;  0.0000000E+00; -3.0062851E+01;0;  2.2373776E+00;  1.7646676E+03;  0.0000000E+00;  2.3685279E+00;  4.0000000E+04;  0.0000000E+00;  3.8642871E+04;  1.9117988E+00;  0.0000000E+00;  3.2557875E-01;  2.0887827E+03;
  1.5386864E+00;  9.9999998E-03; -2.1358232E-01;8616;  5.7704127E-01;  0.0000000E+00; -1.1416599E-01;  1.0057250E+03;  4.8697081E-01;  4.7422534E+03;3;  6.2040878E+01;  0.0000000E+00; -3.2195541E+01;0;  2.3585923E+00;  1.7639197E+03;  0.0000000E+00;  1.9919567E+00;  4.0000000E+04;  0.0000000E+00;  3.8640047E+04;  2.0574944E+00;  0.0000000E+00;  3.0109781E-01;  3.9036406E+03;
  1.5390741E+00;  9.9999998E-03; -1.9327490E-01;8618;  5.3471982E-01;  0.0000000E+00; -1.0346891E-01;  1.0061727E+03;  4.8626548E-01;  5.1130376E+03;3;  6.3814583E+01;  0.0000000E+00; -2.8152851E+01;0;  2.0896628E+00;  1.7686543E+03;  0.0000000E+00;  2.4583244E+00;  4.0000000E+04;  0.0000000E+00;  3.8646414E+04;  1.7373581E+00;  0.0000000E+00;  3.5230470E-01;  6.7596948E+02;
  1.5394491E+00;  9.9999998E-03; -2.2375338E-01;8615;  5.9924829E-01;  0.0000000E+00; -1.1961683E-01;  1.0055108E+03;  4.8651740E-01;  4.5647988E+03;3;  6.2170372E+01;  0.0000000E+00; -3.6214451E+01;0;  2.4593432E+00;  1.7663903E+03;  0.0000000E+00;  1.2177732E+00;  4.0000000E+04;  0.0000000E+00;  3.8637000E+04;  2.1747293E+00;  0.0000000E+00;  2.8461391E-01;  6.3213135E+03;
  1.5406621E+00;  9.9999998E-03; -2.3395570E-01;8614;  6.2166637E-01;  0.0000000E+00; -1.2636620E-01;  1.0052731E+03;  4.8560333E-01;  4.3678867E+03;3;  6.3071529E+01;  0.0000000E+00; -4.1731617E+01;0;  2.5516424E+00;  1.7718528E+03;  0.0000000E+00; -1.2846349E-01;  4.0000000E+04;  0.0000000E+00;  3.8628875E+04;  2.2654283E+00;  0.0000000E+00;  2.8621420E-01;  1.0232841E+04;
  1.5405209E+00;  9.9999998E-03; -1.8314134E-01;8619;  5.1451671E-01;  0.0000000E+00; -9.6922353E-02;  1.0062769E+03;  4.8508465E-01;  5.1993218E+03;3;  6.5494247E+01;  0.0000000E+00; -2.6820398E+01;0;  1.9107888E+00;  1.7760011E+03;  0.0000000E+00;  2.3394222E+00;  4.0000000E+04;  0.0000000E+00;  3.8648676E+04;  1.5340654E+00;  0.0000000E+00;  3.7672344E-01;  2.1654175E+02;
  1.5423070E+00;  9.9999998E-03; -2.4413535E-01;8613;  6.4461261E-01;  0.0000000E+00; -1.3563140E-01;  1.0051110E+03;  4.8436788E-01;  4.2335742E+03;3;  6.3204971E+01;  0.0000000E+00; -4.8482525E+01;0;  2.6509764E+00;  1.7796455E+03;  0.0000000E+00; -2.2414942E+00;  4.0000000E+04;  0.0000000E+00;  3.8621742E+04;  2.3242607E+00;  0.0000000E+00;  3.2671571E-01;  1.6948176E+04;
  1.5425775E+00;  9.9999998E-03; -1.7304347E-01;8620;  4.9471131E-01;  0.0000000E+00; -8.9286730E-02;  1.0062330E+03;  4.8359701E-01;  5.1629546E+03;3;  6.7554413E+01;  0.0000000E+00; -2.5466434E+01;0;  1.7181121E+00;  1.7849742E+03;  0.0000000E+00;  2.0758407E+00;  4.0000000E+04;  0.0000000E+00;  3.8649711E+04;  1.3237935E+00;  0.0000000E+00;  3.9431858E-01;  5.5160999E+02;
  1.5443764E+00;  9.9999998E-03; -2.5429547E-01;8612;  6.6377205E-01;  0.0000000E+00; -1.4297570E-01;  1.0051041E+03;  4.8303795E-01;  4.2279219E+03;3;  5.6172924E+01;  0.0000000E+00; -3.9868984E+01;0;  2.7590282E+00;  1.7882087E+03;  0.0000000E+00; -5.2006712E+00;  4.0000000E+04;  0.0000000E+00;  3.8620133E+04;  2.3475838E+00;  0.0000000E+00;  4.1144437E-01;  2.7382664E+04;
  1.5446944E+00;  9.9999998E-03; -1.6291893E-01;8621;  4.7501436E-01;  0.0000000E+00; -8.1074677E-02;  1.0059576E+03;  4.8209026E-01;  4.9348257E+03;3;  6.9454697E+01;  0.0000000E+00; -2.3746016E+01;0;  1.5372182E+00;  1.7934932E+03;  0.0000000E+00;  1.7221483E+00;  4.0000000E+04;  0.0000000E+00;  3.8650855E+04;  1.1343915E+00;  0.0000000E+00;  4.0282664E-01;  5.2784259E+02;
  1.5453845E+00;  9.9999998E-03; -1.1173218E-01;8626;  3.8945749E-01;  0.0000000E+00; -5.3969782E-02;  1.0022289E+03;  4.8095369E-01;  1.8463099E+03;3;  7.7296364E+01;  0.0000000E+00; -1.5837260E+01;0;  1.1261321E+00;  1.7868080E+03;  0.0000000E+00;  3.4962356E-01;  4.0000000E+04;  0.0000000E+00;  3.8684223E+04;  7.2573137E-01;  0.0000000E+00;  4.0040079E-01;  5.5619209E+03;
  1.5464005E+00;  9.9999998E-03; -1.5269890E-01;8622;  4.5569977E-01;  0.0000000E+00; -7.3300399E-02;  1.0054300E+03;  4.8078558E-01;  4.4977627E+03;3;  7.0649284E+01;  0.0000000E+00; -2.1914427E+01;0;  1.3848348E+00;  1.8000371E+03;  0.0000000E+00;  1.3301560E+00;  4.0000000E+04;  0.0000000E+00;  3.8652574E+04;  9.8157048E-01;  0.0000000E+00;  4.0326425E-01;  6.7035687E+02;
  1.5462952E+00;  9.9999998E-03; -1.2184773E-01;8625;  4.0389669E-01;  0.0000000E+00; -5.7634432E-02;  1.0029930E+03;  4.8034889E-01;  2.4791519E+03;3;  7.5612045E+01;  0.0000000E+00; -1.7478796E+01;0;  1.1609496E+00;  1.7937036E+03;  0.0000000E+00;  4.6159613E-01;  4.0000000E+04;  0.0000000E+00;  3.8673660E+04;  7.6373512E-01;  0.0000000E+00;  3.9721444E-01;  4.0043464E+03;
  1.5471327E+00;  9.9999998E-03; -1.4237402E-01;8623;  4.3711385E-01;  0.0000000E+00; -6.6868231E-02;  1.0046867E+03;  4.8006499E-01;  3.8820889E+03;3;  7.2041046E+01;  0.0000000E+00; -2.0264065E+01;0;  1.2775483E+00;  1.8020111E+03;  0.0000000E+00;  9.5805663E-01;  4.0000000E+04;  0.0000000E+00;  3.8656820E+04;  8.7753439E-01;  0.0000000E+00;  4.0001389E-01;  1.2737649E+03;
  1.5470163E+00;  9.9999998E-03; -1.3206173E-01;8624;  4.1973951E-01;  0.0000000E+00; -6.1737519E-02;  1.0038406E+03;  4.7996250E-01;  3.1812109E+03;3;  7.3779549E+01;  0.0000000E+00; -1.8818233E+01;0;  1.2064456E+00;  1.7994629E+03;  0.0000000E+00;  6.6152894E-01;  4.0000000E+04;  0.0000000E+00;  3.8664238E+04;  8.0930734E-01;  0.0000000E+00;  3.9713824E-01;  2.4300161E+03;
  1.5473609E+00;  9.9999998E-03; -2.6445770E-01;8611;  6.7626947E-01;  0.0000000E+00; -1.4246459E-01;  1.0051942E+03;  4.8163676E-01;  4.3024360E+03;3;  5.0550739E+01;  0.0000000E+00; -3.5271740E+01;0;  2.8041925E+00;  1.7973286E+03;  0.0000000E+00; -8.7724476E+00;  4.0000000E+04;  0.0000000E+00;  3.8616992E+04;  2.3045540E+00;  0.0000000E+00;  4.9963844E-01;  3.9547574E+04;
  1.5845883E+00;  9.9999998E-03; -2.0321293E-01;8678;  5.6158912E-01;  0.0000000E+00; -4.2712830E-02;  1.0011639E+03;  4.3962374E-01;  9.6388702E+02;3;  7.6513763E+01;  0.0000000E+00; -5.0076118E+01;0;  6.5579545E-01;  2.1396934E+03;  0.0000000E+00;  2.6780252E+00;  4.0000000E+04;  0.0000000E+00;  3.8704430E+04;  3.0894688E-01;  0.0000000E+00;  3.4684861E-01;  6.0756821E+03;
  1.5850923E+00;  9.9999998E-03; -1.9306096E-01;8679;  5.3950644E-01;  0.0000000E+00; -3.6738925E-02;  1.0014343E+03;  4.3890378E-01;  1.1878989E+03;3;  7.6009354E+01;  0.0000000E+00; -4.8069569E+01;0;  5.9565181E-01;  2.1458984E+03;  0.0000000E+00;  2.8697867E+00;  4.0000000E+04;  0.0000000E+00;  3.8712023E+04;  2.6143220E-01;  0.0000000E+00;  3.3421960E-01;  6.7715244E+03;
  1.5850286E+00;  9.9999998E-03; -2.1335246E-01;8677;  5.8343071E-01;  0.0000000E+00; -4.6492826E-02;  1.0008279E+03;  4.3955088E-01;  6.8566833E+02;3;  7.7802063E+01;  0.0000000E+00; -5.2070068E+01;0;  7.0450222E-01;  2.1398606E+03;  0.0000000E+00;  2.1321986E+00;  4.0000000E+04;  0.0000000E+00;  3.8698453E+04;  3.5044226E-01;  0.0000000E+00;  3.5405993E-01;  6.0032183E+03;
  1.5864661E+00;  9.9999998E-03; -1.8293485E-01;8680;  5.1750594E-01;  0.0000000E+00; -2.9519707E-02;  1.0015367E+03;  4.3758455E-01;  1.2726976E+03;3;  7.6298363E+01;  0.0000000E+00; -4.5103371E+01;0;  5.2955109E-01;  2.1568918E+03;  0.0000000E+00;  2.8096194E+00;  4.0000000E+04;  0.0000000E+00;  3.8717230E+04;  2.1576266E-01;  0.0000000E+00;  3.1378844E-01;  7.3554219E+03;
  1.5863049E+00;  9.9999998E-03; -2.2349657E-01;8676;  6.0525388E-01;  0.0000000E+00; -4.8030712E-02;  1.0005210E+03;  4.3869838E-01;  4.3144000E+02;3;  7.9700661E+01;  0.0000000E+00; -5.3482346E+01;0;  7.3902678E-01;  2.1464653E+03;  0.0000000E+00;  1.0913182E+00;  4.0000000E+04;  0.0000000E+00;  3.8695328E+04;  3.8077387E-01;  0.0000000E+00;  3.5825291E-01;  7.6802173E+03;
  1.5884830E+00;  9.9999998E-03; -1.7285645E-01;8681;  4.9577102E-01;  0.0000000E+00; -2.1981070E-02;  1.0014235E+03;  4.3590751E-01;  1.1788934E+03;3;  7.6606285E+01;  0.0000000E+00; -4.2457272E+01;0;  4.6344614E-01;  2.1704893E+03;  0.0000000E+00;  2.5857437E+00;  4.0000000E+04;  0.0000000E+00;  3.8719773E+04;  1.7922544E-01;  0.0000000E+00;  2.8422070E-01;  7.6459741E+03;
  1.5881840E+00;  9.9999998E-03; -2.3366150E-01;8675;  6.2724560E-01;  0.0000000E+00; -4.7901522E-02;  1.0003267E+03;  4.3725762E-01;  2.7051111E+02;3;  8.2132599E+01;  0.0000000E+00; -5.4996849E+01;0;  7.5926483E-01;  2.1584731E+03;  0.0000000E+00; -6.4813799E-01;  4.0000000E+04;  0.0000000E+00;  3.8692812E+04;  3.9842552E-01;  0.0000000E+00;  3.6083934E-01;  1.2957224E+04;
  1.5906471E+00;  9.9999998E-03; -1.6276710E-01;8682;  4.7444907E-01;  0.0000000E+00; -1.5062463E-02;  1.0010433E+03;  4.3421093E-01;  8.6404413E+02;3;  7.6803894E+01;  0.0000000E+00; -3.9929447E+01;0;  4.0458530E-01;  2.1835000E+03;  0.0000000E+00;  2.2725799E+00;  4.0000000E+04;  0.0000000E+00;  3.8720609E+04;  1.5735224E-01;  0.0000000E+00;  2.4723306E-01;  7.7608345E+03;
  1.5903248E+00;  9.9999998E-03; -2.4382022E-01;8674;  6.4924937E-01;  0.0000000E+00; -4.8560861E-02;  1.0004016E+03;  4.3559432E-01;  3.3250754E+02;3;  8.3754913E+01;  0.0000000E+00; -5.9412018E+01;0;  7.7304107E-01;  2.1732366E+03;  0.0000000E+00; -3.3001475E+00;  4.0000000E+04;  0.0000000E+00;  3.8693770E+04;  4.0527156E-01;  0.0000000E+00;  3.6776951E-01;  2.4330066E+04;
  1.5922817E+00;  9.9999998E-03; -1.5257876E-01;8683;  4.5378721E-01;  0.0000000E+00; -9.8465625E-03;  1.0003540E+03;  4.3289506E-01;  2.9321149E+02;3;  7.7008896E+01;  0.0000000E+00; -3.6726173E+01;0;  3.5836643E-01;  2.1920190E+03;  0.0000000E+00;  1.9171754E+00;  4.0000000E+04;  0.0000000E+00;  3.8721949E+04;  1.5017225E-01;  0.0000000E+00;  2.0819418E-01;  7.9312354E+03;
  1.5923713E+00;  9.9999998E-03; -2.5397485E-01;8673;  6.7190558E-01;  0.0000000E+00; -5.8570031E-02;  1.0008960E+03;  4.3409038E-01;  7.4201227E+02;3;  8.8029099E+01;  0.0000000E+00; -5.8802795E+01;0;  8.3760715E-01;  2.1877556E+03;  0.0000000E+00; -6.9163680E+00;  4.0000000E+04;  0.0000000E+00;  3.8701043E+04;  4.0508676E-01;  0.0000000E+00;  4.3252042E-01;  4.2330820E+04;
  1.5930799E+00;  9.9999998E-03; -1.4229977E-01;8684;  4.3409774E-01;  0.0000000E+00; -6.5698153E-03;  9.9935858E+02;  4.3215930E-01; -5.3118420E+02;3;  7.6647690E+01;  0.0000000E+00; -3.3328278E+01;0;  3.2356441E-01;  2.1941018E+03;  0.0000000E+00;  1.5530375E+00;  4.0000000E+04;  0.0000000E+00;  3.8724449E+04;  1.5117542E-01;  0.0000000E+00;  1.7238897E-01;  8.3448916E+03;
  1.5920837E+00;  9.9999998E-03; -1.1169612E-01;8687;  3.8358125E-01;  0.0000000E+00; -4.2559733E-03;  9.9551208E+02;  4.3270937E-01; -3.7167312E+03;3;  7.7778297E+01;  0.0000000E+00; -2.4925592E+01;0;  2.5252929E-01;  2.1725967E+03;  0.0000000E+00;  7.4971718E-01;  4.0000000E+04;  0.0000000E+00;  3.8746074E+04;  1.5122454E-01;  0.0000000E+00;  1.0130476E-01;  1.1455499E+04;
  1.5940294E+00;  9.9999998E-03; -2.6415759E-01;8672;  6.9218242E-01;  0.0000000E+00; -6.7308746E-02;  1.0016158E+03;  4.3298280E-01;  1.3381956E+03;3;  8.5396584E+01;  0.0000000E+00; -4.3117268E+01;0;  9.3594348E-01;  2.2001157E+03;  0.0000000E+00; -1.1132485E+01;  4.0000000E+04;  0.0000000E+00;  3.8699188E+04;  4.0365258E-01;  0.0000000E+00;  5.3229088E-01;  6.3203285E+04;
  1.5931145E+00;  9.9999998E-03; -1.3202959E-01;8685;  4.1570941E-01;  0.0000000E+00; -4.8903991E-03;  9.9813300E+02;  4.3200293E-01; -1.5461648E+03;3;  7.6434456E+01;  0.0000000E+00; -2.9909746E+01;0;  2.9630926E-01;  2.1901082E+03;  0.0000000E+00;  1.2192684E+00;  4.0000000E+04;  0.0000000E+00;  3.8729301E+04;  1.5348911E-01;  0.0000000E+00;  1.4282015E-01;  9.0786582E+03;
  1.5926880E+00;  9.9999998E-03; -1.2183179E-01;8686;  3.9893585E-01;  0.0000000E+00; -4.3320432E-03;  9.9679889E+02;  4.3225110E-01; -2.6510403E+03;3;  7.6786781E+01;  0.0000000E+00; -2.7252201E+01;0;  2.7319354E-01;  2.1821707E+03;  0.0000000E+00;  9.4868511E-01;  4.0000000E+04;  0.0000000E+00;  3.8736469E+04;  1.5365811E-01;  0.0000000E+00;  1.1953542E-01;  1.0149200E+04;
  1.6259542E+00;  9.9999998E-03; -1.9293796E-01;8740;  5.3605312E-01;  0.0000000E+00;  3.4330335E-02;  9.9536206E+02;  3.9045021E-01; -3.8399956E+03;3;  7.6337852E+01;  0.0000000E+00; -4.3958233E+01;0;  4.4179845E-01;  2.6757810E+03;  0.0000000E+00;  2.5449495E+00;  4.0000000E+04;  0.0000000E+00;  3.8760723E+04;  2.7647716E-01;  0.0000000E+00;  1.6532128E-01;  1.1115597E+04;
  1.6262993E+00;  9.9999998E-03; -2.0311704E-01;8739;  5.5714506E-01;  0.0000000E+00;  3.4841236E-02;  9.9494733E+02;  3.9049807E-01; -4.1833564E+03;3;  7.7442635E+01;  0.0000000E+00; -4.5070404E+01;0;  4.3104684E-01;  2.6743020E+03;  0.0000000E+00;  2.4236729E+00;  4.0000000E+04;  0.0000000E+00;  3.8757320E+04;  2.2685276E-01;  0.0000000E+00;  2.0419408E-01;  1.0682831E+04;
  1.6266756E+00;  9.9999998E-03; -1.8273623E-01;8741;  5.1493728E-01;  0.0000000E+00;  3.5653021E-02;  9.9564795E+02;  3.8956240E-01; -3.6032402E+03;3;  7.6685959E+01;  0.0000000E+00; -4.2991989E+01;0;  4.6515599E-01;  2.6872791E+03;  0.0000000E+00;  2.4504957E+00;  4.0000000E+04;  0.0000000E+00;  3.8763227E+04;  3.4711683E-01;  0.0000000E+00;  1.1803915E-01;  1.1302968E+04;
  1.6277763E+00;  9.9999998E-03; -2.1320951E-01;8738;  5.7827997E-01;  0.0000000E+00;  3.7046086E-02;  9.9458899E+02;  3.8959137E-01; -4.4799810E+03;3;  7.9038094E+01;  0.0000000E+00; -4.6751240E+01;0;  4.2558041E-01;  2.6844382E+03;  0.0000000E+00;  1.9565117E+00;  4.0000000E+04;  0.0000000E+00;  3.8759598E+04;  1.9046228E-01;  0.0000000E+00;  2.3511814E-01;  1.1096450E+04;
  1.6282704E+00;  9.9999998E-03; -1.7258613E-01;8742;  4.9382031E-01;  0.0000000E+00;  3.8484156E-02;  9.9571271E+02;  3.8809970E-01; -3.5495916E+03;3;  7.7979294E+01;  0.0000000E+00; -4.2272751E+01;0;  5.0859916E-01;  2.7053635E+03;  0.0000000E+00;  2.2314930E+00;  4.0000000E+04;  0.0000000E+00;  3.8762027E+04;  4.4523755E-01;  0.0000000E+00;  6.3361645E-02;  1.1045574E+04;
  1.6302434E+00;  9.9999998E-03; -1.6247691E-01;8743;  4.7270432E-01;  0.0000000E+00;  4.1844111E-02;  9.9554626E+02;  3.8652563E-01; -3.6872988E+03;3;  8.0486900E+01;  0.0000000E+00; -4.2182167E+01;0;  5.7387209E-01;  2.7239546E+03;  0.0000000E+00;  1.9651579E+00;  4.0000000E+04;  0.0000000E+00;  3.8758535E+04;  5.6896806E-01;  0.0000000E+00;  4.9040341E-03;  1.0550439E+04;
  1.6303724E+00;  9.9999998E-03; -2.2323985E-01;8737;  5.9925723E-01;  0.0000000E+00;  4.0356521E-02;  9.9456866E+02;  3.8779235E-01; -4.4966919E+03;3;  8.1212090E+01;  0.0000000E+00; -4.8332134E+01;0;  4.2049080E-01;  2.7059497E+03;  0.0000000E+00;  9.0336782E-01;  4.0000000E+04;  0.0000000E+00;  3.8777664E+04;  1.6056781E-01;  0.0000000E+00;  2.5992298E-01;  1.4979849E+04;
  1.6318542E+00;  9.9999998E-03; -1.5231927E-01;8744;  4.5177898E-01;  0.0000000E+00;  4.4195071E-02;  9.9510114E+02;  3.8535470E-01; -4.0557583E+03;3;  8.1292305E+01;  0.0000000E+00; -4.0811153E+01;0;  6.5031618E-01;  2.7358872E+03;  0.0000000E+00;  1.6938318E+00;  4.0000000E+04;  0.0000000E+00;  3.8755570E+04;  7.0140821E-01;  0.0000000E+00; -5.1092036E-02;  1.0149611E+04;
  1.6329007E+00;  9.9999998E-03; -1.4212458E-01;8745;  4.3178445E-01;  0.0000000E+00;  4.5022197E-02;  9.9431848E+02;  3.8461205E-01; -4.7036787E+03;3;  8.0361290E+01;  0.0000000E+00; -3.8985157E+01;0;  7.2788763E-01;  2.7406843E+03;  0.0000000E+00;  1.4212004E+00;  4.0000000E+04;  0.0000000E+00;  3.8754121E+04;  8.2907438E-01;  0.0000000E+00; -1.0118674E-01;  1.0011237E+04;
  1.6335132E+00;  9.9999998E-03; -1.3192739E-01;8746;  4.1281998E-01;  0.0000000E+00;  4.4701345E-02;  9.9321558E+02;  3.8416401E-01; -5.6167437E+03;3;  7.9824280E+01;  0.0000000E+00; -3.7195187E+01;0;  8.0240393E-01;  2.7403945E+03;  0.0000000E+00;  1.1526643E+00;  4.0000000E+04;  0.0000000E+00;  3.8754547E+04;  9.4747466E-01;  0.0000000E+00; -1.4507070E-01;  1.0183962E+04;
  1.6338482E+00;  9.9999998E-03; -1.2175355E-01;8747;  3.9496130E-01;  0.0000000E+00;  4.3619078E-02;  9.9190729E+02;  3.8392523E-01; -6.6998120E+03;3;  7.9299622E+01;  0.0000000E+00; -3.5295124E+01;0;  8.7197566E-01;  2.7367097E+03;  0.0000000E+00;  9.1352856E-01;  4.0000000E+04;  0.0000000E+00;  3.8757281E+04;  1.0556258E+00;  0.0000000E+00; -1.8365012E-01;  1.0667259E+04;
  1.6339362E+00;  9.9999998E-03; -1.1160590E-01;8748;  3.7848756E-01;  0.0000000E+00;  4.1780423E-02;  9.9052570E+02;  3.8389230E-01; -7.8435879E+03;3;  7.8726830E+01;  0.0000000E+00; -3.2931919E+01;0;  9.3253648E-01;  2.7302517E+03;  0.0000000E+00;  7.2469205E-01;  4.0000000E+04;  0.0000000E+00;  3.8761828E+04;  1.1499816E+00;  0.0000000E+00; -2.1744516E-01;  1.1379794E+04;
  1.6336695E+00;  9.9999998E-03; -2.3331982E-01;8736;  6.2013060E-01;  0.0000000E+00;  4.3158650E-02;  9.9496539E+02;  3.8556764E-01; -4.1680898E+03;3;  8.3528038E+01;  0.0000000E+00; -4.9357166E+01;0;  4.1338658E-01;  2.7341538E+03;  0.0000000E+00; -1.1311176E+00;  4.0000000E+04;  0.0000000E+00;  3.8806129E+04;  1.3011217E-01;  0.0000000E+00;  2.8327441E-01;  2.5377004E+04;
  1.6349696E+00;  9.9999998E-03; -2.6403257E-01;8733;  6.8332869E-01;  0.0000000E+00;  2.2285458E-02;  9.9678583E+02;  3.8408557E-01; -2.6609336E+03;3;  9.2023628E+01;  0.0000000E+00; -5.8735695E+01;0;  4.0859991E-01;  2.7616687E+03;  0.0000000E+00; -1.3490973E+01;  4.0000000E+04;  0.0000000E+00;  3.8766875E+04; -1.3686390E-02;  0.0000000E+00;  4.2228630E-01;  9.2459148E+04;
  1.6363884E+00;  9.9999998E-03; -2.4354509E-01;8735;  6.4098895E-01;  0.0000000E+00;  4.4325188E-02;  9.9545813E+02;  3.8383672E-01; -3.7600356E+03;3;  8.6588013E+01;  0.0000000E+00; -4.9272331E+01;0;  3.9656013E-01;  2.7579585E+03;  0.0000000E+00; -4.5181742E+00;  4.0000000E+04;  0.0000000E+00;  3.8811328E+04;  9.0197019E-02;  0.0000000E+00;  3.0636311E-01;  4.3951848E+04;
  1.6370730E+00;  9.9999998E-03; -2.5381431E-01;8734;  6.6196257E-01;  0.0000000E+00;  3.9234620E-02;  9.9590045E+02;  3.8327226E-01; -3.3938254E+03;3;  8.9690033E+01;  0.0000000E+00; -5.2628513E+01;0;  3.7630400E-01;  2.7682314E+03;  0.0000000E+00; -9.0873251E+00;  4.0000000E+04;  0.0000000E+00;  3.8787320E+04;  3.8004581E-02;  0.0000000E+00;  3.3829942E-01;  7.0523672E+04;
  1.6619685E+00;  9.9999998E-03; -1.9311702E-01;8801;  5.3085536E-01;  0.0000000E+00;  1.0059761E-01;  9.9077307E+02;  3.4523124E-01; -7.6359224E+03;3;  7.6907936E+01;  0.0000000E+00; -4.3608593E+01;0;  1.1690407E+00;  3.3897922E+03;  0.0000000E+00;  2.8101373E+00;  4.0000000E+04;  0.0000000E+00;  3.8775008E+04;  1.2050241E+00;  0.0000000E+00; -3.5983469E-02;  1.1377901E+04;
  1.6622171E+00;  9.9999998E-03; -1.8288280E-01;8802;  5.1035035E-01;  0.0000000E+00;  1.0011723E-01;  9.9112268E+02;  3.4491929E-01; -7.3465898E+03;3;  7.4891769E+01;  0.0000000E+00; -4.2115227E+01;0;  1.2991686E+00;  3.3972388E+03;  0.0000000E+00;  2.7082541E+00;  4.0000000E+04;  0.0000000E+00;  3.8772934E+04;  1.3938097E+00;  0.0000000E+00; -9.4641134E-02;  1.0917863E+04;
  1.6633062E+00;  9.9999998E-03; -1.7265160E-01;8803;  4.8998407E-01;  0.0000000E+00;  1.0060929E-01;  9.9144690E+02;  3.4402031E-01; -7.0781230E+03;3;  7.7137863E+01;  0.0000000E+00; -4.0157482E+01;0;  1.4724233E+00;  3.4152673E+03;  0.0000000E+00;  2.3927193E+00;  4.0000000E+04;  0.0000000E+00;  3.8768906E+04;  1.6296946E+00;  0.0000000E+00; -1.5727127E-01;  1.0089511E+04;
  1.6629382E+00;  9.9999998E-03; -2.0326687E-01;8800;  5.5135918E-01;  0.0000000E+00;  1.0260466E-01;  9.9047156E+02;  3.4460992E-01; -7.8853408E+03;3;  7.9720863E+01;  0.0000000E+00; -4.4340939E+01;0;  1.0850344E+00;  3.3995466E+03;  0.0000000E+00;  2.5598686E+00;  4.0000000E+04;  0.0000000E+00;  3.8777695E+04;  1.0704200E+00;  0.0000000E+00;  1.4614345E-02;  1.1441783E+04;
  1.6648198E+00;  9.9999998E-03; -1.6246448E-01;8804;  4.6917343E-01;  0.0000000E+00;  1.0107750E-01;  9.9167676E+02;  3.4294802E-01; -6.8877451E+03;3;  8.0814674E+01;  0.0000000E+00; -3.8780521E+01;0;  1.6800910E+00;  3.4359890E+03;  0.0000000E+00;  1.9783276E+00;  4.0000000E+04;  0.0000000E+00;  3.8763496E+04;  1.8994770E+00;  0.0000000E+00; -2.1938595E-01;  9.2211484E+03;
  1.6663835E+00;  9.9999998E-03; -1.5230839E-01;8805;  4.4870895E-01;  0.0000000E+00;  1.0091259E-01;  9.9176831E+02;  3.4195155E-01; -6.8117974E+03;3;  7.9910652E+01;  0.0000000E+00; -3.7199978E+01;0;  1.9082112E+00;  3.4543066E+03;  0.0000000E+00;  1.5629435E+00;  4.0000000E+04;  0.0000000E+00;  3.8758133E+04;  2.1854725E+00;  0.0000000E+00; -2.7726123E-01;  8.4889336E+03;
  1.6654257E+00;  9.9999998E-03; -2.1327929E-01;8799;  5.7173818E-01;  0.0000000E+00;  1.0671458E-01;  9.9047003E+02;  3.4293577E-01; -7.8862407E+03;3;  8.2946800E+01;  0.0000000E+00; -4.2322575E+01;0;  1.0454445E+00;  3.4291980E+03;  0.0000000E+00;  1.7165741E+00;  4.0000000E+04;  0.0000000E+00;  3.8791352E+04;  9.9155146E-01;  0.0000000E+00;  5.3893056E-02;  1.2924448E+04;
  1.6678286E+00;  9.9999998E-03; -1.4216739E-01;8806;  4.2935711E-01;  0.0000000E+00;  9.9777788E-02;  9.9163586E+02;  3.4103909E-01; -6.9212158E+03;3;  7.8960373E+01;  0.0000000E+00; -3.5357399E+01;0;  2.1461689E+00;  3.4699312E+03;  0.0000000E+00;  1.1939479E+00;  4.0000000E+04;  0.0000000E+00;  3.8754320E+04;  2.4752598E+00;  0.0000000E+00; -3.2909089E-01;  7.9469966E+03;
  1.6689949E+00;  9.9999998E-03; -1.3202545E-01;8807;  4.1114733E-01;  0.0000000E+00;  9.7394146E-02;  9.9124744E+02;  3.4024864E-01; -7.2424946E+03;3;  7.7250092E+01;  0.0000000E+00; -3.2643440E+01;0;  2.3792748E+00;  3.4819399E+03;  0.0000000E+00;  8.8374698E-01;  4.0000000E+04;  0.0000000E+00;  3.8751824E+04;  2.7537117E+00;  0.0000000E+00; -3.7443680E-01;  7.6147544E+03;
  1.6697885E+00;  9.9999998E-03; -1.2188013E-01;8808;  3.9403453E-01;  0.0000000E+00;  9.3875192E-02;  9.9059888E+02;  3.3966011E-01; -7.7790430E+03;3;  7.4573326E+01;  0.0000000E+00; -2.9904150E+01;0;  2.5933137E+00;  3.4891265E+03;  0.0000000E+00;  6.4104939E-01;  4.0000000E+04;  0.0000000E+00;  3.8750434E+04;  3.0073547E+00;  0.0000000E+00; -4.1404107E-01;  7.4629712E+03;
  1.6692930E+00;  9.9999998E-03; -2.2322966E-01;8798;  5.9233046E-01;  0.0000000E+00;  1.1182526E-01;  9.9090991E+02;  3.4046310E-01; -7.5217085E+03;3;  8.5346497E+01;  0.0000000E+00; -3.8599937E+01;0;  1.0369973E+00;  3.4752109E+03;  0.0000000E+00; -1.9692467E-01;  4.0000000E+04;  0.0000000E+00;  3.8825758E+04;  9.5513457E-01;  0.0000000E+00;  8.1862725E-02;  2.0365518E+04;
  1.6696284E+00;  9.9999998E-03; -2.6404250E-01;8794;  6.7154229E-01;  0.0000000E+00;  1.0182365E-01;  9.9189148E+02;  3.3992288E-01; -6.7094531E+03;3;  9.2201126E+01;  0.0000000E+00; -3.5707928E+01;0;  5.1496375E-01;  3.4874521E+03;  0.0000000E+00; -1.7705742E+01;  4.0000000E+04;  0.0000000E+00;  3.8824227E+04;  3.5038814E-01;  0.0000000E+00;  1.6457558E-01;  9.5690062E+04;
  1.6702234E+00;  9.9999998E-03; -1.1173256E-01;8809;  3.7806088E-01;  0.0000000E+00;  8.9164831E-02;  9.8977740E+02;  3.3929557E-01; -8.4587061E+03;3;  7.2940086E+01;  0.0000000E+00; -2.7496481E+01;0;  2.7804229E+00;  3.4912188E+03;  0.0000000E+00;  4.7390056E-01;  4.0000000E+04;  0.0000000E+00;  3.8749844E+04;  3.2296844E+00;  0.0000000E+00; -4.4926140E-01;  7.4546357E+03;
  1.6730841E+00;  9.9999998E-03; -2.3339397E-01;8797;  6.1338890E-01;  0.0000000E+00;  1.1566451E-01;  9.9117767E+02;  3.3811286E-01; -7.2996367E+03;3;  8.7877525E+01;  0.0000000E+00; -3.2364098E+01;0;  1.0102395E+00;  3.5204290E+03;  0.0000000E+00; -3.8297603E+00;  4.0000000E+04;  0.0000000E+00;  3.8846887E+04;  9.0552425E-01;  0.0000000E+00;  1.0471521E-01;  3.5713891E+04;
  1.6738214E+00;  9.9999998E-03; -2.5387675E-01;8795;  6.5248024E-01;  0.0000000E+00;  1.1548713E-01;  9.9080896E+02;  3.3760816E-01; -7.6046035E+03;3;  8.9722633E+01;  0.0000000E+00; -2.9882908E+01;0;  7.1837437E-01;  3.5294583E+03;  0.0000000E+00; -1.4974512E+01;  4.0000000E+04;  0.0000000E+00;  3.8824871E+04;  5.9228265E-01;  0.0000000E+00;  1.2609173E-01;  9.0490875E+04;
  1.6748039E+00;  9.9999998E-03; -2.4368531E-01;8796;  6.3366181E-01;  0.0000000E+00;  1.1819681E-01;  9.9081110E+02;  3.3703920E-01; -7.6026802E+03;3;  8.9921120E+01;  0.0000000E+00; -2.9364758E+01;0;  9.0212911E-01;  3.5409268E+03;  0.0000000E+00; -9.1874914E+00;  4.0000000E+04;  0.0000000E+00;  3.8830004E+04;  7.8372288E-01;  0.0000000E+00;  1.1840622E-01;  6.1114102E+04;
  1.6940721E+00;  9.9999998E-03; -1.8300241E-01;8863;  5.0687629E-01;  0.0000000E+00;  1.4404105E-01;  9.8880902E+02;  3.0606395E-01; -9.2550146E+03;3;  6.9764267E+01;  0.0000000E+00; -1.6562088E+01;0;  2.7645426E+00;  4.2945923E+03;  0.0000000E+00;  3.0670848E+00;  4.0000000E+04;  0.0000000E+00;  3.8765070E+04;  3.0313990E+00;  0.0000000E+00; -2.6685655E-01;  9.5361631E+03;
  1.6943791E+00;  9.9999998E-03; -1.9323646E-01;8862;  5.2763551E-01;  0.0000000E+00;  1.4700964E-01;  9.8852087E+02;  3.0576864E-01; -9.4932715E+03;3;  7.2917549E+01;  0.0000000E+00; -1.5803209E+01;0;  2.5618937E+00;  4.2991001E+03;  0.0000000E+00;  3.0468338E+00;  4.0000000E+04;  0.0000000E+00;  3.8771949E+04;  2.7772670E+00;  0.0000000E+00; -2.1537328E-01;  1.0371274E+04;
  1.6946394E+00;  9.9999998E-03; -1.7274652E-01;8864;  4.8668489E-01;  0.0000000E+00;  1.4195040E-01;  9.8927759E+02;  3.0576342E-01; -8.8673838E+03;3;  6.3711369E+01;  0.0000000E+00; -1.6216866E+01;0;  3.0144143E+00;  4.3071948E+03;  0.0000000E+00;  2.6720793E+00;  4.0000000E+04;  0.0000000E+00;  3.8757867E+04;  3.3366830E+00;  0.0000000E+00; -3.2226861E-01;  7.8204209E+03;
  1.6957486E+00;  9.9999998E-03; -1.6252519E-01;8865;  4.7019601E-01;  0.0000000E+00;  1.3915631E-01;  9.8986304E+02;  3.0512676E-01; -8.3829785E+03;3;  3.8349461E+01;  0.0000000E+00; -1.0093566E+01;0;  3.2963688E+00;  4.3294185E+03;  0.0000000E+00;  2.0853620E+00;  4.0000000E+04;  0.0000000E+00;  3.8750406E+04;  3.6727562E+00;  0.0000000E+00; -3.7638736E-01;  6.2527275E+03;
  1.6959958E+00;  9.9999998E-03; -2.0336060E-01;8861;  5.4803681E-01;  0.0000000E+00;  1.5200467E-01;  9.8855005E+02;  3.0463907E-01; -9.4687041E+03;3;  7.5805733E+01;  0.0000000E+00; -1.3954840E+01;0;  2.4212778E+00;  4.3277573E+03;  0.0000000E+00;  2.4033561E+00;  4.0000000E+04;  0.0000000E+00;  3.8781066E+04;  2.5960593E+00;  0.0000000E+00; -1.7478159E-01;  1.0395640E+04;
  1.6971684E+00;  9.9999998E-03; -1.5235330E-01;8866;  4.6946564E-01;  0.0000000E+00;  1.3226977E-01;  9.9046393E+02;  3.0430040E-01; -7.8857632E+03;3; -2.6720531E+01;  0.0000000E+00;  1.3478601E+00;0;  3.5947323E+00;  4.3567690E+03;  0.0000000E+00;  1.5082344E+00;  4.0000000E+04;  0.0000000E+00;  3.8743852E+04;  4.0201492E+00;  0.0000000E+00; -4.2541689E-01;  5.2325464E+03;
  1.6986666E+00;  9.9999998E-03; -1.4222050E-01;8867;  4.9269098E-01;  0.0000000E+00;  1.2188675E-01;  9.9099463E+02;  3.0339921E-01; -7.4465762E+03;3; -6.6654907E+01;  0.0000000E+00;  3.3573670E+00;0;  3.8916960E+00;  4.3855967E+03;  0.0000000E+00;  1.0556024E+00;  4.0000000E+04;  0.0000000E+00;  3.8737801E+04;  4.3595891E+00;  0.0000000E+00; -4.6789321E-01;  4.4344873E+03;
  1.6999607E+00;  9.9999998E-03; -1.3209935E-01;8868;  5.1926923E-01;  0.0000000E+00;  1.1197485E-01;  9.9134180E+02;  3.0255777E-01; -7.1592603E+03;3; -8.0412399E+01;  0.0000000E+00;  4.3385448E+00;0;  4.1718020E+00;  4.4116333E+03;  0.0000000E+00;  7.4291140E-01;  4.0000000E+04;  0.0000000E+00;  3.8733043E+04;  4.6758752E+00;  0.0000000E+00; -5.0407314E-01;  3.7119661E+03;
  1.6991701E+00;  9.9999998E-03; -2.1333091E-01;8860;  5.6755173E-01;  0.0000000E+00;  1.5941934E-01;  9.8900317E+02;  3.0266306E-01; -9.0931836E+03;3;  7.8086754E+01;  0.0000000E+00; -1.0944635E+01;0;  2.3424807E+00;  4.3818364E+03;  0.0000000E+00;  8.7175363E-01;  4.0000000E+04;  0.0000000E+00;  3.8803297E+04;  2.4960523E+00;  0.0000000E+00; -1.5357171E-01;  1.3128940E+04;
  1.7009245E+00;  9.9999998E-03; -1.2197648E-01;8869;  5.3660005E-01;  0.0000000E+00;  1.0351963E-01;  9.9143726E+02;  3.0185375E-01; -7.0801050E+03;3; -9.0109337E+01;  0.0000000E+00;  5.4703918E+00;0;  4.4266253E+00;  4.4324053E+03;  0.0000000E+00;  5.4187852E-01;  4.0000000E+04;  0.0000000E+00;  3.8728648E+04;  4.9618535E+00;  0.0000000E+00; -5.3522849E-01;  3.1020071E+03;
  1.6996986E+00;  9.9999998E-03; -2.6411042E-01;8855;  6.6041094E-01;  0.0000000E+00;  1.5358025E-01;  9.8825336E+02;  3.0272916E-01; -9.7130625E+03;3;  9.1085289E+01;  0.0000000E+00; -2.3661819E+01;0;  1.1026757E+00;  4.3618389E+03;  0.0000000E+00; -1.9456305E+01;  4.0000000E+04;  0.0000000E+00;  3.8870848E+04;  1.2870790E+00;  0.0000000E+00; -1.8440330E-01;  7.1561727E+04;
  1.7015922E+00;  9.9999998E-03; -1.1184904E-01;8870;  5.4214281E-01;  0.0000000E+00;  9.6495770E-02;  9.9130731E+02;  3.0132326E-01; -7.1874028E+03;3; -1.0045545E+02;  0.0000000E+00;  5.9735985E+00;0;  4.6556230E+00;  4.4470161E+03;  0.0000000E+00;  4.2126369E-01;  4.0000000E+04;  0.0000000E+00;  3.8724223E+04;  5.2184272E+00;  0.0000000E+00; -5.6280410E-01;  2.5656121E+03;
  1.7030944E+00;  9.9999998E-03; -2.2333203E-01;8859;  5.8597219E-01;  0.0000000E+00;  1.6378185E-01;  9.8954352E+02;  3.0036163E-01; -8.6453984E+03;3;  7.6812927E+01;  0.0000000E+00; -1.3755716E+01;0;  2.2777295E+00;  4.4462388E+03;  0.0000000E+00; -2.0864775E+00;  4.0000000E+04;  0.0000000E+00;  3.8839262E+04;  2.4278569E+00;  0.0000000E+00; -1.5012741E-01;  2.2604152E+04;
  1.7042575E+00;  9.9999998E-03; -2.5397587E-01;8856;  6.4234084E-01;  0.0000000E+00;  1.6333857E-01;  9.8729785E+02;  3.0012977E-01; -1.0501730E+04;3;  9.3796745E+01;  0.0000000E+00; -1.8292036E+01;0;  1.5067085E+00;  4.4352573E+03;  0.0000000E+00; -1.8990917E+01;  4.0000000E+04;  0.0000000E+00;  3.8849777E+04;  1.7043819E+00;  0.0000000E+00; -1.9767345E-01;  8.4710109E+04;
  1.7058698E+00;  9.9999998E-03; -2.3356609E-01;8858;  6.0463589E-01;  0.0000000E+00;  1.6428669E-01;  9.8913239E+02;  2.9878688E-01; -8.9845127E+03;3;  8.3030220E+01;  0.0000000E+00; -1.4991992E+01;0;  2.1386256E+00;  4.4880708E+03;  0.0000000E+00; -6.9909134E+00;  4.0000000E+04;  0.0000000E+00;  3.8849660E+04;  2.2931402E+00;  0.0000000E+00; -1.5451455E-01;  3.9341660E+04;
  1.7064264E+00;  9.9999998E-03; -2.4380280E-01;8857;  6.2302577E-01;  0.0000000E+00;  1.6503900E-01;  9.8801709E+02;  2.9865375E-01; -9.9064033E+03;3;  9.0034187E+01;  0.0000000E+00; -1.6339600E+01;0;  1.8808054E+00;  4.4849033E+03;  0.0000000E+00; -1.3464249E+01;  4.0000000E+04;  0.0000000E+00;  3.8845730E+04;  2.0539455E+00;  0.0000000E+00; -1.7314014E-01;  6.4689254E+04;
  1.7224565E+00;  9.9999998E-03; -1.8312816E-01;8923;  6.2232423E-01;  0.0000000E+00;  1.3300191E-01;  9.8942078E+02;  2.7363002E-01; -8.7408936E+03;3; -6.8969643E+01;  0.0000000E+00;  1.8519739E+01;0;  4.1160107E+00;  5.3795928E+03;  0.0000000E+00;  3.0596662E+00;  4.0000000E+04;  0.0000000E+00;  3.8744031E+04;  4.4813752E+00;  0.0000000E+00; -3.6536473E-01;  7.4164219E+03;
  1.7226646E+00;  9.9999998E-03; -1.7288765E-01;8924;  6.3265026E-01;  0.0000000E+00;  1.2937158E-01;  9.8975818E+02;  2.7363843E-01; -8.4620332E+03;3; -8.5623482E+01;  0.0000000E+00;  1.7597504E+01;0;  4.3442874E+00;  5.3860737E+03;  0.0000000E+00;  2.7505133E+00;  4.0000000E+04;  0.0000000E+00;  3.8734691E+04;  4.7496824E+00;  0.0000000E+00; -4.0539515E-01;  5.5078428E+03;
  1.7230874E+00;  9.9999998E-03; -1.9336335E-01;8922;  6.2170208E-01;  0.0000000E+00;  1.3625447E-01;  9.8940082E+02;  2.7309155E-01; -8.7571660E+03;3; -5.4379707E+01;  0.0000000E+00;  2.0140835E+01;0;  3.9142301E+00;  5.3962275E+03;  0.0000000E+00;  2.7648561E+00;  4.0000000E+04;  0.0000000E+00;  3.8752512E+04;  4.2417541E+00;  0.0000000E+00; -3.2752392E-01;  7.6377305E+03;
  1.7234628E+00;  9.9999998E-03; -1.6267382E-01;8925;  6.5286082E-01;  0.0000000E+00;  1.2399733E-01;  9.9037878E+02;  2.7325937E-01; -7.9490156E+03;3; -9.9406929E+01;  0.0000000E+00;  1.7899359E+01;0;  4.5850554E+00;  5.4094087E+03;  0.0000000E+00;  2.1017580E+00;  4.0000000E+04;  0.0000000E+00;  3.8725883E+04;  5.0289574E+00;  0.0000000E+00; -4.4390193E-01;  3.0287551E+03;
  1.7246183E+00;  9.9999998E-03; -1.5247856E-01;8926;  6.8196541E-01;  0.0000000E+00;  1.1638980E-01;  9.9116595E+02;  2.7264506E-01; -7.2983330E+03;3; -1.0958418E+02;  0.0000000E+00;  1.8368816E+01;0;  4.8254566E+00;  5.4429829E+03;  0.0000000E+00;  1.4179636E+00;  4.0000000E+04;  0.0000000E+00;  3.8718031E+04;  5.3037128E+00;  0.0000000E+00; -4.7825611E-01;  1.4986305E+03;
  1.7249881E+00;  9.9999998E-03; -2.0349786E-01;8921;  6.3574016E-01;  0.0000000E+00;  1.3982213E-01;  9.8971301E+02;  2.7187017E-01; -8.4985439E+03;3; -4.8009468E+01;  0.0000000E+00;  2.0846397E+01;0;  3.7584100E+00;  5.4426572E+03;  0.0000000E+00;  1.7513179E+00;  4.0000000E+04;  0.0000000E+00;  3.8762113E+04;  4.0562019E+00;  0.0000000E+00; -2.9779193E-01;  7.1347749E+03;
  1.7259175E+00;  9.9999998E-03; -1.4230739E-01;8927;  7.1579617E-01;  0.0000000E+00;  1.0699837E-01;  9.9202838E+02;  2.7191675E-01; -6.5854756E+03;3; -1.1591629E+02;  0.0000000E+00;  1.8265873E+01;0;  5.0547442E+00;  5.4811978E+03;  0.0000000E+00;  9.1096210E-01;  4.0000000E+04;  0.0000000E+00;  3.8710527E+04;  5.5619802E+00;  0.0000000E+00; -5.0723606E-01;  1.0292637E+03;
  1.7271154E+00;  9.9999998E-03; -1.3215478E-01;8928;  7.4724519E-01;  0.0000000E+00;  9.7445235E-02;  9.9280835E+02;  2.7119210E-01; -5.9408120E+03;3; -1.2011129E+02;  0.0000000E+00;  1.7728533E+01;0;  5.2642670E+00;  5.5184717E+03;  0.0000000E+00;  6.2452024E-01;  4.0000000E+04;  0.0000000E+00;  3.8703645E+04;  5.7956023E+00;  0.0000000E+00; -5.3133512E-01;  7.1977594E+02;
  1.7269933E+00;  9.9999998E-03; -2.6424792E-01;8915;  6.4470667E-01;  0.0000000E+00;  1.6728732E-01;  9.8574878E+02;  2.7167353E-01; -1.1772576E+04;3;  9.3171295E+01;  0.0000000E+00; -5.5675235E+00;0;  2.0589232E+00;  5.3974985E+03;  0.0000000E+00; -1.9359083E+01;  4.0000000E+04;  0.0000000E+00;  3.8859305E+04;  2.5171635E+00;  0.0000000E+00; -4.5824039E-01;  5.2361941E+04;
  1.7281188E+00;  9.9999998E-03; -1.2201634E-01;8929;  7.7002460E-01;  0.0000000E+00;  8.9579158E-02;  9.9342657E+02;  2.7052158E-01; -5.4298804E+03;3; -1.2621756E+02;  0.0000000E+00;  1.7688772E+01;0;  5.4526520E+00;  5.5520996E+03;  0.0000000E+00;  4.9118796E-01;  4.0000000E+04;  0.0000000E+00;  3.8697137E+04;  6.0044675E+00;  0.0000000E+00; -5.5181533E-01;  1.3656693E+03;
  1.7281538E+00;  9.9999998E-03; -2.1350172E-01;8920;  6.7266703E-01;  0.0000000E+00;  1.4549020E-01;  9.9023169E+02;  2.7010429E-01; -8.0689360E+03;3; -5.5762020E+01;  0.0000000E+00;  1.5678543E+01;0;  3.6407239E+00;  5.5132173E+03;  0.0000000E+00; -1.2591556E-01;  4.0000000E+04;  0.0000000E+00;  3.8781398E+04;  3.9251297E+00;  0.0000000E+00; -2.8440568E-01;  1.0076619E+04;
  1.7289506E+00;  9.9999998E-03; -1.1188114E-01;8930;  7.8566343E-01;  0.0000000E+00;  8.2563154E-02;  9.9382764E+02;  2.6994041E-01; -5.0983867E+03;3; -1.3166927E+02;  0.0000000E+00;  1.6693680E+01;0;  5.6213732E+00;  5.5803940E+03;  0.0000000E+00;  4.3425822E-01;  4.0000000E+04;  0.0000000E+00;  3.8690492E+04;  6.1909761E+00;  0.0000000E+00; -5.6960309E-01;  2.3413005E+03;
  1.7307235E+00;  9.9999998E-03; -2.5412384E-01;8916;  6.3976932E-01;  0.0000000E+00;  1.6200113E-01;  9.8553253E+02;  2.6959839E-01; -1.1949219E+04;3;  4.1186459E+01;  0.0000000E+00;  2.3980528E+01;0;  2.5941110E+00;  5.4867271E+03;  0.0000000E+00; -1.9509735E+01;  4.0000000E+04;  0.0000000E+00;  3.8827836E+04;  2.9654150E+00;  0.0000000E+00; -3.7130398E-01;  6.6290148E+04;
  1.7314320E+00;  9.9999998E-03; -2.2356570E-01;8919;  7.0102769E-01;  0.0000000E+00;  1.5122516E-01;  9.9025531E+02;  2.6840284E-01; -8.0482441E+03;3; -5.7092125E+01;  0.0000000E+00;  1.7898972E+01;0;  3.5133917E+00;  5.5790000E+03;  0.0000000E+00; -3.3722560E+00;  4.0000000E+04;  0.0000000E+00;  3.8807285E+04;  3.8027737E+00;  0.0000000E+00; -2.8938198E-01;  1.8617459E+04;
  1.7330220E+00;  9.9999998E-03; -2.4395670E-01;8917;  6.6896772E-01;  0.0000000E+00;  1.5314582E-01;  9.8707379E+02;  2.6801264E-01; -1.0675093E+04;3; -4.6010799E+01;  0.0000000E+00;  1.7186684E+01;0;  3.0410776E+00;  5.5674390E+03;  0.0000000E+00; -1.4763659E+01;  4.0000000E+04;  0.0000000E+00;  3.8821695E+04;  3.3475533E+00;  0.0000000E+00; -3.0647567E-01;  5.3739980E+04;
  1.7332811E+00;  9.9999998E-03; -2.3376247E-01;8918;  6.9467944E-01;  0.0000000E+00;  1.5173607E-01;  9.8902222E+02;  2.6755676E-01; -9.0658848E+03;3; -5.6617592E+01;  0.0000000E+00;  1.9231924E+01;0;  3.3281059E+00;  5.6030449E+03;  0.0000000E+00; -8.4921589E+00;  4.0000000E+04;  0.0000000E+00;  3.8817879E+04;  3.6236718E+00;  0.0000000E+00; -2.9556572E-01;  3.3601473E+04;
  1.7478628E+00;  9.9999998E-03; -1.7302124E-01;8983;  8.2936883E-01;  0.0000000E+00;  1.0605260E-01;  9.9213727E+02;  2.4710859E-01; -6.4883125E+03;3; -1.1554236E+02;  0.0000000E+00;  2.6753048E+01;0;  4.9956784E+00;  6.6390356E+03;  0.0000000E+00;  2.2900729E+00;  4.0000000E+04;  0.0000000E+00;  3.8703359E+04;  5.4163132E+00;  0.0000000E+00; -4.2063460E-01;  3.9274460E+03;
  1.7479492E+00;  9.9999998E-03; -1.8321995E-01;8982;  8.1209385E-01;  0.0000000E+00;  1.0916486E-01;  9.9214532E+02;  2.4693377E-01; -6.4816387E+03;3; -1.0987834E+02;  0.0000000E+00;  2.7918770E+01;0;  4.8440166E+00;  6.6422217E+03;  0.0000000E+00;  2.3670459E+00;  4.0000000E+04;  0.0000000E+00;  3.8713098E+04;  5.2426710E+00;  0.0000000E+00; -3.9865425E-01;  4.7861104E+03;
  1.7483732E+00;  9.9999998E-03; -1.6282615E-01;8984;  8.5327840E-01;  0.0000000E+00;  1.0137451E-01;  9.9248260E+02;  2.4693303E-01; -6.2031426E+03;3; -1.2057072E+02;  0.0000000E+00;  2.5593220E+01;0;  5.1409993E+00;  6.6579121E+03;  0.0000000E+00;  1.7954351E+00;  4.0000000E+04;  0.0000000E+00;  3.8694246E+04;  5.5829616E+00;  0.0000000E+00; -4.4196218E-01;  2.0859387E+03;
  1.7488577E+00;  9.9999998E-03; -1.9339389E-01;8981;  8.0601597E-01;  0.0000000E+00;  1.1122505E-01;  9.9246741E+02;  2.4632847E-01; -6.2155049E+03;3; -1.0619313E+02;  0.0000000E+00;  2.8360521E+01;0;  4.6957765E+00;  6.6722285E+03;  0.0000000E+00;  1.8926977E+00;  4.0000000E+04;  0.0000000E+00;  3.8722719E+04;  5.0739727E+00;  0.0000000E+00; -3.7819639E-01;  4.1757930E+03;
  1.7492405E+00;  9.9999998E-03; -1.5260901E-01;8985;  8.8140500E-01;  0.0000000E+00;  9.5239028E-02;  9.9312567E+02;  2.4653897E-01; -5.6722007E+03;3; -1.2453690E+02;  0.0000000E+00;  2.4363520E+01;0;  5.2727938E+00;  6.6912559E+03;  0.0000000E+00;  1.1853149E+00;  4.0000000E+04;  0.0000000E+00;  3.8685223E+04;  5.7339473E+00;  0.0000000E+00; -4.6115339E-01;  1.9563927E+03;
  1.7502840E+00;  9.9999998E-03; -1.4238040E-01;8986;  9.1180980E-01;  0.0000000E+00;  8.7899677E-02;  9.9396667E+02;  2.4601835E-01; -4.9779331E+03;3; -1.2676851E+02;  0.0000000E+00;  2.3206730E+01;0;  5.3868093E+00;  6.7329238E+03;  0.0000000E+00;  7.1773446E-01;  4.0000000E+04;  0.0000000E+00;  3.8676887E+04;  5.8641000E+00;  0.0000000E+00; -4.7729048E-01;  3.2501184E+03;
  1.7510984E+00;  9.9999998E-03; -2.6437166E-01;8974;  6.7841721E-01;  0.0000000E+00;  1.4929402E-01;  9.8496124E+02;  2.4633093E-01; -1.2407473E+04;3; -9.0612434E+01;  0.0000000E+00;  2.1969090E+01;0;  3.1252413E+00;  6.5678105E+03;  0.0000000E+00; -1.6272203E+01;  4.0000000E+04;  0.0000000E+00;  3.8839879E+04;  3.6542749E+00;  0.0000000E+00; -5.2903378E-01;  3.3744371E+04;
  1.7508417E+00;  9.9999998E-03; -2.0348050E-01;8980;  8.2021582E-01;  0.0000000E+00;  1.1655310E-01;  9.9297321E+02;  2.4525145E-01; -5.7974385E+03;3; -9.9164520E+01;  0.0000000E+00;  2.9532211E+01;0;  4.5595517E+00;  6.7306924E+03;  0.0000000E+00;  9.3931556E-01;  4.0000000E+04;  0.0000000E+00;  3.8734695E+04;  4.9240818E+00;  0.0000000E+00; -3.6453030E-01;  4.0583599E+03;
  1.7513534E+00;  9.9999998E-03; -1.3216323E-01;8987;  9.4160688E-01;  0.0000000E+00;  8.0037527E-02;  9.9487665E+02;  2.4543568E-01; -4.2268965E+03;3; -1.2751568E+02;  0.0000000E+00;  2.1813087E+01;0;  5.4819975E+00;  6.7780601E+03;  0.0000000E+00;  4.7729325E-01;  4.0000000E+04;  0.0000000E+00;  3.8668582E+04;  5.9723983E+00;  0.0000000E+00; -4.9040079E-01;  4.2454263E+03;
  1.7523513E+00;  9.9999998E-03; -1.2196863E-01;8988;  9.6664530E-01;  0.0000000E+00;  7.3146775E-02;  9.9573663E+02;  2.4484131E-01; -3.5171279E+03;3; -1.2963643E+02;  0.0000000E+00;  2.0672043E+01;0;  5.5603161E+00;  6.8226162E+03;  0.0000000E+00;  3.9954436E-01;  4.0000000E+04;  0.0000000E+00;  3.8660602E+04;  6.0614986E+00;  0.0000000E+00; -5.0118279E-01;  5.1701387E+03;
  1.7532220E+00;  9.9999998E-03; -1.1180498E-01;8989;  9.8694640E-01;  0.0000000E+00;  6.6724680E-02;  9.9643964E+02;  2.4431454E-01; -2.9370303E+03;3; -1.3073389E+02;  0.0000000E+00;  1.9261459E+01;0;  5.6248522E+00;  6.8617334E+03;  0.0000000E+00;  3.9716947E-01;  4.0000000E+04;  0.0000000E+00;  3.8652852E+04;  6.1350965E+00;  0.0000000E+00; -5.1024449E-01;  6.1586084E+03;
  1.7536185E+00;  9.9999998E-03; -2.1350624E-01;8979;  8.4665602E-01;  0.0000000E+00;  1.2353302E-01;  9.9325592E+02;  2.4393736E-01; -5.5632178E+03;3; -9.4891090E+01;  0.0000000E+00;  3.1543110E+01;0;  4.4336782E+00;  6.8009717E+03;  0.0000000E+00; -5.7234132E-01;  4.0000000E+04;  0.0000000E+00;  3.8757961E+04;  4.7982421E+00;  0.0000000E+00; -3.6456373E-01;  6.9400610E+03;
  1.7540798E+00;  9.9999998E-03; -2.5421295E-01;8975;  7.4997163E-01;  0.0000000E+00;  1.3942829E-01;  9.8562000E+02;  2.4475259E-01; -1.1861733E+04;3; -1.0340803E+02;  0.0000000E+00;  2.9378044E+01;0;  3.5874958E+00;  6.6671948E+03;  0.0000000E+00; -1.6393070E+01;  4.0000000E+04;  0.0000000E+00;  3.8821750E+04;  4.0290461E+00;  0.0000000E+00; -4.4155025E-01;  4.2136172E+04;
  1.7560477E+00;  9.9999998E-03; -2.2362749E-01;8978;  8.5528231E-01;  0.0000000E+00;  1.2573513E-01;  9.9250934E+02;  2.4288411E-01; -6.1780620E+03;3; -9.8529694E+01;  0.0000000E+00;  3.1027090E+01;0;  4.3066444E+00;  6.8485293E+03;  0.0000000E+00; -3.2772653E+00;  4.0000000E+04;  0.0000000E+00;  3.8784164E+04;  4.6784186E+00;  0.0000000E+00; -3.7177402E-01;  1.2574386E+04;
  1.7562954E+00;  9.9999998E-03; -2.4403088E-01;8976;  8.0437338E-01;  0.0000000E+00;  1.3066429E-01;  9.8775696E+02;  2.4333748E-01; -1.0097537E+04;3; -1.0247204E+02;  0.0000000E+00;  3.0928518E+01;0;  3.9275661E+00;  6.7714917E+03;  0.0000000E+00; -1.2896338E+01;  4.0000000E+04;  0.0000000E+00;  3.8811062E+04;  4.3205543E+00;  0.0000000E+00; -3.9298818E-01;  3.5665637E+04;
  1.7570890E+00;  9.9999998E-03; -2.3383112E-01;8977;  8.4054780E-01;  0.0000000E+00;  1.2665753E-01;  9.9041382E+02;  2.4260685E-01; -7.9058325E+03;3; -1.0106818E+02;  0.0000000E+00;  3.1257784E+01;0;  4.1519799E+00;  6.8414980E+03;  0.0000000E+00; -7.7551703E+00;  4.0000000E+04;  0.0000000E+00;  3.8799695E+04;  4.5309596E+00;  0.0000000E+00; -3.7897959E-01;  2.2778877E+04;
  1.7711158E+00;  9.9999998E-03; -1.7313831E-01;9042;  9.9824572E-01;  0.0000000E+00;  8.1552379E-02;  9.9540826E+02;  2.2533719E-01; -3.7828840E+03;3; -1.1801340E+02;  0.0000000E+00;  2.8357855E+01;0;  4.9832401E+00;  8.0395913E+03;  0.0000000E+00;  1.6692848E+00;  4.0000000E+04;  0.0000000E+00;  3.8665371E+04;  5.3753724E+00;  0.0000000E+00; -3.9213249E-01;  4.0546477E+03;
  1.7712964E+00;  9.9999998E-03; -1.6298184E-01;9043;  1.0182127E+00;  0.0000000E+00;  7.7961221E-02;  9.9531915E+02;  2.2531775E-01; -3.8562378E+03;3; -1.1801273E+02;  0.0000000E+00;  2.7035130E+01;0;  5.0281568E+00;  8.0474141E+03;  0.0000000E+00;  1.4295472E+00;  4.0000000E+04;  0.0000000E+00;  3.8657352E+04;  5.4264631E+00;  0.0000000E+00; -3.9830634E-01;  4.0906152E+03;
  1.7714195E+00;  9.9999998E-03; -1.8327235E-01;9041;  9.8291361E-01;  0.0000000E+00;  8.4295109E-02;  9.9578485E+02;  2.2511292E-01; -3.4725027E+03;3; -1.1716514E+02;  0.0000000E+00;  2.8743036E+01;0;  4.9216528E+00;  8.0532412E+03;  0.0000000E+00;  1.5283917E+00;  4.0000000E+04;  0.0000000E+00;  3.8673449E+04;  5.3081813E+00;  0.0000000E+00; -3.8652864E-01;  3.4756045E+03;
  1.7727095E+00;  9.9999998E-03; -2.6449701E-01;9033;  8.1434786E-01;  0.0000000E+00;  1.2473870E-01;  9.8508911E+02;  2.2570086E-01; -1.2282542E+04;3; -1.3055681E+02;  0.0000000E+00;  2.5141312E+01;0;  3.9456329E+00;  7.8417505E+03;  0.0000000E+00; -1.2104723E+01;  4.0000000E+04;  0.0000000E+00;  3.8812562E+04;  4.4883552E+00;  0.0000000E+00; -5.4272228E-01;  1.8268793E+04;
  1.7718164E+00;  9.9999998E-03; -1.5277143E-01;9044;  1.0412575E+00;  0.0000000E+00;  7.3273540E-02;  9.9556659E+02;  2.2511309E-01; -3.6521980E+03;3; -1.1726681E+02;  0.0000000E+00;  2.5761423E+01;0;  5.0543647E+00;  8.0725605E+03;  0.0000000E+00;  9.6470767E-01;  4.0000000E+04;  0.0000000E+00;  3.8648816E+04;  5.4587445E+00;  0.0000000E+00; -4.0437993E-01;  4.6066069E+03;
  1.7724527E+00;  9.9999998E-03; -1.9336270E-01;9040;  9.7832292E-01;  0.0000000E+00;  8.7604947E-02;  9.9633582E+02;  2.2457357E-01; -3.0183752E+03;3; -1.1400998E+02;  0.0000000E+00;  2.9517136E+01;0;  4.8469725E+00;  8.0922266E+03;  0.0000000E+00;  1.1229051E+00;  4.0000000E+04;  0.0000000E+00;  3.8683457E+04;  5.2296267E+00;  0.0000000E+00; -3.8265410E-01;  2.4663623E+03;
  1.7725239E+00;  9.9999998E-03; -1.4249527E-01;9045;  1.0656122E+00;  0.0000000E+00;  6.7910239E-02;  9.9609985E+02;  2.2479174E-01; -3.2127397E+03;3; -1.1593160E+02;  0.0000000E+00;  2.4179220E+01;0;  5.0630808E+00;  8.1091519E+03;  0.0000000E+00;  5.3335840E-01;  4.0000000E+04;  0.0000000E+00;  3.8639781E+04;  5.4730039E+00;  0.0000000E+00; -4.0992287E-01;  5.7186021E+03;
  1.7733445E+00;  9.9999998E-03; -1.3220881E-01;9046;  1.0901480E+00;  0.0000000E+00;  6.2195353E-02;  9.9683374E+02;  2.2438622E-01; -2.6080010E+03;3; -1.1396203E+02;  0.0000000E+00;  2.2788372E+01;0;  5.0560946E+00;  8.1534248E+03;  0.0000000E+00;  2.9175192E-01;  4.0000000E+04;  0.0000000E+00;  3.8631184E+04;  5.4706316E+00;  0.0000000E+00; -4.1453677E-01;  6.8029028E+03;
  1.7742555E+00;  9.9999998E-03; -2.0341808E-01;9039;  9.8616099E-01;  0.0000000E+00;  9.1884725E-02;  9.9673053E+02;  2.2376436E-01; -2.6928210E+03;3; -1.0953306E+02;  0.0000000E+00;  3.0768291E+01;0;  4.7659473E+00;  8.1499551E+03;  0.0000000E+00;  6.9831735E-01;  4.0000000E+04;  0.0000000E+00;  3.8700371E+04;  5.1494880E+00;  0.0000000E+00; -3.8354084E-01;  2.9621438E+03;
  1.7741913E+00;  9.9999998E-03; -1.2195933E-01;9047;  1.1131325E+00;  0.0000000E+00;  5.6679595E-02;  9.9766473E+02;  2.2394721E-01; -1.9233704E+03;3; -1.1224160E+02;  0.0000000E+00;  2.1638115E+01;0;  5.0372763E+00;  8.2002344E+03;  0.0000000E+00;  2.2974306E-01;  4.0000000E+04;  0.0000000E+00;  3.8623031E+04;  5.4555182E+00;  0.0000000E+00; -4.1824219E-01;  7.7611519E+03;
  1.7751470E+00;  9.9999998E-03; -2.5430652E-01;9034;  8.7640917E-01;  0.0000000E+00;  1.1543629E-01;  9.8621832E+02;  2.2446741E-01; -1.1349969E+04;3; -1.3421027E+02;  0.0000000E+00;  3.3295399E+01;0;  4.2304273E+00;  7.9494399E+03;  0.0000000E+00; -1.1520728E+01;  4.0000000E+04;  0.0000000E+00;  3.8806922E+04;  4.7119722E+00;  0.0000000E+00; -4.8154476E-01;  1.8844193E+04;
  1.7749845E+00;  9.9999998E-03; -1.1175662E-01;9048;  1.1332723E+00;  0.0000000E+00;  5.1427349E-02;  9.9844470E+02;  2.2353488E-01; -1.2809138E+03;3; -1.1019663E+02;  0.0000000E+00;  2.0016663E+01;0;  5.0116024E+00;  8.2438633E+03;  0.0000000E+00;  2.6169646E-01;  4.0000000E+04;  0.0000000E+00;  3.8615137E+04;  5.4328794E+00;  0.0000000E+00; -4.2127681E-01;  8.6918926E+03;
  1.7763915E+00;  9.9999998E-03; -2.1350266E-01;9038;  9.9656099E-01;  0.0000000E+00;  9.5330581E-02;  9.9636957E+02;  2.2290191E-01; -2.9895520E+03;3; -1.0827664E+02;  0.0000000E+00;  3.1143179E+01;0;  4.6878748E+00;  8.2032002E+03;  0.0000000E+00;  7.8754395E-02;  4.0000000E+04;  0.0000000E+00;  3.8726656E+04;  5.0794754E+00;  0.0000000E+00; -3.9160052E-01;  5.8422217E+03;
  1.7773174E+00;  9.9999998E-03; -2.4410649E-01;9035;  9.3329769E-01;  0.0000000E+00;  1.0421994E-01;  9.8856512E+02;  2.2322904E-01; -9.4153955E+03;3; -1.2584636E+02;  0.0000000E+00;  3.3316532E+01;0;  4.4429770E+00;  8.0734707E+03;  0.0000000E+00; -9.3086576E+00;  4.0000000E+04;  0.0000000E+00;  3.8793055E+04;  4.8685369E+00;  0.0000000E+00; -4.2556018E-01;  1.6604754E+04;
  1.7780466E+00;  9.9999998E-03; -2.2368041E-01;9037;  9.9479842E-01;  0.0000000E+00;  9.6393578E-02;  9.9464435E+02;  2.2233756E-01; -4.4095225E+03;3; -1.1256175E+02;  0.0000000E+00;  3.1999287E+01;0;  4.6208444E+00;  8.2201025E+03;  0.0000000E+00; -1.7248776E+00;  4.0000000E+04;  0.0000000E+00;  3.8752949E+04;  5.0223351E+00;  0.0000000E+00; -4.0149060E-01;  8.0263359E+03;
  1.7784691E+00;  9.9999998E-03; -2.3389803E-01;9036;  9.7493213E-01;  0.0000000E+00;  9.8451860E-02;  9.9168707E+02;  2.2241041E-01; -6.8441030E+03;3; -1.1915020E+02;  0.0000000E+00;  3.3364029E+01;0;  4.5527329E+00;  8.1760039E+03;  0.0000000E+00; -5.4044399E+00;  4.0000000E+04;  0.0000000E+00;  3.8773719E+04;  4.9629040E+00;  0.0000000E+00; -4.1017121E-01;  1.0906375E+04;
  1.7922441E+00;  9.9999998E-03; -2.6465005E-01;9092;  9.4552749E-01;  0.0000000E+00;  9.8566130E-02;  9.8559833E+02;  2.0890954E-01; -1.1840163E+04;3; -1.4314421E+02;  0.0000000E+00;  3.1040905E+01;0;  4.4179997E+00;  9.1835234E+03;  0.0000000E+00; -6.9185224E+00;  4.0000000E+04;  0.0000000E+00;  3.8764629E+04;  4.9194074E+00;  0.0000000E+00; -5.0140780E-01;  1.5668112E+04;
  1.7924464E+00;  9.9999998E-03; -1.7322043E-01;9101;  1.1309766E+00;  0.0000000E+00;  5.8599006E-02;  9.9882770E+02;  2.0764448E-01; -9.6377344E+02;3; -1.0392501E+02;  0.0000000E+00;  2.9059277E+01;0;  4.5175047E+00;  9.5392803E+03;  0.0000000E+00;  1.0234444E+00;  4.0000000E+04;  0.0000000E+00;  3.8620117E+04;  4.8577213E+00;  0.0000000E+00; -3.4021649E-01;  5.5878789E+03;
  1.7924643E+00;  9.9999998E-03; -1.6312209E-01;9102;  1.1457809E+00;  0.0000000E+00;  5.5786796E-02;  9.9834528E+02;  2.0766769E-01; -1.3603937E+03;3; -1.0083212E+02;  0.0000000E+00;  2.7680145E+01;0;  4.4833126E+00;  9.5369473E+03;  0.0000000E+00;  1.0129405E+00;  4.0000000E+04;  0.0000000E+00;  3.8615434E+04;  4.8179135E+00;  0.0000000E+00; -3.3460101E-01;  5.8810522E+03;
  1.7927922E+00;  9.9999998E-03; -1.8328373E-01;9100;  1.1191677E+00;  0.0000000E+00;  6.1274260E-02;  9.9943542E+02;  2.0746309E-01; -4.6412958E+02;3; -1.0573196E+02;  0.0000000E+00;  3.0553413E+01;0;  4.5352097E+00;  9.5583965E+03;  0.0000000E+00;  9.2067999E-01;  4.0000000E+04;  0.0000000E+00;  3.8625895E+04;  4.8826494E+00;  0.0000000E+00; -3.4743965E-01;  5.2007637E+03;
  1.7927185E+00;  9.9999998E-03; -1.5296207E-01;9103;  1.1622626E+00;  0.0000000E+00;  5.2416682E-02;  9.9810620E+02;  2.0757964E-01; -1.5568953E+03;3; -9.7498589E+01;  0.0000000E+00;  2.6127451E+01;0;  4.4340301E+00;  9.5494180E+03;  0.0000000E+00;  7.8077799E-01;  4.0000000E+04;  0.0000000E+00;  3.8609352E+04;  4.7646885E+00;  0.0000000E+00; -3.3065829E-01;  6.2856094E+03;
  1.7931010E+00;  9.9999998E-03; -1.4270419E-01;9104;  1.1799568E+00;  0.0000000E+00;  4.8741765E-02;  9.9817261E+02;  2.0741348E-01; -1.5022426E+03;3; -9.3757896E+01;  0.0000000E+00;  2.4587328E+01;0;  4.3728123E+00;  9.5731602E+03;  0.0000000E+00;  4.5862594E-01;  4.0000000E+04;  0.0000000E+00;  3.8601500E+04;  4.7011242E+00;  0.0000000E+00; -3.2831177E-01;  7.0696665E+03;
  1.7936685E+00;  9.9999998E-03; -1.9332556E-01;9099;  1.1135341E+00;  0.0000000E+00;  6.4053282E-02;  9.9994275E+02;  2.0709428E-01; -4.7084389E+01;3; -1.0544918E+02;  0.0000000E+00;  3.2058674E+01;0;  4.5363216E+00;  9.5936504E+03;  0.0000000E+00;  1.0973545E+00;  4.0000000E+04;  0.0000000E+00;  3.8637242E+04;  4.8927355E+00;  0.0000000E+00; -3.5641372E-01;  5.4232876E+03;
  1.7945689E+00;  9.9999998E-03; -2.5444329E-01;9093;  1.0018854E+00;  0.0000000E+00;  8.9447595E-02;  9.8644019E+02;  2.0788984E-01; -1.1145037E+04;3; -1.4318155E+02;  0.0000000E+00;  3.6912258E+01;0;  4.5341339E+00;  9.2944570E+03;  0.0000000E+00; -6.5507450E+00;  4.0000000E+04;  0.0000000E+00;  3.8766375E+04;  4.9984670E+00;  0.0000000E+00; -4.6433309E-01;  1.5876579E+04;
  1.7935891E+00;  9.9999998E-03; -1.3238804E-01;9105;  1.1979918E+00;  0.0000000E+00;  4.4855680E-02;  9.9851990E+02;  2.0719139E-01; -1.2166602E+03;3; -8.9819641E+01;  0.0000000E+00;  2.3032309E+01;0;  4.3016696E+00;  9.6059307E+03;  0.0000000E+00;  2.1912685E-01;  4.0000000E+04;  0.0000000E+00;  3.8593340E+04;  4.6287227E+00;  0.0000000E+00; -3.2705328E-01;  8.0325522E+03;
  1.7950317E+00;  9.9999998E-03; -2.0340213E-01;9098;  1.1139474E+00;  0.0000000E+00;  6.6830024E-02;  9.9989758E+02;  2.0658739E-01; -8.4160271E+01;3; -1.0490970E+02;  0.0000000E+00;  3.3285126E+01;0;  4.5284534E+00;  9.6338311E+03;  0.0000000E+00;  1.8776364E+00;  4.0000000E+04;  0.0000000E+00;  3.8657918E+04;  4.8967729E+00;  0.0000000E+00; -3.6831957E-01;  9.1454648E+03;
  1.7941737E+00;  9.9999998E-03; -1.2208651E-01;9106;  1.2156849E+00;  0.0000000E+00;  4.0877599E-02;  9.9908142E+02;  2.0692681E-01; -7.5502057E+02;3; -8.5713158E+01;  0.0000000E+00;  2.1737547E+01;0;  4.2228065E+00;  9.6449844E+03;  0.0000000E+00;  1.2972625E-01;  4.0000000E+04;  0.0000000E+00;  3.8585473E+04;  4.5490146E+00;  0.0000000E+00; -3.2620803E-01;  8.9570195E+03;
  1.7948103E+00;  9.9999998E-03; -1.1182420E-01;9107;  1.2323042E+00;  0.0000000E+00;  3.6981869E-02;  9.9973529E+02;  2.0663863E-01; -2.1755853E+02;3; -8.1555840E+01;  0.0000000E+00;  2.0261028E+01;0;  4.1401010E+00;  9.6862559E+03;  0.0000000E+00;  1.4528254E-01;  4.0000000E+04;  0.0000000E+00;  3.8577328E+04;  4.4655313E+00;  0.0000000E+00; -3.2543027E-01;  9.8367979E+03;
  1.7965837E+00;  9.9999998E-03; -2.4422583E-01;9094;  1.0531449E+00;  0.0000000E+00;  7.8349598E-02;  9.8880286E+02;  2.0685361E-01; -9.2009023E+03;3; -1.3203616E+02;  0.0000000E+00;  3.6603970E+01;0;  4.5971384E+00;  9.4298525E+03;  0.0000000E+00; -4.4945583E+00;  4.0000000E+04;  0.0000000E+00;  3.8755727E+04;  5.0135818E+00;  0.0000000E+00; -4.1644335E-01;  1.6454455E+04;
  1.7965848E+00;  9.9999998E-03; -2.1356066E-01;9097;  1.1154315E+00;  0.0000000E+00;  6.8942972E-02;  9.9868481E+02;  2.0608464E-01; -1.0807045E+03;3; -1.0649519E+02;  0.0000000E+00;  3.3894890E+01;0;  4.5250320E+00;  9.6576836E+03;  0.0000000E+00;  2.7165692E+00;  4.0000000E+04;  0.0000000E+00;  3.8683539E+04;  4.9084096E+00;  0.0000000E+00; -3.8337770E-01;  1.5937654E+04;
  1.7977881E+00;  9.9999998E-03; -2.3400427E-01;9095;  1.0896896E+00;  0.0000000E+00;  7.2678752E-02;  9.9226337E+02;  2.0608221E-01; -6.3563872E+03;3; -1.2235992E+02;  0.0000000E+00;  3.5336426E+01;0;  4.5758834E+00;  9.5570977E+03;  0.0000000E+00; -1.0555613E+00;  4.0000000E+04;  0.0000000E+00;  3.8733906E+04;  4.9820514E+00;  0.0000000E+00; -4.0616798E-01;  1.8604607E+04;
  1.7977189E+00;  9.9999998E-03; -2.2377841E-01;9096;  1.1098891E+00;  0.0000000E+00;  7.0156217E-02;  9.9594824E+02;  2.0583774E-01; -3.3289302E+03;3; -1.1186230E+02;  0.0000000E+00;  3.3781326E+01;0;  4.5414629E+00;  9.6376484E+03;  0.0000000E+00;  1.9955820E+00;  4.0000000E+04;  0.0000000E+00;  3.8708477E+04;  4.9385304E+00;  0.0000000E+00; -3.9706746E-01;  2.0077342E+04;
  1.8100634E+00;  9.9999998E-03; -2.6483351E-01;9150;  1.0599334E+00;  0.0000000E+00;  7.8704789E-02;  9.8662537E+02;  1.9517913E-01; -1.0970313E+04;3; -1.4436208E+02;  0.0000000E+00;  3.6780949E+01;0;  4.4944005E+00;  1.0564555E+04;  0.0000000E+00; -7.9720157E-01;  4.0000000E+04;  0.0000000E+00;  3.8702840E+04;  4.9853106E+00;  0.0000000E+00; -4.9090984E-01;  2.8868791E+04;
  1.8122959E+00;  9.9999998E-03; -2.5461155E-01;9151;  1.1090488E+00;  0.0000000E+00;  6.9909573E-02;  9.8674744E+02;  1.9436443E-01; -1.0866543E+04;3; -1.3775752E+02;  0.0000000E+00;  3.8580288E+01;0;  4.4870644E+00;  1.0662600E+04;  0.0000000E+00; -1.2344302E-01;  4.0000000E+04;  0.0000000E+00;  3.8715906E+04;  4.9482975E+00;  0.0000000E+00; -4.6123314E-01;  3.3216594E+04;
  1.8119891E+00;  9.9999998E-03; -1.7323124E-01;9159;  1.2288821E+00;  0.0000000E+00;  3.9301351E-02;  1.0017721E+03;  1.9330344E-01;  1.4530717E+03;3; -8.1582794E+01;  0.0000000E+00;  2.9718012E+01;0;  3.8474312E+00;  1.1084068E+04;  0.0000000E+00;  7.7276647E-01;  4.0000000E+04;  0.0000000E+00;  3.8566316E+04;  4.1283822E+00;  0.0000000E+00; -2.8095096E-01;  7.6027246E+03;
  1.8119913E+00;  9.9999998E-03; -1.6320422E-01;9160;  1.2395649E+00;  0.0000000E+00;  3.7133090E-02;  1.0010590E+03;  1.9332062E-01;  8.6842139E+02;3; -7.6763184E+01;  0.0000000E+00;  2.8134819E+01;0;  3.7572134E+00;  1.1075200E+04;  0.0000000E+00;  7.3323596E-01;  4.0000000E+04;  0.0000000E+00;  3.8565230E+04;  4.0239577E+00;  0.0000000E+00; -2.6674429E-01;  7.3579692E+03;
  1.8122537E+00;  9.9999998E-03; -1.8322724E-01;9158;  1.2196884E+00;  0.0000000E+00;  4.1627977E-02;  1.0024061E+03;  1.9320258E-01;  1.9729308E+03;3; -8.5395279E+01;  0.0000000E+00;  3.2141426E+01;0;  3.9264963E+00;  1.1101316E+04;  0.0000000E+00;  1.2179447E+00;  4.0000000E+04;  0.0000000E+00;  3.8571551E+04;  4.2239318E+00;  0.0000000E+00; -2.9743546E-01;  8.2493848E+03;
  1.8121165E+00;  9.9999998E-03; -1.5312091E-01;9161;  1.2505988E+00;  0.0000000E+00;  3.4754857E-02;  1.0004333E+03;  1.9328193E-01;  3.5531873E+02;3; -7.2022903E+01;  0.0000000E+00;  2.6346081E+01;0;  3.6600723E+00;  1.1074668E+04;  0.0000000E+00;  6.7260098E-01;  4.0000000E+04;  0.0000000E+00;  3.8563906E+04;  3.9154742E+00;  0.0000000E+00; -2.5540188E-01;  7.2745483E+03;
  1.8128694E+00;  9.9999998E-03; -1.9325289E-01;9157;  1.2133033E+00;  0.0000000E+00;  4.3934267E-02;  1.0026695E+03;  1.9299668E-01;  2.1886477E+03;3; -8.8077690E+01;  0.0000000E+00;  3.3751411E+01;0;  3.9947243E+00;  1.1122435E+04;  0.0000000E+00;  2.6895475E+00;  4.0000000E+04;  0.0000000E+00;  3.8588027E+04;  4.3107443E+00;  0.0000000E+00; -3.1602004E-01;  1.1858282E+04;
  1.8122891E+00;  9.9999998E-03; -1.4294514E-01;9162;  1.2619793E+00;  0.0000000E+00;  3.2251466E-02;  1.0000258E+03;  1.9321318E-01;  2.1113295E+01;3; -6.7071014E+01;  0.0000000E+00;  2.4436687E+01;0;  3.5590785E+00;  1.1082175E+04;  0.0000000E+00;  4.8740706E-01;  4.0000000E+04;  0.0000000E+00;  3.8559645E+04;  3.8061585E+00;  0.0000000E+00; -2.4708019E-01;  7.5308311E+03;
  1.8124952E+00;  9.9999998E-03; -1.3266565E-01;9163;  1.2732730E+00;  0.0000000E+00;  2.9646235E-02;  9.9989294E+02;  1.9312161E-01; -8.7773804E+01;3; -6.2136917E+01;  0.0000000E+00;  2.2640322E+01;0;  3.4559119E+00;  1.1097292E+04;  0.0000000E+00;  2.7332184E-01;  4.0000000E+04;  0.0000000E+00;  3.8553332E+04;  3.6973073E+00;  0.0000000E+00; -2.4139540E-01;  8.1466494E+03;
  1.8127810E+00;  9.9999998E-03; -1.2234070E-01;9164;  1.2846532E+00;  0.0000000E+00;  2.6990511E-02;  1.0000419E+03;  1.9300662E-01;  3.4404259E+01;3; -5.6905106E+01;  0.0000000E+00;  2.0890999E+01;0;  3.3504817E+00;  1.1119865E+04;  0.0000000E+00;  1.4286560E-01;  4.0000000E+04;  0.0000000E+00;  3.8546020E+04;  3.5879173E+00;  0.0000000E+00; -2.3743547E-01;  8.9262061E+03;
  1.8142049E+00;  9.9999998E-03; -2.4437623E-01;9152;  1.1545385E+00;  0.0000000E+00;  5.9336491E-02;  9.8870947E+02;  1.9352001E-01; -9.2550439E+03;3; -1.2400225E+02;  0.0000000E+00;  3.8746403E+01;0;  4.4466901E+00;  1.0797214E+04;  0.0000000E+00;  2.3144403E+00;  4.0000000E+04;  0.0000000E+00;  3.8712383E+04;  4.8581939E+00;  0.0000000E+00; -4.1150388E-01;  3.7978344E+04;
  1.8138487E+00;  9.9999998E-03; -2.0338885E-01;9156;  1.2102412E+00;  0.0000000E+00;  4.6079375E-02;  1.0020433E+03;  1.9272080E-01;  1.6750734E+03;3; -9.0540779E+01;  0.0000000E+00;  3.5304455E+01;0;  4.0570369E+00;  1.1136043E+04;  0.0000000E+00;  5.3597832E+00;  4.0000000E+04;  0.0000000E+00;  3.8613645E+04;  4.3937225E+00;  0.0000000E+00; -3.3668548E-01;  2.1490064E+04;
  1.8131975E+00;  9.9999998E-03; -1.1202843E-01;9165;  1.2960470E+00;  0.0000000E+00;  2.4298046E-02;  1.0003994E+03;  1.9284084E-01;  3.2740588E+02;3; -5.1456711E+01;  0.0000000E+00;  1.9419630E+01;0;  3.2424560E+00;  1.1150485E+04;  0.0000000E+00;  1.1141381E-01;  4.0000000E+04;  0.0000000E+00;  3.8538805E+04;  3.4766867E+00;  0.0000000E+00; -2.3423074E-01;  9.7353857E+03;
  1.8149896E+00;  9.9999998E-03; -2.1362956E-01;9155;  1.2085510E+00;  0.0000000E+00;  4.7979411E-02;  9.9989545E+02;  1.9247259E-01; -8.5687859E+01;3; -9.3907555E+01;  0.0000000E+00;  3.6519104E+01;0;  4.1250482E+00;  1.1122853E+04;  0.0000000E+00;  7.9462366E+00;  4.0000000E+04;  0.0000000E+00;  3.8638512E+04;  4.4836855E+00;  0.0000000E+00; -3.5863742E-01;  3.3640281E+04;
  1.8154838E+00;  9.9999998E-03; -2.3413390E-01;9153;  1.1858689E+00;  0.0000000E+00;  5.3170580E-02;  9.9212769E+02;  1.9281065E-01; -6.4517773E+03;3; -1.1136706E+02;  0.0000000E+00;  3.7817612E+01;0;  4.3340235E+00;  1.0942377E+04;  0.0000000E+00;  5.5372024E+00;  4.0000000E+04;  0.0000000E+00;  3.8692367E+04;  4.7278566E+00;  0.0000000E+00; -3.9383328E-01;  4.1117613E+04;
  1.8157359E+00;  9.9999998E-03; -2.2388774E-01;9154;  1.2028949E+00;  0.0000000E+00;  4.9802862E-02;  9.9625543E+02;  1.9244765E-01; -3.0687153E+03;3; -1.0000610E+02;  0.0000000E+00;  3.7000374E+01;0;  4.2164211E+00;  1.1059906E+04;  0.0000000E+00;  8.1220999E+00;  4.0000000E+04;  0.0000000E+00;  3.8664125E+04;  4.5946355E+00;  0.0000000E+00; -3.7821457E-01;  4.0922773E+04;
  1.8265076E+00;  9.9999998E-03; -2.6505122E-01;9207;  1.1589801E+00;  0.0000000E+00;  5.9743982E-02;  9.8853979E+02;  1.8386567E-01; -9.3742588E+03;3; -1.3612875E+02;  0.0000000E+00;  4.1224777E+01;0;  4.3578591E+00;  1.1969632E+04;  0.0000000E+00;  5.9525747E+00;  4.0000000E+04;  0.0000000E+00;  3.8629176E+04;  4.8019376E+00;  0.0000000E+00; -4.4407865E-01;  4.2689055E+04;
  1.8287570E+00;  9.9999998E-03; -2.5481850E-01;9208;  1.2021098E+00;  0.0000000E+00;  5.0723370E-02;  9.8735046E+02;  1.8322298E-01; -1.0342694E+04;3; -1.2451033E+02;  0.0000000E+00;  4.1397308E+01;0;  4.2659135E+00;  1.2035542E+04;  0.0000000E+00;  6.7000742E+00;  4.0000000E+04;  0.0000000E+00;  3.8654418E+04;  4.6810246E+00;  0.0000000E+00; -4.1511101E-01;  5.0130074E+04;
  1.8307182E+00;  9.9999998E-03; -2.4457033E-01;9209;  1.2393955E+00;  0.0000000E+00;  4.0937237E-02;  9.8825269E+02;  1.8253489E-01; -9.6012949E+03;3; -1.0838998E+02;  0.0000000E+00;  4.1213821E+01;0;  4.1384401E+00;  1.2152271E+04;  0.0000000E+00;  9.1023760E+00;  4.0000000E+04;  0.0000000E+00;  3.8659660E+04;  4.5107574E+00;  0.0000000E+00; -3.7231752E-01;  5.6698488E+04;
  1.8301859E+00;  9.9999998E-03; -1.8309578E-01;9215;  1.2905416E+00;  0.0000000E+00;  2.3708794E-02;  1.0044942E+03;  1.8162967E-01;  3.6735764E+03;3; -6.2057266E+01;  0.0000000E+00;  3.2373169E+01;0;  3.2612991E+00;  1.2635511E+04;  0.0000000E+00;  3.1558540E+00;  4.0000000E+04;  0.0000000E+00;  3.8513688E+04;  3.5057766E+00;  0.0000000E+00; -2.4447745E-01;  1.3753766E+04;
  1.8301123E+00;  9.9999998E-03; -1.7313094E-01;9216;  1.2977469E+00;  0.0000000E+00;  2.2335585E-02;  1.0039878E+03;  1.8164937E-01;  3.2596887E+03;3; -5.6204815E+01;  0.0000000E+00;  3.0225266E+01;0;  3.1398356E+00;  1.2628763E+04;  0.0000000E+00;  1.4064941E+00;  4.0000000E+04;  0.0000000E+00;  3.8502199E+04;  3.3619070E+00;  0.0000000E+00; -2.2207150E-01;  1.0293165E+04;
  1.8301634E+00;  9.9999998E-03; -1.6318001E-01;9217;  1.3049898E+00;  0.0000000E+00;  2.0860275E-02;  1.0032241E+03;  1.8163893E-01;  2.6353396E+03;3; -5.0712269E+01;  0.0000000E+00;  2.8790894E+01;0;  3.0172949E+00;  1.2618186E+04;  0.0000000E+00;  8.1550986E-01;  4.0000000E+04;  0.0000000E+00;  3.8502578E+04;  3.2196062E+00;  0.0000000E+00; -2.0231126E-01;  9.0312148E+03;
  1.8305118E+00;  9.9999998E-03; -1.9317511E-01;9214;  1.2846141E+00;  0.0000000E+00;  2.5267666E-02;  1.0044106E+03;  1.8156262E-01;  3.6050361E+03;3; -6.6856171E+01;  0.0000000E+00;  3.5080978E+01;0;  3.3798447E+00;  1.2633479E+04;  0.0000000E+00;  6.7546811E+00;  4.0000000E+04;  0.0000000E+00;  3.8538750E+04;  3.6485054E+00;  0.0000000E+00; -2.6866078E-01;  2.3464611E+04;
  1.8302480E+00;  9.9999998E-03; -1.5318501E-01;9218;  1.3118883E+00;  0.0000000E+00;  1.9372687E-02;  1.0023806E+03;  1.8161683E-01;  1.9458995E+03;3; -4.5539883E+01;  0.0000000E+00;  2.6806244E+01;0;  2.8959515E+00;  1.2607284E+04;  0.0000000E+00;  6.6421413E-01;  4.0000000E+04;  0.0000000E+00;  3.8506551E+04;  3.0818579E+00;  0.0000000E+00; -1.8590638E-01;  8.2074443E+03;
  1.8303041E+00;  9.9999998E-03; -1.4311475E-01;9219;  1.3182130E+00;  0.0000000E+00;  1.7877873E-02;  1.0016124E+03;  1.8159772E-01;  1.3179744E+03;3; -4.0671124E+01;  0.0000000E+00;  2.4851522E+01;0;  2.7780488E+00;  1.2598453E+04;  0.0000000E+00;  5.5520505E-01;  4.0000000E+04;  0.0000000E+00;  3.8508203E+04;  2.9512548E+00;  0.0000000E+00; -1.7320605E-01;  7.7409058E+03;
  1.8303430E+00;  9.9999998E-03; -1.3293386E-01;9220;  1.3240943E+00;  0.0000000E+00;  1.6440194E-02;  1.0010375E+03;  1.8157651E-01;  8.4801434E+02;3; -3.5773762E+01;  0.0000000E+00;  2.2833559E+01;0;  2.6633468E+00;  1.2594839E+04;  0.0000000E+00;  3.9589244E-01;  4.0000000E+04;  0.0000000E+00;  3.8506383E+04;  2.8272748E+00;  0.0000000E+00; -1.6392806E-01;  7.7448618E+03;
  1.8312132E+00;  9.9999998E-03; -2.0343168E-01;9213;  1.2815804E+00;  0.0000000E+00;  2.6797595E-02;  1.0030406E+03;  1.8145370E-01;  2.4849531E+03;3; -7.0952438E+01;  0.0000000E+00;  3.6879295E+01;0;  3.4957685E+00;  1.2613580E+04;  0.0000000E+00;  1.1816736E+01;  4.0000000E+04;  0.0000000E+00;  3.8565996E+04;  3.7891648E+00;  0.0000000E+00; -2.9339623E-01;  3.9758191E+04;
  1.8304251E+00;  9.9999998E-03; -1.2264530E-01;9221;  1.3295561E+00;  0.0000000E+00;  1.4960020E-02;  1.0007252E+03;  1.8153897E-01;  5.9281110E+02;3; -3.0530962E+01;  0.0000000E+00;  2.0583088E+01;0;  2.5503149E+00;  1.2599703E+04;  0.0000000E+00;  2.4364850E-01;  4.0000000E+04;  0.0000000E+00;  3.8501605E+04;  2.7076254E+00;  0.0000000E+00; -1.5731050E-01;  8.1468848E+03;
  1.8306195E+00;  9.9999998E-03; -1.1231253E-01;9222;  1.3352207E+00;  0.0000000E+00;  1.3449972E-02;  1.0006901E+03;  1.8146823E-01;  5.6404523E+02;3; -2.4854176E+01;  0.0000000E+00;  1.8455324E+01;0;  2.4381304E+00;  1.2614254E+04;  0.0000000E+00;  1.5381859E-01;  4.0000000E+04;  0.0000000E+00;  3.8495316E+04;  2.5904901E+00;  0.0000000E+00; -1.5235965E-01;  8.7541934E+03;
  1.8321201E+00;  9.9999998E-03; -2.3431088E-01;9210;  1.2646712E+00;  0.0000000E+00;  3.4110449E-02;  9.9116498E+02;  1.8190314E-01; -7.2189927E+03;3; -9.2595612E+01;  0.0000000E+00;  3.9443134E+01;0;  3.9566355E+00;  1.2302470E+04;  0.0000000E+00;  1.2646586E+01;  4.0000000E+04;  0.0000000E+00;  3.8643840E+04;  4.3074465E+00;  0.0000000E+00; -3.5081097E-01;  6.1670305E+04;
  1.8321402E+00;  9.9999998E-03; -2.1375470E-01;9212;  1.2810361E+00;  0.0000000E+00;  2.8357357E-02;  9.9984796E+02;  1.8137419E-01; -1.2423901E+02;3; -7.4726357E+01;  0.0000000E+00;  3.8163342E+01;0;  3.6184931E+00;  1.2558010E+04;  0.0000000E+00;  1.5766668E+01;  4.0000000E+04;  0.0000000E+00;  3.8587062E+04;  3.9352725E+00;  0.0000000E+00; -3.1677932E-01;  5.5600773E+04;
  1.8326274E+00;  9.9999998E-03; -2.2404379E-01;9211;  1.2777771E+00;  0.0000000E+00;  3.0289888E-02;  9.9542908E+02;  1.8148811E-01; -3.7344448E+03;3; -8.0966591E+01;  0.0000000E+00;  3.8888954E+01;0;  3.7712009E+00;  1.2450197E+04;  0.0000000E+00;  1.5776632E+01;  4.0000000E+04;  0.0000000E+00;  3.8614438E+04;  4.1067710E+00;  0.0000000E+00; -3.3557001E-01;  6.2763566E+04;
  1.8419197E+00;  9.9999998E-03; -2.6531234E-01;9264;  1.2398825E+00;  0.0000000E+00;  4.1181859E-02;  9.9149866E+02;  1.7446405E-01; -6.9315117E+03;3; -1.2099501E+02;  0.0000000E+00;  4.2342594E+01;0;  4.0949697E+00;  1.3394051E+04;  0.0000000E+00;  1.1466024E+01;  4.0000000E+04;  0.0000000E+00;  3.8536020E+04;  4.4522038E+00;  0.0000000E+00; -3.5723406E-01;  4.9259082E+04;
  1.8442295E+00;  9.9999998E-03; -2.5507474E-01;9265;  1.2771572E+00;  0.0000000E+00;  3.1883199E-02;  9.8849506E+02;  1.7397451E-01; -9.3753184E+03;3; -1.0485539E+02;  0.0000000E+00;  4.0494221E+01;0;  3.9500751E+00;  1.3404365E+04;  0.0000000E+00;  1.2543184E+01;  4.0000000E+04;  0.0000000E+00;  3.8574406E+04;  4.2775202E+00;  0.0000000E+00; -3.2744509E-01;  6.0807621E+04;
  1.8462564E+00;  9.9999998E-03; -2.4482141E-01;9266;  1.3079953E+00;  0.0000000E+00;  2.2850631E-02;  9.8780579E+02;  1.7343624E-01; -9.9320586E+03;3; -8.8333336E+01;  0.0000000E+00;  4.0628349E+01;0;  3.7644210E+00;  1.3479786E+04;  0.0000000E+00;  1.5041433E+01;  4.0000000E+04;  0.0000000E+00;  3.8590000E+04;  4.0599065E+00;  0.0000000E+00; -2.9548547E-01;  6.9837609E+04;
  1.8467548E+00;  9.9999998E-03; -1.8295738E-01;9272;  1.3376459E+00;  0.0000000E+00;  7.5236051E-03;  1.0056850E+03;  1.7224807E-01;  4.6297729E+03;3; -3.9591610E+01;  0.0000000E+00;  3.2402641E+01;0;  2.6376605E+00;  1.4111442E+04;  0.0000000E+00;  7.5905814E+00;  4.0000000E+04;  0.0000000E+00;  3.8454258E+04;  2.8294168E+00;  0.0000000E+00; -1.9175622E-01;  2.4040549E+04;
  1.8468788E+00;  9.9999998E-03; -1.9318449E-01;9271;  1.3347132E+00;  0.0000000E+00;  8.0461390E-03;  1.0051061E+03;  1.7227475E-01;  4.1582100E+03;3; -4.6266190E+01;  0.0000000E+00;  3.3522484E+01;0;  2.7867391E+00;  1.4082433E+04;  0.0000000E+00;  1.4074000E+01;  4.0000000E+04;  0.0000000E+00;  3.8486312E+04;  3.0037913E+00;  0.0000000E+00; -2.1705228E-01;  4.1037699E+04;
  1.8469422E+00;  9.9999998E-03; -1.7294650E-01;9273;  1.3419901E+00;  0.0000000E+00;  6.5006944E-03;  1.0053549E+03;  1.7218234E-01;  4.3607456E+03;3; -3.3512821E+01;  0.0000000E+00;  3.1173830E+01;0;  2.4909608E+00;  1.4124349E+04;  0.0000000E+00;  3.6190658E+00;  4.0000000E+04;  0.0000000E+00;  3.8431199E+04;  2.6576538E+00;  0.0000000E+00; -1.6669293E-01;  1.5190968E+04;
  1.8471851E+00;  9.9999998E-03; -1.6303168E-01;9274;  1.3462329E+00;  0.0000000E+00;  5.4722982E-03;  1.0046715E+03;  1.7211851E-01;  3.8039648E+03;3; -2.7795519E+01;  0.0000000E+00;  3.0543526E+01;0;  2.3513219E+00;  1.4123358E+04;  0.0000000E+00;  1.7268051E+00;  4.0000000E+04;  0.0000000E+00;  3.8425746E+04;  2.4953976E+00;  0.0000000E+00; -1.4407557E-01;  1.1614587E+04;
  1.8473613E+00;  9.9999998E-03; -1.5311576E-01;9275;  1.3497766E+00;  0.0000000E+00;  4.5563621E-03;  1.0037977E+03;  1.7207193E-01;  3.0922888E+03;3; -2.2879396E+01;  0.0000000E+00;  2.9221954E+01;0;  2.2207973E+00;  1.4111431E+04;  0.0000000E+00;  9.8237962E-01;  4.0000000E+04;  0.0000000E+00;  3.8431082E+04;  2.3455997E+00;  0.0000000E+00; -1.2480243E-01;  9.7387783E+03;
  1.8473458E+00;  9.9999998E-03; -1.1259967E-01;9279;  1.3579855E+00;  0.0000000E+00;  3.1818806E-03;  1.0008058E+03;  1.7205584E-01;  6.5608374E+02;3; -3.7309496E+00;  0.0000000E+00;  2.0824396E+01;0;  1.7738233E+00;  1.4053470E+04;  0.0000000E+00;  2.2212622E-01;  4.0000000E+04;  0.0000000E+00;  3.8442352E+04;  1.8557357E+00;  0.0000000E+00; -8.1912413E-02;  7.4264087E+03;
  1.8473558E+00;  9.9999998E-03; -1.2288906E-01;9278;  1.3565072E+00;  0.0000000E+00;  3.2211235E-03;  1.0012527E+03;  1.7205644E-01;  1.0200868E+03;3; -8.7709875E+00;  0.0000000E+00;  2.4514820E+01;0;  1.8779073E+00;  1.4059655E+04;  0.0000000E+00;  3.5623595E-01;  4.0000000E+04;  0.0000000E+00;  3.8445207E+04;  1.9662510E+00;  0.0000000E+00; -8.8343725E-02;  7.2697510E+03;
  1.8474368E+00;  9.9999998E-03; -1.4314230E-01;9276;  1.3525666E+00;  0.0000000E+00;  3.8889758E-03;  1.0028552E+03;  1.7205039E-01;  2.3248262E+03;3; -1.8094940E+01;  0.0000000E+00;  2.8211775E+01;0;  2.0992408E+00;  1.4093505E+04;  0.0000000E+00;  6.9516146E-01;  4.0000000E+04;  0.0000000E+00;  3.8438938E+04;  2.2084236E+00;  0.0000000E+00; -1.0918287E-01;  8.3963135E+03;
  1.8474139E+00;  9.9999998E-03; -1.3307619E-01;9277;  1.3547447E+00;  0.0000000E+00;  3.4444376E-03;  1.0019664E+03;  1.7204902E-01;  1.6011119E+03;3; -1.3489599E+01;  0.0000000E+00;  2.6911890E+01;0;  1.9857600E+00;  1.4074285E+04;  0.0000000E+00;  5.1932251E-01;  4.0000000E+04;  0.0000000E+00;  3.8444320E+04;  2.0829446E+00;  0.0000000E+00; -9.7184718E-02;  7.5553633E+03;
  1.8474447E+00;  9.9999998E-03; -1.0227251E-01;9280;  1.3597101E+00;  0.0000000E+00;  3.0474656E-03;  1.0006169E+03;  1.7203236E-01;  5.0231525E+02;3;  1.3792238E+00;  0.0000000E+00;  1.7229635E+01;0;  1.6734807E+00;  1.4057123E+04;  0.0000000E+00;  1.3607252E-01;  4.0000000E+04;  0.0000000E+00;  3.8437766E+04;  1.7505441E+00;  0.0000000E+00; -7.7063382E-02;  7.8397378E+03;
  1.8475462E+00;  9.9999998E-03; -2.0358969E-01;9270;  1.3348472E+00;  0.0000000E+00;  8.6559393E-03;  1.0027178E+03;  1.7224932E-01;  2.2128479E+03;3; -5.1045303E+01;  0.0000000E+00;  3.6308197E+01;0;  2.9341180E+00;  1.4027742E+04;  0.0000000E+00;  2.1253508E+01;  4.0000000E+04;  0.0000000E+00;  3.8505609E+04;  3.1738176E+00;  0.0000000E+00; -2.3969965E-01;  6.2365398E+04;
  1.8477861E+00;  9.9999998E-03; -2.3455320E-01;9267;  1.3275412E+00;  0.0000000E+00;  1.6084284E-02;  9.8966504E+02;  1.7290293E-01; -8.4144824E+03;3; -7.1619644E+01;  0.0000000E+00;  3.8659744E+01;0;  3.5319767E+00;  1.3613906E+04;  0.0000000E+00;  1.9236071E+01;  4.0000000E+04;  0.0000000E+00;  3.8580922E+04;  3.8117344E+00;  0.0000000E+00; -2.7975783E-01;  7.7711992E+04;
  1.8483868E+00;  9.9999998E-03; -2.1396486E-01;9269;  1.3372355E+00;  0.0000000E+00;  1.0003494E-02;  9.9843024E+02;  1.7226896E-01; -1.2778549E+03;3; -5.4602425E+01;  0.0000000E+00;  3.7117802E+01;0;  3.0938370E+00;  1.3926484E+04;  0.0000000E+00;  2.4985605E+01;  4.0000000E+04;  0.0000000E+00;  3.8523344E+04;  3.3525302E+00;  0.0000000E+00; -2.5869316E-01;  7.7735828E+04;
  1.8485665E+00;  9.9999998E-03; -2.2427297E-01;9268;  1.3364718E+00;  0.0000000E+00;  1.2136975E-02;  9.9354645E+02;  1.7247829E-01; -5.2532959E+03;3; -6.0801388E+01;  0.0000000E+00;  3.7944759E+01;0;  3.2946880E+00;  1.3777228E+04;  0.0000000E+00;  2.3491213E+01;  4.0000000E+04;  0.0000000E+00;  3.8552977E+04;  3.5661695E+00;  0.0000000E+00; -2.7148157E-01;  8.1722094E+04;
  1.8565688E+00;  9.9999998E-03; -2.6561758E-01;9320;  1.3049729E+00;  0.0000000E+00;  2.4656108E-02;  9.9559491E+02;  1.6659917E-01; -3.5779885E+03;3; -1.0048373E+02;  0.0000000E+00;  4.0400658E+01;0;  3.7520270E+00;  1.4835153E+04;  0.0000000E+00;  1.3285242E+01;  4.0000000E+04;  0.0000000E+00;  3.8422828E+04;  4.0115981E+00;  0.0000000E+00; -2.5957111E-01;  4.3259957E+04;
  1.8588330E+00;  9.9999998E-03; -2.5538182E-01;9321;  1.3339297E+00;  0.0000000E+00;  1.6990062E-02;  9.9088928E+02;  1.6625433E-01; -7.3951748E+03;3; -8.2914177E+01;  0.0000000E+00;  3.8308155E+01;0;  3.5554469E+00;  1.4775013E+04;  0.0000000E+00;  1.7175171E+01;  4.0000000E+04;  0.0000000E+00;  3.8472812E+04;  3.8031685E+00;  0.0000000E+00; -2.4772167E-01;  6.4983594E+04;
  1.8609052E+00;  9.9999998E-03; -2.4512905E-01;9322;  1.3569229E+00;  0.0000000E+00;  9.5994165E-03;  9.8820325E+02;  1.6586268E-01; -9.5694922E+03;3; -6.8501289E+01;  0.0000000E+00;  3.8144279E+01;0;  3.3293374E+00;  1.4783287E+04;  0.0000000E+00;  2.0268108E+01;  4.0000000E+04;  0.0000000E+00;  3.8500324E+04;  3.5599742E+00;  0.0000000E+00; -2.3063691E-01;  7.8013586E+04;
  1.8625859E+00;  9.9999998E-03; -2.3485751E-01;9323;  1.3710713E+00;  0.0000000E+00;  2.9270349E-03;  9.8833282E+02;  1.6543940E-01; -9.4594492E+03;3; -5.3128613E+01;  0.0000000E+00;  3.5895950E+01;0;  3.0784080E+00;  1.4871469E+04;  0.0000000E+00;  2.4603079E+01;  4.0000000E+04;  0.0000000E+00;  3.8502125E+04;  3.2920847E+00;  0.0000000E+00; -2.1367660E-01;  8.7942250E+04;
  1.8622843E+00;  9.9999998E-03; -1.8291430E-01;9328;  1.3674909E+00;  0.0000000E+00; -5.1655765E-03;  1.0060514E+03;  1.6458291E-01;  4.9067939E+03;3; -2.0871828E+01;  0.0000000E+00;  2.8253990E+01;0;  2.1015391E+00;  1.5502415E+04;  0.0000000E+00;  1.5303802E+01;  4.0000000E+04;  0.0000000E+00;  3.8395164E+04;  2.2420619E+00;  0.0000000E+00; -1.4052270E-01;  3.9907535E+04;
  1.8624293E+00;  9.9999998E-03; -1.9335507E-01;9327;  1.3690020E+00;  0.0000000E+00; -5.0601144E-03;  1.0046693E+03;  1.6464844E-01;  3.7859370E+03;3; -2.6643427E+01;  0.0000000E+00;  2.9173178E+01;0;  2.2578549E+00;  1.5446045E+04;  0.0000000E+00;  2.4712574E+01;  4.0000000E+04;  0.0000000E+00;  3.8422211E+04;  2.4221821E+00;  0.0000000E+00; -1.6432709E-01;  6.3151980E+04;
  1.8626950E+00;  9.9999998E-03; -1.7274995E-01;9329;  1.3688596E+00;  0.0000000E+00; -6.0250335E-03;  1.0059562E+03;  1.6445965E-01;  4.8290381E+03;3; -1.4936634E+01;  0.0000000E+00;  2.7829382E+01;0;  1.9469637E+00;  1.5538168E+04;  0.0000000E+00;  8.1933441E+00;  4.0000000E+04;  0.0000000E+00;  3.8358477E+04;  2.0620406E+00;  0.0000000E+00; -1.1507694E-01;  2.4079250E+04;
  1.8632154E+00;  9.9999998E-03; -2.0385993E-01;9326;  1.3732946E+00;  0.0000000E+00; -5.4102107E-03;  1.0009736E+03;  1.6467293E-01;  7.8919812E+02;3; -3.1749577E+01;  0.0000000E+00;  3.0699327E+01;0;  2.4159467E+00;  1.5349438E+04;  0.0000000E+00;  3.2216530E+01;  4.0000000E+04;  0.0000000E+00;  3.8430645E+04;  2.5976529E+00;  0.0000000E+00; -1.8170613E-01;  8.5010117E+04;
  1.8632146E+00;  9.9999998E-03; -1.6279423E-01;9330;  1.3707563E+00;  0.0000000E+00; -7.0817699E-03;  1.0053621E+03;  1.6433477E-01;  4.3466309E+03;3; -9.6662273E+00;  0.0000000E+00;  2.6838512E+01;0;  1.8025782E+00;  1.5555060E+04;  0.0000000E+00;  4.0916543E+00;  4.0000000E+04;  0.0000000E+00;  3.8338621E+04;  1.8942149E+00;  0.0000000E+00; -9.1636673E-02;  1.6118031E+04;
  1.8636464E+00;  9.9999998E-03; -2.2456904E-01;9324;  1.3771676E+00;  0.0000000E+00; -1.3619431E-03;  9.9114307E+02;  1.6504651E-01; -7.1785771E+03;3; -4.2102673E+01;  0.0000000E+00;  3.3870682E+01;0;  2.8213139E+00;  1.5023170E+04;  0.0000000E+00;  2.9911695E+01;  4.0000000E+04;  0.0000000E+00;  3.8480199E+04;  3.0274591E+00;  0.0000000E+00; -2.0614521E-01;  9.4971484E+04;
  1.8634435E+00;  9.9999998E-03; -1.0251639E-01;9336;  1.3697296E+00;  0.0000000E+00; -6.2615881E-03;  1.0004130E+03;  1.6428214E-01;  3.3480765E+02;3;  1.3060286E+01;  0.0000000E+00;  1.7291533E+01;0;  1.1728274E+00;  1.5433610E+04;  0.0000000E+00;  1.5844598E-01;  4.0000000E+04;  0.0000000E+00;  3.8373133E+04;  1.1911699E+00;  0.0000000E+00; -1.8342447E-02;  6.3038472E+03;
  1.8636048E+00;  9.9999998E-03; -1.5290977E-01;9331;  1.3719902E+00;  0.0000000E+00; -7.9530524E-03;  1.0045723E+03;  1.6424562E-01;  3.7058845E+03;3; -4.8989415E+00;  0.0000000E+00;  2.5684828E+01;0;  1.6717398E+00;  1.5552671E+04;  0.0000000E+00;  2.0538499E+00;  4.0000000E+04;  0.0000000E+00;  3.8337762E+04;  1.7431551E+00;  0.0000000E+00; -7.1415290E-02;  1.2328642E+04;
  1.8635387E+00;  9.9999998E-03; -1.1279404E-01;9335;  1.3705658E+00;  0.0000000E+00; -7.3662587E-03;  1.0009243E+03;  1.6425301E-01;  7.4911548E+02;3;  1.0185210E+01;  0.0000000E+00;  1.9699915E+01;0;  1.2591184E+00;  1.5450142E+04;  0.0000000E+00;  2.8054920E-01;  4.0000000E+04;  0.0000000E+00;  3.8373320E+04;  1.2829272E+00;  0.0000000E+00; -2.3808667E-02;  6.4087065E+03;
  1.8638480E+00;  9.9999998E-03; -2.1425121E-01;9325;  1.3771387E+00;  0.0000000E+00; -4.0634652E-03;  9.9584784E+02;  1.6477542E-01; -3.3651326E+03;3; -3.5336998E+01;  0.0000000E+00;  3.3107922E+01;0;  2.5970335E+00;  1.5199040E+04;  0.0000000E+00;  3.3660526E+01;  4.0000000E+04;  0.0000000E+00;  3.8449832E+04;  2.7927568E+00;  0.0000000E+00; -1.9572331E-01;  9.5672172E+04;
  1.8636951E+00;  9.9999998E-03; -1.2297821E-01;9334;  1.3714868E+00;  0.0000000E+00; -8.1846584E-03;  1.0016932E+03;  1.6421771E-01;  1.3722634E+03;3;  6.9587722E+00;  0.0000000E+00;  2.1708183E+01;0;  1.3501544E+00;  1.5476046E+04;  0.0000000E+00;  4.5259780E-01;  4.0000000E+04;  0.0000000E+00;  3.8368938E+04;  1.3814127E+00;  0.0000000E+00; -3.1258348E-02;  6.9950845E+03;
  1.8638066E+00;  9.9999998E-03; -1.4301224E-01;9332;  1.3724452E+00;  0.0000000E+00; -8.4711174E-03;  1.0036248E+03;  1.6419829E-01;  2.9377549E+03;3; -7.2541964E-01;  0.0000000E+00;  2.4600119E+01;0;  1.5538744E+00;  1.5534556E+04;  0.0000000E+00;  1.1261482E+00;  4.0000000E+04;  0.0000000E+00;  3.8347676E+04;  1.6085343E+00;  0.0000000E+00; -5.4659940E-02;  9.9506445E+03;
  1.8638171E+00;  9.9999998E-03; -1.3304675E-01;9333;  1.3722107E+00;  0.0000000E+00; -8.5673593E-03;  1.0026522E+03;  1.6419727E-01;  2.1494705E+03;3;  3.1594427E+00;  0.0000000E+00;  2.3200918E+01;0;  1.4475074E+00;  1.5506613E+04;  0.0000000E+00;  6.9678777E-01;  4.0000000E+04;  0.0000000E+00;  3.8359957E+04;  1.4888674E+00;  0.0000000E+00; -4.1360002E-02;  8.1810688E+03;
  1.8707851E+00;  9.9999998E-03; -2.6595688E-01;9375;  1.3555309E+00;  0.0000000E+00;  1.1187878E-02;  1.0001903E+03;  1.5999310E-01;  1.5383661E+02;3; -7.9109428E+01;  0.0000000E+00;  3.6926315E+01;0;  3.3464677E+00;  1.6267569E+04;  0.0000000E+00;  9.0640373E+00;  4.0000000E+04;  0.0000000E+00;  3.8300160E+04;  3.5222430E+00;  0.0000000E+00; -1.7577538E-01;  2.2211867E+04;
  1.8728166E+00;  9.9999998E-03; -2.5573456E-01;9376;  1.3753989E+00;  0.0000000E+00;  5.4362402E-03;  9.9468201E+02;  1.5976556E-01; -4.2968423E+03;3; -6.2783314E+01;  0.0000000E+00;  3.4496635E+01;0;  3.1203940E+00;  1.6151827E+04;  0.0000000E+00;  1.8050426E+01;  4.0000000E+04;  0.0000000E+00;  3.8351230E+04;  3.3005285E+00;  0.0000000E+00; -1.8013448E-01;  5.7825242E+04;
  1.8748661E+00;  9.9999998E-03; -2.4548922E-01;9377;  1.3910859E+00;  0.0000000E+00; -2.9193843E-04;  9.8996588E+02;  1.5950909E-01; -8.1013257E+03;3; -4.9288078E+01;  0.0000000E+00;  3.3260643E+01;0;  2.8767903E+00;  1.6075083E+04;  0.0000000E+00;  2.3378523E+01;  4.0000000E+04;  0.0000000E+00;  3.8389551E+04;  3.0518653E+00;  0.0000000E+00; -1.7507498E-01;  7.8182422E+04;
  1.8766276E+00;  9.9999998E-03; -2.3522425E-01;9378;  1.4020882E+00;  0.0000000E+00; -6.5514538E-03;  9.8794232E+02;  1.5920843E-01; -9.7286104E+03;3; -3.6056110E+01;  0.0000000E+00;  3.1050110E+01;0;  2.6379182E+00;  1.6088989E+04;  0.0000000E+00;  2.8444895E+01;  4.0000000E+04;  0.0000000E+00;  3.8402172E+04;  2.7925429E+00;  0.0000000E+00; -1.5462470E-01;  9.1895734E+04;
  1.8771033E+00;  9.9999998E-03; -1.8310332E-01;9383;  1.3869036E+00;  0.0000000E+00; -1.3776236E-02;  1.0054886E+03;  1.5828839E-01;  4.4276475E+03;3; -7.0673161E+00;  0.0000000E+00;  2.3218138E+01;0;  1.6586100E+00;  1.6787615E+04;  0.0000000E+00;  2.6719015E+01;  4.0000000E+04;  0.0000000E+00;  3.8324746E+04;  1.7502348E+00;  0.0000000E+00; -9.1624804E-02;  6.0625555E+04;
  1.8775331E+00;  9.9999998E-03; -1.9372280E-01;9382;  1.3930812E+00;  0.0000000E+00; -1.4590391E-02;  1.0027630E+03;  1.5835290E-01;  2.2285532E+03;3; -1.1600480E+01;  0.0000000E+00;  2.5016665E+01;0;  1.8056087E+00;  1.6697885E+04;  0.0000000E+00;  3.7196175E+01;  4.0000000E+04;  0.0000000E+00;  3.8333117E+04;  1.9166325E+00;  0.0000000E+00; -1.1102381E-01;  8.5728117E+04;
  1.8779114E+00;  9.9999998E-03; -2.2493798E-01;9379;  1.4060894E+00;  0.0000000E+00; -1.0873513E-02;  9.8900342E+02;  1.5888919E-01; -8.8681084E+03;3; -2.6072132E+01;  0.0000000E+00;  2.8857254E+01;0;  2.3866513E+00;  1.6195165E+04;  0.0000000E+00;  3.4548824E+01;  4.0000000E+04;  0.0000000E+00;  3.8389203E+04;  2.5313892E+00;  0.0000000E+00; -1.4473793E-01;  1.0200977E+05;
  1.8774914E+00;  9.9999998E-03; -1.7268907E-01;9384;  1.3846089E+00;  0.0000000E+00; -1.3736727E-02;  1.0059423E+03;  1.5815961E-01;  4.7929375E+03;3; -1.9195832E+00;  0.0000000E+00;  2.1010035E+01;0;  1.5127209E+00;  1.6842164E+04;  0.0000000E+00;  1.6114105E+01;  4.0000000E+04;  0.0000000E+00;  3.8286887E+04;  1.5805300E+00;  0.0000000E+00; -6.7809053E-02;  3.8147105E+04;
  1.8782982E+00;  9.9999998E-03; -2.0423971E-01;9381;  1.4003482E+00;  0.0000000E+00; -1.5039862E-02;  9.9787762E+02;  1.5842725E-01; -1.7113376E+03;3; -1.5854645E+01;  0.0000000E+00;  2.6105795E+01;0;  1.9654549E+00;  1.6550570E+04;  0.0000000E+00;  4.2093910E+01;  4.0000000E+04;  0.0000000E+00;  3.8337801E+04;  2.0894918E+00;  0.0000000E+00; -1.2403691E-01;  1.0251568E+05;
  1.8785143E+00;  9.9999998E-03; -2.1462224E-01;9380;  1.4050896E+00;  0.0000000E+00; -1.3901032E-02;  9.9269189E+02;  1.5860623E-01; -5.8921982E+03;3; -2.0376255E+01;  0.0000000E+00;  2.8344147E+01;0;  2.1587238E+00;  1.6365593E+04;  0.0000000E+00;  4.0187366E+01;  4.0000000E+04;  0.0000000E+00;  3.8360895E+04;  2.2926030E+00;  0.0000000E+00; -1.3387926E-01;  1.0686679E+05;
  1.8782440E+00;  9.9999998E-03; -1.6258471E-01;9385;  1.3842534E+00;  0.0000000E+00; -1.4421193E-02;  1.0054601E+03;  1.5800425E-01;  4.4026250E+03;3;  3.0566254E+00;  0.0000000E+00;  1.9957052E+01;0;  1.3751401E+00;  1.6877648E+04;  0.0000000E+00;  8.7899456E+00;  4.0000000E+04;  0.0000000E+00;  3.8248879E+04;  1.4197254E+00;  0.0000000E+00; -4.4585388E-02;  2.4020166E+04;
  1.8789165E+00;  9.9999998E-03; -1.5265362E-01;9386;  1.3837861E+00;  0.0000000E+00; -1.5155668E-02;  1.0047337E+03;  1.5786943E-01;  3.8159434E+03;3;  7.1898727E+00;  0.0000000E+00;  1.9310143E+01;0;  1.2515506E+00;  1.6892430E+04;  0.0000000E+00;  4.5625453E+00;  4.0000000E+04;  0.0000000E+00;  3.8232777E+04;  1.2760935E+00;  0.0000000E+00; -2.4542883E-02;  1.6646795E+04;
  1.8791051E+00;  9.9999998E-03; -1.0264057E-01;9391;  1.3747605E+00;  0.0000000E+00; -1.2832515E-02;  1.0003123E+03;  1.5782006E-01;  2.5166115E+02;3;  1.9599876E+01;  0.0000000E+00;  1.2979245E+01;0;  8.0743957E-01;  1.6755670E+04;  0.0000000E+00;  1.7518800E-01;  4.0000000E+04;  0.0000000E+00;  3.8287547E+04;  7.7940446E-01;  0.0000000E+00;  2.8035082E-02;  5.4051304E+03;
  1.8793567E+00;  9.9999998E-03; -1.4277105E-01;9387;  1.3827105E+00;  0.0000000E+00; -1.5651349E-02;  1.0039203E+03;  1.5778315E-01;  3.1597200E+03;3;  1.0621076E+01;  0.0000000E+00;  1.8540939E+01;0;  1.1420660E+00;  1.6885951E+04;  0.0000000E+00;  2.3194091E+00;  4.0000000E+04;  0.0000000E+00;  3.8236605E+04;  1.1501406E+00;  0.0000000E+00; -8.0745928E-03;  1.2609113E+04;
  1.8793093E+00;  9.9999998E-03; -1.1282452E-01;9390;  1.3768296E+00;  0.0000000E+00; -1.4242695E-02;  1.0010801E+03;  1.5777835E-01;  8.7060626E+02;3;  1.8101515E+01;  0.0000000E+00;  1.4243059E+01;0;  8.8006353E-01;  1.6788299E+04;  0.0000000E+00;  3.3151877E-01;  4.0000000E+04;  0.0000000E+00;  3.8279734E+04;  8.5752249E-01;  0.0000000E+00;  2.2541018E-02;  6.2671982E+03;
  1.8795432E+00;  9.9999998E-03; -1.3286702E-01;9388;  1.3810819E+00;  0.0000000E+00; -1.5736366E-02;  1.0029971E+03;  1.5774527E-01;  2.4153940E+03;3;  1.3506571E+01;  0.0000000E+00;  1.7434778E+01;0;  1.0449893E+00;  1.6861572E+04;  0.0000000E+00;  1.1833503E+00;  4.0000000E+04;  0.0000000E+00;  3.8250773E+04;  1.0399843E+00;  0.0000000E+00;  5.0049718E-03;  9.8447891E+03;
  1.8794944E+00;  9.9999998E-03; -1.2289531E-01;9389;  1.3790492E+00;  0.0000000E+00; -1.5280727E-02;  1.0020206E+03;  1.5775000E-01;  1.6284841E+03;3;  1.6154305E+01;  0.0000000E+00;  1.5810075E+01;0;  9.5853782E-01;  1.6826092E+04;  0.0000000E+00;  6.1885864E-01;  4.0000000E+04;  0.0000000E+00;  3.8266863E+04;  9.4350022E-01;  0.0000000E+00;  1.5037599E-02;  7.7447617E+03;
  1.8848621E+00;  9.9999998E-03; -2.6631865E-01;9429;  1.3957111E+00;  0.0000000E+00; -1.0754059E-04;  1.0037404E+03;  1.5444507E-01;  3.0078232E+03;3; -5.7372360E+01;  0.0000000E+00;  3.2798119E+01;0;  2.9276752E+00;  1.7624854E+04;  0.0000000E+00;  2.6456065E+00;  4.0000000E+04;  0.0000000E+00;  3.8177711E+04;  3.0278313E+00;  0.0000000E+00; -1.0015609E-01;  1.2162817E+04;
  1.8864275E+00;  9.9999998E-03; -2.5612578E-01;9430;  1.4058397E+00;  0.0000000E+00; -4.0006619E-03;  9.9942535E+02;  1.5429446E-01; -4.6179962E+02;3; -4.4419285E+01;  0.0000000E+00;  3.0056892E+01;0;  2.6857383E+00;  1.7521941E+04;  0.0000000E+00;  1.2774699E+01;  4.0000000E+04;  0.0000000E+00;  3.8213395E+04;  2.8027968E+00;  0.0000000E+00; -1.1705852E-01;  3.6696270E+04;
  1.8882989E+00;  9.9999998E-03; -2.4589817E-01;9431;  1.4154201E+00;  0.0000000E+00; -7.9349484E-03;  9.9347595E+02;  1.5414575E-01; -5.2385156E+03;3; -3.3075451E+01;  0.0000000E+00;  2.8186777E+01;0;  2.4427147E+00;  1.7372199E+04;  0.0000000E+00;  2.2732763E+01;  4.0000000E+04;  0.0000000E+00;  3.8254699E+04;  2.5674634E+00;  0.0000000E+00; -1.2474874E-01;  6.8254023E+04;
  1.8900672E+00;  9.9999998E-03; -2.3564647E-01;9432;  1.4226881E+00;  0.0000000E+00; -1.2957302E-02;  9.8922516E+02;  1.5396403E-01; -8.6448252E+03;3; -2.2682009E+01;  0.0000000E+00;  2.6836140E+01;0;  2.2219179E+00;  1.7292535E+04;  0.0000000E+00;  2.9770922E+01;  4.0000000E+04;  0.0000000E+00;  3.8277652E+04;  2.3291736E+00;  0.0000000E+00; -1.0725574E-01;  8.8042984E+04;
  1.8915093E+00;  9.9999998E-03; -2.2537015E-01;9433;  1.4249928E+00;  0.0000000E+00; -1.7055010E-02;  9.8800061E+02;  1.5373944E-01; -9.6208564E+03;3; -1.4990744E+01;  0.0000000E+00;  2.4771410E+01;0;  1.9963568E+00;  1.7318760E+04;  0.0000000E+00;  3.6596214E+01;  4.0000000E+04;  0.0000000E+00;  3.8275996E+04;  2.0885899E+00;  0.0000000E+00; -9.2233054E-02;  1.0160384E+05;
  1.8916597E+00;  9.9999998E-03; -1.8357328E-01;9437;  1.4018186E+00;  0.0000000E+00; -1.9537797E-02;  1.0035997E+03;  1.5307415E-01;  2.8859199E+03;3;  2.4114482E+00;  0.0000000E+00;  1.8252333E+01;0;  1.3043376E+00;  1.7951949E+04;  0.0000000E+00;  4.0448376E+01;  4.0000000E+04;  0.0000000E+00;  3.8224277E+04;  1.3484465E+00;  0.0000000E+00; -4.4108856E-02;  8.2443805E+04;
  1.8916526E+00;  9.9999998E-03; -1.7290318E-01;9438;  1.3948437E+00;  0.0000000E+00; -1.7832542E-02;  1.0053496E+03;  1.5297961E-01;  4.2889443E+03;3;  6.4906926E+00;  0.0000000E+00;  1.6412571E+01;0;  1.1777478E+00;  1.8031238E+04;  0.0000000E+00;  2.8139513E+01;  4.0000000E+04;  0.0000000E+00;  3.8207656E+04;  1.2026603E+00;  0.0000000E+00; -2.4912478E-02;  5.7228152E+04;
  1.8923026E+00;  9.9999998E-03; -1.9422916E-01;9436;  1.4109004E+00;  0.0000000E+00; -2.1241497E-02;  9.9930066E+02;  1.5314811E-01; -5.6050909E+02;3; -6.2892461E-01;  0.0000000E+00;  2.0346788E+01;0;  1.4392751E+00;  1.7813342E+04;  0.0000000E+00;  4.8145683E+01;  4.0000000E+04;  0.0000000E+00;  3.8218469E+04;  1.4967335E+00;  0.0000000E+00; -5.7458431E-02;  1.0265330E+05;
  1.8924479E+00;  9.9999998E-03; -2.1506421E-01;9434;  1.4235799E+00;  0.0000000E+00; -1.9843804E-02;  9.8983899E+02;  1.5349528E-01; -8.1432803E+03;3; -9.3509007E+00;  0.0000000E+00;  2.2506119E+01;0;  1.7833292E+00;  1.7442562E+04;  0.0000000E+00;  4.3548126E+01;  4.0000000E+04;  0.0000000E+00;  3.8254012E+04;  1.8636287E+00;  0.0000000E+00; -8.0299474E-02;  1.1012545E+05;
  1.8923914E+00;  9.9999998E-03; -1.6252799E-01;9439;  1.3914583E+00;  0.0000000E+00; -1.7649105E-02;  1.0051994E+03;  1.5282810E-01;  4.1670742E+03;3;  1.0562474E+01;  0.0000000E+00;  1.4908895E+01;0;  1.0567765E+00;  1.8080381E+04;  0.0000000E+00;  1.7005754E+01;  4.0000000E+04;  0.0000000E+00;  3.8163414E+04;  1.0598396E+00;  0.0000000E+00; -3.0630771E-03;  3.6683801E+04;
  1.8927183E+00;  9.9999998E-03; -2.0470388E-01;9435;  1.4188275E+00;  0.0000000E+00; -2.1210631E-02;  9.9406415E+02;  1.5328385E-01; -4.7565361E+03;3; -4.1459136E+00;  0.0000000E+00;  2.1281572E+01;0;  1.5959851E+00;  1.7626334E+04;  0.0000000E+00;  4.8510788E+01;  4.0000000E+04;  0.0000000E+00;  3.8228652E+04;  1.6653013E+00;  0.0000000E+00; -6.9316223E-02;  1.1158068E+05;
  1.8933129E+00;  9.9999998E-03; -1.5244144E-01;9440;  1.3894821E+00;  0.0000000E+00; -1.8123852E-02;  1.0045030E+03;  1.5266998E-01;  3.6073477E+03;3;  1.3988111E+01;  0.0000000E+00;  1.3786842E+01;0;  9.4600397E-01;  1.8112562E+04;  0.0000000E+00;  9.4970589E+00;  4.0000000E+04;  0.0000000E+00;  3.8127520E+04;  9.2970669E-01;  0.0000000E+00;  1.6297257E-02;  2.3906652E+04;
  1.8940624E+00;  9.9999998E-03; -1.4249642E-01;9441;  1.3874619E+00;  0.0000000E+00; -1.8520691E-02;  1.0037839E+03;  1.5254387E-01;  3.0301147E+03;3;  1.6898670E+01;  0.0000000E+00;  1.2923850E+01;0;  8.4756351E-01;  1.8124959E+04;  0.0000000E+00;  5.0135422E+00;  4.0000000E+04;  0.0000000E+00;  3.8115020E+04;  8.1579447E-01;  0.0000000E+00;  3.1769026E-02;  1.6763656E+04;
  1.8945283E+00;  9.9999998E-03; -1.3258716E-01;9442;  1.3850677E+00;  0.0000000E+00; -1.8615650E-02;  1.0030212E+03;  1.5246105E-01;  2.4187913E+03;3;  1.8994020E+01;  0.0000000E+00;  1.2003044E+01;0;  7.6078796E-01;  1.8116012E+04;  0.0000000E+00;  2.4812176E+00;  4.0000000E+04;  0.0000000E+00;  3.8122285E+04;  7.1720684E-01;  0.0000000E+00;  4.3581136E-02;  1.2494002E+04;
  1.8944201E+00;  9.9999998E-03; -1.0260741E-01;9445;  1.3769321E+00;  0.0000000E+00; -1.6081933E-02;  1.0004142E+03;  1.5246159E-01;  3.3167905E+02;3;  2.3632814E+01;  0.0000000E+00;  9.2185087E+00;0;  5.5511308E-01;  1.8008885E+04;  0.0000000E+00;  1.7345938E-01;  4.0000000E+04;  0.0000000E+00;  3.8174883E+04;  4.9200693E-01;  0.0000000E+00;  6.3106135E-02;  5.5392563E+03;
  1.8946297E+00;  9.9999998E-03; -1.1268355E-01;9444;  1.3796344E+00;  0.0000000E+00; -1.7354937E-02;  1.0012758E+03;  1.5243214E-01;  1.0213718E+03;3;  2.2620895E+01;  0.0000000E+00;  1.0069855E+01;0;  6.1633992E-01;  1.8049953E+04;  0.0000000E+00;  4.6128464E-01;  4.0000000E+04;  0.0000000E+00;  3.8158574E+04;  5.5770481E-01;  0.0000000E+00;  5.8635086E-02;  7.2069995E+03;
  1.8947059E+00;  9.9999998E-03; -1.2266199E-01;9443;  1.3824276E+00;  0.0000000E+00; -1.8245470E-02;  1.0021616E+03;  1.5242533E-01;  1.7305034E+03;3;  2.0951775E+01;  0.0000000E+00;  1.0923945E+01;0;  6.8419880E-01;  1.8088916E+04;  0.0000000E+00;  1.1271901E+00;  4.0000000E+04;  0.0000000E+00;  3.8139438E+04;  6.3186109E-01;  0.0000000E+00;  5.2337717E-02;  9.4946377E+03;
  1.8987499E+00;  9.9999998E-03; -2.6669842E-01;9482;  1.4271384E+00;  0.0000000E+00; -8.5245697E-03;  1.0058734E+03;  1.4981011E-01;  4.6924155E+03;3; -3.8118053E+01;  0.0000000E+00;  2.8592489E+01;0;  2.5229044E+00;  1.8862863E+04;  0.0000000E+00;  7.7954164E+00;  4.0000000E+04;  0.0000000E+00;  3.8053035E+04;  2.5718157E+00;  0.0000000E+00; -4.8911393E-02;  2.1863135E+04;
  1.8999519E+00;  9.9999998E-03; -2.5653890E-01;9483;  1.4289434E+00;  0.0000000E+00; -1.1296378E-02;  1.0036339E+03;  1.4969113E-01;  2.9014128E+03;3; -2.8348989E+01;  0.0000000E+00;  2.5757734E+01;0;  2.2696521E+00;  1.8824553E+04;  0.0000000E+00;  3.6132035E+00;  4.0000000E+04;  0.0000000E+00;  3.8073078E+04;  2.3362792E+00;  0.0000000E+00; -6.6627055E-02;  1.0257265E+04;
  1.9014484E+00;  9.9999998E-03; -2.4634092E-01;9484;  1.4327044E+00;  0.0000000E+00; -1.3591570E-02;  9.9826782E+02;  1.4960268E-01; -1.3819396E+03;3; -1.9994642E+01;  0.0000000E+00;  2.3838524E+01;0;  2.0372486E+00;  1.8666355E+04;  0.0000000E+00;  1.5542403E+01;  4.0000000E+04;  0.0000000E+00;  3.8103895E+04;  2.1211481E+00;  0.0000000E+00; -8.3899580E-02;  4.5515137E+04;
  1.9030859E+00;  9.9999998E-03; -2.3611112E-01;9485;  1.4360663E+00;  0.0000000E+00; -1.6891574E-02;  9.9249133E+02;  1.4951470E-01; -5.9852065E+03;3; -1.2638698E+01;  0.0000000E+00;  2.2562273E+01;0;  1.8351151E+00;  1.8504105E+04;  0.0000000E+00;  2.6532629E+01;  4.0000000E+04;  0.0000000E+00;  3.8130375E+04;  1.9102858E+00;  0.0000000E+00; -7.5170748E-02;  7.3988008E+04;
  1.9045743E+00;  9.9999998E-03; -2.2585340E-01;9486;  1.4372777E+00;  0.0000000E+00; -2.0602101E-02;  9.8887885E+02;  1.4938982E-01; -8.8574463E+03;3; -5.6049614E+00;  0.0000000E+00;  2.0361305E+01;0;  1.6499717E+00;  1.8430369E+04;  0.0000000E+00;  3.5357597E+01;  4.0000000E+04;  0.0000000E+00;  3.8138066E+04;  1.7030238E+00;  0.0000000E+00; -5.3052124E-02;  9.3076281E+04;
  1.9057271E+00;  9.9999998E-03; -2.1556665E-01;9487;  1.4356149E+00;  0.0000000E+00; -2.3237765E-02;  9.8831464E+02;  1.4922027E-01; -9.3008057E+03;3; -2.7822113E-01;  0.0000000E+00;  1.8518623E+01;0;  1.4690821E+00;  1.8469852E+04;  0.0000000E+00;  4.3705173E+01;  4.0000000E+04;  0.0000000E+00;  3.8124148E+04;  1.5044513E+00;  0.0000000E+00; -3.5369176E-02;  1.0588016E+05;
  1.9056355E+00;  9.9999998E-03; -1.7347334E-01;9491;  1.4039896E+00;  0.0000000E+00; -2.1037871E-02;  1.0036414E+03;  1.4866808E-01;  2.8984443E+03;3;  1.2255961E+01;  0.0000000E+00;  1.2461565E+01;0;  9.2089242E-01;  1.9100576E+04;  0.0000000E+00;  4.3172581E+01;  4.0000000E+04;  0.0000000E+00;  3.8096695E+04;  9.0437764E-01;  0.0000000E+00;  1.6514802E-02;  7.8213172E+04;
  1.9060410E+00;  9.9999998E-03; -1.8423983E-01;9490;  1.4141376E+00;  0.0000000E+00; -2.3718808E-02;  1.0000540E+03;  1.4875184E-01;  4.2974342E+01;3;  1.0226204E+01;  0.0000000E+00;  1.3949308E+01;0;  1.0306495E+00;  1.8974170E+04;  0.0000000E+00;  5.2763248E+01;  4.0000000E+04;  0.0000000E+00;  3.8086367E+04;  1.0271082E+00;  0.0000000E+00;  3.5413126E-03;  9.9237125E+04;
  1.9059548E+00;  9.9999998E-03; -1.6277958E-01;9492;  1.3966019E+00;  0.0000000E+00; -1.8871048E-02;  1.0046531E+03;  1.4855880E-01;  3.7030894E+03;3;  1.4871397E+01;  0.0000000E+00;  1.1054965E+01;0;  8.1998980E-01;  1.9169549E+04;  0.0000000E+00;  2.9843685E+01;  4.0000000E+04;  0.0000000E+00;  3.8073980E+04;  7.8629595E-01;  0.0000000E+00;  3.3693854E-02;  5.4470879E+04;
  1.9063985E+00;  9.9999998E-03; -2.0523722E-01;9488;  1.4310116E+00;  0.0000000E+00; -2.4847658E-02;  9.9066016E+02;  1.4903452E-01; -7.4311064E+03;3;  4.3114963E+00;  0.0000000E+00;  1.7414152E+01;0;  1.3025236E+00;  1.8605111E+04;  0.0000000E+00;  5.1008980E+01;  4.0000000E+04;  0.0000000E+00;  3.8099090E+04;  1.3223834E+00;  0.0000000E+00; -1.9859750E-02;  1.1240400E+05;
  1.9064717E+00;  9.9999998E-03; -1.9482003E-01;9489;  1.4237809E+00;  0.0000000E+00; -2.5169162E-02;  9.9506366E+02;  1.4886734E-01; -3.9273479E+03;3;  7.1976442E+00;  0.0000000E+00;  1.5230042E+01;0;  1.1564877E+00;  1.8792777E+04;  0.0000000E+00;  5.5057255E+01;  4.0000000E+04;  0.0000000E+00;  3.8082031E+04;  1.1636819E+00;  0.0000000E+00; -7.1941200E-03;  1.1093876E+05;
  1.9069083E+00;  9.9999998E-03; -1.5240441E-01;9493;  1.3924239E+00;  0.0000000E+00; -1.8361259E-02;  1.0041629E+03;  1.4840858E-01;  3.3111807E+03;3;  1.8002390E+01;  0.0000000E+00;  9.9788904E+00;0;  7.2647774E-01;  1.9212412E+04;  0.0000000E+00;  1.8271343E+01;  4.0000000E+04;  0.0000000E+00;  3.8029543E+04;  6.7515236E-01;  0.0000000E+00;  5.1325366E-02;  3.5670539E+04;
  1.9079406E+00;  9.9999998E-03; -1.4228934E-01;9494;  1.3894358E+00;  0.0000000E+00; -1.8503409E-02;  1.0034193E+03;  1.4825565E-01;  2.7180776E+03;3;  2.0259245E+01;  0.0000000E+00;  9.0093288E+00;0;  6.4197946E-01;  1.9241879E+04;  0.0000000E+00;  1.0351184E+01;  4.0000000E+04;  0.0000000E+00;  3.7996559E+04;  5.7654214E-01;  0.0000000E+00;  6.5437287E-02;  2.3606734E+04;
  1.9087520E+00;  9.9999998E-03; -1.3230021E-01;9495;  1.3865347E+00;  0.0000000E+00; -1.8559627E-02;  1.0027308E+03;  1.4813374E-01;  2.1696992E+03;3;  2.2263216E+01;  0.0000000E+00;  8.1330290E+00;0;  5.6674969E-01;  1.9253803E+04;  0.0000000E+00;  5.4214044E+00;  4.0000000E+04;  0.0000000E+00;  3.7986293E+04;  4.9125138E-01;  0.0000000E+00;  7.5498305E-02;  1.6431695E+04;
  1.9092580E+00;  9.9999998E-03; -1.2235478E-01;9496;  1.3834802E+00;  0.0000000E+00; -1.8282508E-02;  1.0020617E+03;  1.4805636E-01;  1.6376545E+03;3;  2.3952925E+01;  0.0000000E+00;  7.4447827E+00;0;  5.0003177E-01;  1.9245762E+04;  0.0000000E+00;  2.5186515E+00;  4.0000000E+04;  0.0000000E+00;  3.7994219E+04;  4.1783282E-01;  0.0000000E+00;  8.2198963E-02;  1.2002735E+04;
  1.9094517E+00;  9.9999998E-03; -1.1240622E-01;9497;  1.3803939E+00;  0.0000000E+00; -1.7618833E-02;  1.0013414E+03;  1.4802347E-01;  1.0653239E+03;3;  2.4979053E+01;  0.0000000E+00;  6.7535634E+00;0;  4.4100958E-01;  1.9219451E+04;  0.0000000E+00;  9.4057810E-01;  4.0000000E+04;  0.0000000E+00;  3.8012648E+04;  3.5464284E-01;  0.0000000E+00;  8.6366750E-02;  8.9430146E+03;
  1.9134374E+00;  9.9999998E-03; -2.5696200E-01;9535;  1.4470863E+00;  0.0000000E+00; -1.7619029E-02;  1.0061953E+03;  1.4583908E-01;  4.9085239E+03;3; -1.5735838E+01;  0.0000000E+00;  2.2033270E+01;0;  1.9134480E+00;  1.9994098E+04;  0.0000000E+00;  5.4564519E+00;  4.0000000E+04;  0.0000000E+00;  3.7934559E+04;  1.9289384E+00;  0.0000000E+00; -1.5490389E-02;  1.4436761E+04;
  1.9145594E+00;  9.9999998E-03; -2.4680004E-01;9536;  1.4459542E+00;  0.0000000E+00; -1.8904408E-02;  1.0029113E+03;  1.4577137E-01;  2.3050098E+03;3; -9.3753700E+00;  0.0000000E+00;  1.9555248E+01;0;  1.6928079E+00;  1.9900879E+04;  0.0000000E+00;  3.6988170E+00;  4.0000000E+04;  0.0000000E+00;  3.7949184E+04;  1.7276955E+00;  0.0000000E+00; -3.4887567E-02;  1.5595831E+04;
  1.9158933E+00;  9.9999998E-03; -2.3660065E-01;9537;  1.4461486E+00;  0.0000000E+00; -2.0612586E-02;  9.9733606E+02;  1.4573166E-01; -2.1073682E+03;3; -4.1342254E+00;  0.0000000E+00;  1.8250761E+01;0;  1.5106286E+00;  1.9718951E+04;  0.0000000E+00;  1.6288034E+01;  4.0000000E+04;  0.0000000E+00;  3.7968008E+04;  1.5475124E+00;  0.0000000E+00; -3.6883876E-02;  4.8247266E+04;
  1.9172841E+00;  9.9999998E-03; -2.2636892E-01;9538;  1.4457741E+00;  0.0000000E+00; -2.3100430E-02;  9.9203522E+02;  1.4568609E-01; -6.2949512E+03;3;  1.4169017E+00;  0.0000000E+00;  1.6433495E+01;0;  1.3559647E+00;  1.9558064E+04;  0.0000000E+00;  2.8879898E+01;  4.0000000E+04;  0.0000000E+00;  3.7978805E+04;  1.3744891E+00;  0.0000000E+00; -1.8524379E-02;  7.4751461E+04;
  1.9185194E+00;  9.9999998E-03; -2.1610729E-01;9539;  1.4434880E+00;  0.0000000E+00; -2.5308311E-02;  9.8897095E+02;  1.4560226E-01; -8.7096699E+03;3;  6.2404160E+00;  0.0000000E+00;  1.4982249E+01;0;  1.2100551E+00;  1.9492242E+04;  0.0000000E+00;  3.9853249E+01;  4.0000000E+04;  0.0000000E+00;  3.7971934E+04;  1.2066069E+00;  0.0000000E+00;  3.4482705E-03;  9.3442578E+04;
  1.9194425E+00;  9.9999998E-03; -2.0581008E-01;9540;  1.4392916E+00;  0.0000000E+00; -2.6991509E-02;  9.8882239E+02;  1.4547868E-01; -8.8215020E+03;3;  9.9757261E+00;  0.0000000E+00;  1.3079238E+01;0;  1.0742395E+00;  1.9538553E+04;  0.0000000E+00;  4.9733280E+01;  4.0000000E+04;  0.0000000E+00;  3.7950445E+04;  1.0498281E+00;  0.0000000E+00;  2.4411449E-02;  1.0558758E+05;
  1.9194915E+00;  9.9999998E-03; -1.6343488E-01;9544;  1.4026719E+00;  0.0000000E+00; -2.0449517E-02;  1.0031220E+03;  1.4498486E-01;  2.4638181E+03;3;  1.9022795E+01;  0.0000000E+00;  7.8974376E+00;0;  6.4606243E-01;  2.0144121E+04;  0.0000000E+00;  4.6226181E+01;  4.0000000E+04;  0.0000000E+00;  3.7953797E+04;  5.7704347E-01;  0.0000000E+00;  6.9018982E-02;  7.4403430E+04;
  1.9196334E+00;  9.9999998E-03; -1.7428634E-01;9543;  1.4132221E+00;  0.0000000E+00; -2.3882641E-02;  1.0001842E+03;  1.4507911E-01;  1.4533711E+02;3;  1.7690363E+01;  0.0000000E+00;  8.6527824E+00;0;  7.3262125E-01;  2.0029094E+04;  0.0000000E+00;  5.6954845E+01;  4.0000000E+04;  0.0000000E+00;  3.7940547E+04;  6.7388177E-01;  0.0000000E+00;  5.8739472E-02;  9.4655164E+04;
  1.9199291E+00;  9.9999998E-03; -1.9545148E-01;9541;  1.4329541E+00;  0.0000000E+00; -2.7561305E-02;  9.9135590E+02;  1.4533053E-01; -6.8197886E+03;3;  1.3512638E+01;  0.0000000E+00;  1.1723986E+01;0;  9.4817871E-01;  1.9676506E+04;  0.0000000E+00;  5.7508209E+01;  4.0000000E+04;  0.0000000E+00;  3.7927887E+04;  9.0812045E-01;  0.0000000E+00;  4.0058255E-02;  1.1079766E+05;
  1.9199440E+00;  9.9999998E-03; -1.8496962E-01;9542;  1.4240406E+00;  0.0000000E+00; -2.6670668E-02;  9.9565137E+02;  1.4519000E-01; -3.4308325E+03;3;  1.5870859E+01;  0.0000000E+00;  9.8183603E+00;0;  8.3360720E-01;  1.9858846E+04;  0.0000000E+00;  6.0640415E+01;  4.0000000E+04;  0.0000000E+00;  3.7923324E+04;  7.8279334E-01;  0.0000000E+00;  5.0813835E-02;  1.0739256E+05;
  1.9200566E+00;  9.9999998E-03; -1.5270297E-01;9545;  1.3950391E+00;  0.0000000E+00; -1.7996250E-02;  1.0037054E+03;  1.4487150E-01;  2.9232119E+03;3;  2.0725014E+01;  0.0000000E+00;  7.0002565E+00;0;  5.6920725E-01;  2.0204395E+04;  0.0000000E+00;  3.2184364E+01;  4.0000000E+04;  0.0000000E+00;  3.7930957E+04;  4.8737356E-01;  0.0000000E+00;  8.1833705E-02;  5.2449434E+04;
  1.9211450E+00;  9.9999998E-03; -1.4228712E-01;9546;  1.3903049E+00;  0.0000000E+00; -1.7117867E-02;  1.0030750E+03;  1.4472994E-01;  2.4240139E+03;3;  2.2542488E+01;  0.0000000E+00;  6.2205110E+00;0;  4.9955034E-01;  2.0241957E+04;  0.0000000E+00;  1.9969320E+01;  4.0000000E+04;  0.0000000E+00;  3.7888707E+04;  4.0596348E-01;  0.0000000E+00;  9.3586862E-02;  3.4847668E+04;
  1.9222707E+00;  9.9999998E-03; -1.3212045E-01;9547;  1.3867563E+00;  0.0000000E+00; -1.6881812E-02;  1.0023402E+03;  1.4458957E-01;  1.8433267E+03;3;  2.4096178E+01;  0.0000000E+00;  5.4902058E+00;0;  4.3644851E-01;  2.0269977E+04;  0.0000000E+00;  1.1324046E+01;  4.0000000E+04;  0.0000000E+00;  3.7856656E+04;  3.3482504E-01;  0.0000000E+00;  1.0162347E-01;  2.3008207E+04;
  1.9231548E+00;  9.9999998E-03; -1.2208502E-01;9548;  1.3834077E+00;  0.0000000E+00; -1.6565107E-02;  1.0017496E+03;  1.4447798E-01;  1.3772949E+03;3;  2.5468100E+01;  0.0000000E+00;  4.7836161E+00;0;  3.7968904E-01;  2.0284314E+04;  0.0000000E+00;  5.7471337E+00;  4.0000000E+04;  0.0000000E+00;  3.7845547E+04;  2.7379453E-01;  0.0000000E+00;  1.0589449E-01;  1.5663355E+04;
  1.9237098E+00;  9.9999998E-03; -1.1210353E-01;9549;  1.3801391E+00;  0.0000000E+00; -1.6026810E-02;  1.0012195E+03;  1.4440332E-01;  9.5960852E+02;3;  2.6464884E+01;  0.0000000E+00;  4.3281369E+00;0;  3.2893017E-01;  2.0280387E+04;  0.0000000E+00;  2.3918557E+00;  4.0000000E+04;  0.0000000E+00;  3.7851844E+04;  2.2157438E-01;  0.0000000E+00;  1.0735579E-01;  1.1163888E+04;
  1.9277157E+00;  9.9999998E-03; -2.4725974E-01;9586;  1.4568075E+00;  0.0000000E+00; -2.3519456E-02;  1.0058843E+03;  1.4256693E-01;  4.6166890E+03;3; -1.0425630E+00;  0.0000000E+00;  1.5877899E+01;0;  1.4181182E+00;  2.0997797E+04;  0.0000000E+00;  3.2506847E+00;  4.0000000E+04;  0.0000000E+00;  3.7798148E+04;  1.4036120E+00;  0.0000000E+00;  1.4506174E-02;  9.5336445E+03;
  1.9287157E+00;  9.9999998E-03; -2.3709574E-01;9587;  1.4541099E+00;  0.0000000E+00; -2.4188574E-02;  1.0022112E+03;  1.4253542E-01;  1.7335627E+03;3;  3.2414079E+00;  0.0000000E+00;  1.4161201E+01;0;  1.2508258E+00;  2.0877359E+04;  0.0000000E+00;  1.5409927E+00;  4.0000000E+04;  0.0000000E+00;  3.7803707E+04;  1.2434698E+00;  0.0000000E+00;  7.3558968E-03;  1.6698426E+04;
  1.9298514E+00;  9.9999998E-03; -2.2689562E-01;9588;  1.4519843E+00;  0.0000000E+00; -2.5417361E-02;  9.9691077E+02;  1.4252737E-01; -2.4198296E+03;3;  7.0939012E+00;  0.0000000E+00;  1.2937284E+01;0;  1.1185313E+00;  2.0693977E+04;  0.0000000E+00;  1.4990766E+01;  4.0000000E+04;  0.0000000E+00;  3.7808367E+04;  1.1001259E+00;  0.0000000E+00;  1.8405391E-02;  4.6117176E+04;
  1.9310157E+00;  9.9999998E-03; -2.1666498E-01;9589;  1.4493035E+00;  0.0000000E+00; -2.6986009E-02;  9.9207172E+02;  1.4251119E-01; -6.2046953E+03;3;  1.0708745E+01;  0.0000000E+00;  1.1397424E+01;0;  1.0051144E+00;  2.0539041E+04;  0.0000000E+00;  3.0039194E+01;  4.0000000E+04;  0.0000000E+00;  3.7802551E+04;  9.6414077E-01;  0.0000000E+00;  4.0973652E-02;  7.1757047E+04;
  1.9320400E+00;  9.9999998E-03; -2.0640245E-01;9590;  1.4453796E+00;  0.0000000E+00; -2.8395981E-02;  9.8936908E+02;  1.4246075E-01; -8.3130479E+03;3;  1.4343396E+01;  0.0000000E+00;  1.0039125E+01;0;  8.9991248E-01;  2.0477248E+04;  0.0000000E+00;  4.3715473E+01;  4.0000000E+04;  0.0000000E+00;  3.7783617E+04;  8.3451015E-01;  0.0000000E+00;  6.5402359E-02;  9.0653500E+04;
  1.9328015E+00;  9.9999998E-03; -1.9609463E-01;9591;  1.4395978E+00;  0.0000000E+00; -2.9155215E-02;  9.8935419E+02;  1.4236809E-01; -8.3196631E+03;3;  1.7410686E+01;  0.0000000E+00;  8.1300268E+00;0;  7.9740417E-01;  2.0522076E+04;  0.0000000E+00;  5.5206722E+01;  4.0000000E+04;  0.0000000E+00;  3.7758426E+04;  7.1242619E-01;  0.0000000E+00;  8.4977999E-02;  1.0245545E+05;
  1.9332193E+00;  9.9999998E-03; -1.8570410E-01;9592;  1.4316754E+00;  0.0000000E+00; -2.8560851E-02;  9.9176593E+02;  1.4224544E-01; -6.4327568E+03;3;  2.0576340E+01;  0.0000000E+00;  6.7421837E+00;0;  6.9737661E-01;  2.0651574E+04;  0.0000000E+00;  6.3088825E+01;  4.0000000E+04;  0.0000000E+00;  3.7742707E+04;  6.0090971E-01;  0.0000000E+00;  9.6466884E-02;  1.0649145E+05;
  1.9331950E+00;  9.9999998E-03; -1.6439293E-01;9594;  1.4098543E+00;  0.0000000E+00; -2.2551550E-02;  9.9970764E+02;  1.4200799E-01; -2.2840701E+02;3;  2.3622499E+01;  0.0000000E+00;  4.3100467E+00;0;  5.2240032E-01;  2.0977662E+04;  0.0000000E+00;  6.0919270E+01;  4.0000000E+04;  0.0000000E+00;  3.7778664E+04;  4.1674399E-01;  0.0000000E+00;  1.0565631E-01;  8.9537070E+04;
  1.9333001E+00;  9.9999998E-03; -1.7515859E-01;9593;  1.4213833E+00;  0.0000000E+00; -2.6325019E-02;  9.9569263E+02;  1.4212170E-01; -3.3648660E+03;3;  2.2564444E+01;  0.0000000E+00;  4.9591718E+00;0;  6.0380960E-01;  2.0820488E+04;  0.0000000E+00;  6.5451279E+01;  4.0000000E+04;  0.0000000E+00;  3.7750840E+04;  5.0172269E-01;  0.0000000E+00;  1.0208692E-01;  1.0207491E+05;
  1.9333029E+00;  9.9999998E-03; -1.5347755E-01;9595;  1.3992991E+00;  0.0000000E+00; -1.8676654E-02;  1.0022344E+03;  1.4190975E-01;  1.7454276E+03;3;  2.4015293E+01;  0.0000000E+00;  4.3205414E+00;0;  4.5529079E-01;  2.1084283E+04;  0.0000000E+00;  4.9635944E+01;  4.0000000E+04;  0.0000000E+00;  3.7795895E+04;  3.4420598E-01;  0.0000000E+00;  1.1108482E-01;  7.0867305E+04;
  1.9340111E+00;  9.9999998E-03; -1.4269322E-01;9596;  1.3916187E+00;  0.0000000E+00; -1.5996970E-02;  1.0026648E+03;  1.4180025E-01;  2.0805100E+03;3;  2.4366926E+01;  0.0000000E+00;  3.9534285E+00;0;  3.9808670E-01;  2.1139736E+04;  0.0000000E+00;  3.5075592E+01;  4.0000000E+04;  0.0000000E+00;  3.7776996E+04;  2.8043860E-01;  0.0000000E+00;  1.1764809E-01;  5.0727543E+04;
  1.9351802E+00;  9.9999998E-03; -1.3221388E-01;9597;  1.3867236E+00;  0.0000000E+00; -1.4763802E-02;  1.0020156E+03;  1.4167184E-01;  1.5721436E+03;3;  2.5102732E+01;  0.0000000E+00;  3.7000146E+00;0;  3.4684184E-01;  2.1173359E+04;  0.0000000E+00;  2.1994333E+01;  4.0000000E+04;  0.0000000E+00;  3.7737727E+04;  2.2424765E-01;  0.0000000E+00;  1.2259420E-01;  3.3953047E+04;
  1.9363853E+00;  9.9999998E-03; -1.2198914E-01;9598;  1.3829384E+00;  0.0000000E+00; -1.4089197E-02;  1.0013117E+03;  1.4154685E-01;  1.0220624E+03;3;  2.6278910E+01;  0.0000000E+00;  3.0207865E+00;0;  2.9970628E-01;  2.1200568E+04;  0.0000000E+00;  1.2369581E+01;  4.0000000E+04;  0.0000000E+00;  3.7705363E+04;  1.7553268E-01;  0.0000000E+00;  1.2417359E-01;  2.2118092E+04;
  1.9373302E+00;  9.9999998E-03; -1.1190973E-01;9599;  1.3794618E+00;  0.0000000E+00; -1.3452827E-02;  1.0008176E+03;  1.4144385E-01;  6.3662335E+02;3;  2.7222717E+01;  0.0000000E+00;  2.7246327E+00;0;  2.5670114E-01;  2.1218521E+04;  0.0000000E+00;  5.9972768E+00;  4.0000000E+04;  0.0000000E+00;  3.7691109E+04;  1.3397349E-01;  0.0000000E+00;  1.2272765E-01;  1.4574575E+04;
  1.9416331E+00;  9.9999998E-03; -2.3758152E-01;9635;  1.4608865E+00;  0.0000000E+00; -2.7269633E-02;  1.0053836E+03;  1.3986915E-01;  4.1760488E+03;3;  9.1876812E+00;  0.0000000E+00;  1.0518897E+01;0;  1.0554620E+00;  2.1894412E+04;  0.0000000E+00;  6.3295388E-01;  4.0000000E+04;  0.0000000E+00;  3.7643711E+04;  1.0045298E+00;  0.0000000E+00;  5.0932169E-02;  7.0447490E+03;
  1.9424912E+00;  9.9999998E-03; -2.2741599E-01;9636;  1.4571264E+00;  0.0000000E+00; -2.7554341E-02;  1.0017803E+03;  1.3985850E-01;  1.3798917E+03;3;  1.1682800E+01;  0.0000000E+00;  9.3360443E+00;0;  9.3640304E-01;  2.1769457E+04;  0.0000000E+00; -2.4251142E+00;  4.0000000E+04;  0.0000000E+00;  3.7638266E+04;  8.7977821E-01;  0.0000000E+00;  5.6624830E-02;  1.4111147E+04;
  1.9434357E+00;  9.9999998E-03; -2.1721800E-01;9637;  1.4539484E+00;  0.0000000E+00; -2.8459083E-02;  9.9692950E+02;  1.3987087E-01; -2.3778987E+03;3;  1.4541112E+01;  0.0000000E+00;  8.4226580E+00;0;  8.4911090E-01;  2.1595273E+04;  0.0000000E+00;  1.2433880E+01;  4.0000000E+04;  0.0000000E+00;  3.7627637E+04;  7.7094340E-01;  0.0000000E+00;  7.8167506E-02;  4.1208645E+04;
  1.9444093E+00;  9.9999998E-03; -2.0699084E-01;9638;  1.4500099E+00;  0.0000000E+00; -2.9499942E-02;  9.9245380E+02;  1.3987504E-01; -5.8388721E+03;3;  1.7410707E+01;  0.0000000E+00;  7.0639362E+00;0;  7.7087355E-01;  2.1446619E+04;  0.0000000E+00;  3.0533417E+01;  4.0000000E+04;  0.0000000E+00;  3.7606496E+04;  6.6638607E-01;  0.0000000E+00;  1.0448749E-01;  6.6565148E+04;
  1.9452794E+00;  9.9999998E-03; -1.9672997E-01;9639;  1.4446294E+00;  0.0000000E+00; -3.0080497E-02;  9.8986597E+02;  1.3984713E-01; -7.8349238E+03;3;  2.0761944E+01;  0.0000000E+00;  5.5919867E+00;0;  6.9105911E-01;  2.1383318E+04;  0.0000000E+00;  4.6867050E+01;  4.0000000E+04;  0.0000000E+00;  3.7576844E+04;  5.6475616E-01;  0.0000000E+00;  1.2630299E-01;  8.5541664E+04;
  1.9459549E+00;  9.9999998E-03; -1.8641521E-01;9640;  1.4372605E+00;  0.0000000E+00; -2.9696705E-02;  9.8973547E+02;  1.3977997E-01; -7.9307974E+03;3;  2.3773609E+01;  0.0000000E+00;  3.7207520E+00;0;  6.0702282E-01;  2.1418232E+04;  0.0000000E+00;  5.9557198E+01;  4.0000000E+04;  0.0000000E+00;  3.7549480E+04;  4.6747652E-01;  0.0000000E+00;  1.3954629E-01;  9.6767906E+04;
  1.9463801E+00;  9.9999998E-03; -1.7599939E-01;9641;  1.4277915E+00;  0.0000000E+00; -2.7835283E-02;  9.9181915E+02;  1.3967884E-01; -6.3183506E+03;3;  2.6418474E+01;  0.0000000E+00;  2.1332717E+00;0;  5.2214587E-01;  2.1532262E+04;  0.0000000E+00;  6.7446251E+01;  4.0000000E+04;  0.0000000E+00;  3.7540336E+04;  3.7820822E-01;  0.0000000E+00;  1.4393762E-01;  1.0001318E+05;
  1.9465809E+00;  9.9999998E-03; -1.6540959E-01;9642;  1.4165564E+00;  0.0000000E+00; -2.4446674E-02;  9.9527228E+02;  1.3956226E-01; -3.6506873E+03;3;  2.7500084E+01;  0.0000000E+00;  1.1178933E+00;0;  4.4340616E-01;  2.1684051E+04;  0.0000000E+00;  6.9317657E+01;  4.0000000E+04;  0.0000000E+00;  3.7557773E+04;  3.0027279E-01;  0.0000000E+00;  1.4313337E-01;  9.5384445E+04;
  1.9466963E+00;  9.9999998E-03; -1.5459591E-01;9643;  1.4050248E+00;  0.0000000E+00; -2.0312600E-02;  9.9882770E+02;  1.3945378E-01; -9.0514001E+02;3;  2.7487133E+01;  0.0000000E+00;  1.4719090E+00;0;  3.7802309E-01;  2.1827359E+04;  0.0000000E+00;  6.4356758E+01;  4.0000000E+04;  0.0000000E+00;  3.7593191E+04;  2.3631239E-01;  0.0000000E+00;  1.4171070E-01;  8.3722578E+04;
  1.9470081E+00;  9.9999998E-03; -1.4364438E-01;9644;  1.3948053E+00;  0.0000000E+00; -1.6345076E-02;  1.0010917E+03;  1.3935190E-01;  8.4267090E+02;3;  2.6963966E+01;  0.0000000E+00;  1.6400357E+00;0;  3.2544154E-01;  2.1927912E+04;  0.0000000E+00;  5.2972309E+01;  4.0000000E+04;  0.0000000E+00;  3.7616379E+04;  1.8456340E-01;  0.0000000E+00;  1.4087814E-01;  6.6971969E+04;
  1.9477891E+00;  9.9999998E-03; -1.3281149E-01;9645;  1.3875546E+00;  0.0000000E+00; -1.3500536E-02;  1.0015768E+03;  1.3925347E-01;  1.2162655E+03;3;  2.6470081E+01;  0.0000000E+00;  2.0950553E+00;0;  2.8230304E-01;  2.1981494E+04;  0.0000000E+00;  3.8139080E+01;  4.0000000E+04;  0.0000000E+00;  3.7604488E+04;  1.4212546E-01;  0.0000000E+00;  1.4017759E-01;  4.8700598E+04;
  1.9489561E+00;  9.9999998E-03; -1.2226432E-01;9646;  1.3827144E+00;  0.0000000E+00; -1.1976076E-02;  1.0010282E+03;  1.3914646E-01;  7.9214526E+02;3;  2.6852638E+01;  0.0000000E+00;  1.9991177E+00;0;  2.4377692E-01;  2.2011881E+04;  0.0000000E+00;  2.4233017E+01;  4.0000000E+04;  0.0000000E+00;  3.7570402E+04;  1.0577582E-01;  0.0000000E+00;  1.3800110E-01;  3.2830887E+04;
  1.9501683E+00;  9.9999998E-03; -1.1197750E-01;9647;  1.3788496E+00;  0.0000000E+00; -1.0970380E-02;  1.0003709E+03;  1.3904086E-01;  2.8538504E+02;3;  2.7630159E+01;  0.0000000E+00;  1.8557204E+00;0;  2.0765778E-01;  2.2036520E+04;  0.0000000E+00;  1.3573215E+01;  4.0000000E+04;  0.0000000E+00;  3.7538023E+04;  7.4293546E-02;  0.0000000E+00;  1.3336425E-01;  2.1115795E+04;
  1.9543046E+00;  9.9999998E-03; -2.3804663E-01;9682;  1.4677238E+00;  0.0000000E+00; -2.9784348E-02;  1.0085621E+03;  1.3763717E-01;  6.5612939E+03;3;  1.3969425E+01;  0.0000000E+00;  7.2806892E+00;0;  9.3780792E-01;  2.2828209E+04;  0.0000000E+00;  3.8741768E+01;  4.0000000E+04;  0.0000000E+00;  3.7482633E+04;  8.4694541E-01;  0.0000000E+00;  9.0862490E-02;  1.1645049E+04;
  1.9552476E+00;  9.9999998E-03; -2.2791915E-01;9683;  1.4621804E+00;  0.0000000E+00; -2.9465126E-02;  1.0049009E+03;  1.3764130E-01;  3.7520039E+03;3;  1.6061630E+01;  0.0000000E+00;  6.3596101E+00;0;  8.1441402E-01;  2.2699428E+04;  0.0000000E+00; -1.8066765E+00;  4.0000000E+04;  0.0000000E+00;  3.7470578E+04;  7.1963948E-01;  0.0000000E+00;  9.4774552E-02;  5.5528252E+03;
  1.9559729E+00;  9.9999998E-03; -2.1775384E-01;9684;  1.4578916E+00;  0.0000000E+00; -2.9631160E-02;  1.0015964E+03;  1.3764715E-01;  1.2211740E+03;3;  1.7689091E+01;  0.0000000E+00;  5.7461791E+00;0;  7.3638314E-01;  2.2582518E+04;  0.0000000E+00; -7.0547976E+00;  4.0000000E+04;  0.0000000E+00;  3.7454270E+04;  6.2363869E-01;  0.0000000E+00;  1.1274444E-01;  1.0065641E+04;
  1.9567531E+00;  9.9999998E-03; -2.0755942E-01;9685;  1.4537094E+00;  0.0000000E+00; -3.0124446E-02;  9.9721582E+02;  1.3766851E-01; -2.1281167E+03;3;  2.0193857E+01;  0.0000000E+00;  4.9946504E+00;0;  6.7749715E-01;  2.2424127E+04;  0.0000000E+00;  9.1364031E+00;  4.0000000E+04;  0.0000000E+00;  3.7428180E+04;  5.3888321E-01;  0.0000000E+00;  1.3861397E-01;  3.4975941E+04;
  1.9575727E+00;  9.9999998E-03; -1.9733872E-01;9686;  1.4484642E+00;  0.0000000E+00; -3.0470748E-02;  9.9303217E+02;  1.3768485E-01; -5.3212637E+03;3;  2.3086832E+01;  0.0000000E+00;  3.5437932E+00;0;  6.1786467E-01;  2.2283432E+04;  0.0000000E+00;  3.0059233E+01;  4.0000000E+04;  0.0000000E+00;  3.7391281E+04;  4.5524254E-01;  0.0000000E+00;  1.6262211E-01;  5.9668539E+04;
  1.9583321E+00;  9.9999998E-03; -1.8708293E-01;9687;  1.4415367E+00;  0.0000000E+00; -3.0058229E-02;  9.9046100E+02;  1.3767515E-01; -7.2788818E+03;3;  2.6276428E+01;  0.0000000E+00;  1.7558882E+00;0;  5.4935282E-01;  2.2216916E+04;  0.0000000E+00;  4.8569534E+01;  4.0000000E+04;  0.0000000E+00;  3.7351289E+04;  3.7170973E-01;  0.0000000E+00;  1.7764308E-01;  7.8163078E+04;
  1.9589602E+00;  9.9999998E-03; -1.7676450E-01;9688;  1.4326140E+00;  0.0000000E+00; -2.8397154E-02;  9.9009509E+02;  1.3762501E-01; -7.5529482E+03;3;  2.8697966E+01;  0.0000000E+00; -4.8983070E-01;0;  4.7284371E-01;  2.2239455E+04;  0.0000000E+00;  6.2151245E+01;  4.0000000E+04;  0.0000000E+00;  3.7321617E+04;  2.9101822E-01;  0.0000000E+00;  1.8182547E-01;  8.8713125E+04;
  1.9594264E+00;  9.9999998E-03; -1.6633229E-01;9689;  1.4220260E+00;  0.0000000E+00; -2.5386197E-02;  9.9176013E+02;  1.3754153E-01; -6.2800703E+03;3;  3.0300898E+01;  0.0000000E+00; -1.4774510E+00;0;  3.9678940E-01;  2.2334066E+04;  0.0000000E+00;  6.9899307E+01;  4.0000000E+04;  0.0000000E+00;  3.7316078E+04;  2.1838933E-01;  0.0000000E+00;  1.7840007E-01;  9.1353750E+04;
  1.9597633E+00;  9.9999998E-03; -1.5571877E-01;9690;  1.4106102E+00;  0.0000000E+00; -2.1623461E-02;  9.9469714E+02;  1.3743918E-01; -4.0401084E+03;3;  3.0593777E+01;  0.0000000E+00; -1.4305905E+00;0;  3.3045036E-01;  2.2464803E+04;  0.0000000E+00;  7.1389481E+01;  4.0000000E+04;  0.0000000E+00;  3.7339980E+04;  1.5815514E-01;  0.0000000E+00;  1.7229523E-01;  8.6871820E+04;
  1.9600780E+00;  9.9999998E-03; -1.4489223E-01;9691;  1.3994370E+00;  0.0000000E+00; -1.7543266E-02;  9.9777728E+02;  1.3733666E-01; -1.6928470E+03;3;  3.0228928E+01;  0.0000000E+00; -9.2054760E-01;0;  2.7630889E-01;  2.2591801E+04;  0.0000000E+00;  6.6367813E+01;  4.0000000E+04;  0.0000000E+00;  3.7380344E+04;  1.1125000E-01;  0.0000000E+00;  1.6505891E-01;  7.6466117E+04;
  1.9605488E+00;  9.9999998E-03; -1.3394608E-01;9692;  1.3900008E+00;  0.0000000E+00; -1.3661227E-02;  9.9988135E+02;  1.3724457E-01; -9.0335602E+01;3;  2.8749308E+01;  0.0000000E+00;  1.0554006E-01;0;  2.3385948E-01;  2.2685402E+04;  0.0000000E+00;  5.5329914E+01;  4.0000000E+04;  0.0000000E+00;  3.7408449E+04;  7.6574676E-02;  0.0000000E+00;  1.5728481E-01;  6.1878301E+04;
  1.9613156E+00;  9.9999998E-03; -1.2308771E-01;9693;  1.3833835E+00;  0.0000000E+00; -1.0957476E-02;  1.0005344E+03;  1.3715747E-01;  4.0645798E+02;3;  2.7927427E+01;  0.0000000E+00;  9.0562278E-01;0;  2.0029730E-01;  2.2739684E+04;  0.0000000E+00;  4.0868874E+01;  4.0000000E+04;  0.0000000E+00;  3.7405348E+04;  5.0772935E-02;  0.0000000E+00;  1.4952436E-01;  4.5888289E+04;
  1.9623610E+00;  9.9999998E-03; -1.1247839E-01;9694;  1.3786625E+00;  0.0000000E+00; -9.2319697E-03;  1.0001986E+03;  1.3707550E-01;  1.5087296E+02;3;  2.8157135E+01;  0.0000000E+00;  1.0889190E+00;0;  1.6998446E-01;  2.2767805E+04;  0.0000000E+00;  2.6626371E+01;  4.0000000E+04;  0.0000000E+00;  3.7379090E+04;  2.9243834E-02;  0.0000000E+00;  1.4074062E-01;  3.1405326E+04;
  1.9677590E+00;  9.9999998E-03; -2.2838868E-01;9729;  1.4677359E+00;  0.0000000E+00; -3.1065764E-02;  1.0082493E+03;  1.3578710E-01;  6.2274551E+03;3;  2.0449116E+01;  0.0000000E+00;  3.7098770E+00;0;  7.6079810E-01;  2.3560979E+04;  0.0000000E+00;  4.4931259E+01;  4.0000000E+04;  0.0000000E+00;  3.7304188E+04;  6.3028067E-01;  0.0000000E+00;  1.3051741E-01;  1.4389871E+04;
  1.9686146E+00;  9.9999998E-03; -2.1826334E-01;9730;  1.4622275E+00;  0.0000000E+00; -3.0889019E-02;  1.0045499E+03;  1.3580920E-01;  3.4311882E+03;3;  2.1334375E+01;  0.0000000E+00;  3.3322434E+00;0;  6.8069553E-01;  2.3425158E+04;  0.0000000E+00; -2.9844699E+00;  4.0000000E+04;  0.0000000E+00;  3.7281359E+04;  5.3170812E-01;  0.0000000E+00;  1.4898740E-01;  4.3519736E+03;
  1.9692320E+00;  9.9999998E-03; -2.0809661E-01;9731;  1.4570438E+00;  0.0000000E+00; -3.0645845E-02;  1.0016405E+03;  1.3581991E-01;  1.2362668E+03;3;  2.2960770E+01;  0.0000000E+00;  2.7818208E+00;0;  6.2233961E-01;  2.3323721E+04;  0.0000000E+00; -1.1534325E+01;  4.0000000E+04;  0.0000000E+00;  3.7254582E+04;  4.5210493E-01;  0.0000000E+00;  1.7023467E-01;  5.7612310E+03;
  1.9698807E+00;  9.9999998E-03; -1.9790325E-01;9732;  1.4515028E+00;  0.0000000E+00; -3.0395994E-02;  9.9778815E+02;  1.3584433E-01; -1.6654639E+03;3;  2.5460100E+01;  0.0000000E+00;  1.3895487E+00;0;  5.7162881E-01;  2.3187109E+04;  0.0000000E+00;  4.9331999E+00;  4.0000000E+04;  0.0000000E+00;  3.7214332E+04;  3.7940076E-01;  0.0000000E+00;  1.9222808E-01;  2.7808791E+04;
  1.9705786E+00;  9.9999998E-03; -1.8768589E-01;9733;  1.4447852E+00;  0.0000000E+00; -2.9704012E-02;  9.9393073E+02;  1.3586931E-01; -4.5660557E+03;3;  2.8107302E+01;  0.0000000E+00; -8.1319761E-01;0;  5.1454288E-01;  2.3059096E+04;  0.0000000E+00;  2.7650705E+01;  4.0000000E+04;  0.0000000E+00;  3.7163184E+04;  3.0676100E-01;  0.0000000E+00;  2.0778188E-01;  5.0849188E+04;
  1.9712533E+00;  9.9999998E-03; -1.7743105E-01;9734;  1.4363643E+00;  0.0000000E+00; -2.8033152E-02;  9.9139294E+02;  1.3586915E-01; -6.4698164E+03;3;  3.0718422E+01;  0.0000000E+00; -2.2610211E+00;0;  4.4606322E-01;  2.2992311E+04;  0.0000000E+00;  4.7553970E+01;  4.0000000E+04;  0.0000000E+00;  3.7113191E+04;  2.3341671E-01;  0.0000000E+00;  2.1264653E-01;  6.8137672E+04;
  1.9718571E+00;  9.9999998E-03; -1.6710548E-01;9735;  1.4261767E+00;  0.0000000E+00; -2.5212623E-02;  9.9077380E+02;  1.3583210E-01; -6.9300107E+03;3;  3.2371418E+01;  0.0000000E+00; -3.2289369E+00;0;  3.7114763E-01;  2.3001859E+04;  0.0000000E+00;  6.1565346E+01;  4.0000000E+04;  0.0000000E+00;  3.7080715E+04;  1.6321892E-01;  0.0000000E+00;  2.0792873E-01;  7.7738938E+04;
  1.9723760E+00;  9.9999998E-03; -1.5666026E-01;9736;  1.4150000E+00;  0.0000000E+00; -2.1722643E-02;  9.9193799E+02;  1.3576733E-01; -6.0516055E+03;3;  3.3148392E+01;  0.0000000E+00; -3.4897707E+00;0;  3.0173144E-01;  2.3073812E+04;  0.0000000E+00;  6.9121353E+01;  4.0000000E+04;  0.0000000E+00;  3.7076559E+04;  1.0305616E-01;  0.0000000E+00;  1.9867527E-01;  7.9966141E+04;
  1.9728339E+00;  9.9999998E-03; -1.4604354E-01;9737;  1.4036962E+00;  0.0000000E+00; -1.7921571E-02;  9.9425360E+02;  1.3568121E-01; -4.3109590E+03;3;  3.3059494E+01;  0.0000000E+00; -3.2613759E+00;0;  2.4331647E-01;  2.3179148E+04;  0.0000000E+00;  7.0470085E+01;  4.0000000E+04;  0.0000000E+00;  3.7101250E+04;  5.6275778E-02;  0.0000000E+00;  1.8704069E-01;  7.6021867E+04;
  1.9732944E+00;  9.9999998E-03; -1.3524130E-01;9738;  1.3933231E+00;  0.0000000E+00; -1.4052727E-02;  9.9680615E+02;  1.3559163E-01; -2.3946248E+03;3;  3.1503809E+01;  0.0000000E+00; -2.1988049E+00;0;  1.9730724E-01;  2.3286238E+04;  0.0000000E+00;  6.5866882E+01;  4.0000000E+04;  0.0000000E+00;  3.7140789E+04;  2.3473589E-02;  0.0000000E+00;  1.7383365E-01;  6.7285898E+04;
  1.9738477E+00;  9.9999998E-03; -1.2433232E-01;9739;  1.3851866E+00;  0.0000000E+00; -1.0886747E-02;  9.9872211E+02;  1.3551058E-01; -9.5741443E+02;3;  2.9820450E+01;  0.0000000E+00; -7.8400099E-01;0;  1.6362278E-01;  2.3371279E+04;  0.0000000E+00;  5.5935093E+01;  4.0000000E+04;  0.0000000E+00;  3.7171430E+04;  3.0715654E-03;  0.0000000E+00;  1.6055122E-01;  5.5277973E+04;
  1.9745588E+00;  9.9999998E-03; -1.1347549E-01;9740;  1.3792391E+00;  0.0000000E+00; -8.4742140E-03;  9.9956061E+02;  1.3543946E-01; -3.2891519E+02;3;  2.9244236E+01;  0.0000000E+00; -3.0099837E-02;0;  1.3632691E-01;  2.3425074E+04;  0.0000000E+00;  4.2640892E+01;  4.0000000E+04;  0.0000000E+00;  3.7177188E+04; -1.0463244E-02;  0.0000000E+00;  1.4679015E-01;  4.1966840E+04;
  1.9754422E+00;  9.9999998E-03; -1.0281810E-01;9741;  1.3747520E+00;  0.0000000E+00; -6.7106099E-03;  9.9948193E+02;  1.3538302E-01; -3.8736566E+02;3;  2.9299524E+01;  0.0000000E+00;  3.2354525E-01;0;  1.1145680E-01;  2.3450986E+04;  0.0000000E+00;  2.8818989E+01;  4.0000000E+04;  0.0000000E+00;  3.7159363E+04; -2.1363672E-02;  0.0000000E+00;  1.3282047E-01;  2.9407895E+04;
  1.9809816E+00;  9.9999998E-03; -2.1872561E-01;9774;  1.4667991E+00;  0.0000000E+00; -3.1913098E-02;  1.0081251E+03;  1.3426627E-01;  6.0301064E+03;3;  2.5740118E+01;  0.0000000E+00;  6.3492888E-01;0;  6.7866927E-01;  2.4224420E+04;  0.0000000E+00;  5.4233673E+01;  4.0000000E+04;  0.0000000E+00;  3.7109902E+04;  4.9632609E-01;  0.0000000E+00;  1.8234318E-01;  1.7736152E+04;
  1.9817725E+00;  9.9999998E-03; -2.0860104E-01;9775;  1.4609311E+00;  0.0000000E+00; -3.1650491E-02;  1.0043931E+03;  1.3429394E-01;  3.2568213E+03;3;  2.6421694E+01;  0.0000000E+00;  7.9150073E-02;0;  6.2169439E-01;  2.4086814E+04;  0.0000000E+00; -1.5600915E+00;  4.0000000E+04;  0.0000000E+00;  3.7075301E+04;  4.1483584E-01;  0.0000000E+00;  2.0685855E-01;  2.9908613E+03;
  1.9823201E+00;  9.9999998E-03; -1.9842763E-01;9776;  1.4545308E+00;  0.0000000E+00; -3.0437805E-02;  1.0019203E+03;  1.3431248E-01;  1.4225590E+03;3;  2.7735851E+01;  0.0000000E+00; -1.0638750E+00;0;  5.6106496E-01;  2.4002797E+04;  0.0000000E+00; -1.5305887E+01;  4.0000000E+04;  0.0000000E+00;  3.7039859E+04;  3.4095711E-01;  0.0000000E+00;  2.2010784E-01;  1.8957155E+03;
  1.9828688E+00;  9.9999998E-03; -1.8822414E-01;9777;  1.4476922E+00;  0.0000000E+00; -2.9160649E-02;  9.9871680E+02;  1.3433371E-01; -9.4986499E+02;3;  3.0150423E+01;  0.0000000E+00; -2.4823725E+00;0;  5.0583935E-01;  2.3895508E+04;  0.0000000E+00; -6.9928849E-01;  4.0000000E+04;  0.0000000E+00;  3.6990191E+04;  2.7326635E-01;  0.0000000E+00;  2.3257297E-01;  1.9657578E+04;
  1.9834709E+00;  9.9999998E-03; -1.7799623E-01;9778;  1.4394540E+00;  0.0000000E+00; -2.7243299E-02;  9.9532678E+02;  1.3435656E-01; -3.4562717E+03;3;  3.2373856E+01;  0.0000000E+00; -3.9692099E+00;0;  4.4029915E-01;  2.3788117E+04;  0.0000000E+00;  2.2104042E+01;  4.0000000E+04;  0.0000000E+00;  3.6929238E+04;  2.0372875E-01;  0.0000000E+00;  2.3657040E-01;  3.9820406E+04;
  1.9840854E+00;  9.9999998E-03; -1.6772930E-01;9779;  1.4294952E+00;  0.0000000E+00; -2.4333645E-02;  9.9290045E+02;  1.3436376E-01; -5.2461826E+03;3;  3.4132030E+01;  0.0000000E+00; -4.9741344E+00;0;  3.6323142E-01;  2.3724072E+04;  0.0000000E+00;  4.2301311E+01;  4.0000000E+04;  0.0000000E+00;  3.6872355E+04;  1.3310775E-01;  0.0000000E+00;  2.3012365E-01;  5.5137086E+04;
  1.9846740E+00;  9.9999998E-03; -1.5739098E-01;9780;  1.4184279E+00;  0.0000000E+00; -2.0787491E-02;  9.9202429E+02;  1.3434117E-01; -5.8886494E+03;3;  3.5330017E+01;  0.0000000E+00; -5.5080657E+00;0;  2.8682745E-01;  2.3720688E+04;  0.0000000E+00;  5.6425377E+01;  4.0000000E+04;  0.0000000E+00;  3.6835316E+04;  6.9143124E-02;  0.0000000E+00;  2.1768431E-01;  6.3753852E+04;
  1.9852287E+00;  9.9999998E-03; -1.4693931E-01;9781;  1.4069837E+00;  0.0000000E+00; -1.6954999E-02;  9.9262793E+02;  1.3429315E-01; -5.4386597E+03;3;  3.5346142E+01;  0.0000000E+00; -5.4230895E+00;0;  2.1945590E-01;  2.3768383E+04;  0.0000000E+00;  6.4036949E+01;  4.0000000E+04;  0.0000000E+00;  3.6827383E+04;  1.7326511E-02;  0.0000000E+00;  2.0212939E-01;  6.6007203E+04;
  1.9857631E+00;  9.9999998E-03; -1.3633685E-01;9782;  1.3962837E+00;  0.0000000E+00; -1.3337915E-02;  9.9423932E+02;  1.3422571E-01; -4.2465889E+03;3;  3.4133743E+01;  0.0000000E+00; -4.1402912E+00;0;  1.6722947E-01;  2.3845342E+04;  0.0000000E+00;  6.5709229E+01;  4.0000000E+04;  0.0000000E+00;  3.6846523E+04; -1.8458286E-02;  0.0000000E+00;  1.8568777E-01;  6.3103797E+04;
  1.9863044E+00;  9.9999998E-03; -1.2557510E-01;9783;  1.3872807E+00;  0.0000000E+00; -1.0372495E-02;  9.9617670E+02;  1.3415070E-01; -2.8161953E+03;3;  3.1992914E+01;  0.0000000E+00; -2.4616382E+00;0;  1.3022521E-01;  2.3929176E+04;  0.0000000E+00;  6.2166935E+01;  4.0000000E+04;  0.0000000E+00;  3.6880996E+04; -3.8806569E-02;  0.0000000E+00;  1.6903178E-01;  5.6427098E+04;
  1.9868962E+00;  9.9999998E-03; -1.1471882E-01;9784;  1.3803966E+00;  0.0000000E+00; -7.9677440E-03;  9.9776086E+02;  1.3408427E-01; -1.6478867E+03;3;  3.0705315E+01;  0.0000000E+00; -1.4462898E+00;0;  1.0334859E-01;  2.3998820E+04;  0.0000000E+00;  5.3936337E+01;  4.0000000E+04;  0.0000000E+00;  3.6910422E+04; -4.8207916E-02;  0.0000000E+00;  1.5155651E-01;  4.7150055E+04;
  1.9875534E+00;  9.9999998E-03; -1.0389064E-01;9785;  1.3751190E+00;  0.0000000E+00; -5.9473827E-03;  9.9859192E+02;  1.3402942E-01; -1.0353031E+03;3;  3.0229845E+01;  0.0000000E+00; -6.9965023E-01;0;  8.0793329E-02;  2.4045938E+04;  0.0000000E+00;  4.2474079E+01;  4.0000000E+04;  0.0000000E+00;  3.6920316E+04; -5.2886106E-02;  0.0000000E+00;  1.3367943E-01;  3.6676043E+04;
  1.9939990E+00;  9.9999998E-03; -2.0904034E-01;9817;  1.4645449E+00;  0.0000000E+00; -3.1788174E-02;  1.0083577E+03;  1.3301398E-01;  6.0851763E+03;3;  3.0022175E+01;  0.0000000E+00; -2.3532548E+00;0;  6.5007949E-01;  2.4836854E+04;  0.0000000E+00;  6.8345398E+01;  4.0000000E+04;  0.0000000E+00;  3.6901074E+04;  4.1832119E-01;  0.0000000E+00;  2.3175828E-01;  2.2020260E+04;
  1.9947625E+00;  9.9999998E-03; -1.9891435E-01;9818;  1.4578975E+00;  0.0000000E+00; -3.0780232E-02;  1.0045151E+03;  1.3305336E-01;  3.2834622E+03;3;  3.0732101E+01;  0.0000000E+00; -3.7951097E+00;0;  5.9351480E-01;  2.4695104E+04;  0.0000000E+00;  4.4370780E+00;  4.0000000E+04;  0.0000000E+00;  3.6852113E+04;  3.4388602E-01;  0.0000000E+00;  2.4962878E-01;  8.9709845E+02;
  1.9952749E+00;  9.9999998E-03; -1.8872207E-01;9819;  1.4504659E+00;  0.0000000E+00; -2.8702212E-02;  1.0024300E+03;  1.3306664E-01;  1.7657036E+03;3;  3.2131592E+01;  0.0000000E+00; -4.8892789E+00;0;  5.2655685E-01;  2.4630072E+04;  0.0000000E+00; -1.7282778E+01;  4.0000000E+04;  0.0000000E+00;  3.6812355E+04;  2.7236816E-01;  0.0000000E+00;  2.5418869E-01;  2.2781155E+03;
  1.9957653E+00;  9.9999998E-03; -1.7849207E-01;9820;  1.4420115E+00;  0.0000000E+00; -2.6072577E-02;  9.9996161E+02;  1.3308416E-01; -2.7870626E+01;3;  3.4130898E+01;  0.0000000E+00; -5.9424362E+00;0;  4.5300907E-01;  2.4553877E+04;  0.0000000E+00; -8.0700760E+00;  4.0000000E+04;  0.0000000E+00;  3.6760363E+04;  2.0097338E-01;  0.0000000E+00;  2.5203568E-01;  1.0642879E+04;
  1.9962995E+00;  9.9999998E-03; -1.6823620E-01;9821;  1.4322357E+00;  0.0000000E+00; -2.2933176E-02;  9.9719818E+02;  1.3310385E-01; -2.0326101E+03;3;  3.5973728E+01;  0.0000000E+00; -6.7161174E+00;0;  3.7161854E-01;  2.4472340E+04;  0.0000000E+00;  1.2319770E+01;  4.0000000E+04;  0.0000000E+00;  3.6696035E+04;  1.2826303E-01;  0.0000000E+00;  2.4335551E-01;  2.6775676E+04;
  1.9968616E+00;  9.9999998E-03; -1.5794148E-01;9822;  1.4211779E+00;  0.0000000E+00; -1.9141495E-02;  9.9499481E+02;  1.3311017E-01; -3.6277773E+03;3;  3.7212952E+01;  0.0000000E+00; -7.3384924E+00;0;  2.8461069E-01;  2.4417096E+04;  0.0000000E+00;  3.1943787E+01;  4.0000000E+04;  0.0000000E+00;  3.6635773E+04;  5.7221264E-02;  0.0000000E+00;  2.2738944E-01;  3.9876977E+04;
  1.9974304E+00;  9.9999998E-03; -1.4758152E-01;9823;  1.4096947E+00;  0.0000000E+00; -1.5217419E-02;  9.9389600E+02;  1.3309883E-01; -4.4201558E+03;3;  3.7308659E+01;  0.0000000E+00; -6.9565964E+00;0;  2.0554112E-01;  2.4402941E+04;  0.0000000E+00;  4.6150162E+01;  4.0000000E+04;  0.0000000E+00;  3.6593586E+04; -3.2546706E-03;  0.0000000E+00;  2.0879579E-01;  4.7734020E+04;
  1.9979957E+00;  9.9999998E-03; -1.3712010E-01;9824;  1.3987107E+00;  0.0000000E+00; -1.1643717E-02;  9.9393817E+02;  1.3306408E-01; -4.3856318E+03;3;  3.6267998E+01;  0.0000000E+00; -5.7883215E+00;0;  1.4237863E-01;  2.4426990E+04;  0.0000000E+00;  5.4277771E+01;  4.0000000E+04;  0.0000000E+00;  3.6578906E+04; -4.7437951E-02;  0.0000000E+00;  1.8981658E-01;  5.0449910E+04;
  1.9985631E+00;  9.9999998E-03; -1.2652932E-01;9825;  1.3891066E+00;  0.0000000E+00; -8.8013923E-03;  9.9483447E+02;  1.3301845E-01; -3.7337083E+03;3;  3.4152271E+01;  0.0000000E+00; -4.0499930E+00;0;  9.7649194E-02;  2.4474623E+04;  0.0000000E+00;  5.6891243E+01;  4.0000000E+04;  0.0000000E+00;  3.6589160E+04; -7.3520534E-02;  0.0000000E+00;  1.7116973E-01;  4.8960551E+04;
  1.9991363E+00;  9.9999998E-03; -1.1580772E-01;9826;  1.3815084E+00;  0.0000000E+00; -6.6718548E-03;  9.9607526E+02;  1.3296516E-01; -2.8341934E+03;3;  3.2329731E+01;  0.0000000E+00; -2.7298601E+00;0;  6.8305373E-02;  2.4530045E+04;  0.0000000E+00;  5.4852848E+01;  4.0000000E+04;  0.0000000E+00;  3.6613680E+04; -8.3762869E-02;  0.0000000E+00;  1.5206824E-01;  4.4432246E+04;
  1.9997239E+00;  9.9999998E-03; -1.0500813E-01;9827;  1.3756447E+00;  0.0000000E+00; -4.9195802E-03;  9.9716071E+02;  1.3291548E-01; -2.0483655E+03;3;  3.1400848E+01;  0.0000000E+00; -1.7510997E+00;0;  4.6920151E-02;  2.4578773E+04;  0.0000000E+00;  4.8728367E+01;  4.0000000E+04;  0.0000000E+00;  3.6635988E+04; -8.5225403E-02;  0.0000000E+00;  1.3214555E-01;  3.7822898E+04;
  2.0076108E+00;  9.9999998E-03; -1.8917221E-01;9858;  1.4530177E+00;  0.0000000E+00; -2.7970362E-02;  1.0049749E+03;  1.3203393E-01;  3.5411785E+03;3;  3.4369492E+01;  0.0000000E+00; -7.4490347E+00;0;  5.7135546E-01;  2.5261598E+04;  0.0000000E+00;  1.8573765E+01;  4.0000000E+04;  0.0000000E+00;  3.6617914E+04;  3.0167925E-01;  0.0000000E+00;  2.6967621E-01;  3.9454185E+03;
  2.0081341E+00;  9.9999998E-03; -1.7895448E-01;9859;  1.4445029E+00;  0.0000000E+00; -2.4856856E-02;  1.0030646E+03;  1.3204813E-01;  2.1794458E+03;3;  3.6020351E+01;  0.0000000E+00; -8.3050375E+00;0;  4.9040556E-01;  2.5205346E+04;  0.0000000E+00; -1.4660028E+01;  4.0000000E+04;  0.0000000E+00;  3.6574445E+04;  2.2855894E-01;  0.0000000E+00;  2.6184660E-01;  3.9536802E+03;
  2.0085998E+00;  9.9999998E-03; -1.6868515E-01;9860;  1.4347223E+00;  0.0000000E+00; -2.1227490E-02;  1.0013161E+03;  1.3205960E-01;  9.3516583E+02;3;  3.7592827E+01;  0.0000000E+00; -8.9559040E+00;0;  3.9899597E-01;  2.5158146E+04;  0.0000000E+00; -1.5222151E+01;  4.0000000E+04;  0.0000000E+00;  3.6526133E+04;  1.5138163E-01;  0.0000000E+00;  2.4761434E-01;  2.3325342E+03;
  2.0090866E+00;  9.9999998E-03; -1.5838246E-01;9861;  1.4237353E+00;  0.0000000E+00; -1.7165899E-02;  9.9929138E+02;  1.3206893E-01; -5.0310535E+02;3;  3.8910435E+01;  0.0000000E+00; -9.1203241E+00;0;  3.0030066E-01;  2.5105814E+04;  0.0000000E+00; -2.1619029E-01;  4.0000000E+04;  0.0000000E+00;  3.6467844E+04;  7.2326466E-02;  0.0000000E+00;  2.2797421E-01;  1.3713298E+04;
  2.0096090E+00;  9.9999998E-03; -1.4804357E-01;9862;  1.4121710E+00;  0.0000000E+00; -1.3091389E-02;  9.9741675E+02;  1.3207516E-01; -1.8323041E+03;3;  3.9126652E+01;  0.0000000E+00; -8.5200176E+00;0;  2.0631340E-01;  2.5061680E+04;  0.0000000E+00;  1.7306978E+01;  4.0000000E+04;  0.0000000E+00;  3.6409047E+04; -1.5767547E-04;  0.0000000E+00;  2.0647107E-01;  2.4256803E+04;
  2.0101507E+00;  9.9999998E-03; -1.3764779E-01;9863;  1.4009552E+00;  0.0000000E+00; -9.4853668E-03;  9.9620618E+02;  1.3206978E-01; -2.6883467E+03;3;  3.8387344E+01;  0.0000000E+00; -7.3706198E+00;0;  1.2819657E-01;  2.5041264E+04;  0.0000000E+00;  3.1288950E+01;  4.0000000E+04;  0.0000000E+00;  3.6363738E+04; -5.7345487E-02;  0.0000000E+00;  1.8554205E-01;  3.1361145E+04;
  2.0107026E+00;  9.9999998E-03; -1.2716645E-01;9864;  1.3907508E+00;  0.0000000E+00; -6.5525118E-03;  9.9577649E+02;  1.3204987E-01; -2.9898557E+03;3;  3.6420101E+01;  0.0000000E+00; -5.5479879E+00;0;  6.9252610E-02;  2.5045688E+04;  0.0000000E+00;  4.0126312E+01;  4.0000000E+04;  0.0000000E+00;  3.6340312E+04; -9.5931634E-02;  0.0000000E+00;  1.6518424E-01;  3.4608184E+04;
  2.0112596E+00;  9.9999998E-03; -1.1658129E-01;9865;  1.3824122E+00;  0.0000000E+00; -4.4959621E-03;  9.9599493E+02;  1.3202083E-01; -2.8323579E+03;3;  3.3978783E+01;  0.0000000E+00; -3.7809875E+00;0;  3.1611249E-02;  2.5067084E+04;  0.0000000E+00;  4.4033836E+01;  4.0000000E+04;  0.0000000E+00;  3.6337789E+04; -1.1386964E-01;  0.0000000E+00;  1.4548089E-01;  3.4548703E+04;
  2.0118101E+00;  9.9999998E-03; -1.0590001E-01;9866;  1.3760457E+00;  0.0000000E+00; -3.0884256E-03;  9.9652740E+02;  1.3198625E-01; -2.4533179E+03;3;  3.2593990E+01;  0.0000000E+00; -2.5938056E+00;0;  8.9892969E-03;  2.5097178E+04;  0.0000000E+00;  4.3690823E+01;  4.0000000E+04;  0.0000000E+00;  3.6346656E+04; -1.1653183E-01;  0.0000000E+00;  1.2552112E-01;  3.2020986E+04;
  1.9093679E+00;  9.9999998E-03; -1.0241593E-01;9498;  1.3774338E+00;  0.0000000E+00; -1.6608650E-02;  1.0005778E+03;  1.4802948E-01;  4.5893008E+02;3;  2.5868963E+01;  0.0000000E+00;  6.3538527E+00;0;  3.8888270E-01;  1.9180643E+04;  0.0000000E+00;  2.0500368E-01;  4.0000000E+04;  0.0000000E+00;  3.8033586E+04;  3.0011281E-01;  0.0000000E+00;  8.8769898E-02;  6.6404512E+03;
  2.0203259E+00;  9.9999998E-03; -1.7934355E-01;9895;  1.4462050E+00;  0.0000000E+00; -2.2998232E-02;  1.0059198E+03;  1.3119043E-01;  4.1157788E+03;3;  3.7237335E+01;  0.0000000E+00; -1.0555622E+01;0;  5.3432739E-01;  2.5798111E+04;  0.0000000E+00;  4.5189278E+01;  4.0000000E+04;  0.0000000E+00;  3.6381340E+04;  2.7375063E-01;  0.0000000E+00;  2.6057673E-01;  1.1486207E+04;
  2.0208972E+00;  9.9999998E-03; -1.6910811E-01;9896;  1.4368299E+00;  0.0000000E+00; -1.8961910E-02;  1.0037417E+03;  1.3121256E-01;  2.5985730E+03;3;  3.9041027E+01;  0.0000000E+00; -1.0948893E+01;0;  4.3865883E-01;  2.5733418E+04;  0.0000000E+00; -2.2299867E+00;  4.0000000E+04;  0.0000000E+00;  3.6327121E+04;  1.9815807E-01;  0.0000000E+00;  2.4050075E-01;  2.9574502E+03;
  2.0213678E+00;  9.9999998E-03; -1.5879957E-01;9897;  1.4260522E+00;  0.0000000E+00; -1.4731513E-02;  1.0024520E+03;  1.3121763E-01;  1.7013170E+03;3;  4.0382435E+01;  0.0000000E+00; -1.0784473E+01;0;  3.3141440E-01;  2.5705217E+04;  0.0000000E+00; -1.7109600E+01;  4.0000000E+04;  0.0000000E+00;  3.6283473E+04;  1.1369047E-01;  0.0000000E+00;  2.1772392E-01;  2.9423291E+03;
  2.0218318E+00;  9.9999998E-03; -1.4844356E-01;9898;  1.4146609E+00;  0.0000000E+00; -1.0679123E-02;  1.0010982E+03;  1.3122116E-01;  7.6125690E+02;3;  4.0805820E+01;  0.0000000E+00; -1.0017522E+01;0;  2.2641838E-01;  2.5677486E+04;  0.0000000E+00; -1.1746777E+01;  4.0000000E+04;  0.0000000E+00;  3.6235520E+04;  3.1540040E-02;  0.0000000E+00;  1.9487834E-01;  3.2943108E+03;
  2.0223196E+00;  9.9999998E-03; -1.3804726E-01;9899;  1.4031100E+00;  0.0000000E+00; -6.9339322E-03;  9.9969006E+02;  1.3122472E-01; -2.1465155E+02;3;  4.0282181E+01;  0.0000000E+00; -8.6924915E+00;0;  1.2918375E-01;  2.5648080E+04;  0.0000000E+00;  1.0259396E+00;  4.0000000E+04;  0.0000000E+00;  3.6184738E+04; -4.2638749E-02;  0.0000000E+00;  1.7182250E-01;  1.0597934E+04;
  2.0228286E+00;  9.9999998E-03; -1.2760340E-01;9900;  1.3923703E+00;  0.0000000E+00; -3.8655675E-03;  9.9851251E+02;  1.3122523E-01; -1.0291282E+03;3;  3.8437675E+01;  0.0000000E+00; -6.9352622E+00;0;  5.1290460E-02;  2.5626613E+04;  0.0000000E+00;  1.3388798E+01;  4.0000000E+04;  0.0000000E+00;  3.6139613E+04; -9.8874994E-02;  0.0000000E+00;  1.5016545E-01;  1.6449463E+04;
  2.0233445E+00;  9.9999998E-03; -1.1709623E-01;9901;  1.3833282E+00;  0.0000000E+00; -1.7458797E-03;  9.9778131E+02;  1.3121638E-01; -1.5334237E+03;3;  3.5802639E+01;  0.0000000E+00; -4.8799734E+00;0; -9.1305375E-04;  2.5618885E+04;  0.0000000E+00;  2.2300541E+01;  4.0000000E+04;  0.0000000E+00;  3.6107332E+04; -1.3135058E-01;  0.0000000E+00;  1.3043752E-01;  1.9832232E+04;
  2.0238578E+00;  9.9999998E-03; -1.0651317E-01;9902;  1.3763852E+00;  0.0000000E+00; -5.5197324E-04;  9.9746753E+02;  1.3120060E-01; -1.7485336E+03;3;  3.3739246E+01;  0.0000000E+00; -3.2367401E+00;0; -2.9785089E-02;  2.5621984E+04;  0.0000000E+00;  2.7267889E+01;  4.0000000E+04;  0.0000000E+00;  3.6089965E+04; -1.4161950E-01;  0.0000000E+00;  1.1183441E-01;  2.0841852E+04;
  2.0329034E+00;  9.9999998E-03; -1.6940238E-01;9930;  1.4376676E+00;  0.0000000E+00; -1.6143676E-02;  1.0075897E+03;  1.3049282E-01;  5.1438789E+03;3;  3.9505405E+01;  0.0000000E+00; -1.2401680E+01;0;  4.7131786E-01;  2.6316361E+04;  0.0000000E+00;  8.6529846E+01;  4.0000000E+04;  0.0000000E+00;  3.6156043E+04;  2.4861445E-01;  0.0000000E+00;  2.2270341E-01;  2.1960807E+04;
  2.0335407E+00;  9.9999998E-03; -1.5916857E-01;9931;  1.4277432E+00;  0.0000000E+00; -1.1658435E-02;  1.0046464E+03;  1.3052745E-01;  3.1448442E+03;3;  4.1017609E+01;  0.0000000E+00; -1.2056887E+01;0;  3.6586010E-01;  2.6227684E+04;  0.0000000E+00;  2.5244238E+01;  4.0000000E+04;  0.0000000E+00;  3.6076160E+04;  1.7081185E-01;  0.0000000E+00;  1.9504824E-01;  6.1421938E+03;
  2.0340486E+00;  9.9999998E-03; -1.4884154E-01;9932;  1.4168558E+00;  0.0000000E+00; -7.6493956E-03;  1.0032271E+03;  1.3053922E-01;  2.1817795E+03;3;  4.1832081E+01;  0.0000000E+00; -1.0950747E+01;0;  2.5760663E-01;  2.6196932E+04;  0.0000000E+00; -6.9092031E+00;  4.0000000E+04;  0.0000000E+00;  3.6025125E+04;  8.6310290E-02;  0.0000000E+00;  1.7129634E-01;  3.4821899E+03;
  2.0345125E+00;  9.9999998E-03; -1.3844296E-01;9933;  1.4052613E+00;  0.0000000E+00; -3.9129588E-03;  1.0022523E+03;  1.3054100E-01;  1.5213088E+03;3;  4.1676823E+01;  0.0000000E+00; -9.8251772E+00;0;  1.4624454E-01;  2.6181287E+04;  0.0000000E+00; -1.5925173E+01;  4.0000000E+04;  0.0000000E+00;  3.5984238E+04; -1.1903285E-03;  0.0000000E+00;  1.4743488E-01;  2.8856370E+03;
  2.0349731E+00;  9.9999998E-03; -1.2799209E-01;9934;  1.3943920E+00;  0.0000000E+00; -9.9432946E-04;  1.0012980E+03;  1.3054259E-01;  8.7589941E+02;3;  4.0124207E+01;  0.0000000E+00; -8.0500984E+00;0;  5.4153912E-02;  2.6166350E+04;  0.0000000E+00; -1.2237917E+01;  4.0000000E+04;  0.0000000E+00;  3.5943016E+04; -7.2690897E-02;  0.0000000E+00;  1.2684481E-01;  1.4517057E+03;
  2.0354395E+00;  9.9999998E-03; -1.1749131E-01;9935;  1.3847194E+00;  0.0000000E+00;  1.0548084E-03;  1.0003729E+03;  1.3054121E-01;  2.5136180E+02;3;  3.7541409E+01;  0.0000000E+00; -5.6438303E+00;0; -1.5978627E-02;  2.6151859E+04;  0.0000000E+00; -4.1706634E+00;  4.0000000E+04;  0.0000000E+00;  3.5903910E+04; -1.2441143E-01;  0.0000000E+00;  1.0843281E-01;  4.8771890E+03;
  2.0359066E+00;  9.9999998E-03; -1.0694429E-01;9936;  1.3770703E+00;  0.0000000E+00;  2.1066281E-03;  9.9957343E+02;  1.3054021E-01; -2.8727527E+02;3;  3.5239746E+01;  0.0000000E+00; -3.9546902E+00;0; -5.8008194E-02;  2.6139842E+04;  0.0000000E+00;  3.3811581E+00;  4.0000000E+04;  0.0000000E+00;  3.5869383E+04; -1.4995657E-01;  0.0000000E+00;  9.1948375E-02;  7.7174082E+03;
  2.0460427E+00;  9.9999998E-03; -1.4910458E-01;9963;  1.4177501E+00;  0.0000000E+00; -3.9454526E-03;  1.0061624E+03;  1.2996198E-01;  4.0579294E+03;3;  4.2129627E+01;  0.0000000E+00; -1.1576373E+01;0;  2.7562755E-01;  2.6703150E+04;  0.0000000E+00;  7.0306808E+01;  4.0000000E+04;  0.0000000E+00;  3.5839770E+04;  1.4082971E-01;  0.0000000E+00;  1.3479786E-01;  1.6206479E+04;
  2.0466001E+00;  9.9999998E-03; -1.3878600E-01;9964;  1.4070969E+00;  0.0000000E+00; -5.4434582E-04;  1.0040329E+03;  1.2998414E-01;  2.6522605E+03;3;  4.2235271E+01;  0.0000000E+00; -1.0354885E+01;0;  1.7147112E-01;  2.6652123E+04;  0.0000000E+00;  2.2316412E+01;  4.0000000E+04;  0.0000000E+00;  3.5763734E+04;  5.8129527E-02;  0.0000000E+00;  1.1334158E-01;  5.6466777E+03;
  2.0470800E+00;  9.9999998E-03; -1.2837444E-01;9965;  1.3965381E+00;  0.0000000E+00;  2.0669983E-03;  1.0029030E+03;  1.2999277E-01;  1.9071012E+03;3;  4.1272682E+01;  0.0000000E+00; -8.5541306E+00;0;  7.5349316E-02;  2.6633203E+04;  0.0000000E+00; -3.6322606E+00;  4.0000000E+04;  0.0000000E+00;  3.5714168E+04; -2.0282764E-02;  0.0000000E+00;  9.5632076E-02;  3.1965959E+03;
  2.0475237E+00;  9.9999998E-03; -1.1788835E-01;9966;  1.3866323E+00;  0.0000000E+00;  3.8645815E-03;  1.0021374E+03;  1.2999202E-01;  1.4027473E+03;3;  3.9267426E+01;  0.0000000E+00; -6.3939238E+00;0; -7.2673187E-03;  2.6624672E+04;  0.0000000E+00; -1.3448496E+01;  4.0000000E+04;  0.0000000E+00;  3.5677195E+04; -8.7477550E-02;  0.0000000E+00;  8.0210231E-02;  3.2223992E+03;
  2.0479500E+00;  9.9999998E-03; -1.0733773E-01;9967;  1.3783301E+00;  0.0000000E+00;  4.7237212E-03;  1.0015019E+03;  1.2999044E-01;  9.8471759E+02;3;  3.6801376E+01;  0.0000000E+00; -4.6974406E+00;0; -6.4863399E-02;  2.6617289E+04;  0.0000000E+00; -1.3990282E+01;  4.0000000E+04;  0.0000000E+00;  3.5647238E+04; -1.3176148E-01;  0.0000000E+00;  6.6898078E-02;  2.1692048E+03;
  2.0589929E+00;  9.9999998E-03; -1.2858295E-01;9992;  1.3976773E+00;  0.0000000E+00;  5.6034685E-03;  1.0055314E+03;  1.2952542E-01;  3.5339036E+03;3;  4.1540981E+01;  0.0000000E+00; -8.2659578E+00;0;  8.8115841E-02;  2.7091346E+04;  0.0000000E+00;  7.1684616E+01;  4.0000000E+04;  0.0000000E+00;  3.5527316E+04;  3.3721332E-02;  0.0000000E+00;  5.4394513E-02;  1.5357756E+04;
  2.0594928E+00;  9.9999998E-03; -1.1818904E-01;9993;  1.3884777E+00;  0.0000000E+00;  6.8249837E-03;  1.0037571E+03;  1.2954189E-01;  2.3974600E+03;3;  4.0304359E+01;  0.0000000E+00; -6.6535058E+00;0;  1.3867833E-02;  2.7056906E+04;  0.0000000E+00;  3.1282282E+01;  4.0000000E+04;  0.0000000E+00;  3.5452043E+04; -3.1568058E-02;  0.0000000E+00;  4.5435891E-02;  7.1668672E+03;
  2.0599301E+00;  9.9999998E-03; -1.0770549E-01;9994;  1.3800223E+00;  0.0000000E+00;  7.3864944E-03;  1.0027390E+03;  1.2954998E-01;  1.7459221E+03;3;  3.8260174E+01;  0.0000000E+00; -5.2126508E+00;0; -5.0747201E-02;  2.7042533E+04;  0.0000000E+00;  6.5714092E+00;  4.0000000E+04;  0.0000000E+00;  3.5403070E+04; -8.7475561E-02;  0.0000000E+00;  3.6728360E-02;  3.3952095E+03;
  4.3684249E-03;  9.9999998E-03; -9.9960729E-02;2467;  6.0426095E-03;  0.0000000E+00;  3.2892969E-04;  9.8564441E+02;  1.0000000E-01; -1.1893343E+04;3;  8.2442947E+01;  0.0000000E+00;  1.0586346E+00;0;  2.6376875E-02;  3.8878543E+04;  0.0000000E+00; -1.7483950E-02;  4.0000000E+04;  0.0000000E+00;  3.9998145E+04;  2.7618932E-02;  0.0000000E+00; -1.2420567E-03;  9.5094000E+02;
  4.3654698E-03;  9.9999998E-03; -8.9960627E-02;2468;  6.0710274E-03;  0.0000000E+00;  2.6164969E-04;  9.8562579E+02;  1.0000000E-01; -1.1908750E+04;3;  8.2982185E+01;  0.0000000E+00;  6.4716029E-01;0;  2.6669074E-02;  3.8876598E+04;  0.0000000E+00; -1.0536836E-02;  4.0000000E+04;  0.0000000E+00;  3.9998715E+04;  2.7943520E-02;  0.0000000E+00; -1.2744468E-03;  1.0327522E+03;
  4.3552332E-03;  9.9999998E-03; -7.9963244E-02;2469;  6.0722562E-03;  0.0000000E+00;  1.9784328E-04;  9.8561865E+02;  1.0000000E-01; -1.1914676E+04;3;  8.3531364E+01;  0.0000000E+00;  3.1735340E-01;0;  2.6876660E-02;  3.8875242E+04;  0.0000000E+00; -6.4463159E-03;  4.0000000E+04;  0.0000000E+00;  3.9999449E+04;  2.8164605E-02;  0.0000000E+00; -1.2879447E-03;  1.1132883E+03;
  4.3393895E-03;  9.9999998E-03; -6.9968492E-02;2470;  6.0526202E-03;  0.0000000E+00;  1.4065599E-04;  9.8561639E+02;  1.0000000E-01; -1.1916552E+04;3;  8.4077133E+01;  0.0000000E+00;  6.6497035E-02;0;  2.7008934E-02;  3.8874641E+04;  0.0000000E+00; -3.9606718E-03;  4.0000000E+04;  0.0000000E+00;  3.9999895E+04;  2.8288864E-02;  0.0000000E+00; -1.2799291E-03;  1.1865640E+03;
  4.3198313E-03;  9.9999998E-03; -5.9975609E-02;2471;  6.0190773E-03;  0.0000000E+00;  9.2401540E-05;  9.8562506E+02;  1.0000000E-01; -1.1909342E+04;3;  8.4521339E+01;  0.0000000E+00; -1.0899145E-01;0;  2.7079219E-02;  3.8874602E+04;  0.0000000E+00; -2.4009403E-03;  4.0000000E+04;  0.0000000E+00;  4.0000297E+04;  2.8330386E-02;  0.0000000E+00; -1.2511660E-03;  1.2479202E+03;
  4.2990977E-03;  9.9999998E-03; -4.9983557E-02;2472;  5.9788777E-03;  0.0000000E+00;  5.4492099E-05;  9.8563690E+02;  1.0000000E-01; -1.1899564E+04;3;  8.4878548E+01;  0.0000000E+00; -2.1415959E-01;0;  2.7102921E-02;  3.8875242E+04;  0.0000000E+00; -1.4133576E-03;  4.0000000E+04;  0.0000000E+00;  4.0000496E+04;  2.8308680E-02;  0.0000000E+00; -1.2057591E-03;  1.2942338E+03;
  4.2790649E-03;  9.9999998E-03; -3.9990868E-02;2473;  5.9381309E-03;  0.0000000E+00;  2.7308963E-05;  9.8565430E+02;  1.0000000E-01; -1.1885146E+04;3;  8.5105278E+01;  0.0000000E+00; -2.5587305E-01;0;  2.7096137E-02;  3.8876176E+04;  0.0000000E+00; -7.9260778E-04;  4.0000000E+04;  0.0000000E+00;  4.0000766E+04;  2.8246731E-02;  0.0000000E+00; -1.1505933E-03;  1.3247214E+03;
  4.2616208E-03;  9.9999998E-03; -2.9996468E-02;2474;  5.9018703E-03;  0.0000000E+00;  1.0211825E-05;  9.8567255E+02;  1.0000000E-01; -1.1870034E+04;3;  8.5226891E+01;  0.0000000E+00; -2.4317485E-01;0;  2.7073704E-02;  3.8877246E+04;  0.0000000E+00; -4.0691125E-04;  4.0000000E+04;  0.0000000E+00;  4.0001840E+04;  2.8168023E-02;  0.0000000E+00; -1.0943187E-03;  1.3412552E+03;
  4.2482018E-03;  9.9999998E-03; -1.9999687E-02;2475;  5.8736643E-03;  0.0000000E+00;  1.6307849E-06;  9.8568823E+02;  1.0000000E-01; -1.1857048E+04;3;  8.5276512E+01;  0.0000000E+00; -1.8731841E-01;0;  2.7048202E-02;  3.8878188E+04;  0.0000000E+00; -1.7180134E-04;  4.0000000E+04;  0.0000000E+00;  4.0002074E+04;  2.8094154E-02;  0.0000000E+00; -1.0459517E-03;  1.3477964E+03;
  4.2398325E-03;  9.9999998E-03; -1.0000590E-02;2476;  5.8559463E-03;  0.0000000E+00; -8.3075088E-07;  9.8569672E+02;  1.0000000E-01; -1.1849986E+04;3;  8.5303078E+01;  0.0000000E+00; -1.0161266E-01;0;  2.7029000E-02;  3.8879121E+04;  0.0000000E+00; -4.1995725E-05;  4.0000000E+04;  0.0000000E+00;  4.0001477E+04;  2.8042343E-02;  0.0000000E+00; -1.0133425E-03;  1.3491136E+03;
  4.2369980E-03;  9.9999998E-03; -2.0556473E-10;2477;  5.8499184E-03;  0.0000000E+00;  4.0479802E-09;  9.8569928E+02;  1.0000000E-01; -1.1847862E+04;3;  8.5311783E+01;  0.0000000E+00;  1.7274922E-05;0;  2.7021909E-02;  3.8879488E+04;  0.0000000E+00;  2.5087243E-13;  4.0000000E+04;  0.0000000E+00;  4.0001414E+04;  2.8023750E-02;  0.0000000E+00; -1.0018403E-03;  1.3490505E+03;
  4.2398330E-03;  9.9999998E-03;  1.0000589E-02;2478;  5.8559505E-03;  0.0000000E+00;  8.3834817E-07;  9.8569672E+02;  1.0000000E-01; -1.1849986E+04;3;  8.5303101E+01;  0.0000000E+00;  1.0163159E-01;0;  2.7029015E-02;  3.8879121E+04;  0.0000000E+00; -4.1944233E-05;  4.0000000E+04;  0.0000000E+00;  4.0001477E+04;  2.8042356E-02;  0.0000000E+00; -1.0133412E-03;  1.3491230E+03;
  4.2482037E-03;  9.9999998E-03;  1.9999685E-02;2479;  5.8736741E-03;  0.0000000E+00; -1.6241115E-06;  9.8568823E+02;  1.0000000E-01; -1.1857048E+04;3;  8.5276505E+01;  0.0000000E+00;  1.8727428E-01;0;  2.7048238E-02;  3.8878195E+04;  0.0000000E+00; -1.7176998E-04;  4.0000000E+04;  0.0000000E+00;  4.0002074E+04;  2.8094186E-02;  0.0000000E+00; -1.0459480E-03;  1.3478043E+03;
  4.2616217E-03;  9.9999998E-03;  2.9996468E-02;2480;  5.9018717E-03;  0.0000000E+00; -1.0202826E-05;  9.8567261E+02;  1.0000000E-01; -1.1869985E+04;3;  8.5226479E+01;  0.0000000E+00;  2.4319004E-01;0;  2.7073776E-02;  3.8877250E+04;  0.0000000E+00; -4.0690418E-04;  4.0000000E+04;  0.0000000E+00;  4.0001840E+04;  2.8168092E-02;  0.0000000E+00; -1.0943156E-03;  1.3412607E+03;
  4.2790682E-03;  9.9999998E-03;  3.9990868E-02;2481;  5.9381477E-03;  0.0000000E+00; -2.7304528E-05;  9.8565424E+02;  1.0000000E-01; -1.1885194E+04;3;  8.5105827E+01;  0.0000000E+00;  2.5586531E-01;0;  2.7096229E-02;  3.8876180E+04;  0.0000000E+00; -7.9238019E-04;  4.0000000E+04;  0.0000000E+00;  4.0000766E+04;  2.8246816E-02;  0.0000000E+00; -1.1505879E-03;  1.3247367E+03;
  4.2991010E-03;  9.9999998E-03;  4.9983557E-02;2482;  5.9788944E-03;  0.0000000E+00; -5.4488562E-05;  9.8563690E+02;  1.0000000E-01; -1.1899564E+04;3;  8.4878700E+01;  0.0000000E+00;  2.1412030E-01;0;  2.7103012E-02;  3.8875242E+04;  0.0000000E+00; -1.4133705E-03;  4.0000000E+04;  0.0000000E+00;  4.0000496E+04;  2.8308766E-02;  0.0000000E+00; -1.2057539E-03;  1.2942510E+03;
  4.3198341E-03;  9.9999998E-03;  5.9975605E-02;2483;  6.0190894E-03;  0.0000000E+00; -9.2400784E-05;  9.8562506E+02;  1.0000000E-01; -1.1909342E+04;3;  8.4521545E+01;  0.0000000E+00;  1.0903636E-01;0;  2.7079323E-02;  3.8874590E+04;  0.0000000E+00; -2.4013289E-03;  4.0000000E+04;  0.0000000E+00;  4.0000297E+04;  2.8330486E-02;  0.0000000E+00; -1.2511631E-03;  1.2479303E+03;
  1.3702548E-02;  9.9999998E-03; -9.9972345E-02;2527;  5.2376930E-03;  0.0000000E+00;  3.0215198E-04;  9.8932458E+02;  1.0000000E-01; -8.8443916E+03;3;  4.5715469E+01;  0.0000000E+00;  8.8993680E-01;0;  2.3524215E-02;  3.9162625E+04;  0.0000000E+00; -2.4242828E-02;  4.0000000E+04;  0.0000000E+00;  3.9998355E+04;  2.4791569E-02;  0.0000000E+00; -1.2673531E-03;  6.3577753E+02;
  1.3702455E-02;  9.9999998E-03; -8.9972086E-02;2528;  5.2618282E-03;  0.0000000E+00;  2.4265327E-04;  9.8930731E+02;  1.0000000E-01; -8.8587129E+03;3;  4.6072418E+01;  0.0000000E+00;  5.4028416E-01;0;  2.3782847E-02;  3.9160090E+04;  0.0000000E+00; -1.5231959E-02;  4.0000000E+04;  0.0000000E+00;  3.9998609E+04;  2.5092945E-02;  0.0000000E+00; -1.3100965E-03;  6.9200391E+02;
  1.3695169E-02;  9.9999998E-03; -7.9973958E-02;2529;  5.2564233E-03;  0.0000000E+00;  1.8610236E-04;  9.8929773E+02;  1.0000000E-01; -8.8666133E+03;3;  4.6494179E+01;  0.0000000E+00;  2.6034147E-01;0;  2.3966836E-02;  3.9158727E+04;  0.0000000E+00; -9.8494804E-03;  4.0000000E+04;  0.0000000E+00;  3.9998352E+04;  2.5302604E-02;  0.0000000E+00; -1.3357685E-03;  7.5034973E+02;
  1.3682240E-02;  9.9999998E-03; -6.9977976E-02;2530;  5.2289995E-03;  0.0000000E+00;  1.3503355E-04;  9.8928760E+02;  1.0000000E-01; -8.8750078E+03;3;  4.6989414E+01;  0.0000000E+00;  4.7815375E-02;0;  2.4085289E-02;  3.9157277E+04;  0.0000000E+00; -6.4793262E-03;  4.0000000E+04;  0.0000000E+00;  3.9998535E+04;  2.5425429E-02;  0.0000000E+00; -1.3401405E-03;  8.0765460E+02;
  1.3665305E-02;  9.9999998E-03; -5.9983276E-02;2531;  5.1876274E-03;  0.0000000E+00;  9.1410977E-05;  9.8928064E+02;  1.0000000E-01; -8.8807861E+03;3;  4.7485619E+01;  0.0000000E+00; -1.0058568E-01;0;  2.4150748E-02;  3.9156789E+04;  0.0000000E+00; -4.2570420E-03;  4.0000000E+04;  0.0000000E+00;  3.9999000E+04;  2.5473407E-02;  0.0000000E+00; -1.3226593E-03;  8.6046515E+02;
  1.3646654E-02;  9.9999998E-03; -4.9989194E-02;2532;  5.1398543E-03;  0.0000000E+00;  5.6530156E-05;  9.8928656E+02;  1.0000000E-01; -8.8758975E+03;3;  4.7870495E+01;  0.0000000E+00; -1.8888147E-01;0;  2.4177061E-02;  3.9156500E+04;  0.0000000E+00; -2.7364206E-03;  4.0000000E+04;  0.0000000E+00;  3.9999762E+04;  2.5463644E-02;  0.0000000E+00; -1.2865830E-03;  9.0515710E+02;
  1.3628255E-02;  9.9999998E-03; -3.9994515E-02;2533;  5.0928374E-03;  0.0000000E+00;  3.0873060E-05;  9.8929089E+02;  1.0000000E-01; -8.8722920E+03;3;  4.8207638E+01;  0.0000000E+00; -2.2309090E-01;0;  2.4177670E-02;  3.9156809E+04;  0.0000000E+00; -1.6728018E-03;  4.0000000E+04;  0.0000000E+00;  4.0000207E+04;  2.5416128E-02;  0.0000000E+00; -1.2384580E-03;  9.3923859E+02;
  1.3611885E-02;  9.9999998E-03; -2.9998440E-02;2534;  5.0515062E-03;  0.0000000E+00;  1.4014414E-05;  9.8930170E+02;  1.0000000E-01; -8.8633545E+03;3;  4.8419617E+01;  0.0000000E+00; -2.1097162E-01;0;  2.4164785E-02;  3.9157379E+04;  0.0000000E+00; -9.2255621E-04;  4.0000000E+04;  0.0000000E+00;  4.0000820E+04;  2.5351807E-02;  0.0000000E+00; -1.1870221E-03;  9.6211530E+02;
  1.3599080E-02;  9.9999998E-03; -2.0000491E-02;2535;  5.0197011E-03;  0.0000000E+00;  4.6983068E-06;  9.8931140E+02;  1.0000000E-01; -8.8553047E+03;3;  4.8552536E+01;  0.0000000E+00; -1.6206191E-01;0;  2.4148481E-02;  3.9157965E+04;  0.0000000E+00; -4.0900032E-04;  4.0000000E+04;  0.0000000E+00;  4.0001074E+04;  2.5290113E-02;  0.0000000E+00; -1.1416320E-03;  9.7529572E+02;
  1.3590975E-02;  9.9999998E-03; -1.0000815E-02;2536;  4.9998118E-03;  0.0000000E+00;  8.9629521E-07;  9.8931683E+02;  1.0000000E-01; -8.8508115E+03;3;  4.8630180E+01;  0.0000000E+00; -8.7571569E-02;0;  2.4135709E-02;  3.9158453E+04;  0.0000000E+00; -1.0267087E-04;  4.0000000E+04;  0.0000000E+00;  4.0001426E+04;  2.5246285E-02;  0.0000000E+00; -1.1105760E-03;  9.8150555E+02;
  1.3588179E-02;  9.9999998E-03; -1.3377328E-10;2537;  4.9929991E-03;  0.0000000E+00;  1.9772541E-09;  9.8932068E+02;  1.0000000E-01; -8.8476016E+03;3;  4.8641006E+01;  0.0000000E+00; -9.6673411E-06;0;  2.4131035E-02;  3.9158641E+04;  0.0000000E+00;  4.0394096E-13;  4.0000000E+04;  0.0000000E+00;  4.0001402E+04;  2.5230583E-02;  0.0000000E+00; -1.0995470E-03;  9.8322266E+02;
  1.3590976E-02;  9.9999998E-03;  1.0000815E-02;2538;  4.9998150E-03;  0.0000000E+00; -8.8879762E-07;  9.8931683E+02;  1.0000000E-01; -8.8508115E+03;3;  4.8630219E+01;  0.0000000E+00;  8.7598629E-02;0;  2.4135757E-02;  3.9158457E+04;  0.0000000E+00; -1.0258866E-04;  4.0000000E+04;  0.0000000E+00;  4.0001430E+04;  2.5246330E-02;  0.0000000E+00; -1.1105731E-03;  9.8151208E+02;
  1.3599082E-02;  9.9999998E-03;  2.0000491E-02;2539;  5.0197062E-03;  0.0000000E+00; -4.6918021E-06;  9.8931140E+02;  1.0000000E-01; -8.8553047E+03;3;  4.8552567E+01;  0.0000000E+00;  1.6209276E-01;0;  2.4148516E-02;  3.9157969E+04;  0.0000000E+00; -4.0880090E-04;  4.0000000E+04;  0.0000000E+00;  4.0001074E+04;  2.5290143E-02;  0.0000000E+00; -1.1416259E-03;  9.7530463E+02;
  1.3611887E-02;  9.9999998E-03;  2.9998440E-02;2540;  5.0515109E-03;  0.0000000E+00; -1.4010960E-05;  9.8930170E+02;  1.0000000E-01; -8.8633545E+03;3;  4.8419769E+01;  0.0000000E+00;  2.1097551E-01;0;  2.4164869E-02;  3.9157375E+04;  0.0000000E+00; -9.2238671E-04;  4.0000000E+04;  0.0000000E+00;  4.0000820E+04;  2.5351882E-02;  0.0000000E+00; -1.1870143E-03;  9.6212305E+02;
  1.3628257E-02;  9.9999998E-03;  3.9994512E-02;2541;  5.0928518E-03;  0.0000000E+00; -3.0864725E-05;  9.8929089E+02;  1.0000000E-01; -8.8722920E+03;3;  4.8207726E+01;  0.0000000E+00;  2.2309436E-01;0;  2.4177758E-02;  3.9156809E+04;  0.0000000E+00; -1.6720834E-03;  4.0000000E+04;  0.0000000E+00;  4.0000207E+04;  2.5416208E-02;  0.0000000E+00; -1.2384510E-03;  9.3923944E+02;
  1.3646657E-02;  9.9999998E-03;  4.9989190E-02;2542;  5.1398659E-03;  0.0000000E+00; -5.6525201E-05;  9.8928656E+02;  1.0000000E-01; -8.8758975E+03;3;  4.7870571E+01;  0.0000000E+00;  1.8890201E-01;0;  2.4177181E-02;  3.9156512E+04;  0.0000000E+00; -2.7362369E-03;  4.0000000E+04;  0.0000000E+00;  3.9999762E+04;  2.5463756E-02;  0.0000000E+00; -1.2865757E-03;  9.0516431E+02;
  1.3665306E-02;  9.9999998E-03;  5.9983276E-02;2543;  5.1876418E-03;  0.0000000E+00; -9.1409507E-05;  9.8928064E+02;  1.0000000E-01; -8.8807861E+03;3;  4.7485569E+01;  0.0000000E+00;  1.0059090E-01;0;  2.4150841E-02;  3.9156793E+04;  0.0000000E+00; -4.2579188E-03;  4.0000000E+04;  0.0000000E+00;  3.9999000E+04;  2.5473498E-02;  0.0000000E+00; -1.3226559E-03;  8.6046704E+02;
  2.3031397E-02;  9.9999998E-03; -9.9978350E-02;2588;  4.4707120E-03;  0.0000000E+00;  2.7000351E-04;  9.9331665E+02;  1.0000000E-01; -5.5370288E+03;3;  1.1322777E+01;  0.0000000E+00;  7.1952873E-01;0;  2.0412393E-02;  3.9474250E+04;  0.0000000E+00; -3.0480584E-02;  4.0000000E+04;  0.0000000E+00;  3.9998055E+04;  2.1646630E-02;  0.0000000E+00; -1.2342375E-03;  3.1793683E+02;
  2.3033839E-02;  9.9999998E-03; -8.9979962E-02;2589;  4.4914661E-03;  0.0000000E+00;  2.2028539E-04;  9.9329150E+02;  1.0000000E-01; -5.5578677E+03;3;  1.1527521E+01;  0.0000000E+00;  4.3309721E-01;0;  2.0621821E-02;  3.9472168E+04;  0.0000000E+00; -1.9997124E-02;  4.0000000E+04;  0.0000000E+00;  3.9998223E+04;  2.1910585E-02;  0.0000000E+00; -1.2887637E-03;  3.3857202E+02;
  2.3029288E-02;  9.9999998E-03; -7.9982758E-02;2590;  4.4795121E-03;  0.0000000E+00;  1.7263847E-04;  9.9326544E+02;  1.0000000E-01; -5.5794473E+03;3;  1.1870605E+01;  0.0000000E+00;  2.0373718E-01;0;  2.0769846E-02;  3.9469656E+04;  0.0000000E+00; -1.3528042E-02;  4.0000000E+04;  0.0000000E+00;  3.9998941E+04;  2.2099402E-02;  0.0000000E+00; -1.3295554E-03;  3.6617355E+02;
  2.3018965E-02;  9.9999998E-03; -6.9986410E-02;2591;  4.4421619E-03;  0.0000000E+00;  1.2888861E-04;  9.9324194E+02;  1.0000000E-01; -5.5989033E+03;3;  1.2305528E+01;  0.0000000E+00;  2.9839560E-02;0;  2.0866781E-02;  3.9468051E+04;  0.0000000E+00; -9.3046492E-03;  4.0000000E+04;  0.0000000E+00;  3.9998734E+04;  2.2217091E-02;  0.0000000E+00; -1.3503098E-03;  4.0144934E+02;
  2.3004403E-02;  9.9999998E-03; -5.9990495E-02;2592;  4.3890215E-03;  0.0000000E+00;  9.0819340E-05;  9.9322986E+02;  1.0000000E-01; -5.6089277E+03;3;  1.2740366E+01;  0.0000000E+00; -9.1139533E-02;0;  2.0923978E-02;  3.9466707E+04;  0.0000000E+00; -6.3799801E-03;  4.0000000E+04;  0.0000000E+00;  3.9998855E+04;  2.2272646E-02;  0.0000000E+00; -1.3486687E-03;  4.4262799E+02;
  2.2987761E-02;  9.9999998E-03; -4.9994707E-02;2593;  4.3277983E-03;  0.0000000E+00;  5.9143160E-05;  9.9322668E+02;  1.0000000E-01; -5.6115449E+03;3;  1.3143838E+01;  0.0000000E+00; -1.6278468E-01;0;  2.0953227E-02;  3.9465809E+04;  0.0000000E+00; -4.2667259E-03;  4.0000000E+04;  0.0000000E+00;  3.9998965E+04;  2.2279793E-02;  0.0000000E+00; -1.3265666E-03;  4.8557144E+02;
  2.2970974E-02;  9.9999998E-03; -3.9998278E-02;2594;  4.2678113E-03;  0.0000000E+00;  3.4928184E-05;  9.9322534E+02;  1.0000000E-01; -5.6126807E+03;3;  1.3516870E+01;  0.0000000E+00; -1.8954954E-01;0;  2.0964157E-02;  3.9465453E+04;  0.0000000E+00; -2.6985765E-03;  4.0000000E+04;  0.0000000E+00;  3.9999848E+04;  2.2253968E-02;  0.0000000E+00; -1.2898116E-03;  5.2530267E+02;
  2.2955913E-02;  9.9999998E-03; -3.0000670E-02;2595;  4.2155879E-03;  0.0000000E+00;  1.8145563E-05;  9.9322656E+02;  1.0000000E-01; -5.6116436E+03;3;  1.3817590E+01;  0.0000000E+00; -1.7811984E-01;0;  2.0964820E-02;  3.9465410E+04;  0.0000000E+00; -1.5277062E-03;  4.0000000E+04;  0.0000000E+00;  3.9999801E+04;  2.2211716E-02;  0.0000000E+00; -1.2468956E-03;  5.5782483E+02;
  2.2943994E-02;  9.9999998E-03; -2.0001592E-02;2596;  4.1754483E-03;  0.0000000E+00;  7.9448764E-06;  9.9323273E+02;  1.0000000E-01; -5.6065576E+03;3;  1.4009867E+01;  0.0000000E+00; -1.3633445E-01;0;  2.0961396E-02;  3.9465605E+04;  0.0000000E+00; -6.8919035E-04;  4.0000000E+04;  0.0000000E+00;  4.0000391E+04;  2.2168679E-02;  0.0000000E+00; -1.2072827E-03;  5.8109204E+02;
  2.2936391E-02;  9.9999998E-03; -1.0001181E-02;2597;  4.1503510E-03;  0.0000000E+00;  2.6596424E-06;  9.9323724E+02;  1.0000000E-01; -5.6028047E+03;3;  1.4122010E+01;  0.0000000E+00; -7.3547289E-02;0;  2.0957841E-02;  3.9465879E+04;  0.0000000E+00; -1.7471881E-04;  4.0000000E+04;  0.0000000E+00;  4.0000508E+04;  2.2137364E-02;  0.0000000E+00; -1.1795233E-03;  5.9469830E+02;
  2.2933785E-02;  9.9999998E-03; -1.4870111E-10;2598;  4.1418476E-03;  0.0000000E+00;  1.9572546E-09;  9.9323810E+02;  1.0000000E-01; -5.6021133E+03;3;  1.4163613E+01;  0.0000000E+00;  8.5510055E-06;0;  2.0956410E-02;  3.9465723E+04;  0.0000000E+00;  5.5906056E-13;  4.0000000E+04;  0.0000000E+00;  4.0000727E+04;  2.2125969E-02;  0.0000000E+00; -1.1695587E-03;  5.9910950E+02;
  2.2936393E-02;  9.9999998E-03;  1.0001180E-02;2599;  4.1503529E-03;  0.0000000E+00; -2.6548687E-06;  9.9323724E+02;  1.0000000E-01; -5.6028047E+03;3;  1.4122035E+01;  0.0000000E+00;  7.3578790E-02;0;  2.0957856E-02;  3.9465879E+04;  0.0000000E+00; -1.7464159E-04;  4.0000000E+04;  0.0000000E+00;  4.0000508E+04;  2.2137374E-02;  0.0000000E+00; -1.1795189E-03;  5.9470026E+02;
  2.2943996E-02;  9.9999998E-03;  2.0001592E-02;2600;  4.1754530E-03;  0.0000000E+00; -7.9408219E-06;  9.9323273E+02;  1.0000000E-01; -5.6065576E+03;3;  1.4009900E+01;  0.0000000E+00;  1.3637099E-01;0;  2.0961452E-02;  3.9465605E+04;  0.0000000E+00; -6.8920542E-04;  4.0000000E+04;  0.0000000E+00;  4.0000391E+04;  2.2168728E-02;  0.0000000E+00; -1.2072755E-03;  5.8109863E+02;
  2.2955915E-02;  9.9999998E-03;  3.0000670E-02;2601;  4.2155981E-03;  0.0000000E+00; -1.8144552E-05;  9.9322644E+02;  1.0000000E-01; -5.6117427E+03;3;  1.3818416E+01;  0.0000000E+00;  1.7808586E-01;0;  2.0964878E-02;  3.9465410E+04;  0.0000000E+00; -1.5275967E-03;  4.0000000E+04;  0.0000000E+00;  3.9999801E+04;  2.2211764E-02;  0.0000000E+00; -1.2468862E-03;  5.5784290E+02;
  2.2970976E-02;  9.9999998E-03;  3.9998274E-02;2602;  4.2678220E-03;  0.0000000E+00; -3.4920959E-05;  9.9322534E+02;  1.0000000E-01; -5.6126807E+03;3;  1.3516920E+01;  0.0000000E+00;  1.8962902E-01;0;  2.0964250E-02;  3.9465453E+04;  0.0000000E+00; -2.6983935E-03;  4.0000000E+04;  0.0000000E+00;  3.9999848E+04;  2.2254050E-02;  0.0000000E+00; -1.2898002E-03;  5.2530713E+02;
  2.2987762E-02;  9.9999998E-03;  4.9994707E-02;2603;  4.3278094E-03;  0.0000000E+00; -5.9137554E-05;  9.9322668E+02;  1.0000000E-01; -5.6115449E+03;3;  1.3143898E+01;  0.0000000E+00;  1.6280681E-01;0;  2.0953307E-02;  3.9465820E+04;  0.0000000E+00; -4.2662430E-03;  4.0000000E+04;  0.0000000E+00;  3.9998965E+04;  2.2279862E-02;  0.0000000E+00; -1.3265552E-03;  4.8557730E+02;
  2.3004405E-02;  9.9999998E-03;  5.9990495E-02;2604;  4.3890327E-03;  0.0000000E+00; -9.0816691E-05;  9.9322992E+02;  1.0000000E-01; -5.6088784E+03;3;  1.2740042E+01;  0.0000000E+00;  9.1120057E-02;0;  2.0924071E-02;  3.9466711E+04;  0.0000000E+00; -6.3801403E-03;  4.0000000E+04;  0.0000000E+00;  3.9998855E+04;  2.2272732E-02;  0.0000000E+00; -1.3486614E-03;  4.4262643E+02;
  3.2423999E-02;  9.9999998E-03; -9.9985652E-02;2649;  3.7756630E-03;  0.0000000E+00;  2.3300870E-04;  9.9707098E+02;  1.0000000E-01; -2.4266475E+03;3; -1.4405897E+01;  0.0000000E+00;  5.5876249E-01;0;  1.7410617E-02;  3.9773094E+04;  0.0000000E+00; -3.4631271E-02;  4.0000000E+04;  0.0000000E+00;  3.9998148E+04;  1.8555246E-02;  0.0000000E+00; -1.1446297E-03;  6.3091698E+01;
  3.2428581E-02;  9.9999998E-03; -8.9988284E-02;2650;  3.7921919E-03;  0.0000000E+00;  1.9644042E-04;  9.9703320E+02;  1.0000000E-01; -2.4579551E+03;3; -1.4325972E+01;  0.0000000E+00;  3.3237433E-01;0;  1.7558500E-02;  3.9770895E+04;  0.0000000E+00; -2.3370713E-02;  4.0000000E+04;  0.0000000E+00;  3.9998434E+04;  1.8770615E-02;  0.0000000E+00; -1.2121152E-03;  3.9090710E+01;
  3.2426439E-02;  9.9999998E-03; -7.9991415E-02;2651;  3.7704974E-03;  0.0000000E+00;  1.6048015E-04;  9.9700397E+02;  1.0000000E-01; -2.4821521E+03;3; -1.4145067E+01;  0.0000000E+00;  1.5150839E-01;0;  1.7661855E-02;  3.9768078E+04;  0.0000000E+00; -1.6147235E-02;  4.0000000E+04;  0.0000000E+00;  3.9998262E+04;  1.8932303E-02;  0.0000000E+00; -1.2704490E-03;  2.6608889E+01;
  3.2418545E-02;  9.9999998E-03; -6.9994703E-02;2652;  3.7215403E-03;  0.0000000E+00;  1.2622373E-04;  9.9697345E+02;  1.0000000E-01; -2.5074353E+03;3; -1.3818680E+01;  0.0000000E+00;  1.4449513E-02;0;  1.7730828E-02;  3.9765461E+04;  0.0000000E+00; -1.1272972E-02;  4.0000000E+04;  0.0000000E+00;  3.9997996E+04;  1.9041663E-02;  0.0000000E+00; -1.3108342E-03;  2.9130339E+01;
  3.2406401E-02;  9.9999998E-03; -5.9997790E-02;2653;  3.6560674E-03;  0.0000000E+00;  9.4649047E-05;  9.9694855E+02;  1.0000000E-01; -2.5280767E+03;3; -1.3410800E+01;  0.0000000E+00; -8.0415957E-02;0;  1.7775819E-02;  3.9763492E+04;  0.0000000E+00; -7.8255581E-03;  4.0000000E+04;  0.0000000E+00;  3.9998918E+04;  1.9104481E-02;  0.0000000E+00; -1.3286629E-03;  5.5225655E+01;
  3.2391720E-02;  9.9999998E-03; -5.0000556E-02;2654;  3.5832268E-03;  0.0000000E+00;  6.6517154E-05;  9.9693982E+02;  1.0000000E-01; -2.5352864E+03;3; -1.3021990E+01;  0.0000000E+00; -1.3593796E-01;0;  1.7805852E-02;  3.9762137E+04;  0.0000000E+00; -5.2976804E-03;  4.0000000E+04;  0.0000000E+00;  3.9998707E+04;  1.9130033E-02;  0.0000000E+00; -1.3241804E-03;  9.7796844E+01;
  3.2376438E-02;  9.9999998E-03; -4.0002614E-02;2655;  3.5132214E-03;  0.0000000E+00;  4.3428303E-05;  9.9693402E+02;  1.0000000E-01; -2.5401257E+03;3; -1.2633775E+01;  0.0000000E+00; -1.5596272E-01;0;  1.7826565E-02;  3.9761277E+04;  0.0000000E+00; -3.3928421E-03;  4.0000000E+04;  0.0000000E+00;  3.9998605E+04;  1.9128703E-02;  0.0000000E+00; -1.3021374E-03;  1.4655923E+02;
  3.2362495E-02;  9.9999998E-03; -3.0003609E-02;2656;  3.4528603E-03;  0.0000000E+00;  2.5949450E-05;  9.9692883E+02;  1.0000000E-01; -2.5444219E+03;3; -1.2281704E+01;  0.0000000E+00; -1.4554785E-01;0;  1.7841432E-02;  3.9760871E+04;  0.0000000E+00; -1.9433064E-03;  4.0000000E+04;  0.0000000E+00;  3.9999523E+04;  1.9111976E-02;  0.0000000E+00; -1.2705444E-03;  1.9269084E+02;
  3.2351337E-02;  9.9999998E-03; -2.0003360E-02;2657;  3.4066420E-03;  0.0000000E+00;  1.3793121E-05;  9.9693115E+02;  1.0000000E-01; -2.5424961E+03;3; -1.2038846E+01;  0.0000000E+00; -1.1100619E-01;0;  1.7852148E-02;  3.9760719E+04;  0.0000000E+00; -8.8492385E-04;  4.0000000E+04;  0.0000000E+00;  3.9999375E+04;  1.9090949E-02;  0.0000000E+00; -1.2388008E-03;  2.2953854E+02;
  3.2344166E-02;  9.9999998E-03; -1.0002003E-02;2658;  3.3778173E-03;  0.0000000E+00;  5.7623624E-06;  9.9693365E+02;  1.0000000E-01; -2.5404219E+03;3; -1.1890959E+01;  0.0000000E+00; -5.9768904E-02;0;  1.7858757E-02;  3.9760699E+04;  0.0000000E+00; -2.2559884E-04;  4.0000000E+04;  0.0000000E+00;  3.9999910E+04;  1.9074380E-02;  0.0000000E+00; -1.2156243E-03;  2.5297906E+02;
  3.2341696E-02;  9.9999998E-03; -1.7306666E-10;2659;  3.3680284E-03;  0.0000000E+00;  1.4054083E-09;  9.9693488E+02;  1.0000000E-01; -2.5393850E+03;3; -1.1842634E+01;  0.0000000E+00;  2.6119829E-05;0;  1.7861038E-02;  3.9760508E+04;  0.0000000E+00;  1.0891393E-12;  4.0000000E+04;  0.0000000E+00;  3.9999941E+04;  1.9068200E-02;  0.0000000E+00; -1.2071613E-03;  2.6098907E+02;
  3.2344170E-02;  9.9999998E-03;  1.0002003E-02;2660;  3.3778218E-03;  0.0000000E+00; -5.7593675E-06;  9.9693353E+02;  1.0000000E-01; -2.5405208E+03;3; -1.1890331E+01;  0.0000000E+00;  5.9827417E-02;0;  1.7858788E-02;  3.9760699E+04;  0.0000000E+00; -2.2551895E-04;  4.0000000E+04;  0.0000000E+00;  3.9999910E+04;  1.9074408E-02;  0.0000000E+00; -1.2156194E-03;  2.5298175E+02;
  3.2351337E-02;  9.9999998E-03;  2.0003360E-02;2661;  3.4066434E-03;  0.0000000E+00; -1.3790473E-05;  9.9693127E+02;  1.0000000E-01; -2.5423972E+03;3; -1.2039787E+01;  0.0000000E+00;  1.1103712E-01;0;  1.7852178E-02;  3.9760715E+04;  0.0000000E+00; -8.8472053E-04;  4.0000000E+04;  0.0000000E+00;  3.9999375E+04;  1.9090969E-02;  0.0000000E+00; -1.2387915E-03;  2.2954149E+02;
  3.2362498E-02;  9.9999998E-03;  3.0003609E-02;2662;  3.4528712E-03;  0.0000000E+00; -2.5947382E-05;  9.9692877E+02;  1.0000000E-01; -2.5444712E+03;3; -1.2281353E+01;  0.0000000E+00;  1.4557530E-01;0;  1.7841509E-02;  3.9760867E+04;  0.0000000E+00; -1.9429051E-03;  4.0000000E+04;  0.0000000E+00;  3.9999523E+04;  1.9112039E-02;  0.0000000E+00; -1.2705316E-03;  1.9269395E+02;
  3.2376442E-02;  9.9999998E-03;  4.0002611E-02;2663;  3.5132319E-03;  0.0000000E+00; -4.3424796E-05;  9.9693396E+02;  1.0000000E-01; -2.5401750E+03;3; -1.2633371E+01;  0.0000000E+00;  1.5597866E-01;0;  1.7826654E-02;  3.9761285E+04;  0.0000000E+00; -3.3930924E-03;  4.0000000E+04;  0.0000000E+00;  3.9998602E+04;  1.9128777E-02;  0.0000000E+00; -1.3021230E-03;  1.4656334E+02;
  3.2391723E-02;  9.9999998E-03;  5.0000556E-02;2664;  3.5832380E-03;  0.0000000E+00; -6.6516172E-05;  9.9693982E+02;  1.0000000E-01; -2.5352864E+03;3; -1.3021957E+01;  0.0000000E+00;  1.3590483E-01;0;  1.7805951E-02;  3.9762137E+04;  0.0000000E+00; -5.2976264E-03;  4.0000000E+04;  0.0000000E+00;  3.9998707E+04;  1.9130118E-02;  0.0000000E+00; -1.3241667E-03;  9.7798424E+01;
  3.2406405E-02;  9.9999998E-03;  5.9997790E-02;2665;  3.6560774E-03;  0.0000000E+00; -9.4645868E-05;  9.9694861E+02;  1.0000000E-01; -2.5280273E+03;3; -1.3411094E+01;  0.0000000E+00;  8.0413997E-02;0;  1.7775919E-02;  3.9763496E+04;  0.0000000E+00; -7.8254594E-03;  4.0000000E+04;  0.0000000E+00;  3.9998918E+04;  1.9104570E-02;  0.0000000E+00; -1.3286518E-03;  5.5229065E+01;
  4.1903604E-02;  9.9999998E-03; -9.9996284E-02;2710;  3.2593743E-03;  0.0000000E+00;  1.9330831E-04;  1.0001689E+03;  1.0000000E-01;  1.3994666E+02;3; -2.8797869E+01;  0.0000000E+00;  4.1792771E-01;0;  1.4791197E-02;  4.0023652E+04;  0.0000000E+00; -3.4953792E-02;  4.0000000E+04;  0.0000000E+00;  3.9998734E+04;  1.5798436E-02;  0.0000000E+00; -1.0072397E-03;  1.6063588E+02;
  4.1909937E-02;  9.9999998E-03; -8.9998208E-02;2711;  3.2711835E-03;  0.0000000E+00;  1.7307454E-04;  1.0001276E+03;  1.0000000E-01;  1.0567603E+02;3; -2.8855940E+01;  0.0000000E+00;  2.4537183E-01;0;  1.4868545E-02;  4.0020715E+04;  0.0000000E+00; -2.3580167E-02;  4.0000000E+04;  0.0000000E+00;  3.9998535E+04;  1.5956791E-02;  0.0000000E+00; -1.0882455E-03;  2.1865311E+02;
  4.1910142E-02;  9.9999998E-03; -7.9999991E-02;2712;  3.2427341E-03;  0.0000000E+00;  1.5121959E-04;  1.0000815E+03;  1.0000000E-01;  6.7553642E+01;3; -2.8741373E+01;  0.0000000E+00;  1.0742072E-01;0;  1.4918898E-02;  4.0017922E+04;  0.0000000E+00; -1.6082523E-02;  4.0000000E+04;  0.0000000E+00;  3.9998379E+04;  1.6084343E-02;  0.0000000E+00; -1.1654447E-03;  2.6021616E+02;
  4.1904230E-02;  9.9999998E-03; -7.0001610E-02;2713;  3.1857970E-03;  0.0000000E+00;  1.2780659E-04;  1.0000488E+03;  1.0000000E-01;  4.0492683E+01;3; -2.8525448E+01;  0.0000000E+00;  3.1770698E-03;0;  1.4954193E-02;  4.0014949E+04;  0.0000000E+00; -1.1022417E-02;  4.0000000E+04;  0.0000000E+00;  3.9998320E+04;  1.6181385E-02;  0.0000000E+00; -1.2271927E-03;  2.7118542E+02;
  4.1893717E-02;  9.9999998E-03; -6.0003176E-02;2714;  3.1131769E-03;  0.0000000E+00;  1.0371227E-04;  1.0000243E+03;  1.0000000E-01;  2.0147579E+01;3; -2.8206511E+01;  0.0000000E+00; -6.8770237E-02;0;  1.4983565E-02;  4.0012594E+04;  0.0000000E+00; -7.5334585E-03;  4.0000000E+04;  0.0000000E+00;  3.9998047E+04;  1.6249923E-02;  0.0000000E+00; -1.2663580E-03;  2.4923825E+02;
  4.1880324E-02;  9.9999998E-03; -5.0004557E-02;2715;  3.0355430E-03;  0.0000000E+00;  8.0489423E-05;  1.0000074E+03;  1.0000000E-01;  6.1232834E+00;3; -2.7826130E+01;  0.0000000E+00; -1.1041854E-01;0;  1.5012730E-02;  4.0010891E+04;  0.0000000E+00; -5.0640954E-03;  4.0000000E+04;  0.0000000E+00;  3.9998891E+04;  1.6294012E-02;  0.0000000E+00; -1.2812820E-03;  2.0094067E+02;
  4.1866127E-02;  9.9999998E-03; -4.0005408E-02;2716;  2.9620503E-03;  0.0000000E+00;  5.9378897E-05;  9.9999756E+02;  1.0000000E-01; -2.0246341E+00;3; -2.7437469E+01;  0.0000000E+00; -1.2465237E-01;0;  1.5043210E-02;  4.0009727E+04;  0.0000000E+00; -3.2500110E-03;  4.0000000E+04;  0.0000000E+00;  3.9998934E+04;  1.6318729E-02;  0.0000000E+00; -1.2755184E-03;  1.3817419E+02;
  4.1853029E-02;  9.9999998E-03; -3.0005410E-02;2717;  2.8985860E-03;  0.0000000E+00;  4.0792122E-05;  9.9999347E+02;  1.0000000E-01; -5.4319453E+00;3; -2.7090223E+01;  0.0000000E+00; -1.1535712E-01;0;  1.5073556E-02;  4.0008953E+04;  0.0000000E+00; -1.8765981E-03;  4.0000000E+04;  0.0000000E+00;  3.9999805E+04;  1.6330060E-02;  0.0000000E+00; -1.2565042E-03;  7.4260811E+01;
  4.1842517E-02;  9.9999998E-03; -2.0004367E-02;2718;  2.8480722E-03;  0.0000000E+00;  2.4445562E-05;  9.9999359E+02;  1.0000000E-01; -5.3331823E+00;3; -2.6823626E+01;  0.0000000E+00; -8.7595530E-02;0;  1.5100467E-02;  4.0008508E+04;  0.0000000E+00; -8.6262781E-04;  4.0000000E+04;  0.0000000E+00;  3.9999762E+04;  1.6333997E-02;  0.0000000E+00; -1.2335301E-03;  2.0636965E+01;
  4.1835777E-02;  9.9999998E-03; -1.0002427E-02;2719;  2.8165570E-03;  0.0000000E+00;  1.1284988E-05;  9.9999237E+02;  1.0000000E-01; -6.3208089E+00;3; -2.6645819E+01;  0.0000000E+00; -4.7059912E-02;0;  1.5118852E-02;  4.0008055E+04;  0.0000000E+00; -2.2147561E-04;  4.0000000E+04;  0.0000000E+00;  4.0000000E+04;  1.6334327E-02;  0.0000000E+00; -1.2154749E-03;  1.4615814E+01;
  4.1833438E-02;  9.9999998E-03; -2.3679630E-10;2720;  2.8058062E-03;  0.0000000E+00;  3.0949759E-10;  9.9999438E+02;  1.0000000E-01; -4.6418438E+00;3; -2.6595314E+01;  0.0000000E+00;  2.0150441E-05;0;  1.5125424E-02;  4.0008000E+04;  0.0000000E+00; -3.3800415E-13;  4.0000000E+04;  0.0000000E+00;  3.9999973E+04;  1.6334113E-02;  0.0000000E+00; -1.2086893E-03;  2.6810841E+01;
  4.1835781E-02;  9.9999998E-03;  1.0002426E-02;2721;  2.8165614E-03;  0.0000000E+00; -1.1284686E-05;  9.9999231E+02;  1.0000000E-01; -6.3701901E+00;3; -2.6645487E+01;  0.0000000E+00;  4.7108334E-02;0;  1.5118874E-02;  4.0008051E+04;  0.0000000E+00; -2.2140484E-04;  4.0000000E+04;  0.0000000E+00;  4.0000000E+04;  1.6334342E-02;  0.0000000E+00; -1.2154679E-03;  1.4617689E+01;
  4.1842517E-02;  9.9999998E-03;  2.0004367E-02;2722;  2.8480741E-03;  0.0000000E+00; -2.4444667E-05;  9.9999359E+02;  1.0000000E-01; -5.3331823E+00;3; -2.6823587E+01;  0.0000000E+00;  8.7634586E-02;0;  1.5100504E-02;  4.0008512E+04;  0.0000000E+00; -8.6243125E-04;  4.0000000E+04;  0.0000000E+00;  3.9999762E+04;  1.6334023E-02;  0.0000000E+00; -1.2335189E-03;  2.0638056E+01;
  4.1853029E-02;  9.9999998E-03;  3.0005410E-02;2723;  2.8985946E-03;  0.0000000E+00; -4.0791041E-05;  9.9999347E+02;  1.0000000E-01; -5.4319453E+00;3; -2.7090153E+01;  0.0000000E+00;  1.1538419E-01;0;  1.5073587E-02;  4.0008953E+04;  0.0000000E+00; -1.8764012E-03;  4.0000000E+04;  0.0000000E+00;  3.9999805E+04;  1.6330076E-02;  0.0000000E+00; -1.2564888E-03;  7.4251747E+01;
  4.1866131E-02;  9.9999998E-03;  4.0005408E-02;2724;  2.9620628E-03;  0.0000000E+00; -5.9376751E-05;  9.9999756E+02;  1.0000000E-01; -2.0246341E+00;3; -2.7437428E+01;  0.0000000E+00;  1.2467381E-01;0;  1.5043279E-02;  4.0009727E+04;  0.0000000E+00; -3.2501931E-03;  4.0000000E+04;  0.0000000E+00;  3.9998930E+04;  1.6318781E-02;  0.0000000E+00; -1.2755025E-03;  1.3817461E+02;
  4.1880324E-02;  9.9999998E-03;  5.0004553E-02;2725;  3.0355561E-03;  0.0000000E+00; -8.0487931E-05;  1.0000074E+03;  1.0000000E-01;  6.1232834E+00;3; -2.7826094E+01;  0.0000000E+00;  1.1040787E-01;0;  1.5012805E-02;  4.0010887E+04;  0.0000000E+00; -5.0636795E-03;  4.0000000E+04;  0.0000000E+00;  3.9998895E+04;  1.6294070E-02;  0.0000000E+00; -1.2812644E-03;  2.0093489E+02;
  4.1893721E-02;  9.9999998E-03;  6.0003176E-02;2726;  3.1131909E-03;  0.0000000E+00; -1.0371130E-04;  1.0000243E+03;  1.0000000E-01;  2.0147579E+01;3; -2.8206491E+01;  0.0000000E+00;  6.8738453E-02;0;  1.4983647E-02;  4.0012605E+04;  0.0000000E+00; -7.5337603E-03;  4.0000000E+04;  0.0000000E+00;  3.9998047E+04;  1.6249990E-02;  0.0000000E+00; -1.2663431E-03;  2.4923564E+02;
  5.1483262E-02;  9.9999998E-03; -1.0001186E-01;2771;  2.9364419E-03;  0.0000000E+00;  1.5668401E-04;  1.0023351E+03;  1.0000000E-01;  1.9345626E+03;3; -3.2645325E+01;  0.0000000E+00;  3.0047053E-01;0;  1.2747176E-02;  4.0201016E+04;  0.0000000E+00; -3.0282333E-02;  4.0000000E+04;  0.0000000E+00;  4.0000246E+04;  1.3583638E-02;  0.0000000E+00; -8.3646143E-04;  2.3048134E+02;
  5.1491190E-02;  9.9999998E-03; -9.0010688E-02;2772;  2.9475787E-03;  0.0000000E+00;  1.5875490E-04;  1.0022891E+03;  1.0000000E-01;  1.8964402E+03;3; -3.2781342E+01;  0.0000000E+00;  1.7348646E-01;0;  1.2748023E-02;  4.0198113E+04;  0.0000000E+00; -1.9440057E-02;  4.0000000E+04;  0.0000000E+00;  3.9999008E+04;  1.3678563E-02;  0.0000000E+00; -9.3053916E-04;  3.3565692E+02;
  5.1492646E-02;  9.9999998E-03; -8.0009006E-02;2773;  2.9182702E-03;  0.0000000E+00;  1.5412008E-04;  1.0022390E+03;  1.0000000E-01;  1.8549598E+03;3; -3.2752403E+01;  0.0000000E+00;  7.2097600E-02;0;  1.2741321E-02;  4.0195102E+04;  0.0000000E+00; -1.2334962E-02;  4.0000000E+04;  0.0000000E+00;  3.9998246E+04;  1.3767592E-02;  0.0000000E+00; -1.0262713E-03;  4.1174277E+02;
  5.1487848E-02;  9.9999998E-03; -7.0007399E-02;2774;  2.8603422E-03;  0.0000000E+00;  1.4206972E-04;  1.0022012E+03;  1.0000000E-01;  1.8236521E+03;3; -3.2601315E+01;  0.0000000E+00; -4.2939307E-03;0;  1.2740812E-02;  4.0192438E+04;  0.0000000E+00; -7.8173932E-03;  4.0000000E+04;  0.0000000E+00;  3.9998441E+04;  1.3849810E-02;  0.0000000E+00; -1.1089974E-03;  4.4152957E+02;
  5.1478181E-02;  9.9999998E-03; -6.0006488E-02;2775;  2.7862710E-03;  0.0000000E+00;  1.2429600E-04;  1.0021733E+03;  1.0000000E-01;  1.8005416E+03;3; -3.2336578E+01;  0.0000000E+00; -5.6609664E-02;0;  1.2754941E-02;  4.0189840E+04;  0.0000000E+00; -5.0126547E-03;  4.0000000E+04;  0.0000000E+00;  3.9998383E+04;  1.3923934E-02;  0.0000000E+00; -1.1689923E-03;  4.2261462E+02;
  5.1465429E-02;  9.9999998E-03; -5.0006248E-02;2776;  2.7062714E-03;  0.0000000E+00;  1.0266546E-04;  1.0021542E+03;  1.0000000E-01;  1.7847396E+03;3; -3.1996798E+01;  0.0000000E+00; -8.6340450E-02;0;  1.2786111E-02;  4.0187871E+04;  0.0000000E+00; -3.2593196E-03;  4.0000000E+04;  0.0000000E+00;  3.9998680E+04;  1.3988835E-02;  0.0000000E+00; -1.2027241E-03;  3.6435724E+02;
  5.1451698E-02;  9.9999998E-03; -4.0006153E-02;2777;  2.6285290E-03;  0.0000000E+00;  7.8729012E-05;  1.0021451E+03;  1.0000000E-01;  1.7771349E+03;3; -3.1640970E+01;  0.0000000E+00; -9.5893778E-02;0;  1.2830878E-02;  4.0186230E+04;  0.0000000E+00; -2.0898122E-03;  4.0000000E+04;  0.0000000E+00;  3.9999344E+04;  1.4043471E-02;  0.0000000E+00; -1.2125936E-03;  2.8344955E+02;
  5.1438883E-02;  9.9999998E-03; -3.0005617E-02;2778;  2.5615250E-03;  0.0000000E+00;  5.6116442E-05;  1.0021436E+03;  1.0000000E-01;  1.7758510E+03;3; -3.1318800E+01;  0.0000000E+00; -8.8113301E-02;0;  1.2881155E-02;  4.0185535E+04;  0.0000000E+00; -1.2301910E-03;  4.0000000E+04;  0.0000000E+00;  4.0000258E+04;  1.4086676E-02;  0.0000000E+00; -1.2055206E-03;  1.9851300E+02;
  5.1428631E-02;  9.9999998E-03; -2.0004360E-02;2779;  2.5105984E-03;  0.0000000E+00;  3.5854882E-05;  1.0021445E+03;  1.0000000E-01;  1.7766411E+03;3; -3.1061342E+01;  0.0000000E+00; -6.6670284E-02;0;  1.2927006E-02;  4.0184895E+04;  0.0000000E+00; -5.7938369E-04;  4.0000000E+04;  0.0000000E+00;  4.0000348E+04;  1.4117780E-02;  0.0000000E+00; -1.1907738E-03;  1.2609879E+02;
  5.1422041E-02;  9.9999998E-03; -1.0002397E-02;2780;  2.4782738E-03;  0.0000000E+00;  1.7423181E-05;  1.0021441E+03;  1.0000000E-01;  1.7763448E+03;3; -3.0890415E+01;  0.0000000E+00; -3.5708200E-02;0;  1.2959141E-02;  4.0184543E+04;  0.0000000E+00; -1.5145160E-04;  4.0000000E+04;  0.0000000E+00;  4.0000363E+04;  1.4136614E-02;  0.0000000E+00; -1.1774732E-03;  7.8110069E+01;
  5.1419776E-02;  9.9999998E-03; -2.9229041E-10;2781;  2.4670390E-03;  0.0000000E+00; -6.8335987E-10;  1.0021459E+03;  1.0000000E-01;  1.7778263E+03;3; -3.0837437E+01;  0.0000000E+00;  2.8219078E-05;0;  1.2970711E-02;  4.0184480E+04;  0.0000000E+00; -1.9699518E-13;  4.0000000E+04;  0.0000000E+00;  4.0000789E+04;  1.4142944E-02;  0.0000000E+00; -1.1722324E-03;  6.1377499E+01;
  5.1422041E-02;  9.9999998E-03;  1.0002396E-02;2782;  2.4782764E-03;  0.0000000E+00; -1.7424287E-05;  1.0021441E+03;  1.0000000E-01;  1.7763448E+03;3; -3.0890392E+01;  0.0000000E+00;  3.5763726E-02;0;  1.2959157E-02;  4.0184543E+04;  0.0000000E+00; -1.5135179E-04;  4.0000000E+04;  0.0000000E+00;  4.0000363E+04;  1.4136624E-02;  0.0000000E+00; -1.1774661E-03;  7.8112564E+01;
  5.1428631E-02;  9.9999998E-03;  2.0004358E-02;2783;  2.5106007E-03;  0.0000000E+00; -3.5856421E-05;  1.0021445E+03;  1.0000000E-01;  1.7766411E+03;3; -3.1061327E+01;  0.0000000E+00;  6.6721365E-02;0;  1.2927047E-02;  4.0184895E+04;  0.0000000E+00; -5.7932164E-04;  4.0000000E+04;  0.0000000E+00;  4.0000348E+04;  1.4117807E-02;  0.0000000E+00; -1.1907605E-03;  1.2609536E+02;
  5.1438883E-02;  9.9999998E-03;  3.0005617E-02;2784;  2.5615345E-03;  0.0000000E+00; -5.6116998E-05;  1.0021435E+03;  1.0000000E-01;  1.7758510E+03;3; -3.1318769E+01;  0.0000000E+00;  8.8144861E-02;0;  1.2881214E-02;  4.0185539E+04;  0.0000000E+00; -1.2299551E-03;  4.0000000E+04;  0.0000000E+00;  4.0000258E+04;  1.4086717E-02;  0.0000000E+00; -1.2055035E-03;  1.9851524E+02;
  5.1451698E-02;  9.9999998E-03;  4.0006153E-02;2785;  2.6285383E-03;  0.0000000E+00; -7.8729870E-05;  1.0021451E+03;  1.0000000E-01;  1.7772336E+03;3; -3.1640913E+01;  0.0000000E+00;  9.5909484E-02;0;  1.2830935E-02;  4.0186234E+04;  0.0000000E+00; -2.0893719E-03;  4.0000000E+04;  0.0000000E+00;  3.9999348E+04;  1.4043511E-02;  0.0000000E+00; -1.2125755E-03;  2.8344104E+02;
  5.1465429E-02;  9.9999998E-03;  5.0006248E-02;2786;  2.7062825E-03;  0.0000000E+00; -1.0266597E-04;  1.0021542E+03;  1.0000000E-01;  1.7847396E+03;3; -3.1996820E+01;  0.0000000E+00;  8.6320058E-02;0;  1.2786188E-02;  4.0187871E+04;  0.0000000E+00; -3.2588288E-03;  4.0000000E+04;  0.0000000E+00;  3.9998680E+04;  1.3988893E-02;  0.0000000E+00; -1.2027044E-03;  3.6436063E+02;
  5.1478185E-02;  9.9999998E-03;  6.0006488E-02;2787;  2.7862906E-03;  0.0000000E+00; -1.2429494E-04;  1.0021733E+03;  1.0000000E-01;  1.8005416E+03;3; -3.2336571E+01;  0.0000000E+00;  5.6581412E-02;0;  1.2755024E-02;  4.0189844E+04;  0.0000000E+00; -5.0120982E-03;  4.0000000E+04;  0.0000000E+00;  3.9998383E+04;  1.3924002E-02;  0.0000000E+00; -1.1689771E-03;  4.2261264E+02;
  6.1172888E-02;  9.9999998E-03; -1.0003144E-01;2832;  2.8347417E-03;  0.0000000E+00;  1.3642712E-04;  1.0034717E+03;  1.0000000E-01;  2.8762644E+03;3; -2.9097950E+01;  0.0000000E+00;  2.0736372E-01;0;  1.1311312E-02;  4.0295766E+04;  0.0000000E+00; -2.0914150E-02;  4.0000000E+04;  0.0000000E+00;  4.0001641E+04;  1.1961428E-02;  0.0000000E+00; -6.5011508E-04;  1.6618819E+02;
  6.1180912E-02;  9.9999998E-03; -9.0024635E-02;2833;  2.8530001E-03;  0.0000000E+00;  1.5808968E-04;  1.0034204E+03;  1.0000000E-01;  2.8336978E+03;3; -2.9258780E+01;  0.0000000E+00;  1.1736631E-01;0;  1.1235432E-02;  4.0293176E+04;  0.0000000E+00; -1.1340152E-02;  4.0000000E+04;  0.0000000E+00;  4.0000117E+04;  1.1990810E-02;  0.0000000E+00; -7.5537793E-04;  3.1325513E+02;
  6.1182521E-02;  9.9999998E-03; -8.0018230E-02;2834;  2.8309065E-03;  0.0000000E+00;  1.6286131E-04;  1.0033776E+03;  1.0000000E-01;  2.7982419E+03;3; -2.9302818E+01;  0.0000000E+00;  4.5889810E-02;0;  1.1173385E-02;  4.0290102E+04;  0.0000000E+00; -5.4358603E-03;  4.0000000E+04;  0.0000000E+00;  3.9999859E+04;  1.2040559E-02;  0.0000000E+00; -8.6717424E-04;  4.1845621E+02;
  6.1178174E-02;  9.9999998E-03; -7.0012771E-02;2835;  2.7796596E-03;  0.0000000E+00;  1.5451477E-04;  1.0033421E+03;  1.0000000E-01;  2.7689094E+03;3; -2.9211430E+01;  0.0000000E+00; -7.6545244E-03;0;  1.1140497E-02;  4.0287434E+04;  0.0000000E+00; -2.2593660E-03;  4.0000000E+04;  0.0000000E+00;  3.9998988E+04;  1.2108471E-02;  0.0000000E+00; -9.6797373E-04;  4.6112112E+02;
  6.1168987E-02;  9.9999998E-03; -6.0008917E-02;2836;  2.7108155E-03;  0.0000000E+00;  1.3730851E-04;  1.0033201E+03;  1.0000000E-01;  2.7506382E+03;3; -2.9015047E+01;  0.0000000E+00; -4.4061285E-02;0;  1.1144048E-02;  4.0285102E+04;  0.0000000E+00; -8.4012921E-04;  4.0000000E+04;  0.0000000E+00;  3.9998828E+04;  1.2189750E-02;  0.0000000E+00; -1.0457018E-03;  4.3943503E+02;
  6.1156619E-02;  9.9999998E-03; -5.0006803E-02;2837;  2.6345884E-03;  0.0000000E+00;  1.1479194E-04;  1.0033076E+03;  1.0000000E-01;  2.7402681E+03;3; -2.8742659E+01;  0.0000000E+00; -6.4359389E-02;0;  1.1182393E-02;  4.0283648E+04;  0.0000000E+00; -3.5926243E-04;  4.0000000E+04;  0.0000000E+00;  3.9999414E+04;  1.2277575E-02;  0.0000000E+00; -1.0951824E-03;  3.6648859E+02;
  6.1142933E-02;  9.9999998E-03; -4.0005788E-02;2838;  2.5594814E-03;  0.0000000E+00;  8.8824345E-05;  1.0033011E+03;  1.0000000E-01;  2.7349351E+03;3; -2.8437325E+01;  0.0000000E+00; -7.0114478E-02;0;  1.1246225E-02;  4.0282484E+04;  0.0000000E+00; -2.5066471E-04;  4.0000000E+04;  0.0000000E+00;  4.0000289E+04;  1.2364093E-02;  0.0000000E+00; -1.1178688E-03;  2.6412756E+02;
  6.1129887E-02;  9.9999998E-03; -3.0005144E-02;2839;  2.4935650E-03;  0.0000000E+00;  6.3323343E-05;  1.0032979E+03;  1.0000000E-01;  2.7322683E+03;3; -2.8144783E+01;  0.0000000E+00; -6.3984111E-02;0;  1.1320950E-02;  4.0281719E+04;  0.0000000E+00; -2.0687313E-04;  4.0000000E+04;  0.0000000E+00;  4.0000859E+04;  1.2441280E-02;  0.0000000E+00; -1.1203302E-03;  1.5655220E+02;
  6.1119240E-02;  9.9999998E-03; -2.0004153E-02;2840;  2.4424081E-03;  0.0000000E+00;  4.0323343E-05;  1.0033011E+03;  1.0000000E-01;  2.7349351E+03;3; -2.7918982E+01;  0.0000000E+00; -4.8143655E-02;0;  1.1390116E-02;  4.0281168E+04;  0.0000000E+00; -1.2788242E-04;  4.0000000E+04;  0.0000000E+00;  4.0001402E+04;  1.2502057E-02;  0.0000000E+00; -1.1119411E-03;  6.4888947E+01;
  6.1112300E-02;  9.9999998E-03; -1.0002402E-02;2841;  2.4100684E-03;  0.0000000E+00;  1.9478770E-05;  1.0033063E+03;  1.0000000E-01;  2.7392805E+03;3; -2.7780256E+01;  0.0000000E+00; -2.5744813E-02;0;  1.1438677E-02;  4.0280887E+04;  0.0000000E+00; -3.8986513E-05;  4.0000000E+04;  0.0000000E+00;  4.0002148E+04;  1.2540868E-02;  0.0000000E+00; -1.1021912E-03;  4.2872586E+00;
  6.1109893E-02;  9.9999998E-03; -3.3932213E-10;2842;  2.3990255E-03;  0.0000000E+00; -1.1988097E-09;  1.0033072E+03;  1.0000000E-01;  2.7399719E+03;3; -2.7729725E+01;  0.0000000E+00;  3.6047750E-05;0;  1.1456106E-02;  4.0280652E+04;  0.0000000E+00; -1.8937395E-13;  4.0000000E+04;  0.0000000E+00;  4.0002203E+04;  1.2554186E-02;  0.0000000E+00; -1.0980808E-03;  1.6815233E+01;
  6.1112300E-02;  9.9999998E-03;  1.0002401E-02;2843;  2.4100707E-03;  0.0000000E+00; -1.9481557E-05;  1.0033063E+03;  1.0000000E-01;  2.7392805E+03;3; -2.7780251E+01;  0.0000000E+00;  2.5808256E-02;0;  1.1438686E-02;  4.0280891E+04;  0.0000000E+00; -3.8959311E-05;  4.0000000E+04;  0.0000000E+00;  4.0002148E+04;  1.2540871E-02;  0.0000000E+00; -1.1021849E-03;  4.2889833E+00;
  6.1119240E-02;  9.9999998E-03;  2.0004151E-02;2844;  2.4424139E-03;  0.0000000E+00; -4.0325420E-05;  1.0033011E+03;  1.0000000E-01;  2.7349351E+03;3; -2.7918976E+01;  0.0000000E+00;  4.8201576E-02;0;  1.1390155E-02;  4.0281168E+04;  0.0000000E+00; -1.2768790E-04;  4.0000000E+04;  0.0000000E+00;  4.0001402E+04;  1.2502084E-02;  0.0000000E+00; -1.1119279E-03;  6.4880638E+01;
  6.1129887E-02;  9.9999998E-03;  3.0005142E-02;2845;  2.4935731E-03;  0.0000000E+00; -6.3325962E-05;  1.0032979E+03;  1.0000000E-01;  2.7322683E+03;3; -2.8144743E+01;  0.0000000E+00;  6.4004920E-02;0;  1.1321009E-02;  4.0281719E+04;  0.0000000E+00; -2.0659329E-04;  4.0000000E+04;  0.0000000E+00;  4.0000859E+04;  1.2441320E-02;  0.0000000E+00; -1.1203114E-03;  1.5654900E+02;
  6.1142933E-02;  9.9999998E-03;  4.0005788E-02;2846;  2.5594905E-03;  0.0000000E+00; -8.8827066E-05;  1.0033011E+03;  1.0000000E-01;  2.7349351E+03;3; -2.8436981E+01;  0.0000000E+00;  7.0135973E-02;0;  1.1246287E-02;  4.0282484E+04;  0.0000000E+00; -2.5048020E-04;  4.0000000E+04;  0.0000000E+00;  4.0000289E+04;  1.2364135E-02;  0.0000000E+00; -1.1178477E-03;  2.6412756E+02;
  6.1156619E-02;  9.9999998E-03;  5.0006803E-02;2847;  2.6345956E-03;  0.0000000E+00; -1.1479279E-04;  1.0033076E+03;  1.0000000E-01;  2.7402681E+03;3; -2.8742668E+01;  0.0000000E+00;  6.4333580E-02;0;  1.1182472E-02;  4.0283656E+04;  0.0000000E+00; -3.5875384E-04;  4.0000000E+04;  0.0000000E+00;  3.9999414E+04;  1.2277631E-02;  0.0000000E+00; -1.0951592E-03;  3.6648816E+02;
  6.1168987E-02;  9.9999998E-03;  6.0008917E-02;2848;  2.7108307E-03;  0.0000000E+00; -1.3730761E-04;  1.0033201E+03;  1.0000000E-01;  2.7506382E+03;3; -2.9015028E+01;  0.0000000E+00;  4.4041097E-02;0;  1.1144133E-02;  4.0285105E+04;  0.0000000E+00; -8.3908974E-04;  4.0000000E+04;  0.0000000E+00;  3.9998828E+04;  1.2189816E-02;  0.0000000E+00; -1.0456828E-03;  4.3942361E+02;
  7.0984535E-02;  9.9999998E-03; -1.0005084E-01;2893;  2.9742939E-03;  0.0000000E+00;  1.2865519E-04;  1.0036693E+03;  1.0000000E-01;  3.0399141E+03;3; -2.2036102E+01;  0.0000000E+00;  1.3644233E-01;0;  1.0361452E-02;  4.0313016E+04;  0.0000000E+00; -9.1648130E-03;  4.0000000E+04;  0.0000000E+00;  4.0003641E+04;  1.0827709E-02;  0.0000000E+00; -4.6625780E-04;  4.2519703E+01;
  7.0991151E-02;  9.9999998E-03; -9.0038583E-02;2894;  2.9946817E-03;  0.0000000E+00;  1.5953406E-04;  1.0036223E+03;  1.0000000E-01;  3.0010015E+03;3; -2.2202887E+01;  0.0000000E+00;  7.5284868E-02;0;  1.0215195E-02;  4.0310465E+04;  0.0000000E+00; -1.6628914E-03;  4.0000000E+04;  0.0000000E+00;  4.0002004E+04;  1.0794029E-02;  0.0000000E+00; -5.7883415E-04;  1.4403481E+02;
  7.0991963E-02;  9.9999998E-03; -8.0027811E-02;2895;  2.9738676E-03;  0.0000000E+00;  1.6233195E-04;  1.0035825E+03;  1.0000000E-01;  2.9680149E+03;3; -2.2264845E+01;  0.0000000E+00;  2.7297065E-02;0;  1.0105572E-02;  4.0308020E+04;  0.0000000E+00;  2.3197879E-03;  4.0000000E+04;  0.0000000E+00;  4.0000988E+04;  1.0807363E-02;  0.0000000E+00; -7.0179132E-04;  2.7226855E+02;
  7.0987217E-02;  9.9999998E-03; -7.0019096E-02;2896;  2.9240735E-03;  0.0000000E+00;  1.4733868E-04;  1.0035557E+03;  1.0000000E-01;  2.9457932E+03;3; -2.2219379E+01;  0.0000000E+00; -7.5292373E-03;0;  1.0048795E-02;  4.0306375E+04;  0.0000000E+00;  3.6353059E-03;  4.0000000E+04;  0.0000000E+00;  4.0000410E+04;  1.0864121E-02;  0.0000000E+00; -8.1532582E-04;  3.2216895E+02;
  7.0978016E-02;  9.9999998E-03; -6.0012825E-02;2897;  2.8590502E-03;  0.0000000E+00;  1.2604320E-04;  1.0035435E+03;  1.0000000E-01;  2.9357195E+03;3; -2.2082512E+01;  0.0000000E+00; -3.0647688E-02;0;  1.0050132E-02;  4.0304965E+04;  0.0000000E+00;  3.3640410E-03;  4.0000000E+04;  0.0000000E+00;  4.0000598E+04;  1.0955618E-02;  0.0000000E+00; -9.0548617E-04;  2.9328250E+02;
  7.0965819E-02;  9.9999998E-03; -5.0008971E-02;2898;  2.7867351E-03;  0.0000000E+00;  1.0308715E-04;  1.0035394E+03;  1.0000000E-01;  2.9323616E+03;3; -2.1875893E+01;  0.0000000E+00; -4.3954931E-02;0;  1.0103352E-02;  4.0303895E+04;  0.0000000E+00;  2.4435469E-03;  4.0000000E+04;  0.0000000E+00;  4.0001062E+04;  1.1069138E-02;  0.0000000E+00; -9.6578477E-04;  2.0268958E+02;
  7.0952304E-02;  9.9999998E-03; -4.0007133E-02;2899;  2.7146752E-03;  0.0000000E+00;  7.9606369E-05;  1.0035451E+03;  1.0000000E-01;  2.9370034E+03;3; -2.1647308E+01;  0.0000000E+00; -4.7657941E-02;0;  1.0192952E-02;  4.0303105E+04;  0.0000000E+00;  1.4792943E-03;  4.0000000E+04;  0.0000000E+00;  4.0001363E+04;  1.1189910E-02;  0.0000000E+00; -9.9695788E-04;  7.7746643E+01;
  7.0939280E-02;  9.9999998E-03; -3.0006161E-02;2900;  2.6502572E-03;  0.0000000E+00;  5.6561661E-05;  1.0035488E+03;  1.0000000E-01;  2.9401638E+03;3; -2.1419701E+01;  0.0000000E+00; -4.2892199E-02;0;  1.0297527E-02;  4.0302566E+04;  0.0000000E+00;  7.4523682E-04;  4.0000000E+04;  0.0000000E+00;  4.0002801E+04;  1.1302906E-02;  0.0000000E+00; -1.0053797E-03;  5.2118122E+01;
  7.0928551E-02;  9.9999998E-03; -2.0004906E-02;2901;  2.5992470E-03;  0.0000000E+00;  3.5066838E-05;  1.0035580E+03;  1.0000000E-01;  2.9477686E+03;3; -2.1244738E+01;  0.0000000E+00; -3.2044142E-02;0;  1.0393890E-02;  4.0302211E+04;  0.0000000E+00;  2.9198069E-04;  4.0000000E+04;  0.0000000E+00;  4.0003730E+04;  1.1394529E-02;  0.0000000E+00; -1.0006391E-03;  1.6161736E+02;
  7.0921481E-02;  9.9999998E-03; -1.0002811E-02;2902;  2.5664165E-03;  0.0000000E+00;  1.6574009E-05;  1.0035641E+03;  1.0000000E-01;  2.9528054E+03;3; -2.1131424E+01;  0.0000000E+00; -1.7095570E-02;0;  1.0461342E-02;  4.0302121E+04;  0.0000000E+00;  6.5951579E-05;  4.0000000E+04;  0.0000000E+00;  4.0004457E+04;  1.1454058E-02;  0.0000000E+00; -9.9271606E-04;  2.3341095E+02;
  7.0918985E-02;  9.9999998E-03; -3.2307246E-10;2903;  2.5549014E-03;  0.0000000E+00; -1.8102430E-09;  1.0035662E+03;  1.0000000E-01;  2.9545830E+03;3; -2.1092667E+01;  0.0000000E+00;  2.8184455E-05;0;  1.0485548E-02;  4.0301977E+04;  0.0000000E+00; -4.2156136E-13;  4.0000000E+04;  0.0000000E+00;  4.0004688E+04;  1.1474684E-02;  0.0000000E+00; -9.8913629E-04;  2.5826816E+02;
  7.0921481E-02;  9.9999998E-03;  1.0002811E-02;2904;  2.5664202E-03;  0.0000000E+00; -1.6577278E-05;  1.0035641E+03;  1.0000000E-01;  2.9528054E+03;3; -2.1131432E+01;  0.0000000E+00;  1.7151102E-02;0;  1.0461355E-02;  4.0302125E+04;  0.0000000E+00;  6.6040928E-05;  4.0000000E+04;  0.0000000E+00;  4.0004457E+04;  1.1454063E-02;  0.0000000E+00; -9.9270791E-04;  2.3341304E+02;
  7.0928551E-02;  9.9999998E-03;  2.0004906E-02;2905;  2.5992545E-03;  0.0000000E+00; -3.5070221E-05;  1.0035580E+03;  1.0000000E-01;  2.9477686E+03;3; -2.1244696E+01;  0.0000000E+00;  3.2121774E-02;0;  1.0393912E-02;  4.0302215E+04;  0.0000000E+00;  2.9209061E-04;  4.0000000E+04;  0.0000000E+00;  4.0003734E+04;  1.1394536E-02;  0.0000000E+00; -1.0006243E-03;  1.6162543E+02;
  7.0939280E-02;  9.9999998E-03;  3.0006161E-02;2906;  2.6502653E-03;  0.0000000E+00; -5.6565645E-05;  1.0035489E+03;  1.0000000E-01;  2.9401638E+03;3; -2.1419926E+01;  0.0000000E+00;  4.2928424E-02;0;  1.0297576E-02;  4.0302566E+04;  0.0000000E+00;  7.4548641E-04;  4.0000000E+04;  0.0000000E+00;  4.0002801E+04;  1.1302937E-02;  0.0000000E+00; -1.0053605E-03;  5.2119377E+01;
  7.0952304E-02;  9.9999998E-03;  4.0007133E-02;2907;  2.7146833E-03;  0.0000000E+00; -7.9608268E-05;  1.0035450E+03;  1.0000000E-01;  2.9370034E+03;3; -2.1647280E+01;  0.0000000E+00;  4.7692891E-02;0;  1.0193008E-02;  4.0303105E+04;  0.0000000E+00;  1.4798526E-03;  4.0000000E+04;  0.0000000E+00;  4.0001363E+04;  1.1189945E-02;  0.0000000E+00; -9.9693739E-04;  7.7737778E+01;
  7.0965819E-02;  9.9999998E-03;  5.0008971E-02;2908;  2.7867490E-03;  0.0000000E+00; -1.0308821E-04;  1.0035394E+03;  1.0000000E-01;  2.9323616E+03;3; -2.1875896E+01;  0.0000000E+00;  4.3954667E-02;0;  1.0103415E-02;  4.0303898E+04;  0.0000000E+00;  2.4433832E-03;  4.0000000E+04;  0.0000000E+00;  4.0001062E+04;  1.1069180E-02;  0.0000000E+00; -9.6576440E-04;  2.0269334E+02;
  7.0978016E-02;  9.9999998E-03;  6.0012825E-02;2909;  2.8590620E-03;  0.0000000E+00; -1.2604470E-04;  1.0035436E+03;  1.0000000E-01;  2.9358181E+03;3; -2.2082514E+01;  0.0000000E+00;  3.0604916E-02;0;  1.0050200E-02;  4.0304965E+04;  0.0000000E+00;  3.3637621E-03;  4.0000000E+04;  0.0000000E+00;  4.0000594E+04;  1.0955665E-02;  0.0000000E+00; -9.0546551E-04;  2.9327481E+02;
  8.0929041E-02;  9.9999998E-03; -1.0006314E-01;2954;  3.4122050E-03;  0.0000000E+00;  1.3246443E-04;  1.0031453E+03;  1.0000000E-01;  2.6058523E+03;3; -1.4607164E+01;  0.0000000E+00;  8.0434099E-02;0;  9.6632317E-03;  4.0269500E+04;  0.0000000E+00;  9.3189673E-04;  4.0000000E+04;  0.0000000E+00;  4.0005738E+04;  9.9625383E-03;  0.0000000E+00; -2.9930688E-04;  3.7259836E+02;
  8.0934934E-02;  9.9999998E-03; -9.0046510E-02;2955;  3.4300708E-03;  0.0000000E+00;  1.5399532E-04;  1.0031017E+03;  1.0000000E-01;  2.5697051E+03;3; -1.4745666E+01;  0.0000000E+00;  4.2337317E-02;0;  9.4569242E-03;  4.0267590E+04;  0.0000000E+00;  5.7044551E-03;  4.0000000E+04;  0.0000000E+00;  4.0004121E+04;  9.8701064E-03;  0.0000000E+00; -4.1318216E-04;  1.6008580E+02;
  8.0934562E-02;  9.9999998E-03; -8.0033645E-02;2956;  3.4015160E-03;  0.0000000E+00;  1.4174233E-04;  1.0030768E+03;  1.0000000E-01;  2.5490637E+03;3; -1.4817800E+01;  0.0000000E+00;  1.2926208E-02;0;  9.3100751E-03;  4.0266445E+04;  0.0000000E+00;  7.4681053E-03;  4.0000000E+04;  0.0000000E+00;  4.0003035E+04;  9.8502915E-03;  0.0000000E+00; -5.4021645E-04;  1.7922613E+01;
  8.0928855E-02;  9.9999998E-03; -7.0023954E-02;2957;  3.3399959E-03;  0.0000000E+00;  1.1037177E-04;  1.0030692E+03;  1.0000000E-01;  2.5427429E+03;3; -1.4810888E+01;  0.0000000E+00; -7.9563353E-03;0;  9.2385700E-03;  4.0265773E+04;  0.0000000E+00;  7.0251557E-03;  4.0000000E+04;  0.0000000E+00;  4.0001918E+04;  9.8979305E-03;  0.0000000E+00; -6.5936078E-04;  4.0356796E+01;
  8.0918849E-02;  9.9999998E-03; -6.0017396E-02;2958;  3.2639047E-03;  0.0000000E+00;  7.3565541E-05;  1.0030708E+03;  1.0000000E-01;  2.5441255E+03;3; -1.4723707E+01;  0.0000000E+00; -2.0720385E-02;0;  9.2453482E-03;  4.0265453E+04;  0.0000000E+00;  5.4595270E-03;  4.0000000E+04;  0.0000000E+00;  4.0002277E+04;  1.0000758E-02;  0.0000000E+00; -7.5540948E-04;  7.8281660E+00;
  8.0906220E-02;  9.9999998E-03; -5.0014213E-02;2959;  3.1829369E-03;  0.0000000E+00;  4.0630610E-05;  1.0030825E+03;  1.0000000E-01;  2.5538042E+03;3; -1.4586046E+01;  0.0000000E+00; -2.6561044E-02;0;  9.3195243E-03;  4.0265266E+04;  0.0000000E+00;  3.6705064E-03;  4.0000000E+04;  0.0000000E+00;  4.0003066E+04;  1.0140367E-02;  0.0000000E+00; -8.2084275E-04;  1.0766713E+02;
  8.0892652E-02;  9.9999998E-03; -4.0012892E-02;2960;  3.1033121E-03;  0.0000000E+00;  1.6949500E-05;  1.0030980E+03;  1.0000000E-01;  2.5666436E+03;3; -1.4423385E+01;  0.0000000E+00; -2.7394909E-02;0;  9.4393967E-03;  4.0265477E+04;  0.0000000E+00;  2.1698179E-03;  4.0000000E+04;  0.0000000E+00;  4.0004512E+04;  1.0295210E-02;  0.0000000E+00; -8.5581385E-04;  2.5387019E+02;
  8.0879644E-02;  9.9999998E-03; -3.0011958E-02;2961;  3.0325933E-03;  0.0000000E+00;  5.3545177E-06;  1.0031132E+03;  1.0000000E-01;  2.5792852E+03;3; -1.4266035E+01;  0.0000000E+00; -2.4522537E-02;0;  9.5769726E-03;  4.0265305E+04;  0.0000000E+00;  1.1118591E-03;  4.0000000E+04;  0.0000000E+00;  4.0005242E+04;  1.0443501E-02;  0.0000000E+00; -8.6652895E-04;  4.0367429E+02;
  8.0868676E-02;  9.9999998E-03; -2.0010026E-02;2962;  2.9750161E-03;  0.0000000E+00; -1.2161614E-07;  1.0031228E+03;  1.0000000E-01;  2.5871860E+03;3; -1.4134891E+01;  0.0000000E+00; -1.7758841E-02;0;  9.7025707E-03;  4.0265199E+04;  0.0000000E+00;  4.5555367E-04;  4.0000000E+04;  0.0000000E+00;  4.0006461E+04;  1.0565333E-02;  0.0000000E+00; -8.6276192E-04;  5.2845618E+02;
  8.0861337E-02;  9.9999998E-03; -1.0006029E-02;2963;  2.9373779E-03;  0.0000000E+00; -1.1077544E-06;  1.0031304E+03;  1.0000000E-01;  2.5934082E+03;3; -1.4052611E+01;  0.0000000E+00; -9.4003007E-03;0;  9.7901104E-03;  4.0265121E+04;  0.0000000E+00;  1.0789438E-04;  4.0000000E+04;  0.0000000E+00;  4.0007000E+04;  1.0645106E-02;  0.0000000E+00; -8.5499609E-04;  6.0931842E+02;
  8.0858722E-02;  9.9999998E-03; -1.5246658E-10;2964;  2.9240721E-03;  0.0000000E+00; -3.1624821E-09;  1.0031342E+03;  1.0000000E-01;  2.5966672E+03;3; -1.4025900E+01;  0.0000000E+00;  2.3169494E-05;0;  9.8214680E-03;  4.0265031E+04;  0.0000000E+00;  3.6635015E-13;  4.0000000E+04;  0.0000000E+00;  4.0007547E+04;  1.0672837E-02;  0.0000000E+00; -8.5136975E-04;  6.3705194E+02;
  8.0861345E-02;  9.9999998E-03;  1.0006029E-02;2965;  2.9373807E-03;  0.0000000E+00;  1.1020538E-06;  1.0031304E+03;  1.0000000E-01;  2.5934082E+03;3; -1.4052588E+01;  0.0000000E+00;  9.4391974E-03;0;  9.7901206E-03;  4.0265121E+04;  0.0000000E+00;  1.0805604E-04;  4.0000000E+04;  0.0000000E+00;  4.0007000E+04;  1.0645109E-02;  0.0000000E+00; -8.5498835E-04;  6.0932275E+02;
  8.0868676E-02;  9.9999998E-03;  2.0010026E-02;2966;  2.9750220E-03;  0.0000000E+00;  1.1731543E-07;  1.0031228E+03;  1.0000000E-01;  2.5871860E+03;3; -1.4134897E+01;  0.0000000E+00;  1.7816870E-02;0;  9.7025968E-03;  4.0265199E+04;  0.0000000E+00;  4.5581112E-04;  4.0000000E+04;  0.0000000E+00;  4.0006461E+04;  1.0565344E-02;  0.0000000E+00; -8.6274778E-04;  5.2846002E+02;
  8.0879644E-02;  9.9999998E-03;  3.0011958E-02;2967;  3.0325986E-03;  0.0000000E+00; -5.3580047E-06;  1.0031132E+03;  1.0000000E-01;  2.5792852E+03;3; -1.4266034E+01;  0.0000000E+00;  2.4548791E-02;0;  9.5770173E-03;  4.0265305E+04;  0.0000000E+00;  1.1121891E-03;  4.0000000E+04;  0.0000000E+00;  4.0005242E+04;  1.0443525E-02;  0.0000000E+00; -8.6650829E-04;  4.0367490E+02;
  8.0892652E-02;  9.9999998E-03;  4.0012892E-02;2968;  3.1033207E-03;  0.0000000E+00; -1.6949731E-05;  1.0030981E+03;  1.0000000E-01;  2.5667422E+03;3; -1.4423548E+01;  0.0000000E+00;  2.7411964E-02;0;  9.4394516E-03;  4.0265480E+04;  0.0000000E+00;  2.1700186E-03;  4.0000000E+04;  0.0000000E+00;  4.0004512E+04;  1.0295242E-02;  0.0000000E+00; -8.5579068E-04;  2.5387259E+02;
  8.0906220E-02;  9.9999998E-03;  5.0014213E-02;2969;  3.1829476E-03;  0.0000000E+00; -4.0629442E-05;  1.0030824E+03;  1.0000000E-01;  2.5537056E+03;3; -1.4585895E+01;  0.0000000E+00;  2.6570491E-02;0;  9.3195802E-03;  4.0265258E+04;  0.0000000E+00;  3.6715805E-03;  4.0000000E+04;  0.0000000E+00;  4.0003066E+04;  1.0140400E-02;  0.0000000E+00; -8.2082010E-04;  1.0767811E+02;
  8.0918849E-02;  9.9999998E-03;  6.0017399E-02;2970;  3.2639182E-03;  0.0000000E+00; -7.3562318E-05;  1.0030707E+03;  1.0000000E-01;  2.5440269E+03;3; -1.4723578E+01;  0.0000000E+00;  2.0698749E-02;0;  9.2454189E-03;  4.0265457E+04;  0.0000000E+00;  5.4606209E-03;  4.0000000E+04;  0.0000000E+00;  4.0002277E+04;  1.0000808E-02;  0.0000000E+00; -7.5538910E-04;  7.8297205E+00;
  9.1045089E-02;  9.9999998E-03; -1.0006153E-01;3015;  4.1509443E-03;  0.0000000E+00;  1.2138972E-04;  1.0021932E+03;  1.0000000E-01;  1.8170350E+03;3; -8.5779257E+00;  0.0000000E+00;  3.1441882E-02;0;  8.9396546E-03;  4.0188957E+04;  0.0000000E+00;  4.6735671E-03;  4.0000000E+04;  0.0000000E+00;  4.0008121E+04;  9.0957433E-03;  0.0000000E+00; -1.5608866E-04;  8.0107635E+02;
  9.1056652E-02;  9.9999998E-03; -9.0043172E-02;3016;  4.1623302E-03;  0.0000000E+00;  1.2166127E-04;  1.0021722E+03;  1.0000000E-01;  1.7996528E+03;3; -8.6822710E+00;  0.0000000E+00;  1.3904363E-02;0;  8.6872652E-03;  4.0188848E+04;  0.0000000E+00;  6.5755933E-03;  4.0000000E+04;  0.0000000E+00;  4.0006098E+04;  8.9511070E-03;  0.0000000E+00; -2.6384168E-04;  5.6629486E+02;
  9.1058113E-02;  9.9999998E-03; -8.0030657E-02;3017;  4.1476670E-03;  0.0000000E+00;  9.5625561E-05;  1.0021654E+03;  1.0000000E-01;  1.7940233E+03;3; -8.7432585E+00;  0.0000000E+00; -2.3921549E-03;0;  8.5182069E-03;  4.0189348E+04;  0.0000000E+00;  6.5870262E-03;  4.0000000E+04;  0.0000000E+00;  4.0004867E+04;  8.9049777E-03;  0.0000000E+00; -3.8677105E-04;  4.0648129E+02;
  9.1051310E-02;  9.9999998E-03; -7.0022866E-02;3018;  4.1127536E-03;  0.0000000E+00;  5.0741124E-05;  1.0021740E+03;  1.0000000E-01;  1.8011343E+03;3; -8.7467375E+00;  0.0000000E+00; -1.4756339E-02;0;  8.4456587E-03;  4.0190461E+04;  0.0000000E+00;  5.3360849E-03;  4.0000000E+04;  0.0000000E+00;  4.0004523E+04;  8.9494465E-03;  0.0000000E+00; -5.0378742E-04;  3.4998148E+02;
  9.1038495E-02;  9.9999998E-03; -6.0019467E-02;3019;  4.0606391E-03;  0.0000000E+00; -1.0865358E-05;  1.0021940E+03;  1.0000000E-01;  1.8177263E+03;3; -8.7017336E+00;  0.0000000E+00; -2.6467638E-02;0;  8.4678801E-03;  4.0191504E+04;  0.0000000E+00;  3.6663946E-03;  4.0000000E+04;  0.0000000E+00;  4.0005125E+04;  9.0669831E-03;  0.0000000E+00; -5.9910322E-04;  3.9589636E+02;
  9.1022804E-02;  9.9999998E-03; -5.0020132E-02;3020;  3.9983708E-03;  0.0000000E+00; -6.6977380E-05;  1.0022223E+03;  1.0000000E-01;  1.8411331E+03;3; -8.6213665E+00;  0.0000000E+00; -2.8897570E-02;0;  8.5691493E-03;  4.0192473E+04;  0.0000000E+00;  2.1932034E-03;  4.0000000E+04;  0.0000000E+00;  4.0005832E+04;  9.2336033E-03;  0.0000000E+00; -6.6445407E-04;  5.1956274E+02;
  9.1006324E-02;  9.9999998E-03; -4.0022887E-02;3021;  3.9367015E-03;  0.0000000E+00; -1.0508546E-04;  1.0022521E+03;  1.0000000E-01;  1.8658237E+03;3; -8.5254831E+00;  0.0000000E+00; -2.9061269E-02;0;  8.7228222E-03;  4.0193117E+04;  0.0000000E+00;  1.1665710E-03;  4.0000000E+04;  0.0000000E+00;  4.0007141E+04;  9.4222315E-03;  0.0000000E+00; -6.9940923E-04;  6.8389813E+02;
  9.0990558E-02;  9.9999998E-03; -3.0025385E-02;3022;  3.8762970E-03;  0.0000000E+00; -1.2721791E-04;  1.0022772E+03;  1.0000000E-01;  1.8865640E+03;3; -8.4332647E+00;  0.0000000E+00; -2.7277859E-02;0;  8.8946633E-03;  4.0193906E+04;  0.0000000E+00;  5.5426254E-04;  4.0000000E+04;  0.0000000E+00;  4.0008793E+04;  9.6044736E-03;  0.0000000E+00; -7.0981053E-04;  8.5045697E+02;
  9.0977445E-02;  9.9999998E-03; -2.0024396E-02;3023;  3.8239069E-03;  0.0000000E+00; -1.2194336E-04;  1.0022907E+03;  1.0000000E-01;  1.8978229E+03;3; -8.3560467E+00;  0.0000000E+00; -1.9643394E-02;0;  9.0496494E-03;  4.0193930E+04;  0.0000000E+00;  2.1895683E-04;  4.0000000E+04;  0.0000000E+00;  4.0010121E+04;  9.7550619E-03;  0.0000000E+00; -7.0541253E-04;  9.8790057E+02;
  9.0968803E-02;  9.9999998E-03; -1.0017072E-02;3024;  3.7861513E-03;  0.0000000E+00; -8.2441060E-05;  1.0023026E+03;  1.0000000E-01;  1.9076991E+03;3; -8.3118887E+00;  0.0000000E+00; -1.0768366E-02;0;  9.1568977E-03;  4.0194000E+04;  0.0000000E+00;  5.1185365E-05;  4.0000000E+04;  0.0000000E+00;  4.0010078E+04;  9.8538660E-03;  0.0000000E+00; -6.9696846E-04;  1.0761716E+03;
  9.0965629E-02;  9.9999998E-03;  2.4910901E-10;3025;  3.7718292E-03;  0.0000000E+00; -2.5589599E-09;  1.0023074E+03;  1.0000000E-01;  1.9116497E+03;3; -8.2995386E+00;  0.0000000E+00;  1.5913851E-05;0;  9.1952011E-03;  4.0194141E+04;  0.0000000E+00; -4.3714988E-13;  4.0000000E+04;  0.0000000E+00;  4.0010340E+04;  9.8882439E-03;  0.0000000E+00; -6.9304294E-04;  1.1062715E+03;
  9.0968803E-02;  9.9999998E-03;  1.0017073E-02;3026;  3.7861546E-03;  0.0000000E+00;  8.2439765E-05;  1.0023026E+03;  1.0000000E-01;  1.9076991E+03;3; -8.3118982E+00;  0.0000000E+00;  1.0807727E-02;0;  9.1569200E-03;  4.0194000E+04;  0.0000000E+00;  5.1355975E-05;  4.0000000E+04;  0.0000000E+00;  4.0010078E+04;  9.8538790E-03;  0.0000000E+00; -6.9695880E-04;  1.0761719E+03;
  9.0977445E-02;  9.9999998E-03;  2.0024396E-02;3027;  3.8239120E-03;  0.0000000E+00;  1.2194257E-04;  1.0022906E+03;  1.0000000E-01;  1.8977241E+03;3; -8.3560534E+00;  0.0000000E+00;  1.9671394E-02;0;  9.0496764E-03;  4.0193938E+04;  0.0000000E+00;  2.1933382E-04;  4.0000000E+04;  0.0000000E+00;  4.0010121E+04;  9.7550731E-03;  0.0000000E+00; -7.0539664E-04;  9.8790710E+02;
  9.0990558E-02;  9.9999998E-03;  3.0025385E-02;3028;  3.8763068E-03;  0.0000000E+00;  1.2721760E-04;  1.0022772E+03;  1.0000000E-01;  1.8865640E+03;3; -8.4332752E+00;  0.0000000E+00;  2.7321156E-02;0;  8.8947089E-03;  4.0193902E+04;  0.0000000E+00;  5.5485370E-04;  4.0000000E+04;  0.0000000E+00;  4.0008793E+04;  9.6044987E-03;  0.0000000E+00; -7.0979004E-04;  8.5046155E+02;
  9.1006324E-02;  9.9999998E-03;  4.0022891E-02;3029;  3.9367126E-03;  0.0000000E+00;  1.0508964E-04;  1.0022521E+03;  1.0000000E-01;  1.8658237E+03;3; -8.5254784E+00;  0.0000000E+00;  2.9103201E-02;0;  8.7228660E-03;  4.0193109E+04;  0.0000000E+00;  1.1676810E-03;  4.0000000E+04;  0.0000000E+00;  4.0007145E+04;  9.4222520E-03;  0.0000000E+00; -6.9938594E-04;  6.8390552E+02;
  9.1022804E-02;  9.9999998E-03;  5.0020136E-02;3030;  3.9983862E-03;  0.0000000E+00;  6.6979577E-05;  1.0022224E+03;  1.0000000E-01;  1.8411331E+03;3; -8.6213894E+00;  0.0000000E+00;  2.8902303E-02;0;  8.5692052E-03;  4.0192469E+04;  0.0000000E+00;  2.1931964E-03;  4.0000000E+04;  0.0000000E+00;  4.0005836E+04;  9.2336359E-03;  0.0000000E+00; -6.6443067E-04;  5.1956549E+02;
  9.1038495E-02;  9.9999998E-03;  6.0019471E-02;3031;  4.0606526E-03;  0.0000000E+00;  1.0870438E-05;  1.0021940E+03;  1.0000000E-01;  1.8177263E+03;3; -8.7017574E+00;  0.0000000E+00;  2.6474573E-02;0;  8.4679406E-03;  4.0191500E+04;  0.0000000E+00;  3.6676021E-03;  4.0000000E+04;  0.0000000E+00;  4.0005125E+04;  9.0670232E-03;  0.0000000E+00; -5.9908268E-04;  3.9589435E+02;
  1.0137547E-01;  9.9999998E-03; -1.0003233E-01;3076;  4.4992915E-03;  0.0000000E+00;  9.2536044E-05;  1.0011335E+03;  1.0000000E-01;  9.3913391E+02;3; -4.5019908E+00;  0.0000000E+00;  7.6092421E-03;0;  7.8952387E-03;  4.0098371E+04;  0.0000000E+00; -1.6251652E-03;  4.0000000E+04;  0.0000000E+00;  4.0010586E+04;  7.9302192E-03;  0.0000000E+00; -3.4980068E-05;  1.2757089E+03;
  1.0139660E-01;  9.9999998E-03; -9.0014301E-02;3077;  4.5100613E-03;  0.0000000E+00;  8.6544147E-05;  1.0011390E+03;  1.0000000E-01;  9.4367700E+02;3; -4.5683570E+00;  0.0000000E+00;  2.3599168E-04;0;  7.6155560E-03;  4.0100168E+04;  0.0000000E+00; -1.7700584E-03;  4.0000000E+04;  0.0000000E+00;  4.0008566E+04;  7.7456939E-03;  0.0000000E+00; -1.3013795E-04;  1.0224816E+03;
  1.0140750E-01;  9.9999998E-03; -7.9995230E-02;3078;  4.5099156E-03;  0.0000000E+00;  7.0418886E-05;  1.0011567E+03;  1.0000000E-01;  9.5829388E+02;3; -4.6064615E+00;  0.0000000E+00; -6.1798678E-03;0;  7.4378825E-03;  4.0102883E+04;  0.0000000E+00; -2.0582294E-03;  4.0000000E+04;  0.0000000E+00;  4.0007551E+04;  7.6797269E-03;  0.0000000E+00; -2.4184438E-04;  8.4824530E+02;
  1.0141010E-01;  9.9999998E-03; -6.9978595E-02;3079;  4.5035183E-03;  0.0000000E+00;  4.6854806E-05;  1.0011904E+03;  1.0000000E-01;  9.8624371E+02;3; -4.6127682E+00;  0.0000000E+00; -1.1626758E-02;0;  7.3729646E-03;  4.0105754E+04;  0.0000000E+00; -2.3452125E-03;  4.0000000E+04;  0.0000000E+00;  4.0007691E+04;  7.7228923E-03;  0.0000000E+00; -3.4992784E-04;  7.8607111E+02;
  1.0140704E-01;  9.9999998E-03; -5.9972964E-02;3080;  4.4901087E-03;  0.0000000E+00;  1.4838861E-05;  1.0012288E+03;  1.0000000E-01;  1.0180453E+03;3; -4.5872931E+00;  0.0000000E+00; -1.8025588E-02;0;  7.4153841E-03;  4.0108422E+04;  0.0000000E+00; -2.3634981E-03;  4.0000000E+04;  0.0000000E+00;  4.0007953E+04;  7.8540742E-03;  0.0000000E+00; -4.3868998E-04;  8.3515198E+02;
  1.0139970E-01;  9.9999998E-03; -4.9979620E-02;3081;  4.4746776E-03;  0.0000000E+00; -1.7370425E-05;  1.0012734E+03;  1.0000000E-01;  1.0549825E+03;3; -4.5391517E+00;  0.0000000E+00; -1.9619029E-02;0;  7.5453585E-03;  4.0110574E+04;  0.0000000E+00; -2.0259914E-03;  4.0000000E+04;  0.0000000E+00;  4.0008988E+04;  8.0448966E-03;  0.0000000E+00; -4.9953826E-04;  9.6823309E+02;
  1.0138986E-01;  9.9999998E-03; -3.9991517E-02;3082;  4.4596042E-03;  0.0000000E+00; -4.3652970E-05;  1.0013106E+03;  1.0000000E-01;  1.0857965E+03;3; -4.4787774E+00;  0.0000000E+00; -1.9533971E-02;0;  7.7313739E-03;  4.0111758E+04;  0.0000000E+00; -1.4522476E-03;  4.0000000E+04;  0.0000000E+00;  4.0010125E+04;  8.2628634E-03;  0.0000000E+00; -5.3148944E-04;  1.1450236E+03;
  1.0137911E-01;  9.9999998E-03; -3.0003294E-02;3083;  4.4473736E-03;  0.0000000E+00; -5.8904621E-05;  1.0013428E+03;  1.0000000E-01;  1.1125612E+03;3; -4.4195318E+00;  0.0000000E+00; -1.7605664E-02;0;  7.9352176E-03;  4.0112785E+04;  0.0000000E+00; -8.4588223E-04;  4.0000000E+04;  0.0000000E+00;  4.0011848E+04;  8.4751146E-03;  0.0000000E+00; -5.3989713E-04;  1.3242281E+03;
  1.0136923E-01;  9.9999998E-03; -2.0011054E-02;3084;  4.4402326E-03;  0.0000000E+00; -5.7529778E-05;  1.0013616E+03;  1.0000000E-01;  1.1280669E+03;3; -4.3688841E+00;  0.0000000E+00; -1.3789937E-02;0;  8.1174904E-03;  4.0113254E+04;  0.0000000E+00; -3.7047017E-04;  4.0000000E+04;  0.0000000E+00;  4.0012785E+04;  8.6517110E-03;  0.0000000E+00; -5.3422037E-04;  1.4720837E+03;
  1.0136221E-01;  9.9999998E-03; -1.0011531E-02;3085;  4.4382825E-03;  0.0000000E+00; -3.6533889E-05;  1.0013752E+03;  1.0000000E-01;  1.1393258E+03;3; -4.3370132E+00;  0.0000000E+00; -8.4152510E-03;0;  8.2433643E-03;  4.0113578E+04;  0.0000000E+00; -9.0131492E-05;  4.0000000E+04;  0.0000000E+00;  4.0013523E+04;  8.7684421E-03;  0.0000000E+00; -5.2507786E-04;  1.5670049E+03;
  1.0135944E-01;  9.9999998E-03;  6.3570593E-10;3086;  4.4387267E-03;  0.0000000E+00;  1.0849395E-09;  1.0013794E+03;  1.0000000E-01;  1.1427825E+03;3; -4.3261652E+00;  0.0000000E+00;  8.0383252E-06;0;  8.2884207E-03;  4.0113586E+04;  0.0000000E+00;  1.3076045E-12;  4.0000000E+04;  0.0000000E+00;  4.0013824E+04;  8.8093579E-03;  0.0000000E+00; -5.2093726E-04;  1.5993406E+03;
  1.0136221E-01;  9.9999998E-03;  1.0011532E-02;3087;  4.4382862E-03;  0.0000000E+00;  3.6537345E-05;  1.0013752E+03;  1.0000000E-01;  1.1393258E+03;3; -4.3370142E+00;  0.0000000E+00;  8.4511591E-03;0;  8.2433866E-03;  4.0113578E+04;  0.0000000E+00; -8.9962916E-05;  4.0000000E+04;  0.0000000E+00;  4.0013523E+04;  8.7684570E-03;  0.0000000E+00; -5.2507001E-04;  1.5670027E+03;
  1.0136922E-01;  9.9999998E-03;  2.0011056E-02;3088;  4.4402387E-03;  0.0000000E+00;  5.7533725E-05;  1.0013616E+03;  1.0000000E-01;  1.1280669E+03;3; -4.3688841E+00;  0.0000000E+00;  1.3814739E-02;0;  8.1175175E-03;  4.0113258E+04;  0.0000000E+00; -3.6985072E-04;  4.0000000E+04;  0.0000000E+00;  4.0012785E+04;  8.6517241E-03;  0.0000000E+00; -5.3420622E-04;  1.4720901E+03;
  1.0137910E-01;  9.9999998E-03;  3.0003294E-02;3089;  4.4473833E-03;  0.0000000E+00;  5.8910297E-05;  1.0013428E+03;  1.0000000E-01;  1.1125612E+03;3; -4.4195347E+00;  0.0000000E+00;  1.7648054E-02;0;  7.9352539E-03;  4.0112785E+04;  0.0000000E+00; -8.4536942E-04;  4.0000000E+04;  0.0000000E+00;  4.0011848E+04;  8.4751323E-03;  0.0000000E+00; -5.3987821E-04;  1.3242334E+03;
  1.0138986E-01;  9.9999998E-03;  3.9991517E-02;3090;  4.4596149E-03;  0.0000000E+00;  4.3656906E-05;  1.0013106E+03;  1.0000000E-01;  1.0857965E+03;3; -4.4788013E+00;  0.0000000E+00;  1.9513043E-02;0;  7.7314195E-03;  4.0111754E+04;  0.0000000E+00; -1.4518836E-03;  4.0000000E+04;  0.0000000E+00;  4.0010129E+04;  8.2628857E-03;  0.0000000E+00; -5.3146615E-04;  1.1450415E+03;
  1.0139970E-01;  9.9999998E-03;  4.9979620E-02;3091;  4.4746906E-03;  0.0000000E+00;  1.7375143E-05;  1.0012734E+03;  1.0000000E-01;  1.0549825E+03;3; -4.5391784E+00;  0.0000000E+00;  1.9615531E-02;0;  7.5454148E-03;  4.0110578E+04;  0.0000000E+00; -2.0255251E-03;  4.0000000E+04;  0.0000000E+00;  4.0008988E+04;  8.0449311E-03;  0.0000000E+00; -4.9951626E-04;  9.6824408E+02;
  1.0140704E-01;  9.9999998E-03;  5.9972964E-02;3092;  4.4901222E-03;  0.0000000E+00; -1.4834990E-05;  1.0012286E+03;  1.0000000E-01;  1.0179465E+03;3; -4.5872607E+00;  0.0000000E+00;  1.8001599E-02;0;  7.4154367E-03;  4.0108426E+04;  0.0000000E+00; -2.3626268E-03;  4.0000000E+04;  0.0000000E+00;  4.0007953E+04;  7.8541068E-03;  0.0000000E+00; -4.3867022E-04;  8.3516272E+02;
  1.1179693E-01;  9.9999998E-03; -9.9980183E-02;3137;  4.6114023E-03;  0.0000000E+00;  7.1097085E-05;  1.0002485E+03;  1.0000000E-01;  2.0592010E+02;3; -2.1517446E+00;  0.0000000E+00; -4.8860190E-03;0;  6.5110666E-03;  4.0021004E+04;  0.0000000E+00; -1.8645488E-02;  4.0000000E+04;  0.0000000E+00;  4.0013738E+04;  6.4416104E-03;  0.0000000E+00;  6.9456044E-05;  1.7300140E+03;
  1.1191573E-01;  9.9999998E-03; -8.9957707E-02;3138;  4.6215188E-03;  0.0000000E+00;  6.7138528E-05;  1.0002830E+03;  1.0000000E-01;  2.3446251E+02;3; -2.1743548E+00;  0.0000000E+00; -7.0490194E-03;0;  6.2093572E-03;  4.0025059E+04;  0.0000000E+00; -1.8874981E-02;  4.0000000E+04;  0.0000000E+00;  4.0011746E+04;  6.2181568E-03;  0.0000000E+00; -8.7994849E-06;  1.4598319E+03;
  1.1200780E-01;  9.9999998E-03; -7.9938591E-02;3139;  4.6245633E-03;  0.0000000E+00;  5.5296885E-05;  1.0003242E+03;  1.0000000E-01;  2.6863437E+02;3; -2.1842029E+00;  0.0000000E+00; -8.8774664E-03;0;  6.0241204E-03;  4.0029547E+04;  0.0000000E+00; -1.7248610E-02;  4.0000000E+04;  0.0000000E+00;  4.0010738E+04;  6.1280355E-03;  0.0000000E+00; -1.0391524E-04;  1.2688392E+03;
  1.1205585E-01;  9.9999998E-03; -6.9936156E-02;3140;  4.6240017E-03;  0.0000000E+00;  3.8287228E-05;  1.0003777E+03;  1.0000000E-01;  3.1288004E+02;3; -2.1825485E+00;  0.0000000E+00; -9.6181240E-03;0;  5.9659937E-03;  4.0034215E+04;  0.0000000E+00; -1.4467247E-02;  4.0000000E+04;  0.0000000E+00;  4.0010344E+04;  6.1635710E-03;  0.0000000E+00; -1.9757726E-04;  1.1945363E+03;
  1.1206739E-01;  9.9999998E-03; -5.9943762E-02;3141;  4.6230191E-03;  0.0000000E+00;  1.9254805E-05;  1.0004340E+03;  1.0000000E-01;  3.5959476E+02;3; -2.1686330E+00;  0.0000000E+00; -9.5165959E-03;0;  6.0258149E-03;  4.0038336E+04;  0.0000000E+00; -1.1140207E-02;  4.0000000E+04;  0.0000000E+00;  4.0010648E+04;  6.3010924E-03;  0.0000000E+00; -2.7527745E-04;  1.2376548E+03;
  1.1206189E-01;  9.9999998E-03; -4.9955945E-02;3142;  4.6232534E-03;  0.0000000E+00; -1.0641175E-07;  1.0004864E+03;  1.0000000E-01;  4.0295157E+02;3; -2.1438832E+00;  0.0000000E+00; -8.9569967E-03;0;  6.1782370E-03;  4.0041387E+04;  0.0000000E+00; -7.8136008E-03;  4.0000000E+04;  0.0000000E+00;  4.0011617E+04;  6.5066274E-03;  0.0000000E+00; -3.2839042E-04;  1.3714513E+03;
  1.1205324E-01;  9.9999998E-03; -3.9970085E-02;3143;  4.6248175E-03;  0.0000000E+00; -1.7547813E-05;  1.0005298E+03;  1.0000000E-01;  4.3890115E+02;3; -2.1127384E+00;  0.0000000E+00; -8.5687358E-03;0;  6.3872845E-03;  4.0043277E+04;  0.0000000E+00; -4.9049193E-03;  4.0000000E+04;  0.0000000E+00;  4.0012879E+04;  6.7425552E-03;  0.0000000E+00; -3.5527049E-04;  1.5542773E+03;
  1.1204470E-01;  9.9999998E-03; -2.9983226E-02;3144;  4.6275477E-03;  0.0000000E+00; -2.7841003E-05;  1.0005669E+03;  1.0000000E-01;  4.6961633E+02;3; -2.0815363E+00;  0.0000000E+00; -6.9749937E-03;0;  6.6117933E-03;  4.0044449E+04;  0.0000000E+00; -2.6533338E-03;  4.0000000E+04;  0.0000000E+00;  4.0014652E+04;  6.9724522E-03;  0.0000000E+00; -3.6065886E-04;  1.7422994E+03;
  1.1203796E-01;  9.9999998E-03; -1.9993391E-02;3145;  4.6312553E-03;  0.0000000E+00; -2.7330916E-05;  1.0005948E+03;  1.0000000E-01;  4.9282556E+02;3; -2.0560646E+00;  0.0000000E+00; -5.1544989E-03;0;  6.8099848E-03;  4.0045219E+04;  0.0000000E+00; -1.1261047E-03;  4.0000000E+04;  0.0000000E+00;  4.0015969E+04;  7.1634436E-03;  0.0000000E+00; -3.5345901E-04;  1.8990500E+03;
  1.1203385E-01;  9.9999998E-03; -9.9994810E-03;3146;  4.6342504E-03;  0.0000000E+00; -1.7053926E-05;  1.0006084E+03;  1.0000000E-01;  5.0408450E+02;3; -2.0385971E+00;  0.0000000E+00; -2.4095899E-03;0;  6.9455737E-03;  4.0045574E+04;  0.0000000E+00; -2.7108693E-04;  4.0000000E+04;  0.0000000E+00;  4.0016625E+04;  7.2893291E-03;  0.0000000E+00; -3.4375515E-04;  2.0005496E+03;
  1.1203255E-01;  9.9999998E-03; -1.5952309E-10;3147;  4.6353592E-03;  0.0000000E+00;  1.7185409E-09;  1.0006127E+03;  1.0000000E-01;  5.0763995E+02;3; -2.0326312E+00;  0.0000000E+00;  1.2120994E-05;0;  6.9937510E-03;  4.0045684E+04;  0.0000000E+00;  2.1805533E-12;  4.0000000E+04;  0.0000000E+00;  4.0016965E+04;  7.3332554E-03;  0.0000000E+00; -3.3950456E-04;  2.0353289E+03;
  1.1203385E-01;  9.9999998E-03;  9.9994801E-03;3148;  4.6342541E-03;  0.0000000E+00;  1.7057215E-05;  1.0006084E+03;  1.0000000E-01;  5.0408450E+02;3; -2.0386055E+00;  0.0000000E+00;  2.4414472E-03;0;  6.9455910E-03;  4.0045570E+04;  0.0000000E+00; -2.7078702E-04;  4.0000000E+04;  0.0000000E+00;  4.0016625E+04;  7.2893389E-03;  0.0000000E+00; -3.4374793E-04;  2.0005496E+03;
  1.1203796E-01;  9.9999998E-03;  1.9993389E-02;3149;  4.6312613E-03;  0.0000000E+00;  2.7334585E-05;  1.0005949E+03;  1.0000000E-01;  4.9282556E+02;3; -2.0561054E+00;  0.0000000E+00;  5.1775877E-03;0;  6.8100174E-03;  4.0045215E+04;  0.0000000E+00; -1.1258067E-03;  4.0000000E+04;  0.0000000E+00;  4.0015969E+04;  7.1634627E-03;  0.0000000E+00; -3.5344521E-04;  1.8990619E+03;
  1.1204470E-01;  9.9999998E-03;  2.9983224E-02;3150;  4.6275561E-03;  0.0000000E+00;  2.7845468E-05;  1.0005669E+03;  1.0000000E-01;  4.6961633E+02;3; -2.0815458E+00;  0.0000000E+00;  6.9867983E-03;0;  6.6118208E-03;  4.0044449E+04;  0.0000000E+00; -2.6528870E-03;  4.0000000E+04;  0.0000000E+00;  4.0014652E+04;  6.9724605E-03;  0.0000000E+00; -3.6063994E-04;  1.7423000E+03;
  1.1205324E-01;  9.9999998E-03;  3.9970085E-02;3151;  4.6248264E-03;  0.0000000E+00;  1.7552280E-05;  1.0005298E+03;  1.0000000E-01;  4.3890115E+02;3; -2.1127636E+00;  0.0000000E+00;  8.5823340E-03;0;  6.3873241E-03;  4.0043281E+04;  0.0000000E+00; -4.9037556E-03;  4.0000000E+04;  0.0000000E+00;  4.0012879E+04;  6.7425733E-03;  0.0000000E+00; -3.5524907E-04;  1.5542991E+03;
  1.1206189E-01;  9.9999998E-03;  4.9955945E-02;3152;  4.6232645E-03;  0.0000000E+00;  1.0929964E-07;  1.0004864E+03;  1.0000000E-01;  4.0295157E+02;3; -2.1439192E+00;  0.0000000E+00;  8.9464234E-03;0;  6.1782775E-03;  4.0041383E+04;  0.0000000E+00; -7.8126574E-03;  4.0000000E+04;  0.0000000E+00;  4.0011617E+04;  6.5066461E-03;  0.0000000E+00; -3.2836871E-04;  1.3714691E+03;
  1.1206739E-01;  9.9999998E-03;  5.9943762E-02;3153;  4.6230336E-03;  0.0000000E+00; -1.9252184E-05;  1.0004340E+03;  1.0000000E-01;  3.5959476E+02;3; -2.1686616E+00;  0.0000000E+00;  9.4959354E-03;0;  6.0258559E-03;  4.0038336E+04;  0.0000000E+00; -1.1138752E-02;  4.0000000E+04;  0.0000000E+00;  4.0010648E+04;  6.3011134E-03;  0.0000000E+00; -2.7525745E-04;  1.2376604E+03;
  1.2211152E-01;  9.9999998E-03; -9.9940568E-02;3198;  4.5866808E-03;  0.0000000E+00;  5.0326031E-05;  9.9970264E+02;  1.0000000E-01; -2.4636340E+02;3; -9.6145523E-01;  0.0000000E+00; -1.0138069E-02;0;  4.9317637E-03;  3.9971316E+04;  0.0000000E+00; -4.1604735E-02;  4.0000000E+04;  0.0000000E+00;  4.0016723E+04;  4.7685192E-03;  0.0000000E+00;  1.6324474E-04;  2.0886345E+03;
  1.2209500E-01;  9.9999998E-03; -8.9939222E-02;3199;  4.5963139E-03;  0.0000000E+00;  5.1603056E-05;  9.9976355E+02;  1.0000000E-01; -1.9589569E+02;3; -9.7949880E-01;  0.0000000E+00; -9.0929344E-03;0;  4.6578553E-03;  3.9977668E+04;  0.0000000E+00; -3.8954571E-02;  4.0000000E+04;  0.0000000E+00;  4.0014172E+04;  4.5580538E-03;  0.0000000E+00;  9.9801517E-05;  1.8029517E+03;
  1.2207407E-01;  9.9999998E-03; -7.9937324E-02;3200;  4.6025543E-03;  0.0000000E+00;  4.5421391E-05;  9.9983411E+02;  1.0000000E-01; -1.3742821E+02;3; -9.9174064E-01;  0.0000000E+00; -8.7041659E-03;0;  4.5026550E-03;  3.9984770E+04;  0.0000000E+00; -3.3185236E-02;  4.0000000E+04;  0.0000000E+00;  4.0013605E+04;  4.4828593E-03;  0.0000000E+00;  1.9795752E-05;  1.5926006E+03;
  1.2205440E-01;  9.9999998E-03; -6.9938615E-02;3201;  4.6077990E-03;  0.0000000E+00;  3.3471937E-05;  9.9990234E+02;  1.0000000E-01; -8.0886604E+01;3; -9.9529874E-01;  0.0000000E+00; -8.4359739E-03;0;  4.4709351E-03;  3.9990785E+04;  0.0000000E+00; -2.6092399E-02;  4.0000000E+04;  0.0000000E+00;  4.0012406E+04;  4.5308564E-03;  0.0000000E+00; -5.9921138E-05;  1.4997809E+03;
  1.2203813E-01;  9.9999998E-03; -5.9944052E-02;3202;  4.6141711E-03;  0.0000000E+00;  1.8486920E-05;  9.9997076E+02;  1.0000000E-01; -2.4196846E+01;3; -9.9080008E-01;  0.0000000E+00; -7.6196776E-03;0;  4.5525027E-03;  3.9995727E+04;  0.0000000E+00; -1.8995907E-02;  4.0000000E+04;  0.0000000E+00;  4.0012414E+04;  4.6782540E-03;  0.0000000E+00; -1.2575126E-04;  1.5290338E+03;
  1.2202561E-01;  9.9999998E-03; -4.9952723E-02;3203;  4.6224971E-03;  0.0000000E+00;  3.0431850E-06;  1.0000261E+03;  1.0000000E-01;  2.1629019E+01;3; -9.7940385E-01;  0.0000000E+00; -6.5472112E-03;0;  4.7231391E-03;  3.9999227E+04;  0.0000000E+00; -1.2749411E-02;  4.0000000E+04;  0.0000000E+00;  4.0013625E+04;  4.8927767E-03;  0.0000000E+00; -1.6963785E-04;  1.6550989E+03;
  1.2201654E-01;  9.9999998E-03; -3.9963305E-02;3204;  4.6321079E-03;  0.0000000E+00; -1.0018028E-05;  1.0000717E+03;  1.0000000E-01;  5.9356346E+01;3; -9.6439916E-01;  0.0000000E+00; -5.6195464E-03;0;  4.9475571E-03;  4.0001328E+04;  0.0000000E+00; -7.7712825E-03;  4.0000000E+04;  0.0000000E+00;  4.0014617E+04;  5.1375953E-03;  0.0000000E+00; -1.9003842E-04;  1.8360145E+03;
  1.2201009E-01;  9.9999998E-03; -2.9974427E-02;3205;  4.6420475E-03;  0.0000000E+00; -1.7917686E-05;  1.0001066E+03;  1.0000000E-01;  8.8293800E+01;3; -9.4888377E-01;  0.0000000E+00; -4.3460154E-03;0;  5.1841736E-03;  4.0002469E+04;  0.0000000E+00; -4.1453233E-03;  4.0000000E+04;  0.0000000E+00;  4.0016148E+04;  5.3755348E-03;  0.0000000E+00; -1.9136124E-04;  2.0262833E+03;
  1.2200537E-01;  9.9999998E-03; -1.9984979E-02;3206;  4.6510706E-03;  0.0000000E+00; -1.8503211E-05;  1.0001299E+03;  1.0000000E-01;  1.0765128E+02;3; -9.3597132E-01;  0.0000000E+00; -3.1402248E-03;0;  5.3909756E-03;  4.0002867E+04;  0.0000000E+00; -1.7560807E-03;  4.0000000E+04;  0.0000000E+00;  4.0017504E+04;  5.5729654E-03;  0.0000000E+00; -1.8198954E-04;  2.1872151E+03;
  1.2200263E-01;  9.9999998E-03; -9.9939043E-03;3207;  4.6572704E-03;  0.0000000E+00; -1.1529419E-05;  1.0001437E+03;  1.0000000E-01;  1.1910774E+02;3; -9.2735797E-01;  0.0000000E+00; -1.4592498E-03;0;  5.5316016E-03;  4.0003180E+04;  0.0000000E+00; -4.2420634E-04;  4.0000000E+04;  0.0000000E+00;  4.0018305E+04;  5.7029747E-03;  0.0000000E+00; -1.7137291E-04;  2.2924871E+03;
  1.2200175E-01;  9.9999998E-03; -2.8340905E-10;3208;  4.6594394E-03;  0.0000000E+00;  5.1543403E-10;  1.0001478E+03;  1.0000000E-01;  1.2246568E+02;3; -9.2433268E-01;  0.0000000E+00;  1.7881086E-05;0;  5.5813943E-03;  4.0003180E+04;  0.0000000E+00;  8.4691385E-13;  4.0000000E+04;  0.0000000E+00;  4.0018562E+04;  5.7482943E-03;  0.0000000E+00; -1.6689993E-04;  2.3287710E+03;
  1.2200263E-01;  9.9999998E-03;  9.9939033E-03;3209;  4.6572722E-03;  0.0000000E+00;  1.1530473E-05;  1.0001437E+03;  1.0000000E-01;  1.1910774E+02;3; -9.2736381E-01;  0.0000000E+00;  1.4792165E-03;0;  5.5316221E-03;  4.0003180E+04;  0.0000000E+00; -4.2401950E-04;  4.0000000E+04;  0.0000000E+00;  4.0018305E+04;  5.7029878E-03;  0.0000000E+00; -1.7136580E-04;  2.2924880E+03;
  1.2200537E-01;  9.9999998E-03;  1.9984979E-02;3210;  4.6510762E-03;  0.0000000E+00;  1.8505298E-05;  1.0001299E+03;  1.0000000E-01;  1.0765128E+02;3; -9.3599313E-01;  0.0000000E+00;  3.1598087E-03;0;  5.3910012E-03;  4.0002863E+04;  0.0000000E+00; -1.7555244E-03;  4.0000000E+04;  0.0000000E+00;  4.0017504E+04;  5.5729775E-03;  0.0000000E+00; -1.8197614E-04;  2.1872241E+03;
  1.2201009E-01;  9.9999998E-03;  2.9974427E-02;3211;  4.6420554E-03;  0.0000000E+00;  1.7920493E-05;  1.0001066E+03;  1.0000000E-01;  8.8293800E+01;3; -9.4891584E-01;  0.0000000E+00;  4.3552299E-03;0;  5.1842090E-03;  4.0002469E+04;  0.0000000E+00; -4.1446337E-03;  4.0000000E+04;  0.0000000E+00;  4.0016148E+04;  5.3755515E-03;  0.0000000E+00; -1.9134252E-04;  2.0262970E+03;
  1.2201654E-01;  9.9999998E-03;  3.9963305E-02;3212;  4.6321182E-03;  0.0000000E+00;  1.0021345E-05;  1.0000717E+03;  1.0000000E-01;  5.9356346E+01;3; -9.6442807E-01;  0.0000000E+00;  5.6143869E-03;0;  4.9475851E-03;  4.0001324E+04;  0.0000000E+00; -7.7703423E-03;  4.0000000E+04;  0.0000000E+00;  4.0014617E+04;  5.1376023E-03;  0.0000000E+00; -1.9001715E-04;  1.8360255E+03;
  1.2202560E-01;  9.9999998E-03;  4.9952723E-02;3213;  4.6225092E-03;  0.0000000E+00; -3.0391966E-06;  1.0000260E+03;  1.0000000E-01;  2.1530254E+01;3; -9.7942293E-01;  0.0000000E+00;  6.5675499E-03;0;  4.7231689E-03;  3.9999223E+04;  0.0000000E+00; -1.2748320E-02;  4.0000000E+04;  0.0000000E+00;  4.0013625E+04;  4.8927851E-03;  0.0000000E+00; -1.6961631E-04;  1.6551064E+03;
  1.2203813E-01;  9.9999998E-03;  5.9944052E-02;3214;  4.6141860E-03;  0.0000000E+00; -1.8484390E-05;  9.9997076E+02;  1.0000000E-01; -2.4196846E+01;3; -9.9083418E-01;  0.0000000E+00;  7.6007931E-03;0;  4.5525311E-03;  3.9995727E+04;  0.0000000E+00; -1.8995570E-02;  4.0000000E+04;  0.0000000E+00;  4.0012414E+04;  4.6782624E-03;  0.0000000E+00; -1.2573156E-04;  1.5290471E+03;
  1.3201424E-01;  9.9999998E-03; -9.9937834E-02;3259;  4.4710459E-03;  0.0000000E+00;  2.8029033E-05;  9.9949536E+02;  1.0000000E-01; -4.1806226E+02;3; -4.3311208E-01;  0.0000000E+00; -1.3391671E-02;0;  3.3792527E-03;  3.9949254E+04;  0.0000000E+00; -5.9925437E-02;  4.0000000E+04;  0.0000000E+00;  4.0018270E+04;  3.1303272E-03;  0.0000000E+00;  2.4892541E-04;  2.2913066E+03;
  1.3198031E-01;  9.9999998E-03; -8.9935012E-02;3260;  4.4821189E-03;  0.0000000E+00;  3.4977787E-05;  9.9955951E+02;  1.0000000E-01; -3.6492795E+02;3; -4.3804741E-01;  0.0000000E+00; -1.1415418E-02;0;  3.1244580E-03;  3.9956863E+04;  0.0000000E+00; -5.2878406E-02;  4.0000000E+04;  0.0000000E+00;  4.0016449E+04;  2.9250944E-03;  0.0000000E+00;  1.9936354E-04;  1.9941631E+03;
  1.3194723E-01;  9.9999998E-03; -7.9931021E-02;3261;  4.4926028E-03;  0.0000000E+00;  3.5080375E-05;  9.9963190E+02;  1.0000000E-01; -3.0497903E+02;3; -4.4124368E-01;  0.0000000E+00; -9.9974889E-03;0;  2.9898735E-03;  3.9963922E+04;  0.0000000E+00; -4.2932943E-02;  4.0000000E+04;  0.0000000E+00;  4.0014727E+04;  2.8552962E-03;  0.0000000E+00;  1.3457729E-04;  1.7665077E+03;
  1.3191986E-01;  9.9999998E-03; -6.9929563E-02;3262;  4.5037139E-03;  0.0000000E+00;  2.8827670E-05;  9.9970020E+02;  1.0000000E-01; -2.4838803E+02;3; -4.4143015E-01;  0.0000000E+00; -8.7675769E-03;0;  2.9783205E-03;  3.9970074E+04;  0.0000000E+00; -3.2435022E-02;  4.0000000E+04;  0.0000000E+00;  4.0013672E+04;  2.9085821E-03;  0.0000000E+00;  6.9738300E-05;  1.6540687E+03;
  1.3189888E-01;  9.9999998E-03; -5.9932161E-02;3263;  4.5167520E-03;  0.0000000E+00;  1.8570892E-05;  9.9976196E+02;  1.0000000E-01; -1.9722899E+02;3; -4.3790945E-01;  0.0000000E+00; -7.5400183E-03;0;  3.0780570E-03;  3.9974777E+04;  0.0000000E+00; -2.2902694E-02;  4.0000000E+04;  0.0000000E+00;  4.0013328E+04;  3.0608848E-03;  0.0000000E+00;  1.7172286E-05;  1.6649894E+03;
  1.3188301E-01;  9.9999998E-03; -4.9938619E-02;3264;  4.5317737E-03;  0.0000000E+00;  7.0260844E-06;  9.9981476E+02;  1.0000000E-01; -1.5347714E+02;3; -4.3233612E-01;  0.0000000E+00; -6.4812102E-03;0;  3.2639066E-03;  3.9977801E+04;  0.0000000E+00; -1.5085249E-02;  4.0000000E+04;  0.0000000E+00;  4.0014066E+04;  3.2797521E-03;  0.0000000E+00; -1.5845448E-05;  1.7764712E+03;
  1.3187122E-01;  9.9999998E-03; -3.9948072E-02;3265;  4.5475508E-03;  0.0000000E+00; -2.8990241E-06;  9.9985602E+02;  1.0000000E-01; -1.1930527E+02;3; -4.2539254E-01;  0.0000000E+00; -5.5833757E-03;0;  3.5001205E-03;  3.9979547E+04;  0.0000000E+00; -9.1458727E-03;  4.0000000E+04;  0.0000000E+00;  4.0015555E+04;  3.5281847E-03;  0.0000000E+00; -2.8064273E-05;  1.9474083E+03;
  1.3186248E-01;  9.9999998E-03; -2.9960493E-02;3266;  4.5623328E-03;  0.0000000E+00; -9.1237889E-06;  9.9988629E+02;  1.0000000E-01; -9.4219559E+01;3; -4.1828606E-01;  0.0000000E+00; -4.3035229E-03;0;  3.7450846E-03;  3.9980207E+04;  0.0000000E+00; -4.9108458E-03;  4.0000000E+04;  0.0000000E+00;  4.0016883E+04;  3.7688741E-03;  0.0000000E+00; -2.3789387E-05;  2.1319265E+03;
  1.3185596E-01;  9.9999998E-03; -1.9974632E-02;3267;  4.5743934E-03;  0.0000000E+00; -1.0336063E-05;  9.9990283E+02;  1.0000000E-01; -8.0491554E+01;3; -4.1223329E-01;  0.0000000E+00; -3.0608962E-03;0;  3.9571575E-03;  3.9980492E+04;  0.0000000E+00; -2.1089620E-03;  4.0000000E+04;  0.0000000E+00;  4.0018254E+04;  3.9681783E-03;  0.0000000E+00; -1.1021008E-05;  2.2901379E+03;
  1.3185172E-01;  9.9999998E-03; -9.9883284E-03;3268;  4.5821760E-03;  0.0000000E+00; -6.6101466E-06;  9.9991205E+02;  1.0000000E-01; -7.2886826E+01;3; -4.0788531E-01;  0.0000000E+00; -1.7463958E-03;0;  4.1006235E-03;  3.9980211E+04;  0.0000000E+00; -5.1621202E-04;  4.0000000E+04;  0.0000000E+00;  4.0019023E+04;  4.0993118E-03;  0.0000000E+00;  1.3117863E-06;  2.3944250E+03;
  1.3185015E-01;  9.9999998E-03; -3.0633768E-10;3269;  4.5847506E-03;  0.0000000E+00; -6.7773254E-10;  9.9991479E+02;  1.0000000E-01; -7.0615288E+01;3; -4.0654486E-01;  0.0000000E+00; -1.0600369E-06;0;  4.1513303E-03;  3.9980199E+04;  0.0000000E+00;  2.3207393E-12;  4.0000000E+04;  0.0000000E+00;  4.0019090E+04;  4.1450392E-03;  0.0000000E+00;  6.2911290E-06;  2.4305146E+03;
  1.3185172E-01;  9.9999998E-03;  9.9883284E-03;3270;  4.5821783E-03;  0.0000000E+00;  6.6105017E-06;  9.9991199E+02;  1.0000000E-01; -7.2936211E+01;3; -4.0789357E-01;  0.0000000E+00;  1.7437926E-03;0;  4.1006315E-03;  3.9980211E+04;  0.0000000E+00; -5.1603600E-04;  4.0000000E+04;  0.0000000E+00;  4.0019023E+04;  4.0993127E-03;  0.0000000E+00;  1.3188127E-06;  2.3944316E+03;
  1.3185596E-01;  9.9999998E-03;  1.9974632E-02;3271;  4.5743985E-03;  0.0000000E+00;  1.0335242E-05;  9.9990289E+02;  1.0000000E-01; -8.0442169E+01;3; -4.1225359E-01;  0.0000000E+00;  3.0610634E-03;0;  3.9571687E-03;  3.9980488E+04;  0.0000000E+00; -2.1088005E-03;  4.0000000E+04;  0.0000000E+00;  4.0018254E+04;  3.9681764E-03;  0.0000000E+00; -1.1007638E-05;  2.2901489E+03;
  1.3186248E-01;  9.9999998E-03;  2.9960493E-02;3272;  4.5623411E-03;  0.0000000E+00;  9.1242391E-06;  9.9988629E+02;  1.0000000E-01; -9.4219559E+01;3; -4.1830769E-01;  0.0000000E+00;  4.3126107E-03;0;  3.7451067E-03;  3.9980211E+04;  0.0000000E+00; -4.9103247E-03;  4.0000000E+04;  0.0000000E+00;  4.0016883E+04;  3.7688781E-03;  0.0000000E+00; -2.3771310E-05;  2.1319380E+03;
  1.3187122E-01;  9.9999998E-03;  3.9948072E-02;3273;  4.5475615E-03;  0.0000000E+00;  2.9005412E-06;  9.9985608E+02;  1.0000000E-01; -1.1925589E+02;3; -4.2541775E-01;  0.0000000E+00;  5.5743107E-03;0;  3.5001435E-03;  3.9979547E+04;  0.0000000E+00; -9.1458336E-03;  4.0000000E+04;  0.0000000E+00;  4.0015555E+04;  3.5281868E-03;  0.0000000E+00; -2.8043227E-05;  1.9474237E+03;
  1.3188301E-01;  9.9999998E-03;  4.9938619E-02;3274;  4.5317868E-03;  0.0000000E+00; -7.0244450E-06;  9.9981476E+02;  1.0000000E-01; -1.5347714E+02;3; -4.3235704E-01;  0.0000000E+00;  6.4649689E-03;0;  3.2639350E-03;  3.9977801E+04;  0.0000000E+00; -1.5085128E-02;  4.0000000E+04;  0.0000000E+00;  4.0014066E+04;  3.2797586E-03;  0.0000000E+00; -1.5823587E-05;  1.7764835E+03;
  1.3189888E-01;  9.9999998E-03;  5.9932157E-02;3275;  4.5167664E-03;  0.0000000E+00; -1.8571025E-05;  9.9976190E+02;  1.0000000E-01; -1.9727837E+02;3; -4.3795133E-01;  0.0000000E+00;  7.5139483E-03;0;  3.0780828E-03;  3.9974770E+04;  0.0000000E+00; -2.2902133E-02;  4.0000000E+04;  0.0000000E+00;  4.0013328E+04;  3.0608901E-03;  0.0000000E+00;  1.7192679E-05;  1.6649983E+03;
  1.4186151E-01;  9.9999998E-03; -9.9931963E-02;3320;  4.3158163E-03;  0.0000000E+00;  6.4470278E-06;  9.9953845E+02;  1.0000000E-01; -3.8235956E+02;3; -2.2966073E-01;  0.0000000E+00; -1.5496070E-02;0;  1.9626615E-03;  3.9948957E+04;  0.0000000E+00; -6.6480957E-02;  4.0000000E+04;  0.0000000E+00;  4.0018734E+04;  1.6318788E-03;  0.0000000E+00;  3.3078282E-04;  2.2981890E+03;
  1.4181834E-01;  9.9999998E-03; -8.9925796E-02;3321;  4.3279589E-03;  0.0000000E+00;  1.9079647E-05;  9.9959473E+02;  1.0000000E-01; -3.3574359E+02;3; -2.2920987E-01;  0.0000000E+00; -1.3272918E-02;0;  1.7314476E-03;  3.9955812E+04;  0.0000000E+00; -5.5441998E-02;  4.0000000E+04;  0.0000000E+00;  4.0016219E+04;  1.4386981E-03;  0.0000000E+00;  2.9274949E-04;  1.9962479E+03;
  1.4177883E-01;  9.9999998E-03; -7.9918087E-02;3322;  4.3422799E-03;  0.0000000E+00;  2.4832245E-05;  9.9965710E+02;  1.0000000E-01; -2.8409073E+02;3; -2.2818735E-01;  0.0000000E+00; -1.1093851E-02;0;  1.6202172E-03;  3.9962090E+04;  0.0000000E+00; -4.3164410E-02;  4.0000000E+04;  0.0000000E+00;  4.0014246E+04;  1.3783826E-03;  0.0000000E+00;  2.4183461E-04;  1.7564341E+03;
  1.4174619E-01;  9.9999998E-03; -6.9913849E-02;3323;  4.3589496E-03;  0.0000000E+00;  2.3319404E-05;  9.9971014E+02;  1.0000000E-01; -2.4014136E+02;3; -2.2589065E-01;  0.0000000E+00; -9.4402572E-03;0;  1.6300144E-03;  3.9967176E+04;  0.0000000E+00; -3.1745583E-02;  4.0000000E+04;  0.0000000E+00;  4.0013078E+04;  1.4384395E-03;  0.0000000E+00;  1.9157493E-04;  1.6264242E+03;
  1.4171964E-01;  9.9999998E-03; -5.9915524E-02;3324;  4.3773968E-03;  0.0000000E+00;  1.7016559E-05;  9.9975977E+02;  1.0000000E-01; -1.9900671E+02;3; -2.2379656E-01;  0.0000000E+00; -7.9859579E-03;0;  1.7478006E-03;  3.9970957E+04;  0.0000000E+00; -2.2218022E-02;  4.0000000E+04;  0.0000000E+00;  4.0012535E+04;  1.5948922E-03;  0.0000000E+00;  1.5290838E-04;  1.6173146E+03;
  1.4169762E-01;  9.9999998E-03; -4.9923632E-02;3325;  4.3967245E-03;  0.0000000E+00;  8.9989380E-06;  9.9979688E+02;  1.0000000E-01; -1.6829153E+02;3; -2.2111362E-01;  0.0000000E+00; -6.6153174E-03;0;  1.9475989E-03;  3.9973051E+04;  0.0000000E+00; -1.4805282E-02;  4.0000000E+04;  0.0000000E+00;  4.0013168E+04;  1.8155111E-03;  0.0000000E+00;  1.3208773E-04;  1.7090304E+03;
  1.4168023E-01;  9.9999998E-03; -3.9936457E-02;3326;  4.4156765E-03;  0.0000000E+00;  1.7285652E-06;  9.9982086E+02;  1.0000000E-01; -1.4839087E+02;3; -2.1790667E-01;  0.0000000E+00; -5.5714548E-03;0;  2.1935087E-03;  3.9973887E+04;  0.0000000E+00; -9.2532514E-03;  4.0000000E+04;  0.0000000E+00;  4.0014258E+04;  2.0637275E-03;  0.0000000E+00;  1.2978118E-04;  1.8623461E+03;
  1.4166765E-01;  9.9999998E-03; -2.9952168E-02;3327;  4.4327108E-03;  0.0000000E+00; -3.2082348E-06;  9.9983899E+02;  1.0000000E-01; -1.3337894E+02;3; -2.1498154E-01;  0.0000000E+00; -4.2772470E-03;0;  2.4444244E-03;  3.9973695E+04;  0.0000000E+00; -5.1817042E-03;  4.0000000E+04;  0.0000000E+00;  4.0015738E+04;  2.3029284E-03;  0.0000000E+00;  1.4149613E-04;  2.0324836E+03;
  1.4165908E-01;  9.9999998E-03; -1.9969380E-02;3328;  4.4467137E-03;  0.0000000E+00; -5.0209560E-06;  9.9984680E+02;  1.0000000E-01; -1.2690999E+02;3; -2.1105163E-01;  0.0000000E+00; -3.0686604E-03;0;  2.6596105E-03;  3.9973070E+04;  0.0000000E+00; -2.3213860E-03;  4.0000000E+04;  0.0000000E+00;  4.0017078E+04;  2.5003026E-03;  0.0000000E+00;  1.5930788E-04;  2.1800208E+03;
  1.4165357E-01;  9.9999998E-03; -9.9858530E-03;3329;  4.4566593E-03;  0.0000000E+00; -3.5660905E-06;  9.9985345E+02;  1.0000000E-01; -1.2142867E+02;3; -2.0860428E-01;  0.0000000E+00; -1.7416072E-03;0;  2.8044696E-03;  3.9972648E+04;  0.0000000E+00; -5.8606279E-04;  4.0000000E+04;  0.0000000E+00;  4.0017531E+04;  2.6299667E-03;  0.0000000E+00;  1.7450281E-04;  2.2777031E+03;
  1.4165156E-01;  9.9999998E-03; -3.3205236E-10;3330;  4.4601462E-03;  0.0000000E+00; -1.3725560E-09;  9.9985181E+02;  1.0000000E-01; -1.2276196E+02;3; -2.0784049E-01;  0.0000000E+00; -3.4887842E-06;0;  2.8555461E-03;  3.9972363E+04;  0.0000000E+00;  5.7242931E-13;  4.0000000E+04;  0.0000000E+00;  4.0017746E+04;  2.6751433E-03;  0.0000000E+00;  1.8040276E-04;  2.3115107E+03;
  1.4165357E-01;  9.9999998E-03;  9.9858521E-03;3331;  4.4566616E-03;  0.0000000E+00;  3.5625503E-06;  9.9985345E+02;  1.0000000E-01; -1.2142867E+02;3; -2.0862558E-01;  0.0000000E+00;  1.7341861E-03;0;  2.8044749E-03;  3.9972652E+04;  0.0000000E+00; -5.8593921E-04;  4.0000000E+04;  0.0000000E+00;  4.0017531E+04;  2.6299648E-03;  0.0000000E+00;  1.7451000E-04;  2.2777031E+03;
  1.4165908E-01;  9.9999998E-03;  1.9969380E-02;3332;  4.4467193E-03;  0.0000000E+00;  5.0189838E-06;  9.9984680E+02;  1.0000000E-01; -1.2690999E+02;3; -2.1106657E-01;  0.0000000E+00;  3.0619090E-03;0;  2.6596130E-03;  3.9973070E+04;  0.0000000E+00; -2.3213199E-03;  4.0000000E+04;  0.0000000E+00;  4.0017078E+04;  2.5002917E-03;  0.0000000E+00;  1.5932140E-04;  2.1800256E+03;
  1.4166765E-01;  9.9999998E-03;  2.9952168E-02;3333;  4.4327187E-03;  0.0000000E+00;  3.2063463E-06;  9.9983899E+02;  1.0000000E-01; -1.3337894E+02;3; -2.1500643E-01;  0.0000000E+00;  4.2701410E-03;0;  2.4444275E-03;  3.9973691E+04;  0.0000000E+00; -5.1815710E-03;  4.0000000E+04;  0.0000000E+00;  4.0015738E+04;  2.3029132E-03;  0.0000000E+00;  1.4151425E-04;  2.0324922E+03;
  1.4168023E-01;  9.9999998E-03;  3.9936453E-02;3334;  4.4156862E-03;  0.0000000E+00; -1.7300426E-06;  9.9982092E+02;  1.0000000E-01; -1.4834148E+02;3; -2.1793748E-01;  0.0000000E+00;  5.5658482E-03;0;  2.1935175E-03;  3.9973891E+04;  0.0000000E+00; -9.2530027E-03;  4.0000000E+04;  0.0000000E+00;  4.0014258E+04;  2.0637149E-03;  0.0000000E+00;  1.2980260E-04;  1.8623536E+03;
  1.4169762E-01;  9.9999998E-03;  4.9923632E-02;3335;  4.3967371E-03;  0.0000000E+00; -9.0002386E-06;  9.9979688E+02;  1.0000000E-01; -1.6829153E+02;3; -2.2114697E-01;  0.0000000E+00;  6.5906667E-03;0;  1.9476064E-03;  3.9973047E+04;  0.0000000E+00; -1.4804654E-02;  4.0000000E+04;  0.0000000E+00;  4.0013172E+04;  1.8154962E-03;  0.0000000E+00;  1.3211016E-04;  1.7090305E+03;
  1.4171964E-01;  9.9999998E-03;  5.9915524E-02;3336;  4.3774117E-03;  0.0000000E+00; -1.7017846E-05;  9.9975977E+02;  1.0000000E-01; -1.9900671E+02;3; -2.2382545E-01;  0.0000000E+00;  7.9633035E-03;0;  1.7478082E-03;  3.9970957E+04;  0.0000000E+00; -2.2218782E-02;  4.0000000E+04;  0.0000000E+00;  4.0012535E+04;  1.5948780E-03;  0.0000000E+00;  1.5293020E-04;  1.6173230E+03;
  1.5145245E-01;  9.9999998E-03; -9.9864826E-03;3390;  4.3174038E-03;  0.0000000E+00; -2.4282051E-06;  9.9989349E+02;  1.0000000E-01; -8.8244415E+01;3; -1.5853004E-01;  0.0000000E+00; -1.4918367E-03;0;  1.7853149E-03;  3.9975633E+04;  0.0000000E+00; -7.4017374E-04;  4.0000000E+04;  0.0000000E+00;  4.0014766E+04;  1.4389211E-03;  0.0000000E+00;  3.4639376E-04;  1.9453016E+03;
  1.5145007E-01;  9.9999998E-03; -4.0927028E-10;3391;  4.3213358E-03;  0.0000000E+00; -2.8973071E-09;  9.9989148E+02;  1.0000000E-01; -8.9923386E+01;3; -1.5807138E-01;  0.0000000E+00; -4.3132159E-06;0;  1.8364479E-03;  3.9975293E+04;  0.0000000E+00;  2.9762724E-13;  4.0000000E+04;  0.0000000E+00;  4.0014758E+04;  1.4827753E-03;  0.0000000E+00;  3.5367257E-04;  1.9748485E+03;
  1.5145245E-01;  9.9999998E-03;  9.9864826E-03;3392;  4.3174061E-03;  0.0000000E+00;  2.4238293E-06;  9.9989349E+02;  1.0000000E-01; -8.8244415E+01;3; -1.5854168E-01;  0.0000000E+00;  1.4807062E-03;0;  1.7853192E-03;  3.9975633E+04;  0.0000000E+00; -7.4013573E-04;  4.0000000E+04;  0.0000000E+00;  4.0014766E+04;  1.4389182E-03;  0.0000000E+00;  3.4640098E-04;  1.9453032E+03;
  1.5145916E-01;  9.9999998E-03; -1.9970397E-02;3389;  4.3060388E-03;  0.0000000E+00; -3.5111223E-06;  9.9989685E+02;  1.0000000E-01; -8.5479065E+01;3; -1.5996416E-01;  0.0000000E+00; -2.9475386E-03;0;  1.6399791E-03;  3.9976504E+04;  0.0000000E+00; -2.8091529E-03;  4.0000000E+04;  0.0000000E+00;  4.0014363E+04;  1.3129055E-03;  0.0000000E+00;  3.2707359E-04;  1.8596450E+03;
  1.5145916E-01;  9.9999998E-03;  1.9970395E-02;3393;  4.3060444E-03;  0.0000000E+00;  3.5062717E-06;  9.9989685E+02;  1.0000000E-01; -8.5479065E+01;3; -1.5997475E-01;  0.0000000E+00;  2.9379991E-03;0;  1.6399779E-03;  3.9976504E+04;  0.0000000E+00; -2.8086971E-03;  4.0000000E+04;  0.0000000E+00;  4.0014363E+04;  1.3128909E-03;  0.0000000E+00;  3.2708701E-04;  1.8596547E+03;
  1.5147032E-01;  9.9999998E-03; -2.9953675E-02;3388;  4.2883963E-03;  0.0000000E+00; -2.3255452E-06;  9.9989966E+02;  1.0000000E-01; -8.3108757E+01;3; -1.6197680E-01;  0.0000000E+00; -4.3445015E-03;0;  1.4230213E-03;  3.9977953E+04;  0.0000000E+00; -5.8553065E-03;  4.0000000E+04;  0.0000000E+00;  4.0013289E+04;  1.1205713E-03;  0.0000000E+00;  3.0245000E-04;  1.7300331E+03;
  1.5147032E-01;  9.9999998E-03;  2.9953673E-02;3394;  4.2884052E-03;  0.0000000E+00;  2.3207822E-06;  9.9989966E+02;  1.0000000E-01; -8.3108757E+01;3; -1.6199110E-01;  0.0000000E+00;  4.3261256E-03;0;  1.4230255E-03;  3.9977953E+04;  0.0000000E+00; -5.8551212E-03;  4.0000000E+04;  0.0000000E+00;  4.0013289E+04;  1.1205566E-03;  0.0000000E+00;  3.0246895E-04;  1.7300424E+03;
  1.5148664E-01;  9.9999998E-03; -3.9938409E-02;3387;  4.2661228E-03;  0.0000000E+00;  1.3602003E-06;  9.9989905E+02;  1.0000000E-01; -8.3651955E+01;3; -1.6431791E-01;  0.0000000E+00; -5.7605556E-03;0;  1.1679644E-03;  3.9979078E+04;  0.0000000E+00; -9.5781237E-03;  4.0000000E+04;  0.0000000E+00;  4.0012332E+04;  8.8659156E-04;  0.0000000E+00;  2.8137292E-04;  1.5818129E+03;
  1.5148664E-01;  9.9999998E-03;  3.9938409E-02;3395;  4.2661335E-03;  0.0000000E+00; -1.3636226E-06;  9.9989899E+02;  1.0000000E-01; -8.3701340E+01;3; -1.6433956E-01;  0.0000000E+00;  5.7692751E-03;0;  1.1679616E-03;  3.9979078E+04;  0.0000000E+00; -9.5770890E-03;  4.0000000E+04;  0.0000000E+00;  4.0012332E+04;  8.8656618E-04;  0.0000000E+00;  2.8139542E-04;  1.5818127E+03;
  1.5150875E-01;  9.9999998E-03; -4.9925849E-02;3386;  4.2410037E-03;  0.0000000E+00;  6.8502854E-06;  9.9989008E+02;  1.0000000E-01; -9.1059151E+01;3; -1.6722313E-01;  0.0000000E+00; -7.4169124E-03;0;  9.1431255E-04;  3.9979379E+04;  0.0000000E+00; -1.3974574E-02;  4.0000000E+04;  0.0000000E+00;  4.0011211E+04;  6.4225798E-04;  0.0000000E+00;  2.7205457E-04;  1.4525298E+03;
  1.5150875E-01;  9.9999998E-03;  4.9925849E-02;3396;  4.2410162E-03;  0.0000000E+00; -6.8536669E-06;  9.9989001E+02;  1.0000000E-01; -9.1108536E+01;3; -1.6725326E-01;  0.0000000E+00;  7.4170092E-03;0;  9.1430626E-04;  3.9979379E+04;  0.0000000E+00; -1.3973381E-02;  4.0000000E+04;  0.0000000E+00;  4.0011211E+04;  6.4222829E-04;  0.0000000E+00;  2.7207800E-04;  1.4525312E+03;
  1.5153693E-01;  9.9999998E-03; -5.9916645E-02;3385;  4.2149071E-03;  0.0000000E+00;  1.2777395E-05;  9.9987079E+02;  1.0000000E-01; -1.0705870E+02;3; -1.7036091E-01;  0.0000000E+00; -8.9384597E-03;0;  7.0212438E-04;  3.9978609E+04;  0.0000000E+00; -1.9431552E-02;  4.0000000E+04;  0.0000000E+00;  4.0010910E+04;  4.2262152E-04;  0.0000000E+00;  2.7950286E-04;  1.3845396E+03;
  1.5153693E-01;  9.9999998E-03;  5.9916645E-02;3397;  4.2149229E-03;  0.0000000E+00; -1.2781254E-05;  9.9987079E+02;  1.0000000E-01; -1.0705870E+02;3; -1.7037548E-01;  0.0000000E+00;  8.9261448E-03;0;  7.0211524E-04;  3.9978605E+04;  0.0000000E+00; -1.9430956E-02;  4.0000000E+04;  0.0000000E+00;  4.0010910E+04;  4.2258925E-04;  0.0000000E+00;  2.7952602E-04;  1.3845414E+03;
  1.5157093E-01;  9.9999998E-03; -6.9911554E-02;3384;  4.1897614E-03;  0.0000000E+00;  1.6679234E-05;  9.9984442E+02;  1.0000000E-01; -1.2888524E+02;3; -1.7315635E-01;  0.0000000E+00; -1.0521045E-02;0;  5.6678703E-04;  3.9976602E+04;  0.0000000E+00; -2.6593583E-02;  4.0000000E+04;  0.0000000E+00;  4.0011332E+04;  2.6292619E-04;  0.0000000E+00;  3.0386084E-04;  1.4134910E+03;
  1.5161069E-01;  9.9999998E-03; -7.9911083E-02;3383;  4.1672350E-03;  0.0000000E+00;  1.5478370E-05;  9.9981342E+02;  1.0000000E-01; -1.5456352E+02;3; -1.7580728E-01;  0.0000000E+00; -1.2155613E-02;0;  5.3471402E-04;  3.9973090E+04;  0.0000000E+00; -3.6017045E-02;  4.0000000E+04;  0.0000000E+00;  4.0013203E+04;  1.9468760E-04;  0.0000000E+00;  3.4002642E-04;  1.5558845E+03;
  1.5165554E-01;  9.9999998E-03; -8.9914300E-02;3382;  4.1488591E-03;  0.0000000E+00;  6.2168515E-06;  9.9977698E+02;  1.0000000E-01; -1.8478490E+02;3; -1.7827447E-01;  0.0000000E+00; -1.4188319E-02;0;  6.2032213E-04;  3.9968137E+04;  0.0000000E+00; -4.7712263E-02;  4.0000000E+04;  0.0000000E+00;  4.0015191E+04;  2.4181677E-04;  0.0000000E+00;  3.7850536E-04;  1.7986226E+03;
  1.5170479E-01;  9.9999998E-03; -9.9919617E-02;3381;  4.1356417E-03;  0.0000000E+00; -1.1616004E-05;  9.9974170E+02;  1.0000000E-01; -2.1401863E+02;3; -1.8033880E-01;  0.0000000E+00; -1.7396627E-02;0;  8.2442409E-04;  3.9963418E+04;  0.0000000E+00; -6.0653672E-02;  4.0000000E+04;  0.0000000E+00;  4.0017750E+04;  4.1700245E-04;  0.0000000E+00;  4.0742167E-04;  2.0953247E+03;
  1.6161330E-01;  9.9999998E-03; -9.9947520E-02;3442;  3.9536352E-03;  0.0000000E+00; -2.5197021E-05;  9.9999933E+02;  1.0000000E-01; -5.4319453E-01;3; -1.7764121E-01;  0.0000000E+00; -1.8594548E-02;0;  8.8568981E-05;  3.9984340E+04;  0.0000000E+00; -4.7932547E-02;  4.0000000E+04;  0.0000000E+00;  4.0014957E+04; -3.8676002E-04;  0.0000000E+00;  4.7532900E-04;  1.7120397E+03;
  1.6156459E-01;  9.9999998E-03; -8.9945585E-02;3443;  3.9685802E-03;  0.0000000E+00; -5.7673606E-06;  1.0000131E+03;  1.0000000E-01;  1.0863891E+01;3; -1.7555811E-01;  0.0000000E+00; -1.6474232E-02;0; -8.6295069E-05;  3.9987625E+04;  0.0000000E+00; -3.5939686E-02;  4.0000000E+04;  0.0000000E+00;  4.0012605E+04; -5.3997512E-04;  0.0000000E+00;  4.5368006E-04;  1.4299277E+03;
  1.6151750E-01;  9.9999998E-03; -7.9944395E-02;3444;  3.9907433E-03;  0.0000000E+00;  4.5672259E-06;  1.0000239E+03;  1.0000000E-01;  1.9752527E+01;3; -1.7296076E-01;  0.0000000E+00; -1.4731680E-02;0; -1.4520285E-04;  3.9990059E+04;  0.0000000E+00; -2.7627340E-02;  4.0000000E+04;  0.0000000E+00;  4.0010340E+04; -5.7168549E-04;  0.0000000E+00;  4.2648264E-04;  1.1910436E+03;
  1.6147546E-01;  9.9999998E-03; -6.9945626E-02;3445;  4.0180036E-03;  0.0000000E+00;  6.9883822E-06;  1.0000292E+03;  1.0000000E-01;  2.4196846E+01;3; -1.7009553E-01;  0.0000000E+00; -1.3292605E-02;0; -9.1192807E-05;  3.9991562E+04;  0.0000000E+00; -2.2334021E-02;  4.0000000E+04;  0.0000000E+00;  4.0008664E+04; -4.9521762E-04;  0.0000000E+00;  4.0402482E-04;  1.0401149E+03;
  1.6144006E-01;  9.9999998E-03; -5.9949625E-02;3446;  4.0485216E-03;  0.0000000E+00;  4.4271465E-06;  1.0000361E+03;  1.0000000E-01;  2.9925079E+01;3; -1.6711733E-01;  0.0000000E+00; -1.1779758E-02;0;  6.0311839E-05;  3.9992199E+04;  0.0000000E+00; -1.8747326E-02;  4.0000000E+04;  0.0000000E+00;  4.0007910E+04; -3.3402687E-04;  0.0000000E+00;  3.9433871E-04;  9.9222473E+02;
  1.6141188E-01;  9.9999998E-03; -4.9955919E-02;3447;  4.0801978E-03;  0.0000000E+00; -7.7857862E-08;  1.0000325E+03;  1.0000000E-01;  2.6962200E+01;3; -1.6406900E-01;  0.0000000E+00; -1.0051153E-02;0;  2.8293408E-04;  3.9991430E+04;  0.0000000E+00; -1.5563586E-02;  4.0000000E+04;  0.0000000E+00;  4.0008180E+04; -1.1836051E-04;  0.0000000E+00;  4.0129459E-04;  1.0350769E+03;
  1.6138992E-01;  9.9999998E-03; -3.9964192E-02;3448;  4.1109547E-03;  0.0000000E+00; -4.0320219E-06;  1.0000239E+03;  1.0000000E-01;  1.9851290E+01;3; -1.6105191E-01;  0.0000000E+00; -8.0747604E-03;0;  5.4222590E-04;  3.9989719E+04;  0.0000000E+00; -1.1985444E-02;  4.0000000E+04;  0.0000000E+00;  4.0008629E+04;  1.1846476E-04;  0.0000000E+00;  4.2376111E-04;  1.1370258E+03;
  1.6137367E-01;  9.9999998E-03; -2.9974289E-02;3449;  4.1384781E-03;  0.0000000E+00; -6.0543789E-06;  1.0000099E+03;  1.0000000E-01;  8.1972990E+00;3; -1.5842354E-01;  0.0000000E+00; -6.3049761E-03;0;  7.9953205E-04;  3.9987793E+04;  0.0000000E+00; -7.9379138E-03;  4.0000000E+04;  0.0000000E+00;  4.0009453E+04;  3.4355320E-04;  0.0000000E+00;  4.5597888E-04;  1.2587632E+03;
  1.6136199E-01;  9.9999998E-03; -1.9985100E-02;3450;  4.1607572E-03;  0.0000000E+00; -5.5920227E-06;  9.9999976E+02;  1.0000000E-01; -1.9752528E-01;3; -1.5593538E-01;  0.0000000E+00; -4.1254265E-03;0;  1.0168275E-03;  3.9985980E+04;  0.0000000E+00; -3.9985594E-03;  4.0000000E+04;  0.0000000E+00;  4.0010363E+04;  5.2771694E-04;  0.0000000E+00;  4.8911059E-04;  1.3654818E+03;
  1.6135460E-01;  9.9999998E-03; -9.9945478E-03;3451;  4.1755340E-03;  0.0000000E+00; -3.2295761E-06;  9.9999097E+02;  1.0000000E-01; -7.5059605E+00;3; -1.5388477E-01;  0.0000000E+00; -1.9914983E-03;0;  1.1618370E-03;  3.9984711E+04;  0.0000000E+00; -1.0810759E-03;  4.0000000E+04;  0.0000000E+00;  4.0011020E+04;  6.4804830E-04;  0.0000000E+00;  5.1378866E-04;  1.4350339E+03;
  1.6135180E-01;  9.9999998E-03; -4.3946383E-10;3452;  4.1806968E-03;  0.0000000E+00; -3.8023305E-09;  9.9998779E+02;  1.0000000E-01; -1.0123171E+01;3; -1.5228969E-01;  0.0000000E+00; -1.0361617E-05;0;  1.2127741E-03;  3.9984164E+04;  0.0000000E+00; -1.6418465E-12;  4.0000000E+04;  0.0000000E+00;  4.0011098E+04;  6.8987312E-04;  0.0000000E+00;  5.2290090E-04;  1.4586609E+03;
  1.6135460E-01;  9.9999998E-03;  9.9945469E-03;3453;  4.1755373E-03;  0.0000000E+00;  3.2215337E-06;  9.9999091E+02;  1.0000000E-01; -7.5553417E+00;3; -1.5389699E-01;  0.0000000E+00;  1.9632294E-03;0;  1.1618347E-03;  3.9984715E+04;  0.0000000E+00; -1.0811308E-03;  4.0000000E+04;  0.0000000E+00;  4.0011020E+04;  6.4803869E-04;  0.0000000E+00;  5.1379600E-04;  1.4350370E+03;
  1.6136199E-01;  9.9999998E-03;  1.9985100E-02;3454;  4.1607632E-03;  0.0000000E+00;  5.5847950E-06;  9.9999976E+02;  1.0000000E-01; -1.9752528E-01;3; -1.5594317E-01;  0.0000000E+00;  4.0975204E-03;0;  1.0168192E-03;  3.9985980E+04;  0.0000000E+00; -3.9984565E-03;  4.0000000E+04;  0.0000000E+00;  4.0010363E+04;  5.2769453E-04;  0.0000000E+00;  4.8912462E-04;  1.3654904E+03;
  1.6137367E-01;  9.9999998E-03;  2.9974289E-02;3455;  4.1384869E-03;  0.0000000E+00;  6.0479697E-06;  1.0000099E+03;  1.0000000E-01;  8.1972990E+00;3; -1.5843837E-01;  0.0000000E+00;  6.2897829E-03;0;  7.9951819E-04;  3.9987789E+04;  0.0000000E+00; -7.9381485E-03;  4.0000000E+04;  0.0000000E+00;  4.0009453E+04;  3.4351987E-04;  0.0000000E+00;  4.5599829E-04;  1.2587704E+03;
  1.6138992E-01;  9.9999998E-03;  3.9964192E-02;3456;  4.1109654E-03;  0.0000000E+00;  4.0248519E-06;  1.0000239E+03;  1.0000000E-01;  1.9851290E+01;3; -1.6106513E-01;  0.0000000E+00;  8.0528772E-03;0;  5.4220867E-04;  3.9989719E+04;  0.0000000E+00; -1.1984386E-02;  4.0000000E+04;  0.0000000E+00;  4.0008629E+04;  1.1842461E-04;  0.0000000E+00;  4.2378408E-04;  1.1370226E+03;
  1.6141188E-01;  9.9999998E-03;  4.9955916E-02;3457;  4.0802113E-03;  0.0000000E+00;  7.1855602E-08;  1.0000325E+03;  1.0000000E-01;  2.6962200E+01;3; -1.6408475E-01;  0.0000000E+00;  1.0046025E-02;0;  2.8291097E-04;  3.9991430E+04;  0.0000000E+00; -1.5563844E-02;  4.0000000E+04;  0.0000000E+00;  4.0008180E+04; -1.1840800E-04;  0.0000000E+00;  4.0131898E-04;  1.0350834E+03;
  1.6144006E-01;  9.9999998E-03;  5.9949625E-02;3458;  4.0485361E-03;  0.0000000E+00; -4.4332623E-06;  1.0000361E+03;  1.0000000E-01;  2.9925079E+01;3; -1.6713843E-01;  0.0000000E+00;  1.1769068E-02;0;  6.0280116E-05;  3.9992199E+04;  0.0000000E+00; -1.8745789E-02;  4.0000000E+04;  0.0000000E+00;  4.0007914E+04; -3.3408342E-04;  0.0000000E+00;  3.9436354E-04;  9.9222906E+02;
  1.7153633E-01;  9.9999998E-03; -1.0001402E-01;3503;  3.7843664E-03;  0.0000000E+00; -3.6918027E-05;  1.0002126E+03;  1.0000000E-01;  1.7609378E+02;3; -1.7760189E-01;  0.0000000E+00; -1.9927327E-02;0; -1.4825276E-04;  4.0003902E+04;  0.0000000E+00; -3.6003884E-02;  4.0000000E+04;  0.0000000E+00;  4.0010887E+04; -6.7687244E-04;  0.0000000E+00;  5.2861968E-04;  1.1879073E+03;
  1.7147978E-01;  9.9999998E-03; -9.0013079E-02;3504;  3.8017777E-03;  0.0000000E+00; -2.0947742E-05;  1.0002054E+03;  1.0000000E-01;  1.7016803E+02;3; -1.7530775E-01;  0.0000000E+00; -1.8519264E-02;0; -2.9157038E-04;  4.0005008E+04;  0.0000000E+00; -2.7504029E-02;  4.0000000E+04;  0.0000000E+00;  4.0008340E+04; -8.0447481E-04;  0.0000000E+00;  5.1290443E-04;  9.2741382E+02;
  1.7142981E-01;  9.9999998E-03; -8.0011487E-02;3505;  3.8280464E-03;  0.0000000E+00; -1.3263920E-05;  1.0002007E+03;  1.0000000E-01;  1.6631628E+02;3; -1.7302233E-01;  0.0000000E+00; -1.7240742E-02;0; -3.2301462E-04;  4.0005996E+04;  0.0000000E+00; -2.4177417E-02;  4.0000000E+04;  0.0000000E+00;  4.0006301E+04; -8.1909448E-04;  0.0000000E+00;  4.9607985E-04;  6.9926135E+02;
  1.7138936E-01;  9.9999998E-03; -7.0009567E-02;3506;  3.8602548E-03;  0.0000000E+00; -1.2276504E-05;  1.0001870E+03;  1.0000000E-01;  1.5495859E+02;3; -1.7062752E-01;  0.0000000E+00; -1.6118899E-02;0; -2.4756993E-04;  4.0005996E+04;  0.0000000E+00; -2.3545358E-02;  4.0000000E+04;  0.0000000E+00;  4.0004859E+04; -7.3438109E-04;  0.0000000E+00;  4.8681116E-04;  5.4509180E+02;
  1.7136148E-01;  9.9999998E-03; -6.0007416E-02;3507;  3.8953938E-03;  0.0000000E+00; -1.5569753E-05;  1.0001747E+03;  1.0000000E-01;  1.4468727E+02;3; -1.6799077E-01;  0.0000000E+00; -1.5106221E-02;0; -8.1284030E-05;  4.0005305E+04;  0.0000000E+00; -2.3149116E-02;  4.0000000E+04;  0.0000000E+00;  4.0003977E+04; -5.7298993E-04;  0.0000000E+00;  4.9170590E-04;  4.8178043E+02;
  1.7135213E-01;  9.9999998E-03; -5.0006021E-02;3508;  3.9310991E-03;  0.0000000E+00; -2.0178883E-05;  1.0001601E+03;  1.0000000E-01;  1.3263823E+02;3; -1.6528268E-01;  0.0000000E+00; -1.4384019E-02;0;  1.4997105E-04;  4.0003730E+04;  0.0000000E+00; -2.1262201E-02;  4.0000000E+04;  0.0000000E+00;  4.0004234E+04; -3.6351400E-04;  0.0000000E+00;  5.1348505E-04;  5.0136746E+02;
  1.7136450E-01;  9.9999998E-03; -4.0007241E-02;3509;  3.9653247E-03;  0.0000000E+00; -2.3238978E-05;  1.0001414E+03;  1.0000000E-01;  1.1713249E+02;3; -1.6255054E-01;  0.0000000E+00; -1.3493226E-02;0;  4.1300803E-04;  4.0001586E+04;  0.0000000E+00; -1.7288582E-02;  4.0000000E+04;  0.0000000E+00;  4.0004387E+04; -1.3710053E-04;  0.0000000E+00;  5.5010855E-04;  5.7656622E+02;
  1.7138954E-01;  9.9999998E-03; -3.0010633E-02;3510;  3.9962134E-03;  0.0000000E+00; -2.2547647E-05;  1.0001237E+03;  1.0000000E-01;  1.0241685E+02;3; -1.6002814E-01;  0.0000000E+00; -1.1786680E-02;0;  6.7086279E-04;  3.9999418E+04;  0.0000000E+00; -1.1745669E-02;  4.0000000E+04;  0.0000000E+00;  4.0005145E+04;  7.5941323E-05;  0.0000000E+00;  5.9492147E-04;  6.7129169E+02;
  1.7141032E-01;  9.9999998E-03; -2.0013217E-02;3511;  4.0219817E-03;  0.0000000E+00; -1.6894579E-05;  1.0001030E+03;  1.0000000E-01;  8.5330917E+01;3; -1.5798438E-01;  0.0000000E+00; -8.8735214E-03;0;  8.8715134E-04;  3.9997238E+04;  0.0000000E+00; -5.9759836E-03;  4.0000000E+04;  0.0000000E+00;  4.0005375E+04;  2.4906319E-04;  0.0000000E+00;  6.3808815E-04;  7.5383057E+02;
  1.7141527E-01;  9.9999998E-03; -1.0011536E-02;3512;  4.0392950E-03;  0.0000000E+00; -8.6078453E-06;  1.0000897E+03;  1.0000000E-01;  7.4368271E+01;3; -1.5564494E-01;  0.0000000E+00; -4.1210740E-03;0;  1.0309282E-03;  3.9995766E+04;  0.0000000E+00; -1.6205434E-03;  4.0000000E+04;  0.0000000E+00;  4.0006113E+04;  3.6171879E-04;  0.0000000E+00;  6.6920946E-04;  8.0606842E+02;
  1.7141569E-01;  9.9999998E-03; -3.4766540E-10;3513;  4.0451768E-03;  0.0000000E+00; -5.3260751E-09;  1.0000837E+03;  1.0000000E-01;  6.9331375E+01;3; -1.5502560E-01;  0.0000000E+00; -1.2630911E-05;0;  1.0813747E-03;  3.9995266E+04;  0.0000000E+00;  1.2279145E-13;  4.0000000E+04;  0.0000000E+00;  4.0006242E+04;  4.0080777E-04;  0.0000000E+00;  6.8056694E-04;  8.2318237E+02;
  1.7141527E-01;  9.9999998E-03;  1.0011535E-02;3514;  4.0392983E-03;  0.0000000E+00;  8.5969059E-06;  1.0000898E+03;  1.0000000E-01;  7.4368271E+01;3; -1.5565762E-01;  0.0000000E+00;  4.0911334E-03;0;  1.0309198E-03;  3.9995770E+04;  0.0000000E+00; -1.6205906E-03;  4.0000000E+04;  0.0000000E+00;  4.0006113E+04;  3.6170229E-04;  0.0000000E+00;  6.6921749E-04;  8.0606653E+02;
  1.7141032E-01;  9.9999998E-03;  2.0013215E-02;3515;  4.0219873E-03;  0.0000000E+00;  1.6883791E-05;  1.0001031E+03;  1.0000000E-01;  8.5429680E+01;3; -1.5799020E-01;  0.0000000E+00;  8.8422848E-03;0;  8.8713598E-04;  3.9997238E+04;  0.0000000E+00; -5.9760008E-03;  4.0000000E+04;  0.0000000E+00;  4.0005375E+04;  2.4903272E-04;  0.0000000E+00;  6.3810329E-04;  7.5383411E+02;
  1.7138954E-01;  9.9999998E-03;  3.0010633E-02;3516;  3.9962218E-03;  0.0000000E+00;  2.2538090E-05;  1.0001237E+03;  1.0000000E-01;  1.0251562E+02;3; -1.6004053E-01;  0.0000000E+00;  1.1763374E-02;0;  6.7083695E-04;  3.9999414E+04;  0.0000000E+00; -1.1746334E-02;  4.0000000E+04;  0.0000000E+00;  4.0005145E+04;  7.5895703E-05;  0.0000000E+00;  5.9494126E-04;  6.7129352E+02;
  1.7136450E-01;  9.9999998E-03;  4.0007241E-02;3517;  3.9653354E-03;  0.0000000E+00;  2.3231030E-05;  1.0001412E+03;  1.0000000E-01;  1.1693497E+02;3; -1.6257297E-01;  0.0000000E+00;  1.3476249E-02;0;  4.1297456E-04;  4.0001578E+04;  0.0000000E+00; -1.7288521E-02;  4.0000000E+04;  0.0000000E+00;  4.0004387E+04; -1.3715833E-04;  0.0000000E+00;  5.5013289E-04;  5.7656970E+02;
  1.7135213E-01;  9.9999998E-03;  5.0006021E-02;3518;  3.9311117E-03;  0.0000000E+00;  2.0172092E-05;  1.0001600E+03;  1.0000000E-01;  1.3253946E+02;3; -1.6529740E-01;  0.0000000E+00;  1.4379155E-02;0;  1.4992556E-04;  4.0003727E+04;  0.0000000E+00; -2.1264333E-02;  4.0000000E+04;  0.0000000E+00;  4.0004234E+04; -3.6358557E-04;  0.0000000E+00;  5.1351113E-04;  5.0136975E+02;
  1.7136148E-01;  9.9999998E-03;  6.0007416E-02;3519;  3.8954082E-03;  0.0000000E+00;  1.5562890E-05;  1.0001747E+03;  1.0000000E-01;  1.4468727E+02;3; -1.6799594E-01;  0.0000000E+00;  1.5099819E-02;0; -8.1339851E-05;  4.0005297E+04;  0.0000000E+00; -2.3145564E-02;  4.0000000E+04;  0.0000000E+00;  4.0003980E+04; -5.7307159E-04;  0.0000000E+00;  4.9173174E-04;  4.8178629E+02;
  1.8144099E-01;  9.9999998E-03; -1.0006664E-01;3564;  3.6443614E-03;  0.0000000E+00; -5.1354287E-05;  1.0003119E+03;  1.0000000E-01;  2.5836307E+02;3; -1.7715994E-01;  0.0000000E+00; -2.1769267E-02;0;  1.3036586E-04;  4.0015293E+04;  0.0000000E+00; -2.7254986E-02;  4.0000000E+04;  0.0000000E+00;  4.0005164E+04; -4.3086012E-04;  0.0000000E+00;  5.6122598E-04;  5.6185907E+02;
  1.8140292E-01;  9.9999998E-03; -9.0065658E-02;3565;  3.6632216E-03;  0.0000000E+00; -4.1027994E-05;  1.0002921E+03;  1.0000000E-01;  2.4196846E+02;3; -1.7474656E-01;  0.0000000E+00; -2.0725284E-02;0;  2.1857384E-05;  4.0015492E+04;  0.0000000E+00; -2.3823889E-02;  4.0000000E+04;  0.0000000E+00;  4.0003484E+04; -5.2919768E-04;  0.0000000E+00;  5.5105507E-04;  3.3110196E+02;
  1.8138552E-01;  9.9999998E-03; -8.0063373E-02;3566;  3.6927257E-03;  0.0000000E+00; -3.7915604E-05;  1.0002728E+03;  1.0000000E-01;  2.2596892E+02;3; -1.7246822E-01;  0.0000000E+00; -1.9684879E-02;0;  2.0441250E-05;  4.0015551E+04;  0.0000000E+00; -2.5775310E-02;  4.0000000E+04;  0.0000000E+00;  4.0001449E+04; -5.2376423E-04;  0.0000000E+00;  5.4420548E-04;  1.2651499E+02;
  1.8138923E-01;  9.9999998E-03; -7.0058823E-02;3567;  3.7290105E-03;  0.0000000E+00; -4.0270177E-05;  1.0002611E+03;  1.0000000E-01;  2.1629018E+02;3; -1.7020142E-01;  0.0000000E+00; -1.8806923E-02;0;  1.1899395E-04;  4.0015129E+04;  0.0000000E+00; -2.9126663E-02;  4.0000000E+04;  0.0000000E+00;  4.0000047E+04; -4.2875015E-04;  0.0000000E+00;  5.4774410E-04;  5.0248604E+01;
  1.8140842E-01;  9.9999998E-03; -6.0051933E-02;3568;  3.7683460E-03;  0.0000000E+00; -4.5566143E-05;  1.0002401E+03;  1.0000000E-01;  1.9890796E+02;3; -1.6784169E-01;  0.0000000E+00; -1.7980728E-02;0;  3.0050709E-04;  4.0014078E+04;  0.0000000E+00; -3.0722329E-02;  4.0000000E+04;  0.0000000E+00;  3.9999137E+04; -2.6632045E-04;  0.0000000E+00;  5.6682754E-04;  1.0689282E+02;
  1.8143962E-01;  9.9999998E-03; -5.0044805E-02;3569;  3.8076455E-03;  0.0000000E+00; -5.1259849E-05;  1.0002262E+03;  1.0000000E-01;  1.8735272E+02;3; -1.6547334E-01;  0.0000000E+00; -1.7441802E-02;0;  5.3962757E-04;  4.0012492E+04;  0.0000000E+00; -2.8850464E-02;  4.0000000E+04;  0.0000000E+00;  3.9999277E+04; -6.3304135E-05;  0.0000000E+00;  6.0293172E-04;  1.0076978E+02;
  1.8147822E-01;  9.9999998E-03; -4.0040653E-02;3570;  3.8444076E-03;  0.0000000E+00; -5.4845674E-05;  1.0002061E+03;  1.0000000E-01;  1.7076060E+02;3; -1.6308269E-01;  0.0000000E+00; -1.6482826E-02;0;  8.0474198E-04;  4.0010547E+04;  0.0000000E+00; -2.3431683E-02;  4.0000000E+04;  0.0000000E+00;  3.9999555E+04;  1.5175043E-04;  0.0000000E+00;  6.5299158E-04;  4.7843513E+01;
  1.8152039E-01;  9.9999998E-03; -3.0041330E-02;3571;  3.8767380E-03;  0.0000000E+00; -5.3819553E-05;  1.0001877E+03;  1.0000000E-01;  1.5555116E+02;3; -1.6098057E-01;  0.0000000E+00; -1.4970988E-02;0;  1.0612593E-03;  4.0008512E+04;  0.0000000E+00; -1.5769783E-02;  4.0000000E+04;  0.0000000E+00;  4.0000160E+04;  3.5164703E-04;  0.0000000E+00;  7.0961227E-04;  4.8608803E+01;
  1.8155497E-01;  9.9999998E-03; -2.0041367E-02;3572;  3.9029061E-03;  0.0000000E+00; -4.6299869E-05;  1.0001699E+03;  1.0000000E-01;  1.4073676E+02;3; -1.5897392E-01;  0.0000000E+00; -1.3005510E-02;0;  1.2749929E-03;  4.0006629E+04;  0.0000000E+00; -7.9476349E-03;  4.0000000E+04;  0.0000000E+00;  4.0000773E+04;  5.1268126E-04;  0.0000000E+00;  7.6231168E-04;  1.0889648E+02;
  1.8157712E-01;  9.9999998E-03; -1.0030395E-02;3573;  3.9202007E-03;  0.0000000E+00; -3.0131247E-05;  1.0001539E+03;  1.0000000E-01;  1.2750256E+02;3; -1.5883788E-01;  0.0000000E+00; -8.8727996E-03;0;  1.4168801E-03;  4.0005285E+04;  0.0000000E+00; -2.1434550E-03;  4.0000000E+04;  0.0000000E+00;  4.0000945E+04;  6.1694556E-04;  0.0000000E+00;  7.9993450E-04;  1.4677046E+02;
  1.8158701E-01;  9.9999998E-03; -3.0900074E-10;3574;  3.9256793E-03;  0.0000000E+00; -8.5920231E-09;  1.0001508E+03;  1.0000000E-01;  1.2493474E+02;3; -1.5921870E-01;  0.0000000E+00; -1.2143710E-05;0;  1.4668372E-03;  4.0004789E+04;  0.0000000E+00; -8.5660813E-13;  4.0000000E+04;  0.0000000E+00;  4.0001320E+04;  6.5317028E-04;  0.0000000E+00;  8.1366691E-04;  1.5820822E+02;
  1.8157712E-01;  9.9999998E-03;  1.0030395E-02;3575;  3.9202040E-03;  0.0000000E+00;  3.0116127E-05;  1.0001539E+03;  1.0000000E-01;  1.2750256E+02;3; -1.5883824E-01;  0.0000000E+00;  8.8456497E-03;0;  1.4168700E-03;  4.0005285E+04;  0.0000000E+00; -2.1436752E-03;  4.0000000E+04;  0.0000000E+00;  4.0000945E+04;  6.1692711E-04;  0.0000000E+00;  7.9994294E-04;  1.4677133E+02;
  1.8155496E-01;  9.9999998E-03;  2.0041367E-02;3576;  3.9029114E-03;  0.0000000E+00;  4.6286626E-05;  1.0001699E+03;  1.0000000E-01;  1.4073676E+02;3; -1.5897788E-01;  0.0000000E+00;  1.2977799E-02;0;  1.2749669E-03;  4.0006629E+04;  0.0000000E+00; -7.9479581E-03;  4.0000000E+04;  0.0000000E+00;  4.0000773E+04;  5.1264028E-04;  0.0000000E+00;  7.6232664E-04;  1.0889524E+02;
  1.8152039E-01;  9.9999998E-03;  3.0041330E-02;3577;  3.8767457E-03;  0.0000000E+00;  5.3807784E-05;  1.0001877E+03;  1.0000000E-01;  1.5545239E+02;3; -1.6098316E-01;  0.0000000E+00;  1.4945750E-02;0;  1.0612217E-03;  4.0008516E+04;  0.0000000E+00; -1.5770460E-02;  4.0000000E+04;  0.0000000E+00;  4.0000160E+04;  3.5158719E-04;  0.0000000E+00;  7.0963451E-04;  4.8615841E+01;
  1.8147822E-01;  9.9999998E-03;  4.0040653E-02;3578;  3.8444174E-03;  0.0000000E+00;  5.4835076E-05;  1.0002061E+03;  1.0000000E-01;  1.7076060E+02;3; -1.6308732E-01;  0.0000000E+00;  1.6467119E-02;0;  8.0468680E-04;  4.0010547E+04;  0.0000000E+00; -2.3431642E-02;  4.0000000E+04;  0.0000000E+00;  3.9999555E+04;  1.5166975E-04;  0.0000000E+00;  6.5301702E-04;  4.7840885E+01;
  1.8143962E-01;  9.9999998E-03;  5.0044805E-02;3579;  3.8076579E-03;  0.0000000E+00;  5.1250659E-05;  1.0002262E+03;  1.0000000E-01;  1.8735272E+02;3; -1.6547984E-01;  0.0000000E+00;  1.7440030E-02;0;  5.3955958E-04;  4.0012488E+04;  0.0000000E+00; -2.8851340E-02;  4.0000000E+04;  0.0000000E+00;  3.9999277E+04; -6.3399828E-05;  0.0000000E+00;  6.0295942E-04;  1.0076458E+02;
  1.8140842E-01;  9.9999998E-03;  6.0051933E-02;3580;  3.7683598E-03;  0.0000000E+00;  4.5557081E-05;  1.0002402E+03;  1.0000000E-01;  1.9900671E+02;3; -1.6784585E-01;  0.0000000E+00;  1.7981634E-02;0;  3.0042129E-04;  4.0014078E+04;  0.0000000E+00; -3.0723413E-02;  4.0000000E+04;  0.0000000E+00;  3.9999137E+04; -2.6643332E-04;  0.0000000E+00;  5.6685461E-04;  1.0689304E+02;
  1.9139315E-01;  9.9999998E-03; -1.0009280E-01;3625;  3.5434251E-03;  0.0000000E+00; -7.3529591E-05;  1.0002656E+03;  1.0000000E-01;  2.2004315E+02;3; -1.7613402E-01;  0.0000000E+00; -2.4378251E-02;0;  8.4962894E-04;  4.0016328E+04;  0.0000000E+00; -1.6353618E-02;  4.0000000E+04;  0.0000000E+00;  3.9999445E+04;  2.8184388E-04;  0.0000000E+00;  5.6778506E-04;  1.0432409E+02;
  1.9139938E-01;  9.9999998E-03; -9.0089776E-02;3626;  3.5624376E-03;  0.0000000E+00; -6.8749403E-05;  1.0002499E+03;  1.0000000E-01;  2.0700648E+02;3; -1.7409150E-01;  0.0000000E+00; -2.3167264E-02;0;  7.8206864E-04;  4.0016418E+04;  0.0000000E+00; -1.8864941E-02;  4.0000000E+04;  0.0000000E+00;  3.9998086E+04;  2.1866702E-04;  0.0000000E+00;  5.6340161E-04;  2.9826562E+02;
  1.9142243E-01;  9.9999998E-03; -8.0086075E-02;3627;  3.5946644E-03;  0.0000000E+00; -6.9820555E-05;  1.0002382E+03;  1.0000000E-01;  1.9732776E+02;3; -1.7167674E-01;  0.0000000E+00; -2.2123227E-02;0;  8.1340497E-04;  4.0016816E+04;  0.0000000E+00; -2.5545947E-02;  4.0000000E+04;  0.0000000E+00;  3.9996410E+04;  2.4725974E-04;  0.0000000E+00;  5.6614523E-04;  4.7651303E+02;
  1.9145431E-01;  9.9999998E-03; -7.0080817E-02;3628;  3.6356719E-03;  0.0000000E+00; -7.5003452E-05;  1.0002281E+03;  1.0000000E-01;  1.8893292E+02;3; -1.6930130E-01;  0.0000000E+00; -2.1242056E-02;0;  9.3344308E-04;  4.0016836E+04;  0.0000000E+00; -3.1735417E-02;  4.0000000E+04;  0.0000000E+00;  3.9995172E+04;  3.5205323E-04;  0.0000000E+00;  5.8138988E-04;  6.0495880E+02;
  1.9148794E-01;  9.9999998E-03; -6.0072955E-02;3629;  3.6803910E-03;  0.0000000E+00; -8.2338040E-05;  1.0002216E+03;  1.0000000E-01;  1.8359975E+02;3; -1.6696395E-01;  0.0000000E+00; -2.0755304E-02;0;  1.1245396E-03;  4.0016453E+04;  0.0000000E+00; -3.4372579E-02;  4.0000000E+04;  0.0000000E+00;  3.9994500E+04;  5.1170844E-04;  0.0000000E+00;  6.1283115E-04;  6.6504053E+02;
  1.9152017E-01;  9.9999998E-03; -5.0064325E-02;3630;  3.7246600E-03;  0.0000000E+00; -8.9075023E-05;  1.0002143E+03;  1.0000000E-01;  1.7757523E+02;3; -1.6467535E-01;  0.0000000E+00; -2.0096293E-02;0;  1.3628611E-03;  4.0015758E+04;  0.0000000E+00; -3.2266777E-02;  4.0000000E+04;  0.0000000E+00;  3.9994891E+04;  7.0199207E-04;  0.0000000E+00;  6.6086912E-04;  6.5698859E+02;
  1.9155148E-01;  9.9999998E-03; -4.0056948E-02;3631;  3.7653532E-03;  0.0000000E+00; -9.2422073E-05;  1.0002040E+03;  1.0000000E-01;  1.6908163E+02;3; -1.6262108E-01;  0.0000000E+00; -1.9082494E-02;0;  1.6201774E-03;  4.0014492E+04;  0.0000000E+00; -2.5956534E-02;  4.0000000E+04;  0.0000000E+00;  3.9995602E+04;  8.9840050E-04;  0.0000000E+00;  7.2177697E-04;  6.0045599E+02;
  1.9158840E-01;  9.9999998E-03; -3.0055813E-02;3632;  3.7998327E-03;  0.0000000E+00; -8.9408270E-05;  1.0001902E+03;  1.0000000E-01;  1.5762517E+02;3; -1.6074708E-01;  0.0000000E+00; -1.7513635E-02;0;  1.8663744E-03;  4.0013055E+04;  0.0000000E+00; -1.7272562E-02;  4.0000000E+04;  0.0000000E+00;  3.9996227E+04;  1.0786090E-03;  0.0000000E+00;  7.8776543E-04;  5.2737616E+02;
  1.9162725E-01;  9.9999998E-03; -2.0055082E-02;3633;  3.8253258E-03;  0.0000000E+00; -7.5935022E-05;  1.0001799E+03;  1.0000000E-01;  1.4903282E+02;3; -1.5995480E-01;  0.0000000E+00; -1.3760366E-02;0;  2.0710891E-03;  4.0011969E+04;  0.0000000E+00; -8.6219441E-03;  4.0000000E+04;  0.0000000E+00;  3.9996145E+04;  1.2230771E-03;  0.0000000E+00;  8.4801199E-04;  4.6706845E+02;
  1.9165666E-01;  9.9999998E-03; -1.0040271E-02;3634;  3.8396723E-03;  0.0000000E+00; -4.4277156E-05;  1.0001703E+03;  1.0000000E-01;  1.4103305E+02;3; -1.5922633E-01;  0.0000000E+00; -6.1430321E-03;0;  2.2071421E-03;  4.0011004E+04;  0.0000000E+00; -2.3111391E-03;  4.0000000E+04;  0.0000000E+00;  3.9996887E+04;  1.3164267E-03;  0.0000000E+00;  8.9071534E-04;  4.3326385E+02;
  1.9166888E-01;  9.9999998E-03; -2.9708741E-10;3635;  3.8441960E-03;  0.0000000E+00; -1.0685000E-08;  1.0001699E+03;  1.0000000E-01;  1.4073676E+02;3; -1.5906307E-01;  0.0000000E+00; -1.3672015E-05;0;  2.2550945E-03;  4.0010734E+04;  0.0000000E+00; -4.9224681E-13;  4.0000000E+04;  0.0000000E+00;  3.9996930E+04;  1.3488490E-03;  0.0000000E+00;  9.0624538E-04;  4.2367719E+02;
  1.9165666E-01;  9.9999998E-03;  1.0040271E-02;3636;  3.8396744E-03;  0.0000000E+00;  4.4256667E-05;  1.0001702E+03;  1.0000000E-01;  1.4103305E+02;3; -1.5922491E-01;  0.0000000E+00;  6.1147511E-03;0;  2.2071232E-03;  4.0011004E+04;  0.0000000E+00; -2.3114057E-03;  4.0000000E+04;  0.0000000E+00;  3.9996887E+04;  1.3163998E-03;  0.0000000E+00;  8.9072349E-04;  4.3326059E+02;
  1.9162725E-01;  9.9999998E-03;  2.0055082E-02;3637;  3.8253302E-03;  0.0000000E+00;  7.5918288E-05;  1.0001799E+03;  1.0000000E-01;  1.4903282E+02;3; -1.5995410E-01;  0.0000000E+00;  1.3733309E-02;0;  2.0710533E-03;  4.0011969E+04;  0.0000000E+00; -8.6223967E-03;  4.0000000E+04;  0.0000000E+00;  3.9996145E+04;  1.2230242E-03;  0.0000000E+00;  8.4802910E-04;  4.6706738E+02;
  1.9158840E-01;  9.9999998E-03;  3.0055813E-02;3638;  3.7998399E-03;  0.0000000E+00;  8.9394031E-05;  1.0001902E+03;  1.0000000E-01;  1.5762517E+02;3; -1.6074009E-01;  0.0000000E+00;  1.7487427E-02;0;  1.8663206E-03;  4.0013059E+04;  0.0000000E+00; -1.7273039E-02;  4.0000000E+04;  0.0000000E+00;  3.9996230E+04;  1.0785323E-03;  0.0000000E+00;  7.8778830E-04;  5.2737158E+02;
  1.9155148E-01;  9.9999998E-03;  4.0056948E-02;3639;  3.7653623E-03;  0.0000000E+00;  9.2409551E-05;  1.0002040E+03;  1.0000000E-01;  1.6898288E+02;3; -1.6261806E-01;  0.0000000E+00;  1.9070322E-02;0;  1.6201031E-03;  4.0014488E+04;  0.0000000E+00; -2.5958618E-02;  4.0000000E+04;  0.0000000E+00;  3.9995602E+04;  8.9830160E-04;  0.0000000E+00;  7.2180160E-04;  6.0045044E+02;
  1.9152017E-01;  9.9999998E-03;  5.0064325E-02;3640;  3.7246717E-03;  0.0000000E+00;  8.9063622E-05;  1.0002143E+03;  1.0000000E-01;  1.7757523E+02;3; -1.6466840E-01;  0.0000000E+00;  2.0091673E-02;0;  1.3627625E-03;  4.0015758E+04;  0.0000000E+00; -3.2268386E-02;  4.0000000E+04;  0.0000000E+00;  3.9994891E+04;  7.0186780E-04;  0.0000000E+00;  6.6089473E-04;  6.5697650E+02;
  1.9148794E-01;  9.9999998E-03;  6.0072955E-02;3641;  3.6804050E-03;  0.0000000E+00;  8.2327540E-05;  1.0002217E+03;  1.0000000E-01;  1.8369850E+02;3; -1.6695729E-01;  0.0000000E+00;  2.0755908E-02;0;  1.1244194E-03;  4.0016445E+04;  0.0000000E+00; -3.4373704E-02;  4.0000000E+04;  0.0000000E+00;  3.9994500E+04;  5.1156175E-04;  0.0000000E+00;  6.1285764E-04;  6.6503284E+02;
  2.0140959E-01;  9.9999998E-03; -1.0009912E-01;3686;  3.4914755E-03;  0.0000000E+00; -1.0625618E-04;  1.0000966E+03;  1.0000000E-01;  7.9997734E+01;3; -1.7481872E-01;  0.0000000E+00; -2.7283955E-02;0;  1.8601237E-03;  4.0007941E+04;  0.0000000E+00;  5.6010969E-03;  4.0000000E+04;  0.0000000E+00;  3.9994711E+04;  1.3164760E-03;  0.0000000E+00;  5.4364768E-04;  7.1639490E+02;
  2.0144866E-01;  9.9999998E-03; -9.0091482E-02;3687;  3.5113427E-03;  0.0000000E+00; -1.0504723E-04;  1.0001032E+03;  1.0000000E-01;  8.5528442E+01;3; -1.7243336E-01;  0.0000000E+00; -2.6167955E-02;0;  1.8343262E-03;  4.0009246E+04;  0.0000000E+00; -3.3340973E-03;  4.0000000E+04;  0.0000000E+00;  3.9993082E+04;  1.2886678E-03;  0.0000000E+00;  5.4565846E-04;  8.6848730E+02;
  2.0149723E-01;  9.9999998E-03; -8.0082737E-02;3688;  3.5473243E-03;  0.0000000E+00; -1.0881990E-04;  1.0001102E+03;  1.0000000E-01;  9.1256676E+01;3; -1.7007422E-01;  0.0000000E+00; -2.5330389E-02;0;  1.8943520E-03;  4.0010703E+04;  0.0000000E+00; -1.4429241E-02;  4.0000000E+04;  0.0000000E+00;  3.9992047E+04;  1.3368104E-03;  0.0000000E+00;  5.5754156E-04;  1.0067328E+03;
  2.0154849E-01;  9.9999998E-03; -7.0071295E-02;3689;  3.5941130E-03;  0.0000000E+00; -1.1604387E-04;  1.0001174E+03;  1.0000000E-01;  9.7281197E+01;3; -1.6766031E-01;  0.0000000E+00; -2.4612347E-02;0;  2.0281882E-03;  4.0011836E+04;  0.0000000E+00; -2.3339840E-02;  4.0000000E+04;  0.0000000E+00;  3.9991125E+04;  1.4452141E-03;  0.0000000E+00;  5.8297400E-04;  1.1040837E+03;
  2.0159146E-01;  9.9999998E-03; -6.0056128E-02;3690;  3.6458424E-03;  0.0000000E+00; -1.2414147E-04;  1.0001203E+03;  1.0000000E-01;  9.9651505E+01;3; -1.6527037E-01;  0.0000000E+00; -2.3780217E-02;0;  2.2181366E-03;  4.0012703E+04;  0.0000000E+00; -2.7712470E-02;  4.0000000E+04;  0.0000000E+00;  3.9990965E+04;  1.5938361E-03;  0.0000000E+00;  6.2430033E-04;  1.1423453E+03;
  2.0162091E-01;  9.9999998E-03; -5.0038848E-02;3691;  3.6977523E-03;  0.0000000E+00; -1.3097179E-04;  1.0001295E+03;  1.0000000E-01;  1.0725623E+02;3; -1.6289669E-01;  0.0000000E+00; -2.3138393E-02;0;  2.4427883E-03;  4.0013035E+04;  0.0000000E+00; -2.6978020E-02;  4.0000000E+04;  0.0000000E+00;  3.9991324E+04;  1.7617104E-03;  0.0000000E+00;  6.8107806E-04;  1.1192278E+03;
  2.0164213E-01;  9.9999998E-03; -4.0023699E-02;3692;  3.7457084E-03;  0.0000000E+00; -1.3347254E-04;  1.0001319E+03;  1.0000000E-01;  1.0923148E+02;3; -1.6057706E-01;  0.0000000E+00; -2.2434181E-02;0;  2.6786842E-03;  4.0012816E+04;  0.0000000E+00; -2.2021102E-02;  4.0000000E+04;  0.0000000E+00;  3.9991250E+04;  1.9294663E-03;  0.0000000E+00;  7.4921793E-04;  1.0515779E+03;
  2.0166793E-01;  9.9999998E-03; -3.0018102E-02;3693;  3.7861313E-03;  0.0000000E+00; -1.2784131E-04;  1.0001326E+03;  1.0000000E-01;  1.0982405E+02;3; -1.5866055E-01;  0.0000000E+00; -2.0734595E-02;0;  2.9013918E-03;  4.0012059E+04;  0.0000000E+00; -1.4718164E-02;  4.0000000E+04;  0.0000000E+00;  3.9992207E+04;  2.0805236E-03;  0.0000000E+00;  8.2086812E-04;  9.6992847E+02;
  2.0169570E-01;  9.9999998E-03; -2.0018093E-02;3694;  3.8157138E-03;  0.0000000E+00; -1.0733143E-04;  1.0001282E+03;  1.0000000E-01;  1.0616984E+02;3; -1.5761985E-01;  0.0000000E+00; -1.5696164E-02;0;  3.0852952E-03;  4.0011570E+04;  0.0000000E+00; -7.3397784E-03;  4.0000000E+04;  0.0000000E+00;  3.9992898E+04;  2.2000163E-03;  0.0000000E+00;  8.8527892E-04;  9.0203619E+02;
  2.0171747E-01;  9.9999998E-03; -1.0014785E-02;3695;  3.8326802E-03;  0.0000000E+00; -6.1215884E-05;  1.0001273E+03;  1.0000000E-01;  1.0547850E+02;3; -1.5672754E-01;  0.0000000E+00; -7.7128075E-03;0;  3.2071266E-03;  4.0011094E+04;  0.0000000E+00; -1.9608075E-03;  4.0000000E+04;  0.0000000E+00;  3.9993219E+04;  2.2765514E-03;  0.0000000E+00;  9.3057519E-04;  8.6179608E+02;
  2.0172782E-01;  9.9999998E-03; -2.5327659E-10;3696;  3.8382965E-03;  0.0000000E+00; -1.3555170E-08;  1.0001271E+03;  1.0000000E-01;  1.0528098E+02;3; -1.5684579E-01;  0.0000000E+00; -1.7154276E-05;0;  3.2500913E-03;  4.0010898E+04;  0.0000000E+00; -5.6763502E-13;  4.0000000E+04;  0.0000000E+00;  3.9993215E+04;  2.3031156E-03;  0.0000000E+00;  9.4697566E-04;  8.4947150E+02;
  2.0171747E-01;  9.9999998E-03;  1.0014785E-02;3697;  3.8326823E-03;  0.0000000E+00;  6.1189989E-05;  1.0001274E+03;  1.0000000E-01;  1.0557726E+02;3; -1.5672788E-01;  0.0000000E+00;  7.6815281E-03;0;  3.2071059E-03;  4.0011094E+04;  0.0000000E+00; -1.9612571E-03;  4.0000000E+04;  0.0000000E+00;  3.9993219E+04;  2.2765235E-03;  0.0000000E+00;  9.3058246E-04;  8.6179376E+02;
  2.0169570E-01;  9.9999998E-03;  2.0018093E-02;3698;  3.8157182E-03;  0.0000000E+00;  1.0730979E-04;  1.0001282E+03;  1.0000000E-01;  1.0616984E+02;3; -1.5761851E-01;  0.0000000E+00;  1.5666503E-02;0;  3.0852500E-03;  4.0011570E+04;  0.0000000E+00; -7.3402403E-03;  4.0000000E+04;  0.0000000E+00;  3.9992898E+04;  2.1999546E-03;  0.0000000E+00;  8.8529545E-04;  9.0202942E+02;
  2.0166793E-01;  9.9999998E-03;  3.0018104E-02;3699;  3.7861383E-03;  0.0000000E+00;  1.2782370E-04;  1.0001326E+03;  1.0000000E-01;  1.0982405E+02;3; -1.5865166E-01;  0.0000000E+00;  2.0708445E-02;0;  2.9013180E-03;  4.0012059E+04;  0.0000000E+00; -1.4718997E-02;  4.0000000E+04;  0.0000000E+00;  3.9992207E+04;  2.0804291E-03;  0.0000000E+00;  8.2088885E-04;  9.6991394E+02;
  2.0164213E-01;  9.9999998E-03;  4.0023703E-02;3700;  3.7457175E-03;  0.0000000E+00;  1.3345800E-04;  1.0001320E+03;  1.0000000E-01;  1.0933024E+02;3; -1.6056472E-01;  0.0000000E+00;  2.2424785E-02;0;  2.6785894E-03;  4.0012820E+04;  0.0000000E+00; -2.2021314E-02;  4.0000000E+04;  0.0000000E+00;  3.9991250E+04;  1.9293475E-03;  0.0000000E+00;  7.4924185E-04;  1.0515728E+03;
  2.0162091E-01;  9.9999998E-03;  5.0038848E-02;3701;  3.6977639E-03;  0.0000000E+00;  1.3095840E-04;  1.0001295E+03;  1.0000000E-01;  1.0725623E+02;3; -1.6287883E-01;  0.0000000E+00;  2.3137951E-02;0;  2.4426661E-03;  4.0013039E+04;  0.0000000E+00; -2.6979476E-02;  4.0000000E+04;  0.0000000E+00;  3.9991324E+04;  1.7615624E-03;  0.0000000E+00;  6.8110373E-04;  1.1192216E+03;
  2.0159146E-01;  9.9999998E-03;  6.0056128E-02;3702;  3.6458566E-03;  0.0000000E+00;  1.2412934E-04;  1.0001204E+03;  1.0000000E-01;  9.9750267E+01;3; -1.6525154E-01;  0.0000000E+00;  2.3784924E-02;0;  2.2179885E-03;  4.0012703E+04;  0.0000000E+00; -2.7710818E-02;  4.0000000E+04;  0.0000000E+00;  3.9990969E+04;  1.5936635E-03;  0.0000000E+00;  6.2432513E-04;  1.1423358E+03;
  2.1156059E-01;  9.9999998E-03; -1.0005283E-01;3747;  3.4953621E-03;  0.0000000E+00; -1.4712673E-04;  9.9986395E+02;  1.0000000E-01; -1.1268817E+02;3; -1.7305866E-01;  0.0000000E+00; -3.1146931E-02;0;  2.9706075E-03;  3.9993660E+04;  0.0000000E+00;  4.3852184E-02;  4.0000000E+04;  0.0000000E+00;  3.9989473E+04;  2.4850308E-03;  0.0000000E+00;  4.8557669E-04;  1.2181923E+03;
  2.1162501E-01;  9.9999998E-03; -9.0035975E-02;3748;  3.5181891E-03;  0.0000000E+00; -1.4854787E-04;  9.9989539E+02;  1.0000000E-01; -8.6664215E+01;3; -1.7052560E-01;  0.0000000E+00; -2.9803080E-02;0;  2.9826406E-03;  3.9996887E+04;  0.0000000E+00;  2.7476072E-02;  4.0000000E+04;  0.0000000E+00;  3.9988984E+04;  2.4879647E-03;  0.0000000E+00;  4.9467600E-04;  1.3228756E+03;
  2.1166386E-01;  9.9999998E-03; -8.0025785E-02;3749;  3.5596520E-03;  0.0000000E+00; -1.5473648E-04;  9.9992719E+02;  1.0000000E-01; -6.0343971E+01;3; -1.6796629E-01;  0.0000000E+00; -2.9201098E-02;0;  3.0590785E-03;  4.0000027E+04;  0.0000000E+00;  1.1153908E-02;  4.0000000E+04;  0.0000000E+00;  3.9988250E+04;  2.5438569E-03;  0.0000000E+00;  5.1522168E-04;  1.4126354E+03;
  2.1167839E-01;  9.9999998E-03; -7.0017807E-02;3750;  3.6139695E-03;  0.0000000E+00; -1.6344333E-04;  9.9994946E+02;  1.0000000E-01; -4.1875359E+01;3; -1.6539025E-01;  0.0000000E+00; -2.8486032E-02;0;  3.1877612E-03;  4.0002387E+04;  0.0000000E+00; -1.8141193E-03;  4.0000000E+04;  0.0000000E+00;  3.9988039E+04;  2.6387032E-03;  0.0000000E+00;  5.4905796E-04;  1.4666438E+03;
  2.1167447E-01;  9.9999998E-03; -6.0007673E-02;3751;  3.6748669E-03;  0.0000000E+00; -1.7365847E-04;  9.9997168E+02;  1.0000000E-01; -2.3456127E+01;3; -1.6254565E-01;  0.0000000E+00; -2.8835714E-02;0;  3.3548088E-03;  4.0004152E+04;  0.0000000E+00; -9.9666519E-03;  4.0000000E+04;  0.0000000E+00;  3.9988059E+04;  2.7576007E-03;  0.0000000E+00;  5.9720798E-04;  1.4695115E+03;
  2.1165968E-01;  9.9999998E-03; -4.9995780E-02;3752;  3.7386173E-03;  0.0000000E+00; -1.8370418E-04;  9.9998718E+02;  1.0000000E-01; -1.0616983E+01;3; -1.5908976E-01;  0.0000000E+00; -2.8963415E-02;0;  3.5445769E-03;  4.0005266E+04;  0.0000000E+00; -1.3163174E-02;  4.0000000E+04;  0.0000000E+00;  3.9988520E+04;  2.8859305E-03;  0.0000000E+00;  6.5864634E-04;  1.4188495E+03;
  2.1164636E-01;  9.9999998E-03; -3.9987348E-02;3753;  3.7991102E-03;  0.0000000E+00; -1.8894287E-04;  1.0000015E+03;  1.0000000E-01;  1.1851517E+00;3; -1.5592530E-01;  0.0000000E+00; -2.9055078E-02;0;  3.7400208E-03;  4.0005352E+04;  0.0000000E+00; -1.2246000E-02;  4.0000000E+04;  0.0000000E+00;  3.9989609E+04;  3.0107182E-03;  0.0000000E+00;  7.2930270E-04;  1.3304427E+03;
  2.1164536E-01;  9.9999998E-03; -2.9988443E-02;3754;  3.8507367E-03;  0.0000000E+00; -1.8389033E-04;  1.0000079E+03;  1.0000000E-01;  6.5183344E+00;3; -1.5218192E-01;  0.0000000E+00; -3.0422922E-02;0;  3.9227009E-03;  4.0005582E+04;  0.0000000E+00; -8.7518729E-03;  4.0000000E+04;  0.0000000E+00;  3.9990023E+04;  3.1208813E-03;  0.0000000E+00;  8.0181955E-04;  1.2329978E+03;
  2.1165138E-01;  9.9999998E-03; -1.9994214E-02;3755;  3.8902904E-03;  0.0000000E+00; -1.6278448E-04;  1.0000132E+03;  1.0000000E-01;  1.0962653E+01;3; -1.4989693E-01;  0.0000000E+00; -2.9174715E-02;0;  4.0727980E-03;  4.0005238E+04;  0.0000000E+00; -4.5241029E-03;  4.0000000E+04;  0.0000000E+00;  3.9990762E+04;  3.2065755E-03;  0.0000000E+00;  8.6622225E-04;  1.1522438E+03;
  2.1165673E-01;  9.9999998E-03; -9.9986680E-03;3756;  3.9126985E-03;  0.0000000E+00; -9.9128054E-05;  1.0000129E+03;  1.0000000E-01;  1.0666365E+01;3; -1.5069921E-01;  0.0000000E+00; -1.4797178E-02;0;  4.1719293E-03;  4.0004969E+04;  0.0000000E+00; -1.2298335E-03;  4.0000000E+04;  0.0000000E+00;  3.9991320E+04;  3.2606362E-03;  0.0000000E+00;  9.1129320E-04;  1.1022743E+03;
  2.1165925E-01;  9.9999998E-03; -2.9873673E-10;3757;  3.9193854E-03;  0.0000000E+00; -1.9218451E-08;  1.0000138E+03;  1.0000000E-01;  1.1456466E+01;3; -1.5073866E-01;  0.0000000E+00; -1.6743328E-05;0;  4.2067044E-03;  4.0004820E+04;  0.0000000E+00; -5.4103195E-13;  4.0000000E+04;  0.0000000E+00;  3.9991375E+04;  3.2791249E-03;  0.0000000E+00;  9.2757959E-04;  1.0859561E+03;
  2.1165673E-01;  9.9999998E-03;  9.9986671E-03;3758;  3.9127003E-03;  0.0000000E+00;  9.9094868E-05;  1.0000129E+03;  1.0000000E-01;  1.0666365E+01;3; -1.5069386E-01;  0.0000000E+00;  1.4760874E-02;0;  4.1719005E-03;  4.0004973E+04;  0.0000000E+00; -1.2301438E-03;  4.0000000E+04;  0.0000000E+00;  3.9991320E+04;  3.2605983E-03;  0.0000000E+00;  9.1130211E-04;  1.1022673E+03;
  2.1165138E-01;  9.9999998E-03;  1.9994214E-02;3759;  3.8902955E-03;  0.0000000E+00;  1.6276308E-04;  1.0000132E+03;  1.0000000E-01;  1.0962653E+01;3; -1.4989142E-01;  0.0000000E+00;  2.9141303E-02;0;  4.0727444E-03;  4.0005234E+04;  0.0000000E+00; -4.5248969E-03;  4.0000000E+04;  0.0000000E+00;  3.9990762E+04;  3.2065064E-03;  0.0000000E+00;  8.6623809E-04;  1.1522432E+03;
  2.1164536E-01;  9.9999998E-03;  2.9988445E-02;3760;  3.8507455E-03;  0.0000000E+00;  1.8387448E-04;  1.0000079E+03;  1.0000000E-01;  6.6170969E+00;3; -1.5216796E-01;  0.0000000E+00;  3.0403739E-02;0;  3.9226161E-03;  4.0005582E+04;  0.0000000E+00; -8.7526739E-03;  4.0000000E+04;  0.0000000E+00;  3.9990023E+04;  3.1207753E-03;  0.0000000E+00;  8.0184086E-04;  1.2329967E+03;
  2.1164636E-01;  9.9999998E-03;  3.9987348E-02;3761;  3.7991207E-03;  0.0000000E+00;  1.8892919E-04;  1.0000015E+03;  1.0000000E-01;  1.2839143E+00;3; -1.5591273E-01;  0.0000000E+00;  2.9032702E-02;0;  3.7399041E-03;  4.0005352E+04;  0.0000000E+00; -1.2246295E-02;  4.0000000E+04;  0.0000000E+00;  3.9989613E+04;  3.0105792E-03;  0.0000000E+00;  7.2932511E-04;  1.3304485E+03;
  2.1165968E-01;  9.9999998E-03;  4.9995780E-02;3762;  3.7386294E-03;  0.0000000E+00;  1.8368852E-04;  9.9998730E+02;  1.0000000E-01; -1.0518221E+01;3; -1.5907298E-01;  0.0000000E+00;  2.8948721E-02;0;  3.5444330E-03;  4.0005262E+04;  0.0000000E+00; -1.3164574E-02;  4.0000000E+04;  0.0000000E+00;  3.9988520E+04;  2.8857626E-03;  0.0000000E+00;  6.5867032E-04;  1.4188411E+03;
  2.1167447E-01;  9.9999998E-03;  6.0007676E-02;3763;  3.6748806E-03;  0.0000000E+00;  1.7364442E-04;  9.9997168E+02;  1.0000000E-01; -2.3456127E+01;3; -1.6252379E-01;  0.0000000E+00;  2.8847907E-02;0;  3.3546342E-03;  4.0004152E+04;  0.0000000E+00; -9.9698426E-03;  4.0000000E+04;  0.0000000E+00;  3.9988055E+04;  2.7574017E-03;  0.0000000E+00;  5.9723237E-04;  1.4695050E+03;
  2.2168069E-01;  9.9999998E-03; -1.0000504E-01;3808;  3.5484834E-03;  0.0000000E+00; -1.9458712E-04;  9.9963373E+02;  1.0000000E-01; -3.0344821E+02;3; -1.6983379E-01;  0.0000000E+00; -3.6257099E-02;0;  3.9529558E-03;  3.9978594E+04;  0.0000000E+00;  9.3475714E-02;  4.0000000E+04;  0.0000000E+00;  3.9987312E+04;  3.5584033E-03;  0.0000000E+00;  3.9455248E-04;  1.5323051E+03;
  2.2168767E-01;  9.9999998E-03; -9.0000652E-02;3809;  3.5761031E-03;  0.0000000E+00; -1.9804807E-04;  9.9968652E+02;  1.0000000E-01; -2.5969635E+02;3; -1.6721945E-01;  0.0000000E+00; -3.5519257E-02;0;  3.9856685E-03;  3.9983043E+04;  0.0000000E+00;  6.8080738E-02;  4.0000000E+04;  0.0000000E+00;  3.9986484E+04;  3.5743611E-03;  0.0000000E+00;  4.1130729E-04;  1.5860513E+03;
  2.2167490E-01;  9.9999998E-03; -8.0000848E-02;3810;  3.6282334E-03;  0.0000000E+00; -2.0712601E-04;  9.9973181E+02;  1.0000000E-01; -2.2216655E+02;3; -1.6358525E-01;  0.0000000E+00; -3.6524203E-02;0;  4.0618260E-03;  3.9987156E+04;  0.0000000E+00;  4.5204062E-02;  4.0000000E+04;  0.0000000E+00;  3.9986473E+04;  3.6224211E-03;  0.0000000E+00;  4.3940500E-04;  1.6278638E+03;
  2.2164796E-01;  9.9999998E-03; -7.0000254E-02;3811;  3.6987090E-03;  0.0000000E+00; -2.2032051E-04;  9.9976526E+02;  1.0000000E-01; -1.9446364E+02;3; -1.6046786E-01;  0.0000000E+00; -3.5469506E-02;0;  4.1703843E-03;  3.9989980E+04;  0.0000000E+00;  2.6773330E-02;  4.0000000E+04;  0.0000000E+00;  3.9986410E+04;  3.6912858E-03;  0.0000000E+00;  4.7909829E-04;  1.6408923E+03;
  2.2161156E-01;  9.9999998E-03; -5.9996247E-02;3812;  3.7783738E-03;  0.0000000E+00; -2.2989187E-04;  9.9979156E+02;  1.0000000E-01; -1.7268648E+02;3; -1.5220679E-01;  0.0000000E+00; -4.0295444E-02;0;  4.3004826E-03;  3.9991871E+04;  0.0000000E+00;  1.3316803E-02;  4.0000000E+04;  0.0000000E+00;  3.9986934E+04;  3.7700047E-03;  0.0000000E+00;  5.3047773E-04;  1.6105933E+03;
  2.2157185E-01;  9.9999998E-03; -4.9989287E-02;3813;  3.8635561E-03;  0.0000000E+00; -2.3315317E-04;  9.9981049E+02;  1.0000000E-01; -1.5703259E+02;3; -1.4342961E-01;  0.0000000E+00; -4.6256416E-02;0;  4.4417121E-03;  3.9993047E+04;  0.0000000E+00;  4.6517081E-03;  4.0000000E+04;  0.0000000E+00;  3.9987633E+04;  3.8493937E-03;  0.0000000E+00;  5.9231860E-04;  1.5344435E+03;
  2.2153997E-01;  9.9999998E-03; -3.9986346E-02;3814;  3.9478564E-03;  0.0000000E+00; -2.2935402E-04;  9.9982001E+02;  1.0000000E-01; -1.4913159E+02;3; -1.3624926E-01;  0.0000000E+00; -5.2872423E-02;0;  4.5834328E-03;  3.9993352E+04;  0.0000000E+00;  1.1456477E-04;  4.0000000E+04;  0.0000000E+00;  3.9988715E+04;  3.9225491E-03;  0.0000000E+00;  6.6088355E-04;  1.4277490E+03;
  2.2152323E-01;  9.9999998E-03; -2.9991621E-02;3815;  4.0285597E-03;  0.0000000E+00; -2.1460246E-04;  9.9983020E+02;  1.0000000E-01; -1.4068738E+02;3; -1.2791863E-01;  0.0000000E+00; -6.0078498E-02;0;  4.7140159E-03;  3.9993125E+04;  0.0000000E+00; -1.3652480E-03;  4.0000000E+04;  0.0000000E+00;  3.9989359E+04;  3.9843065E-03;  0.0000000E+00;  7.2970940E-04;  1.3171699E+03;
  2.2151622E-01;  9.9999998E-03; -1.9999176E-02;3816;  4.1031386E-03;  0.0000000E+00; -1.7727219E-04;  9.9983191E+02;  1.0000000E-01; -1.3925533E+02;3; -1.2395047E-01;  0.0000000E+00; -6.6444308E-02;0;  4.8207846E-03;  3.9992805E+04;  0.0000000E+00; -1.1065837E-03;  4.0000000E+04;  0.0000000E+00;  3.9990035E+04;  4.0307189E-03;  0.0000000E+00;  7.9006568E-04;  1.2265710E+03;
  2.2151379E-01;  9.9999998E-03; -1.0003272E-02;3817;  4.1563320E-03;  0.0000000E+00; -1.1153991E-04;  9.9983661E+02;  1.0000000E-01; -1.3535420E+02;3; -1.2344014E-01;  0.0000000E+00; -5.5424806E-02;0;  4.8913998E-03;  3.9992594E+04;  0.0000000E+00; -3.5668808E-04;  4.0000000E+04;  0.0000000E+00;  3.9990590E+04;  4.0593510E-03;  0.0000000E+00;  8.3204854E-04;  1.1699757E+03;
  2.2151382E-01;  9.9999998E-03; -4.9992410E-10;3818;  4.1791676E-03;  0.0000000E+00; -1.4337612E-08;  9.9983453E+02;  1.0000000E-01; -1.3708255E+02;3; -1.2305159E-01;  0.0000000E+00; -2.7267142E-05;0;  4.9162852E-03;  3.9992559E+04;  0.0000000E+00;  8.6385565E-13;  4.0000000E+04;  0.0000000E+00;  3.9990719E+04;  4.0690950E-03;  0.0000000E+00;  8.4718998E-04;  1.1512313E+03;
  2.2151379E-01;  9.9999998E-03;  1.0003272E-02;3819;  4.1563404E-03;  0.0000000E+00;  1.1151971E-04;  9.9983655E+02;  1.0000000E-01; -1.3540358E+02;3; -1.2343654E-01;  0.0000000E+00;  5.5395231E-02;0;  4.8913700E-03;  3.9992594E+04;  0.0000000E+00; -3.5708331E-04;  4.0000000E+04;  0.0000000E+00;  3.9990590E+04;  4.0593133E-03;  0.0000000E+00;  8.3205645E-04;  1.1699728E+03;
  2.2151622E-01;  9.9999998E-03;  1.9999174E-02;3820;  4.1031507E-03;  0.0000000E+00;  1.7726084E-04;  9.9983197E+02;  1.0000000E-01; -1.3920593E+02;3; -1.2394056E-01;  0.0000000E+00;  6.6419430E-02;0;  4.8207203E-03;  3.9992805E+04;  0.0000000E+00; -1.1071224E-03;  4.0000000E+04;  0.0000000E+00;  3.9990035E+04;  4.0306412E-03;  0.0000000E+00;  7.9007912E-04;  1.2265701E+03;
  2.2152323E-01;  9.9999998E-03;  2.9991621E-02;3821;  4.0285736E-03;  0.0000000E+00;  2.1459348E-04;  9.9983020E+02;  1.0000000E-01; -1.4068738E+02;3; -1.2790386E-01;  0.0000000E+00;  6.0056325E-02;0;  4.7139190E-03;  3.9993129E+04;  0.0000000E+00; -1.3654170E-03;  4.0000000E+04;  0.0000000E+00;  3.9989359E+04;  3.9841924E-03;  0.0000000E+00;  7.2972645E-04;  1.3171622E+03;
  2.2153997E-01;  9.9999998E-03;  3.9986346E-02;3822;  3.9478713E-03;  0.0000000E+00;  2.2934757E-04;  9.9982001E+02;  1.0000000E-01; -1.4913159E+02;3; -1.3623266E-01;  0.0000000E+00;  5.2866500E-02;0;  4.5833047E-03;  3.9993355E+04;  0.0000000E+00;  1.1400384E-04;  4.0000000E+04;  0.0000000E+00;  3.9988715E+04;  3.9224015E-03;  0.0000000E+00;  6.6090311E-04;  1.4277358E+03;
  2.2157185E-01;  9.9999998E-03;  4.9989287E-02;3823;  3.8635724E-03;  0.0000000E+00;  2.3314824E-04;  9.9981055E+02;  1.0000000E-01; -1.5693384E+02;3; -1.4340773E-01;  0.0000000E+00;  4.6260744E-02;0;  4.4415491E-03;  3.9993043E+04;  0.0000000E+00;  4.6502305E-03;  4.0000000E+04;  0.0000000E+00;  3.9987641E+04;  3.8492107E-03;  0.0000000E+00;  5.9233833E-04;  1.5344303E+03;
  2.2161156E-01;  9.9999998E-03;  5.9996247E-02;3824;  3.7783913E-03;  0.0000000E+00;  2.2988748E-04;  9.9979156E+02;  1.0000000E-01; -1.7268648E+02;3; -1.5218313E-01;  0.0000000E+00;  4.0289775E-02;0;  4.3002847E-03;  3.9991871E+04;  0.0000000E+00;  1.3316349E-02;  4.0000000E+04;  0.0000000E+00;  3.9986930E+04;  3.7697870E-03;  0.0000000E+00;  5.3049775E-04;  1.6105873E+03;
  2.3166740E-01;  9.9999998E-03; -9.9994831E-02;3869;  3.6559617E-03;  0.0000000E+00; -2.2043347E-04;  9.9944678E+02;  1.0000000E-01; -4.5835742E+02;3; -1.6298802E-01;  0.0000000E+00; -3.1509034E-02;0;  4.6271044E-03;  3.9965801E+04;  0.0000000E+00;  1.4019449E-01;  4.0000000E+04;  0.0000000E+00;  3.9986102E+04;  4.3517221E-03;  0.0000000E+00;  2.7538216E-04;  1.6387045E+03;
  2.3163198E-01;  9.9999998E-03; -9.0000071E-02;3870;  3.7003290E-03;  0.0000000E+00; -2.2446131E-04;  9.9951086E+02;  1.0000000E-01; -4.0522311E+02;3; -1.5803786E-01;  0.0000000E+00; -3.2823265E-02;0;  4.6723979E-03;  3.9970820E+04;  0.0000000E+00;  1.0585023E-01;  4.0000000E+04;  0.0000000E+00;  3.9986219E+04;  4.3739695E-03;  0.0000000E+00;  2.9842847E-04;  1.6549309E+03;
  2.3158923E-01;  9.9999998E-03; -8.0006480E-02;3871;  3.7803710E-03;  0.0000000E+00; -2.2270071E-04;  9.9955548E+02;  1.0000000E-01; -3.6828589E+02;3; -1.4880222E-01;  0.0000000E+00; -4.1050088E-02;0;  4.7381357E-03;  3.9974539E+04;  0.0000000E+00;  7.6730706E-02;  4.0000000E+04;  0.0000000E+00;  3.9986566E+04;  4.4064750E-03;  0.0000000E+00;  3.3166076E-04;  1.6609999E+03;
  2.3154110E-01;  9.9999998E-03; -7.0009306E-02;3872;  3.8882501E-03;  0.0000000E+00; -2.0840703E-04;  9.9958502E+02;  1.0000000E-01; -3.4379276E+02;3; -1.2944426E-01;  0.0000000E+00; -5.3811844E-02;0;  4.8148087E-03;  3.9976844E+04;  0.0000000E+00;  5.3158395E-02;  4.0000000E+04;  0.0000000E+00;  3.9986660E+04;  4.4407835E-03;  0.0000000E+00;  3.7402500E-04;  1.6422317E+03;
  2.3149031E-01;  9.9999998E-03; -6.0007062E-02;3873;  4.0310086E-03;  0.0000000E+00; -1.7610109E-04;  9.9960303E+02;  1.0000000E-01; -3.2887958E+02;3; -1.1182722E-01;  0.0000000E+00; -6.4317591E-02;0;  4.8960564E-03;  3.9977941E+04;  0.0000000E+00;  3.4717821E-02;  4.0000000E+04;  0.0000000E+00;  3.9987078E+04;  4.4709761E-03;  0.0000000E+00;  4.2508030E-04;  1.5857402E+03;
  2.3144329E-01;  9.9999998E-03; -5.0001495E-02;3874;  4.2032627E-03;  0.0000000E+00; -1.2558118E-04;  9.9960950E+02;  1.0000000E-01; -3.2354642E+02;3; -6.7771845E-02;  0.0000000E+00; -5.9190415E-02;0;  4.9778745E-03;  3.9978055E+04;  0.0000000E+00;  2.0918997E-02;  4.0000000E+04;  0.0000000E+00;  3.9987637E+04;  4.4941488E-03;  0.0000000E+00;  4.8372577E-04;  1.4901021E+03;
  2.3141354E-01;  9.9999998E-03; -3.9999783E-02;3875;  4.3753046E-03;  0.0000000E+00; -6.9183799E-05;  9.9961353E+02;  1.0000000E-01; -3.2018848E+02;3;  3.6676031E-02;  0.0000000E+00; -3.1238824E-02;0;  5.0565489E-03;  3.9977672E+04;  0.0000000E+00;  1.1304352E-02;  4.0000000E+04;  0.0000000E+00;  3.9988797E+04;  4.5098471E-03;  0.0000000E+00;  5.4670178E-04;  1.3709009E+03;
  2.3142549E-01;  9.9999998E-03; -3.0002991E-02;3876;  4.4873646E-03;  0.0000000E+00; -3.3866905E-05;  9.9961462E+02;  1.0000000E-01; -3.1929962E+02;3;  1.1085845E-01;  0.0000000E+00; -3.7982720E-03;0;  5.1272237E-03;  3.9977074E+04;  0.0000000E+00;  5.2533345E-03;  4.0000000E+04;  0.0000000E+00;  3.9989605E+04;  4.5189746E-03;  0.0000000E+00;  6.0824910E-04;  1.2529133E+03;
  2.3145799E-01;  9.9999998E-03; -2.0005981E-02;3877;  4.5565087E-03;  0.0000000E+00; -1.6496248E-05;  9.9961578E+02;  1.0000000E-01; -3.1831198E+02;3;  1.3869891E-01;  0.0000000E+00;  2.7263104E-03;0;  5.1842066E-03;  3.9976438E+04;  0.0000000E+00;  1.9258496E-03;  4.0000000E+04;  0.0000000E+00;  3.9990418E+04;  4.5230193E-03;  0.0000000E+00;  6.6118722E-04;  1.1579131E+03;
  2.3148313E-01;  9.9999998E-03; -1.0006029E-02;3878;  4.5940271E-03;  0.0000000E+00; -6.9997186E-06;  9.9961456E+02;  1.0000000E-01; -3.1934900E+02;3;  1.5241387E-01;  0.0000000E+00;  2.6347735E-03;0;  5.2215694E-03;  3.9975883E+04;  0.0000000E+00;  4.1322067E-04;  4.0000000E+04;  0.0000000E+00;  3.9990523E+04;  4.5239981E-03;  0.0000000E+00;  6.9757126E-04;  1.0987797E+03;
  2.3149414E-01;  9.9999998E-03; -3.1606162E-10;3879;  4.6064118E-03;  0.0000000E+00;  4.6886863E-09;  9.9961542E+02;  1.0000000E-01; -3.1860828E+02;3;  1.5539880E-01;  0.0000000E+00; -7.1501131E-06;0;  5.2346671E-03;  3.9975684E+04;  0.0000000E+00; -1.0000076E-12;  4.0000000E+04;  0.0000000E+00;  3.9990648E+04;  4.5240838E-03;  0.0000000E+00;  7.1058306E-04;  1.0791326E+03;
  2.3148313E-01;  9.9999998E-03;  1.0006028E-02;3880;  4.5940266E-03;  0.0000000E+00;  7.0091505E-06;  9.9961456E+02;  1.0000000E-01; -3.1934900E+02;3;  1.5242083E-01;  0.0000000E+00; -2.6573741E-03;0;  5.2215364E-03;  3.9975883E+04;  0.0000000E+00;  4.1307806E-04;  4.0000000E+04;  0.0000000E+00;  3.9990523E+04;  4.5239604E-03;  0.0000000E+00;  6.9757621E-04;  1.0987715E+03;
  2.3145799E-01;  9.9999998E-03;  2.0005979E-02;3881;  4.5565097E-03;  0.0000000E+00;  1.6505679E-05;  9.9961578E+02;  1.0000000E-01; -3.1831198E+02;3;  1.3870667E-01;  0.0000000E+00; -2.7335016E-03;0;  5.1841401E-03;  3.9976438E+04;  0.0000000E+00;  1.9255262E-03;  4.0000000E+04;  0.0000000E+00;  3.9990418E+04;  4.5229415E-03;  0.0000000E+00;  6.6119869E-04;  1.1579091E+03;
  2.3142549E-01;  9.9999998E-03;  3.0002989E-02;3882;  4.4873664E-03;  0.0000000E+00;  3.3876018E-05;  9.9961462E+02;  1.0000000E-01; -3.1929962E+02;3;  1.1087853E-01;  0.0000000E+00;  3.7857776E-03;0;  5.1271166E-03;  3.9977078E+04;  0.0000000E+00;  5.2531781E-03;  4.0000000E+04;  0.0000000E+00;  3.9989605E+04;  4.5188530E-03;  0.0000000E+00;  6.0826342E-04;  1.2529038E+03;
  2.3141354E-01;  9.9999998E-03;  3.9999783E-02;3883;  4.3753125E-03;  0.0000000E+00;  6.9189489E-05;  9.9961353E+02;  1.0000000E-01; -3.2018848E+02;3;  3.6706477E-02;  0.0000000E+00;  3.1215945E-02;0;  5.0564078E-03;  3.9977676E+04;  0.0000000E+00;  1.1303684E-02;  4.0000000E+04;  0.0000000E+00;  3.9988797E+04;  4.5096893E-03;  0.0000000E+00;  5.4671860E-04;  1.3708844E+03;
  2.3144329E-01;  9.9999998E-03;  5.0001495E-02;3884;  4.2032776E-03;  0.0000000E+00;  1.2558367E-04;  9.9960950E+02;  1.0000000E-01; -3.2354642E+02;3; -6.7747675E-02;  0.0000000E+00;  5.9176300E-02;0;  4.9776994E-03;  3.9978055E+04;  0.0000000E+00;  2.0919660E-02;  4.0000000E+04;  0.0000000E+00;  3.9987633E+04;  4.4939551E-03;  0.0000000E+00;  4.8374411E-04;  1.4900966E+03;
  2.3149031E-01;  9.9999998E-03;  6.0007058E-02;3885;  4.0310253E-03;  0.0000000E+00;  1.7610393E-04;  9.9960303E+02;  1.0000000E-01; -3.2887958E+02;3; -1.1181127E-01;  0.0000000E+00;  6.4315803E-02;0;  4.8958436E-03;  3.9977941E+04;  0.0000000E+00;  3.4719907E-02;  4.0000000E+04;  0.0000000E+00;  3.9987078E+04;  4.4707456E-03;  0.0000000E+00;  4.2509823E-04;  1.5857380E+03;
  2.4159513E-01;  9.9999998E-03; -9.9997908E-02;3930;  3.8849828E-03;  0.0000000E+00; -1.4730834E-04;  9.9934607E+02;  1.0000000E-01; -5.4176245E+02;3; -1.1804873E-01;  0.0000000E+00; -2.0895168E-02;0;  4.8999828E-03;  3.9958016E+04;  0.0000000E+00;  1.6924290E-01;  4.0000000E+04;  0.0000000E+00;  3.9987430E+04;  4.7665993E-03;  0.0000000E+00;  1.3338357E-04;  1.5726288E+03;
  2.4153981E-01;  9.9999998E-03; -9.0007231E-02;3931;  3.9795111E-03;  0.0000000E+00; -1.2859661E-04;  9.9939313E+02;  1.0000000E-01; -5.0280060E+02;3; -9.0381123E-02;  0.0000000E+00; -3.8152713E-02;0;  4.9476065E-03;  3.9961898E+04;  0.0000000E+00;  1.2844346E-01;  4.0000000E+04;  0.0000000E+00;  3.9987043E+04;  4.7878805E-03;  0.0000000E+00;  1.5972610E-04;  1.5653545E+03;
  2.4148802E-01;  9.9999998E-03; -8.0015384E-02;3932;  4.1501494E-03;  0.0000000E+00; -7.1060676E-05;  9.9942212E+02;  1.0000000E-01; -4.7875189E+02;3; -3.2356713E-02;  0.0000000E+00; -3.7025236E-02;0;  4.9921661E-03;  3.9964324E+04;  0.0000000E+00;  9.5428281E-02;  4.0000000E+04;  0.0000000E+00;  3.9987086E+04;  4.7972482E-03;  0.0000000E+00;  1.9491785E-04;  1.5467065E+03;
  2.4145685E-01;  9.9999998E-03; -7.0017859E-02;3933;  4.3621380E-03;  0.0000000E+00;  9.3255912E-06;  9.9943091E+02;  1.0000000E-01; -4.7149283E+02;3;  8.4349379E-02;  0.0000000E+00;  1.0823145E-03;0;  5.0275009E-03;  3.9964945E+04;  0.0000000E+00;  6.8963006E-02;  4.0000000E+04;  0.0000000E+00;  3.9987680E+04;  4.7907317E-03;  0.0000000E+00;  2.3676932E-04;  1.5043719E+03;
  2.4146293E-01;  9.9999998E-03; -6.0010426E-02;3934;  4.4856388E-03;  0.0000000E+00;  3.7031947E-05;  9.9943073E+02;  1.0000000E-01; -4.7164099E+02;3;  1.4614449E-01;  0.0000000E+00;  1.9753853E-02;0;  5.0505819E-03;  3.9964496E+04;  0.0000000E+00;  4.7721665E-02;  4.0000000E+04;  0.0000000E+00;  3.9987988E+04;  4.7663767E-03;  0.0000000E+00;  2.8420516E-04;  1.4285237E+03;
  2.4146739E-01;  9.9999998E-03; -4.9997468E-02;3935;  4.5708511E-03;  0.0000000E+00;  3.8391794E-05;  9.9942462E+02;  1.0000000E-01; -4.7667789E+02;3;  1.6650867E-01;  0.0000000E+00;  1.8909652E-02;0;  5.0639473E-03;  3.9963008E+04;  0.0000000E+00;  3.0910203E-02;  4.0000000E+04;  0.0000000E+00;  3.9989102E+04;  4.7270348E-03;  0.0000000E+00;  3.3691258E-04;  1.3202386E+03;
  2.4146998E-01;  9.9999998E-03; -3.9992128E-02;3936;  4.6374085E-03;  0.0000000E+00;  3.1681393E-05;  9.9941455E+02;  1.0000000E-01; -4.8502332E+02;3;  1.7805997E-01;  0.0000000E+00;  1.6172504E-02;0;  5.0716340E-03;  3.9961641E+04;  0.0000000E+00;  1.8205207E-02;  4.0000000E+04;  0.0000000E+00;  3.9990211E+04;  4.6792487E-03;  0.0000000E+00;  3.9238509E-04;  1.1954421E+03;
  2.4147560E-01;  9.9999998E-03; -2.9994601E-02;3937;  4.6882904E-03;  0.0000000E+00;  2.2530989E-05;  9.9941028E+02;  1.0000000E-01; -4.8857877E+02;3;  1.8585175E-01;  0.0000000E+00;  1.2348022E-02;0;  5.0769085E-03;  3.9960199E+04;  0.0000000E+00;  9.3293041E-03;  4.0000000E+04;  0.0000000E+00;  3.9990875E+04;  4.6308599E-03;  0.0000000E+00;  4.4604845E-04;  1.0769470E+03;
  2.4148110E-01;  9.9999998E-03; -1.9999649E-02;3938;  4.7242199E-03;  0.0000000E+00;  1.3343133E-05;  9.9940210E+02;  1.0000000E-01; -4.9534402E+02;3;  1.9048791E-01;  0.0000000E+00;  8.4679285E-03;0;  5.0813789E-03;  3.9959129E+04;  0.0000000E+00;  3.7858400E-03;  4.0000000E+04;  0.0000000E+00;  3.9991656E+04;  4.5895735E-03;  0.0000000E+00;  4.9180532E-04;  9.8385980E+02;
  2.4148914E-01;  9.9999998E-03; -1.0002804E-02;3939;  4.7455491E-03;  0.0000000E+00;  6.0780558E-06;  9.9939722E+02;  1.0000000E-01; -4.9939328E+02;3;  1.9209081E-01;  0.0000000E+00;  4.1200244E-03;0;  5.0846580E-03;  3.9958121E+04;  0.0000000E+00;  8.8369549E-04;  4.0000000E+04;  0.0000000E+00;  3.9991887E+04;  4.5618000E-03;  0.0000000E+00;  5.2285811E-04;  9.2665112E+02;
  2.4149403E-01;  9.9999998E-03;  3.9005504E-10;3940;  4.7526937E-03;  0.0000000E+00;  8.1242710E-09;  9.9939478E+02;  1.0000000E-01; -5.0141791E+02;3;  1.9257596E-01;  0.0000000E+00; -7.0866390E-06;0;  5.0858450E-03;  3.9957977E+04;  0.0000000E+00; -1.5477334E-12;  4.0000000E+04;  0.0000000E+00;  3.9991996E+04;  4.5519695E-03;  0.0000000E+00;  5.3387566E-04;  9.0772223E+02;
  2.4148914E-01;  9.9999998E-03;  1.0002804E-02;3941;  4.7455472E-03;  0.0000000E+00; -6.0617508E-06;  9.9939716E+02;  1.0000000E-01; -4.9944266E+02;3;  1.9209783E-01;  0.0000000E+00; -4.1431119E-03;0;  5.0846194E-03;  3.9958121E+04;  0.0000000E+00;  8.8374759E-04;  4.0000000E+04;  0.0000000E+00;  3.9991887E+04;  4.5617567E-03;  0.0000000E+00;  5.2286260E-04;  9.2664886E+02;
  2.4148110E-01;  9.9999998E-03;  1.9999649E-02;3942;  4.7242162E-03;  0.0000000E+00; -1.3325483E-05;  9.9940210E+02;  1.0000000E-01; -4.9534402E+02;3;  1.9049831E-01;  0.0000000E+00; -8.4770164E-03;0;  5.0813090E-03;  3.9959129E+04;  0.0000000E+00;  3.7861506E-03;  4.0000000E+04;  0.0000000E+00;  3.9991656E+04;  4.5894948E-03;  0.0000000E+00;  4.9181422E-04;  9.8384631E+02;
  2.4147560E-01;  9.9999998E-03;  2.9994601E-02;3943;  4.6882848E-03;  0.0000000E+00; -2.2514081E-05;  9.9941028E+02;  1.0000000E-01; -4.8857877E+02;3;  1.8585990E-01;  0.0000000E+00; -1.2354987E-02;0;  5.0768005E-03;  3.9960199E+04;  0.0000000E+00;  9.3292557E-03;  4.0000000E+04;  0.0000000E+00;  3.9990875E+04;  4.6307403E-03;  0.0000000E+00;  4.4606041E-04;  1.0769335E+03;
  2.4146998E-01;  9.9999998E-03;  3.9992128E-02;3944;  4.6374016E-03;  0.0000000E+00; -3.1664360E-05;  9.9941455E+02;  1.0000000E-01; -4.8502332E+02;3;  1.7806908E-01;  0.0000000E+00; -1.6183356E-02;0;  5.0714873E-03;  3.9961648E+04;  0.0000000E+00;  1.8205231E-02;  4.0000000E+04;  0.0000000E+00;  3.9990215E+04;  4.6790885E-03;  0.0000000E+00;  3.9239894E-04;  1.1954384E+03;
  2.4146739E-01;  9.9999998E-03;  4.9997468E-02;3945;  4.5708432E-03;  0.0000000E+00; -3.8375274E-05;  9.9942474E+02;  1.0000000E-01; -4.7657910E+02;3;  1.6652198E-01;  0.0000000E+00; -1.8901620E-02;0;  5.0637587E-03;  3.9963012E+04;  0.0000000E+00;  3.0911816E-02;  4.0000000E+04;  0.0000000E+00;  3.9989102E+04;  4.7268309E-03;  0.0000000E+00;  3.3692791E-04;  1.3202295E+03;
  2.4146293E-01;  9.9999998E-03;  6.0010426E-02;3946;  4.4856300E-03;  0.0000000E+00; -3.7017231E-05;  9.9943066E+02;  1.0000000E-01; -4.7169037E+02;3;  1.4616013E-01;  0.0000000E+00; -1.9745460E-02;0;  5.0503635E-03;  3.9964500E+04;  0.0000000E+00;  4.7722779E-02;  4.0000000E+04;  0.0000000E+00;  3.9987988E+04;  4.7661434E-03;  0.0000000E+00;  2.8422009E-04;  1.4285210E+03;
  2.5159258E-01;  9.9999998E-03; -9.9993832E-02;3991;  4.2521297E-03;  0.0000000E+00;  1.7396031E-05;  9.9933783E+02;  1.0000000E-01; -5.4857709E+02;3;  7.1032949E-02;  0.0000000E+00;  3.6531712E-03;0;  4.7511784E-03;  3.9957238E+04;  0.0000000E+00;  1.7060921E-01;  4.0000000E+04;  0.0000000E+00;  3.9989066E+04;  4.7757961E-03;  0.0000000E+00; -2.4617470E-05;  1.3864930E+03;
  2.5155097E-01;  9.9999998E-03; -9.0003513E-02;3992;  4.3674135E-03;  0.0000000E+00;  6.0617600E-05;  9.9935236E+02;  1.0000000E-01; -5.3657739E+02;3;  1.2460003E-01;  0.0000000E+00;  2.0841146E-02;0;  4.7888663E-03;  3.9958555E+04;  0.0000000E+00;  1.2779602E-01;  4.0000000E+04;  0.0000000E+00;  3.9988809E+04;  4.7875913E-03;  0.0000000E+00;  1.2747573E-06;  1.3646111E+03;
  2.5152862E-01;  9.9999998E-03; -8.0007546E-02;3993;  4.4543813E-03;  0.0000000E+00;  7.6156110E-05;  9.9935089E+02;  1.0000000E-01; -5.3776257E+02;3;  1.5241262E-01;  0.0000000E+00;  2.6002917E-02;0;  4.8019686E-03;  3.9958379E+04;  0.0000000E+00;  9.4887167E-02;  4.0000000E+04;  0.0000000E+00;  3.9988973E+04;  4.7668051E-03;  0.0000000E+00;  3.5163375E-05;  1.3278810E+03;
  2.5150961E-01;  9.9999998E-03; -7.0004903E-02;3994;  4.5292191E-03;  0.0000000E+00;  7.5463133E-05;  9.9933398E+02;  1.0000000E-01; -5.5178687E+02;3;  1.6683830E-01;  0.0000000E+00;  2.4213826E-02;0;  4.7883294E-03;  3.9956496E+04;  0.0000000E+00;  6.9246300E-02;  4.0000000E+04;  0.0000000E+00;  3.9989508E+04;  4.7136517E-03;  0.0000000E+00;  7.4677700E-05;  1.2674319E+03;
  2.5148180E-01;  9.9999998E-03; -6.0000174E-02;3995;  4.5970958E-03;  0.0000000E+00;  6.6260640E-05;  9.9930847E+02;  1.0000000E-01; -5.7292206E+02;3;  1.7597619E-01;  0.0000000E+00;  2.0423964E-02;0;  4.7527035E-03;  3.9954148E+04;  0.0000000E+00;  4.8733275E-02;  4.0000000E+04;  0.0000000E+00;  3.9990129E+04;  4.6339277E-03;  0.0000000E+00;  1.1877578E-04;  1.1780161E+03;
  2.5147498E-01;  9.9999998E-03; -4.9994826E-02;3996;  4.6561598E-03;  0.0000000E+00;  5.3889144E-05;  9.9928394E+02;  1.0000000E-01; -5.9326715E+02;3;  1.8334313E-01;  0.0000000E+00;  1.7015573E-02;0;  4.7019934E-03;  3.9951375E+04;  0.0000000E+00;  3.2220632E-02;  4.0000000E+04;  0.0000000E+00;  3.9990965E+04;  4.5359209E-03;  0.0000000E+00;  1.6607242E-04;  1.0641157E+03;
  2.5149578E-01;  9.9999998E-03; -3.9992385E-02;3997;  4.7053061E-03;  0.0000000E+00;  4.0330280E-05;  9.9926123E+02;  1.0000000E-01; -6.1203204E+02;3;  1.8912555E-01;  0.0000000E+00;  1.3615271E-02;0;  4.6451520E-03;  3.9948363E+04;  0.0000000E+00;  1.9385409E-02;  4.0000000E+04;  0.0000000E+00;  3.9991773E+04;  4.4307685E-03;  0.0000000E+00;  2.1438336E-04;  9.4196246E+02;
  2.5151944E-01;  9.9999998E-03; -2.9993920E-02;3998;  4.7438145E-03;  0.0000000E+00;  2.7427326E-05;  9.9924268E+02;  1.0000000E-01; -6.2743903E+02;3;  1.9265409E-01;  0.0000000E+00;  9.9817421E-03;0;  4.5922557E-03;  3.9946059E+04;  0.0000000E+00;  1.0137436E-02;  4.0000000E+04;  0.0000000E+00;  3.9992621E+04;  4.3318672E-03;  0.0000000E+00;  2.6038868E-04;  8.3148688E+02;
  2.5154492E-01;  9.9999998E-03; -1.9996755E-02;3999;  4.7708461E-03;  0.0000000E+00;  1.6762535E-05;  9.9922906E+02;  1.0000000E-01; -6.3869800E+02;3;  1.9490932E-01;  0.0000000E+00;  6.4000878E-03;0;  4.5499885E-03;  3.9944293E+04;  0.0000000E+00;  4.1867471E-03;  4.0000000E+04;  0.0000000E+00;  3.9993324E+04;  4.2509963E-03;  0.0000000E+00;  2.9899238E-04;  7.4783813E+02;
  2.5156561E-01;  9.9999998E-03; -9.9989567E-03;4000;  4.7867922E-03;  0.0000000E+00;  8.1335802E-06;  9.9921906E+02;  1.0000000E-01; -6.4699402E+02;3;  1.9607648E-01;  0.0000000E+00;  3.0931025E-03;0;  4.5229010E-03;  3.9943398E+04;  0.0000000E+00;  9.8945654E-04;  4.0000000E+04;  0.0000000E+00;  3.9993848E+04;  4.1980096E-03;  0.0000000E+00;  3.2489133E-04;  6.9769690E+02;
  2.5157389E-01;  9.9999998E-03;  5.3065735E-10;4001;  4.7921124E-03;  0.0000000E+00;  1.0010308E-08;  9.9921637E+02;  1.0000000E-01; -6.4921619E+02;3;  1.9635512E-01;  0.0000000E+00; -9.9543749E-06;0;  4.5135636E-03;  3.9943047E+04;  0.0000000E+00; -2.6837857E-12;  4.0000000E+04;  0.0000000E+00;  3.9993844E+04;  4.1795364E-03;  0.0000000E+00;  3.3402728E-04;  6.8131836E+02;
  2.5156561E-01;  9.9999998E-03;  9.9989576E-03;4002;  4.7867899E-03;  0.0000000E+00; -8.1133339E-06;  9.9921906E+02;  1.0000000E-01; -6.4699402E+02;3;  1.9608116E-01;  0.0000000E+00; -3.1068365E-03;0;  4.5228731E-03;  3.9943398E+04;  0.0000000E+00;  9.8950602E-04;  4.0000000E+04;  0.0000000E+00;  3.9993848E+04;  4.1979779E-03;  0.0000000E+00;  3.2489534E-04;  6.9769305E+02;
  2.5154492E-01;  9.9999998E-03;  1.9996755E-02;4003;  4.7708419E-03;  0.0000000E+00; -1.6741293E-05;  9.9922906E+02;  1.0000000E-01; -6.3869800E+02;3;  1.9492076E-01;  0.0000000E+00; -6.4161662E-03;0;  4.5499215E-03;  3.9944305E+04;  0.0000000E+00;  4.1867052E-03;  4.0000000E+04;  0.0000000E+00;  3.9993328E+04;  4.2509218E-03;  0.0000000E+00;  2.9899948E-04;  7.4782990E+02;
  2.5151944E-01;  9.9999998E-03;  2.9993920E-02;4004;  4.7438079E-03;  0.0000000E+00; -2.7406322E-05;  9.9924261E+02;  1.0000000E-01; -6.2748840E+02;3;  1.9267055E-01;  0.0000000E+00; -9.9748746E-03;0;  4.5921472E-03;  3.9946059E+04;  0.0000000E+00;  1.0138121E-02;  4.0000000E+04;  0.0000000E+00;  3.9992621E+04;  4.3317489E-03;  0.0000000E+00;  2.6039814E-04;  8.3147461E+02;
  2.5149578E-01;  9.9999998E-03;  3.9992385E-02;4005;  4.7052973E-03;  0.0000000E+00; -4.0310664E-05;  9.9926129E+02;  1.0000000E-01; -6.1198267E+02;3;  1.8913114E-01;  0.0000000E+00; -1.3612340E-02;0;  4.6450002E-03;  3.9948371E+04;  0.0000000E+00;  1.9386768E-02;  4.0000000E+04;  0.0000000E+00;  3.9991773E+04;  4.4306060E-03;  0.0000000E+00;  2.1439399E-04;  9.4194623E+02;
  2.5147498E-01;  9.9999998E-03;  4.9994826E-02;4006;  4.6561486E-03;  0.0000000E+00; -5.3867527E-05;  9.9928381E+02;  1.0000000E-01; -5.9336591E+02;3;  1.8335582E-01;  0.0000000E+00; -1.7025141E-02;0;  4.7018188E-03;  3.9951371E+04;  0.0000000E+00;  3.2219898E-02;  4.0000000E+04;  0.0000000E+00;  3.9990965E+04;  4.5357351E-03;  0.0000000E+00;  1.6608379E-04;  1.0641074E+03;
  2.5148180E-01;  9.9999998E-03;  6.0000174E-02;4007;  4.5970818E-03;  0.0000000E+00; -6.6236164E-05;  9.9930853E+02;  1.0000000E-01; -5.7287268E+02;3;  1.7598331E-01;  0.0000000E+00; -2.0416956E-02;0;  4.7524921E-03;  3.9954148E+04;  0.0000000E+00;  4.8731990E-02;  4.0000000E+04;  0.0000000E+00;  3.9990129E+04;  4.6337037E-03;  0.0000000E+00;  1.1878824E-04;  1.1780096E+03;
  2.6161361E-01;  9.9999998E-03; -9.9987805E-02;4052;  4.3823859E-03;  0.0000000E+00;  9.4321411E-05;  9.9941357E+02;  1.0000000E-01; -4.8586279E+02;3;  1.4057906E-01;  0.0000000E+00;  2.5263757E-02;0;  4.2475602E-03;  3.9962777E+04;  0.0000000E+00;  1.4173537E-01;  4.0000000E+04;  0.0000000E+00;  3.9990828E+04;  4.4348552E-03;  0.0000000E+00; -1.8729491E-04;  1.1365408E+03;
  2.6156417E-01;  9.9999998E-03; -8.9994177E-02;4053;  4.4425945E-03;  0.0000000E+00;  9.5440097E-05;  9.9939819E+02;  1.0000000E-01; -4.9860318E+02;3;  1.5459383E-01;  0.0000000E+00;  2.5136862E-02;0;  4.2667934E-03;  3.9961117E+04;  0.0000000E+00;  1.0250775E-01;  4.0000000E+04;  0.0000000E+00;  3.9990914E+04;  4.4309944E-03;  0.0000000E+00; -1.6420108E-04;  1.1035863E+03;
  2.6154014E-01;  9.9999998E-03; -7.9998106E-02;4054;  4.5050336E-03;  0.0000000E+00;  8.9923087E-05;  9.9936194E+02;  1.0000000E-01; -5.2862701E+02;3;  1.6688554E-01;  0.0000000E+00;  2.2619182E-02;0;  4.2466330E-03;  3.9957840E+04;  0.0000000E+00;  7.4561939E-02;  4.0000000E+04;  0.0000000E+00;  3.9991301E+04;  4.3797940E-03;  0.0000000E+00; -1.3316116E-04;  1.0512097E+03;
  2.6153582E-01;  9.9999998E-03; -6.9997825E-02;4055;  4.5656431E-03;  0.0000000E+00;  7.9784892E-05;  9.9931262E+02;  1.0000000E-01; -5.6946539E+02;3;  1.7601719E-01;  0.0000000E+00;  1.9351760E-02;0;  4.1880640E-03;  3.9953395E+04;  0.0000000E+00;  5.4086193E-02;  4.0000000E+04;  0.0000000E+00;  3.9991672E+04;  4.2850971E-03;  0.0000000E+00; -9.7033269E-05;  9.7542749E+02;
  2.6153561E-01;  9.9999998E-03; -5.9993625E-02;4056;  4.6211621E-03;  0.0000000E+00;  6.7056259E-05;  9.9926312E+02;  1.0000000E-01; -6.1050128E+02;3;  1.8271762E-01;  0.0000000E+00;  1.6671214E-02;0;  4.0999553E-03;  3.9948832E+04;  0.0000000E+00;  3.8242463E-02;  4.0000000E+04;  0.0000000E+00;  3.9992117E+04;  4.1572247E-03;  0.0000000E+00; -5.7269415E-05;  8.7705725E+02;
  2.6154825E-01;  9.9999998E-03; -4.9987610E-02;4057;  4.6688439E-03;  0.0000000E+00;  5.3281859E-05;  9.9921747E+02;  1.0000000E-01; -6.4832733E+02;3;  1.8847911E-01;  0.0000000E+00;  1.3869495E-02;0;  3.9940341E-03;  3.9944273E+04;  0.0000000E+00;  2.5556337E-02;  4.0000000E+04;  0.0000000E+00;  3.9993156E+04;  4.0093004E-03;  0.0000000E+00; -1.5266047E-05;  7.6476166E+02;
  2.6156464E-01;  9.9999998E-03; -3.9985638E-02;4058;  4.7076708E-03;  0.0000000E+00;  3.9282855E-05;  9.9917975E+02;  1.0000000E-01; -6.7958569E+02;3;  1.9299378E-01;  0.0000000E+00;  1.0728740E-02;0;  3.8850196E-03;  3.9940477E+04;  0.0000000E+00;  1.5576582E-02;  4.0000000E+04;  0.0000000E+00;  3.9993992E+04;  3.8577982E-03;  0.0000000E+00;  2.7221333E-05;  6.5429083E+02;
  2.6157743E-01;  9.9999998E-03; -2.9988661E-02;4059;  4.7368575E-03;  0.0000000E+00;  2.6750382E-05;  9.9914984E+02;  1.0000000E-01; -7.0432574E+02;3;  1.9599946E-01;  0.0000000E+00;  7.7630309E-03;0;  3.7865799E-03;  3.9937598E+04;  0.0000000E+00;  8.2506966E-03;  4.0000000E+04;  0.0000000E+00;  3.9994492E+04;  3.7194071E-03;  0.0000000E+00;  6.7172710E-05;  5.6138080E+02;
  2.6158595E-01;  9.9999998E-03; -1.9993419E-02;4060;  4.7566681E-03;  0.0000000E+00;  1.6543147E-05;  9.9912854E+02;  1.0000000E-01; -7.2200427E+02;3;  1.9824746E-01;  0.0000000E+00;  5.3626569E-03;0;  3.7092203E-03;  3.9935246E+04;  0.0000000E+00;  3.4460602E-03;  4.0000000E+04;  0.0000000E+00;  3.9995086E+04;  3.6088079E-03;  0.0000000E+00;  1.0041231E-04;  4.9561664E+02;
  2.6159075E-01;  9.9999998E-03; -9.9972934E-03;4061;  4.7683730E-03;  0.0000000E+00;  7.9827350E-06;  9.9911621E+02;  1.0000000E-01; -7.3222620E+02;3;  1.9936872E-01;  0.0000000E+00;  2.9357828E-03;0;  3.6600977E-03;  3.9933926E+04;  0.0000000E+00;  8.2111696E-04;  4.0000000E+04;  0.0000000E+00;  3.9995332E+04;  3.5375098E-03;  0.0000000E+00;  1.2258785E-04;  4.5846948E+02;
  2.6159257E-01;  9.9999998E-03;  8.9409369E-10;4062;  4.7723581E-03;  0.0000000E+00;  1.2355239E-08;  9.9911121E+02;  1.0000000E-01; -7.3632483E+02;3;  1.9980255E-01;  0.0000000E+00; -2.4284935E-07;0;  3.6432480E-03;  3.9933422E+04;  0.0000000E+00; -3.1697793E-12;  4.0000000E+04;  0.0000000E+00;  3.9995508E+04;  3.5128619E-03;  0.0000000E+00;  1.3038605E-04;  4.4677805E+02;
  2.6159075E-01;  9.9999998E-03;  9.9972943E-03;4063;  4.7683707E-03;  0.0000000E+00; -7.9591046E-06;  9.9911621E+02;  1.0000000E-01; -7.3222620E+02;3;  1.9937000E-01;  0.0000000E+00; -2.9423907E-03;0;  3.6600628E-03;  3.9933926E+04;  0.0000000E+00;  8.2121586E-04;  4.0000000E+04;  0.0000000E+00;  3.9995328E+04;  3.5374723E-03;  0.0000000E+00;  1.2259037E-04;  4.5845679E+02;
  2.6158595E-01;  9.9999998E-03;  1.9993421E-02;4064;  4.7566635E-03;  0.0000000E+00; -1.6517874E-05;  9.9912854E+02;  1.0000000E-01; -7.2200427E+02;3;  1.9825412E-01;  0.0000000E+00; -5.3630844E-03;0;  3.7091509E-03;  3.9935246E+04;  0.0000000E+00;  3.4466085E-03;  4.0000000E+04;  0.0000000E+00;  3.9995086E+04;  3.6087334E-03;  0.0000000E+00;  1.0041745E-04;  4.9560605E+02;
  2.6157743E-01;  9.9999998E-03;  2.9988661E-02;4065;  4.7368500E-03;  0.0000000E+00; -2.6727563E-05;  9.9914978E+02;  1.0000000E-01; -7.0437512E+02;3;  1.9600204E-01;  0.0000000E+00; -7.7739181E-03;0;  3.7864875E-03;  3.9937598E+04;  0.0000000E+00;  8.2512451E-03;  4.0000000E+04;  0.0000000E+00;  3.9994492E+04;  3.7193084E-03;  0.0000000E+00;  6.7179026E-05;  5.6136670E+02;
  2.6156464E-01;  9.9999998E-03;  3.9985638E-02;4066;  4.7076615E-03;  0.0000000E+00; -3.9259907E-05;  9.9917975E+02;  1.0000000E-01; -6.7958569E+02;3;  1.9300231E-01;  0.0000000E+00; -1.0731566E-02;0;  3.8848924E-03;  3.9940477E+04;  0.0000000E+00;  1.5576839E-02;  4.0000000E+04;  0.0000000E+00;  3.9993992E+04;  3.8576631E-03;  0.0000000E+00;  2.7229324E-05;  6.5426825E+02;
  2.6154825E-01;  9.9999998E-03;  4.9987610E-02;4067;  4.6688318E-03;  0.0000000E+00; -5.3255622E-05;  9.9921747E+02;  1.0000000E-01; -6.4832733E+02;3;  1.8848434E-01;  0.0000000E+00; -1.3869171E-02;0;  3.9938721E-03;  3.9944273E+04;  0.0000000E+00;  2.5557291E-02;  4.0000000E+04;  0.0000000E+00;  3.9993156E+04;  4.0091299E-03;  0.0000000E+00; -1.5258013E-05;  7.6476105E+02;
  2.6153561E-01;  9.9999998E-03;  5.9993625E-02;4068;  4.6211472E-03;  0.0000000E+00; -6.7030167E-05;  9.9926312E+02;  1.0000000E-01; -6.1050128E+02;3;  1.8272305E-01;  0.0000000E+00; -1.6664555E-02;0;  4.0997611E-03;  3.9948832E+04;  0.0000000E+00;  3.8244747E-02;  4.0000000E+04;  0.0000000E+00;  3.9992117E+04;  4.1570226E-03;  0.0000000E+00; -5.7261252E-05;  8.7705328E+02;
  2.7162486E-01;  9.9999998E-03; -9.9986807E-02;4113;  4.3948092E-03;  0.0000000E+00;  1.0606799E-04;  9.9958075E+02;  1.0000000E-01; -3.4734821E+02;3;  1.4864382E-01;  0.0000000E+00;  2.0103004E-02;0;  3.5225344E-03;  3.9974125E+04;  0.0000000E+00;  8.8104784E-02;  4.0000000E+04;  0.0000000E+00;  3.9992457E+04;  3.8669172E-03;  0.0000000E+00; -3.4438272E-04;  8.7369330E+02;
  2.7159217E-01;  9.9999998E-03; -8.9990526E-02;4114;  4.4507822E-03;  0.0000000E+00;  9.9340599E-05;  9.9951672E+02;  1.0000000E-01; -4.0038373E+02;3;  1.6071860E-01;  0.0000000E+00;  1.9066062E-02;0;  3.5161115E-03;  3.9969066E+04;  0.0000000E+00;  5.8116637E-02;  4.0000000E+04;  0.0000000E+00;  3.9992887E+04;  3.8417603E-03;  0.0000000E+00; -3.2564881E-04;  8.2856549E+02;
  2.7158284E-01;  9.9999998E-03; -7.9991117E-02;4115;  4.5065093E-03;  0.0000000E+00;  8.8823021E-05;  9.9944189E+02;  1.0000000E-01; -4.6235730E+02;3;  1.7217267E-01;  0.0000000E+00;  1.6972141E-02;0;  3.4627395E-03;  3.9962609E+04;  0.0000000E+00;  3.9780561E-02;  4.0000000E+04;  0.0000000E+00;  3.9993332E+04;  3.7610473E-03;  0.0000000E+00; -2.9830768E-04;  7.6022662E+02;
  2.7158132E-01;  9.9999998E-03; -6.9988325E-02;4116;  4.5584198E-03;  0.0000000E+00;  7.6184057E-05;  9.9936304E+02;  1.0000000E-01; -5.2768878E+02;3;  1.7983639E-01;  0.0000000E+00;  1.4856118E-02;0;  3.3662962E-03;  3.9955652E+04;  0.0000000E+00;  2.8387465E-02;  4.0000000E+04;  0.0000000E+00;  3.9994242E+04;  3.6317960E-03;  0.0000000E+00; -2.6549969E-04;  6.7152112E+02;
  2.7157468E-01;  9.9999998E-03; -5.9986867E-02;4117;  4.6039373E-03;  0.0000000E+00;  6.2491818E-05;  9.9929205E+02;  1.0000000E-01; -5.8650195E+02;3;  1.8628722E-01;  0.0000000E+00;  1.2781371E-02;0;  3.2381760E-03;  3.9949301E+04;  0.0000000E+00;  2.0530781E-02;  4.0000000E+04;  0.0000000E+00;  3.9995062E+04;  3.4674329E-03;  0.0000000E+00; -2.2925703E-04;  5.6931848E+02;
  2.7156234E-01;  9.9999998E-03; -4.9987648E-02;4118;  4.6414211E-03;  0.0000000E+00;  4.8589929E-05;  9.9922699E+02;  1.0000000E-01; -6.4042633E+02;3;  1.9099481E-01;  0.0000000E+00;  1.0560011E-02;0;  3.0935840E-03;  3.9943434E+04;  0.0000000E+00;  1.4361032E-02;  4.0000000E+04;  0.0000000E+00;  3.9995840E+04;  3.2847540E-03;  0.0000000E+00; -1.9117011E-04;  4.6559875E+02;
  2.7155197E-01;  9.9999998E-03; -3.9990727E-02;4119;  4.6710679E-03;  0.0000000E+00;  3.5688670E-05;  9.9917444E+02;  1.0000000E-01; -6.8398065E+02;3;  1.9582364E-01;  0.0000000E+00;  8.4394775E-03;0;  2.9485391E-03;  3.9938789E+04;  0.0000000E+00;  9.2451442E-03;  4.0000000E+04;  0.0000000E+00;  3.9996480E+04;  3.1017687E-03;  0.0000000E+00; -1.5322964E-04;  3.7462375E+02;
  2.7154797E-01;  9.9999998E-03; -2.9995294E-02;4120;  4.6924353E-03;  0.0000000E+00;  2.4495615E-05;  9.9913568E+02;  1.0000000E-01; -7.1607849E+02;3;  1.9898605E-01;  0.0000000E+00;  6.3090879E-03;0;  2.8182105E-03;  3.9934922E+04;  0.0000000E+00;  5.1758294E-03;  4.0000000E+04;  0.0000000E+00;  3.9996895E+04;  2.9364408E-03;  0.0000000E+00; -1.1823016E-04;  3.0705429E+02;
  2.7154961E-01;  9.9999998E-03; -1.9999256E-02;4121;  4.7065425E-03;  0.0000000E+00;  1.4996397E-05;  9.9910706E+02;  1.0000000E-01; -7.3978156E+02;3;  2.0094940E-01;  0.0000000E+00;  4.1553555E-03;0;  2.7154323E-03;  3.9932328E+04;  0.0000000E+00;  2.2705391E-03;  4.0000000E+04;  0.0000000E+00;  3.9997234E+04;  2.8050316E-03;  0.0000000E+00; -8.9599373E-05;  2.6586572E+02;
  2.7155370E-01;  9.9999998E-03; -1.0000744E-02;4122;  4.7144275E-03;  0.0000000E+00;  7.1007971E-06;  9.9909174E+02;  1.0000000E-01; -7.5247253E+02;3;  2.0207885E-01;  0.0000000E+00;  2.1485030E-03;0;  2.6497564E-03;  3.9930828E+04;  0.0000000E+00;  5.5993965E-04;  4.0000000E+04;  0.0000000E+00;  3.9997410E+04;  2.7204985E-03;  0.0000000E+00; -7.0742200E-05;  2.4638861E+02;
  2.7155545E-01;  9.9999998E-03;  1.2361915E-09;4123;  4.7169416E-03;  0.0000000E+00;  1.3331829E-08;  9.9908630E+02;  1.0000000E-01; -7.5696625E+02;3;  2.0246257E-01;  0.0000000E+00; -1.0633871E-05;0;  2.6271979E-03;  3.9930320E+04;  0.0000000E+00; -2.1412394E-12;  4.0000000E+04;  0.0000000E+00;  3.9997465E+04;  2.6913437E-03;  0.0000000E+00; -6.4145795E-05;  2.4106750E+02;
  2.7155370E-01;  9.9999998E-03;  1.0000746E-02;4124;  4.7144252E-03;  0.0000000E+00; -7.0732713E-06;  9.9909174E+02;  1.0000000E-01; -7.5247253E+02;3;  2.0208205E-01;  0.0000000E+00; -2.1457761E-03;0;  2.6497296E-03;  3.9930824E+04;  0.0000000E+00;  5.6016596E-04;  4.0000000E+04;  0.0000000E+00;  3.9997410E+04;  2.7204698E-03;  0.0000000E+00; -7.0740316E-05;  2.4637973E+02;
  2.7154961E-01;  9.9999998E-03;  1.9999258E-02;4125;  4.7065364E-03;  0.0000000E+00; -1.4969314E-05;  9.9910706E+02;  1.0000000E-01; -7.3978156E+02;3;  2.0095524E-01;  0.0000000E+00; -4.1614627E-03;0;  2.7153781E-03;  3.9932332E+04;  0.0000000E+00;  2.2712566E-03;  4.0000000E+04;  0.0000000E+00;  3.9997234E+04;  2.8049741E-03;  0.0000000E+00; -8.9595960E-05;  2.6585269E+02;
  2.7154797E-01;  9.9999998E-03;  2.9995294E-02;4126;  4.6924273E-03;  0.0000000E+00; -2.4467830E-05;  9.9913568E+02;  1.0000000E-01; -7.1607849E+02;3;  1.9899701E-01;  0.0000000E+00; -6.3189380E-03;0;  2.8181246E-03;  3.9934922E+04;  0.0000000E+00;  5.1767197E-03;  4.0000000E+04;  0.0000000E+00;  3.9996895E+04;  2.9363504E-03;  0.0000000E+00; -1.1822588E-04;  3.0703149E+02;
  2.7155197E-01;  9.9999998E-03;  3.9990727E-02;4127;  4.6710568E-03;  0.0000000E+00; -3.5661684E-05;  9.9917450E+02;  1.0000000E-01; -6.8393127E+02;3;  1.9582810E-01;  0.0000000E+00; -8.4389020E-03;0;  2.9484283E-03;  3.9938789E+04;  0.0000000E+00;  9.2462227E-03;  4.0000000E+04;  0.0000000E+00;  3.9996480E+04;  3.1016530E-03;  0.0000000E+00; -1.5322458E-04;  3.7459943E+02;
  2.7156234E-01;  9.9999998E-03;  4.9987648E-02;4128;  4.6414076E-03;  0.0000000E+00; -4.8563190E-05;  9.9922699E+02;  1.0000000E-01; -6.4042633E+02;3;  1.9099526E-01;  0.0000000E+00; -1.0556837E-02;0;  3.0934403E-03;  3.9943438E+04;  0.0000000E+00;  1.4361786E-02;  4.0000000E+04;  0.0000000E+00;  3.9995840E+04;  3.2846050E-03;  0.0000000E+00; -1.9116474E-04;  4.6558621E+02;
  2.7157468E-01;  9.9999998E-03;  5.9986867E-02;4129;  4.6039219E-03;  0.0000000E+00; -6.2464351E-05;  9.9929193E+02;  1.0000000E-01; -5.8660071E+02;3;  1.8629056E-01;  0.0000000E+00; -1.2797740E-02;0;  3.2380114E-03;  3.9949297E+04;  0.0000000E+00;  2.0532526E-02;  4.0000000E+04;  0.0000000E+00;  3.9995059E+04;  3.4672627E-03;  0.0000000E+00; -2.2925143E-04;  5.6931030E+02;
  2.8160951E-01;  9.9999998E-03; -9.9987246E-02;4174;  4.3832259E-03;  0.0000000E+00;  1.0699145E-04;  9.9976923E+02;  1.0000000E-01; -1.9120447E+02;3;  1.5016735E-01;  0.0000000E+00;  1.4065652E-02;0;  2.7181823E-03;  3.9988277E+04;  0.0000000E+00;  2.1354290E-02;  4.0000000E+04;  0.0000000E+00;  3.9995016E+04;  3.2055054E-03;  0.0000000E+00; -4.8732304E-04;  6.3978076E+02;
  2.8158504E-01;  9.9999998E-03; -8.9986868E-02;4175;  4.4368193E-03;  0.0000000E+00;  9.5946300E-05;  9.9967218E+02;  1.0000000E-01; -2.7159726E+02;3;  1.6282362E-01;  0.0000000E+00;  1.3017820E-02;0;  2.6843194E-03;  3.9980086E+04;  0.0000000E+00;  5.1926053E-03;  4.0000000E+04;  0.0000000E+00;  3.9994996E+04;  3.1569959E-03;  0.0000000E+00; -4.7267650E-04;  5.7908197E+02;
  2.8156778E-01;  9.9999998E-03; -7.9987660E-02;4176;  4.4867895E-03;  0.0000000E+00;  8.3150975E-05;  9.9956677E+02;  1.0000000E-01; -3.5890344E+02;3;  1.7433606E-01;  0.0000000E+00;  1.1745718E-02;0;  2.6028459E-03;  3.9971340E+04;  0.0000000E+00; -1.3548131E-04;  4.0000000E+04;  0.0000000E+00;  3.9995676E+04;  3.0514428E-03;  0.0000000E+00; -4.4859695E-04;  4.9320425E+02;
  2.8155309E-01;  9.9999998E-03; -6.9990121E-02;4177;  4.5295726E-03;  0.0000000E+00;  6.9624133E-05;  9.9946558E+02;  1.0000000E-01; -4.4275290E+02;3;  1.8221428E-01;  0.0000000E+00;  9.9654868E-03;0;  2.4780410E-03;  3.9962301E+04;  0.0000000E+00;  7.7808718E-06;  4.0000000E+04;  0.0000000E+00;  3.9996297E+04;  2.8968218E-03;  0.0000000E+00; -4.1878092E-04;  3.9234171E+02;
  2.8154254E-01;  9.9999998E-03; -5.9993058E-02;4178;  4.5659747E-03;  0.0000000E+00;  5.6292542E-05;  9.9937823E+02;  1.0000000E-01; -5.1509656E+02;3;  1.8778595E-01;  0.0000000E+00;  8.5418923E-03;0;  2.3211280E-03;  3.9954398E+04;  0.0000000E+00;  1.8009959E-03;  4.0000000E+04;  0.0000000E+00;  3.9997082E+04;  2.7070192E-03;  0.0000000E+00; -3.8589118E-04;  2.8973346E+02;
  2.8154233E-01;  9.9999998E-03; -4.9995508E-02;4179;  4.5948364E-03;  0.0000000E+00;  4.3694130E-05;  9.9930157E+02;  1.0000000E-01; -5.7865033E+02;3;  1.9250850E-01;  0.0000000E+00;  7.1549304E-03;0;  2.1476974E-03;  3.9947508E+04;  0.0000000E+00;  3.1341573E-03;  4.0000000E+04;  0.0000000E+00;  3.9997855E+04;  2.4996260E-03;  0.0000000E+00; -3.5192861E-04;  1.9973853E+02;
  2.8155655E-01;  9.9999998E-03; -3.9997902E-02;4180;  4.6162978E-03;  0.0000000E+00;  3.2162381E-05;  9.9924323E+02;  1.0000000E-01; -6.2699463E+02;3;  1.9655378E-01;  0.0000000E+00;  5.7251719E-03;0;  1.9751769E-03;  3.9942219E+04;  0.0000000E+00;  3.3189950E-03;  4.0000000E+04;  0.0000000E+00;  3.9998094E+04;  2.2940324E-03;  0.0000000E+00; -3.1885543E-04;  1.3400175E+02;
  2.8157860E-01;  9.9999998E-03; -3.0000696E-02;4181;  4.6313414E-03;  0.0000000E+00;  2.2212247E-05;  9.9919562E+02;  1.0000000E-01; -6.6640088E+02;3;  2.0004946E-01;  0.0000000E+00;  4.0165917E-03;0;  1.8209518E-03;  3.9938223E+04;  0.0000000E+00;  2.5440275E-03;  4.0000000E+04;  0.0000000E+00;  3.9998383E+04;  2.1099010E-03;  0.0000000E+00; -2.8894920E-04;  9.7007996E+01;
  2.8159916E-01;  9.9999998E-03; -2.0003129E-02;4182;  4.6409946E-03;  0.0000000E+00;  1.3806515E-05;  9.9916223E+02;  1.0000000E-01; -6.9405444E+02;3;  2.0218554E-01;  0.0000000E+00;  2.6307655E-03;0;  1.6999301E-03;  3.9935605E+04;  0.0000000E+00;  1.3667009E-03;  4.0000000E+04;  0.0000000E+00;  3.9998449E+04;  1.9647637E-03;  0.0000000E+00; -2.6483368E-04;  8.4466141E+01;
  2.8161252E-01;  9.9999998E-03; -1.0003231E-02;4183;  4.6462519E-03;  0.0000000E+00;  6.6028961E-06;  9.9914435E+02;  1.0000000E-01; -7.0886884E+02;3;  2.0343027E-01;  0.0000000E+00;  1.2879643E-03;0;  1.6229929E-03;  3.9934082E+04;  0.0000000E+00;  3.7859494E-04;  4.0000000E+04;  0.0000000E+00;  3.9998668E+04;  1.8720719E-03;  0.0000000E+00; -2.4907896E-04;  8.5200539E+01;
  2.8161722E-01;  9.9999998E-03;  1.6246198E-09;4184;  4.6479129E-03;  0.0000000E+00;  1.5190919E-08;  9.9913684E+02;  1.0000000E-01; -7.1509088E+02;3;  2.0380870E-01;  0.0000000E+00; -5.5947032E-07;0;  1.5966054E-03;  3.9933672E+04;  0.0000000E+00; -1.9703961E-12;  4.0000000E+04;  0.0000000E+00;  3.9998457E+04;  1.8402006E-03;  0.0000000E+00; -2.4359516E-04;  8.7186150E+01;
  2.8161252E-01;  9.9999998E-03;  1.0003235E-02;4185;  4.6462491E-03;  0.0000000E+00; -6.5726399E-06;  9.9914435E+02;  1.0000000E-01; -7.0886884E+02;3;  2.0343165E-01;  0.0000000E+00; -1.2950624E-03;0;  1.6229680E-03;  3.9934090E+04;  0.0000000E+00;  3.7890559E-04;  4.0000000E+04;  0.0000000E+00;  3.9998668E+04;  1.8720460E-03;  0.0000000E+00; -2.4907800E-04;  8.5194611E+01;
  2.8159916E-01;  9.9999998E-03;  2.0003133E-02;4186;  4.6409890E-03;  0.0000000E+00; -1.3775924E-05;  9.9916229E+02;  1.0000000E-01; -6.9400507E+02;3;  2.0218556E-01;  0.0000000E+00; -2.6319434E-03;0;  1.6998798E-03;  3.9935605E+04;  0.0000000E+00;  1.3673776E-03;  4.0000000E+04;  0.0000000E+00;  3.9998449E+04;  1.9647118E-03;  0.0000000E+00; -2.6483205E-04;  8.4452965E+01;
  2.8157860E-01;  9.9999998E-03;  3.0000698E-02;4187;  4.6313326E-03;  0.0000000E+00; -2.2181564E-05;  9.9919556E+02;  1.0000000E-01; -6.6645032E+02;3;  2.0005120E-01;  0.0000000E+00; -4.0206159E-03;0;  1.8208802E-03;  3.9938223E+04;  0.0000000E+00;  2.5452790E-03;  4.0000000E+04;  0.0000000E+00;  3.9998383E+04;  2.1098272E-03;  0.0000000E+00; -2.8894705E-04;  9.6982697E+01;
  2.8155655E-01;  9.9999998E-03;  3.9997905E-02;4188;  4.6162866E-03;  0.0000000E+00; -3.2130443E-05;  9.9924316E+02;  1.0000000E-01; -6.2704401E+02;3;  1.9656333E-01;  0.0000000E+00; -5.7309433E-03;0;  1.9750809E-03;  3.9942219E+04;  0.0000000E+00;  3.3210095E-03;  4.0000000E+04;  0.0000000E+00;  3.9998098E+04;  2.2939339E-03;  0.0000000E+00; -3.1885286E-04;  1.3398386E+02;
  2.8154233E-01;  9.9999998E-03;  4.9995512E-02;4189;  4.5948219E-03;  0.0000000E+00; -4.3663524E-05;  9.9930157E+02;  1.0000000E-01; -5.7865033E+02;3;  1.9250670E-01;  0.0000000E+00; -7.1691787E-03;0;  2.1475861E-03;  3.9947504E+04;  0.0000000E+00;  3.1354255E-03;  4.0000000E+04;  0.0000000E+00;  3.9997859E+04;  2.4995126E-03;  0.0000000E+00; -3.5192660E-04;  1.9972281E+02;
  2.8154254E-01;  9.9999998E-03;  5.9993058E-02;4190;  4.5659584E-03;  0.0000000E+00; -5.6260469E-05;  9.9937823E+02;  1.0000000E-01; -5.1509656E+02;3;  1.8777907E-01;  0.0000000E+00; -8.5239606E-03;0;  2.3209960E-03;  3.9954402E+04;  0.0000000E+00;  1.8018440E-03;  4.0000000E+04;  0.0000000E+00;  3.9997082E+04;  2.7068853E-03;  0.0000000E+00; -3.8588920E-04;  2.8973206E+02;
  2.9155812E-01;  9.9999998E-03; -9.9991024E-02;4235;  4.3655471E-03;  0.0000000E+00;  1.0387947E-04;  9.9995319E+02;  1.0000000E-01; -3.8764336E+01;3;  1.5096514E-01;  0.0000000E+00;  6.9352067E-03;0;  1.9552424E-03;  4.0002246E+04;  0.0000000E+00; -4.4181898E-02;  4.0000000E+04;  0.0000000E+00;  3.9996215E+04;  2.5659632E-03;  0.0000000E+00; -6.1072072E-04;  4.6473917E+02;
  2.9154330E-01;  9.9999998E-03; -8.9991696E-02;4236;  4.4152853E-03;  0.0000000E+00;  9.0105968E-05;  9.9983130E+02;  1.0000000E-01; -1.3974913E+02;3;  1.6345957E-01;  0.0000000E+00;  6.4694919E-03;0;  1.8944892E-03;  3.9991973E+04;  0.0000000E+00; -4.3957684E-02;  4.0000000E+04;  0.0000000E+00;  3.9996844E+04;  2.4939382E-03;  0.0000000E+00; -5.9944903E-04;  3.8167914E+02;
  2.9153946E-01;  9.9999998E-03; -7.9993777E-02;4237;  4.4586584E-03;  0.0000000E+00;  7.5947704E-05;  9.9971155E+02;  1.0000000E-01; -2.3895621E+02;3;  1.7404455E-01;  0.0000000E+00;  6.2007685E-03;0;  1.7880145E-03;  3.9981281E+04;  0.0000000E+00; -3.5078064E-02;  4.0000000E+04;  0.0000000E+00;  3.9997598E+04;  2.3665582E-03;  0.0000000E+00; -5.7854364E-04;  2.7512521E+02;
  2.9155198E-01;  9.9999998E-03; -6.9994718E-02;4238;  4.4935625E-03;  0.0000000E+00;  6.2690386E-05;  9.9960126E+02;  1.0000000E-01; -3.3036102E+02;3;  1.8384427E-01;  0.0000000E+00;  4.5129773E-03;0;  1.6398223E-03;  3.9971277E+04;  0.0000000E+00; -2.3221020E-02;  4.0000000E+04;  0.0000000E+00;  3.9998664E+04;  2.1919042E-03;  0.0000000E+00; -5.5208197E-04;  1.6336334E+02;
  2.9157445E-01;  9.9999998E-03; -5.9995100E-02;4239;  4.5211948E-03;  0.0000000E+00;  5.0346476E-05;  9.9950269E+02;  1.0000000E-01; -4.1203772E+02;3;  1.8860248E-01;  0.0000000E+00;  3.8757678E-03;0;  1.4620144E-03;  3.9962938E+04;  0.0000000E+00; -1.2333510E-02;  4.0000000E+04;  0.0000000E+00;  3.9999406E+04;  1.9849362E-03;  0.0000000E+00; -5.2292185E-04;  6.4498177E+01;
  2.9159456E-01;  9.9999998E-03; -4.9996912E-02;4240;  4.5423349E-03;  0.0000000E+00;  3.9250390E-05;  9.9942334E+02;  1.0000000E-01; -4.7776425E+02;3;  1.9314703E-01;  0.0000000E+00;  3.0427778E-03;0;  1.2717773E-03;  3.9955840E+04;  0.0000000E+00; -4.4978573E-03;  4.0000000E+04;  0.0000000E+00;  3.9999879E+04;  1.7648102E-03;  0.0000000E+00; -4.9303292E-04;  1.0539750E+01;
  2.9160824E-01;  9.9999998E-03; -4.0000238E-02;4241;  4.5573083E-03;  0.0000000E+00;  2.9481185E-05;  9.9936218E+02;  1.0000000E-01; -5.2842950E+02;3;  1.9623810E-01;  0.0000000E+00;  2.4453066E-03;0;  1.0871235E-03;  3.9950594E+04;  0.0000000E+00; -1.6497288E-04;  4.0000000E+04;  0.0000000E+00;  4.0000336E+04;  1.5513507E-03;  0.0000000E+00; -4.6422714E-04;  4.5457485E+01;
  2.9162034E-01;  9.9999998E-03; -3.0003743E-02;4242;  4.5670103E-03;  0.0000000E+00;  2.0938378E-05;  9.9931696E+02;  1.0000000E-01; -5.6590991E+02;3;  1.9901265E-01;  0.0000000E+00;  1.6954768E-03;0;  9.2430820E-04;  3.9946762E+04;  0.0000000E+00;  1.3113701E-03;  4.0000000E+04;  0.0000000E+00;  4.0000043E+04;  1.3628880E-03;  0.0000000E+00; -4.3857985E-04;  4.9555546E+01;
  2.9163358E-01;  9.9999998E-03; -2.0005865E-02;4243;  4.5727310E-03;  0.0000000E+00;  1.3393696E-05;  9.9928516E+02;  1.0000000E-01; -5.9223016E+02;3;  2.0093581E-01;  0.0000000E+00;  1.1198614E-03;0;  7.9709612E-04;  3.9944438E+04;  0.0000000E+00;  1.0848207E-03;  4.0000000E+04;  0.0000000E+00;  3.9999863E+04;  1.2153678E-03;  0.0000000E+00; -4.1827169E-04;  3.2456959E+01;
  2.9164445E-01;  9.9999998E-03; -1.0005112E-02;4244;  4.5755869E-03;  0.0000000E+00;  6.5247559E-06;  9.9926642E+02;  1.0000000E-01; -6.0773590E+02;3;  2.0205936E-01;  0.0000000E+00;  5.4522033E-04;0;  7.1621855E-04;  3.9943102E+04;  0.0000000E+00;  3.5265659E-04;  4.0000000E+04;  0.0000000E+00;  3.9999520E+04;  1.1214251E-03;  0.0000000E+00; -4.0520652E-04;  1.1272521E+01;
  2.9164878E-01;  9.9999998E-03;  1.9575375E-09;4245;  4.5764330E-03;  0.0000000E+00;  1.6650258E-08;  9.9926007E+02;  1.0000000E-01; -6.1301971E+02;3;  2.0236008E-01;  0.0000000E+00;  6.3275365E-07;0;  6.8846432E-04;  3.9942793E+04;  0.0000000E+00; -2.6282323E-12;  4.0000000E+04;  0.0000000E+00;  3.9999449E+04;  1.0891595E-03;  0.0000000E+00; -4.0069519E-04;  1.9586093E+00;
  2.9164445E-01;  9.9999998E-03;  1.0005116E-02;4246;  4.5755841E-03;  0.0000000E+00; -6.4918991E-06;  9.9926642E+02;  1.0000000E-01; -6.0773590E+02;3;  2.0206626E-01;  0.0000000E+00; -5.5149727E-04;0;  7.1620179E-04;  3.9943102E+04;  0.0000000E+00;  3.5306939E-04;  4.0000000E+04;  0.0000000E+00;  3.9999520E+04;  1.1214076E-03;  0.0000000E+00; -4.0520582E-04;  1.1279529E+01;
  2.9163358E-01;  9.9999998E-03;  2.0005869E-02;4247;  4.5727249E-03;  0.0000000E+00; -1.3360553E-05;  9.9928510E+02;  1.0000000E-01; -5.9227954E+02;3;  2.0093918E-01;  0.0000000E+00; -1.1302007E-03;0;  7.9706032E-04;  3.9944438E+04;  0.0000000E+00;  1.0855014E-03;  4.0000000E+04;  0.0000000E+00;  3.9999863E+04;  1.2153315E-03;  0.0000000E+00; -4.1827114E-04;  3.2464386E+01;
  2.9162034E-01;  9.9999998E-03;  3.0003747E-02;4248;  4.5670010E-03;  0.0000000E+00; -2.0904821E-05;  9.9931696E+02;  1.0000000E-01; -5.6590991E+02;3;  1.9901192E-01;  0.0000000E+00; -1.7063218E-03;0;  9.2425465E-04;  3.9946762E+04;  0.0000000E+00;  1.3124988E-03;  4.0000000E+04;  0.0000000E+00;  4.0000043E+04;  1.3628346E-03;  0.0000000E+00; -4.3857991E-04;  4.9572590E+01;
  2.9160824E-01;  9.9999998E-03;  4.0000241E-02;4249;  4.5572962E-03;  0.0000000E+00; -2.9446508E-05;  9.9936218E+02;  1.0000000E-01; -5.2842950E+02;3;  1.9624014E-01;  0.0000000E+00; -2.4496645E-03;0;  1.0870530E-03;  3.9950594E+04;  0.0000000E+00; -1.6349915E-04;  4.0000000E+04;  0.0000000E+00;  4.0000332E+04;  1.5512806E-03;  0.0000000E+00; -4.6422763E-04;  4.5475132E+01;
  2.9159456E-01;  9.9999998E-03;  4.9996912E-02;4250;  4.5423205E-03;  0.0000000E+00; -3.9215407E-05;  9.9942322E+02;  1.0000000E-01; -4.7786304E+02;3;  1.9314919E-01;  0.0000000E+00; -3.0486672E-03;0;  1.2716893E-03;  3.9955840E+04;  0.0000000E+00; -4.4975062E-03;  4.0000000E+04;  0.0000000E+00;  3.9999879E+04;  1.7647233E-03;  0.0000000E+00; -4.9303408E-04;  1.0546618E+01;
  2.9157445E-01;  9.9999998E-03;  5.9995104E-02;4251;  4.5211785E-03;  0.0000000E+00; -5.0311523E-05;  9.9950262E+02;  1.0000000E-01; -4.1208710E+02;3;  1.8860166E-01;  0.0000000E+00; -3.8845553E-03;0;  1.4619151E-03;  3.9962938E+04;  0.0000000E+00; -1.2333269E-02;  4.0000000E+04;  0.0000000E+00;  3.9999406E+04;  1.9848379E-03;  0.0000000E+00; -5.2292284E-04;  6.4487381E+01;
  3.0151904E-01;  9.9999998E-03; -9.9996291E-02;4296;  4.3486138E-03;  0.0000000E+00;  9.7843185E-05;  1.0001063E+03;  1.0000000E-01;  8.7997513E+01;3;  1.5085022E-01;  0.0000000E+00; -2.5255486E-04;0;  1.3152878E-03;  4.0013551E+04;  0.0000000E+00; -9.5651962E-02;  4.0000000E+04;  0.0000000E+00;  3.9997316E+04;  2.0284317E-03;  0.0000000E+00; -7.1314391E-04;  3.5837024E+02;
  3.0153355E-01;  9.9999998E-03; -8.9992896E-02;4297;  4.3932437E-03;  0.0000000E+00;  8.2641083E-05;  9.9997565E+02;  1.0000000E-01; -2.0196960E+01;3;  1.6307199E-01;  0.0000000E+00; -8.8687142E-05;0;  1.2294744E-03;  4.0002094E+04;  0.0000000E+00; -7.9237066E-02;  4.0000000E+04;  0.0000000E+00;  3.9998281E+04;  1.9339829E-03;  0.0000000E+00; -7.0450851E-04;  2.5023187E+02;
  3.0155462E-01;  9.9999998E-03; -7.9990782E-02;4298;  4.4304971E-03;  0.0000000E+00;  6.8411340E-05;  9.9985089E+02;  1.0000000E-01; -1.2355206E+02;3;  1.7297165E-01;  0.0000000E+00;  6.6055698E-05;0;  1.1035458E-03;  3.9991438E+04;  0.0000000E+00; -5.7619520E-02;  4.0000000E+04;  0.0000000E+00;  3.9999281E+04;  1.7899367E-03;  0.0000000E+00; -6.8639091E-04;  1.3037247E+02;
  3.0157495E-01;  9.9999998E-03; -6.9991894E-02;4299;  4.4583748E-03;  0.0000000E+00;  5.5774239E-05;  9.9973944E+02;  1.0000000E-01; -2.1584575E+02;3;  1.8297336E-01;  0.0000000E+00; -9.6454879E-04;0;  9.4277982E-04;  3.9981715E+04;  0.0000000E+00; -3.6322836E-02;  4.0000000E+04;  0.0000000E+00;  4.0000355E+04;  1.6056482E-03;  0.0000000E+00; -6.6286838E-04;  5.2669312E+01;
  3.0160114E-01;  9.9999998E-03; -5.9994977E-02;4300;  4.4782888E-03;  0.0000000E+00;  4.5234712E-05;  9.9964990E+02;  1.0000000E-01; -2.9006586E+02;3;  1.8943585E-01;  0.0000000E+00; -1.1328940E-03;0;  7.5804227E-04;  3.9973418E+04;  0.0000000E+00; -1.8903270E-02;  4.0000000E+04;  0.0000000E+00;  4.0000812E+04;  1.3950939E-03;  0.0000000E+00; -6.3705159E-04;  1.0426351E+02;
  3.0163231E-01;  9.9999998E-03; -4.9998395E-02;4301;  4.4923760E-03;  0.0000000E+00;  3.5997764E-05;  9.9957892E+02;  1.0000000E-01; -3.4887903E+02;3;  1.9353665E-01;  0.0000000E+00; -9.7859988E-04;0;  5.6446245E-04;  3.9967383E+04;  0.0000000E+00; -6.9616032E-03;  4.0000000E+04;  0.0000000E+00;  4.0001156E+04;  1.1756055E-03;  0.0000000E+00; -6.1114301E-04;  1.5003032E+02;
  3.0166227E-01;  9.9999998E-03; -4.0002130E-02;4302;  4.5014243E-03;  0.0000000E+00;  2.7806904E-05;  9.9952393E+02;  1.0000000E-01; -3.9440860E+02;3;  1.9675116E-01;  0.0000000E+00; -8.7785313E-04;0;  3.7873245E-04;  3.9962793E+04;  0.0000000E+00; -4.5712758E-04;  4.0000000E+04;  0.0000000E+00;  4.0001176E+04;  9.6557772E-04;  0.0000000E+00; -5.8684527E-04;  1.5615347E+02;
  3.0168501E-01;  9.9999998E-03; -3.0005366E-02;4303;  4.5065396E-03;  0.0000000E+00;  2.0336414E-05;  9.9948199E+02;  1.0000000E-01; -4.2917303E+02;3;  1.9917750E-01;  0.0000000E+00; -7.1726297E-04;0;  2.1653401E-04;  3.9959867E+04;  0.0000000E+00;  1.7886609E-03;  4.0000000E+04;  0.0000000E+00;  4.0000844E+04;  7.8227336E-04;  0.0000000E+00; -5.6573935E-04;  1.2842630E+02;
  3.0169922E-01;  9.9999998E-03; -2.0006750E-02;4304;  4.5089358E-03;  0.0000000E+00;  1.3373192E-05;  9.9945819E+02;  1.0000000E-01; -4.4887619E+02;3;  2.0099811E-01;  0.0000000E+00; -4.6655210E-04;0;  9.0913498E-05;  3.9958059E+04;  0.0000000E+00;  1.5226045E-03;  4.0000000E+04;  0.0000000E+00;  4.0000707E+04;  6.4024783E-04;  0.0000000E+00; -5.4933433E-04;  8.3991302E+01;
  3.0170682E-01;  9.9999998E-03; -1.0005176E-02;4305;  4.5098015E-03;  0.0000000E+00;  6.6633697E-06;  9.9944318E+02;  1.0000000E-01; -4.6132028E+02;3;  2.0173010E-01;  0.0000000E+00; -2.4958971E-04;0;  1.1527620E-05;  3.9957086E+04;  0.0000000E+00;  4.9859926E-04;  4.0000000E+04;  0.0000000E+00;  4.0000379E+04;  5.5044325E-04;  0.0000000E+00; -5.3891563E-04;  4.4650257E+01;
  3.0170918E-01;  9.9999998E-03;  2.1555397E-09;4306;  4.5099957E-03;  0.0000000E+00;  1.8145789E-08;  9.9943719E+02;  1.0000000E-01; -4.6625842E+02;3;  2.0194632E-01;  0.0000000E+00; -9.5129894E-07;0; -1.5623227E-05;  3.9956703E+04;  0.0000000E+00; -1.0416555E-12;  4.0000000E+04;  0.0000000E+00;  4.0000191E+04;  5.1971828E-04;  0.0000000E+00; -5.3534150E-04;  2.9030600E+01;
  3.0170682E-01;  9.9999998E-03;  1.0005181E-02;4307;  4.5097983E-03;  0.0000000E+00; -6.6268844E-06;  9.9944318E+02;  1.0000000E-01; -4.6132028E+02;3;  2.0172928E-01;  0.0000000E+00;  2.4912317E-04;0;  1.1512951E-05;  3.9957082E+04;  0.0000000E+00;  4.9877859E-04;  4.0000000E+04;  0.0000000E+00;  4.0000379E+04;  5.5042922E-04;  0.0000000E+00; -5.3891627E-04;  4.4659550E+01;
  3.0169922E-01;  9.9999998E-03;  2.0006754E-02;4308;  4.5089293E-03;  0.0000000E+00; -1.3336359E-05;  9.9945819E+02;  1.0000000E-01; -4.4887619E+02;3;  2.0099153E-01;  0.0000000E+00;  4.6774643E-04;0;  9.0886781E-05;  3.9958059E+04;  0.0000000E+00;  1.5230040E-03;  4.0000000E+04;  0.0000000E+00;  4.0000707E+04;  6.4022292E-04;  0.0000000E+00; -5.4933614E-04;  8.4013443E+01;
  3.0168501E-01;  9.9999998E-03;  3.0005369E-02;4309;  4.5065302E-03;  0.0000000E+00; -2.0299211E-05;  9.9948199E+02;  1.0000000E-01; -4.2917303E+02;3;  1.9917798E-01;  0.0000000E+00;  7.1155565E-04;0;  2.1649397E-04;  3.9959863E+04;  0.0000000E+00;  1.7889843E-03;  4.0000000E+04;  0.0000000E+00;  4.0000848E+04;  7.8223611E-04;  0.0000000E+00; -5.6574214E-04;  1.2844238E+02;
  3.0166227E-01;  9.9999998E-03;  4.0002134E-02;4310;  4.5014112E-03;  0.0000000E+00; -2.7769507E-05;  9.9952393E+02;  1.0000000E-01; -3.9440860E+02;3;  1.9674620E-01;  0.0000000E+00;  8.7110617E-04;0;  3.7867879E-04;  3.9962797E+04;  0.0000000E+00; -4.5669966E-04;  4.0000000E+04;  0.0000000E+00;  4.0001176E+04;  9.6552720E-04;  0.0000000E+00; -5.8684841E-04;  1.5616742E+02;
  3.0163231E-01;  9.9999998E-03;  4.9998399E-02;4311;  4.4923616E-03;  0.0000000E+00; -3.5960202E-05;  9.9957880E+02;  1.0000000E-01; -3.4897778E+02;3;  1.9353670E-01;  0.0000000E+00;  9.7023812E-04;0;  5.6440046E-04;  3.9967379E+04;  0.0000000E+00; -6.9617312E-03;  4.0000000E+04;  0.0000000E+00;  4.0001156E+04;  1.1755463E-03;  0.0000000E+00; -6.1114586E-04;  1.5003082E+02;
  3.0160114E-01;  9.9999998E-03;  5.9994981E-02;4312;  4.4782725E-03;  0.0000000E+00; -4.5197019E-05;  9.9964990E+02;  1.0000000E-01; -2.9006586E+02;3;  1.8944415E-01;  0.0000000E+00;  1.1261652E-03;0;  7.5796968E-04;  3.9973410E+04;  0.0000000E+00; -1.8902598E-02;  4.0000000E+04;  0.0000000E+00;  4.0000812E+04;  1.3950260E-03;  0.0000000E+00; -6.3705631E-04;  1.0426345E+02;
  3.1151345E-01;  9.9999998E-03; -9.9991605E-02;4357;  4.3371227E-03;  0.0000000E+00;  8.8999965E-05;  1.0002061E+03;  1.0000000E-01;  1.7076060E+02;3;  1.5034193E-01;  0.0000000E+00; -7.4427500E-03;0;  8.4459723E-04;  4.0021082E+04;  0.0000000E+00; -1.2507804E-01;  4.0000000E+04;  0.0000000E+00;  3.9998371E+04;  1.6401621E-03;  0.0000000E+00; -7.9556485E-04;  3.0408612E+02;
  3.1155398E-01;  9.9999998E-03; -8.9988142E-02;4358;  4.3756492E-03;  0.0000000E+00;  7.3730989E-05;  1.0000820E+03;  1.0000000E-01;  6.7948692E+01;3;  1.6252975E-01;  0.0000000E+00; -6.5230359E-03;0;  7.3955412E-04;  4.0010312E+04;  0.0000000E+00; -9.5377997E-02;  4.0000000E+04;  0.0000000E+00;  3.9999738E+04;  1.5282119E-03;  0.0000000E+00; -7.8865775E-04;  1.7973471E+02;
  3.1159928E-01;  9.9999998E-03; -7.9987347E-02;4359;  4.4057672E-03;  0.0000000E+00;  6.0231738E-05;  9.9997534E+02;  1.0000000E-01; -2.0443867E+01;3;  1.7221384E-01;  0.0000000E+00; -6.1818436E-03;0;  6.0223526E-04;  4.0000320E+04;  0.0000000E+00; -6.4707763E-02;  4.0000000E+04;  0.0000000E+00;  4.0000570E+04;  1.3751747E-03;  0.0000000E+00; -7.7293947E-04;  9.2781876E+01;
  3.1164038E-01;  9.9999998E-03; -6.9989741E-02;4360;  4.4273543E-03;  0.0000000E+00;  4.9193655E-05;  9.9988293E+02;  1.0000000E-01; -9.6984909E+01;3;  1.8074778E-01;  0.0000000E+00; -6.3470942E-03;0;  4.3785619E-04;  3.9991957E+04;  0.0000000E+00; -3.7813913E-02;  4.0000000E+04;  0.0000000E+00;  4.0001168E+04;  1.1902963E-03;  0.0000000E+00; -7.5244007E-04;  1.3714429E+02;
  3.1167153E-01;  9.9999998E-03; -5.9994429E-02;4361;  4.4411300E-03;  0.0000000E+00;  4.0481296E-05;  9.9980890E+02;  1.0000000E-01; -1.5831651E+02;3;  1.8868871E-01;  0.0000000E+00; -6.5416479E-03;0;  2.5686785E-04;  3.9985590E+04;  0.0000000E+00; -1.7420083E-02;  4.0000000E+04;  0.0000000E+00;  4.0001785E+04;  9.8702498E-04;  0.0000000E+00; -7.3015713E-04;  2.0127960E+02;
  3.1169149E-01;  9.9999998E-03; -5.0000507E-02;4362;  4.4491263E-03;  0.0000000E+00;  3.3232198E-05;  9.9975024E+02;  1.0000000E-01; -2.0690773E+02;3;  1.9293791E-01;  0.0000000E+00; -5.5453614E-03;0;  7.2462717E-05;  3.9980508E+04;  0.0000000E+00; -4.3527116E-03;  4.0000000E+04;  0.0000000E+00;  4.0002000E+04;  7.8071066E-04;  0.0000000E+00; -7.0824794E-04;  2.2481955E+02;
  3.1170356E-01;  9.9999998E-03; -4.0006235E-02;4363;  4.4531547E-03;  0.0000000E+00;  2.6600479E-05;  9.9970947E+02;  1.0000000E-01; -2.4068456E+02;3;  1.9602922E-01;  0.0000000E+00; -4.4713398E-03;0; -1.0156434E-04;  3.9977359E+04;  0.0000000E+00;  2.0906692E-03;  4.0000000E+04;  0.0000000E+00;  4.0001758E+04;  5.8674125E-04;  0.0000000E+00; -6.8830559E-04;  2.0288550E+02;
  3.1171077E-01;  9.9999998E-03; -3.0009797E-02;4364;  4.4542467E-03;  0.0000000E+00;  2.0145637E-05;  9.9968231E+02;  1.0000000E-01; -2.6320242E+02;3;  1.9827656E-01;  0.0000000E+00; -3.3396913E-03;0; -2.5225224E-04;  3.9975523E+04;  0.0000000E+00;  3.6361888E-03;  4.0000000E+04;  0.0000000E+00;  4.0001008E+04;  4.1932761E-04;  0.0000000E+00; -6.7157985E-04;  1.4764676E+02;
  3.1171533E-01;  9.9999998E-03; -2.0010108E-02;4365;  4.4537606E-03;  0.0000000E+00;  1.3612286E-05;  9.9966638E+02;  1.0000000E-01; -2.7638724E+02;3;  1.9994794E-01;  0.0000000E+00; -2.2240507E-03;0; -3.6851008E-04;  3.9974359E+04;  0.0000000E+00;  2.4862420E-03;  4.0000000E+04;  0.0000000E+00;  4.0000629E+04;  2.9050314E-04;  0.0000000E+00; -6.5901323E-04;  8.0944687E+01;
  3.1171831E-01;  9.9999998E-03; -1.0006832E-02;4366;  4.4528642E-03;  0.0000000E+00;  6.8961513E-06;  9.9965515E+02;  1.0000000E-01; -2.8572031E+02;3;  2.0084943E-01;  0.0000000E+00; -1.0413025E-03;0; -4.4185063E-04;  3.9974020E+04;  0.0000000E+00;  7.6236093E-04;  4.0000000E+04;  0.0000000E+00;  4.0000113E+04;  2.0939112E-04;  0.0000000E+00; -6.5124175E-04;  2.7415306E+01;
  3.1171966E-01;  9.9999998E-03;  2.4304208E-09;4367;  4.4524744E-03;  0.0000000E+00;  1.9560945E-08;  9.9964990E+02;  1.0000000E-01; -2.9006586E+02;3;  2.0114085E-01;  0.0000000E+00; -8.0856967E-07;0; -4.6692463E-04;  3.9973984E+04;  0.0000000E+00; -4.1508897E-12;  4.0000000E+04;  0.0000000E+00;  4.0000254E+04;  1.8169310E-04;  0.0000000E+00; -6.4861774E-04;  6.9919467E+00;
  3.1171831E-01;  9.9999998E-03;  1.0006837E-02;4368;  4.4528604E-03;  0.0000000E+00; -6.8570375E-06;  9.9965509E+02;  1.0000000E-01; -2.8576968E+02;3;  2.0084822E-01;  0.0000000E+00;  1.0361595E-03;0; -4.4185977E-04;  3.9974020E+04;  0.0000000E+00;  7.6238718E-04;  4.0000000E+04;  0.0000000E+00;  4.0000113E+04;  2.0938368E-04;  0.0000000E+00; -6.5124343E-04;  2.7421124E+01;
  3.1171533E-01;  9.9999998E-03;  2.0010114E-02;4369;  4.4537541E-03;  0.0000000E+00; -1.3572489E-05;  9.9966644E+02;  1.0000000E-01; -2.7633786E+02;3;  1.9995391E-01;  0.0000000E+00;  2.2189026E-03;0; -3.6852740E-04;  3.9974363E+04;  0.0000000E+00;  2.4862227E-03;  4.0000000E+04;  0.0000000E+00;  4.0000629E+04;  2.9048845E-04;  0.0000000E+00; -6.5901584E-04;  8.0952278E+01;
  3.1171077E-01;  9.9999998E-03;  3.0009801E-02;4370;  4.4542374E-03;  0.0000000E+00; -2.0105625E-05;  9.9968231E+02;  1.0000000E-01; -2.6320242E+02;3;  1.9827472E-01;  0.0000000E+00;  3.3360159E-03;0; -2.5227846E-04;  3.9975523E+04;  0.0000000E+00;  3.6359546E-03;  4.0000000E+04;  0.0000000E+00;  4.0001008E+04;  4.1930540E-04;  0.0000000E+00; -6.7158387E-04;  1.4766441E+02;
  3.1170356E-01;  9.9999998E-03;  4.0006239E-02;4371;  4.4531422E-03;  0.0000000E+00; -2.6560248E-05;  9.9970953E+02;  1.0000000E-01; -2.4063516E+02;3;  1.9602256E-01;  0.0000000E+00;  4.4673341E-03;0; -1.0159932E-04;  3.9977359E+04;  0.0000000E+00;  2.0900317E-03;  4.0000000E+04;  0.0000000E+00;  4.0001762E+04;  5.8671157E-04;  0.0000000E+00; -6.8831089E-04;  2.0289908E+02;
  3.1169149E-01;  9.9999998E-03;  5.0000511E-02;4372;  4.4491119E-03;  0.0000000E+00; -3.3191664E-05;  9.9975018E+02;  1.0000000E-01; -2.0695711E+02;3;  1.9294547E-01;  0.0000000E+00;  5.5400403E-03;0;  7.2422321E-05;  3.9980504E+04;  0.0000000E+00; -4.3529184E-03;  4.0000000E+04;  0.0000000E+00;  4.0002000E+04;  7.8067626E-04;  0.0000000E+00; -7.0825394E-04;  2.2482524E+02;
  3.1167153E-01;  9.9999998E-03;  5.9994433E-02;4373;  4.4411137E-03;  0.0000000E+00; -4.0440929E-05;  9.9980896E+02;  1.0000000E-01; -1.5826714E+02;3;  1.8868224E-01;  0.0000000E+00;  6.5310774E-03;0;  2.5681983E-04;  3.9985582E+04;  0.0000000E+00; -1.7420340E-02;  4.0000000E+04;  0.0000000E+00;  4.0001785E+04;  9.8698423E-04;  0.0000000E+00; -7.3016441E-04;  2.0129666E+02;
  3.2174179E-01;  9.9999998E-03; -1.0005715E-02;4427;  4.4073081E-03;  0.0000000E+00;  7.0816582E-06;  9.9987372E+02;  1.0000000E-01; -1.0463902E+02;3;  2.0067482E-01;  0.0000000E+00; -1.9104754E-03;0; -6.4536167E-04;  3.9992227E+04;  0.0000000E+00;  1.0648447E-03;  4.0000000E+04;  0.0000000E+00;  3.9999895E+04;  1.0196468E-04;  0.0000000E+00; -7.4732635E-04;  2.0332668E+01;
  3.2174164E-01;  9.9999998E-03;  2.5875924E-09;4428;  4.4064634E-03;  0.0000000E+00;  2.1060742E-08;  9.9987421E+02;  1.0000000E-01; -1.0419459E+02;3;  2.0094088E-01;  0.0000000E+00; -1.6078498E-06;0; -6.6709908E-04;  3.9992453E+04;  0.0000000E+00;  8.6647979E-13;  4.0000000E+04;  0.0000000E+00;  3.9999809E+04;  7.8555022E-05;  0.0000000E+00; -7.4565411E-04;  4.3322369E+01;
  3.2174179E-01;  9.9999998E-03;  1.0005720E-02;4429;  4.4073043E-03;  0.0000000E+00; -7.0393885E-06;  9.9987372E+02;  1.0000000E-01; -1.0463902E+02;3;  2.0067847E-01;  0.0000000E+00;  1.9082427E-03;0; -6.4536720E-04;  3.9992230E+04;  0.0000000E+00;  1.0646655E-03;  4.0000000E+04;  0.0000000E+00;  3.9999895E+04;  1.0196123E-04;  0.0000000E+00; -7.4732845E-04;  2.0327002E+01;
  3.2174185E-01;  9.9999998E-03; -2.0009229E-02;4426;  4.4094902E-03;  0.0000000E+00;  1.3775472E-05;  9.9987946E+02;  1.0000000E-01; -9.9849030E+01;3;  1.9951235E-01;  0.0000000E+00; -3.8408160E-03;0; -5.8163225E-04;  3.9992098E+04;  0.0000000E+00;  3.6784569E-03;  4.0000000E+04;  0.0000000E+00;  4.0000488E+04;  1.7076453E-04;  0.0000000E+00; -7.5239677E-04;  4.1877174E+01;
  3.2174185E-01;  9.9999998E-03;  2.0009233E-02;4430;  4.4094836E-03;  0.0000000E+00; -1.3733043E-05;  9.9987946E+02;  1.0000000E-01; -9.9849030E+01;3;  1.9951575E-01;  0.0000000E+00;  3.8344341E-03;0; -5.8164226E-04;  3.9992098E+04;  0.0000000E+00;  3.6781714E-03;  4.0000000E+04;  0.0000000E+00;  4.0000488E+04;  1.7075898E-04;  0.0000000E+00; -7.5240125E-04;  4.1879570E+01;
  3.2174003E-01;  9.9999998E-03; -3.0010363E-02;4425;  4.4121742E-03;  0.0000000E+00;  1.9845271E-05;  9.9988892E+02;  1.0000000E-01; -9.2046776E+01;3;  1.9791318E-01;  0.0000000E+00; -5.7623340E-03;0; -4.8020080E-04;  3.9992215E+04;  0.0000000E+00;  6.2356568E-03;  4.0000000E+04;  0.0000000E+00;  4.0001195E+04;  2.8075627E-04;  0.0000000E+00; -7.6095707E-04;  1.2338033E+02;
  3.2174003E-01;  9.9999998E-03;  3.0010369E-02;4431;  4.4121644E-03;  0.0000000E+00; -1.9802517E-05;  9.9988892E+02;  1.0000000E-01; -9.2046776E+01;3;  1.9791578E-01;  0.0000000E+00;  5.7567176E-03;0; -4.8021632E-04;  3.9992211E+04;  0.0000000E+00;  6.2349392E-03;  4.0000000E+04;  0.0000000E+00;  4.0001195E+04;  2.8074704E-04;  0.0000000E+00; -7.6096336E-04;  1.2339157E+02;
  3.2173422E-01;  9.9999998E-03; -4.0008914E-02;4424;  4.4142809E-03;  0.0000000E+00;  2.5356891E-05;  9.9989624E+02;  1.0000000E-01; -8.5972878E+01;3;  1.9556765E-01;  0.0000000E+00; -7.7570020E-03;0; -3.4784822E-04;  3.9992734E+04;  0.0000000E+00;  6.4609307E-03;  4.0000000E+04;  0.0000000E+00;  4.0001777E+04;  4.2513415E-04;  0.0000000E+00; -7.7298237E-04;  1.9933070E+02;
  3.2173422E-01;  9.9999998E-03;  4.0008921E-02;4432;  4.4142678E-03;  0.0000000E+00; -2.5313902E-05;  9.9989618E+02;  1.0000000E-01; -8.6022255E+01;3;  1.9557482E-01;  0.0000000E+00;  7.7492930E-03;0; -3.4786717E-04;  3.9992738E+04;  0.0000000E+00;  6.4592236E-03;  4.0000000E+04;  0.0000000E+00;  4.0001777E+04;  4.2512282E-04;  0.0000000E+00; -7.7299000E-04;  1.9934801E+02;
  3.2172215E-01;  9.9999998E-03; -5.0005089E-02;4423;  4.4144243E-03;  0.0000000E+00;  3.0539399E-05;  9.9992407E+02;  1.0000000E-01; -6.2911800E+01;3;  1.9214714E-01;  0.0000000E+00; -9.6046356E-03;0; -1.9335846E-04;  3.9994332E+04;  0.0000000E+00;  1.8838781E-03;  4.0000000E+04;  0.0000000E+00;  4.0002445E+04;  5.9477508E-04;  0.0000000E+00; -7.8813353E-04;  2.4517697E+02;
  3.2172215E-01;  9.9999998E-03;  5.0005093E-02;4433;  4.4144094E-03;  0.0000000E+00; -3.0496298E-05;  9.9992401E+02;  1.0000000E-01; -6.2961182E+01;3;  1.9215155E-01;  0.0000000E+00;  9.5954305E-03;0; -1.9338250E-04;  3.9994332E+04;  0.0000000E+00;  1.8836275E-03;  4.0000000E+04;  0.0000000E+00;  4.0002449E+04;  5.9476087E-04;  0.0000000E+00; -7.8814337E-04;  2.4518761E+02;
  3.2170427E-01;  9.9999998E-03; -5.9999805E-02;4422;  4.4110753E-03;  0.0000000E+00;  3.6018471E-05;  9.9996179E+02;  1.0000000E-01; -3.1653425E+01;3;  1.8670119E-01;  0.0000000E+00; -1.1002309E-02;0; -2.7000206E-05;  3.9997148E+04;  0.0000000E+00; -9.6379407E-03;  4.0000000E+04;  0.0000000E+00;  4.0002152E+04;  7.7864405E-04;  0.0000000E+00; -8.0564426E-04;  2.4398012E+02;
  3.2170427E-01;  9.9999998E-03;  5.9999809E-02;4434;  4.4110590E-03;  0.0000000E+00; -3.5975521E-05;  9.9996179E+02;  1.0000000E-01; -3.1653425E+01;3;  1.8670714E-01;  0.0000000E+00;  1.0991280E-02;0; -2.7027738E-05;  3.9997148E+04;  0.0000000E+00; -9.6386038E-03;  4.0000000E+04;  0.0000000E+00;  4.0002152E+04;  7.7862735E-04;  0.0000000E+00; -8.0565509E-04;  2.4398645E+02;
  3.2168373E-01;  9.9999998E-03; -6.9993638E-02;4421;  4.4026999E-03;  0.0000000E+00;  4.2694108E-05;  1.0000081E+03;  1.0000000E-01;  6.7158594E+00;3;  1.7969280E-01;  0.0000000E+00; -1.1753608E-02;0;  1.4015875E-04;  4.0001648E+04;  0.0000000E+00; -2.9417504E-02;  4.0000000E+04;  0.0000000E+00;  4.0001773E+04;  9.6438651E-04;  0.0000000E+00; -8.2422775E-04;  1.9241792E+02;
  3.2165876E-01;  9.9999998E-03; -7.9987623E-02;4420;  4.3876842E-03;  0.0000000E+00;  5.1557086E-05;  1.0000756E+03;  1.0000000E-01;  6.2615513E+01;3;  1.7179117E-01;  0.0000000E+00; -1.2485533E-02;0;  2.9758201E-04;  4.0007887E+04;  0.0000000E+00; -5.7512954E-02;  4.0000000E+04;  0.0000000E+00;  4.0001020E+04;  1.1394148E-03;  0.0000000E+00; -8.4183284E-04;  1.1709029E+02;
  3.2162482E-01;  9.9999998E-03; -8.9984655E-02;4419;  4.3646069E-03;  0.0000000E+00;  6.3263404E-05;  1.0001592E+03;  1.0000000E-01;  1.3194688E+02;3;  1.6156134E-01;  0.0000000E+00; -1.3198980E-02;0;  4.3689832E-04;  4.0015855E+04;  0.0000000E+00; -9.2376575E-02;  4.0000000E+04;  0.0000000E+00;  4.0000270E+04;  1.2923930E-03;  0.0000000E+00; -8.5549464E-04;  1.4080066E+02;
  3.2157871E-01;  9.9999998E-03; -9.9986143E-02;4418;  4.3345378E-03;  0.0000000E+00;  7.7514393E-05;  1.0002584E+03;  1.0000000E-01;  2.1411740E+02;3;  1.5091717E-01;  0.0000000E+00; -1.4336294E-02;0;  5.5374065E-04;  4.0024977E+04;  0.0000000E+00; -1.3054821E-01;  4.0000000E+04;  0.0000000E+00;  3.9999109E+04;  1.4150477E-03;  0.0000000E+00; -8.6130702E-04;  2.6783008E+02;
  3.3165219E-01;  9.9999998E-03; -9.9986270E-02;4479;  4.3429490E-03;  0.0000000E+00;  6.4670843E-05;  1.0002675E+03;  1.0000000E-01;  2.2162337E+02;3;  1.5244430E-01;  0.0000000E+00; -2.0584770E-02;0;  4.2514066E-04;  4.0025816E+04;  0.0000000E+00; -1.1540543E-01;  4.0000000E+04;  0.0000000E+00;  3.9999062E+04;  1.3398104E-03;  0.0000000E+00; -9.1466977E-04;  2.2746288E+02;
  3.3169246E-01;  9.9999998E-03; -8.9987464E-02;4480;  4.3623704E-03;  0.0000000E+00;  5.2124815E-05;  1.0002021E+03;  1.0000000E-01;  1.6750143E+02;3;  1.6195081E-01;  0.0000000E+00; -1.9909151E-02;0;  3.0370482E-04;  4.0018914E+04;  0.0000000E+00; -7.4186429E-02;  4.0000000E+04;  0.0000000E+00;  4.0000039E+04;  1.2135893E-03;  0.0000000E+00; -9.0988452E-04;  1.0598503E+02;
  3.3171731E-01;  9.9999998E-03; -7.9991497E-02;4481;  4.3770443E-03;  0.0000000E+00;  4.2775970E-05;  1.0001483E+03;  1.0000000E-01;  1.2286073E+02;3;  1.7087249E-01;  0.0000000E+00; -1.9053604E-02;0;  1.6968802E-04;  4.0013746E+04;  0.0000000E+00; -3.9841298E-02;  4.0000000E+04;  0.0000000E+00;  4.0001312E+04;  1.0682119E-03;  0.0000000E+00; -8.9852384E-04;  1.3146808E+02;
  3.3172944E-01;  9.9999998E-03; -6.9996856E-02;4482;  4.3863342E-03;  0.0000000E+00;  3.6497586E-05;  1.0001112E+03;  1.0000000E-01;  9.2145538E+01;3;  1.7892443E-01;  0.0000000E+00; -1.7763292E-02;0;  2.6629132E-05;  4.0010207E+04;  0.0000000E+00; -1.4386355E-02;  4.0000000E+04;  0.0000000E+00;  4.0002059E+04;  9.1081962E-04;  0.0000000E+00; -8.8419049E-04;  2.0881508E+02;
  3.3173212E-01;  9.9999998E-03; -6.0002472E-02;4483;  4.3902094E-03;  0.0000000E+00;  3.2036936E-05;  1.0000900E+03;  1.0000000E-01;  7.4565796E+01;3;  1.8542062E-01;  0.0000000E+00; -1.5738707E-02;0; -1.1917920E-04;  4.0007680E+04;  0.0000000E+00;  1.8361101E-03;  4.0000000E+04;  0.0000000E+00;  4.0002098E+04;  7.5047725E-04;  0.0000000E+00; -8.6965645E-04;  2.4411162E+02;
  3.3172882E-01;  9.9999998E-03; -5.0007232E-02;4484;  4.3898989E-03;  0.0000000E+00;  2.8276574E-05;  1.0000758E+03;  1.0000000E-01;  6.2813038E+01;3;  1.9052991E-01;  0.0000000E+00; -1.3321203E-02;0; -2.6017934E-04;  4.0006840E+04;  0.0000000E+00;  9.7700572E-03;  4.0000000E+04;  0.0000000E+00;  4.0002312E+04;  5.9658149E-04;  0.0000000E+00; -8.5676083E-04;  2.2612846E+02;
  3.3172309E-01;  9.9999998E-03; -4.0010143E-02;4485;  4.3869382E-03;  0.0000000E+00;  2.4339761E-05;  1.0000740E+03;  1.0000000E-01;  6.1331600E+01;3;  1.9409175E-01;  0.0000000E+00; -1.0897737E-02;0; -3.8862653E-04;  4.0006910E+04;  0.0000000E+00;  1.1281384E-02;  4.0000000E+04;  0.0000000E+00;  4.0001816E+04;  4.5787380E-04;  0.0000000E+00; -8.4650033E-04;  1.6367752E+02;
  3.3171728E-01;  9.9999998E-03; -3.0010801E-02;4486;  4.3827081E-03;  0.0000000E+00;  1.9642859E-05;  1.0000756E+03;  1.0000000E-01;  6.2615513E+01;3;  1.9695705E-01;  0.0000000E+00; -8.0755977E-03;0; -4.9730460E-04;  4.0007492E+04;  0.0000000E+00;  8.7652365E-03;  4.0000000E+04;  0.0000000E+00;  4.0000852E+04;  3.4189408E-04;  0.0000000E+00; -8.3919871E-04;  7.6407738E+01;
  3.3171272E-01;  9.9999998E-03; -2.0009121E-02;4487;  4.3785032E-03;  0.0000000E+00;  1.3924953E-05;  1.0000786E+03;  1.0000000E-01;  6.5084579E+01;3;  1.9866386E-01;  0.0000000E+00; -5.3849453E-03;0; -5.7994726E-04;  4.0008574E+04;  0.0000000E+00;  4.7184178E-03;  4.0000000E+04;  0.0000000E+00;  4.0000059E+04;  2.5467147E-04;  0.0000000E+00; -8.3461875E-04;  1.4029052E+01;
  3.3170980E-01;  9.9999998E-03; -1.0005297E-02;4488;  4.3754876E-03;  0.0000000E+00;  7.2382300E-06;  1.0000804E+03;  1.0000000E-01;  6.6566017E+01;3;  1.9977929E-01;  0.0000000E+00; -2.6656489E-03;0; -6.3164288E-04;  4.0009180E+04;  0.0000000E+00;  1.3085614E-03;  4.0000000E+04;  0.0000000E+00;  3.9999531E+04;  2.0057346E-04;  0.0000000E+00; -8.3221635E-04;  7.6612564E+01;
  3.3170882E-01;  9.9999998E-03;  2.8167131E-09;4489;  4.3743891E-03;  0.0000000E+00;  2.2554719E-08;  1.0000823E+03;  1.0000000E-01;  6.8146217E+01;3;  1.9995755E-01;  0.0000000E+00; -1.2514853E-06;0; -6.4923638E-04;  4.0009363E+04;  0.0000000E+00; -1.0432536E-12;  4.0000000E+04;  0.0000000E+00;  3.9999324E+04;  1.8224804E-04;  0.0000000E+00; -8.3148445E-04;  1.0010713E+02;
  3.3170980E-01;  9.9999998E-03;  1.0005303E-02;4490;  4.3754834E-03;  0.0000000E+00; -7.1931063E-06;  1.0000804E+03;  1.0000000E-01;  6.6566017E+01;3;  1.9977471E-01;  0.0000000E+00;  2.6618380E-03;0; -6.3164497E-04;  4.0009180E+04;  0.0000000E+00;  1.3083162E-03;  4.0000000E+04;  0.0000000E+00;  3.9999531E+04;  2.0057450E-04;  0.0000000E+00; -8.3221949E-04;  7.6609093E+01;
  3.3171272E-01;  9.9999998E-03;  2.0009127E-02;4491;  4.3784957E-03;  0.0000000E+00; -1.3879564E-05;  1.0000786E+03;  1.0000000E-01;  6.5084579E+01;3;  1.9866337E-01;  0.0000000E+00;  5.3805225E-03;0; -5.7995133E-04;  4.0008570E+04;  0.0000000E+00;  4.7176713E-03;  4.0000000E+04;  0.0000000E+00;  4.0000055E+04;  2.5467252E-04;  0.0000000E+00; -8.3462382E-04;  1.4027786E+01;
  3.3171728E-01;  9.9999998E-03;  3.0010806E-02;4492;  4.3826979E-03;  0.0000000E+00; -1.9597233E-05;  1.0000756E+03;  1.0000000E-01;  6.2615513E+01;3;  1.9696441E-01;  0.0000000E+00;  8.0696689E-03;0; -4.9731019E-04;  4.0007496E+04;  0.0000000E+00;  8.7640937E-03;  4.0000000E+04;  0.0000000E+00;  4.0000852E+04;  3.4189611E-04;  0.0000000E+00; -8.3920627E-04;  7.6414925E+01;
  3.3172309E-01;  9.9999998E-03;  4.0010151E-02;4493;  4.3869256E-03;  0.0000000E+00; -2.4294084E-05;  1.0000740E+03;  1.0000000E-01;  6.1331600E+01;3;  1.9409578E-01;  0.0000000E+00;  1.0887838E-02;0; -3.8863384E-04;  4.0006906E+04;  0.0000000E+00;  1.1279739E-02;  4.0000000E+04;  0.0000000E+00;  4.0001824E+04;  4.5787680E-04;  0.0000000E+00; -8.4651064E-04;  1.6367816E+02;
  3.3172882E-01;  9.9999998E-03;  5.0007235E-02;4494;  4.3898835E-03;  0.0000000E+00; -2.8230905E-05;  1.0000758E+03;  1.0000000E-01;  6.2813038E+01;3;  1.9053380E-01;  0.0000000E+00;  1.3307696E-02;0; -2.6018952E-04;  4.0006840E+04;  0.0000000E+00;  9.7682774E-03;  4.0000000E+04;  0.0000000E+00;  4.0002312E+04;  5.9658411E-04;  0.0000000E+00; -8.5677364E-04;  2.2613599E+02;
  3.3173212E-01;  9.9999998E-03;  6.0002476E-02;4495;  4.3901931E-03;  0.0000000E+00; -3.1991287E-05;  1.0000901E+03;  1.0000000E-01;  7.4664558E+01;3;  1.8542898E-01;  0.0000000E+00;  1.5724124E-02;0; -1.1918898E-04;  4.0007680E+04;  0.0000000E+00;  1.8332769E-03;  4.0000000E+04;  0.0000000E+00;  4.0002098E+04;  7.5048034E-04;  0.0000000E+00; -8.6966931E-04;  2.4410854E+02;
  3.4167737E-01;  9.9999998E-03; -9.9990435E-02;4540;  4.3627950E-03;  0.0000000E+00;  5.3621316E-05;  1.0002458E+03;  1.0000000E-01;  2.0364856E+02;3;  1.5638086E-01;  0.0000000E+00; -2.7887123E-02;0;  4.1674188E-04;  4.0023672E+04;  0.0000000E+00; -8.5682854E-02;  4.0000000E+04;  0.0000000E+00;  3.9999238E+04;  1.3776580E-03;  0.0000000E+00; -9.6091611E-04;  1.7901172E+02;
  3.4168383E-01;  9.9999998E-03; -8.9994416E-02;4541;  4.3699075E-03;  0.0000000E+00;  4.3020023E-05;  1.0002125E+03;  1.0000000E-01;  1.7599503E+02;3;  1.6453202E-01;  0.0000000E+00; -2.6744353E-02;0;  2.9760483E-04;  4.0019547E+04;  0.0000000E+00; -4.6438631E-02;  4.0000000E+04;  0.0000000E+00;  4.0000180E+04;  1.2550380E-03;  0.0000000E+00; -9.5743313E-04;  6.6918053E+01;
  3.4168538E-01;  9.9999998E-03; -7.9999439E-02;4542;  4.3751379E-03;  0.0000000E+00;  3.5538058E-05;  1.0001888E+03;  1.0000000E-01;  1.5644002E+02;3;  1.7153484E-01;  0.0000000E+00; -2.5709633E-02;0;  1.7545209E-04;  4.0016836E+04;  0.0000000E+00; -1.6490925E-02;  4.0000000E+04;  0.0000000E+00;  4.0001219E+04;  1.1242056E-03;  0.0000000E+00; -9.4875356E-04;  1.2935187E+02;
  3.4168416E-01;  9.9999998E-03; -7.0004441E-02;4543;  4.3789567E-03;  0.0000000E+00;  3.1480944E-05;  1.0001808E+03;  1.0000000E-01;  1.4982292E+02;3;  1.7823617E-01;  0.0000000E+00; -2.3788674E-02;0;  5.2555813E-05;  4.0015316E+04;  0.0000000E+00;  3.4953759E-03;  4.0000000E+04;  0.0000000E+00;  4.0001812E+04;  9.9069683E-04;  0.0000000E+00; -9.3814102E-04;  1.9928703E+02;
  3.4168139E-01;  9.9999998E-03; -6.0008489E-02;4544;  4.3795872E-03;  0.0000000E+00;  2.9073512E-05;  1.0001805E+03;  1.0000000E-01;  1.4952664E+02;3;  1.8452936E-01;  0.0000000E+00; -2.0768497E-02;0; -6.7117391E-05;  4.0015090E+04;  0.0000000E+00;  1.4251295E-02;  4.0000000E+04;  0.0000000E+00;  4.0001984E+04;  8.6101016E-04;  0.0000000E+00; -9.2812756E-04;  2.1903981E+02;
  3.4167749E-01;  9.9999998E-03; -5.0011195E-02;4545;  4.3774364E-03;  0.0000000E+00;  2.6835851E-05;  1.0001894E+03;  1.0000000E-01;  1.5693384E+02;3;  1.8925029E-01;  0.0000000E+00; -1.7365908E-02;0; -1.7891265E-04;  4.0016086E+04;  0.0000000E+00;  1.7476933E-02;  4.0000000E+04;  0.0000000E+00;  4.0001574E+04;  7.4134808E-04;  0.0000000E+00; -9.2026073E-04;  1.8761394E+02;
  3.4167355E-01;  9.9999998E-03; -4.0012158E-02;4546;  4.3736394E-03;  0.0000000E+00;  2.3996250E-05;  1.0002051E+03;  1.0000000E-01;  1.6997050E+02;3;  1.9286729E-01;  0.0000000E+00; -1.3745404E-02;0; -2.7819996E-04;  4.0017840E+04;  0.0000000E+00;  1.5449388E-02;  4.0000000E+04;  0.0000000E+00;  4.0001066E+04;  6.3696381E-04;  0.0000000E+00; -9.1516378E-04;  1.1744164E+02;
  3.4167004E-01;  9.9999998E-03; -3.0011388E-02;4547;  4.3692575E-03;  0.0000000E+00;  1.9886158E-05;  1.0002219E+03;  1.0000000E-01;  1.8389603E+02;3;  1.9542716E-01;  0.0000000E+00; -1.0275269E-02;0; -3.6073849E-04;  4.0019691E+04;  0.0000000E+00;  1.0642907E-02;  4.0000000E+04;  0.0000000E+00;  4.0000125E+04;  5.5194471E-04;  0.0000000E+00; -9.1268320E-04;  3.0142214E+01;
  3.4166688E-01;  9.9999998E-03; -2.0008979E-02;4548;  4.3652812E-03;  0.0000000E+00;  1.4361076E-05;  1.0002355E+03;  1.0000000E-01;  1.9505621E+02;3;  1.9727124E-01;  0.0000000E+00; -6.7558973E-03;0; -4.2280811E-04;  4.0021465E+04;  0.0000000E+00;  5.3642723E-03;  4.0000000E+04;  0.0000000E+00;  3.9999457E+04;  4.8924627E-04;  0.0000000E+00; -9.1205438E-04;  5.9896755E+01;
  3.4166518E-01;  9.9999998E-03; -1.0004882E-02;4549;  4.3625357E-03;  0.0000000E+00;  7.5674079E-06;  1.0002454E+03;  1.0000000E-01;  2.0325351E+02;3;  1.9843507E-01;  0.0000000E+00; -3.4403459E-03;0; -4.6137348E-04;  4.0022738E+04;  0.0000000E+00;  1.4368336E-03;  4.0000000E+04;  0.0000000E+00;  3.9999039E+04;  4.5088213E-04;  0.0000000E+00; -9.1225561E-04;  1.2049744E+02;
  3.4166440E-01;  9.9999998E-03;  3.1306078E-09;4550;  4.3615736E-03;  0.0000000E+00;  2.4098229E-08;  1.0002488E+03;  1.0000000E-01;  2.0611763E+02;3;  1.9894618E-01;  0.0000000E+00; -1.4196828E-06;0; -4.7446546E-04;  4.0023172E+04;  0.0000000E+00;  2.0928133E-12;  4.0000000E+04;  0.0000000E+00;  3.9998875E+04;  4.3796530E-04;  0.0000000E+00; -9.1243075E-04;  1.4259512E+02;
  3.4166518E-01;  9.9999998E-03;  1.0004888E-02;4551;  4.3625324E-03;  0.0000000E+00; -7.5191874E-06;  1.0002454E+03;  1.0000000E-01;  2.0335228E+02;3;  1.9843751E-01;  0.0000000E+00;  3.4377566E-03;0; -4.6137327E-04;  4.0022734E+04;  0.0000000E+00;  1.4364059E-03;  4.0000000E+04;  0.0000000E+00;  3.9999039E+04;  4.5088577E-04;  0.0000000E+00; -9.1225904E-04;  1.2048904E+02;
  3.4166688E-01;  9.9999998E-03;  2.0008985E-02;4552;  4.3652738E-03;  0.0000000E+00; -1.4312684E-05;  1.0002354E+03;  1.0000000E-01;  1.9505621E+02;3;  1.9727451E-01;  0.0000000E+00;  6.7500831E-03;0; -4.2280776E-04;  4.0021465E+04;  0.0000000E+00;  5.3632949E-03;  4.0000000E+04;  0.0000000E+00;  3.9999457E+04;  4.8925297E-04;  0.0000000E+00; -9.1206073E-04;  5.9897346E+01;
  3.4167004E-01;  9.9999998E-03;  3.0011393E-02;4553;  4.3692472E-03;  0.0000000E+00; -1.9837598E-05;  1.0002220E+03;  1.0000000E-01;  1.8389603E+02;3;  1.9543113E-01;  0.0000000E+00;  1.0270865E-02;0; -3.6073691E-04;  4.0019699E+04;  0.0000000E+00;  1.0641767E-02;  4.0000000E+04;  0.0000000E+00;  4.0000125E+04;  5.5195508E-04;  0.0000000E+00; -9.1269199E-04;  3.0144766E+01;
  3.4167355E-01;  9.9999998E-03;  4.0012166E-02;4554;  4.3736268E-03;  0.0000000E+00; -2.3947743E-05;  1.0002051E+03;  1.0000000E-01;  1.6987173E+02;3;  1.9287825E-01;  0.0000000E+00;  1.3736904E-02;0; -2.7819799E-04;  4.0017836E+04;  0.0000000E+00;  1.5448338E-02;  4.0000000E+04;  0.0000000E+00;  4.0001066E+04;  6.3697697E-04;  0.0000000E+00; -9.1517495E-04;  1.1743938E+02;
  3.4167749E-01;  9.9999998E-03;  5.0011203E-02;4555;  4.3774224E-03;  0.0000000E+00; -2.6787640E-05;  1.0001895E+03;  1.0000000E-01;  1.5693384E+02;3;  1.8925989E-01;  0.0000000E+00;  1.7352309E-02;0; -1.7891038E-04;  4.0016086E+04;  0.0000000E+00;  1.7474834E-02;  4.0000000E+04;  0.0000000E+00;  4.0001570E+04;  7.4136438E-04;  0.0000000E+00; -9.2027476E-04;  1.8761887E+02;
  3.4168139E-01;  9.9999998E-03;  6.0008496E-02;4556;  4.3795714E-03;  0.0000000E+00; -2.9025288E-05;  1.0001805E+03;  1.0000000E-01;  1.4952664E+02;3;  1.8454476E-01;  0.0000000E+00;  2.0749792E-02;0; -6.7114306E-05;  4.0015086E+04;  0.0000000E+00;  1.4248898E-02;  4.0000000E+04;  0.0000000E+00;  4.0001984E+04;  8.6102920E-04;  0.0000000E+00; -9.2814351E-04;  2.1903212E+02;
  3.5162041E-01;  9.9999998E-03; -1.0000014E-01;4601;  4.3926081E-03;  0.0000000E+00;  4.9599392E-05;  1.0002014E+03;  1.0000000E-01;  1.6681010E+02;3;  1.6562133E-01;  0.0000000E+00; -3.3799037E-02;0;  4.7796220E-04;  4.0019668E+04;  0.0000000E+00; -4.7768023E-02;  4.0000000E+04;  0.0000000E+00;  3.9998840E+04;  1.4831114E-03;  0.0000000E+00; -1.0051492E-03;  1.2851634E+02;
  3.5162243E-01;  9.9999998E-03; -9.0003766E-02;4602;  4.3865493E-03;  0.0000000E+00;  4.0468803E-05;  1.0001944E+03;  1.0000000E-01;  1.6108186E+02;3;  1.7050968E-01;  0.0000000E+00; -3.2491103E-02;0;  3.6738999E-04;  4.0017801E+04;  0.0000000E+00; -1.4416290E-02;  4.0000000E+04;  0.0000000E+00;  3.9999805E+04;  1.3711769E-03;  0.0000000E+00; -1.0037869E-03;  2.8527365E+01;
  3.5162318E-01;  9.9999998E-03; -8.0007389E-02;4603;  4.3823491E-03;  0.0000000E+00;  3.3869703E-05;  1.0001927E+03;  1.0000000E-01;  1.5960042E+02;3;  1.7477040E-01;  0.0000000E+00; -3.0493287E-02;0;  2.6204996E-04;  4.0017344E+04;  0.0000000E+00;  8.4109157E-03;  4.0000000E+04;  0.0000000E+00;  4.0000660E+04;  1.2605863E-03;  0.0000000E+00; -9.9853636E-04;  1.1946322E+02;
  3.5162371E-01;  9.9999998E-03; -7.0010230E-02;4604;  4.3809977E-03;  0.0000000E+00;  3.0355674E-05;  1.0002058E+03;  1.0000000E-01;  1.7046431E+02;3;  1.7889217E-01;  0.0000000E+00; -2.8311173E-02;0;  1.6269030E-04;  4.0017492E+04;  0.0000000E+00;  2.1200201E-02;  4.0000000E+04;  0.0000000E+00;  4.0001141E+04;  1.1549772E-03;  0.0000000E+00; -9.9228695E-04;  1.7630812E+02;
  3.5162407E-01;  9.9999998E-03; -6.0011957E-02;4605;  4.3805875E-03;  0.0000000E+00;  2.8990897E-05;  1.0002283E+03;  1.0000000E-01;  1.8913045E+02;3;  1.8363161E-01;  0.0000000E+00; -2.5106570E-02;0;  7.0963637E-05;  4.0018871E+04;  0.0000000E+00;  2.5575161E-02;  4.0000000E+04;  0.0000000E+00;  4.0001105E+04;  1.0582340E-03;  0.0000000E+00; -9.8727038E-04;  1.8342947E+02;
  3.5162434E-01;  9.9999998E-03; -5.0012365E-02;4606;  4.3793144E-03;  0.0000000E+00;  2.7631189E-05;  1.0002499E+03;  1.0000000E-01;  2.0710526E+02;3;  1.8834881E-01;  0.0000000E+00; -2.0579014E-02;0; -1.1137920E-05;  4.0021117E+04;  0.0000000E+00;  2.3808636E-02;  4.0000000E+04;  0.0000000E+00;  4.0001000E+04;  9.7356562E-04;  0.0000000E+00; -9.8470354E-04;  1.4583487E+02;
  3.5162395E-01;  9.9999998E-03; -4.0011752E-02;4607;  4.3774969E-03;  0.0000000E+00;  2.5179110E-05;  1.0002795E+03;  1.0000000E-01;  2.3159839E+02;3;  1.9192472E-01;  0.0000000E+00; -1.6704064E-02;0; -8.1720704E-05;  4.0024000E+04;  0.0000000E+00;  1.8397277E-02;  4.0000000E+04;  0.0000000E+00;  4.0000461E+04;  9.0310042E-04;  0.0000000E+00; -9.8482112E-04;  7.7528297E+01;
  3.5162225E-01;  9.9999998E-03; -3.0010367E-02;4608;  4.3754713E-03;  0.0000000E+00;  2.1114804E-05;  1.0003064E+03;  1.0000000E-01;  2.5381998E+02;3;  1.9460003E-01;  0.0000000E+00; -1.2162238E-02;0; -1.3909012E-04;  4.0026812E+04;  0.0000000E+00;  1.1689818E-02;  4.0000000E+04;  0.0000000E+00;  3.9999816E+04;  8.4794429E-04;  0.0000000E+00; -9.8703441E-04;  1.8946178E+01;
  3.5161987E-01;  9.9999998E-03; -2.0008015E-02;4609;  4.3737325E-03;  0.0000000E+00;  1.5388601E-05;  1.0003274E+03;  1.0000000E-01;  2.7120221E+02;3;  1.9654940E-01;  0.0000000E+00; -8.1471670E-03;0; -1.8161989E-04;  4.0029043E+04;  0.0000000E+00;  5.6016631E-03;  4.0000000E+04;  0.0000000E+00;  3.9999086E+04;  8.0852420E-04;  0.0000000E+00; -9.9014409E-04;  8.5232773E+01;
  3.5161740E-01;  9.9999998E-03; -1.0004511E-02;4610;  4.3725334E-03;  0.0000000E+00;  8.1291500E-06;  1.0003438E+03;  1.0000000E-01;  2.8483145E+02;3;  1.9810320E-01;  0.0000000E+00; -4.0305480E-03;0; -2.0785676E-04;  4.0030758E+04;  0.0000000E+00;  1.4585825E-03;  4.0000000E+04;  0.0000000E+00;  3.9998555E+04;  7.8489131E-04;  0.0000000E+00; -9.9274807E-04;  1.3815601E+02;
  3.5161608E-01;  9.9999998E-03;  3.5260983E-09;4611;  4.3721218E-03;  0.0000000E+00;  2.5714709E-08;  1.0003508E+03;  1.0000000E-01;  2.9055969E+02;3;  1.9825725E-01;  0.0000000E+00; -4.9310643E-08;0; -2.1674030E-04;  4.0031402E+04;  0.0000000E+00;  3.0814453E-12;  4.0000000E+04;  0.0000000E+00;  3.9998434E+04;  7.7701057E-04;  0.0000000E+00; -9.9375087E-04;  1.5727867E+02;
  3.5161740E-01;  9.9999998E-03;  1.0004518E-02;4612;  4.3725297E-03;  0.0000000E+00; -8.0776999E-06;  1.0003438E+03;  1.0000000E-01;  2.8483145E+02;3;  1.9811058E-01;  0.0000000E+00;  4.0294942E-03;0; -2.0785426E-04;  4.0030758E+04;  0.0000000E+00;  1.4582943E-03;  4.0000000E+04;  0.0000000E+00;  3.9998555E+04;  7.8489812E-04;  0.0000000E+00; -9.9275238E-04;  1.3814845E+02;
  3.5161987E-01;  9.9999998E-03;  2.0008022E-02;4613;  4.3737264E-03;  0.0000000E+00; -1.5337102E-05;  1.0003275E+03;  1.0000000E-01;  2.7130096E+02;3;  1.9655998E-01;  0.0000000E+00;  8.1446832E-03;0; -1.8161623E-04;  4.0029043E+04;  0.0000000E+00;  5.6008664E-03;  4.0000000E+04;  0.0000000E+00;  3.9999086E+04;  8.0853543E-04;  0.0000000E+00; -9.9015166E-04;  8.5231667E+01;
  3.5162225E-01;  9.9999998E-03;  3.0010372E-02;4614;  4.3754620E-03;  0.0000000E+00; -2.1063188E-05;  1.0003064E+03;  1.0000000E-01;  2.5381998E+02;3;  1.9461051E-01;  0.0000000E+00;  1.2157674E-02;0; -1.3908313E-04;  4.0026816E+04;  0.0000000E+00;  1.1688628E-02;  4.0000000E+04;  0.0000000E+00;  3.9999816E+04;  8.4796175E-04;  0.0000000E+00; -9.8704488E-04;  1.8945530E+01;
  3.5162395E-01;  9.9999998E-03;  4.0011760E-02;4615;  4.3774848E-03;  0.0000000E+00; -2.5127583E-05;  1.0002795E+03;  1.0000000E-01;  2.3159839E+02;3;  1.9193637E-01;  0.0000000E+00;  1.6695585E-02;0; -8.1713719E-05;  4.0023996E+04;  0.0000000E+00;  1.8395199E-02;  4.0000000E+04;  0.0000000E+00;  4.0000461E+04;  9.0312149E-04;  0.0000000E+00; -9.8483521E-04;  7.7527855E+01;
  3.5162434E-01;  9.9999998E-03;  5.0012372E-02;4616;  4.3793004E-03;  0.0000000E+00; -2.7579770E-05;  1.0002499E+03;  1.0000000E-01;  2.0710526E+02;3;  1.8836328E-01;  0.0000000E+00;  2.0565819E-02;0; -1.1128257E-05;  4.0021117E+04;  0.0000000E+00;  2.3807514E-02;  4.0000000E+04;  0.0000000E+00;  4.0001000E+04;  9.7359170E-04;  0.0000000E+00; -9.8471995E-04;  1.4582454E+02;
  3.5162407E-01;  9.9999998E-03;  6.0011964E-02;4617;  4.3805735E-03;  0.0000000E+00; -2.8939623E-05;  1.0002283E+03;  1.0000000E-01;  1.8913045E+02;3;  1.8364552E-01;  0.0000000E+00;  2.5092140E-02;0;  7.0974696E-05;  4.0018871E+04;  0.0000000E+00;  2.5572428E-02;  4.0000000E+04;  0.0000000E+00;  4.0001109E+04;  1.0582634E-03;  0.0000000E+00; -9.8728866E-04;  1.8341949E+02;
  3.6157715E-01;  9.9999998E-03; -1.0000839E-01;4662;  4.4279136E-03;  0.0000000E+00;  5.8732367E-05;  1.0001399E+03;  1.0000000E-01;  1.1594733E+02;3;  1.8605794E-01;  0.0000000E+00; -3.3861883E-02;0;  5.6594319E-04;  4.0014152E+04;  0.0000000E+00; -7.3270821E-03;  4.0000000E+04;  0.0000000E+00;  3.9999031E+04;  1.6178964E-03;  0.0000000E+00; -1.0519532E-03;  9.1645111E+01;
  3.6157072E-01;  9.9999998E-03; -9.0011388E-02;4663;  4.4115917E-03;  0.0000000E+00;  4.9438542E-05;  1.0001467E+03;  1.0000000E-01;  1.2147804E+02;3;  1.8292028E-01;  0.0000000E+00; -3.3463255E-02;0;  4.6861032E-04;  4.0013754E+04;  0.0000000E+00;  1.7422218E-02;  4.0000000E+04;  0.0000000E+00;  4.0000066E+04;  1.5221983E-03;  0.0000000E+00; -1.0535880E-03;  3.1791513E+01;
  3.6156812E-01;  9.9999998E-03; -8.0013543E-02;4664;  4.4006063E-03;  0.0000000E+00;  4.2629872E-05;  1.0001622E+03;  1.0000000E-01;  1.3441595E+02;3;  1.8224478E-01;  0.0000000E+00; -3.1092582E-02;0;  3.8231583E-04;  4.0014531E+04;  0.0000000E+00;  3.1607755E-02;  4.0000000E+04;  0.0000000E+00;  4.0000836E+04;  1.4348443E-03;  0.0000000E+00; -1.0525285E-03;  1.0934566E+02;
  3.6156976E-01;  9.9999998E-03; -7.0014253E-02;4665;  4.3954416E-03;  0.0000000E+00;  3.8349281E-05;  1.0001852E+03;  1.0000000E-01;  1.5347714E+02;3;  1.8463057E-01;  0.0000000E+00; -2.7878705E-02;0;  3.0621607E-04;  4.0015906E+04;  0.0000000E+00;  3.6616426E-02;  4.0000000E+04;  0.0000000E+00;  4.0001266E+04;  1.3574717E-03;  0.0000000E+00; -1.0512556E-03;  1.4966216E+02;
  3.6157247E-01;  9.9999998E-03; -6.0013413E-02;4666;  4.3944130E-03;  0.0000000E+00;  3.5674060E-05;  1.0002172E+03;  1.0000000E-01;  1.7994553E+02;3;  1.8764605E-01;  0.0000000E+00; -2.4539124E-02;0;  2.3994280E-04;  4.0018301E+04;  0.0000000E+00;  3.4697704E-02;  4.0000000E+04;  0.0000000E+00;  4.0001156E+04;  1.2915570E-03;  0.0000000E+00; -1.0516142E-03;  1.4836246E+02;
  3.6157387E-01;  9.9999998E-03; -5.0011825E-02;4667;  4.3960726E-03;  0.0000000E+00;  3.3298453E-05;  1.0002520E+03;  1.0000000E-01;  2.0878423E+02;3;  1.9063471E-01;  0.0000000E+00; -2.0321036E-02;0;  1.8335774E-04;  4.0021172E+04;  0.0000000E+00;  2.8423207E-02;  4.0000000E+04;  0.0000000E+00;  4.0000730E+04;  1.2378177E-03;  0.0000000E+00; -1.0544599E-03;  1.1205600E+02;
  3.6157286E-01;  9.9999998E-03; -4.0010050E-02;4668;  4.3992125E-03;  0.0000000E+00;  3.0035755E-05;  1.0002845E+03;  1.0000000E-01;  2.3564766E+02;3;  1.9337434E-01;  0.0000000E+00; -1.6625410E-02;0;  1.3639359E-04;  4.0024609E+04;  0.0000000E+00;  2.0247962E-02;  4.0000000E+04;  0.0000000E+00;  4.0000406E+04;  1.1960525E-03;  0.0000000E+00; -1.0596589E-03;  5.4186569E+01;
  3.6156982E-01;  9.9999998E-03; -3.0008271E-02;4669;  4.4026631E-03;  0.0000000E+00;  2.4931036E-05;  1.0003170E+03;  1.0000000E-01;  2.6260986E+02;3;  1.9602531E-01;  0.0000000E+00; -1.2555229E-02;0;  9.9124969E-05;  4.0027758E+04;  0.0000000E+00;  1.2182775E-02;  4.0000000E+04;  0.0000000E+00;  3.9999957E+04;  1.1653765E-03;  0.0000000E+00; -1.0662515E-03;  2.7580301E+01;
  3.6156616E-01;  9.9999998E-03; -2.0006252E-02;4670;  4.4055842E-03;  0.0000000E+00;  1.8010011E-05;  1.0003417E+03;  1.0000000E-01;  2.8315250E+02;3;  1.9803017E-01;  0.0000000E+00; -8.1054615E-03;0;  7.1886694E-05;  4.0030410E+04;  0.0000000E+00;  5.6346175E-03;  4.0000000E+04;  0.0000000E+00;  3.9999344E+04;  1.1446108E-03;  0.0000000E+00; -1.0727241E-03;  8.2693962E+01;
  3.6156261E-01;  9.9999998E-03; -1.0003538E-02;4671;  4.4075642E-03;  0.0000000E+00;  9.4135094E-06;  1.0003624E+03;  1.0000000E-01;  3.0023843E+02;3;  1.9900504E-01;  0.0000000E+00; -4.1834288E-03;0;  5.5201817E-05;  4.0032023E+04;  0.0000000E+00;  1.4380513E-03;  4.0000000E+04;  0.0000000E+00;  3.9998938E+04;  1.1326395E-03;  0.0000000E+00; -1.0774377E-03;  1.2460496E+02;
  3.6156142E-01;  9.9999998E-03;  4.0222750E-09;4672;  4.4084270E-03;  0.0000000E+00;  2.7346180E-08;  1.0003676E+03;  1.0000000E-01;  3.0458398E+02;3;  1.9957086E-01;  0.0000000E+00;  2.3107859E-06;0;  4.9583847E-05;  4.0032703E+04;  0.0000000E+00; -4.7657950E-13;  4.0000000E+04;  0.0000000E+00;  3.9998855E+04;  1.1287483E-03;  0.0000000E+00; -1.0791644E-03;  1.3969019E+02;
  3.6156261E-01;  9.9999998E-03;  1.0003546E-02;4673;  4.4075614E-03;  0.0000000E+00; -9.3590406E-06;  1.0003624E+03;  1.0000000E-01;  3.0023843E+02;3;  1.9901074E-01;  0.0000000E+00;  4.1887993E-03;0;  5.5204961E-05;  4.0032023E+04;  0.0000000E+00;  1.4378454E-03;  4.0000000E+04;  0.0000000E+00;  3.9998941E+04;  1.1326480E-03;  0.0000000E+00; -1.0774430E-03;  1.2459696E+02;
  3.6156616E-01;  9.9999998E-03;  2.0006260E-02;4674;  4.4055786E-03;  0.0000000E+00; -1.7955495E-05;  1.0003417E+03;  1.0000000E-01;  2.8315250E+02;3;  1.9803292E-01;  0.0000000E+00;  8.1060864E-03;0;  7.1893679E-05;  4.0030406E+04;  0.0000000E+00;  5.6341272E-03;  4.0000000E+04;  0.0000000E+00;  3.9999344E+04;  1.1446275E-03;  0.0000000E+00; -1.0727338E-03;  8.2688446E+01;
  3.6156982E-01;  9.9999998E-03;  3.0008279E-02;4675;  4.4026547E-03;  0.0000000E+00; -2.4876344E-05;  1.0003170E+03;  1.0000000E-01;  2.6260986E+02;3;  1.9603537E-01;  0.0000000E+00;  1.2555852E-02;0;  9.9132885E-05;  4.0027754E+04;  0.0000000E+00;  1.2181917E-02;  4.0000000E+04;  0.0000000E+00;  3.9999957E+04;  1.1653969E-03;  0.0000000E+00; -1.0662640E-03;  2.7569643E+01;
  3.6157286E-01;  9.9999998E-03;  4.0010057E-02;4676;  4.3992018E-03;  0.0000000E+00; -2.9981244E-05;  1.0002845E+03;  1.0000000E-01;  2.3564766E+02;3;  1.9338444E-01;  0.0000000E+00;  1.6618911E-02;0;  1.3640616E-04;  4.0024609E+04;  0.0000000E+00;  2.0247735E-02;  4.0000000E+04;  0.0000000E+00;  4.0000406E+04;  1.1960804E-03;  0.0000000E+00; -1.0596742E-03;  5.4179550E+01;
  3.6157387E-01;  9.9999998E-03;  5.0011832E-02;4677;  4.3960600E-03;  0.0000000E+00; -3.3243381E-05;  1.0002520E+03;  1.0000000E-01;  2.0878423E+02;3;  1.9064924E-01;  0.0000000E+00;  2.0316714E-02;0;  1.8337241E-04;  4.0021176E+04;  0.0000000E+00;  2.8421853E-02;  4.0000000E+04;  0.0000000E+00;  4.0000730E+04;  1.2378517E-03;  0.0000000E+00; -1.0544793E-03;  1.1205836E+02;
  3.6157247E-01;  9.9999998E-03;  6.0013421E-02;4678;  4.3943985E-03;  0.0000000E+00; -3.5618919E-05;  1.0002172E+03;  1.0000000E-01;  1.7994553E+02;3;  1.8766980E-01;  0.0000000E+00;  2.4525007E-02;0;  2.3996073E-04;  4.0018297E+04;  0.0000000E+00;  3.4696508E-02;  4.0000000E+04;  0.0000000E+00;  4.0001160E+04;  1.2915953E-03;  0.0000000E+00; -1.0516346E-03;  1.4834520E+02;
  3.7158215E-01;  9.9999998E-03; -1.0001104E-01;4723;  4.4628135E-03;  0.0000000E+00;  8.2995954E-05;  1.0000748E+03;  1.0000000E-01;  6.2022938E+01;3;  2.1611123E-01;  0.0000000E+00; -2.2477515E-02;0;  6.5386586E-04;  4.0008688E+04;  0.0000000E+00;  3.1030884E-02;  4.0000000E+04;  0.0000000E+00;  3.9999383E+04;  1.7582864E-03;  0.0000000E+00; -1.1044205E-03;  9.2682793E+01;
  3.7155837E-01;  9.9999998E-03; -9.0013891E-02;4724;  4.4425582E-03;  0.0000000E+00;  7.1726376E-05;  1.0000881E+03;  1.0000000E-01;  7.2985588E+01;3;  2.0481388E-01;  0.0000000E+00; -2.3636343E-02;0;  5.7151902E-04;  4.0008961E+04;  0.0000000E+00;  4.5895889E-02;  4.0000000E+04;  0.0000000E+00;  3.9999934E+04;  1.6815119E-03;  0.0000000E+00; -1.1099929E-03;  6.6506310E+01;
  3.7154046E-01;  9.9999998E-03; -8.0014251E-02;4725;  4.4312123E-03;  0.0000000E+00;  6.4118860E-05;  1.0001079E+03;  1.0000000E-01;  8.9380188E+01;3;  2.0094866E-01;  0.0000000E+00; -2.2896841E-02;0;  5.0282350E-04;  4.0009777E+04;  0.0000000E+00;  5.1193506E-02;  4.0000000E+04;  0.0000000E+00;  4.0000254E+04;  1.6166703E-03;  0.0000000E+00; -1.1138468E-03;  1.0275102E+02;
  3.7153265E-01;  9.9999998E-03; -7.0013203E-02;4726;  4.4286158E-03;  0.0000000E+00;  5.9310838E-05;  1.0001332E+03;  1.0000000E-01;  1.1031787E+02;3;  2.0036961E-01;  0.0000000E+00; -1.9965809E-02;0;  4.4557091E-04;  4.0011695E+04;  0.0000000E+00;  4.8924983E-02;  4.0000000E+04;  0.0000000E+00;  4.0000523E+04;  1.5635930E-03;  0.0000000E+00; -1.1180221E-03;  1.2485965E+02;
  3.7153056E-01;  9.9999998E-03; -6.0011536E-02;4727;  4.4333558E-03;  0.0000000E+00;  5.6031928E-05;  1.0001615E+03;  1.0000000E-01;  1.3382338E+02;3;  2.0403592E-01;  0.0000000E+00; -1.5714483E-02;0;  3.9792003E-04;  4.0014344E+04;  0.0000000E+00;  4.1611616E-02;  4.0000000E+04;  0.0000000E+00;  4.0000855E+04;  1.5218767E-03;  0.0000000E+00; -1.1239566E-03;  1.1941812E+02;
  3.7152794E-01;  9.9999998E-03; -5.0009534E-02;4728;  4.4437782E-03;  0.0000000E+00;  5.2665102E-05;  1.0001975E+03;  1.0000000E-01;  1.6364969E+02;3;  2.0867726E-01;  0.0000000E+00; -1.0964590E-02;0;  3.5842916E-04;  4.0017320E+04;  0.0000000E+00;  3.1793371E-02;  4.0000000E+04;  0.0000000E+00;  4.0000750E+04;  1.4905491E-03;  0.0000000E+00; -1.1321199E-03;  9.0360931E+01;
  3.7152314E-01;  9.9999998E-03; -4.0007431E-02;4729;  4.4570244E-03;  0.0000000E+00;  4.7660244E-05;  1.0002355E+03;  1.0000000E-01;  1.9515497E+02;3;  2.1309036E-01;  0.0000000E+00; -6.4073554E-03;0;  3.2614591E-04;  4.0020309E+04;  0.0000000E+00;  2.1610295E-02;  4.0000000E+04;  0.0000000E+00;  4.0000484E+04;  1.4681912E-03;  0.0000000E+00; -1.1420453E-03;  4.7696693E+01;
  3.7151736E-01;  9.9999998E-03; -3.0005464E-02;4730;  4.4708713E-03;  0.0000000E+00;  3.9981649E-05;  1.0002640E+03;  1.0000000E-01;  2.1875925E+02;3;  2.1800825E-01;  0.0000000E+00; -2.7502573E-03;0;  3.0066562E-04;  4.0023160E+04;  0.0000000E+00;  1.2602265E-02;  4.0000000E+04;  0.0000000E+00;  4.0000160E+04;  1.4531671E-03;  0.0000000E+00; -1.1525014E-03;  2.1283501E+01;
  3.7151220E-01;  9.9999998E-03; -2.0003702E-02;4731;  4.4828895E-03;  0.0000000E+00;  2.8907303E-05;  1.0002911E+03;  1.0000000E-01;  2.4117836E+02;3;  2.2106197E-01;  0.0000000E+00; -3.3323205E-04;0;  2.8205896E-04;  4.0025559E+04;  0.0000000E+00;  5.7150102E-03;  4.0000000E+04;  0.0000000E+00;  3.9999980E+04;  1.4438523E-03;  0.0000000E+00; -1.1617934E-03;  5.4380085E+01;
  3.7150797E-01;  9.9999998E-03; -1.0001924E-02;4732;  4.4905250E-03;  0.0000000E+00;  1.5208399E-05;  1.0003058E+03;  1.0000000E-01;  2.5342493E+02;3;  2.2273898E-01;  0.0000000E+00;  1.3279809E-03;0;  2.7064502E-04;  4.0026996E+04;  0.0000000E+00;  1.4429034E-03;  4.0000000E+04;  0.0000000E+00;  3.9999602E+04;  1.4388502E-03;  0.0000000E+00; -1.1682052E-03;  8.3169846E+01;
  3.7150615E-01;  9.9999998E-03;  4.8151945E-09;4733;  4.4928961E-03;  0.0000000E+00;  2.9370410E-08;  1.0003118E+03;  1.0000000E-01;  2.5826431E+02;3;  2.2252630E-01;  0.0000000E+00;  1.0006224E-05;0;  2.6678701E-04;  4.0027645E+04;  0.0000000E+00;  2.8855171E-12;  4.0000000E+04;  0.0000000E+00;  3.9999535E+04;  1.4372813E-03;  0.0000000E+00; -1.1704942E-03;  9.3645813E+01;
  3.7150797E-01;  9.9999998E-03;  1.0001933E-02;4734;  4.4905227E-03;  0.0000000E+00; -1.5149682E-05;  1.0003058E+03;  1.0000000E-01;  2.5342493E+02;3;  2.2273913E-01;  0.0000000E+00; -1.3104187E-03;0;  2.7065072E-04;  4.0026996E+04;  0.0000000E+00;  1.4427801E-03;  4.0000000E+04;  0.0000000E+00;  3.9999602E+04;  1.4388614E-03;  0.0000000E+00; -1.1682106E-03;  8.3174400E+01;
  3.7151220E-01;  9.9999998E-03;  2.0003714E-02;4735;  4.4828844E-03;  0.0000000E+00; -2.8848575E-05;  1.0002911E+03;  1.0000000E-01;  2.4117836E+02;3;  2.2106141E-01;  0.0000000E+00;  3.4946177E-04;0;  2.8206629E-04;  4.0025559E+04;  0.0000000E+00;  5.7148384E-03;  4.0000000E+04;  0.0000000E+00;  3.9999980E+04;  1.4438712E-03;  0.0000000E+00; -1.1618049E-03;  5.4386078E+01;
  3.7151736E-01;  9.9999998E-03;  3.0005474E-02;4736;  4.4708638E-03;  0.0000000E+00; -3.9922932E-05;  1.0002640E+03;  1.0000000E-01;  2.1875925E+02;3;  2.1801257E-01;  0.0000000E+00;  2.7617782E-03;0;  3.0067610E-04;  4.0023160E+04;  0.0000000E+00;  1.2601865E-02;  4.0000000E+04;  0.0000000E+00;  4.0000160E+04;  1.4531927E-03;  0.0000000E+00; -1.1525166E-03;  2.1278866E+01;
  3.7152314E-01;  9.9999998E-03;  4.0007439E-02;4737;  4.4570137E-03;  0.0000000E+00; -4.7601494E-05;  1.0002355E+03;  1.0000000E-01;  1.9515497E+02;3;  2.1309592E-01;  0.0000000E+00;  6.4142114E-03;0;  3.2616279E-04;  4.0020309E+04;  0.0000000E+00;  2.1609679E-02;  4.0000000E+04;  0.0000000E+00;  4.0000484E+04;  1.4682255E-03;  0.0000000E+00; -1.1420627E-03;  4.7695152E+01;
  3.7152794E-01;  9.9999998E-03;  5.0009545E-02;4738;  4.4437661E-03;  0.0000000E+00; -5.2606461E-05;  1.0001976E+03;  1.0000000E-01;  1.6374846E+02;3;  2.0868716E-01;  0.0000000E+00;  1.0965624E-02;0;  3.5844755E-04;  4.0017312E+04;  0.0000000E+00;  3.1792387E-02;  4.0000000E+04;  0.0000000E+00;  4.0000750E+04;  1.4905913E-03;  0.0000000E+00; -1.1321438E-03;  9.0354095E+01;
  3.7153056E-01;  9.9999998E-03;  6.0011547E-02;4739;  4.4333427E-03;  0.0000000E+00; -5.5973524E-05;  1.0001616E+03;  1.0000000E-01;  1.3382338E+02;3;  2.0404917E-01;  0.0000000E+00;  1.5707189E-02;0;  3.9794168E-04;  4.0014340E+04;  0.0000000E+00;  4.1611210E-02;  4.0000000E+04;  0.0000000E+00;  4.0000855E+04;  1.5219219E-03;  0.0000000E+00; -1.1239803E-03;  1.1940886E+02;
  3.8163272E-01;  9.9999998E-03; -1.0000344E-01;4784;  4.4840234E-03;  0.0000000E+00;  1.1108514E-04;  1.0000291E+03;  1.0000000E-01;  2.4098083E+01;3;  2.3507489E-01;  0.0000000E+00; -1.0797798E-02;0;  7.3548243E-04;  4.0004590E+04;  0.0000000E+00;  6.4314418E-02;  4.0000000E+04;  0.0000000E+00;  3.9999254E+04;  1.8998580E-03;  0.0000000E+00; -1.1643756E-03;  1.2586874E+02;
  3.8160372E-01;  9.9999998E-03; -9.0006404E-02;4785;  4.4707456E-03;  0.0000000E+00;  1.0117194E-04;  1.0000343E+03;  1.0000000E-01;  2.8443640E+01;3;  2.2887264E-01;  0.0000000E+00; -1.0578188E-02;0;  6.6685688E-04;  4.0004590E+04;  0.0000000E+00;  6.9401965E-02;  4.0000000E+04;  0.0000000E+00;  3.9999742E+04;  1.8417384E-03;  0.0000000E+00; -1.1748815E-03;  1.0082143E+02;
  3.8157392E-01;  9.9999998E-03; -8.0006927E-02;4786;  4.4675656E-03;  0.0000000E+00;  9.3905554E-05;  1.0000441E+03;  1.0000000E-01;  3.6542175E+01;3;  2.2969441E-01;  0.0000000E+00; -7.8896927E-03;0;  6.1128673E-04;  4.0005090E+04;  0.0000000E+00;  6.6687271E-02;  4.0000000E+04;  0.0000000E+00;  4.0000219E+04;  1.7955954E-03;  0.0000000E+00; -1.1843087E-03;  1.0192387E+02;
  3.8155058E-01;  9.9999998E-03; -7.0005991E-02;4787;  4.4766678E-03;  0.0000000E+00;  8.9410765E-05;  1.0000640E+03;  1.0000000E-01;  5.3035538E+01;3;  2.3224159E-01;  0.0000000E+00; -4.2878608E-03;0;  5.6547741E-04;  4.0006125E+04;  0.0000000E+00;  5.8406040E-02;  4.0000000E+04;  0.0000000E+00;  4.0000609E+04;  1.7596813E-03;  0.0000000E+00; -1.1942039E-03;  1.0489317E+02;
  3.8153404E-01;  9.9999998E-03; -6.0004689E-02;4788;  4.4974466E-03;  0.0000000E+00;  8.6239394E-05;  1.0000844E+03;  1.0000000E-01;  6.9923950E+01;3;  2.4176697E-01;  0.0000000E+00; -1.3979519E-04;0;  5.2683847E-04;  4.0007844E+04;  0.0000000E+00;  4.6993721E-02;  4.0000000E+04;  0.0000000E+00;  4.0000867E+04;  1.7324436E-03;  0.0000000E+00; -1.2056051E-03;  9.7269012E+01;
  3.8152280E-01;  9.9999998E-03; -5.0003503E-02;4789;  4.5275711E-03;  0.0000000E+00;  8.1953069E-05;  1.0001067E+03;  1.0000000E-01;  8.8392563E+01;3;  2.5657514E-01;  0.0000000E+00;  4.6746871E-03;0;  4.9370015E-04;  4.0009969E+04;  0.0000000E+00;  3.4638010E-02;  4.0000000E+04;  0.0000000E+00;  4.0000574E+04;  1.7123803E-03;  0.0000000E+00; -1.2186802E-03;  7.8093597E+01;
  3.8151500E-01;  9.9999998E-03; -4.0002368E-02;4790;  4.5608655E-03;  0.0000000E+00;  7.4333329E-05;  1.0001313E+03;  1.0000000E-01;  1.0883643E+02;3;  2.7270138E-01;  0.0000000E+00;  8.3171166E-03;0;  4.6537118E-04;  4.0011902E+04;  0.0000000E+00;  2.3015397E-02;  4.0000000E+04;  0.0000000E+00;  4.0000422E+04;  1.6980811E-03;  0.0000000E+00; -1.2327100E-03;  5.1589638E+01;
  3.8150871E-01;  9.9999998E-03; -3.0001432E-02;4791;  4.5904480E-03;  0.0000000E+00;  6.1540421E-05;  1.0001544E+03;  1.0000000E-01;  1.2789761E+02;3;  2.8794068E-01;  0.0000000E+00;  8.6586270E-03;0;  4.4202467E-04;  4.0013844E+04;  0.0000000E+00;  1.3240725E-02;  4.0000000E+04;  0.0000000E+00;  4.0000160E+04;  1.6883165E-03;  0.0000000E+00; -1.2462918E-03;  2.4165380E+01;
  3.8150328E-01;  9.9999998E-03; -2.0000797E-02;4792;  4.6119415E-03;  0.0000000E+00;  4.3815315E-05;  1.0001718E+03;  1.0000000E-01;  1.4231696E+02;3;  3.0370191E-01;  0.0000000E+00;  7.2073136E-03;0;  4.2438204E-04;  4.0015531E+04;  0.0000000E+00;  5.9597641E-03;  4.0000000E+04;  0.0000000E+00;  4.0000363E+04;  1.6820832E-03;  0.0000000E+00; -1.2577012E-03;  1.1605787E+01;
  3.8149956E-01;  9.9999998E-03; -1.0000322E-02;4793;  4.6243370E-03;  0.0000000E+00;  2.2615395E-05;  1.0001792E+03;  1.0000000E-01;  1.4844025E+02;3;  3.0868956E-01;  0.0000000E+00;  3.7682918E-03;0;  4.1334343E-04;  4.0016863E+04;  0.0000000E+00;  1.4993344E-03;  4.0000000E+04;  0.0000000E+00;  4.0000336E+04;  1.6786574E-03;  0.0000000E+00; -1.2653139E-03;  2.3677536E+01;
  3.8149798E-01;  9.9999998E-03;  6.3428498E-09;4794;  4.6285009E-03;  0.0000000E+00;  3.1724269E-08;  1.0001857E+03;  1.0000000E-01;  1.5387219E+02;3;  3.1128055E-01;  0.0000000E+00;  1.2486358E-05;0;  4.0958251E-04;  4.0017242E+04;  0.0000000E+00;  2.9222746E-12;  4.0000000E+04;  0.0000000E+00;  4.0000188E+04;  1.6775706E-03;  0.0000000E+00; -1.2679881E-03;  2.9219513E+01;
  3.8149956E-01;  9.9999998E-03;  1.0000335E-02;4795;  4.6243356E-03;  0.0000000E+00; -2.2552113E-05;  1.0001791E+03;  1.0000000E-01;  1.4844025E+02;3;  3.0868691E-01;  0.0000000E+00; -3.7443114E-03;0;  4.1334936E-04;  4.0016867E+04;  0.0000000E+00;  1.4994174E-03;  4.0000000E+04;  0.0000000E+00;  4.0000336E+04;  1.6786688E-03;  0.0000000E+00; -1.2653194E-03;  2.3673042E+01;
  3.8150328E-01;  9.9999998E-03;  2.0000810E-02;4796;  4.6119387E-03;  0.0000000E+00; -4.3752021E-05;  1.0001718E+03;  1.0000000E-01;  1.4231696E+02;3;  3.0369970E-01;  0.0000000E+00; -7.1843769E-03;0;  4.2439159E-04;  4.0015531E+04;  0.0000000E+00;  5.9597222E-03;  4.0000000E+04;  0.0000000E+00;  4.0000363E+04;  1.6821037E-03;  0.0000000E+00; -1.2577121E-03;  1.1598580E+01;
  3.8150868E-01;  9.9999998E-03;  3.0001443E-02;4797;  4.5904433E-03;  0.0000000E+00; -6.1477782E-05;  1.0001544E+03;  1.0000000E-01;  1.2789761E+02;3;  2.8794053E-01;  0.0000000E+00; -8.6396355E-03;0;  4.4203911E-04;  4.0013844E+04;  0.0000000E+00;  1.3241042E-02;  4.0000000E+04;  0.0000000E+00;  4.0000160E+04;  1.6883481E-03;  0.0000000E+00; -1.2463090E-03;  2.4160160E+01;
  3.8151500E-01;  9.9999998E-03;  4.0002380E-02;4798;  4.5608585E-03;  0.0000000E+00; -7.4271338E-05;  1.0001313E+03;  1.0000000E-01;  1.0873766E+02;3;  2.7270204E-01;  0.0000000E+00; -8.3049145E-03;0;  4.6539039E-04;  4.0011902E+04;  0.0000000E+00;  2.3014750E-02;  4.0000000E+04;  0.0000000E+00;  4.0000422E+04;  1.6981229E-03;  0.0000000E+00; -1.2327326E-03;  5.1576145E+01;
  3.8152280E-01;  9.9999998E-03;  5.0003517E-02;4799;  4.5275628E-03;  0.0000000E+00; -8.1891470E-05;  1.0001067E+03;  1.0000000E-01;  8.8392563E+01;3;  2.5658059E-01;  0.0000000E+00; -4.6693101E-03;0;  4.9372332E-04;  4.0009965E+04;  0.0000000E+00;  3.4638222E-02;  4.0000000E+04;  0.0000000E+00;  4.0000574E+04;  1.7124300E-03;  0.0000000E+00; -1.2187067E-03;  7.8091301E+01;
  3.8153404E-01;  9.9999998E-03;  6.0004700E-02;4800;  4.4974359E-03;  0.0000000E+00; -8.6178115E-05;  1.0000844E+03;  1.0000000E-01;  6.9923950E+01;3;  2.4177191E-01;  0.0000000E+00;  1.3614484E-04;0;  5.2686839E-04;  4.0007855E+04;  0.0000000E+00;  4.6994161E-02;  4.0000000E+04;  0.0000000E+00;  4.0000867E+04;  1.7324984E-03;  0.0000000E+00; -1.2056300E-03;  9.7255249E+01;
  3.9166647E-01;  9.9999998E-03; -9.9994101E-02;4845;  4.4892756E-03;  0.0000000E+00;  1.3473307E-04;  1.0000151E+03;  1.0000000E-01;  1.2444093E+01;3;  2.4458948E-01;  0.0000000E+00; -2.9018302E-03;0;  8.2584459E-04;  4.0002949E+04;  0.0000000E+00;  9.1125652E-02;  4.0000000E+04;  0.0000000E+00;  3.9999246E+04;  2.0582448E-03;  0.0000000E+00; -1.2324002E-03;  1.7017068E+02;
  3.9165109E-01;  9.9999998E-03; -8.9995869E-02;4846;  4.4844910E-03;  0.0000000E+00;  1.2525702E-04;  1.0000021E+03;  1.0000000E-01;  1.6789649E+00;3;  2.4333596E-01;  0.0000000E+00; -1.7216380E-03;0;  7.6779560E-04;  4.0002023E+04;  0.0000000E+00;  8.7661788E-02;  4.0000000E+04;  0.0000000E+00;  3.9999758E+04;  2.0164312E-03;  0.0000000E+00; -1.2486356E-03;  1.3769019E+02;
  3.9162987E-01;  9.9999998E-03; -7.9996042E-02;4847;  4.4918046E-03;  0.0000000E+00;  1.1782010E-04;  9.9999780E+02;  1.0000000E-01; -1.8271089E+00;3;  2.4671668E-01;  0.0000000E+00; -4.7708480E-05;0;  7.1953051E-04;  4.0001332E+04;  0.0000000E+00;  7.8457139E-02;  4.0000000E+04;  0.0000000E+00;  3.9999797E+04;  1.9836260E-03;  0.0000000E+00; -1.2640955E-03;  1.1353915E+02;
  3.9160743E-01;  9.9999998E-03; -6.9995537E-02;4848;  4.5148972E-03;  0.0000000E+00;  1.1241238E-04;  9.9999768E+02;  1.0000000E-01; -1.9258715E+00;3;  2.6005313E-01;  0.0000000E+00;  4.4113910E-03;0;  6.7705137E-04;  4.0000855E+04;  0.0000000E+00;  6.5654129E-02;  4.0000000E+04;  0.0000000E+00;  4.0000195E+04;  1.9568102E-03;  0.0000000E+00; -1.2797589E-03;  9.5620094E+01;
  3.9158684E-01;  9.9999998E-03; -5.9994828E-02;4849;  4.5515606E-03;  0.0000000E+00;  1.0699189E-04;  1.0000006E+03;  1.0000000E-01;  4.9381319E-01;3;  2.7956316E-01;  0.0000000E+00;  8.7152943E-03;0;  6.3771987E-04;  4.0000969E+04;  0.0000000E+00;  5.1326055E-02;  4.0000000E+04;  0.0000000E+00;  4.0000586E+04;  1.9339748E-03;  0.0000000E+00; -1.2962549E-03;  8.1362869E+01;
  3.9156890E-01;  9.9999998E-03; -4.9994376E-02;4850;  4.5922687E-03;  0.0000000E+00;  9.8097997E-05;  1.0000020E+03;  1.0000000E-01;  1.5802022E+00;3;  3.0125403E-01;  0.0000000E+00;  1.0770672E-02;0;  6.0049805E-04;  4.0001426E+04;  0.0000000E+00;  3.7188016E-02;  4.0000000E+04;  0.0000000E+00;  4.0000578E+04;  1.9139735E-03;  0.0000000E+00; -1.3134754E-03;  6.9161034E+01;
  3.9155388E-01;  9.9999998E-03; -3.9994467E-02;4851;  4.6264078E-03;  0.0000000E+00;  8.3992280E-05;  1.0000081E+03;  1.0000000E-01;  6.7158594E+00;3;  3.1778932E-01;  0.0000000E+00;  9.9895420E-03;0;  5.6590629E-04;  4.0001844E+04;  0.0000000E+00;  2.4484323E-02;  4.0000000E+04;  0.0000000E+00;  4.0000566E+04;  1.8964846E-03;  0.0000000E+00; -1.3305784E-03;  5.8652599E+01;
  3.9154208E-01;  9.9999998E-03; -2.9995142E-02;4852;  4.6527977E-03;  0.0000000E+00;  6.6003930E-05;  1.0000146E+03;  1.0000000E-01;  1.2147804E+01;3;  3.2517070E-01;  0.0000000E+00;  7.8725209E-03;0;  5.3566322E-04;  4.0002539E+04;  0.0000000E+00;  1.4029082E-02;  4.0000000E+04;  0.0000000E+00;  4.0000512E+04;  1.8818767E-03;  0.0000000E+00; -1.3462135E-03;  5.0378017E+01;
  3.9153308E-01;  9.9999998E-03; -1.9996386E-02;4853;  4.6728053E-03;  0.0000000E+00;  4.5274195E-05;  1.0000184E+03;  1.0000000E-01;  1.5209446E+01;3;  3.3043423E-01;  0.0000000E+00;  4.8071961E-03;0;  5.1196525E-04;  4.0002887E+04;  0.0000000E+00;  6.3069393E-03;  4.0000000E+04;  0.0000000E+00;  4.0000617E+04;  1.8708083E-03;  0.0000000E+00; -1.3588431E-03;  4.4763889E+01;
  3.9152721E-01;  9.9999998E-03; -9.9980757E-03;4854;  4.6853861E-03;  0.0000000E+00;  2.3091769E-05;  1.0000228E+03;  1.0000000E-01;  1.8863665E+01;3;  3.3238566E-01;  0.0000000E+00;  2.1020626E-03;0;  4.9683102E-04;  4.0003430E+04;  0.0000000E+00;  1.5864975E-03;  4.0000000E+04;  0.0000000E+00;  4.0000547E+04;  1.8638950E-03;  0.0000000E+00; -1.3670640E-03;  4.1748291E+01;
  3.9152497E-01;  9.9999998E-03;  7.4162392E-09;4855;  4.6898178E-03;  0.0000000E+00;  3.3265007E-08;  1.0000242E+03;  1.0000000E-01;  2.0048815E+01;3;  3.3320034E-01;  0.0000000E+00;  1.1972135E-05;0;  4.9162877E-04;  4.0003414E+04;  0.0000000E+00;  2.2469637E-12;  4.0000000E+04;  0.0000000E+00;  4.0000586E+04;  1.8615497E-03;  0.0000000E+00; -1.3699209E-03;  4.0847595E+01;
  3.9152721E-01;  9.9999998E-03;  9.9980906E-03;4856;  4.6853852E-03;  0.0000000E+00; -2.3025257E-05;  1.0000228E+03;  1.0000000E-01;  1.8863665E+01;3;  3.3238080E-01;  0.0000000E+00; -2.0784189E-03;0;  4.9683801E-04;  4.0003426E+04;  0.0000000E+00;  1.5867677E-03;  4.0000000E+04;  0.0000000E+00;  4.0000547E+04;  1.8639102E-03;  0.0000000E+00; -1.3670722E-03;  4.1753338E+01;
  3.9153308E-01;  9.9999998E-03;  1.9996401E-02;4857;  4.6728035E-03;  0.0000000E+00; -4.5207878E-05;  1.0000184E+03;  1.0000000E-01;  1.5308209E+01;3;  3.3043137E-01;  0.0000000E+00; -4.7848537E-03;0;  5.1197922E-04;  4.0002883E+04;  0.0000000E+00;  6.3072448E-03;  4.0000000E+04;  0.0000000E+00;  4.0000621E+04;  1.8708349E-03;  0.0000000E+00; -1.3588556E-03;  4.4768444E+01;
  3.9154208E-01;  9.9999998E-03;  2.9995156E-02;4858;  4.6527949E-03;  0.0000000E+00; -6.5938118E-05;  1.0000146E+03;  1.0000000E-01;  1.2147804E+01;3;  3.2516679E-01;  0.0000000E+00; -7.8533953E-03;0;  5.3568010E-04;  4.0002539E+04;  0.0000000E+00;  1.4029382E-02;  4.0000000E+04;  0.0000000E+00;  4.0000504E+04;  1.8819140E-03;  0.0000000E+00; -1.3462339E-03;  5.0370472E+01;
  3.9155388E-01;  9.9999998E-03;  3.9994482E-02;4859;  4.6264026E-03;  0.0000000E+00; -8.3927043E-05;  1.0000081E+03;  1.0000000E-01;  6.7158594E+00;3;  3.1778446E-01;  0.0000000E+00; -9.9732690E-03;0;  5.6593376E-04;  4.0001848E+04;  0.0000000E+00;  2.4485046E-02;  4.0000000E+04;  0.0000000E+00;  4.0000570E+04;  1.8965343E-03;  0.0000000E+00; -1.3306006E-03;  5.8648251E+01;
  3.9156890E-01;  9.9999998E-03;  4.9994390E-02;4860;  4.5922622E-03;  0.0000000E+00; -9.8033401E-05;  1.0000020E+03;  1.0000000E-01;  1.6789649E+00;3;  3.0125162E-01;  0.0000000E+00; -1.0760624E-02;0;  6.0053100E-04;  4.0001426E+04;  0.0000000E+00;  3.7188604E-02;  4.0000000E+04;  0.0000000E+00;  4.0000578E+04;  1.9140329E-03;  0.0000000E+00; -1.3135019E-03;  6.9150406E+01;
  3.9158684E-01;  9.9999998E-03;  5.9994843E-02;4861;  4.5515518E-03;  0.0000000E+00; -1.0692798E-04;  1.0000005E+03;  1.0000000E-01;  4.9381319E-01;3;  2.7955756E-01;  0.0000000E+00; -8.7142028E-03;0;  6.3775678E-04;  4.0000973E+04;  0.0000000E+00;  5.1327311E-02;  4.0000000E+04;  0.0000000E+00;  4.0000582E+04;  1.9340425E-03;  0.0000000E+00; -1.2962858E-03;  8.1361115E+01;
  4.0166777E-01;  9.9999998E-03; -9.9990696E-02;4906;  4.4853361E-03;  0.0000000E+00;  1.5326672E-04;  1.0000208E+03;  1.0000000E-01;  1.7184700E+01;3;  2.4740644E-01;  0.0000000E+00; -1.0321963E-03;0;  9.5711520E-04;  4.0003570E+04;  0.0000000E+00;  1.1091328E-01;  4.0000000E+04;  0.0000000E+00;  3.9999078E+04;  2.2656580E-03;  0.0000000E+00; -1.3085428E-03;  2.2009398E+02;
  4.0166128E-01;  9.9999998E-03; -8.9990765E-02;4907;  4.4863047E-03;  0.0000000E+00;  1.4252208E-04;  9.9999957E+02;  1.0000000E-01; -3.4566924E-01;3;  2.5047806E-01;  0.0000000E+00;  2.3080813E-04;0;  9.0709643E-04;  4.0001516E+04;  0.0000000E+00;  1.0080855E-01;  4.0000000E+04;  0.0000000E+00;  3.9999480E+04;  2.2379253E-03;  0.0000000E+00; -1.3308289E-03;  1.8375826E+02;
  4.0164939E-01;  9.9999998E-03; -7.9990067E-02;4908;  4.5026024E-03;  0.0000000E+00;  1.3311018E-04;  9.9996777E+02;  1.0000000E-01; -2.6715294E+01;3;  2.5970984E-01;  0.0000000E+00;  2.2139577E-03;0;  8.6164440E-04;  3.9999254E+04;  0.0000000E+00;  8.6814709E-02;  4.0000000E+04;  0.0000000E+00;  3.9999688E+04;  2.2139116E-03;  0.0000000E+00; -1.3522672E-03;  1.4618411E+02;
  4.0163422E-01;  9.9999998E-03; -6.9989368E-02;4909;  4.5358031E-03;  0.0000000E+00;  1.2476549E-04;  9.9994501E+02;  1.0000000E-01; -4.5578957E+01;3;  2.7910027E-01;  0.0000000E+00;  5.8774794E-03;0;  8.1651343E-04;  3.9996926E+04;  0.0000000E+00;  7.0827752E-02;  4.0000000E+04;  0.0000000E+00;  3.9999555E+04;  2.1897946E-03;  0.0000000E+00; -1.3732811E-03;  1.0986488E+02;
  4.0161836E-01;  9.9999998E-03; -5.9989158E-02;4910;  4.5790374E-03;  0.0000000E+00;  1.1495675E-04;  9.9992291E+02;  1.0000000E-01; -6.3850044E+01;3;  3.0036917E-01;  0.0000000E+00;  8.1077088E-03;0;  7.6968584E-04;  3.9994789E+04;  0.0000000E+00;  5.4507468E-02;  4.0000000E+04;  0.0000000E+00;  3.9999812E+04;  2.1637848E-03;  0.0000000E+00; -1.3940990E-03;  7.8774590E+01;
  4.0160346E-01;  9.9999998E-03; -4.9989596E-02;4911;  4.6181455E-03;  0.0000000E+00;  1.0093652E-04;  9.9990210E+02;  1.0000000E-01; -8.1084129E+01;3;  3.1934637E-01;  0.0000000E+00;  8.2448516E-03;0;  7.2148663E-04;  3.9993355E+04;  0.0000000E+00;  3.9149586E-02;  4.0000000E+04;  0.0000000E+00;  4.0000266E+04;  2.1359103E-03;  0.0000000E+00; -1.4144237E-03;  6.0228012E+01;
  4.0158916E-01;  9.9999998E-03; -3.9990701E-02;4912;  4.6493961E-03;  0.0000000E+00;  8.3523679E-05;  9.9988525E+02;  1.0000000E-01; -9.5059036E+01;3;  3.2816714E-01;  0.0000000E+00;  6.5768231E-03;0;  6.7431026E-04;  3.9991582E+04;  0.0000000E+00;  2.5671782E-02;  4.0000000E+04;  0.0000000E+00;  4.0000191E+04;  2.1077313E-03;  0.0000000E+00; -1.4334210E-03;  6.1189785E+01;
  4.0157619E-01;  9.9999998E-03; -2.9992456E-02;4913;  4.6754889E-03;  0.0000000E+00;  6.4171181E-05;  9.9987402E+02;  1.0000000E-01; -1.0439211E+02;3;  3.3354348E-01;  0.0000000E+00;  4.1541341E-03;0;  6.3183683E-04;  3.9990504E+04;  0.0000000E+00;  1.4691407E-02;  4.0000000E+04;  0.0000000E+00;  4.0000629E+04;  2.0817919E-03;  0.0000000E+00; -1.4499550E-03;  7.4852341E+01;
  4.0156567E-01;  9.9999998E-03; -1.9994685E-02;4914;  4.6953531E-03;  0.0000000E+00;  4.3657583E-05;  9.9986230E+02;  1.0000000E-01; -1.1407085E+02;3;  3.3677939E-01;  0.0000000E+00;  2.6434299E-03;0;  5.9799070E-04;  3.9989766E+04;  0.0000000E+00;  6.6055050E-03;  4.0000000E+04;  0.0000000E+00;  4.0000566E+04;  2.0608339E-03;  0.0000000E+00; -1.4628432E-03;  8.9790939E+01;
  4.0155873E-01;  9.9999998E-03; -9.9972254E-03;4915;  4.7077471E-03;  0.0000000E+00;  2.2086386E-05;  9.9985986E+02;  1.0000000E-01; -1.1609548E+02;3;  3.3834881E-01;  0.0000000E+00;  1.4896988E-03;0;  5.7616341E-04;  3.9989191E+04;  0.0000000E+00;  1.6624320E-03;  4.0000000E+04;  0.0000000E+00;  4.0000730E+04;  2.0472086E-03;  0.0000000E+00; -1.4710452E-03;  1.0020054E+02;
  4.0155619E-01;  9.9999998E-03;  7.9587910E-09;4916;  4.7118217E-03;  0.0000000E+00;  3.4559779E-08;  9.9985596E+02;  1.0000000E-01; -1.1935465E+02;3;  3.3870688E-01;  0.0000000E+00;  1.1956015E-05;0;  5.6862610E-04;  3.9989094E+04;  0.0000000E+00; -1.8897199E-12;  4.0000000E+04;  0.0000000E+00;  4.0000633E+04;  2.0424889E-03;  0.0000000E+00; -1.4738628E-03;  1.0387187E+02;
  4.0155873E-01;  9.9999998E-03;  9.9972412E-03;4917;  4.7077462E-03;  0.0000000E+00; -2.2017444E-05;  9.9985980E+02;  1.0000000E-01; -1.1614487E+02;3;  3.3834609E-01;  0.0000000E+00; -1.4670825E-03;0;  5.7617226E-04;  3.9989188E+04;  0.0000000E+00;  1.6625967E-03;  4.0000000E+04;  0.0000000E+00;  4.0000730E+04;  2.0472249E-03;  0.0000000E+00; -1.4710526E-03;  1.0019840E+02;
  4.0156567E-01;  9.9999998E-03;  1.9994700E-02;4918;  4.6953512E-03;  0.0000000E+00; -4.3588898E-05;  9.9986230E+02;  1.0000000E-01; -1.1407085E+02;3;  3.3677027E-01;  0.0000000E+00; -2.6221136E-03;0;  5.9800339E-04;  3.9989781E+04;  0.0000000E+00;  6.6059348E-03;  4.0000000E+04;  0.0000000E+00;  4.0000566E+04;  2.0608606E-03;  0.0000000E+00; -1.4628572E-03;  8.9788109E+01;
  4.0157619E-01;  9.9999998E-03;  2.9992472E-02;4919;  4.6754857E-03;  0.0000000E+00; -6.4102933E-05;  9.9987396E+02;  1.0000000E-01; -1.0444149E+02;3;  3.3353430E-01;  0.0000000E+00; -4.1354680E-03;0;  6.3186057E-04;  3.9990500E+04;  0.0000000E+00;  1.4691730E-02;  4.0000000E+04;  0.0000000E+00;  4.0000629E+04;  2.0818356E-03;  0.0000000E+00; -1.4499751E-03;  7.4864777E+01;
  4.0158916E-01;  9.9999998E-03;  3.9990716E-02;4920;  4.6493914E-03;  0.0000000E+00; -8.3456012E-05;  9.9988531E+02;  1.0000000E-01; -9.5009659E+01;3;  3.2815689E-01;  0.0000000E+00; -6.5607890E-03;0;  6.7434262E-04;  3.9991586E+04;  0.0000000E+00;  2.5672056E-02;  4.0000000E+04;  0.0000000E+00;  4.0000188E+04;  2.1077900E-03;  0.0000000E+00; -1.4334474E-03;  6.1196766E+01;
  4.0160346E-01;  9.9999998E-03;  4.9989615E-02;4921;  4.6181390E-03;  0.0000000E+00; -1.0086950E-04;  9.9990204E+02;  1.0000000E-01; -8.1182892E+01;3;  3.1933323E-01;  0.0000000E+00; -8.2343007E-03;0;  7.2153064E-04;  3.9993355E+04;  0.0000000E+00;  3.9150342E-02;  4.0000000E+04;  0.0000000E+00;  4.0000266E+04;  2.1359855E-03;  0.0000000E+00; -1.4144549E-03;  6.0230770E+01;
  4.0161836E-01;  9.9999998E-03;  5.9989173E-02;4922;  4.5790290E-03;  0.0000000E+00; -1.1489035E-04;  9.9992291E+02;  1.0000000E-01; -6.3850044E+01;3;  3.0035871E-01;  0.0000000E+00; -8.1025166E-03;0;  7.6973322E-04;  3.9994789E+04;  0.0000000E+00;  5.4509390E-02;  4.0000000E+04;  0.0000000E+00;  3.9999812E+04;  2.1638651E-03;  0.0000000E+00; -1.3941319E-03;  7.8777222E+01;
  4.1165134E-01;  9.9999998E-03; -9.9992275E-02;4967;  4.4801515E-03;  0.0000000E+00;  1.6838057E-04;  1.0000567E+03;  1.0000000E-01;  4.7011017E+01;3;  2.4873312E-01;  0.0000000E+00; -1.7773820E-03;0;  1.1706835E-03;  4.0006219E+04;  0.0000000E+00;  1.2315717E-01;  4.0000000E+04;  0.0000000E+00;  3.9998477E+04;  2.5631734E-03;  0.0000000E+00; -1.3924899E-03;  2.7441559E+02;
  4.1165006E-01;  9.9999998E-03; -8.9990765E-02;4968;  4.4848584E-03;  0.0000000E+00;  1.5518477E-04;  1.0000139E+03;  1.0000000E-01;  1.1555229E+01;3;  2.5457194E-01;  0.0000000E+00; -1.0945047E-03;0;  1.1290611E-03;  4.0002953E+04;  0.0000000E+00;  1.0864429E-01;  4.0000000E+04;  0.0000000E+00;  3.9998742E+04;  2.5498618E-03;  0.0000000E+00; -1.4208007E-03;  2.4028465E+02;
  4.1164455E-01;  9.9999998E-03; -7.9989068E-02;4969;  4.5067566E-03;  0.0000000E+00;  1.4248502E-04;  9.9996533E+02;  1.0000000E-01; -2.8739927E+01;3;  2.6999384E-01;  0.0000000E+00;  3.4572495E-04;0;  1.0856971E-03;  3.9998969E+04;  0.0000000E+00;  9.1576956E-02;  4.0000000E+04;  0.0000000E+00;  3.9998918E+04;  2.5335145E-03;  0.0000000E+00; -1.4478174E-03;  1.9845181E+02;
  4.1163430E-01;  9.9999998E-03; -6.9987744E-02;4970;  4.5449557E-03;  0.0000000E+00;  1.3044666E-04;  9.9991571E+02;  1.0000000E-01; -6.9825188E+01;3;  2.9070616E-01;  0.0000000E+00;  2.7899749E-03;0;  1.0363742E-03;  3.9994785E+04;  0.0000000E+00;  7.3617265E-02;  4.0000000E+04;  0.0000000E+00;  3.9999508E+04;  2.5098012E-03;  0.0000000E+00; -1.4734269E-03;  1.5074643E+02;
  4.1162175E-01;  9.9999998E-03; -5.9987113E-02;4971;  4.5889523E-03;  0.0000000E+00;  1.1658466E-04;  9.9987128E+02;  1.0000000E-01; -1.0666365E+02;3;  3.1186411E-01;  0.0000000E+00;  4.3993928E-03;0;  9.8018220E-04;  3.9990789E+04;  0.0000000E+00;  5.6114022E-02;  4.0000000E+04;  0.0000000E+00;  3.9999957E+04;  2.4776948E-03;  0.0000000E+00; -1.4975126E-03;  1.0070115E+02;
  4.1160834E-01;  9.9999998E-03; -4.9987409E-02;4972;  4.6250904E-03;  0.0000000E+00;  9.9328550E-05;  9.9982330E+02;  1.0000000E-01; -1.4636623E+02;3;  3.2647759E-01;  0.0000000E+00;  3.3838216E-03;0;  9.1920304E-04;  3.9986996E+04;  0.0000000E+00;  4.0066551E-02;  4.0000000E+04;  0.0000000E+00;  4.0000316E+04;  2.4388963E-03;  0.0000000E+00; -1.5196933E-03;  5.8370602E+01;
  4.1159514E-01;  9.9999998E-03; -3.9988678E-02;4973;  4.6546189E-03;  0.0000000E+00;  8.0430269E-05;  9.9978259E+02;  1.0000000E-01; -1.8009367E+02;3;  3.3290833E-01;  0.0000000E+00;  1.8946547E-03;0;  8.5791177E-04;  3.9983312E+04;  0.0000000E+00;  2.6186215E-02;  4.0000000E+04;  0.0000000E+00;  4.0000344E+04;  2.3972203E-03;  0.0000000E+00; -1.5393086E-03;  5.4593437E+01;
  4.1158390E-01;  9.9999998E-03; -2.9990783E-02;4974;  4.6791569E-03;  0.0000000E+00;  6.0917162E-05;  9.9975299E+02;  1.0000000E-01; -2.0463618E+02;3;  3.3744231E-01;  0.0000000E+00;  9.9570479E-04;0;  8.0200820E-04;  3.9980570E+04;  0.0000000E+00;  1.4959572E-02;  4.0000000E+04;  0.0000000E+00;  4.0000789E+04;  2.3576068E-03;  0.0000000E+00; -1.5555986E-03;  8.6991417E+01;
  4.1157496E-01;  9.9999998E-03; -1.9993493E-02;4975;  4.6974705E-03;  0.0000000E+00;  4.0785631E-05;  9.9972504E+02;  1.0000000E-01; -2.2779602E+02;3;  3.3990249E-01;  0.0000000E+00;  5.5981544E-04;0;  7.5717154E-04;  3.9978473E+04;  0.0000000E+00;  6.7207981E-03;  4.0000000E+04;  0.0000000E+00;  4.0001035E+04;  2.3250079E-03;  0.0000000E+00; -1.5678364E-03;  1.2004156E+02;
  4.1156915E-01;  9.9999998E-03; -9.9966237E-03;4976;  4.7090133E-03;  0.0000000E+00;  2.0622098E-05;  9.9971411E+02;  1.0000000E-01; -2.3683281E+02;3;  3.4119481E-01;  0.0000000E+00;  4.0883975E-04;0;  7.2817074E-04;  3.9977293E+04;  0.0000000E+00;  1.6909277E-03;  4.0000000E+04;  0.0000000E+00;  4.0001168E+04;  2.3036082E-03;  0.0000000E+00; -1.5754375E-03;  1.4231026E+02;
  4.1156703E-01;  9.9999998E-03;  8.3948528E-09;4977;  4.7129616E-03;  0.0000000E+00;  3.5665202E-08;  9.9970850E+02;  1.0000000E-01; -2.4152403E+02;3;  3.4202436E-01;  0.0000000E+00;  1.0114991E-05;0;  7.1814307E-04;  3.9977027E+04;  0.0000000E+00; -4.2140280E-12;  4.0000000E+04;  0.0000000E+00;  4.0001262E+04;  2.2961553E-03;  0.0000000E+00; -1.5780122E-03;  1.5007542E+02;
  4.1156915E-01;  9.9999998E-03;  9.9966405E-03;4978;  4.7090123E-03;  0.0000000E+00; -2.0550999E-05;  9.9971405E+02;  1.0000000E-01; -2.3688219E+02;3;  3.4119165E-01;  0.0000000E+00; -3.8921760E-04;0;  7.2818075E-04;  3.9977289E+04;  0.0000000E+00;  1.6911987E-03;  4.0000000E+04;  0.0000000E+00;  4.0001168E+04;  2.3036243E-03;  0.0000000E+00; -1.5754435E-03;  1.4230479E+02;
  4.1157496E-01;  9.9999998E-03;  1.9993510E-02;4979;  4.6974686E-03;  0.0000000E+00; -4.0714789E-05;  9.9972510E+02;  1.0000000E-01; -2.2774664E+02;3;  3.3989018E-01;  0.0000000E+00; -5.4055121E-04;0;  7.5719191E-04;  3.9978469E+04;  0.0000000E+00;  6.7211287E-03;  4.0000000E+04;  0.0000000E+00;  4.0001031E+04;  2.3250442E-03;  0.0000000E+00; -1.5678523E-03;  1.2004575E+02;
  4.1158390E-01;  9.9999998E-03;  2.9990798E-02;4980;  4.6791541E-03;  0.0000000E+00; -6.0846745E-05;  9.9975293E+02;  1.0000000E-01; -2.0468556E+02;3;  3.3742791E-01;  0.0000000E+00; -9.7928860E-04;0;  8.0203835E-04;  3.9980574E+04;  0.0000000E+00;  1.4960536E-02;  4.0000000E+04;  0.0000000E+00;  4.0000789E+04;  2.3576603E-03;  0.0000000E+00; -1.5556220E-03;  8.6992279E+01;
  4.1159514E-01;  9.9999998E-03;  3.9988693E-02;4981;  4.6546143E-03;  0.0000000E+00; -8.0360463E-05;  9.9978259E+02;  1.0000000E-01; -1.8009367E+02;3;  3.3289924E-01;  0.0000000E+00; -1.8794094E-03;0;  8.5795496E-04;  3.9983312E+04;  0.0000000E+00;  2.6186477E-02;  4.0000000E+04;  0.0000000E+00;  4.0000344E+04;  2.3972916E-03;  0.0000000E+00; -1.5393366E-03;  5.4593033E+01;
  4.1160834E-01;  9.9999998E-03;  4.9987424E-02;4982;  4.6250839E-03;  0.0000000E+00; -9.9259363E-05;  9.9982330E+02;  1.0000000E-01; -1.4636623E+02;3;  3.2645893E-01;  0.0000000E+00; -3.3742145E-03;0;  9.1925380E-04;  3.9987004E+04;  0.0000000E+00;  4.0067609E-02;  4.0000000E+04;  0.0000000E+00;  4.0000316E+04;  2.4389813E-03;  0.0000000E+00; -1.5197275E-03;  5.8371880E+01;
  4.1162175E-01;  9.9999998E-03;  5.9987128E-02;4983;  4.5889430E-03;  0.0000000E+00; -1.1651609E-04;  9.9987128E+02;  1.0000000E-01; -1.0666365E+02;3;  3.1184679E-01;  0.0000000E+00; -4.3934914E-03;0;  9.8024518E-04;  3.9990789E+04;  0.0000000E+00;  5.6115054E-02;  4.0000000E+04;  0.0000000E+00;  3.9999957E+04;  2.4777958E-03;  0.0000000E+00; -1.4975506E-03;  1.0070935E+02;
  4.2163384E-01;  9.9999998E-03; -9.9996775E-02;5028;  4.4786553E-03;  0.0000000E+00;  1.8058860E-04;  1.0001025E+03;  1.0000000E-01;  8.4935867E+01;3;  2.5163206E-01;  0.0000000E+00; -4.2606303E-03;0;  1.5090412E-03;  4.0010082E+04;  0.0000000E+00;  1.2710845E-01;  4.0000000E+04;  0.0000000E+00;  3.9998059E+04;  2.9926510E-03;  0.0000000E+00; -1.4836098E-03;  3.2880414E+02;
  4.2163926E-01;  9.9999998E-03; -8.9994110E-02;5029;  4.4865157E-03;  0.0000000E+00;  1.6454908E-04;  1.0000438E+03;  1.0000000E-01;  3.6245888E+01;3;  2.6125830E-01;  0.0000000E+00; -4.3862518E-03;0;  1.4801092E-03;  4.0005645E+04;  0.0000000E+00;  1.1060302E-01;  4.0000000E+04;  0.0000000E+00;  3.9998203E+04;  2.9977616E-03;  0.0000000E+00; -1.5176524E-03;  3.0101810E+02;
  4.2163906E-01;  9.9999998E-03; -7.9991609E-02;5030;  4.5114248E-03;  0.0000000E+00;  1.4848632E-04;  9.9997797E+02;  1.0000000E-01; -1.8271088E+01;3;  2.7939674E-01;  0.0000000E+00; -3.3474490E-03;0;  1.4426813E-03;  4.0000234E+04;  0.0000000E+00;  9.2255056E-02;  4.0000000E+04;  0.0000000E+00;  3.9998414E+04;  2.9923292E-03;  0.0000000E+00; -1.5496479E-03;  2.5957382E+02;
  4.2163503E-01;  9.9999998E-03; -6.9989592E-02;5031;  4.5495490E-03;  0.0000000E+00;  1.3248120E-04;  9.9991187E+02;  1.0000000E-01; -7.3034973E+01;3;  2.9932159E-01;  0.0000000E+00; -1.5132932E-03;0;  1.3927902E-03;  3.9994535E+04;  0.0000000E+00;  7.3580660E-02;  4.0000000E+04;  0.0000000E+00;  3.9998652E+04;  2.9718266E-03;  0.0000000E+00; -1.5790364E-03;  2.0546761E+02;
  4.2162803E-01;  9.9999998E-03; -5.9988339E-02;5032;  4.5905863E-03;  0.0000000E+00;  1.1528285E-04;  9.9984491E+02;  1.0000000E-01; -1.2849019E+02;3;  3.1938517E-01;  0.0000000E+00; -9.6110575E-04;0;  1.3306481E-03;  3.9988625E+04;  0.0000000E+00;  5.5752989E-02;  4.0000000E+04;  0.0000000E+00;  3.9999297E+04;  2.9360596E-03;  0.0000000E+00; -1.6054115E-03;  1.4169308E+02;
  4.2161894E-01;  9.9999998E-03; -4.9988080E-02;5033;  4.6235109E-03;  0.0000000E+00;  9.6080468E-05;  9.9977466E+02;  1.0000000E-01; -1.8671077E+02;3;  3.3003679E-01;  0.0000000E+00; -1.2780585E-03;0;  1.2601116E-03;  3.9982887E+04;  0.0000000E+00;  3.9629597E-02;  4.0000000E+04;  0.0000000E+00;  3.9999438E+04;  2.8885065E-03;  0.0000000E+00; -1.6283949E-03;  7.5609512E+01;
  4.2160892E-01;  9.9999998E-03; -3.9988901E-02;5034;  4.6498766E-03;  0.0000000E+00;  7.6455275E-05;  9.9971930E+02;  1.0000000E-01; -2.3253664E+02;3;  3.3556506E-01;  0.0000000E+00; -1.8334186E-03;0;  1.1875908E-03;  3.9977836E+04;  0.0000000E+00;  2.5811773E-02;  4.0000000E+04;  0.0000000E+00;  3.9999695E+04;  2.8351969E-03;  0.0000000E+00; -1.6476061E-03;  4.1369915E+01;
  4.2159957E-01;  9.9999998E-03; -2.9990682E-02;5035;  4.6711108E-03;  0.0000000E+00;  5.6866746E-05;  9.9967169E+02;  1.0000000E-01; -2.7199231E+02;3;  3.3908501E-01;  0.0000000E+00; -1.9703244E-03;0;  1.1206539E-03;  3.9973824E+04;  0.0000000E+00;  1.4707565E-02;  4.0000000E+04;  0.0000000E+00;  4.0000109E+04;  2.7834028E-03;  0.0000000E+00; -1.6627489E-03;  8.3907021E+01;
  4.2159137E-01;  9.9999998E-03; -1.9993266E-02;5036;  4.6868906E-03;  0.0000000E+00;  3.7788286E-05;  9.9963287E+02;  1.0000000E-01; -3.0413956E+02;3;  3.4082985E-01;  0.0000000E+00; -1.2061005E-03;0;  1.0666330E-03;  3.9970418E+04;  0.0000000E+00;  6.5953210E-03;  4.0000000E+04;  0.0000000E+00;  4.0000551E+04;  2.7402670E-03;  0.0000000E+00; -1.6736339E-03;  1.3165305E+02;
  4.2158633E-01;  9.9999998E-03; -9.9964719E-03;5037;  4.6965121E-03;  0.0000000E+00;  1.8762636E-05;  9.9960999E+02;  1.0000000E-01; -3.2310196E+02;3;  3.4227121E-01;  0.0000000E+00; -1.0849405E-03;0;  1.0315983E-03;  3.9968559E+04;  0.0000000E+00;  1.6574956E-03;  4.0000000E+04;  0.0000000E+00;  4.0000777E+04;  2.7117853E-03;  0.0000000E+00; -1.6801869E-03;  1.6362759E+02;
  4.2158452E-01;  9.9999998E-03;  8.8405976E-09;5038;  4.6999673E-03;  0.0000000E+00;  3.6561072E-08;  9.9960242E+02;  1.0000000E-01; -3.2937341E+02;3;  3.4283748E-01;  0.0000000E+00;  7.9560841E-06;0;  1.0194667E-03;  3.9967898E+04;  0.0000000E+00; -7.2936631E-12;  4.0000000E+04;  0.0000000E+00;  4.0000824E+04;  2.7018408E-03;  0.0000000E+00; -1.6823742E-03;  1.7476100E+02;
  4.2158633E-01;  9.9999998E-03;  9.9964887E-03;5039;  4.6965107E-03;  0.0000000E+00; -1.8689623E-05;  9.9960999E+02;  1.0000000E-01; -3.2310196E+02;3;  3.4226596E-01;  0.0000000E+00;  1.1023044E-03;0;  1.0316129E-03;  3.9968566E+04;  0.0000000E+00;  1.6576673E-03;  4.0000000E+04;  0.0000000E+00;  4.0000781E+04;  2.7118046E-03;  0.0000000E+00; -1.6801917E-03;  1.6362776E+02;
  4.2159137E-01;  9.9999998E-03;  1.9993285E-02;5040;  4.6868888E-03;  0.0000000E+00; -3.7715650E-05;  9.9963281E+02;  1.0000000E-01; -3.0418893E+02;3;  3.4081739E-01;  0.0000000E+00;  1.2201768E-03;0;  1.0666564E-03;  3.9970414E+04;  0.0000000E+00;  6.5954817E-03;  4.0000000E+04;  0.0000000E+00;  4.0000551E+04;  2.7403072E-03;  0.0000000E+00; -1.6736508E-03;  1.3166040E+02;
  4.2159957E-01;  9.9999998E-03;  2.9990699E-02;5041;  4.6711070E-03;  0.0000000E+00; -5.6794506E-05;  9.9967169E+02;  1.0000000E-01; -2.7199231E+02;3;  3.3907095E-01;  0.0000000E+00;  1.9834491E-03;0;  1.1206892E-03;  3.9973824E+04;  0.0000000E+00;  1.4707727E-02;  4.0000000E+04;  0.0000000E+00;  4.0000109E+04;  2.7834626E-03;  0.0000000E+00; -1.6627734E-03;  8.3913246E+01;
  4.2160892E-01;  9.9999998E-03;  3.9988916E-02;5042;  4.6498715E-03;  0.0000000E+00; -7.6383592E-05;  9.9971930E+02;  1.0000000E-01; -2.3253664E+02;3;  3.3554217E-01;  0.0000000E+00;  1.8447050E-03;0;  1.1876444E-03;  3.9977836E+04;  0.0000000E+00;  2.5811309E-02;  4.0000000E+04;  0.0000000E+00;  3.9999699E+04;  2.8352803E-03;  0.0000000E+00; -1.6476358E-03;  4.1370903E+01;
  4.2161894E-01;  9.9999998E-03;  4.9988095E-02;5043;  4.6235044E-03;  0.0000000E+00; -9.6009397E-05;  9.9977472E+02;  1.0000000E-01; -1.8666139E+02;3;  3.3001634E-01;  0.0000000E+00;  1.2858041E-03;0;  1.2601782E-03;  3.9982891E+04;  0.0000000E+00;  3.9630733E-02;  4.0000000E+04;  0.0000000E+00;  3.9999438E+04;  2.8886104E-03;  0.0000000E+00; -1.6284322E-03;  7.5605225E+01;
  4.2162803E-01;  9.9999998E-03;  5.9988353E-02;5044;  4.5905760E-03;  0.0000000E+00; -1.1521241E-04;  9.9984491E+02;  1.0000000E-01; -1.2849019E+02;3;  3.1936434E-01;  0.0000000E+00;  9.6415309E-04;0;  1.3307318E-03;  3.9988617E+04;  0.0000000E+00;  5.5754084E-02;  4.0000000E+04;  0.0000000E+00;  3.9999301E+04;  2.9361830E-03;  0.0000000E+00; -1.6054512E-03;  1.4169011E+02;
  4.3162408E-01;  9.9999998E-03; -1.0000309E-01;5089;  4.4842721E-03;  0.0000000E+00;  1.8945095E-04;  1.0001532E+03;  1.0000000E-01;  1.2690999E+02;3;  2.5805974E-01;  0.0000000E+00; -7.4009746E-03;0;  2.0075471E-03;  4.0014715E+04;  0.0000000E+00;  1.2209384E-01;  4.0000000E+04;  0.0000000E+00;  3.9997469E+04;  3.5886930E-03;  0.0000000E+00; -1.5811459E-03;  3.7551498E+02;
  4.3163419E-01;  9.9999998E-03; -8.9999668E-02;5090;  4.4958298E-03;  0.0000000E+00;  1.7070981E-04;  1.0000850E+03;  1.0000000E-01;  7.0417763E+01;3;  2.7216405E-01;  0.0000000E+00; -7.5513651E-03;0;  1.9990022E-03;  4.0009234E+04;  0.0000000E+00;  1.0607275E-01;  4.0000000E+04;  0.0000000E+00;  3.9997496E+04;  3.6193710E-03;  0.0000000E+00; -1.6203688E-03;  3.5529742E+02;
  4.3164089E-01;  9.9999998E-03; -7.9996422E-02;5091;  4.5212777E-03;  0.0000000E+00;  1.5152305E-04;  1.0000071E+03;  1.0000000E-01;  5.8269958E+00;3;  2.8904855E-01;  0.0000000E+00; -6.9497162E-03;0;  1.9755815E-03;  4.0002977E+04;  0.0000000E+00;  8.8359348E-02;  4.0000000E+04;  0.0000000E+00;  3.9997562E+04;  3.6322623E-03;  0.0000000E+00; -1.6566808E-03;  3.1623181E+02;
  4.3164358E-01;  9.9999998E-03; -6.9993734E-02;5092;  4.5551788E-03;  0.0000000E+00;  1.3220719E-04;  9.9992059E+02;  1.0000000E-01; -6.5775917E+01;3;  3.0848628E-01;  0.0000000E+00; -6.4920648E-03;0;  1.9331760E-03;  3.9995793E+04;  0.0000000E+00;  7.0376337E-02;  4.0000000E+04;  0.0000000E+00;  3.9997898E+04;  3.6222716E-03;  0.0000000E+00; -1.6890956E-03;  2.5903824E+02;
  4.3164286E-01;  9.9999998E-03; -5.9991933E-02;5093;  4.5896284E-03;  0.0000000E+00;  1.1247368E-04;  9.9983789E+02;  1.0000000E-01; -1.3431718E+02;3;  3.2297671E-01;  0.0000000E+00; -5.8313161E-03;0;  1.8729166E-03;  3.9988617E+04;  0.0000000E+00;  5.3241871E-02;  4.0000000E+04;  0.0000000E+00;  3.9998020E+04;  3.5899139E-03;  0.0000000E+00; -1.7169974E-03;  1.8684688E+02;
  4.3163931E-01;  9.9999998E-03; -4.9991213E-02;5094;  4.6181488E-03;  0.0000000E+00;  9.2074872E-05;  9.9975824E+02;  1.0000000E-01; -2.0029063E+02;3;  3.3212441E-01;  0.0000000E+00; -5.8049089E-03;0;  1.8001241E-03;  3.9981844E+04;  0.0000000E+00;  3.7777137E-02;  4.0000000E+04;  0.0000000E+00;  3.9998516E+04;  3.5401927E-03;  0.0000000E+00; -1.7400687E-03;  1.0648841E+02;
  4.3163323E-01;  9.9999998E-03; -3.9991472E-02;5095;  4.6399748E-03;  0.0000000E+00;  7.1949471E-05;  9.9968634E+02;  1.0000000E-01; -2.5984451E+02;3;  3.3684960E-01;  0.0000000E+00; -5.2852500E-03;0;  1.7228071E-03;  3.9975688E+04;  0.0000000E+00;  2.4556855E-02;  4.0000000E+04;  0.0000000E+00;  3.9999289E+04;  3.4810605E-03;  0.0000000E+00; -1.7582534E-03;  3.6587097E+01;
  4.3162644E-01;  9.9999998E-03; -2.9992724E-02;5096;  4.6573128E-03;  0.0000000E+00;  5.2821320E-05;  9.9962665E+02;  1.0000000E-01; -3.0932458E+02;3;  3.3967677E-01;  0.0000000E+00; -4.4337092E-03;0;  1.6501483E-03;  3.9970496E+04;  0.0000000E+00;  1.3966353E-02;  4.0000000E+04;  0.0000000E+00;  3.9999762E+04;  3.4219038E-03;  0.0000000E+00; -1.7717555E-03;  6.8062973E+01;
  4.3162036E-01;  9.9999998E-03; -1.9994721E-02;5097;  4.6700230E-03;  0.0000000E+00;  3.4694247E-05;  9.9958618E+02;  1.0000000E-01; -3.4285449E+02;3;  3.4080094E-01;  0.0000000E+00; -3.0337798E-03;0;  1.5909277E-03;  3.9966559E+04;  0.0000000E+00;  6.2529468E-03;  4.0000000E+04;  0.0000000E+00;  4.0000273E+04;  3.3718823E-03;  0.0000000E+00; -1.7809545E-03;  1.2587154E+02;
  4.3161607E-01;  9.9999998E-03; -9.9971956E-03;5098;  4.6778335E-03;  0.0000000E+00;  1.7021848E-05;  9.9955634E+02;  1.0000000E-01; -3.6754517E+02;3;  3.4244099E-01;  0.0000000E+00; -1.7837599E-03;0;  1.5522846E-03;  3.9964148E+04;  0.0000000E+00;  1.5698496E-03;  4.0000000E+04;  0.0000000E+00;  4.0000547E+04;  3.3385444E-03;  0.0000000E+00; -1.7862598E-03;  1.6473015E+02;
  4.3161479E-01;  9.9999998E-03;  9.2794386E-09;5099;  4.6806876E-03;  0.0000000E+00;  3.7417973E-08;  9.9954523E+02;  1.0000000E-01; -3.7677948E+02;3;  3.4237528E-01;  0.0000000E+00;  6.0848461E-06;0;  1.5388877E-03;  3.9963246E+04;  0.0000000E+00; -6.4828824E-12;  4.0000000E+04;  0.0000000E+00;  4.0000766E+04;  3.3268819E-03;  0.0000000E+00; -1.7879942E-03;  1.7820747E+02;
  4.3161607E-01;  9.9999998E-03;  9.9972133E-03;5100;  4.6778326E-03;  0.0000000E+00; -1.6947093E-05;  9.9955640E+02;  1.0000000E-01; -3.6749579E+02;3;  3.4243530E-01;  0.0000000E+00;  1.7959140E-03;0;  1.5523009E-03;  3.9964148E+04;  0.0000000E+00;  1.5698696E-03;  4.0000000E+04;  0.0000000E+00;  4.0000547E+04;  3.3385702E-03;  0.0000000E+00; -1.7862694E-03;  1.6473729E+02;
  4.3162036E-01;  9.9999998E-03;  1.9994739E-02;5101;  4.6700207E-03;  0.0000000E+00; -3.4619945E-05;  9.9958606E+02;  1.0000000E-01; -3.4295328E+02;3;  3.4078673E-01;  0.0000000E+00;  3.0448497E-03;0;  1.5909591E-03;  3.9966562E+04;  0.0000000E+00;  6.2530232E-03;  4.0000000E+04;  0.0000000E+00;  4.0000273E+04;  3.3719286E-03;  0.0000000E+00; -1.7809694E-03;  1.2587683E+02;
  4.3162644E-01;  9.9999998E-03;  2.9992741E-02;5102;  4.6573086E-03;  0.0000000E+00; -5.2747255E-05;  9.9962665E+02;  1.0000000E-01; -3.0932458E+02;3;  3.3966926E-01;  0.0000000E+00;  4.4443803E-03;0;  1.6502010E-03;  3.9970496E+04;  0.0000000E+00;  1.3966907E-02;  4.0000000E+04;  0.0000000E+00;  3.9999762E+04;  3.4219802E-03;  0.0000000E+00; -1.7717791E-03;  6.8062073E+01;
  4.3163323E-01;  9.9999998E-03;  3.9991491E-02;5103;  4.6399692E-03;  0.0000000E+00; -7.1875926E-05;  9.9968616E+02;  1.0000000E-01; -2.5999265E+02;3;  3.3683205E-01;  0.0000000E+00;  5.2959826E-03;0;  1.7228759E-03;  3.9975691E+04;  0.0000000E+00;  2.4556741E-02;  4.0000000E+04;  0.0000000E+00;  3.9999289E+04;  3.4811597E-03;  0.0000000E+00; -1.7582838E-03;  3.6584667E+01;
  4.3163928E-01;  9.9999998E-03;  4.9991231E-02;5104;  4.6181413E-03;  0.0000000E+00; -9.2002141E-05;  9.9975818E+02;  1.0000000E-01; -2.0034001E+02;3;  3.3210099E-01;  0.0000000E+00;  5.8107707E-03;0;  1.8002103E-03;  3.9981848E+04;  0.0000000E+00;  3.7777595E-02;  4.0000000E+04;  0.0000000E+00;  3.9998523E+04;  3.5403159E-03;  0.0000000E+00; -1.7401056E-03;  1.0649220E+02;
  4.3164286E-01;  9.9999998E-03;  5.9991952E-02;5105;  4.5896186E-03;  0.0000000E+00; -1.1240150E-04;  9.9983789E+02;  1.0000000E-01; -1.3431718E+02;3;  3.2295164E-01;  0.0000000E+00;  5.8356761E-03;0;  1.8730214E-03;  3.9988617E+04;  0.0000000E+00;  5.3240765E-02;  4.0000000E+04;  0.0000000E+00;  3.9998020E+04;  3.5900611E-03;  0.0000000E+00; -1.7170397E-03;  1.8685313E+02;
  4.4161782E-01;  9.9999998E-03; -1.0000996E-01;5150;  4.5017013E-03;  0.0000000E+00;  1.9441896E-04;  1.0001987E+03;  1.0000000E-01;  1.6463731E+02;3;  2.7090535E-01;  0.0000000E+00; -1.1672118E-02;0;  2.6868018E-03;  4.0018547E+04;  0.0000000E+00;  1.0796112E-01;  4.0000000E+04;  0.0000000E+00;  3.9997148E+04;  4.3711574E-03;  0.0000000E+00; -1.6843554E-03;  4.0532935E+02;
  4.4163132E-01;  9.9999998E-03; -9.0005800E-02;5151;  4.5167613E-03;  0.0000000E+00;  1.7339460E-04;  1.0001242E+03;  1.0000000E-01;  1.0291067E+02;3;  2.8588885E-01;  0.0000000E+00; -1.1722309E-02;0;  2.7087349E-03;  4.0012746E+04;  0.0000000E+00;  9.4721317E-02;  4.0000000E+04;  0.0000000E+00;  3.9996832E+04;  4.4368510E-03;  0.0000000E+00; -1.7281162E-03;  3.9143799E+02;
  4.4164172E-01;  9.9999998E-03; -8.0001749E-02;5152;  4.5398069E-03;  0.0000000E+00;  1.5195877E-04;  1.0000430E+03;  1.0000000E-01;  3.5653313E+01;3;  3.0153677E-01;  0.0000000E+00; -1.1933501E-02;0;  2.7099520E-03;  4.0006031E+04;  0.0000000E+00;  7.9560183E-02;  4.0000000E+04;  0.0000000E+00;  3.9997051E+04;  4.4780397E-03;  0.0000000E+00; -1.7680877E-03;  3.5517117E+02;
  4.4164869E-01;  9.9999998E-03; -6.9998346E-02;5153;  4.5654373E-03;  0.0000000E+00;  1.3035379E-04;  9.9995422E+02;  1.0000000E-01; -3.7924854E+01;3;  3.1675449E-01;  0.0000000E+00; -1.1577509E-02;0;  2.6859648E-03;  3.9998645E+04;  0.0000000E+00;  6.3794278E-02;  4.0000000E+04;  0.0000000E+00;  3.9997488E+04;  4.4889292E-03;  0.0000000E+00; -1.8029644E-03;  2.9739478E+02;
  4.4165280E-01;  9.9999998E-03; -5.9995972E-02;5154;  4.5899246E-03;  0.0000000E+00;  1.0901016E-04;  9.9986298E+02;  1.0000000E-01; -1.1352766E+02;3;  3.2593605E-01;  0.0000000E+00; -1.0704366E-02;0;  2.6383493E-03;  3.9990816E+04;  0.0000000E+00;  4.8508361E-02;  4.0000000E+04;  0.0000000E+00;  3.9997961E+04;  4.4702925E-03;  0.0000000E+00; -1.8319433E-03;  2.2191920E+02;
  4.4165426E-01;  9.9999998E-03; -4.9994737E-02;5155;  4.6117930E-03;  0.0000000E+00;  8.7814296E-05;  9.9977625E+02;  1.0000000E-01; -1.8537747E+02;3;  3.3302361E-01;  0.0000000E+00; -9.8596979E-03;0;  2.5733532E-03;  3.9983520E+04;  0.0000000E+00;  3.4540482E-02;  4.0000000E+04;  0.0000000E+00;  3.9998695E+04;  4.4281585E-03;  0.0000000E+00; -1.8548053E-03;  1.3558330E+02;
  4.4165355E-01;  9.9999998E-03; -3.9994556E-02;5156;  4.6286685E-03;  0.0000000E+00;  6.7664390E-05;  9.9970227E+02;  1.0000000E-01; -2.4665968E+02;3;  3.3712658E-01;  0.0000000E+00; -8.7399893E-03;0;  2.5002032E-03;  3.9976941E+04;  0.0000000E+00;  2.2502270E-02;  4.0000000E+04;  0.0000000E+00;  3.9999512E+04;  4.3720216E-03;  0.0000000E+00; -1.8718184E-03;  5.0103729E+01;
  4.4165054E-01;  9.9999998E-03; -2.9995251E-02;5157;  4.6419553E-03;  0.0000000E+00;  4.9093338E-05;  9.9964050E+02;  1.0000000E-01; -2.9781873E+02;3;  3.3924818E-01;  0.0000000E+00; -6.9193533E-03;0;  2.4291743E-03;  3.9971305E+04;  0.0000000E+00;  1.2812244E-02;  4.0000000E+04;  0.0000000E+00;  4.0000062E+04;  4.3128161E-03;  0.0000000E+00; -1.8836418E-03;  4.6637737E+01;
  4.4164732E-01;  9.9999998E-03; -1.9996570E-02;5158;  4.6515618E-03;  0.0000000E+00;  3.1946838E-05;  9.9959119E+02;  1.0000000E-01; -3.3870648E+02;3;  3.3990118E-01;  0.0000000E+00; -4.7116284E-03;0;  2.3702038E-03;  3.9967262E+04;  0.0000000E+00;  5.7389871E-03;  4.0000000E+04;  0.0000000E+00;  4.0000551E+04;  4.2613875E-03;  0.0000000E+00; -1.8911838E-03;  1.0877172E+02;
  4.4164503E-01;  9.9999998E-03; -9.9982107E-03;5159;  4.6576154E-03;  0.0000000E+00;  1.5671199E-05;  9.9956543E+02;  1.0000000E-01; -3.6003922E+02;3;  3.4189817E-01;  0.0000000E+00; -2.9484886E-03;0;  2.3313304E-03;  3.9964609E+04;  0.0000000E+00;  1.4410234E-03;  4.0000000E+04;  0.0000000E+00;  4.0000953E+04;  4.2266264E-03;  0.0000000E+00; -1.8952960E-03;  1.5098207E+02;
  4.4164360E-01;  9.9999998E-03;  9.7104316E-09;5160;  4.6597258E-03;  0.0000000E+00;  3.8094562E-08;  9.9955554E+02;  1.0000000E-01; -3.6823651E+02;3;  3.4165168E-01;  0.0000000E+00;  4.2513134E-06;0;  2.3177308E-03;  3.9963723E+04;  0.0000000E+00; -7.6991486E-12;  4.0000000E+04;  0.0000000E+00;  4.0001148E+04;  4.2143203E-03;  0.0000000E+00; -1.8965896E-03;  1.6569017E+02;
  4.4164503E-01;  9.9999998E-03;  9.9982293E-03;5161;  4.6576140E-03;  0.0000000E+00; -1.5595111E-05;  9.9956543E+02;  1.0000000E-01; -3.6003922E+02;3;  3.4188545E-01;  0.0000000E+00;  2.9556951E-03;0;  2.3313519E-03;  3.9964613E+04;  0.0000000E+00;  1.4410216E-03;  4.0000000E+04;  0.0000000E+00;  4.0000953E+04;  4.2266580E-03;  0.0000000E+00; -1.8953060E-03;  1.5097783E+02;
  4.4164732E-01;  9.9999998E-03;  1.9996589E-02;5162;  4.6515591E-03;  0.0000000E+00; -3.1870910E-05;  9.9959119E+02;  1.0000000E-01; -3.3870648E+02;3;  3.3989799E-01;  0.0000000E+00;  4.7195386E-03;0;  2.3702446E-03;  3.9967258E+04;  0.0000000E+00;  5.7387548E-03;  4.0000000E+04;  0.0000000E+00;  4.0000551E+04;  4.2614457E-03;  0.0000000E+00; -1.8912011E-03;  1.0877101E+02;
  4.4165054E-01;  9.9999998E-03;  2.9995270E-02;5163;  4.6419506E-03;  0.0000000E+00; -4.9017599E-05;  9.9964050E+02;  1.0000000E-01; -2.9781873E+02;3;  3.3922982E-01;  0.0000000E+00;  6.9263848E-03;0;  2.4292339E-03;  3.9971305E+04;  0.0000000E+00;  1.2811956E-02;  4.0000000E+04;  0.0000000E+00;  4.0000059E+04;  4.3129036E-03;  0.0000000E+00; -1.8836696E-03;  4.6651314E+01;
  4.4165355E-01;  9.9999998E-03;  3.9994575E-02;5164;  4.6286625E-03;  0.0000000E+00; -6.7589106E-05;  9.9970221E+02;  1.0000000E-01; -2.4670908E+02;3;  3.3710966E-01;  0.0000000E+00;  8.7466063E-03;0;  2.5002868E-03;  3.9976941E+04;  0.0000000E+00;  2.2501376E-02;  4.0000000E+04;  0.0000000E+00;  3.9999512E+04;  4.3721376E-03;  0.0000000E+00; -1.8718507E-03;  5.0099285E+01;
  4.4165426E-01;  9.9999998E-03;  4.9994756E-02;5165;  4.6117851E-03;  0.0000000E+00; -8.7739551E-05;  9.9977631E+02;  1.0000000E-01; -1.8532809E+02;3;  3.3300126E-01;  0.0000000E+00;  9.8634586E-03;0;  2.5734557E-03;  3.9983520E+04;  0.0000000E+00;  3.4540374E-02;  4.0000000E+04;  0.0000000E+00;  3.9998695E+04;  4.4283015E-03;  0.0000000E+00; -1.8548458E-03;  1.3557840E+02;
  4.4165280E-01;  9.9999998E-03;  5.9995990E-02;5166;  4.5899143E-03;  0.0000000E+00; -1.0893596E-04;  9.9986292E+02;  1.0000000E-01; -1.1357703E+02;3;  3.2591504E-01;  0.0000000E+00;  1.0705361E-02;0;  2.6384732E-03;  3.9990816E+04;  0.0000000E+00;  4.8508402E-02;  4.0000000E+04;  0.0000000E+00;  3.9997957E+04;  4.4704615E-03;  0.0000000E+00; -1.8319883E-03;  2.2192957E+02;
  4.5160031E-01;  9.9999998E-03; -1.0001441E-01;5211;  4.5404034E-03;  0.0000000E+00;  1.9563845E-04;  1.0002306E+03;  1.0000000E-01;  1.9100694E+02;3;  2.9226094E-01;  0.0000000E+00; -1.5938554E-02;0;  3.5476158E-03;  4.0020965E+04;  0.0000000E+00;  8.5256577E-02;  4.0000000E+04;  0.0000000E+00;  3.9997070E+04;  5.3402372E-03;  0.0000000E+00; -1.7926212E-03;  4.0989691E+02;
  4.5161575E-01;  9.9999998E-03; -9.0010062E-02;5212;  4.5539606E-03;  0.0000000E+00;  1.7332193E-04;  1.0001581E+03;  1.0000000E-01;  1.3095926E+02;3;  3.0468303E-01;  0.0000000E+00; -1.5816551E-02;0;  3.6107111E-03;  4.0015527E+04;  0.0000000E+00;  7.6591484E-02;  4.0000000E+04;  0.0000000E+00;  3.9997094E+04;  5.4510301E-03;  0.0000000E+00; -1.8403191E-03;  3.9891318E+02;
  4.5162934E-01;  9.9999998E-03; -8.0005698E-02;5213;  4.5679486E-03;  0.0000000E+00;  1.5070627E-04;  1.0000765E+03;  1.0000000E-01;  6.3405613E+01;3;  3.1507012E-01;  0.0000000E+00; -1.6592808E-02;0;  3.6483463E-03;  4.0008648E+04;  0.0000000E+00;  6.5660819E-02;  4.0000000E+04;  0.0000000E+00;  3.9997129E+04;  5.5318344E-03;  0.0000000E+00; -1.8834883E-03;  3.6480780E+02;
  4.5164099E-01;  9.9999998E-03; -7.0001923E-02;5214;  4.5820950E-03;  0.0000000E+00;  1.2801214E-04;  9.9999170E+02;  1.0000000E-01; -6.8640032E+00;3;  3.2368106E-01;  0.0000000E+00; -1.5335608E-02;0;  3.6551328E-03;  4.0001609E+04;  0.0000000E+00;  5.3565476E-02;  4.0000000E+04;  0.0000000E+00;  3.9997770E+04;  5.5756769E-03;  0.0000000E+00; -1.9205440E-03;  3.0876163E+02;
  4.5165041E-01;  9.9999998E-03; -5.9999108E-02;5215;  4.5948983E-03;  0.0000000E+00;  1.0555350E-04;  9.9990564E+02;  1.0000000E-01; -7.8170631E+01;3;  3.2966816E-01;  0.0000000E+00; -1.4612813E-02;0;  3.6323392E-03;  3.9994195E+04;  0.0000000E+00;  4.1307252E-02;  4.0000000E+04;  0.0000000E+00;  3.9998332E+04;  5.5828877E-03;  0.0000000E+00; -1.9505485E-03;  2.3472888E+02;
  4.5165741E-01;  9.9999998E-03; -4.9997512E-02;5216;  4.6074218E-03;  0.0000000E+00;  8.3958977E-05;  9.9982477E+02;  1.0000000E-01; -1.4518108E+02;3;  3.3388585E-01;  0.0000000E+00; -1.2873837E-02;0;  3.5865009E-03;  3.9987203E+04;  0.0000000E+00;  2.9737873E-02;  4.0000000E+04;  0.0000000E+00;  3.9999008E+04;  5.5598347E-03;  0.0000000E+00; -1.9733338E-03;  1.4952350E+02;
  4.5166224E-01;  9.9999998E-03; -3.9996989E-02;5217;  4.6186852E-03;  0.0000000E+00;  6.3979904E-05;  9.9975439E+02;  1.0000000E-01; -2.0350041E+02;3;  3.3587006E-01;  0.0000000E+00; -1.1359921E-02;0;  3.5274867E-03;  3.9980992E+04;  0.0000000E+00;  1.9532498E-02;  4.0000000E+04;  0.0000000E+00;  3.9999707E+04;  5.5169379E-03;  0.0000000E+00; -1.9894512E-03;  6.2970062E+01;
  4.5166558E-01;  9.9999998E-03; -2.9997282E-02;5218;  4.6276487E-03;  0.0000000E+00;  4.6061290E-05;  9.9969855E+02;  1.0000000E-01; -2.4977071E+02;3;  3.3784997E-01;  0.0000000E+00; -8.9032147E-03;0;  3.4664555E-03;  3.9975812E+04;  0.0000000E+00;  1.1184507E-02;  4.0000000E+04;  0.0000000E+00;  4.0000102E+04;  5.4664323E-03;  0.0000000E+00; -1.9999768E-03;  2.8753441E+01;
  4.5166734E-01;  9.9999998E-03; -1.9998109E-02;5219;  4.6343575E-03;  0.0000000E+00;  2.9773359E-05;  9.9965118E+02;  1.0000000E-01; -2.8897949E+02;3;  3.3930057E-01;  0.0000000E+00; -5.7499893E-03;0;  3.4139790E-03;  3.9971719E+04;  0.0000000E+00;  5.0276145E-03;  4.0000000E+04;  0.0000000E+00;  4.0000633E+04;  5.4201940E-03;  0.0000000E+00; -2.0062150E-03;  8.9072861E+01;
  4.5166796E-01;  9.9999998E-03; -9.9990452E-03;5220;  4.6381257E-03;  0.0000000E+00;  1.4721594E-05;  9.9962262E+02;  1.0000000E-01; -3.1263315E+02;3;  3.4067106E-01;  0.0000000E+00; -3.3392846E-03;0;  3.3786865E-03;  3.9969312E+04;  0.0000000E+00;  1.2647196E-03;  4.0000000E+04;  0.0000000E+00;  4.0000941E+04;  5.3880718E-03;  0.0000000E+00; -2.0093853E-03;  1.3086307E+02;
  4.5166802E-01;  9.9999998E-03;  1.0161336E-08;5221;  4.6394658E-03;  0.0000000E+00;  3.8805481E-08;  9.9961444E+02;  1.0000000E-01; -3.1944775E+02;3;  3.4090185E-01;  0.0000000E+00;  3.2573275E-06;0;  3.3662703E-03;  3.9968430E+04;  0.0000000E+00; -9.0968968E-12;  4.0000000E+04;  0.0000000E+00;  4.0001164E+04;  5.3766114E-03;  0.0000000E+00; -2.0103410E-03;  1.4538965E+02;
  4.5166796E-01;  9.9999998E-03;  9.9990657E-03;5222;  4.6381243E-03;  0.0000000E+00; -1.4644185E-05;  9.9962256E+02;  1.0000000E-01; -3.1268253E+02;3;  3.4066367E-01;  0.0000000E+00;  3.3423931E-03;0;  3.3787161E-03;  3.9969312E+04;  0.0000000E+00;  1.2646077E-03;  4.0000000E+04;  0.0000000E+00;  4.0000941E+04;  5.3881095E-03;  0.0000000E+00; -2.0093934E-03;  1.3086121E+02;
  4.5166734E-01;  9.9999998E-03;  1.9998129E-02;5223;  4.6343547E-03;  0.0000000E+00; -2.9696172E-05;  9.9965118E+02;  1.0000000E-01; -2.8897949E+02;3;  3.3929628E-01;  0.0000000E+00;  5.7538790E-03;0;  3.4140137E-03;  3.9971719E+04;  0.0000000E+00;  5.0273985E-03;  4.0000000E+04;  0.0000000E+00;  4.0000637E+04;  5.4202471E-03;  0.0000000E+00; -2.0062334E-03;  8.9073090E+01;
  4.5166555E-01;  9.9999998E-03;  2.9997300E-02;5224;  4.6276446E-03;  0.0000000E+00; -4.5984463E-05;  9.9969843E+02;  1.0000000E-01; -2.4986948E+02;3;  3.3783782E-01;  0.0000000E+00;  8.9043975E-03;0;  3.4665286E-03;  3.9975820E+04;  0.0000000E+00;  1.1184028E-02;  4.0000000E+04;  0.0000000E+00;  4.0000102E+04;  5.4665329E-03;  0.0000000E+00; -2.0000043E-03;  2.8761717E+01;
  4.5166224E-01;  9.9999998E-03;  3.9997008E-02;5225;  4.6186787E-03;  0.0000000E+00; -6.3903448E-05;  9.9975439E+02;  1.0000000E-01; -2.0350041E+02;3;  3.3585793E-01;  0.0000000E+00;  1.1361437E-02;0;  3.5275805E-03;  3.9980992E+04;  0.0000000E+00;  1.9533023E-02;  4.0000000E+04;  0.0000000E+00;  3.9999703E+04;  5.5170660E-03;  0.0000000E+00; -1.9894855E-03;  6.2974358E+01;
  4.5165741E-01;  9.9999998E-03;  4.9997531E-02;5226;  4.6074139E-03;  0.0000000E+00; -8.3883009E-05;  9.9982483E+02;  1.0000000E-01; -1.4513170E+02;3;  3.3386198E-01;  0.0000000E+00;  1.2873369E-02;0;  3.5866175E-03;  3.9987207E+04;  0.0000000E+00;  2.9737640E-02;  4.0000000E+04;  0.0000000E+00;  3.9999008E+04;  5.5599939E-03;  0.0000000E+00; -1.9733764E-03;  1.4951453E+02;
  4.5165038E-01;  9.9999998E-03;  5.9999127E-02;5227;  4.5948890E-03;  0.0000000E+00; -1.0547783E-04;  9.9990570E+02;  1.0000000E-01; -7.8121246E+01;3;  3.2964382E-01;  0.0000000E+00;  1.4609906E-02;0;  3.6324880E-03;  3.9994195E+04;  0.0000000E+00;  4.1307881E-02;  4.0000000E+04;  0.0000000E+00;  3.9998332E+04;  5.5830809E-03;  0.0000000E+00; -1.9505930E-03;  2.3474445E+02;
  4.6156657E-01;  9.9999998E-03; -1.0001580E-01;5272;  4.6048886E-03;  0.0000000E+00;  1.9520037E-04;  1.0002379E+03;  1.0000000E-01;  1.9703146E+02;3;  3.2191056E-01;  0.0000000E+00; -2.0267678E-02;0;  4.5710457E-03;  4.0021645E+04;  0.0000000E+00;  5.5087529E-02;  4.0000000E+04;  0.0000000E+00;  3.9997254E+04;  6.4766686E-03;  0.0000000E+00; -1.9056227E-03;  3.8533951E+02;
  4.6158454E-01;  9.9999998E-03; -9.0011939E-02;5273;  4.6079704E-03;  0.0000000E+00;  1.7317331E-04;  1.0001713E+03;  1.0000000E-01;  1.4192191E+02;3;  3.2798681E-01;  0.0000000E+00; -1.9600976E-02;0;  4.6846354E-03;  4.0016516E+04;  0.0000000E+00;  5.1971223E-02;  4.0000000E+04;  0.0000000E+00;  3.9997371E+04;  6.6414489E-03;  0.0000000E+00; -1.9568137E-03;  3.7224829E+02;
  4.6160206E-01;  9.9999998E-03; -8.0008052E-02;5274;  4.6079694E-03;  0.0000000E+00;  1.5019481E-04;  1.0001042E+03;  1.0000000E-01;  8.6318550E+01;3;  3.3009505E-01;  0.0000000E+00; -1.9337768E-02;0;  4.7693839E-03;  4.0010699E+04;  0.0000000E+00;  4.6415567E-02;  4.0000000E+04;  0.0000000E+00;  3.9997664E+04;  6.7723100E-03;  0.0000000E+00; -2.0029258E-03;  3.3848578E+02;
  4.6161824E-01;  9.9999998E-03; -7.0004620E-02;5275;  4.6076281E-03;  0.0000000E+00;  1.2680900E-04;  1.0000237E+03;  1.0000000E-01;  1.9653765E+01;3;  3.3318618E-01;  0.0000000E+00; -1.8179718E-02;0;  4.8182830E-03;  4.0003957E+04;  0.0000000E+00;  3.9165422E-02;  4.0000000E+04;  0.0000000E+00;  3.9997703E+04;  6.8604182E-03;  0.0000000E+00; -2.0421350E-03;  2.8550327E+02;
  4.6163282E-01;  9.9999998E-03; -6.0001984E-02;5276;  4.6070688E-03;  0.0000000E+00;  1.0359864E-04;  9.9995190E+02;  1.0000000E-01; -3.9850723E+01;3;  3.3300236E-01;  0.0000000E+00; -1.6397888E-02;0;  4.8316410E-03;  3.9997922E+04;  0.0000000E+00;  3.1033399E-02;  4.0000000E+04;  0.0000000E+00;  3.9998168E+04;  6.9050333E-03;  0.0000000E+00; -2.0733923E-03;  2.1704050E+02;
  4.6164516E-01;  9.9999998E-03; -5.0000295E-02;5277;  4.6082772E-03;  0.0000000E+00;  8.1533697E-05;  9.9988068E+02;  1.0000000E-01; -9.8861404E+01;3;  3.3368501E-01;  0.0000000E+00; -1.5376126E-02;0;  4.8155803E-03;  3.9991727E+04;  0.0000000E+00;  2.2816744E-02;  4.0000000E+04;  0.0000000E+00;  3.9998566E+04;  6.9121392E-03;  0.0000000E+00; -2.0965589E-03;  1.3915826E+02;
  4.6165556E-01;  9.9999998E-03; -3.9999466E-02;5278;  4.6123075E-03;  0.0000000E+00;  6.1659804E-05;  9.9982520E+02;  1.0000000E-01; -1.4483540E+02;3;  3.3518040E-01;  0.0000000E+00; -1.3188790E-02;0;  4.7800574E-03;  3.9986395E+04;  0.0000000E+00;  1.5220128E-02;  4.0000000E+04;  0.0000000E+00;  3.9999164E+04;  6.8924404E-03;  0.0000000E+00; -2.1123830E-03;  6.0134159E+01;
  4.6166340E-01;  9.9999998E-03; -2.9999327E-02;5279;  4.6166750E-03;  0.0000000E+00;  4.4072975E-05;  9.9977271E+02;  1.0000000E-01; -1.8829097E+02;3;  3.3683553E-01;  0.0000000E+00; -1.0127489E-02;0;  4.7365064E-03;  3.9982082E+04;  0.0000000E+00;  8.8093681E-03;  4.0000000E+04;  0.0000000E+00;  3.9999895E+04;  6.8587302E-03;  0.0000000E+00; -2.1222241E-03;  2.0991119E+01;
  4.6166918E-01;  9.9999998E-03; -1.9999536E-02;5280;  4.6200822E-03;  0.0000000E+00;  2.8317108E-05;  9.9973889E+02;  1.0000000E-01; -2.1633955E+02;3;  3.3804664E-01;  0.0000000E+00; -6.7865201E-03;0;  4.6960907E-03;  3.9978840E+04;  0.0000000E+00;  3.9873226E-03;  4.0000000E+04;  0.0000000E+00;  4.0000270E+04;  6.8237954E-03;  0.0000000E+00; -2.1277047E-03;  7.5763512E+01;
  4.6167293E-01;  9.9999998E-03; -9.9998033E-03;5281;  4.6218969E-03;  0.0000000E+00;  1.4160294E-05;  9.9971863E+02;  1.0000000E-01; -2.3312921E+02;3;  3.3913288E-01;  0.0000000E+00; -3.5956108E-03;0;  4.6679303E-03;  3.9977047E+04;  0.0000000E+00;  1.0068235E-03;  4.0000000E+04;  0.0000000E+00;  4.0000594E+04;  6.7982432E-03;  0.0000000E+00; -2.1303126E-03;  1.1353857E+02;
  4.6167433E-01;  9.9999998E-03;  1.0629588E-08;5282;  4.6222941E-03;  0.0000000E+00;  3.9314713E-08;  9.9971149E+02;  1.0000000E-01; -2.3900558E+02;3;  3.3866468E-01;  0.0000000E+00;  1.4016642E-06;0;  4.6578823E-03;  3.9976301E+04;  0.0000000E+00; -9.2368691E-12;  4.0000000E+04;  0.0000000E+00;  4.0000707E+04;  6.7889495E-03;  0.0000000E+00; -2.1310672E-03;  1.2666700E+02;
  4.6167293E-01;  9.9999998E-03;  9.9998247E-03;5283;  4.6218955E-03;  0.0000000E+00; -1.4081670E-05;  9.9971863E+02;  1.0000000E-01; -2.3312921E+02;3;  3.3913192E-01;  0.0000000E+00;  3.5977249E-03;0;  4.6679485E-03;  3.9977047E+04;  0.0000000E+00;  1.0068396E-03;  4.0000000E+04;  0.0000000E+00;  4.0000598E+04;  6.7982711E-03;  0.0000000E+00; -2.1303226E-03;  1.1354073E+02;
  4.6166918E-01;  9.9999998E-03;  1.9999556E-02;5284;  4.6200790E-03;  0.0000000E+00; -2.8238810E-05;  9.9973889E+02;  1.0000000E-01; -2.1633955E+02;3;  3.3804473E-01;  0.0000000E+00;  6.7872717E-03;0;  4.6961503E-03;  3.9978844E+04;  0.0000000E+00;  3.9869840E-03;  4.0000000E+04;  0.0000000E+00;  4.0000266E+04;  6.8238736E-03;  0.0000000E+00; -2.1277231E-03;  7.5757751E+01;
  4.6166340E-01;  9.9999998E-03;  2.9999347E-02;5285;  4.6166703E-03;  0.0000000E+00; -4.3994951E-05;  9.9977277E+02;  1.0000000E-01; -1.8824159E+02;3;  3.3682317E-01;  0.0000000E+00;  1.0127288E-02;0;  4.7365814E-03;  3.9982082E+04;  0.0000000E+00;  8.8093318E-03;  4.0000000E+04;  0.0000000E+00;  3.9999895E+04;  6.8588317E-03;  0.0000000E+00; -2.1222504E-03;  2.0990705E+01;
  4.6165556E-01;  9.9999998E-03;  3.9999485E-02;5286;  4.6123015E-03;  0.0000000E+00; -6.1582097E-05;  9.9982520E+02;  1.0000000E-01; -1.4483540E+02;3;  3.3516747E-01;  0.0000000E+00;  1.3186002E-02;0;  4.7801654E-03;  3.9986391E+04;  0.0000000E+00;  1.5219315E-02;  4.0000000E+04;  0.0000000E+00;  3.9999160E+04;  6.8925833E-03;  0.0000000E+00; -2.1124179E-03;  6.0135292E+01;
  4.6164516E-01;  9.9999998E-03;  5.0000314E-02;5287;  4.6082693E-03;  0.0000000E+00; -8.1456281E-05;  9.9988074E+02;  1.0000000E-01; -9.8812019E+01;3;  3.3367106E-01;  0.0000000E+00;  1.5372468E-02;0;  4.8157079E-03;  3.9991727E+04;  0.0000000E+00;  2.2815006E-02;  4.0000000E+04;  0.0000000E+00;  3.9998570E+04;  6.9123078E-03;  0.0000000E+00; -2.0965999E-03;  1.3915192E+02;
  4.6163282E-01;  9.9999998E-03;  6.0002003E-02;5288;  4.6070605E-03;  0.0000000E+00; -1.0352148E-04;  9.9995178E+02;  1.0000000E-01; -3.9949486E+01;3;  3.3298549E-01;  0.0000000E+00;  1.6393177E-02;0;  4.8318030E-03;  3.9997926E+04;  0.0000000E+00;  3.1032164E-02;  4.0000000E+04;  0.0000000E+00;  3.9998172E+04;  6.9052419E-03;  0.0000000E+00; -2.0734391E-03;  2.1703496E+02;
  4.7151873E-01;  9.9999998E-03; -1.0001682E-01;5333;  4.6899230E-03;  0.0000000E+00;  1.9999554E-04;  1.0002158E+03;  1.0000000E-01;  1.7876038E+02;3;  3.5836479E-01;  0.0000000E+00; -2.0924678E-02;0;  5.7202759E-03;  4.0019750E+04;  0.0000000E+00;  1.8984539E-02;  4.0000000E+04;  0.0000000E+00;  3.9997160E+04;  7.7434117E-03;  0.0000000E+00; -2.0231358E-03;  3.3522324E+02;
  4.7153792E-01;  9.9999998E-03; -9.0014085E-02;5334;  4.6812394E-03;  0.0000000E+00;  1.7747814E-04;  1.0001622E+03;  1.0000000E-01;  1.3441595E+02;3;  3.5371745E-01;  0.0000000E+00; -2.0426631E-02;0;  5.8892025E-03;  4.0015379E+04;  0.0000000E+00;  2.1397932E-02;  4.0000000E+04;  0.0000000E+00;  3.9997336E+04;  7.9667103E-03;  0.0000000E+00; -2.0775080E-03;  3.1369449E+02;
  4.7155687E-01;  9.9999998E-03; -8.0011219E-02;5335;  4.6654930E-03;  0.0000000E+00;  1.5348761E-04;  1.0001046E+03;  1.0000000E-01;  8.6614838E+01;3;  3.4704843E-01;  0.0000000E+00; -2.0293381E-02;0;  6.0272673E-03;  4.0010613E+04;  0.0000000E+00;  2.1654947E-02;  4.0000000E+04;  0.0000000E+00;  3.9997609E+04;  8.1537059E-03;  0.0000000E+00; -2.1264385E-03;  2.7700833E+02;
  4.7157544E-01;  9.9999998E-03; -7.0008539E-02;5336;  4.6469290E-03;  0.0000000E+00;  1.2899750E-04;  1.0000419E+03;  1.0000000E-01;  3.4764450E+01;3;  3.4258750E-01;  0.0000000E+00; -1.8782523E-02;0;  6.1255856E-03;  4.0005617E+04;  0.0000000E+00;  2.0008421E-02;  4.0000000E+04;  0.0000000E+00;  3.9998207E+04;  8.2935197E-03;  0.0000000E+00; -2.1679341E-03;  2.2685204E+02;
  4.7159302E-01;  9.9999998E-03; -6.0006250E-02;5337;  4.6299980E-03;  0.0000000E+00;  1.0485961E-04;  9.9999017E+02;  1.0000000E-01; -8.1479177E+00;3;  3.3859810E-01;  0.0000000E+00; -1.7196776E-02;0;  6.1828662E-03;  4.0000723E+04;  0.0000000E+00;  1.6940234E-02;  4.0000000E+04;  0.0000000E+00;  3.9998418E+04;  8.3836988E-03;  0.0000000E+00; -2.2008328E-03;  1.6635713E+02;
  4.7160938E-01;  9.9999998E-03; -5.0004505E-02;5338;  4.6178601E-03;  0.0000000E+00;  8.2170671E-05;  9.9994067E+02;  1.0000000E-01; -4.9134415E+01;3;  3.3528608E-01;  0.0000000E+00; -1.5484489E-02;0;  6.2042391E-03;  3.9996168E+04;  0.0000000E+00;  1.3063889E-02;  4.0000000E+04;  0.0000000E+00;  3.9999156E+04;  8.4292423E-03;  0.0000000E+00; -2.2250034E-03;  1.0014958E+02;
  4.7162396E-01;  9.9999998E-03; -4.0003225E-02;5339;  4.6124510E-03;  0.0000000E+00;  6.1528328E-05;  9.9989966E+02;  1.0000000E-01; -8.3108757E+01;3;  3.3494243E-01;  0.0000000E+00; -1.4018237E-02;0;  6.1990591E-03;  3.9992441E+04;  0.0000000E+00;  9.0114037E-03;  4.0000000E+04;  0.0000000E+00;  3.9999836E+04;  8.4403520E-03;  0.0000000E+00; -2.2412927E-03;  3.4607880E+01;
  4.7163591E-01;  9.9999998E-03; -3.0002277E-02;5340;  4.6113739E-03;  0.0000000E+00;  4.3805256E-05;  9.9986658E+02;  1.0000000E-01; -1.1051540E+02;3;  3.3549196E-01;  0.0000000E+00; -1.0799424E-02;0;  6.1787553E-03;  3.9989426E+04;  0.0000000E+00;  5.3357491E-03;  4.0000000E+04;  0.0000000E+00;  4.0000082E+04;  8.4299874E-03;  0.0000000E+00; -2.2512323E-03;  2.8924217E+01;
  4.7164479E-01;  9.9999998E-03; -2.0001533E-02;5341;  4.6110447E-03;  0.0000000E+00;  2.8141621E-05;  9.9984253E+02;  1.0000000E-01; -1.3046544E+02;3;  3.3687139E-01;  0.0000000E+00; -7.6641887E-03;0;  6.1546201E-03;  3.9987180E+04;  0.0000000E+00;  2.4503816E-03;  4.0000000E+04;  0.0000000E+00;  4.0000543E+04;  8.4112454E-03;  0.0000000E+00; -2.2566251E-03;  7.5902954E+01;
  4.7165030E-01;  9.9999998E-03; -1.0000816E-02;5342;  4.6108598E-03;  0.0000000E+00;  1.3945622E-05;  9.9983075E+02;  1.0000000E-01; -1.4024295E+02;3;  3.3745387E-01;  0.0000000E+00; -3.4452574E-03;0;  6.1360346E-03;  3.9986020E+04;  0.0000000E+00;  6.2376988E-04;  4.0000000E+04;  0.0000000E+00;  4.0000867E+04;  8.3951438E-03;  0.0000000E+00; -2.2591094E-03;  1.0667668E+02;
  4.7165224E-01;  9.9999998E-03;  1.1093803E-08;5343;  4.6111010E-03;  0.0000000E+00;  3.9804355E-08;  9.9982446E+02;  1.0000000E-01; -1.4542798E+02;3;  3.3732170E-01;  0.0000000E+00;  1.1381453E-06;0;  6.1291344E-03;  3.9985340E+04;  0.0000000E+00; -9.1286770E-12;  4.0000000E+04;  0.0000000E+00;  4.0001043E+04;  8.3889440E-03;  0.0000000E+00; -2.2598095E-03;  1.1727715E+02;
  4.7165030E-01;  9.9999998E-03;  1.0000837E-02;5344;  4.6108584E-03;  0.0000000E+00; -1.3866163E-05;  9.9983069E+02;  1.0000000E-01; -1.4029233E+02;3;  3.3745387E-01;  0.0000000E+00;  3.4462479E-03;0;  6.1360644E-03;  3.9986020E+04;  0.0000000E+00;  6.2374736E-04;  4.0000000E+04;  0.0000000E+00;  4.0000867E+04;  8.3951829E-03;  0.0000000E+00; -2.2591185E-03;  1.0667504E+02;
  4.7164479E-01;  9.9999998E-03;  2.0001555E-02;5345;  4.6110414E-03;  0.0000000E+00; -2.8062377E-05;  9.9984253E+02;  1.0000000E-01; -1.3046544E+02;3;  3.3686918E-01;  0.0000000E+00;  7.6630604E-03;0;  6.1546741E-03;  3.9987180E+04;  0.0000000E+00;  2.4502727E-03;  4.0000000E+04;  0.0000000E+00;  4.0000543E+04;  8.4113162E-03;  0.0000000E+00; -2.2566419E-03;  7.5905266E+01;
  4.7163591E-01;  9.9999998E-03;  3.0002300E-02;5346;  4.6113688E-03;  0.0000000E+00; -4.3726381E-05;  9.9986652E+02;  1.0000000E-01; -1.1056477E+02;3;  3.3548951E-01;  0.0000000E+00;  1.0796132E-02;0;  6.1788410E-03;  3.9989430E+04;  0.0000000E+00;  5.3357026E-03;  4.0000000E+04;  0.0000000E+00;  4.0000082E+04;  8.4301028E-03;  0.0000000E+00; -2.2512618E-03;  2.8925220E+01;
  4.7162396E-01;  9.9999998E-03;  4.0003244E-02;5347;  4.6124454E-03;  0.0000000E+00; -6.1449653E-05;  9.9989960E+02;  1.0000000E-01; -8.3158142E+01;3;  3.3493564E-01;  0.0000000E+00;  1.4012042E-02;0;  6.1991699E-03;  3.9992441E+04;  0.0000000E+00;  9.0107331E-03;  4.0000000E+04;  0.0000000E+00;  3.9999840E+04;  8.4404983E-03;  0.0000000E+00; -2.2413284E-03;  3.4612560E+01;
  4.7160938E-01;  9.9999998E-03;  5.0004523E-02;5348;  4.6178531E-03;  0.0000000E+00; -8.2092272E-05;  9.9994073E+02;  1.0000000E-01; -4.9085033E+01;3;  3.3527520E-01;  0.0000000E+00;  1.5477522E-02;0;  6.2043709E-03;  3.9996168E+04;  0.0000000E+00;  1.3062024E-02;  4.0000000E+04;  0.0000000E+00;  3.9999156E+04;  8.4294155E-03;  0.0000000E+00; -2.2250446E-03;  1.0014835E+02;
  4.7159302E-01;  9.9999998E-03;  6.0006272E-02;5349;  4.6299919E-03;  0.0000000E+00; -1.0478163E-04;  9.9999030E+02;  1.0000000E-01; -8.0491552E+00;3;  3.3858410E-01;  0.0000000E+00;  1.7185651E-02;0;  6.1830450E-03;  4.0000723E+04;  0.0000000E+00;  1.6938886E-02;  4.0000000E+04;  0.0000000E+00;  3.9998418E+04;  8.3839260E-03;  0.0000000E+00; -2.2008808E-03;  1.6636127E+02;
  4.8150459E-01;  9.9999998E-03; -1.0001807E-01;5394;  4.7912076E-03;  0.0000000E+00;  2.1486307E-04;  1.0001843E+03;  1.0000148E-01;  1.5268704E+02;3;  3.9509875E-01;  0.0000000E+00; -1.7483052E-02;0;  6.9489810E-03;  4.0015680E+04;  0.0000000E+00; -2.1071484E-02;  4.0000000E+04;  0.0000000E+00;  3.9997824E+04;  9.0943426E-03;  0.0000000E+00; -2.1453616E-03;  2.7166119E+02;
  4.8152629E-01;  9.9999998E-03; -9.0016522E-02;5395;  4.7785016E-03;  0.0000000E+00;  1.9086203E-04;  1.0001453E+03;  1.0000148E-01;  1.2039165E+02;3;  3.8978857E-01;  0.0000000E+00; -1.6800119E-02;0;  7.1710511E-03;  4.0012340E+04;  0.0000000E+00; -1.4080836E-02;  4.0000000E+04;  0.0000000E+00;  3.9998277E+04;  9.3737543E-03;  0.0000000E+00; -2.2027032E-03;  2.3493306E+02;
  4.8154894E-01;  9.9999998E-03; -8.0014691E-02;5396;  4.7509614E-03;  0.0000000E+00;  1.6462749E-04;  1.0001058E+03;  1.0000142E-01;  8.7602463E+01;3;  3.7449273E-01;  0.0000000E+00; -1.6572777E-02;0;  7.3620537E-03;  4.0008879E+04;  0.0000000E+00; -8.3044888E-03;  4.0000000E+04;  0.0000000E+00;  3.9998656E+04;  9.6165314E-03;  0.0000000E+00; -2.2544777E-03;  1.9074034E+02;
  4.8159367E-01;  9.9999998E-03; -6.0010701E-02;5398;  4.6740416E-03;  0.0000000E+00;  1.1231364E-04;  1.0000334E+03;  1.0000145E-01;  2.7653540E+01;3;  3.4798566E-01;  0.0000000E+00; -1.5264001E-02;0;  7.6149083E-03;  4.0002535E+04;  0.0000000E+00; -1.3613019E-03;  4.0000000E+04;  0.0000000E+00;  3.9999035E+04;  9.9484613E-03;  0.0000000E+00; -2.3335530E-03;  8.8995949E+01;
  4.8159367E-01;  9.9999998E-03;  6.0010727E-02;5410;  4.6740402E-03;  0.0000000E+00; -1.1223512E-04;  1.0000334E+03;  1.0000145E-01;  2.7653540E+01;3;  3.4797606E-01;  0.0000000E+00;  1.5253652E-02;0;  7.6150643E-03;  4.0002531E+04;  0.0000000E+00; -1.3622526E-03;  4.0000000E+04;  0.0000000E+00;  3.9999035E+04;  9.9486625E-03;  0.0000000E+00; -2.3335980E-03;  8.9001320E+01;
  4.8157161E-01;  9.9999998E-03; -7.0012726E-02;5397;  4.7129830E-03;  0.0000000E+00;  1.3835936E-04;  1.0000665E+03;  1.0000142E-01;  5.5109554E+01;3;  3.6005312E-01;  0.0000000E+00; -1.5868295E-02;0;  7.5110840E-03;  4.0005762E+04;  0.0000000E+00; -4.0648151E-03;  4.0000000E+04;  0.0000000E+00;  3.9998891E+04;  9.8096002E-03;  0.0000000E+00; -2.2985165E-03;  1.4132445E+02;
  4.8161483E-01;  9.9999998E-03; -5.0008733E-02;5399;  4.6428367E-03;  0.0000000E+00;  8.7926790E-05;  1.0000096E+03;  1.0000148E-01;  7.9997740E+00;3;  3.3976662E-01;  0.0000000E+00; -1.4108857E-02;0;  7.6769805E-03;  3.9999785E+04;  0.0000000E+00;  5.5045391E-05;  4.0000000E+04;  0.0000000E+00;  3.9999551E+04;  1.0036398E-02;  0.0000000E+00; -2.3594170E-03;  3.6444942E+01;
  4.8161483E-01;  9.9999998E-03;  5.0008755E-02;5409;  4.6428316E-03;  0.0000000E+00; -8.7847642E-05;  1.0000096E+03;  1.0000148E-01;  7.9997740E+00;3;  3.3976302E-01;  0.0000000E+00;  1.4100383E-02;0;  7.6771174E-03;  3.9999777E+04;  0.0000000E+00;  5.6025605E-05;  4.0000000E+04;  0.0000000E+00;  3.9999555E+04;  1.0036578E-02;  0.0000000E+00; -2.3594613E-03;  3.6458153E+01;
  4.8167080E-01;  9.9999998E-03; -1.0001901E-02;5403;  4.6085548E-03;  0.0000000E+00;  1.4361554E-05;  9.9995868E+02;  1.0000148E-01; -3.4221256E+01;3;  3.3609048E-01;  0.0000000E+00; -3.9805560E-03;0;  7.6984288E-03;  3.9994691E+04;  0.0000000E+00;  8.7156492E-05;  4.0000000E+04;  0.0000000E+00;  4.0000816E+04;  1.0095092E-02;  0.0000000E+00; -2.3966637E-03;  1.1176775E+02;
  4.8167330E-01;  9.9999998E-03;  1.1537741E-08;5404;  4.6076928E-03;  0.0000000E+00;  4.0197705E-08;  9.9995636E+02;  1.0000145E-01; -3.6147125E+01;3;  3.3657211E-01;  0.0000000E+00;  8.4273825E-07;0;  7.6951869E-03;  3.9994449E+04;  0.0000000E+00; -8.1914683E-12;  4.0000000E+04;  0.0000000E+00;  4.0000840E+04;  1.0092658E-02;  0.0000000E+00; -2.3974709E-03;  1.1908163E+02;
  4.8167080E-01;  9.9999998E-03;  1.0001924E-02;5405;  4.6085538E-03;  0.0000000E+00; -1.4281278E-05;  9.9995862E+02;  1.0000148E-01; -3.4270638E+01;3;  3.3608684E-01;  0.0000000E+00;  3.9818911E-03;0;  7.6984703E-03;  3.9994695E+04;  0.0000000E+00;  8.6964625E-05;  4.0000000E+04;  0.0000000E+00;  4.0000816E+04;  1.0095138E-02;  0.0000000E+00; -2.3966678E-03;  1.1176627E+02;
  4.8166299E-01;  9.9999998E-03; -2.0003632E-02;5402;  4.6109408E-03;  0.0000000E+00;  2.9778721E-05;  9.9996393E+02;  1.0000151E-01; -2.9875698E+01;3;  3.3513597E-01;  0.0000000E+00; -7.2923764E-03;0;  7.7059157E-03;  3.9995348E+04;  0.0000000E+00;  3.0872185E-04;  4.0000000E+04;  0.0000000E+00;  4.0000750E+04;  1.0099757E-02;  0.0000000E+00; -2.3938415E-03;  9.0380013E+01;
  4.8166299E-01;  9.9999998E-03;  2.0003654E-02;5406;  4.6109380E-03;  0.0000000E+00; -2.9698818E-05;  9.9996393E+02;  1.0000151E-01; -2.9875698E+01;3;  3.3513558E-01;  0.0000000E+00;  7.2909291E-03;0;  7.7059707E-03;  3.9995352E+04;  0.0000000E+00;  3.0861489E-04;  4.0000000E+04;  0.0000000E+00;  4.0000750E+04;  1.0099830E-02;  0.0000000E+00; -2.3938597E-03;  9.0390419E+01;
  4.8165065E-01;  9.9999998E-03; -3.0005269E-02;5401;  4.6151974E-03;  0.0000000E+00;  4.6598430E-05;  9.9996979E+02;  1.0000148E-01; -2.5036329E+01;3;  3.3536980E-01;  0.0000000E+00; -1.0540632E-02;0;  7.7114655E-03;  3.9996297E+04;  0.0000000E+00;  5.3987786E-04;  4.0000000E+04;  0.0000000E+00;  4.0000395E+04;  1.0099310E-02;  0.0000000E+00; -2.3878447E-03;  5.6658920E+01;
  4.8165065E-01;  9.9999998E-03;  3.0005291E-02;5407;  4.6151932E-03;  0.0000000E+00; -4.6518784E-05;  9.9996979E+02;  1.0000148E-01; -2.5036329E+01;3;  3.3536789E-01;  0.0000000E+00;  1.0534659E-02;0;  7.7115521E-03;  3.9996297E+04;  0.0000000E+00;  5.3926068E-04;  4.0000000E+04;  0.0000000E+00;  4.0000395E+04;  1.0099425E-02;  0.0000000E+00; -2.3878729E-03;  5.6666611E+01;
  4.8163423E-01;  9.9999998E-03; -4.0006917E-02;5400;  4.6236604E-03;  0.0000000E+00;  6.5601991E-05;  9.9998395E+02;  1.0000148E-01; -1.3283575E+01;3;  3.3640701E-01;  0.0000000E+00; -1.2015090E-02;0;  7.7055451E-03;  3.9997719E+04;  0.0000000E+00;  5.6117919E-04;  4.0000000E+04;  0.0000000E+00;  4.0000035E+04;  1.0082537E-02;  0.0000000E+00; -2.3769920E-03;  1.3292530E+01;
  4.8163423E-01;  9.9999998E-03;  4.0006939E-02;5408;  4.6236552E-03;  0.0000000E+00; -6.5522632E-05;  9.9998395E+02;  1.0000148E-01; -1.3283575E+01;3;  3.3640093E-01;  0.0000000E+00;  1.2007505E-02;0;  7.7056531E-03;  3.9997715E+04;  0.0000000E+00;  5.6059030E-04;  4.0000000E+04;  0.0000000E+00;  4.0000031E+04;  1.0082679E-02;  0.0000000E+00; -2.3770258E-03;  1.3289762E+01;
  4.9173316E-01;  9.9999998E-03; -1.0001253E-02;5464;  4.6183052E-03;  0.0000000E+00;  1.7079607E-05;  1.0000557E+03;  1.0000206E-01;  4.6122154E+01;3;  3.3502561E-01;  0.0000000E+00; -3.3230109E-03;0;  9.2295213E-03;  4.0002145E+04;  0.0000000E+00; -6.0163182E-04;  4.0000000E+04;  0.0000000E+00;  4.0001102E+04;  1.1771025E-02;  0.0000000E+00; -2.5415039E-03;  1.2775152E+02;
  4.9173513E-01;  9.9999998E-03;  1.1913680E-08;5465;  4.6166223E-03;  0.0000000E+00;  4.0448690E-08;  1.0000573E+03;  1.0000201E-01;  4.7504829E+01;3;  3.3490679E-01;  0.0000000E+00;  2.5917782E-06;0;  9.2296889E-03;  4.0002137E+04;  0.0000000E+00; -7.4596423E-12;  4.0000000E+04;  0.0000000E+00;  4.0001117E+04;  1.1772225E-02;  0.0000000E+00; -2.5425358E-03;  1.3140604E+02;
  4.9173316E-01;  9.9999998E-03;  1.0001277E-02;5466;  4.6183034E-03;  0.0000000E+00; -1.6998882E-05;  1.0000557E+03;  1.0000206E-01;  4.6122154E+01;3;  3.3502224E-01;  0.0000000E+00;  3.3244037E-03;0;  9.2295613E-03;  4.0002148E+04;  0.0000000E+00; -6.0166832E-04;  4.0000000E+04;  0.0000000E+00;  4.0001102E+04;  1.1771070E-02;  0.0000000E+00; -2.5415085E-03;  1.2775347E+02;
  4.9172717E-01;  9.9999998E-03; -2.0002218E-02;5463;  4.6234448E-03;  0.0000000E+00;  3.4670833E-05;  1.0000547E+03;  1.0000205E-01;  4.5332050E+01;3;  3.3559340E-01;  0.0000000E+00; -5.9162546E-03;0;  9.2268614E-03;  4.0001863E+04;  0.0000000E+00; -2.4264369E-03;  4.0000000E+04;  0.0000000E+00;  4.0001148E+04;  1.1764858E-02;  0.0000000E+00; -2.5379965E-03;  1.1684761E+02;
  4.9172717E-01;  9.9999998E-03;  2.0002240E-02;5467;  4.6234429E-03;  0.0000000E+00; -3.4590386E-05;  1.0000546E+03;  1.0000205E-01;  4.5233288E+01;3;  3.3559117E-01;  0.0000000E+00;  5.9147016E-03;0;  9.2269089E-03;  4.0001863E+04;  0.0000000E+00; -2.4265223E-03;  4.0000000E+04;  0.0000000E+00;  4.0001148E+04;  1.1764924E-02;  0.0000000E+00; -2.5380147E-03;  1.1685902E+02;
  4.9171755E-01;  9.9999998E-03; -3.0002790E-02;5462;  4.6341177E-03;  0.0000000E+00;  5.4017444E-05;  1.0000511E+03;  1.0000210E-01;  4.2369171E+01;3;  3.3746228E-01;  0.0000000E+00; -7.6518324E-03;0;  9.2153642E-03;  4.0001664E+04;  0.0000000E+00; -5.5329609E-03;  4.0000000E+04;  0.0000000E+00;  4.0000945E+04;  1.1746255E-02;  0.0000000E+00; -2.5308903E-03;  9.8925217E+01;
  4.9171755E-01;  9.9999998E-03;  3.0002814E-02;5468;  4.6341144E-03;  0.0000000E+00; -5.3937267E-05;  1.0000513E+03;  1.0000210E-01;  4.2467934E+01;3;  3.3746657E-01;  0.0000000E+00;  7.6466836E-03;0;  9.2154350E-03;  4.0001664E+04;  0.0000000E+00; -5.5330442E-03;  4.0000000E+04;  0.0000000E+00;  4.0000941E+04;  1.1746352E-02;  0.0000000E+00; -2.5309161E-03;  9.8921844E+01;
  4.9170455E-01;  9.9999998E-03; -4.0003039E-02;5461;  4.6588657E-03;  0.0000000E+00;  7.7013581E-05;  1.0000482E+03;  1.0000205E-01;  3.9900105E+01;3;  3.4211460E-01;  0.0000000E+00; -7.8865793E-03;0;  9.1855638E-03;  4.0001699E+04;  0.0000000E+00; -1.0008354E-02;  4.0000000E+04;  0.0000000E+00;  4.0000848E+04;  1.1704101E-02;  0.0000000E+00; -2.5185379E-03;  7.4900421E+01;
  4.9170455E-01;  9.9999998E-03;  4.0003065E-02;5469;  4.6588629E-03;  0.0000000E+00; -7.6934142E-05;  1.0000482E+03;  1.0000205E-01;  3.9900105E+01;3;  3.4211609E-01;  0.0000000E+00;  7.8813368E-03;0;  9.1856746E-03;  4.0001699E+04;  0.0000000E+00; -1.0009062E-02;  4.0000000E+04;  0.0000000E+00;  4.0000848E+04;  1.1704248E-02;  0.0000000E+00; -2.5185738E-03;  7.4902145E+01;
  4.9168858E-01;  9.9999998E-03; -5.0003149E-02;5460;  4.7026207E-03;  0.0000000E+00;  1.0243211E-04;  1.0000463E+03;  1.0000209E-01;  3.8418667E+01;3;  3.5435390E-01;  0.0000000E+00; -9.9084405E-03;0;  9.1266930E-03;  4.0002309E+04;  0.0000000E+00; -1.5940886E-02;  4.0000000E+04;  0.0000000E+00;  4.0000492E+04;  1.1625819E-02;  0.0000000E+00; -2.4991264E-03;  4.7683464E+01;
  4.9168855E-01;  9.9999998E-03;  5.0003175E-02;5470;  4.7026211E-03;  0.0000000E+00; -1.0235300E-04;  1.0000463E+03;  1.0000209E-01;  3.8418667E+01;3;  3.5435191E-01;  0.0000000E+00;  9.8981736E-03;0;  9.1268262E-03;  4.0002312E+04;  0.0000000E+00; -1.5942805E-02;  4.0000000E+04;  0.0000000E+00;  4.0000492E+04;  1.1625994E-02;  0.0000000E+00; -2.4991678E-03;  4.7677288E+01;
  4.9167028E-01;  9.9999998E-03; -6.0003266E-02;5459;  4.7633122E-03;  0.0000000E+00;  1.2941322E-04;  1.0000544E+03;  1.0000206E-01;  4.5134525E+01;3;  3.7522909E-01;  0.0000000E+00; -9.0131303E-03;0;  9.0289470E-03;  4.0002852E+04;  0.0000000E+00; -2.3368778E-02;  4.0000000E+04;  0.0000000E+00;  4.0000055E+04;  1.1500063E-02;  0.0000000E+00; -2.4711164E-03;  3.3768402E+01;
  4.9167028E-01;  9.9999998E-03;  6.0003288E-02;5471;  4.7633187E-03;  0.0000000E+00; -1.2933442E-04;  1.0000544E+03;  1.0000206E-01;  4.5134525E+01;3;  3.7522355E-01;  0.0000000E+00;  9.0016192E-03;0;  9.0290979E-03;  4.0002852E+04;  0.0000000E+00; -2.3371410E-02;  4.0000000E+04;  0.0000000E+00;  4.0000055E+04;  1.1500261E-02;  0.0000000E+00; -2.4711632E-03;  3.3771889E+01;
  4.9164945E-01;  9.9999998E-03; -7.0003465E-02;5458;  4.8290691E-03;  0.0000000E+00;  1.5780868E-04;  1.0000669E+03;  1.0000208E-01;  5.5405842E+01;3;  4.0084752E-01;  0.0000000E+00; -9.4006034E-03;0;  8.8856230E-03;  4.0003988E+04;  0.0000000E+00; -3.2198172E-02;  4.0000000E+04;  0.0000000E+00;  3.9999578E+04;  1.1319271E-02;  0.0000000E+00; -2.4336486E-03;  6.1246578E+01;
  4.9162522E-01;  9.9999998E-03; -8.0003731E-02;5457;  4.8803319E-03;  0.0000000E+00;  1.8711567E-04;  1.0000834E+03;  1.0000210E-01;  6.9133850E+01;3;  4.2444798E-01;  0.0000000E+00; -1.0277607E-02;0;  8.6951824E-03;  4.0005840E+04;  0.0000000E+00; -4.2115122E-02;  4.0000000E+04;  0.0000000E+00;  3.9999113E+04;  1.1082108E-02;  0.0000000E+00; -2.3869260E-03;  1.0797047E+02;
  4.9159798E-01;  9.9999998E-03; -9.0004131E-02;5456;  4.9063354E-03;  0.0000000E+00;  2.1558668E-04;  1.0001071E+03;  1.0000204E-01;  8.8688850E+01;3;  4.3565270E-01;  0.0000000E+00; -8.7566730E-03;0;  8.4625436E-03;  4.0008137E+04;  0.0000000E+00; -5.2510366E-02;  4.0000000E+04;  0.0000000E+00;  3.9998949E+04;  1.0794888E-02;  0.0000000E+00; -2.3323444E-03;  1.6097066E+02;
  4.9156967E-01;  9.9999998E-03; -1.0000461E-01;5455;  4.9065375E-03;  0.0000000E+00;  2.4083478E-04;  1.0001309E+03;  1.0000208E-01;  1.0844138E+02;3;  4.3693417E-01;  0.0000000E+00; -8.5683055E-03;0;  8.1998715E-03;  4.0010125E+04;  0.0000000E+00; -6.2449839E-02;  4.0000000E+04;  0.0000000E+00;  3.9998621E+04;  1.0472132E-02;  0.0000000E+00; -2.2722606E-03;  2.1498030E+02;
  5.0159639E-01;  9.9999998E-03; -9.9989079E-02;5516;  5.0293719E-03;  0.0000000E+00;  2.7472497E-04;  1.0000745E+03;  1.0000372E-01;  6.1726650E+01;3;  4.7976330E-01;  0.0000000E+00;  2.5986258E-03;0;  9.3893930E-03;  4.0004258E+04;  0.0000000E+00; -1.0130901E-01;  4.0000000E+04;  0.0000000E+00;  3.9998969E+04;  1.1790480E-02;  0.0000000E+00; -2.4010867E-03;  1.9176198E+02;
  5.0162327E-01;  9.9999998E-03; -8.9989990E-02;5517;  5.0597768E-03;  0.0000000E+00;  2.5091559E-04;  1.0000656E+03;  1.0000387E-01;  5.4319450E+01;3;  4.9350798E-01;  0.0000000E+00;  4.5205140E-03;0;  9.6657779E-03;  4.0002812E+04;  0.0000000E+00; -9.0315208E-02;  4.0000000E+04;  0.0000000E+00;  3.9999637E+04;  1.2129133E-02;  0.0000000E+00; -2.4633545E-03;  1.4011728E+02;
  5.0164610E-01;  9.9999998E-03; -7.9991661E-02;5518;  5.0572674E-03;  0.0000000E+00;  2.2106490E-04;  1.0000636E+03;  1.0000373E-01;  5.2739250E+01;3;  4.8990384E-01;  0.0000000E+00;  2.5130978E-03;0;  9.9142967E-03;  4.0001543E+04;  0.0000000E+00; -7.6649636E-02;  4.0000000E+04;  0.0000000E+00;  4.0000215E+04;  1.2434668E-02;  0.0000000E+00; -2.5203715E-03;  1.0999210E+02;
  5.0166309E-01;  9.9999998E-03; -6.9993779E-02;5519;  5.0221058E-03;  0.0000000E+00;  1.8809659E-04;  1.0000579E+03;  1.0000388E-01;  4.7998642E+01;3;  4.7969356E-01;  0.0000000E+00; -1.7804610E-04;0;  1.0123132E-02;  4.0001426E+04;  0.0000000E+00; -6.1817810E-02;  4.0000000E+04;  0.0000000E+00;  4.0000707E+04;  1.2692737E-02;  0.0000000E+00; -2.5696056E-03;  1.0656630E+02;
  5.0167376E-01;  9.9999998E-03; -5.9995830E-02;5520;  4.9477359E-03;  0.0000000E+00;  1.5642121E-04;  1.0000638E+03;  1.0000376E-01;  5.2838013E+01;3;  4.5107639E-01;  0.0000000E+00; -2.4559079E-03;0;  1.0286862E-02;  4.0001508E+04;  0.0000000E+00; -4.7108423E-02;  4.0000000E+04;  0.0000000E+00;  4.0000910E+04;  1.2896380E-02;  0.0000000E+00; -2.6095186E-03;  1.1785680E+02;
  5.0167853E-01;  9.9999998E-03; -4.9997568E-02;5521;  4.8536584E-03;  0.0000000E+00;  1.2764907E-04;  1.0000734E+03;  1.0000374E-01;  6.0739021E+01;3;  4.1208750E-01;  0.0000000E+00; -2.1516189E-03;0;  1.0405416E-02;  4.0001961E+04;  0.0000000E+00; -3.3530690E-02;  4.0000000E+04;  0.0000000E+00;  4.0000980E+04;  1.3045220E-02;  0.0000000E+00; -2.6398036E-03;  1.3070222E+02;
  5.0167924E-01;  9.9999998E-03; -3.9998945E-02;5522;  4.7641578E-03;  0.0000000E+00;  1.0029502E-04;  1.0000873E+03;  1.0000377E-01;  7.2393013E+01;3;  3.7240630E-01;  0.0000000E+00; -1.2472023E-03;0;  1.0483578E-02;  4.0003023E+04;  0.0000000E+00; -2.1804903E-02;  4.0000000E+04;  0.0000000E+00;  4.0001355E+04;  1.3144839E-02;  0.0000000E+00; -2.6612610E-03;  1.4011685E+02;
  5.0167871E-01;  9.9999998E-03; -2.9999943E-02;5523;  4.7013871E-03;  0.0000000E+00;  7.2600538E-05;  1.0001030E+03;  1.0000386E-01;  8.5330917E+01;3;  3.5025245E-01;  0.0000000E+00; -1.5061408E-03;0;  1.0529554E-02;  4.0004383E+04;  0.0000000E+00; -1.2386761E-02;  4.0000000E+04;  0.0000000E+00;  4.0001273E+04;  1.3204929E-02;  0.0000000E+00; -2.6753764E-03;  1.4569095E+02;
  5.0167823E-01;  9.9999998E-03; -2.0000545E-02;5524;  4.6649510E-03;  0.0000000E+00;  4.5922618E-05;  1.0001159E+03;  1.0000373E-01;  9.5997284E+01;3;  3.4076205E-01;  0.0000000E+00; -1.6254529E-03;0;  1.0553116E-02;  4.0005160E+04;  0.0000000E+00; -5.5372017E-03;  4.0000000E+04;  0.0000000E+00;  4.0001480E+04;  1.3236974E-02;  0.0000000E+00; -2.6838589E-03;  1.4829712E+02;
  5.0167799E-01;  9.9999998E-03; -1.0000505E-02;5525;  4.6491688E-03;  0.0000000E+00;  2.1991273E-05;  1.0001238E+03;  1.0000381E-01;  1.0251562E+02;3;  3.3644935E-01;  0.0000000E+00; -1.1736397E-03;0;  1.0563081E-02;  4.0005707E+04;  0.0000000E+00; -1.3884051E-03;  4.0000000E+04;  0.0000000E+00;  4.0001402E+04;  1.3251320E-02;  0.0000000E+00; -2.6882379E-03;  1.4924008E+02;
  5.0167781E-01;  9.9999998E-03;  1.2326060E-08;5526;  4.6457439E-03;  0.0000000E+00;  4.0570246E-08;  1.0001260E+03;  1.0000373E-01;  1.0439211E+02;3;  3.3570993E-01;  0.0000000E+00;  1.9183487E-06;0;  1.0565658E-02;  4.0006082E+04;  0.0000000E+00; -6.1093960E-12;  4.0000000E+04;  0.0000000E+00;  4.0001426E+04;  1.3255234E-02;  0.0000000E+00; -2.6895755E-03;  1.4940887E+02;
  5.0167799E-01;  9.9999998E-03;  1.0000529E-02;5527;  4.6491679E-03;  0.0000000E+00; -2.1910369E-05;  1.0001238E+03;  1.0000381E-01;  1.0251562E+02;3;  3.3645323E-01;  0.0000000E+00;  1.1761797E-03;0;  1.0563109E-02;  4.0005711E+04;  0.0000000E+00; -1.3884441E-03;  4.0000000E+04;  0.0000000E+00;  4.0001406E+04;  1.3251354E-02;  0.0000000E+00; -2.6882445E-03;  1.4924844E+02;
  5.0167823E-01;  9.9999998E-03;  2.0000570E-02;5528;  4.6649501E-03;  0.0000000E+00; -4.5842135E-05;  1.0001160E+03;  1.0000373E-01;  9.6096046E+01;3;  3.4076467E-01;  0.0000000E+00;  1.6236233E-03;0;  1.0553177E-02;  4.0005160E+04;  0.0000000E+00; -5.5372035E-03;  4.0000000E+04;  0.0000000E+00;  4.0001480E+04;  1.3237052E-02;  0.0000000E+00; -2.6838752E-03;  1.4829213E+02;
  5.0167871E-01;  9.9999998E-03;  2.9999968E-02;5529;  4.7013881E-03;  0.0000000E+00; -7.2520896E-05;  1.0001029E+03;  1.0000386E-01;  8.5232155E+01;3;  3.5025305E-01;  0.0000000E+00;  1.5011333E-03;0;  1.0529628E-02;  4.0004387E+04;  0.0000000E+00; -1.2387168E-02;  4.0000000E+04;  0.0000000E+00;  4.0001273E+04;  1.3205030E-02;  0.0000000E+00; -2.6754017E-03;  1.4569238E+02;
  5.0167924E-01;  9.9999998E-03;  3.9998971E-02;5530;  4.7641629E-03;  0.0000000E+00; -1.0021567E-04;  1.0000873E+03;  1.0000377E-01;  7.2393013E+01;3;  3.7241003E-01;  0.0000000E+00;  1.2398739E-03;0;  1.0483665E-02;  4.0003016E+04;  0.0000000E+00; -2.1804685E-02;  4.0000000E+04;  0.0000000E+00;  4.0001355E+04;  1.3144965E-02;  0.0000000E+00; -2.6612999E-03;  1.4011354E+02;
  5.0167853E-01;  9.9999998E-03;  4.9997594E-02;5531;  4.8536696E-03;  0.0000000E+00; -1.2756958E-04;  1.0000734E+03;  1.0000374E-01;  6.0739021E+01;3;  4.1209435E-01;  0.0000000E+00;  2.1390922E-03;0;  1.0405539E-02;  4.0001961E+04;  0.0000000E+00; -3.3530138E-02;  4.0000000E+04;  0.0000000E+00;  4.0000977E+04;  1.3045385E-02;  0.0000000E+00; -2.6398473E-03;  1.3069923E+02;
  5.0167376E-01;  9.9999998E-03;  5.9995856E-02;5532;  4.9477527E-03;  0.0000000E+00; -1.5634138E-04;  1.0000638E+03;  1.0000376E-01;  5.2838013E+01;3;  4.5108786E-01;  0.0000000E+00;  2.4440496E-03;0;  1.0287007E-02;  4.0001496E+04;  0.0000000E+00; -4.7108360E-02;  4.0000000E+04;  0.0000000E+00;  4.0000910E+04;  1.2896574E-02;  0.0000000E+00; -2.6095673E-03;  1.1785084E+02;
  5.1160890E-01;  9.9999998E-03; -9.9977165E-02;5577;  5.1580016E-03;  0.0000000E+00;  3.1025484E-04;  1.0000239E+03;  1.0000619E-01;  1.9752527E+01;3;  5.2622306E-01;  0.0000000E+00;  1.3085395E-02;0;  1.0458371E-02;  3.9997449E+04;  0.0000000E+00; -1.3234730E-01;  4.0000000E+04;  0.0000000E+00;  3.9999867E+04;  1.2988876E-02;  0.0000000E+00; -2.5305045E-03;  2.0282726E+02;
  5.1163149E-01;  9.9999998E-03; -8.9979902E-02;5578;  5.2280226E-03;  0.0000000E+00;  2.8946128E-04;  1.0000225E+03;  1.0000612E-01;  1.8666140E+01;3;  5.5451047E-01;  0.0000000E+00;  1.6859928E-02;0;  1.0712796E-02;  3.9996484E+04;  0.0000000E+00; -1.2217601E-01;  4.0000000E+04;  0.0000000E+00;  4.0000188E+04;  1.3307140E-02;  0.0000000E+00; -2.5943441E-03;  1.7516873E+02;
  5.1164931E-01;  9.9999998E-03; -7.9983354E-02;5579;  5.2678240E-03;  0.0000000E+00;  2.6182301E-04;  1.0000236E+03;  1.0000617E-01;  1.9555002E+01;3;  5.6808394E-01;  0.0000000E+00;  1.6685490E-02;0;  1.0942087E-02;  3.9996211E+04;  0.0000000E+00; -1.0697281E-01;  4.0000000E+04;  0.0000000E+00;  4.0001020E+04;  1.3595401E-02;  0.0000000E+00; -2.6533152E-03;  1.7582147E+02;
  5.1166147E-01;  9.9999998E-03; -6.9987006E-02;5580;  5.2731051E-03;  0.0000000E+00;  2.2744447E-04;  1.0000341E+03;  1.0000610E-01;  2.8246115E+01;3;  5.7640910E-01;  0.0000000E+00;  1.3530502E-02;0;  1.1136665E-02;  3.9996652E+04;  0.0000000E+00; -8.8668421E-02;  4.0000000E+04;  0.0000000E+00;  4.0001316E+04;  1.3841456E-02;  0.0000000E+00; -2.7047910E-03;  1.8861349E+02;
  5.1166755E-01;  9.9999998E-03; -5.9990473E-02;5581;  5.2377344E-03;  0.0000000E+00;  1.9214170E-04;  1.0000506E+03;  1.0000613E-01;  4.1875359E+01;3;  5.6405628E-01;  0.0000000E+00;  9.5522758E-03;0;  1.1292113E-02;  3.9997230E+04;  0.0000000E+00; -6.9184139E-02;  4.0000000E+04;  0.0000000E+00;  4.0001395E+04;  1.4039180E-02;  0.0000000E+00; -2.7470673E-03;  1.9828778E+02;
  5.1166809E-01;  9.9999998E-03; -4.9993452E-02;5582;  5.1630745E-03;  0.0000000E+00;  1.5812948E-04;  1.0000700E+03;  1.0000623E-01;  5.7973667E+01;3;  5.3861284E-01;  0.0000000E+00;  7.2128619E-03;0;  1.1408318E-02;  3.9998695E+04;  0.0000000E+00; -5.0226126E-02;  4.0000000E+04;  0.0000000E+00;  4.0001492E+04;  1.4188028E-02;  0.0000000E+00; -2.7797096E-03;  1.9939503E+02;
  5.1166385E-01;  9.9999998E-03; -3.9995782E-02;5583;  5.0638639E-03;  0.0000000E+00;  1.2649148E-04;  1.0000895E+03;  1.0000616E-01;  7.4170738E+01;3;  5.0257874E-01;  0.0000000E+00;  5.3257430E-03;0;  1.1488650E-02;  4.0000305E+04;  0.0000000E+00; -3.3181708E-02;  4.0000000E+04;  0.0000000E+00;  4.0001613E+04;  1.4292047E-02;  0.0000000E+00; -2.8033976E-03;  1.9295753E+02;
  5.1165676E-01;  9.9999998E-03; -2.9997468E-02;5584;  4.9609756E-03;  0.0000000E+00;  9.6466712E-05;  1.0001121E+03;  1.0000622E-01;  9.2836884E+01;3;  4.5983002E-01;  0.0000000E+00;  4.1177380E-03;0;  1.1539234E-02;  4.0001719E+04;  0.0000000E+00; -1.9075675E-02;  4.0000000E+04;  0.0000000E+00;  4.0001543E+04;  1.4358705E-02;  0.0000000E+00; -2.8194715E-03;  1.8243890E+02;
  5.1164973E-01;  9.9999998E-03; -1.9998688E-02;5585;  4.8766094E-03;  0.0000000E+00;  6.5531080E-05;  1.0001299E+03;  1.0000621E-01;  1.0765128E+02;3;  4.2608038E-01;  0.0000000E+00;  4.3952172E-03;0;  1.1567651E-02;  4.0003578E+04;  0.0000000E+00; -8.5973488E-03;  4.0000000E+04;  0.0000000E+00;  4.0001625E+04;  1.4397145E-02;  0.0000000E+00; -2.8294942E-03;  1.7171936E+02;
  5.1164454E-01;  9.9999998E-03; -9.9995043E-03;5586;  4.8222169E-03;  0.0000000E+00;  3.3464803E-05;  1.0001422E+03;  1.0000639E-01;  1.1772507E+02;3;  4.0463504E-01;  0.0000000E+00;  1.6213136E-03;0;  1.1581180E-02;  4.0004355E+04;  0.0000000E+00; -2.1660835E-03;  4.0000000E+04;  0.0000000E+00;  4.0001496E+04;  1.4416042E-02;  0.0000000E+00; -2.8348619E-03;  1.6398196E+02;
  5.1164287E-01;  9.9999998E-03;  1.2974686E-08;5587;  4.8036803E-03;  0.0000000E+00;  4.0532683E-08;  1.0001441E+03;  1.0000618E-01;  1.1940403E+02;3;  3.9706481E-01;  0.0000000E+00;  3.8592680E-06;0;  1.1585104E-02;  4.0004617E+04;  0.0000000E+00; -2.9388820E-12;  4.0000000E+04;  0.0000000E+00;  4.0001230E+04;  1.4421647E-02;  0.0000000E+00; -2.8365429E-03;  1.6114433E+02;
  5.1164454E-01;  9.9999998E-03;  9.9995304E-03;5588;  4.8222160E-03;  0.0000000E+00; -3.3383800E-05;  1.0001422E+03;  1.0000639E-01;  1.1782383E+02;3;  4.0463978E-01;  0.0000000E+00; -1.6176065E-03;0;  1.1581195E-02;  4.0004355E+04;  0.0000000E+00; -2.1661639E-03;  4.0000000E+04;  0.0000000E+00;  4.0001496E+04;  1.4416066E-02;  0.0000000E+00; -2.8348712E-03;  1.6398064E+02;
  5.1164973E-01;  9.9999998E-03;  1.9998714E-02;5589;  4.8766136E-03;  0.0000000E+00; -6.5450215E-05;  1.0001299E+03;  1.0000621E-01;  1.0765128E+02;3;  4.2608547E-01;  0.0000000E+00; -4.3945704E-03;0;  1.1567680E-02;  4.0003578E+04;  0.0000000E+00; -8.5973237E-03;  4.0000000E+04;  0.0000000E+00;  4.0001625E+04;  1.4397192E-02;  0.0000000E+00; -2.8295116E-03;  1.7173373E+02;
  5.1165676E-01;  9.9999998E-03;  2.9997494E-02;5590;  4.9609831E-03;  0.0000000E+00; -9.6385964E-05;  1.0001121E+03;  1.0000622E-01;  9.2836884E+01;3;  4.5983848E-01;  0.0000000E+00; -4.1228789E-03;0;  1.1539292E-02;  4.0001715E+04;  0.0000000E+00; -1.9075481E-02;  4.0000000E+04;  0.0000000E+00;  4.0001543E+04;  1.4358787E-02;  0.0000000E+00; -2.8194948E-03;  1.8243608E+02;
  5.1166385E-01;  9.9999998E-03;  3.9995808E-02;5591;  5.0638756E-03;  0.0000000E+00; -1.2641039E-04;  1.0000897E+03;  1.0000611E-01;  7.4269501E+01;3;  5.0259006E-01;  0.0000000E+00; -5.3336723E-03;0;  1.1488726E-02;  4.0000305E+04;  0.0000000E+00; -3.3182193E-02;  4.0000000E+04;  0.0000000E+00;  4.0001613E+04;  1.4292154E-02;  0.0000000E+00; -2.8034269E-03;  1.9296683E+02;
  5.1166809E-01;  9.9999998E-03;  4.9993478E-02;5592;  5.1630931E-03;  0.0000000E+00; -1.5804835E-04;  1.0000700E+03;  1.0000623E-01;  5.7973667E+01;3;  5.3862637E-01;  0.0000000E+00; -7.2241453E-03;0;  1.1408422E-02;  3.9998695E+04;  0.0000000E+00; -5.0226931E-02;  4.0000000E+04;  0.0000000E+00;  4.0001496E+04;  1.4188176E-02;  0.0000000E+00; -2.7797534E-03;  1.9939565E+02;
  5.1166755E-01;  9.9999998E-03;  5.9990499E-02;5593;  5.2377582E-03;  0.0000000E+00; -1.9206044E-04;  1.0000506E+03;  1.0000613E-01;  4.1875359E+01;3;  5.6407112E-01;  0.0000000E+00; -9.5659923E-03;0;  1.1292230E-02;  3.9997230E+04;  0.0000000E+00; -6.9182485E-02;  4.0000000E+04;  0.0000000E+00;  4.0001398E+04;  1.4039342E-02;  0.0000000E+00; -2.7471124E-03;  1.9826775E+02;
  5.2160519E-01;  9.9999998E-03; -9.9972941E-02;5638;  5.2941320E-03;  0.0000000E+00;  3.3957718E-04;  9.9998322E+02;  1.0001040E-01; -1.3925532E+01;3;  5.7659799E-01;  0.0000000E+00;  2.1179648E-02;0;  1.1362690E-02;  3.9989512E+04;  0.0000000E+00; -1.4936012E-01;  4.0000000E+04;  0.0000000E+00;  3.9999742E+04;  1.4021339E-02;  0.0000000E+00; -2.6586484E-03;  2.1849606E+02;
  5.2162373E-01;  9.9999998E-03; -8.9976460E-02;5639;  5.4035173E-03;  0.0000000E+00;  3.2092992E-04;  9.9997986E+02;  1.0001049E-01; -1.6690886E+01;3;  6.1786801E-01;  0.0000000E+00;  2.6384016E-02;0;  1.1556327E-02;  3.9988887E+04;  0.0000000E+00; -1.4168017E-01;  4.0000000E+04;  0.0000000E+00;  4.0000445E+04;  1.4279815E-02;  0.0000000E+00; -2.7234878E-03;  2.0896211E+02;
  5.2163786E-01;  9.9999998E-03; -7.9980336E-02;5640;  5.4879766E-03;  0.0000000E+00;  2.9492856E-04;  9.9998279E+02;  1.0001046E-01; -1.4271201E+01;3;  6.4927292E-01;  0.0000000E+00;  2.6673511E-02;0;  1.1726961E-02;  3.9988629E+04;  0.0000000E+00; -1.2697873E-01;  4.0000000E+04;  0.0000000E+00;  4.0000816E+04;  1.4510735E-02;  0.0000000E+00; -2.7837737E-03;  2.2427150E+02;
  5.2164716E-01;  9.9999998E-03; -6.9984250E-02;5641;  5.5420483E-03;  0.0000000E+00;  2.6209635E-04;  9.9999689E+02;  1.0001037E-01; -2.5678287E+00;3;  6.7466933E-01;  0.0000000E+00;  2.5609950E-02;0;  1.1868562E-02;  3.9988863E+04;  0.0000000E+00; -1.0738571E-01;  4.0000000E+04;  0.0000000E+00;  4.0001250E+04;  1.4705476E-02;  0.0000000E+00; -2.8369145E-03;  2.4168498E+02;
  5.2165163E-01;  9.9999998E-03; -5.9987891E-02;5642;  5.5631595E-03;  0.0000000E+00;  2.2502041E-04;  1.0000112E+03;  1.0001051E-01;  9.2836876E+00;3;  6.8629539E-01;  0.0000000E+00;  2.0345699E-02;0;  1.1979303E-02;  3.9989809E+04;  0.0000000E+00; -8.5228145E-02;  4.0000000E+04;  0.0000000E+00;  4.0001586E+04;  1.4860420E-02;  0.0000000E+00; -2.8811172E-03;  2.4767009E+02;
  5.2165186E-01;  9.9999998E-03; -4.9991131E-02;5643;  5.5481903E-03;  0.0000000E+00;  1.8746551E-04;  1.0000335E+03;  1.0001035E-01;  2.7752302E+01;3;  6.8497366E-01;  0.0000000E+00;  1.6612425E-02;0;  1.2060566E-02;  3.9991145E+04;  0.0000000E+00; -6.2752895E-02;  4.0000000E+04;  0.0000000E+00;  4.0001840E+04;  1.4976383E-02;  0.0000000E+00; -2.9158171E-03;  2.3964949E+02;
  5.2164817E-01;  9.9999998E-03; -3.9993871E-02;5644;  5.5035390E-03;  0.0000000E+00;  1.5013111E-04;  1.0000552E+03;  1.0001035E-01;  4.5727100E+01;3;  6.7078161E-01;  0.0000000E+00;  1.1305848E-02;0;  1.2115791E-02;  3.9992863E+04;  0.0000000E+00; -4.1926436E-02;  4.0000000E+04;  0.0000000E+00;  4.0001762E+04;  1.5057315E-02;  0.0000000E+00; -2.9415234E-03;  2.2118906E+02;
  5.2164263E-01;  9.9999998E-03; -2.9995989E-02;5645;  5.4436964E-03;  0.0000000E+00;  1.1325900E-04;  1.0000718E+03;  1.0001040E-01;  5.9455109E+01;3;  6.5158916E-01;  0.0000000E+00;  7.4720359E-03;0;  1.2149949E-02;  3.9994641E+04;  0.0000000E+00; -2.4308363E-02;  4.0000000E+04;  0.0000000E+00;  4.0001617E+04;  1.5109395E-02;  0.0000000E+00; -2.9594463E-03;  1.9836090E+02;
  5.2163690E-01;  9.9999998E-03; -1.9997671E-02;5646;  5.3833951E-03;  0.0000000E+00;  7.6608369E-05;  1.0000922E+03;  1.0001042E-01;  7.6343521E+01;3;  6.2928402E-01;  0.0000000E+00;  5.1785139E-03;0;  1.2168782E-02;  3.9996273E+04;  0.0000000E+00; -1.1020223E-02;  4.0000000E+04;  0.0000000E+00;  4.0001500E+04;  1.5139736E-02;  0.0000000E+00; -2.9709546E-03;  1.7726863E+02;
  5.2163273E-01;  9.9999998E-03; -9.9989809E-03;5647;  5.3398344E-03;  0.0000000E+00;  3.8597103E-05;  1.0001033E+03;  1.0001042E-01;  8.5627205E+01;3;  6.1400056E-01;  0.0000000E+00;  2.7309956E-03;0;  1.2177527E-02;  3.9997219E+04;  0.0000000E+00; -2.7859765E-03;  4.0000000E+04;  0.0000000E+00;  4.0001238E+04;  1.5154826E-02;  0.0000000E+00; -2.9773000E-03;  1.6279413E+02;
  5.2163124E-01;  9.9999998E-03;  1.3700096E-08;5648;  5.3240289E-03;  0.0000000E+00;  4.2324693E-08;  1.0001088E+03;  1.0001050E-01;  9.0071526E+01;3;  6.0927695E-01;  0.0000000E+00;  3.2879407E-06;0;  1.2180012E-02;  3.9997543E+04;  0.0000000E+00; -3.0382719E-12;  4.0000000E+04;  0.0000000E+00;  4.0001273E+04;  1.5159326E-02;  0.0000000E+00; -2.9793135E-03;  1.5760745E+02;
  5.2163273E-01;  9.9999998E-03;  9.9990088E-03;5649;  5.3398348E-03;  0.0000000E+00; -3.8512717E-05;  1.0001034E+03;  1.0001042E-01;  8.5627205E+01;3;  6.1400348E-01;  0.0000000E+00; -2.7263043E-03;0;  1.2177547E-02;  3.9997219E+04;  0.0000000E+00; -2.7862377E-03;  4.0000000E+04;  0.0000000E+00;  4.0001238E+04;  1.5154855E-02;  0.0000000E+00; -2.9773074E-03;  1.6278769E+02;
  5.2163690E-01;  9.9999998E-03;  1.9997697E-02;5650;  5.3834012E-03;  0.0000000E+00; -7.6523727E-05;  1.0000922E+03;  1.0001042E-01;  7.6343521E+01;3;  6.2929100E-01;  0.0000000E+00; -5.1785749E-03;0;  1.2168800E-02;  3.9996273E+04;  0.0000000E+00; -1.1020571E-02;  4.0000000E+04;  0.0000000E+00;  4.0001500E+04;  1.5139773E-02;  0.0000000E+00; -2.9709730E-03;  1.7727940E+02;
  5.2164263E-01;  9.9999998E-03;  2.9996017E-02;5651;  5.4437104E-03;  0.0000000E+00; -1.1317401E-04;  1.0000717E+03;  1.0001040E-01;  5.9455109E+01;3;  6.5159804E-01;  0.0000000E+00; -7.4749254E-03;0;  1.2149979E-02;  3.9994645E+04;  0.0000000E+00; -2.4308093E-02;  4.0000000E+04;  0.0000000E+00;  4.0001617E+04;  1.5109444E-02;  0.0000000E+00; -2.9594649E-03;  1.9835486E+02;
  5.2164817E-01;  9.9999998E-03;  3.9993901E-02;5652;  5.5035595E-03;  0.0000000E+00; -1.5004635E-04;  1.0000551E+03;  1.0001045E-01;  4.5628338E+01;3;  6.7079824E-01;  0.0000000E+00; -1.1311705E-02;0;  1.2115849E-02;  3.9992859E+04;  0.0000000E+00; -4.1925911E-02;  4.0000000E+04;  0.0000000E+00;  4.0001762E+04;  1.5057407E-02;  0.0000000E+00; -2.9415581E-03;  2.2118686E+02;
  5.2165186E-01;  9.9999998E-03;  4.9991157E-02;5653;  5.5482117E-03;  0.0000000E+00; -1.8738036E-04;  1.0000335E+03;  1.0001035E-01;  2.7752302E+01;3;  6.8499005E-01;  0.0000000E+00; -1.6622573E-02;0;  1.2060644E-02;  3.9991148E+04;  0.0000000E+00; -6.2753029E-02;  4.0000000E+04;  0.0000000E+00;  4.0001840E+04;  1.4976502E-02;  0.0000000E+00; -2.9158585E-03;  2.3963628E+02;
  5.2165163E-01;  9.9999998E-03;  5.9987918E-02;5654;  5.5631823E-03;  0.0000000E+00; -2.2493546E-04;  1.0000112E+03;  1.0001051E-01;  9.2836876E+00;3;  6.8631589E-01;  0.0000000E+00; -2.0358678E-02;0;  1.1979382E-02;  3.9989809E+04;  0.0000000E+00; -8.5227758E-02;  4.0000000E+04;  0.0000000E+00;  4.0001586E+04;  1.4860546E-02;  0.0000000E+00; -2.8811642E-03;  2.4767192E+02;
  5.3158683E-01;  9.9999998E-03; -9.9976897E-02;5699;  5.4488550E-03;  0.0000000E+00;  3.5803617E-04;  9.9995050E+02;  1.0001730E-01; -4.0986496E+01;3;  6.3102484E-01;  0.0000000E+00;  2.2933735E-02;0;  1.2083238E-02;  3.9981152E+04;  0.0000000E+00; -1.4635092E-01;  4.0000000E+04;  0.0000000E+00;  3.9999348E+04;  1.4866943E-02;  0.0000000E+00; -2.7837057E-03;  2.1494489E+02;
  5.3160113E-01;  9.9999998E-03; -8.9980572E-02;5700;  5.5858544E-03;  0.0000000E+00;  3.3717210E-04;  9.9994305E+02;  1.0001747E-01; -4.7159161E+01;3;  6.8416220E-01;  0.0000000E+00;  2.8313268E-02;0;  1.2182144E-02;  3.9979617E+04;  0.0000000E+00; -1.4249825E-01;  4.0000000E+04;  0.0000000E+00;  4.0000031E+04;  1.5031280E-02;  0.0000000E+00; -2.8491351E-03;  2.1060023E+02;
  5.3161132E-01;  9.9999998E-03; -7.9984277E-02;5701;  5.7053664E-03;  0.0000000E+00;  3.0914051E-04;  9.9993768E+02;  1.0001741E-01; -5.1652859E+01;3;  7.3229122E-01;  0.0000000E+00;  2.8908908E-02;0;  1.2259090E-02;  3.9978758E+04;  0.0000000E+00; -1.3055402E-01;  4.0000000E+04;  0.0000000E+00;  4.0000715E+04;  1.5169164E-02;  0.0000000E+00; -2.9100743E-03;  2.3186449E+02;
  5.3161728E-01;  9.9999998E-03; -6.9987737E-02;5702;  5.7970900E-03;  0.0000000E+00;  2.7603627E-04;  9.9994244E+02;  1.0001725E-01; -4.7702354E+01;3;  7.7056628E-01;  0.0000000E+00;  2.9139496E-02;0;  1.2312545E-02;  3.9978273E+04;  0.0000000E+00; -1.1249530E-01;  4.0000000E+04;  0.0000000E+00;  4.0001387E+04;  1.5276681E-02;  0.0000000E+00; -2.9641360E-03;  2.5190486E+02;
  5.3161955E-01;  9.9999998E-03; -5.9990786E-02;5703;  5.8601429E-03;  0.0000000E+00;  2.3852600E-04;  9.9994556E+02;  1.0001735E-01; -4.5085144E+01;3;  7.9741740E-01;  0.0000000E+00;  2.6525350E-02;0;  1.2344213E-02;  3.9978902E+04;  0.0000000E+00; -9.0700284E-02;  4.0000000E+04;  0.0000000E+00;  4.0001500E+04;  1.5353794E-02;  0.0000000E+00; -3.0095810E-03;  2.5656149E+02;
  5.3161824E-01;  9.9999998E-03; -4.9993411E-02;5704;  5.8961115E-03;  0.0000000E+00;  1.9928928E-04;  9.9996033E+02;  1.0001732E-01; -3.2887959E+01;3;  8.1607515E-01;  0.0000000E+00;  2.0787379E-02;0;  1.2358011E-02;  3.9979613E+04;  0.0000000E+00; -6.7655474E-02;  4.0000000E+04;  0.0000000E+00;  4.0001680E+04;  1.5403751E-02;  0.0000000E+00; -3.0457405E-03;  2.4381116E+02;
  5.3161436E-01;  9.9999998E-03; -3.9995503E-02;5705;  5.9080399E-03;  0.0000000E+00;  1.6060691E-04;  9.9997778E+02;  1.0001732E-01; -1.8419231E+01;3;  8.2426035E-01;  0.0000000E+00;  1.8014431E-02;0;  1.2358985E-02;  3.9981055E+04;  0.0000000E+00; -4.5670882E-02;  4.0000000E+04;  0.0000000E+00;  4.0001602E+04;  1.5431974E-02;  0.0000000E+00; -3.0729894E-03;  2.1845961E+02;
  5.3160995E-01;  9.9999998E-03; -2.9997008E-02;5706;  5.9026615E-03;  0.0000000E+00;  1.2101953E-04;  9.9999567E+02;  1.0001733E-01; -3.6048362E+00;3;  8.2617688E-01;  0.0000000E+00;  1.3656459E-02;0;  1.2352422E-02;  3.9982457E+04;  0.0000000E+00; -2.6686952E-02;  4.0000000E+04;  0.0000000E+00;  4.0001336E+04;  1.5444775E-02;  0.0000000E+00; -3.0923528E-03;  1.8802585E+02;
  5.3160560E-01;  9.9999998E-03; -1.9998260E-02;5707;  5.8898376E-03;  0.0000000E+00;  8.1264894E-05;  1.0000068E+03;  1.0001739E-01;  5.6294703E+00;3;  8.2518589E-01;  0.0000000E+00;  9.6672298E-03;0;  1.2343306E-02;  3.9983664E+04;  0.0000000E+00; -1.2164807E-02;  4.0000000E+04;  0.0000000E+00;  4.0001094E+04;  1.5448351E-02;  0.0000000E+00; -3.1050458E-03;  1.6029514E+02;
  5.3160262E-01;  9.9999998E-03; -9.9992407E-03;5708;  5.8776014E-03;  0.0000000E+00;  4.0846884E-05;  1.0000180E+03;  1.0001720E-01;  1.4913158E+01;3;  8.2339615E-01;  0.0000000E+00;  4.8484597E-03;0;  1.2335964E-02;  3.9984473E+04;  0.0000000E+00; -3.0852747E-03;  4.0000000E+04;  0.0000000E+00;  4.0000922E+04;  1.5448127E-02;  0.0000000E+00; -3.1121625E-03;  1.4132617E+02;
  5.3160161E-01;  9.9999998E-03;  1.4336519E-08;5709;  5.8729197E-03;  0.0000000E+00;  4.5144205E-08;  1.0000197E+03;  1.0001738E-01;  1.6295835E+01;3;  8.2274890E-01;  0.0000000E+00;  3.2539265E-06;0;  1.2333166E-02;  3.9984883E+04;  0.0000000E+00; -6.2711759E-12;  4.0000000E+04;  0.0000000E+00;  4.0000867E+04;  1.5447614E-02;  0.0000000E+00; -3.1144475E-03;  1.3463419E+02;
  5.3160262E-01;  9.9999998E-03;  9.9992696E-03;5710;  5.8776042E-03;  0.0000000E+00; -4.0756535E-05;  1.0000180E+03;  1.0001720E-01;  1.4913158E+01;3;  8.2339942E-01;  0.0000000E+00; -4.8422026E-03;0;  1.2335971E-02;  3.9984477E+04;  0.0000000E+00; -3.0853637E-03;  4.0000000E+04;  0.0000000E+00;  4.0000918E+04;  1.5448141E-02;  0.0000000E+00; -3.1121699E-03;  1.4131714E+02;
  5.3160560E-01;  9.9999998E-03;  1.9998288E-02;5711;  5.8898418E-03;  0.0000000E+00; -8.1174774E-05;  1.0000068E+03;  1.0001739E-01;  5.6294703E+00;3;  8.2518959E-01;  0.0000000E+00; -9.6644163E-03;0;  1.2343336E-02;  3.9983664E+04;  0.0000000E+00; -1.2164721E-02;  4.0000000E+04;  0.0000000E+00;  4.0001094E+04;  1.5448396E-02;  0.0000000E+00; -3.1050600E-03;  1.6027670E+02;
  5.3160995E-01;  9.9999998E-03;  2.9997036E-02;5712;  5.9026689E-03;  0.0000000E+00; -1.2092925E-04;  9.9999567E+02;  1.0001733E-01; -3.6048362E+00;3;  8.2618278E-01;  0.0000000E+00; -1.3655282E-02;0;  1.2352465E-02;  3.9982461E+04;  0.0000000E+00; -2.6687389E-02;  4.0000000E+04;  0.0000000E+00;  4.0001336E+04;  1.5444840E-02;  0.0000000E+00; -3.0923754E-03;  1.8800957E+02;
  5.3161436E-01;  9.9999998E-03;  3.9995532E-02;5713;  5.9080594E-03;  0.0000000E+00; -1.6051692E-04;  9.9997766E+02;  1.0001726E-01; -1.8517994E+01;3;  8.2427275E-01;  0.0000000E+00; -1.8017145E-02;0;  1.2359044E-02;  3.9981062E+04;  0.0000000E+00; -4.5670822E-02;  4.0000000E+04;  0.0000000E+00;  4.0001602E+04;  1.5432063E-02;  0.0000000E+00; -3.0730199E-03;  2.1847099E+02;
  5.3161824E-01;  9.9999998E-03;  4.9993441E-02;5714;  5.8961259E-03;  0.0000000E+00; -1.9919960E-04;  9.9996039E+02;  1.0001732E-01; -3.2838577E+01;3;  8.1608748E-01;  0.0000000E+00; -2.0791568E-02;0;  1.2358092E-02;  3.9979609E+04;  0.0000000E+00; -6.7655802E-02;  4.0000000E+04;  0.0000000E+00;  4.0001672E+04;  1.5403870E-02;  0.0000000E+00; -3.0457780E-03;  2.4381445E+02;
  5.3161955E-01;  9.9999998E-03;  5.9990816E-02;5715;  5.8601676E-03;  0.0000000E+00; -2.3843715E-04;  9.9994543E+02;  1.0001728E-01; -4.5183907E+01;3;  7.9743558E-01;  0.0000000E+00; -2.6532752E-02;0;  1.2344271E-02;  3.9978895E+04;  0.0000000E+00; -9.0701126E-02;  4.0000000E+04;  0.0000000E+00;  4.0001500E+04;  1.5353897E-02;  0.0000000E+00; -3.0096262E-03;  2.5655914E+02;
  5.4156286E-01;  9.9999998E-03; -9.9987604E-02;5760;  5.6366757E-03;  0.0000000E+00;  3.6335207E-04;  9.9995898E+02;  1.0002934E-01; -3.3974346E+01;3;  7.0123351E-01;  0.0000000E+00;  1.9653985E-02;0;  1.2625502E-02;  3.9971562E+04;  0.0000000E+00; -1.1896410E-01;  4.0000000E+04;  0.0000000E+00;  3.9998852E+04;  1.5529704E-02;  0.0000000E+00; -2.9042014E-03;  1.8750906E+02;
  5.4157251E-01;  9.9999998E-03; -8.9990631E-02;5761;  5.7874415E-03;  0.0000000E+00;  3.3630047E-04;  9.9993732E+02;  1.0002936E-01; -5.1949146E+01;3;  7.6083261E-01;  0.0000000E+00;  2.2770887E-02;0;  1.2609097E-02;  3.9969129E+04;  0.0000000E+00; -1.1987062E-01;  4.0000000E+04;  0.0000000E+00;  4.0000016E+04;  1.5579259E-02;  0.0000000E+00; -2.9701621E-03;  1.7271265E+02;
  5.4157817E-01;  9.9999998E-03; -7.9993568E-02;5762;  5.9175505E-03;  0.0000000E+00;  3.0442691E-04;  9.9992102E+02;  1.0002926E-01; -6.5430244E+01;3;  8.1376117E-01;  0.0000000E+00;  2.5047733E-02;0;  1.2571984E-02;  3.9966730E+04;  0.0000000E+00; -1.1294822E-01;  4.0000000E+04;  0.0000000E+00;  4.0000555E+04;  1.5603347E-02;  0.0000000E+00; -3.0313628E-03;  1.9341859E+02;
  5.4157996E-01;  9.9999998E-03; -6.9996081E-02;5763;  6.0208282E-03;  0.0000000E+00;  2.6757436E-04;  9.9990790E+02;  1.0002947E-01; -7.6294136E+01;3;  8.5630256E-01;  0.0000000E+00;  2.4085077E-02;0;  1.2516497E-02;  3.9965461E+04;  0.0000000E+00; -9.9623807E-02;  4.0000000E+04;  0.0000000E+00;  4.0001008E+04;  1.5602267E-02;  0.0000000E+00; -3.0857706E-03;  2.1662944E+02;
  5.4157811E-01;  9.9999998E-03; -5.9998088E-02;5764;  6.0957191E-03;  0.0000000E+00;  2.2882449E-04;  9.9990204E+02;  1.0002933E-01; -8.1182892E+01;3;  8.8981777E-01;  0.0000000E+00;  2.1322282E-02;0;  1.2448125E-02;  3.9964418E+04;  0.0000000E+00; -8.1891976E-02;  4.0000000E+04;  0.0000000E+00;  4.0001184E+04;  1.5579957E-02;  0.0000000E+00; -3.1318318E-03;  2.2393076E+02;
  5.4157317E-01;  9.9999998E-03; -4.9999561E-02;5765;  6.1472734E-03;  0.0000000E+00;  1.8994011E-04;  9.9990002E+02;  1.0002938E-01; -8.2812469E+01;3;  9.1447526E-01;  0.0000000E+00;  1.6746838E-02;0;  1.2373776E-02;  3.9964426E+04;  0.0000000E+00; -6.2053803E-02;  4.0000000E+04;  0.0000000E+00;  4.0001180E+04;  1.5542662E-02;  0.0000000E+00; -3.1688854E-03;  2.1212654E+02;
  5.4156697E-01;  9.9999998E-03; -4.0000465E-02;5766;  6.1796224E-03;  0.0000000E+00;  1.5187402E-04;  9.9990027E+02;  1.0002935E-01; -8.2614944E+01;3;  9.3327862E-01;  0.0000000E+00;  1.2894316E-02;0;  1.2300769E-02;  3.9964770E+04;  0.0000000E+00; -4.2415131E-02;  4.0000000E+04;  0.0000000E+00;  4.0000910E+04;  1.5497948E-02;  0.0000000E+00; -3.1971789E-03;  1.8581448E+02;
  5.4156089E-01;  9.9999998E-03; -3.0000832E-02;5767;  6.1977371E-03;  0.0000000E+00;  1.1421276E-04;  9.9990979E+02;  1.0002936E-01; -7.4713936E+01;3;  9.4432652E-01;  0.0000000E+00;  8.6167008E-03;0;  1.2235930E-02;  3.9965434E+04;  0.0000000E+00; -2.5018094E-02;  4.0000000E+04;  0.0000000E+00;  4.0000613E+04;  1.5453501E-02;  0.0000000E+00; -3.2175709E-03;  1.5316498E+02;
  5.4155582E-01;  9.9999998E-03; -2.0000840E-02;5768;  6.2074414E-03;  0.0000000E+00;  7.6600387E-05;  9.9991766E+02;  1.0002936E-01; -6.8195602E+01;3;  9.4945759E-01;  0.0000000E+00;  5.4174489E-03;0;  1.2185000E-02;  3.9966281E+04;  0.0000000E+00; -1.1478804E-02;  4.0000000E+04;  0.0000000E+00;  4.0000559E+04;  1.5416120E-02;  0.0000000E+00; -3.2311205E-03;  1.2276501E+02;
  5.4155254E-01;  9.9999998E-03; -1.0000573E-02;5769;  6.2121362E-03;  0.0000000E+00;  3.8498732E-05;  9.9992004E+02;  1.0002940E-01; -6.6220352E+01;3;  9.5246726E-01;  0.0000000E+00;  2.8313401E-03;0;  1.2152527E-02;  3.9966652E+04;  0.0000000E+00; -2.9225340E-03;  4.0000000E+04;  0.0000000E+00;  4.0000223E+04;  1.5391326E-02;  0.0000000E+00; -3.2387995E-03;  1.0179271E+02;
  5.4155153E-01;  9.9999998E-03;  1.4903550E-08;5770;  6.2133824E-03;  0.0000000E+00;  4.7821601E-08;  9.9992139E+02;  1.0002925E-01; -6.5133957E+01;3;  9.5391452E-01;  0.0000000E+00;  4.7081353E-06;0;  1.2141371E-02;  3.9966879E+04;  0.0000000E+00; -3.7499934E-12;  4.0000000E+04;  0.0000000E+00;  4.0000324E+04;  1.5382656E-02;  0.0000000E+00; -3.2412850E-03;  9.4378334E+01;
  5.4155254E-01;  9.9999998E-03;  1.0000602E-02;5771;  6.2121414E-03;  0.0000000E+00; -3.8403454E-05;  9.9992004E+02;  1.0002940E-01; -6.6220352E+01;3;  9.5246959E-01;  0.0000000E+00; -2.8255780E-03;0;  1.2152540E-02;  3.9966648E+04;  0.0000000E+00; -2.9226369E-03;  4.0000000E+04;  0.0000000E+00;  4.0000223E+04;  1.5391346E-02;  0.0000000E+00; -3.2388067E-03;  1.0179409E+02;
  5.4155582E-01;  9.9999998E-03;  2.0000869E-02;5772;  6.2074489E-03;  0.0000000E+00; -7.6505297E-05;  9.9991766E+02;  1.0002936E-01; -6.8195602E+01;3;  9.4946444E-01;  0.0000000E+00; -5.4144366E-03;0;  1.2185035E-02;  3.9966285E+04;  0.0000000E+00; -1.1478763E-02;  4.0000000E+04;  0.0000000E+00;  4.0000559E+04;  1.5416167E-02;  0.0000000E+00; -3.2311312E-03;  1.2276840E+02;
  5.4156089E-01;  9.9999998E-03;  3.0000862E-02;5773;  6.1977464E-03;  0.0000000E+00; -1.1411800E-04;  9.9990979E+02;  1.0002931E-01; -7.4713936E+01;3;  9.4433188E-01;  0.0000000E+00; -8.6178891E-03;0;  1.2235960E-02;  3.9965438E+04;  0.0000000E+00; -2.5017949E-02;  4.0000000E+04;  0.0000000E+00;  4.0000613E+04;  1.5453556E-02;  0.0000000E+00; -3.2175952E-03;  1.5316504E+02;
  5.4156697E-01;  9.9999998E-03;  4.0000495E-02;5774;  6.1796317E-03;  0.0000000E+00; -1.5178010E-04;  9.9990033E+02;  1.0002930E-01; -8.2565567E+01;3;  9.3328530E-01;  0.0000000E+00; -1.2895633E-02;0;  1.2300810E-02;  3.9964766E+04;  0.0000000E+00; -4.2414661E-02;  4.0000000E+04;  0.0000000E+00;  4.0000902E+04;  1.5498021E-02;  0.0000000E+00; -3.1972113E-03;  1.8581697E+02;
  5.4157317E-01;  9.9999998E-03;  4.9999591E-02;5775;  6.1472873E-03;  0.0000000E+00; -1.8984704E-04;  9.9990002E+02;  1.0002938E-01; -8.2812469E+01;3;  9.1448104E-01;  0.0000000E+00; -1.6752455E-02;0;  1.2373808E-02;  3.9964426E+04;  0.0000000E+00; -6.2053662E-02;  4.0000000E+04;  0.0000000E+00;  4.0001176E+04;  1.5542728E-02;  0.0000000E+00; -3.1689198E-03;  2.1211900E+02;
  5.4157811E-01;  9.9999998E-03;  5.9998117E-02;5776;  6.0957326E-03;  0.0000000E+00; -2.2873214E-04;  9.9990210E+02;  1.0002933E-01; -8.1084129E+01;3;  8.8982689E-01;  0.0000000E+00; -2.1332076E-02;0;  1.2448199E-02;  3.9964418E+04;  0.0000000E+00; -8.1893697E-02;  4.0000000E+04;  0.0000000E+00;  4.0001184E+04;  1.5580073E-02;  0.0000000E+00; -3.1318734E-03;  2.2391734E+02;
  5.5154741E-01;  9.9999998E-03; -1.0000052E-01;5821;  5.8715204E-03;  0.0000000E+00;  3.5840724E-04;  1.0000120E+03;  1.0004845E-01;  9.8762636E+00;3;  7.8468293E-01;  0.0000000E+00;  1.2933350E-02;0;  1.3014624E-02;  3.9960117E+04;  0.0000000E+00; -6.6275567E-02;  4.0000000E+04;  0.0000000E+00;  3.9998629E+04;  1.6033962E-02;  0.0000000E+00; -3.0193389E-03;  1.5822087E+02;
  5.5155379E-01;  9.9999998E-03; -9.0002611E-02;5822;  6.0116863E-03;  0.0000000E+00;  3.2415899E-04;  9.9996741E+02;  1.0004840E-01; -2.7011581E+01;3;  8.4192562E-01;  0.0000000E+00;  1.4828434E-02;0;  1.2883546E-02;  3.9956164E+04;  0.0000000E+00; -7.2302736E-02;  4.0000000E+04;  0.0000000E+00;  3.9999105E+04;  1.5969809E-02;  0.0000000E+00; -3.0862631E-03;  1.0774007E+02;
  5.5155557E-01;  9.9999998E-03; -8.0004334E-02;5823;  6.1237705E-03;  0.0000000E+00;  2.8623521E-04;  9.9993158E+02;  1.0004842E-01; -5.6689754E+01;3;  8.9014715E-01;  0.0000000E+00;  1.4471077E-02;0;  1.2734218E-02;  3.9952242E+04;  0.0000000E+00; -7.2330989E-02;  4.0000000E+04;  0.0000000E+00;  3.9999914E+04;  1.5882034E-02;  0.0000000E+00; -3.1478158E-03;  1.1390485E+02;
  5.5155277E-01;  9.9999998E-03; -7.0005506E-02;5824;  6.2056202E-03;  0.0000000E+00;  2.4673197E-04;  9.9989697E+02;  1.0004834E-01; -8.5380302E+01;3;  9.2729610E-01;  0.0000000E+00;  1.2308136E-02;0;  1.2571341E-02;  3.9949258E+04;  0.0000000E+00; -6.6859648E-02;  4.0000000E+04;  0.0000000E+00;  4.0000391E+04;  1.5773786E-02;  0.0000000E+00; -3.2024449E-03;  1.4141110E+02;
  5.5154645E-01;  9.9999998E-03; -6.0006142E-02;5825;  6.2595513E-03;  0.0000000E+00;  2.0809063E-04;  9.9987250E+02;  1.0004846E-01; -1.0562664E+02;3;  9.5542431E-01;  0.0000000E+00;  7.7675921E-03;0;  1.2402989E-02;  3.9947082E+04;  0.0000000E+00; -5.7029489E-02;  4.0000000E+04;  0.0000000E+00;  4.0000918E+04;  1.5651891E-02;  0.0000000E+00; -3.2489025E-03;  1.5640167E+02;
  5.5153757E-01;  9.9999998E-03; -5.0006330E-02;5826;  6.2955157E-03;  0.0000000E+00;  1.7207650E-04;  9.9985120E+02;  1.0004857E-01; -1.2330515E+02;3;  9.7354484E-01;  0.0000000E+00;  5.0757774E-03;0;  1.2238285E-02;  3.9945461E+04;  0.0000000E+00; -4.4482943E-02;  4.0000000E+04;  0.0000000E+00;  4.0000570E+04;  1.5524883E-02;  0.0000000E+00; -3.2865978E-03;  1.5165810E+02;
  5.5152810E-01;  9.9999998E-03; -4.0006019E-02;5827;  6.3198241E-03;  0.0000000E+00;  1.3737440E-04;  9.9984052E+02;  1.0004835E-01; -1.3214441E+02;3;  9.8491156E-01;  0.0000000E+00;  3.3024321E-03;0;  1.2087167E-02;  3.9944402E+04;  0.0000000E+00; -3.1084908E-02;  4.0000000E+04;  0.0000000E+00;  4.0000504E+04;  1.5402854E-02;  0.0000000E+00; -3.3156874E-03;  1.3078589E+02;
  5.5151886E-01;  9.9999998E-03; -3.0005246E-02;5828;  6.3377740E-03;  0.0000000E+00;  1.0298641E-04;  9.9983752E+02;  1.0004839E-01; -1.3461348E+02;3;  9.9157768E-01;  0.0000000E+00;  2.2470644E-03;0;  1.1958715E-02;  3.9944332E+04;  0.0000000E+00; -1.8637266E-02;  4.0000000E+04;  0.0000000E+00;  4.0000262E+04;  1.5295581E-02;  0.0000000E+00; -3.3368664E-03;  1.0150584E+02;
  5.5151099E-01;  9.9999998E-03; -2.0004086E-02;5829;  6.3511818E-03;  0.0000000E+00;  6.8880428E-05;  9.9983215E+02;  1.0004836E-01; -1.3905780E+02;3;  9.9707168E-01;  0.0000000E+00;  1.5107479E-03;0;  1.1860853E-02;  3.9944039E+04;  0.0000000E+00; -8.6481124E-03;  4.0000000E+04;  0.0000000E+00;  4.0000145E+04;  1.5211913E-02;  0.0000000E+00; -3.3510600E-03;  7.2674561E+01;
  5.5150551E-01;  9.9999998E-03; -1.0002344E-02;5830;  6.3599446E-03;  0.0000000E+00;  3.4452041E-05;  9.9982574E+02;  1.0004847E-01; -1.4439098E+02;3;  9.9969858E-01;  0.0000000E+00;  5.4602447E-04;0;  1.1799615E-02;  3.9943984E+04;  0.0000000E+00; -2.2164839E-03;  4.0000000E+04;  0.0000000E+00;  4.0000152E+04;  1.5158773E-02;  0.0000000E+00; -3.3591590E-03;  5.2109795E+01;
  5.5150348E-01;  9.9999998E-03;  1.5365242E-08;5831;  6.3626301E-03;  0.0000000E+00;  4.9267562E-08;  9.9982770E+02;  1.0004861E-01; -1.4276140E+02;3;  1.0010021E+00;  0.0000000E+00;  6.3257689E-06;0;  1.1778813E-02;  3.9944012E+04;  0.0000000E+00; -6.5586716E-12;  4.0000000E+04;  0.0000000E+00;  3.9999918E+04;  1.5140595E-02;  0.0000000E+00; -3.3617821E-03;  4.4758514E+01;
  5.5150551E-01;  9.9999998E-03;  1.0002375E-02;5832;  6.3599464E-03;  0.0000000E+00; -3.4353623E-05;  9.9982581E+02;  1.0004843E-01; -1.4429222E+02;3;  9.9969941E-01;  0.0000000E+00; -5.3357211E-04;0;  1.1799606E-02;  3.9943980E+04;  0.0000000E+00; -2.2166099E-03;  4.0000000E+04;  0.0000000E+00;  4.0000156E+04;  1.5158775E-02;  0.0000000E+00; -3.3591692E-03;  5.2101082E+01;
  5.5151099E-01;  9.9999998E-03;  2.0004118E-02;5833;  6.3511878E-03;  0.0000000E+00; -6.8782290E-05;  9.9983221E+02;  1.0004843E-01; -1.3900841E+02;3;  9.9707681E-01;  0.0000000E+00; -1.5036721E-03;0;  1.1860880E-02;  3.9944043E+04;  0.0000000E+00; -8.6481804E-03;  4.0000000E+04;  0.0000000E+00;  4.0000145E+04;  1.5211953E-02;  0.0000000E+00; -3.3510730E-03;  7.2664642E+01;
  5.5151886E-01;  9.9999998E-03;  3.0005278E-02;5834;  6.3377856E-03;  0.0000000E+00; -1.0288864E-04;  9.9983752E+02;  1.0004839E-01; -1.3461348E+02;3;  9.9158388E-01;  0.0000000E+00; -2.2418099E-03;0;  1.1958742E-02;  3.9944336E+04;  0.0000000E+00; -1.8637311E-02;  4.0000000E+04;  0.0000000E+00;  4.0000262E+04;  1.5295628E-02;  0.0000000E+00; -3.3368859E-03;  1.0150849E+02;
  5.5152810E-01;  9.9999998E-03;  4.0006049E-02;5835;  6.3198358E-03;  0.0000000E+00; -1.3727752E-04;  9.9984058E+02;  1.0004835E-01; -1.3209503E+02;3;  9.8491907E-01;  0.0000000E+00; -3.3027818E-03;0;  1.2087172E-02;  3.9944402E+04;  0.0000000E+00; -3.1084092E-02;  4.0000000E+04;  0.0000000E+00;  4.0000504E+04;  1.5402890E-02;  0.0000000E+00; -3.3157184E-03;  1.3079721E+02;
  5.5153757E-01;  9.9999998E-03;  5.0006360E-02;5836;  6.2955245E-03;  0.0000000E+00; -1.7198068E-04;  9.9985138E+02;  1.0004857E-01; -1.2310763E+02;3;  9.7355187E-01;  0.0000000E+00; -5.0801230E-03;0;  1.2238327E-02;  3.9945457E+04;  0.0000000E+00; -4.4482477E-02;  4.0000000E+04;  0.0000000E+00;  4.0000566E+04;  1.5524957E-02;  0.0000000E+00; -3.2866304E-03;  1.5164670E+02;
  5.5154645E-01;  9.9999998E-03;  6.0006171E-02;5837;  6.2595662E-03;  0.0000000E+00; -2.0799575E-04;  9.9987256E+02;  1.0004842E-01; -1.0557726E+02;3;  9.5543116E-01;  0.0000000E+00; -7.7757188E-03;0;  1.2403006E-02;  3.9947078E+04;  0.0000000E+00; -5.7029452E-02;  4.0000000E+04;  0.0000000E+00;  4.0000918E+04;  1.5651943E-02;  0.0000000E+00; -3.2489377E-03;  1.5638609E+02;
  5.6155747E-01;  9.9999998E-03; -1.0000879E-01;5882;  6.1431699E-03;  0.0000000E+00;  3.4370873E-04;  1.0001066E+03;  1.0007958E-01;  8.8293800E+01;3;  8.7713850E-01;  0.0000000E+00;  2.3541276E-03;0;  1.3295701E-02;  3.9942906E+04;  0.0000000E+00;  7.5176493E-03;  4.0000000E+04;  0.0000000E+00;  3.9998102E+04;  1.6425218E-02;  0.0000000E+00; -3.1295181E-03;  1.8068510E+02;
  5.6156373E-01;  9.9999998E-03; -9.0009823E-02;5883;  6.2419698E-03;  0.0000000E+00;  3.0368869E-04;  1.0000444E+03;  1.0007951E-01;  3.6739700E+01;3;  9.2165053E-01;  0.0000000E+00;  2.5497151E-03;0;  1.3075713E-02;  3.9937336E+04;  0.0000000E+00; -3.2110480E-03;  4.0000000E+04;  0.0000000E+00;  3.9998805E+04;  1.6273960E-02;  0.0000000E+00; -3.1982476E-03;  9.6209015E+01;
  5.6156445E-01;  9.9999998E-03; -8.0010362E-02;5884;  6.3054487E-03;  0.0000000E+00;  2.6376211E-04;  9.9998578E+02;  1.0007960E-01; -1.1802135E+01;3;  9.5934975E-01;  0.0000000E+00; -1.4082907E-03;0;  1.2840924E-02;  3.9932062E+04;  0.0000000E+00; -1.1300115E-02;  4.0000000E+04;  0.0000000E+00;  3.9999500E+04;  1.6101681E-02;  0.0000000E+00; -3.2607571E-03;  2.7545521E+01;
  5.6155962E-01;  9.9999998E-03; -7.0010349E-02;5885;  6.3404576E-03;  0.0000000E+00;  2.2703780E-04;  9.9992975E+02;  1.0007960E-01; -5.8220577E+01;3;  9.7801602E-01;  0.0000000E+00; -4.6024765E-03;0;  1.2595410E-02;  3.9927145E+04;  0.0000000E+00; -1.6041866E-02;  4.0000000E+04;  0.0000000E+00;  3.9999785E+04;  1.5911415E-02;  0.0000000E+00; -3.3160048E-03;  3.9056374E+01;
  5.6155056E-01;  9.9999998E-03; -6.0009830E-02;5886;  6.3634245E-03;  0.0000000E+00;  1.9298869E-04;  9.9988635E+02;  1.0007947E-01; -9.4170174E+01;3;  9.8971361E-01;  0.0000000E+00; -5.0252546E-03;0;  1.2346537E-02;  3.9923379E+04;  0.0000000E+00; -1.7324599E-02;  4.0000000E+04;  0.0000000E+00;  3.9999910E+04;  1.5709659E-02;  0.0000000E+00; -3.3631222E-03;  6.7900002E+01;
  5.6153899E-01;  9.9999998E-03; -5.0009020E-02;5887;  6.3788835E-03;  0.0000000E+00;  1.5976082E-04;  9.9985010E+02;  1.0007939E-01; -1.2419402E+02;3;  9.9804223E-01;  0.0000000E+00; -4.7217333E-03;0;  1.2106190E-02;  3.9920242E+04;  0.0000000E+00; -1.5677601E-02;  4.0000000E+04;  0.0000000E+00;  4.0000117E+04;  1.5507813E-02;  0.0000000E+00; -3.4016226E-03;  7.5444832E+01;
  5.6152654E-01;  9.9999998E-03; -4.0008109E-02;5888;  6.3897748E-03;  0.0000000E+00;  1.2710830E-04;  9.9982056E+02;  1.0007937E-01; -1.4868715E+02;3;  1.0039707E+00;  0.0000000E+00; -4.7325492E-03;0;  1.1887403E-02;  3.9918012E+04;  0.0000000E+00; -1.2088238E-02;  4.0000000E+04;  0.0000000E+00;  3.9999930E+04;  1.5318986E-02;  0.0000000E+00; -3.4315828E-03;  6.5067719E+01;
  5.6151462E-01;  9.9999998E-03; -3.0006960E-02;5889;  6.4004282E-03;  0.0000000E+00;  9.5107076E-05;  9.9979932E+02;  1.0007945E-01; -1.6626691E+02;3;  1.0082674E+00;  0.0000000E+00; -3.9684069E-03;0;  1.1702150E-02;  3.9916957E+04;  0.0000000E+00; -7.7388799E-03;  4.0000000E+04;  0.0000000E+00;  3.9999621E+04;  1.5155737E-02;  0.0000000E+00; -3.4535872E-03;  4.3990116E+01;
  5.6150442E-01;  9.9999998E-03; -2.0005448E-02;5890;  6.4084386E-03;  0.0000000E+00;  6.3336454E-05;  9.9978760E+02;  1.0007954E-01; -1.7599503E+02;3;  1.0119616E+00;  0.0000000E+00; -2.6890202E-03;0;  1.1561602E-02;  3.9915883E+04;  0.0000000E+00; -3.7457608E-03;  4.0000000E+04;  0.0000000E+00;  3.9999355E+04;  1.5030051E-02;  0.0000000E+00; -3.4684478E-03;  2.0678829E+01;
  5.6149697E-01;  9.9999998E-03; -1.0003294E-02;5891;  6.4145550E-03;  0.0000000E+00;  3.1413299E-05;  9.9978235E+02;  1.0007961E-01; -1.8034058E+02;3;  1.0131878E+00;  0.0000000E+00; -1.9075994E-03;0;  1.1473766E-02;  3.9915188E+04;  0.0000000E+00; -9.8314311E-04;  4.0000000E+04;  0.0000000E+00;  3.9999277E+04;  1.4950728E-02;  0.0000000E+00; -3.4769629E-03;  2.9555199E+00;
  5.6149405E-01;  9.9999998E-03;  1.5782753E-08;5892;  6.4173313E-03;  0.0000000E+00;  4.9433929E-08;  9.9977704E+02;  1.0007939E-01; -1.8473552E+02;3;  1.0134974E+00;  0.0000000E+00;  6.2179183E-06;0;  1.1443802E-02;  3.9915141E+04;  0.0000000E+00; -6.8477632E-12;  4.0000000E+04;  0.0000000E+00;  3.9999234E+04;  1.4923529E-02;  0.0000000E+00; -3.4797268E-03;  3.8815534E+00;
  5.6149697E-01;  9.9999998E-03;  1.0003326E-02;5893;  6.4145592E-03;  0.0000000E+00; -3.1314306E-05;  9.9978235E+02;  1.0007961E-01; -1.8034058E+02;3;  1.0131919E+00;  0.0000000E+00;  1.9200468E-03;0;  1.1473750E-02;  3.9915184E+04;  0.0000000E+00; -9.8321645E-04;  4.0000000E+04;  0.0000000E+00;  3.9999277E+04;  1.4950718E-02;  0.0000000E+00; -3.4769680E-03;  2.9508555E+00;
  5.6150442E-01;  9.9999998E-03;  2.0005479E-02;5894;  6.4084483E-03;  0.0000000E+00; -6.3237174E-05;  9.9978754E+02;  1.0007954E-01; -1.7604440E+02;3;  1.0119662E+00;  0.0000000E+00;  2.6981952E-03;0;  1.1561623E-02;  3.9915871E+04;  0.0000000E+00; -3.7460343E-03;  4.0000000E+04;  0.0000000E+00;  3.9999359E+04;  1.5030078E-02;  0.0000000E+00; -3.4684548E-03;  2.0675203E+01;
  5.6151462E-01;  9.9999998E-03;  3.0006992E-02;5895;  6.4004390E-03;  0.0000000E+00; -9.5008196E-05;  9.9979932E+02;  1.0007945E-01; -1.6626691E+02;3;  1.0082744E+00;  0.0000000E+00;  3.9738491E-03;0;  1.1702176E-02;  3.9916957E+04;  0.0000000E+00; -7.7398592E-03;  4.0000000E+04;  0.0000000E+00;  3.9999621E+04;  1.5155777E-02;  0.0000000E+00; -3.4536014E-03;  4.3977676E+01;
  5.6152654E-01;  9.9999998E-03;  4.0008139E-02;5896;  6.3897902E-03;  0.0000000E+00; -1.2700967E-04;  9.9982056E+02;  1.0007937E-01; -1.4868715E+02;3;  1.0039802E+00;  0.0000000E+00;  4.7338330E-03;0;  1.1887415E-02;  3.9918008E+04;  0.0000000E+00; -1.2088737E-02;  4.0000000E+04;  0.0000000E+00;  3.9999930E+04;  1.5319025E-02;  0.0000000E+00; -3.4316101E-03;  6.5064362E+01;
  5.6153899E-01;  9.9999998E-03;  5.0009053E-02;5897;  6.3789021E-03;  0.0000000E+00; -1.5966296E-04;  9.9985010E+02;  1.0007939E-01; -1.2419402E+02;3;  9.9804968E-01;  0.0000000E+00;  4.7186599E-03;0;  1.2106227E-02;  3.9920246E+04;  0.0000000E+00; -1.5677569E-02;  4.0000000E+04;  0.0000000E+00;  4.0000113E+04;  1.5507876E-02;  0.0000000E+00; -3.4016494E-03;  7.5438667E+01;
  5.6155056E-01;  9.9999998E-03;  6.0009860E-02;5898;  6.3634454E-03;  0.0000000E+00; -1.9289181E-04;  9.9988635E+02;  1.0007951E-01; -9.4170174E+01;3;  9.8972374E-01;  0.0000000E+00;  5.0173830E-03;0;  1.2346556E-02;  3.9923375E+04;  0.0000000E+00; -1.7324409E-02;  4.0000000E+04;  0.0000000E+00;  3.9999910E+04;  1.5709709E-02;  0.0000000E+00; -3.3631527E-03;  6.7899200E+01;
  5.7160866E-01;  9.9999998E-03; -1.0000798E-01;5943;  6.4065233E-03;  0.0000000E+00;  3.2578304E-04;  1.0002282E+03;  1.0013086E-01;  1.8903169E+02;3;  9.6741915E-01;  0.0000000E+00; -1.2322652E-02;0;  1.3540647E-02;  3.9912359E+04;  0.0000000E+00;  9.1676779E-02;  4.0000000E+04;  0.0000000E+00;  3.9997609E+04;  1.6777186E-02;  0.0000000E+00; -3.2365390E-03;  2.6138116E+02;
  5.7161999E-01;  9.9999998E-03; -9.0007879E-02;5944;  6.4292192E-03;  0.0000000E+00;  2.8930680E-04;  1.0001514E+03;  1.0013097E-01;  1.2542855E+02;3;  9.8808748E-01;  0.0000000E+00; -1.4778969E-02;0;  1.3280472E-02;  3.9905371E+04;  0.0000000E+00;  7.7680819E-02;  4.0000000E+04;  0.0000000E+00;  3.9997988E+04;  1.6588615E-02;  0.0000000E+00; -3.3081430E-03;  1.9083508E+02;
  5.7162505E-01;  9.9999998E-03; -8.0007374E-02;5945;  6.4360509E-03;  0.0000000E+00;  2.5451367E-04;  1.0000754E+03;  1.0013099E-01;  6.2417988E+01;3;  9.9503428E-01;  0.0000000E+00; -1.4971170E-02;0;  1.3003690E-02;  3.9899094E+04;  0.0000000E+00;  6.1827183E-02;  4.0000000E+04;  0.0000000E+00;  3.9998539E+04;  1.6376261E-02;  0.0000000E+00; -3.3725707E-03;  1.2607113E+02;
  5.7162428E-01;  9.9999998E-03; -7.0006512E-02;5946;  6.4386320E-03;  0.0000000E+00;  2.2128255E-04;  1.0000034E+03;  1.0013084E-01;  2.8641164E+00;3;  1.0004808E+00;  0.0000000E+00; -1.3807594E-02;0;  1.2712039E-02;  3.9893227E+04;  0.0000000E+00;  4.6115268E-02;  4.0000000E+04;  0.0000000E+00;  3.9998531E+04;  1.6141286E-02;  0.0000000E+00; -3.4292471E-03;  7.6387611E+01;
  5.7161790E-01;  9.9999998E-03; -6.0005486E-02;5947;  6.4361235E-03;  0.0000000E+00;  1.8828416E-04;  9.9994336E+02;  1.0013077E-01; -4.6912254E+01;3;  1.0060308E+00;  0.0000000E+00; -1.2217869E-02;0;  1.2415496E-02;  3.9887809E+04;  0.0000000E+00;  3.2119531E-02;  4.0000000E+04;  0.0000000E+00;  3.9999070E+04;  1.5893126E-02;  0.0000000E+00; -3.4776300E-03;  4.6648872E+01;
  5.7160759E-01;  9.9999998E-03; -5.0004493E-02;5948;  6.4322436E-03;  0.0000000E+00;  1.5566457E-04;  9.9989026E+02;  1.0013092E-01; -9.0911011E+01;3;  1.0084127E+00;  0.0000000E+00; -1.0377731E-02;0;  1.2127308E-02;  3.9883469E+04;  0.0000000E+00;  2.0743906E-02;  4.0000000E+04;  0.0000000E+00;  3.9999152E+04;  1.5644711E-02;  0.0000000E+00; -3.5174026E-03;  3.1616158E+01;
  5.7159477E-01;  9.9999998E-03; -4.0003818E-02;5949;  6.4297132E-03;  0.0000000E+00;  1.2382009E-04;  9.9984778E+02;  1.0013068E-01; -1.2611989E+02;3;  1.0094014E+00;  0.0000000E+00; -9.1693075E-03;0;  1.1862870E-02;  3.9880406E+04;  0.0000000E+00;  1.2231797E-02;  4.0000000E+04;  0.0000000E+00;  3.9998988E+04;  1.5411492E-02;  0.0000000E+00; -3.5486224E-03;  1.9140480E+01;
  5.7158196E-01;  9.9999998E-03; -3.0003428E-02;5950;  6.4291460E-03;  0.0000000E+00;  9.2352973E-05;  9.9981604E+02;  1.0013074E-01; -1.5239075E+02;3;  1.0125717E+00;  0.0000000E+00; -6.8075699E-03;0;  1.1637847E-02;  3.9877848E+04;  0.0000000E+00;  6.3496674E-03;  4.0000000E+04;  0.0000000E+00;  3.9999125E+04;  1.5209605E-02;  0.0000000E+00; -3.5717578E-03;  1.1243452E+01;
  5.7157075E-01;  9.9999998E-03; -2.0003147E-02;5951;  6.4313882E-03;  0.0000000E+00;  6.0989994E-05;  9.9979370E+02;  1.0013067E-01; -1.7090875E+02;3;  1.0130603E+00;  0.0000000E+00; -5.1637152E-03;0;  1.1465814E-02;  3.9876332E+04;  0.0000000E+00;  2.6369654E-03;  4.0000000E+04;  0.0000000E+00;  3.9998727E+04;  1.5053328E-02;  0.0000000E+00; -3.5875142E-03;  2.3755005E+01;
  5.7156247E-01;  9.9999998E-03; -1.0002381E-02;5952;  6.4335731E-03;  0.0000000E+00;  3.0471329E-05;  9.9978552E+02;  1.0013087E-01; -1.7767398E+02;3;  1.0146443E+00;  0.0000000E+00; -2.3757089E-03;0;  1.1357982E-02;  3.9875305E+04;  0.0000000E+00;  6.2998512E-04;  4.0000000E+04;  0.0000000E+00;  3.9998703E+04;  1.4954587E-02;  0.0000000E+00; -3.5966053E-03;  3.7285450E+01;
  5.7155925E-01;  9.9999998E-03;  1.6123693E-08;5953;  6.4344504E-03;  0.0000000E+00;  4.8981626E-08;  9.9977917E+02;  1.0013071E-01; -1.8295779E+02;3;  1.0151061E+00;  0.0000000E+00;  7.5800135E-06;0;  1.1321269E-02;  3.9875051E+04;  0.0000000E+00; -1.1321073E-11;  4.0000000E+04;  0.0000000E+00;  3.9998613E+04;  1.4920836E-02;  0.0000000E+00; -3.5995676E-03;  4.2544788E+01;
  5.7156247E-01;  9.9999998E-03;  1.0002414E-02;5954;  6.4335801E-03;  0.0000000E+00; -3.0373052E-05;  9.9978540E+02;  1.0013088E-01; -1.7777275E+02;3;  1.0146455E+00;  0.0000000E+00;  2.3905693E-03;0;  1.1357987E-02;  3.9875305E+04;  0.0000000E+00;  6.2973279E-04;  4.0000000E+04;  0.0000000E+00;  3.9998703E+04;  1.4954596E-02;  0.0000000E+00; -3.5966081E-03;  3.7284733E+01;
  5.7157075E-01;  9.9999998E-03;  2.0003181E-02;5955;  6.4313943E-03;  0.0000000E+00; -6.0891529E-05;  9.9979370E+02;  1.0013067E-01; -1.7090875E+02;3;  1.0130693E+00;  0.0000000E+00;  5.1739109E-03;0;  1.1465821E-02;  3.9876332E+04;  0.0000000E+00;  2.6366734E-03;  4.0000000E+04;  0.0000000E+00;  3.9998727E+04;  1.5053342E-02;  0.0000000E+00; -3.5875209E-03;  2.3746939E+01;
  5.7158196E-01;  9.9999998E-03;  3.0003460E-02;5956;  6.4291554E-03;  0.0000000E+00; -9.2254028E-05;  9.9981604E+02;  1.0013074E-01; -1.5239075E+02;3;  1.0125793E+00;  0.0000000E+00;  6.8151765E-03;0;  1.1637841E-02;  3.9877836E+04;  0.0000000E+00;  6.3489941E-03;  4.0000000E+04;  0.0000000E+00;  3.9999125E+04;  1.5209610E-02;  0.0000000E+00; -3.5717681E-03;  1.1236851E+01;
  5.7159477E-01;  9.9999998E-03;  4.0003851E-02;5957;  6.4297286E-03;  0.0000000E+00; -1.2372123E-04;  9.9984772E+02;  1.0013068E-01; -1.2616927E+02;3;  1.0094070E+00;  0.0000000E+00;  9.1720270E-03;0;  1.1862881E-02;  3.9880426E+04;  0.0000000E+00;  1.2230933E-02;  4.0000000E+04;  0.0000000E+00;  3.9998988E+04;  1.5411519E-02;  0.0000000E+00; -3.5486366E-03;  1.9139013E+01;
  5.7160759E-01;  9.9999998E-03;  5.0004527E-02;5958;  6.4322716E-03;  0.0000000E+00; -1.5556553E-04;  9.9989008E+02;  1.0013079E-01; -9.1059151E+01;3;  1.0084193E+00;  0.0000000E+00;  1.0375202E-02;0;  1.2127331E-02;  3.9883473E+04;  0.0000000E+00;  2.0741595E-02;  4.0000000E+04;  0.0000000E+00;  3.9999152E+04;  1.5644755E-02;  0.0000000E+00; -3.5174240E-03;  3.1614594E+01;
  5.7161790E-01;  9.9999998E-03;  6.0005520E-02;5959;  6.4361482E-03;  0.0000000E+00; -1.8818605E-04;  9.9994330E+02;  1.0013077E-01; -4.6961636E+01;3;  1.0060441E+00;  0.0000000E+00;  1.2211362E-02;0;  1.2415536E-02;  3.9887809E+04;  0.0000000E+00;  3.2115862E-02;  4.0000000E+04;  0.0000000E+00;  3.9999066E+04;  1.5893191E-02;  0.0000000E+00; -3.4776556E-03;  4.6644135E+01;
  5.8167702E-01;  9.9999998E-03; -1.0000356E-01;6004;  6.5743905E-03;  0.0000000E+00;  3.2996936E-04;  1.0003138E+03;  1.0021400E-01;  2.5994327E+02;3;  1.0098158E+00;  0.0000000E+00; -2.2899887E-02;0;  1.3852604E-02;  3.9854441E+04;  0.0000000E+00;  1.6950311E-01;  4.0000000E+04;  0.0000000E+00;  3.9996723E+04;  1.7195627E-02;  0.0000000E+00; -3.3430231E-03;  3.4949005E+02;
  5.8170277E-01;  9.9999998E-03; -9.0001717E-02;6005;  6.5625934E-03;  0.0000000E+00;  2.9574297E-04;  1.0002313E+03;  1.0021414E-01;  1.9159952E+02;3;  1.0114096E+00;  0.0000000E+00; -2.2095997E-02;0;  1.3596239E-02;  3.9847305E+04;  0.0000000E+00;  1.5474053E-01;  4.0000000E+04;  0.0000000E+00;  3.9997090E+04;  1.7014787E-02;  0.0000000E+00; -3.4185476E-03;  2.9387137E+02;
  5.8172083E-01;  9.9999998E-03; -7.9999752E-02;6006;  6.5471041E-03;  0.0000000E+00;  2.6143581E-04;  1.0001479E+03;  1.0021397E-01;  1.2256444E+02;3;  1.0145752E+00;  0.0000000E+00; -1.9940818E-02;0;  1.3320456E-02;  3.9840379E+04;  0.0000000E+00;  1.3325185E-01;  4.0000000E+04;  0.0000000E+00;  3.9997715E+04;  1.6806373E-02;  0.0000000E+00; -3.4859169E-03;  2.3457153E+02;
  5.8172971E-01;  9.9999998E-03; -6.9997996E-02;6007;  6.5246476E-03;  0.0000000E+00;  2.2677309E-04;  1.0000718E+03;  1.0021388E-01;  5.9455109E+01;3;  1.0139375E+00;  0.0000000E+00; -1.8001124E-02;0;  1.3027111E-02;  3.9834305E+04;  0.0000000E+00;  1.0810978E-01;  4.0000000E+04;  0.0000000E+00;  3.9997805E+04;  1.6571969E-02;  0.0000000E+00; -3.5448573E-03;  1.7863501E+02;
  5.8172995E-01;  9.9999998E-03; -5.9996698E-02;6008;  6.4993785E-03;  0.0000000E+00;  1.9206993E-04;  1.0000010E+03;  1.0021403E-01;  8.8886374E-01;3;  1.0133873E+00;  0.0000000E+00; -1.6117532E-02;0;  1.2723675E-02;  3.9828176E+04;  0.0000000E+00;  8.2291327E-02;  4.0000000E+04;  0.0000000E+00;  3.9998219E+04;  1.6318841E-02;  0.0000000E+00; -3.5951659E-03;  1.3036487E+02;
  5.8172345E-01;  9.9999998E-03; -4.9996056E-02;6009;  6.4760386E-03;  0.0000000E+00;  1.5882807E-04;  9.9994141E+02;  1.0021371E-01; -4.8541836E+01;3;  1.0137546E+00;  0.0000000E+00; -1.3634338E-02;0;  1.2423350E-02;  3.9823238E+04;  0.0000000E+00;  5.8219630E-02;  4.0000000E+04;  0.0000000E+00;  3.9998102E+04;  1.6060105E-02;  0.0000000E+00; -3.6367548E-03;  9.1596748E+01;
  5.8171213E-01;  9.9999998E-03; -3.9996281E-02;6010;  6.4585134E-03;  0.0000000E+00;  1.2633244E-04;  9.9988885E+02;  1.0021380E-01; -9.2096161E+01;3;  1.0136621E+00;  0.0000000E+00; -1.0443982E-02;0;  1.2142939E-02;  3.9819281E+04;  0.0000000E+00;  3.7527911E-02;  4.0000000E+04;  0.0000000E+00;  3.9998125E+04;  1.5812671E-02;  0.0000000E+00; -3.6697313E-03;  6.3658176E+01;
  5.8169919E-01;  9.9999998E-03; -2.9997285E-02;6011;  6.4471876E-03;  0.0000000E+00;  9.3468465E-05;  9.9984729E+02;  1.0021389E-01; -1.2651494E+02;3;  1.0113624E+00;  0.0000000E+00; -8.8261142E-03;0;  1.1900843E-02;  3.9816301E+04;  0.0000000E+00;  2.1120425E-02;  4.0000000E+04;  0.0000000E+00;  3.9998086E+04;  1.5595308E-02;  0.0000000E+00; -3.6944647E-03;  5.0628960E+01;
  5.8168781E-01;  9.9999998E-03; -1.9998834E-02;6012;  6.4412034E-03;  0.0000000E+00;  6.1997947E-05;  9.9982410E+02;  1.0021383E-01; -1.4572427E+02;3;  1.0137590E+00;  0.0000000E+00; -5.6491899E-03;0;  1.1714092E-02;  3.9814242E+04;  0.0000000E+00;  9.3660699E-03;  4.0000000E+04;  0.0000000E+00;  3.9998074E+04;  1.5425605E-02;  0.0000000E+00; -3.7115123E-03;  5.3532082E+01;
  5.8167964E-01;  9.9999998E-03; -1.0000196E-02;6013;  6.4391028E-03;  0.0000000E+00;  3.0555711E-05;  9.9980463E+02;  1.0021370E-01; -1.6187196E+02;3;  1.0139891E+00;  0.0000000E+00; -2.4590613E-03;0;  1.1596064E-02;  3.9812816E+04;  0.0000000E+00;  2.3363694E-03;  4.0000000E+04;  0.0000000E+00;  3.9997852E+04;  1.5317509E-02;  0.0000000E+00; -3.7214446E-03;  6.1782803E+01;
  5.8167648E-01;  9.9999998E-03;  1.6402604E-08;6014;  6.4389501E-03;  0.0000000E+00;  4.8233840E-08;  9.9979883E+02;  1.0021380E-01; -1.6666196E+02;3;  1.0120178E+00;  0.0000000E+00;  9.4799634E-06;0;  1.1555606E-02;  3.9812488E+04;  0.0000000E+00; -1.2254067E-11;  4.0000000E+04;  0.0000000E+00;  3.9997926E+04;  1.5280311E-02;  0.0000000E+00; -3.7247040E-03;  6.5590294E+01;
  5.8167964E-01;  9.9999998E-03;  1.0000229E-02;6015;  6.4391047E-03;  0.0000000E+00; -3.0458730E-05;  9.9980463E+02;  1.0021370E-01; -1.6187196E+02;3;  1.0139890E+00;  0.0000000E+00;  2.4770063E-03;0;  1.1596068E-02;  3.9812812E+04;  0.0000000E+00;  2.3359424E-03;  4.0000000E+04;  0.0000000E+00;  3.9997855E+04;  1.5317515E-02;  0.0000000E+00; -3.7214474E-03;  6.1778263E+01;
  5.8168781E-01;  9.9999998E-03;  1.9998867E-02;6016;  6.4412081E-03;  0.0000000E+00; -6.1900566E-05;  9.9982410E+02;  1.0021383E-01; -1.4572427E+02;3;  1.0137591E+00;  0.0000000E+00;  5.6637307E-03;0;  1.1714078E-02;  3.9814242E+04;  0.0000000E+00;  9.3656760E-03;  4.0000000E+04;  0.0000000E+00;  3.9998074E+04;  1.5425597E-02;  0.0000000E+00; -3.7115191E-03;  5.3520607E+01;
  5.8169913E-01;  9.9999998E-03;  2.9997319E-02;6017;  6.4471951E-03;  0.0000000E+00; -9.3370603E-05;  9.9984729E+02;  1.0021389E-01; -1.2651494E+02;3;  1.0113690E+00;  0.0000000E+00;  8.8369176E-03;0;  1.1900859E-02;  3.9816301E+04;  0.0000000E+00;  2.1119297E-02;  4.0000000E+04;  0.0000000E+00;  3.9998086E+04;  1.5595338E-02;  0.0000000E+00; -3.6944798E-03;  5.0627415E+01;
  5.8171213E-01;  9.9999998E-03;  3.9996311E-02;6018;  6.4585241E-03;  0.0000000E+00; -1.2623436E-04;  9.9988885E+02;  1.0021380E-01; -9.2096161E+01;3;  1.0136718E+00;  0.0000000E+00;  1.0447565E-02;0;  1.2142958E-02;  3.9819281E+04;  0.0000000E+00;  3.7525877E-02;  4.0000000E+04;  0.0000000E+00;  3.9998129E+04;  1.5812701E-02;  0.0000000E+00; -3.6697427E-03;  6.3657097E+01;
  5.8172345E-01;  9.9999998E-03;  4.9996089E-02;6019;  6.4760530E-03;  0.0000000E+00; -1.5873001E-04;  9.9994141E+02;  1.0021371E-01; -4.8541836E+01;3;  1.0137609E+00;  0.0000000E+00;  1.3632190E-02;0;  1.2423364E-02;  3.9823238E+04;  0.0000000E+00;  5.8216501E-02;  4.0000000E+04;  0.0000000E+00;  3.9998102E+04;  1.6060138E-02;  0.0000000E+00; -3.6367746E-03;  9.1589775E+01;
  5.8172995E-01;  9.9999998E-03;  5.9996732E-02;6020;  6.4993948E-03;  0.0000000E+00; -1.9197210E-04;  1.0000010E+03;  1.0021403E-01;  8.8886374E-01;3;  1.0133929E+00;  0.0000000E+00;  1.6110130E-02;0;  1.2723681E-02;  3.9828180E+04;  0.0000000E+00;  8.2289524E-02;  4.0000000E+04;  0.0000000E+00;  3.9998219E+04;  1.6318867E-02;  0.0000000E+00; -3.5951859E-03;  1.3036621E+02;
  5.9173089E-01;  9.9999998E-03; -9.9999718E-02;6065;  6.7039272E-03;  0.0000000E+00;  3.5252058E-04;  1.0002969E+03;  1.0034835E-01;  2.4591898E+02;3;  1.0274309E+00;  0.0000000E+00; -2.4974139E-02;0;  1.4305518E-02;  3.9749102E+04;  0.0000000E+00;  2.2146228E-01;  4.0000000E+04;  0.0000000E+00;  3.9995828E+04;  1.7757846E-02;  0.0000000E+00; -3.4523283E-03;  4.0362607E+02;
  5.9176797E-01;  9.9999998E-03; -8.9997545E-02;6066;  6.6833338E-03;  0.0000000E+00;  3.1581009E-04;  1.0002231E+03;  1.0034798E-01;  1.8478490E+02;3;  1.0278363E+00;  0.0000000E+00; -2.2742022E-02;0;  1.4093582E-02;  3.9742680E+04;  0.0000000E+00;  2.0915104E-01;  4.0000000E+04;  0.0000000E+00;  3.9995898E+04;  1.7625708E-02;  0.0000000E+00; -3.5321263E-03;  3.6009644E+02;
  5.9179753E-01;  9.9999998E-03; -7.9995707E-02;6067;  6.6546476E-03;  0.0000000E+00;  2.7764929E-04;  1.0001431E+03;  1.0034810E-01;  1.1861393E+02;3;  1.0290593E+00;  0.0000000E+00; -2.0889323E-02;0;  1.3861826E-02;  3.9736211E+04;  0.0000000E+00;  1.8595459E-01;  4.0000000E+04;  0.0000000E+00;  3.9996578E+04;  1.7464736E-02;  0.0000000E+00; -3.6029108E-03;  3.0595944E+02;
  5.9181774E-01;  9.9999998E-03; -6.9993958E-02;6068;  6.6129672E-03;  0.0000000E+00;  2.3956041E-04;  1.0000675E+03;  1.0034806E-01;  5.5899654E+01;3;  1.0257533E+00;  0.0000000E+00; -1.9931145E-02;0;  1.3609017E-02;  3.9729938E+04;  0.0000000E+00;  1.5550004E-01;  4.0000000E+04;  0.0000000E+00;  3.9996777E+04;  1.7273610E-02;  0.0000000E+00; -3.6645932E-03;  2.4768268E+02;
  5.9182620E-01;  9.9999998E-03; -5.9992619E-02;6069;  6.5676840E-03;  0.0000000E+00;  2.0324961E-04;  9.9999670E+02;  1.0034783E-01; -2.7159727E+00;3;  1.0217109E+00;  0.0000000E+00; -1.7250920E-02;0;  1.3338505E-02;  3.9724355E+04;  0.0000000E+00;  1.2173964E-01;  4.0000000E+04;  0.0000000E+00;  3.9996973E+04;  1.7055759E-02;  0.0000000E+00; -3.7172537E-03;  1.9056807E+02;
  5.9182441E-01;  9.9999998E-03; -4.9992085E-02;6070;  6.5228539E-03;  0.0000000E+00;  1.6712928E-04;  9.9993036E+02;  1.0034808E-01; -5.7677380E+01;3;  1.0184487E+00;  0.0000000E+00; -1.4512077E-02;0;  1.3062719E-02;  3.9719316E+04;  0.0000000E+00;  8.8335663E-02;  4.0000000E+04;  0.0000000E+00;  3.9997277E+04;  1.6823832E-02;  0.0000000E+00; -3.7611129E-03;  1.3908920E+02;
  5.9181583E-01;  9.9999998E-03; -3.9992645E-02;6071;  6.4865248E-03;  0.0000000E+00;  1.3260091E-04;  9.9988190E+02;  1.0034766E-01; -9.7824394E+01;3;  1.0137124E+00;  0.0000000E+00; -1.1937662E-02;0;  1.2798099E-02;  3.9715312E+04;  0.0000000E+00;  5.8193818E-02;  4.0000000E+04;  0.0000000E+00;  3.9997113E+04;  1.6594443E-02;  0.0000000E+00; -3.7963446E-03;  9.7471001E+01;
  5.9180409E-01;  9.9999998E-03; -2.9994089E-02;6072;  6.4622122E-03;  0.0000000E+00;  9.8973040E-05;  9.9983997E+02;  1.0034752E-01; -1.3258884E+02;3;  1.0149395E+00;  0.0000000E+00; -8.6525381E-03;0;  1.2564169E-02;  3.9712102E+04;  0.0000000E+00;  3.3331897E-02;  4.0000000E+04;  0.0000000E+00;  3.9997230E+04;  1.6387371E-02;  0.0000000E+00; -3.8232023E-03;  7.0924622E+01;
  5.9179270E-01;  9.9999998E-03; -1.9996237E-02;6073;  6.4465390E-03;  0.0000000E+00;  6.4822547E-05;  9.9980933E+02;  1.0034764E-01; -1.5797084E+02;3;  1.0114399E+00;  0.0000000E+00; -6.3715577E-03;0;  1.2380896E-02;  3.9709891E+04;  0.0000000E+00;  1.4972419E-02;  4.0000000E+04;  0.0000000E+00;  3.9997148E+04;  1.6222900E-02;  0.0000000E+00; -3.8420032E-03;  6.3039280E+01;
  5.9178442E-01;  9.9999998E-03; -9.9985311E-03;6074;  6.4398339E-03;  0.0000000E+00;  3.2471966E-05;  9.9979279E+02;  1.0034753E-01; -1.7164946E+02;3;  1.0128332E+00;  0.0000000E+00; -2.5010004E-03;0;  1.2263673E-02;  3.9708457E+04;  0.0000000E+00;  3.7641157E-03;  4.0000000E+04;  0.0000000E+00;  3.9997035E+04;  1.6116766E-02;  0.0000000E+00; -3.8530929E-03;  6.6205719E+01;
  5.9178126E-01;  9.9999998E-03;  1.6812125E-08;6075;  6.4374842E-03;  0.0000000E+00;  4.7807422E-08;  9.9978741E+02;  1.0034761E-01; -1.7614317E+02;3;  1.0135967E+00;  0.0000000E+00;  1.0896561E-05;0;  1.2223468E-02;  3.9708016E+04;  0.0000000E+00; -1.4120512E-11;  4.0000000E+04;  0.0000000E+00;  3.9996957E+04;  1.6080221E-02;  0.0000000E+00; -3.8567528E-03;  6.8718437E+01;
  5.9178442E-01;  9.9999998E-03;  9.9985646E-03;6076;  6.4398302E-03;  0.0000000E+00; -3.2376563E-05;  9.9979291E+02;  1.0034746E-01; -1.7155070E+02;3;  1.0128340E+00;  0.0000000E+00;  2.5227508E-03;0;  1.2263659E-02;  3.9708457E+04;  0.0000000E+00;  3.7638077E-03;  4.0000000E+04;  0.0000000E+00;  3.9997039E+04;  1.6116759E-02;  0.0000000E+00; -3.8530992E-03;  6.6215424E+01;
  5.9179270E-01;  9.9999998E-03;  1.9996271E-02;6077;  6.4465366E-03;  0.0000000E+00; -6.4726759E-05;  9.9980945E+02;  1.0034756E-01; -1.5787209E+02;3;  1.0114428E+00;  0.0000000E+00;  6.3897525E-03;0;  1.2380915E-02;  3.9709891E+04;  0.0000000E+00;  1.4971756E-02;  4.0000000E+04;  0.0000000E+00;  3.9997148E+04;  1.6222918E-02;  0.0000000E+00; -3.8420036E-03;  6.3036892E+01;
  5.9180409E-01;  9.9999998E-03;  2.9994125E-02;6078;  6.4622140E-03;  0.0000000E+00; -9.8876772E-05;  9.9984003E+02;  1.0034752E-01; -1.3253946E+02;3;  1.0149448E+00;  0.0000000E+00;  8.6640539E-03;0;  1.2564166E-02;  3.9712105E+04;  0.0000000E+00;  3.3330400E-02;  4.0000000E+04;  0.0000000E+00;  3.9997230E+04;  1.6387371E-02;  0.0000000E+00; -3.8232056E-03;  7.0931290E+01;
  5.9181583E-01;  9.9999998E-03;  3.9992679E-02;6079;  6.4865365E-03;  0.0000000E+00; -1.3250428E-04;  9.9988184E+02;  1.0034766E-01; -9.7873772E+01;3;  1.0137200E+00;  0.0000000E+00;  1.1943184E-02;0;  1.2798090E-02;  3.9715312E+04;  0.0000000E+00;  5.8191616E-02;  4.0000000E+04;  0.0000000E+00;  3.9997113E+04;  1.6594440E-02;  0.0000000E+00; -3.7963497E-03;  9.7469406E+01;
  5.9182441E-01;  9.9999998E-03;  4.9992118E-02;6080;  6.5228646E-03;  0.0000000E+00; -1.6703249E-04;  9.9993036E+02;  1.0034808E-01; -5.7677380E+01;3;  1.0184535E+00;  0.0000000E+00;  1.4510494E-02;0;  1.3062730E-02;  3.9719312E+04;  0.0000000E+00;  8.8332459E-02;  4.0000000E+04;  0.0000000E+00;  3.9997273E+04;  1.6823851E-02;  0.0000000E+00; -3.7611208E-03;  1.3908904E+02;
  5.9182620E-01;  9.9999998E-03;  5.9992652E-02;6081;  6.5677045E-03;  0.0000000E+00; -2.0315280E-04;  9.9999664E+02;  1.0034789E-01; -2.7653539E+00;3;  1.0217209E+00;  0.0000000E+00;  1.7242065E-02;0;  1.3338526E-02;  3.9724344E+04;  0.0000000E+00;  1.2173774E-01;  4.0000000E+04;  0.0000000E+00;  3.9996969E+04;  1.7055793E-02;  0.0000000E+00; -3.7172672E-03;  1.9056796E+02;
  6.0174310E-01;  9.9999998E-03; -1.0000069E-01;6126;  6.8188538E-03;  0.0000000E+00;  3.8095255E-04;  1.0001355E+03;  1.0056186E-01;  1.1229312E+02;3;  1.0432385E+00;  0.0000000E+00; -2.2791049E-02;0;  1.4950873E-02;  3.9570703E+04;  0.0000000E+00;  2.3019207E-01;  4.0000000E+04;  0.0000000E+00;  3.9994645E+04;  1.8518178E-02;  0.0000000E+00; -3.5673047E-03;  3.9721710E+02;
  6.0178077E-01;  9.9999998E-03; -9.0000749E-02;6127;  6.8009426E-03;  0.0000000E+00;  3.4046144E-04;  1.0000681E+03;  1.0056183E-01;  5.6393467E+01;3;  1.0436397E+00;  0.0000000E+00; -2.1822378E-02;0;  1.4812807E-02;  3.9565039E+04;  0.0000000E+00;  2.2415507E-01;  4.0000000E+04;  0.0000000E+00;  3.9994727E+04;  1.8463647E-02;  0.0000000E+00; -3.6508408E-03;  3.6546094E+02;
  6.0181046E-01;  9.9999998E-03; -8.0001086E-02;6128;  6.7677707E-03;  0.0000000E+00;  2.9934259E-04;  9.9999774E+02;  1.0056185E-01; -1.8764901E+00;3;  1.0420923E+00;  0.0000000E+00; -2.1143766E-02;0;  1.4654906E-02;  3.9559633E+04;  0.0000000E+00;  2.0468104E-01;  4.0000000E+04;  0.0000000E+00;  3.9995375E+04;  1.8379668E-02;  0.0000000E+00; -3.7247622E-03;  3.2030087E+02;
  6.0183126E-01;  9.9999998E-03; -7.0000902E-02;6129;  6.7129298E-03;  0.0000000E+00;  2.5755574E-04;  9.9993005E+02;  1.0056146E-01; -5.7973667E+01;3;  1.0410053E+00;  0.0000000E+00; -1.8692445E-02;0;  1.4472768E-02;  3.9554215E+04;  0.0000000E+00;  1.7521727E-01;  4.0000000E+04;  0.0000000E+00;  3.9995633E+04;  1.8261854E-02;  0.0000000E+00; -3.7890861E-03;  2.6682706E+02;
  6.0184318E-01;  9.9999998E-03; -5.9999943E-02;6130;  6.6446275E-03;  0.0000000E+00;  2.1770333E-04;  9.9986633E+02;  1.0056137E-01; -1.1076230E+02;3;  1.0314735E+00;  0.0000000E+00; -1.6400184E-02;0;  1.4267246E-02;  3.9549496E+04;  0.0000000E+00;  1.4002222E-01;  4.0000000E+04;  0.0000000E+00;  3.9995816E+04;  1.8111419E-02;  0.0000000E+00; -3.8441729E-03;  2.0998857E+02;
  6.0184723E-01;  9.9999998E-03; -4.9998328E-02;6131;  6.5800268E-03;  0.0000000E+00;  1.8013061E-04;  9.9981555E+02;  1.0056134E-01; -1.5283519E+02;3;  1.0246366E+00;  0.0000000E+00; -1.4658410E-02;0;  1.4045310E-02;  3.9545660E+04;  0.0000000E+00;  1.0339803E-01;  4.0000000E+04;  0.0000000E+00;  3.9995727E+04;  1.7935842E-02;  0.0000000E+00; -3.8905321E-03;  1.5459531E+02;
  6.0184419E-01;  9.9999998E-03; -3.9996788E-02;6132;  6.5217661E-03;  0.0000000E+00;  1.4335643E-04;  9.9976801E+02;  1.0056116E-01; -1.9219209E+02;3;  1.0170317E+00;  0.0000000E+00; -1.1058928E-02;0;  1.3824090E-02;  3.9542039E+04;  0.0000000E+00;  6.9101050E-02;  4.0000000E+04;  0.0000000E+00;  3.9995762E+04;  1.7752504E-02;  0.0000000E+00; -3.9284131E-03;  1.0530704E+02;
  6.0183597E-01;  9.9999998E-03; -2.9996160E-02;6133;  6.4806873E-03;  0.0000000E+00;  1.0658056E-04;  9.9972998E+02;  1.0056099E-01; -2.2369737E+02;3;  1.0136321E+00;  0.0000000E+00; -8.8038174E-03;0;  1.3621507E-02;  3.9539195E+04;  0.0000000E+00;  4.0018458E-02;  4.0000000E+04;  0.0000000E+00;  3.9995762E+04;  1.7579358E-02;  0.0000000E+00; -3.9578513E-03;  6.7460526E+01;
  6.0182685E-01;  9.9999998E-03; -1.9996705E-02;6134;  6.4553618E-03;  0.0000000E+00;  7.0853879E-05;  9.9970203E+02;  1.0056104E-01; -2.4685721E+02;3;  1.0128744E+00;  0.0000000E+00; -4.8877555E-03;0;  1.3458574E-02;  3.9537145E+04;  0.0000000E+00;  1.8115584E-02;  4.0000000E+04;  0.0000000E+00;  3.9995898E+04;  1.7437419E-02;  0.0000000E+00; -3.9788443E-03;  4.7841164E+01;
  6.0182023E-01;  9.9999998E-03; -9.9981362E-03;6135;  6.4414116E-03;  0.0000000E+00;  3.4839031E-05;  9.9968225E+02;  1.0056102E-01; -2.6325180E+02;3;  1.0110778E+00;  0.0000000E+00; -3.3513703E-03;0;  1.3353208E-02;  3.9536312E+04;  0.0000000E+00;  4.5746113E-03;  4.0000000E+04;  0.0000000E+00;  3.9995812E+04;  1.7344628E-02;  0.0000000E+00; -3.9914190E-03;  4.5870358E+01;
  6.0181791E-01;  9.9999998E-03;  1.7338055E-08;6136;  6.4382614E-03;  0.0000000E+00;  4.7226926E-08;  9.9968042E+02;  1.0056108E-01; -2.6478262E+02;3;  1.0122985E+00;  0.0000000E+00;  1.3915599E-05;0;  1.3316425E-02;  3.9535734E+04;  0.0000000E+00; -1.7160084E-11;  4.0000000E+04;  0.0000000E+00;  3.9995676E+04;  1.7312031E-02;  0.0000000E+00; -3.9956071E-03;  4.7553299E+01;
  6.0182023E-01;  9.9999998E-03;  9.9981707E-03;6137;  6.4414111E-03;  0.0000000E+00; -3.4744622E-05;  9.9968231E+02;  1.0056102E-01; -2.6320242E+02;3;  1.0110813E+00;  0.0000000E+00;  3.3766467E-03;0;  1.3353212E-02;  3.9536312E+04;  0.0000000E+00;  4.5744572E-03;  4.0000000E+04;  0.0000000E+00;  3.9995809E+04;  1.7344635E-02;  0.0000000E+00; -3.9914232E-03;  4.5866749E+01;
  6.0182685E-01;  9.9999998E-03;  1.9996740E-02;6138;  6.4553656E-03;  0.0000000E+00; -7.0759299E-05;  9.9970203E+02;  1.0056099E-01; -2.4685721E+02;3;  1.0128794E+00;  0.0000000E+00;  4.9083945E-03;0;  1.3458584E-02;  3.9537145E+04;  0.0000000E+00;  1.8115014E-02;  4.0000000E+04;  0.0000000E+00;  3.9995895E+04;  1.7437430E-02;  0.0000000E+00; -3.9788466E-03;  4.7837372E+01;
  6.0183597E-01;  9.9999998E-03;  2.9996196E-02;6139;  6.4806952E-03;  0.0000000E+00; -1.0648597E-04;  9.9972992E+02;  1.0056105E-01; -2.2374677E+02;3;  1.0136391E+00;  0.0000000E+00;  8.8175368E-03;0;  1.3621540E-02;  3.9539195E+04;  0.0000000E+00;  4.0016849E-02;  4.0000000E+04;  0.0000000E+00;  3.9995762E+04;  1.7579395E-02;  0.0000000E+00; -3.9578555E-03;  6.7461525E+01;
  6.0184419E-01;  9.9999998E-03;  3.9996821E-02;6140;  6.5217675E-03;  0.0000000E+00; -1.4326187E-04;  9.9976807E+02;  1.0056146E-01; -1.9214272E+02;3;  1.0170385E+00;  0.0000000E+00;  1.1065748E-02;0;  1.3824077E-02;  3.9542047E+04;  0.0000000E+00;  6.9098271E-02;  4.0000000E+04;  0.0000000E+00;  3.9995762E+04;  1.7752495E-02;  0.0000000E+00; -3.9284169E-03;  1.0530655E+02;
  6.0184723E-01;  9.9999998E-03;  4.9998362E-02;6141;  6.5800422E-03;  0.0000000E+00; -1.8003584E-04;  9.9981549E+02;  1.0056129E-01; -1.5288457E+02;3;  1.0246432E+00;  0.0000000E+00;  1.4656277E-02;0;  1.4045337E-02;  3.9545672E+04;  0.0000000E+00;  1.0339469E-01;  4.0000000E+04;  0.0000000E+00;  3.9995730E+04;  1.7935872E-02;  0.0000000E+00; -3.8905351E-03;  1.5459001E+02;
  6.0184312E-01;  9.9999998E-03;  5.9999976E-02;6142;  6.6446275E-03;  0.0000000E+00; -2.1760850E-04;  9.9986646E+02;  1.0056137E-01; -1.1066354E+02;3;  1.0314802E+00;  0.0000000E+00;  1.6392542E-02;0;  1.4267262E-02;  3.9549496E+04;  0.0000000E+00;  1.4001608E-01;  4.0000000E+04;  0.0000000E+00;  3.9995816E+04;  1.8111438E-02;  0.0000000E+00; -3.8441750E-03;  2.0997977E+02;
  6.1169350E-01;  9.9999998E-03; -1.0001248E-01;6187;  6.9160806E-03;  0.0000000E+00;  4.0884316E-04;  9.9983069E+02;  1.0089583E-01; -1.4029233E+02;3;  1.0570009E+00;  0.0000000E+00; -1.9859152E-02;0;  1.5806351E-02;  3.9289969E+04;  0.0000000E+00;  1.8513951E-01;  4.0000000E+04;  0.0000000E+00;  3.9992453E+04;  1.9495735E-02;  0.0000000E+00; -3.6893848E-03;  3.1665182E+02;
  6.1172837E-01;  9.9999998E-03; -9.0014100E-02;6188;  6.9160708E-03;  0.0000000E+00;  3.6701804E-04;  9.9977893E+02;  1.0089567E-01; -1.8315532E+02;3;  1.0614104E+00;  0.0000000E+00; -1.8606763E-02;0;  1.5752796E-02;  3.9286047E+04;  0.0000000E+00;  1.8934092E-01;  4.0000000E+04;  0.0000000E+00;  3.9993031E+04;  1.9528368E-02;  0.0000000E+00; -3.7755726E-03;  2.9808032E+02;
  6.1175400E-01;  9.9999998E-03; -8.0015138E-02;6189;  6.8853400E-03;  0.0000000E+00;  3.2220702E-04;  9.9972235E+02;  1.0089529E-01; -2.3001819E+02;3;  1.0620608E+00;  0.0000000E+00; -1.9467676E-02;0;  1.5681971E-02;  3.9281992E+04;  0.0000000E+00;  1.7980495E-01;  4.0000000E+04;  0.0000000E+00;  3.9993516E+04;  1.9533947E-02;  0.0000000E+00; -3.8519753E-03;  2.6957700E+02;
  6.1176997E-01;  9.9999998E-03; -7.0014991E-02;6190;  6.8210764E-03;  0.0000000E+00;  2.7724079E-04;  9.9967340E+02;  1.0089497E-01; -2.7056024E+02;3;  1.0567297E+00;  0.0000000E+00; -1.8304760E-02;0;  1.5585408E-02;  3.9278352E+04;  0.0000000E+00;  1.5895925E-01;  4.0000000E+04;  0.0000000E+00;  3.9993469E+04;  1.9503931E-02;  0.0000000E+00; -3.9185225E-03;  2.3278319E+02;
  6.1177731E-01;  9.9999998E-03; -6.0013454E-02;6191;  6.7368951E-03;  0.0000000E+00;  2.3541108E-04;  9.9962787E+02;  1.0089485E-01; -3.0828757E+02;3;  1.0462333E+00;  0.0000000E+00; -1.5720902E-02;0;  1.5459772E-02;  3.9274836E+04;  0.0000000E+00;  1.3044509E-01;  4.0000000E+04;  0.0000000E+00;  3.9993609E+04;  1.9435525E-02;  0.0000000E+00; -3.9757532E-03;  1.8987823E+02;
  6.1177820E-01;  9.9999998E-03; -5.0010949E-02;6192;  6.6473638E-03;  0.0000000E+00;  1.9589096E-04;  9.9958826E+02;  1.0089473E-01; -3.4112616E+02;3;  1.0328976E+00;  0.0000000E+00; -1.2091710E-02;0;  1.5310376E-02;  3.9271949E+04;  0.0000000E+00;  9.8427050E-02;  4.0000000E+04;  0.0000000E+00;  3.9993789E+04;  1.9334847E-02;  0.0000000E+00; -4.0244712E-03;  1.4412755E+02;
  6.1177522E-01;  9.9999998E-03; -4.0007919E-02;6193;  6.5695308E-03;  0.0000000E+00;  1.5773137E-04;  9.9955469E+02;  1.0089454E-01; -3.6892783E+02;3;  1.0233676E+00;  0.0000000E+00; -1.0777815E-02;0;  1.5149178E-02;  3.9269414E+04;  0.0000000E+00;  6.6912316E-02;  4.0000000E+04;  0.0000000E+00;  3.9993805E+04;  1.9214209E-02;  0.0000000E+00; -4.0650317E-03;  9.9334511E+01;
  6.1177057E-01;  9.9999998E-03; -3.0004919E-02;6194;  6.5073911E-03;  0.0000000E+00;  1.1793192E-04;  9.9952655E+02;  1.0089444E-01; -3.9223581E+02;3;  1.0159988E+00;  0.0000000E+00; -7.5281044E-03;0;  1.4995247E-02;  3.9267574E+04;  0.0000000E+00;  3.9252769E-02;  4.0000000E+04;  0.0000000E+00;  3.9993699E+04;  1.9092517E-02;  0.0000000E+00; -4.0972698E-03;  5.9312408E+01;
  6.1176592E-01;  9.9999998E-03; -2.0002473E-02;6195;  6.4689787E-03;  0.0000000E+00;  7.8336110E-05;  9.9950421E+02;  1.0089423E-01; -4.1075381E+02;3;  1.0125096E+00;  0.0000000E+00; -5.4641021E-03;0;  1.4866605E-02;  3.9266379E+04;  0.0000000E+00;  1.7928010E-02;  4.0000000E+04;  0.0000000E+00;  3.9993926E+04;  1.8987358E-02;  0.0000000E+00; -4.1207522E-03;  2.7616547E+01;
  6.1176240E-01;  9.9999998E-03; -1.0000905E-02;6196;  6.4488174E-03;  0.0000000E+00;  3.8995542E-05;  9.9949475E+02;  1.0089421E-01; -4.1860544E+02;3;  1.0124735E+00;  0.0000000E+00; -2.6072138E-03;0;  1.4781307E-02;  3.9265535E+04;  0.0000000E+00;  4.5508905E-03;  4.0000000E+04;  0.0000000E+00;  3.9993535E+04;  1.8916342E-02;  0.0000000E+00; -4.1350350E-03;  7.2503934E+00;
  6.1176139E-01;  9.9999998E-03;  1.7880550E-08;6197;  6.4422246E-03;  0.0000000E+00;  4.6627367E-08;  9.9948755E+02;  1.0089427E-01; -4.2458060E+02;3;  1.0106052E+00;  0.0000000E+00;  1.6838581E-05;0;  1.4751575E-02;  3.9265160E+04;  0.0000000E+00; -2.1371934E-11;  4.0000000E+04;  0.0000000E+00;  3.9993594E+04;  1.8891400E-02;  0.0000000E+00; -4.1398248E-03;  5.8592898E-01;
  6.1176240E-01;  9.9999998E-03;  1.0000941E-02;6198;  6.4488193E-03;  0.0000000E+00; -3.8902344E-05;  9.9949475E+02;  1.0089421E-01; -4.1860544E+02;3;  1.0124731E+00;  0.0000000E+00;  2.6371577E-03;0;  1.4781287E-02;  3.9265539E+04;  0.0000000E+00;  4.5506395E-03;  4.0000000E+04;  0.0000000E+00;  3.9993535E+04;  1.8916318E-02;  0.0000000E+00; -4.1350313E-03;  7.2534194E+00;
  6.1176592E-01;  9.9999998E-03;  2.0002509E-02;6199;  6.4689824E-03;  0.0000000E+00; -7.8242985E-05;  9.9950421E+02;  1.0089423E-01; -4.1075381E+02;3;  1.0125132E+00;  0.0000000E+00;  5.4909484E-03;0;  1.4866589E-02;  3.9266383E+04;  0.0000000E+00;  1.7927200E-02;  4.0000000E+04;  0.0000000E+00;  3.9993926E+04;  1.8987337E-02;  0.0000000E+00; -4.1207485E-03;  2.7612415E+01;
  6.1177057E-01;  9.9999998E-03;  3.0004954E-02;6200;  6.5073958E-03;  0.0000000E+00; -1.1783878E-04;  9.9952655E+02;  1.0089444E-01; -3.9223581E+02;3;  1.0160023E+00;  0.0000000E+00;  7.5469404E-03;0;  1.4995287E-02;  3.9267578E+04;  0.0000000E+00;  3.9251812E-02;  4.0000000E+04;  0.0000000E+00;  3.9993699E+04;  1.9092554E-02;  0.0000000E+00; -4.0972671E-03;  5.9309677E+01;
  6.1177522E-01;  9.9999998E-03;  4.0007953E-02;6201;  6.5695373E-03;  0.0000000E+00; -1.5763866E-04;  9.9955469E+02;  1.0089454E-01; -3.6892783E+02;3;  1.0233761E+00;  0.0000000E+00;  1.0788957E-02;0;  1.5149213E-02;  3.9269410E+04;  0.0000000E+00;  6.6910401E-02;  4.0000000E+04;  0.0000000E+00;  3.9993805E+04;  1.9214239E-02;  0.0000000E+00; -4.0650261E-03;  9.9330208E+01;
  6.1177820E-01;  9.9999998E-03;  5.0010987E-02;6202;  6.6473694E-03;  0.0000000E+00; -1.9579823E-04;  9.9958826E+02;  1.0089470E-01; -3.4112616E+02;3;  1.0329031E+00;  0.0000000E+00;  1.2093269E-02;0;  1.5310396E-02;  3.9271945E+04;  0.0000000E+00;  9.8422825E-02;  4.0000000E+04;  0.0000000E+00;  3.9993793E+04;  1.9334860E-02;  0.0000000E+00; -4.0244637E-03;  1.4411931E+02;
  6.1177731E-01;  9.9999998E-03;  6.0013492E-02;6203;  6.7368988E-03;  0.0000000E+00; -2.3531825E-04;  9.9962793E+02;  1.0089481E-01; -3.0823819E+02;3;  1.0462401E+00;  0.0000000E+00;  1.5716128E-02;0;  1.5459780E-02;  3.9274832E+04;  0.0000000E+00;  1.3043785E-01;  4.0000000E+04;  0.0000000E+00;  3.9993605E+04;  1.9435532E-02;  0.0000000E+00; -3.9757527E-03;  1.8986876E+02;
  6.2159359E-01;  9.9999998E-03; -1.0002534E-01;6248;  6.9940491E-03;  0.0000000E+00;  4.3234733E-04;  9.9951703E+02;  1.0140263E-01; -4.0013684E+02;3;  1.0742817E+00;  0.0000000E+00; -1.5602918E-02;0;  1.6846512E-02;  3.8878996E+04;  0.0000000E+00;  8.5036471E-02;  4.0000000E+04;  0.0000000E+00;  3.9989488E+04;  2.0665471E-02;  0.0000000E+00; -3.8189595E-03;  1.6302000E+02;
  6.2162578E-01;  9.9999998E-03; -9.0027310E-02;6249;  7.0115821E-03;  0.0000000E+00;  3.9083924E-04;  9.9948877E+02;  1.0140219E-01; -4.2354358E+02;3;  1.0835223E+00;  0.0000000E+00; -1.4467085E-02;0;  1.6874259E-02;  3.8877113E+04;  0.0000000E+00;  1.0256706E-01;  4.0000000E+04;  0.0000000E+00;  3.9990008E+04;  2.0780763E-02;  0.0000000E+00; -3.9065033E-03;  1.5633321E+02;
  6.2164921E-01;  9.9999998E-03; -8.0028094E-02;6250;  6.9964961E-03;  0.0000000E+00;  3.4395256E-04;  9.9945691E+02;  1.0140149E-01; -4.4996259E+02;3;  1.0838575E+00;  0.0000000E+00; -1.5895005E-02;0;  1.6885316E-02;  3.8874891E+04;  0.0000000E+00;  1.0861271E-01;  4.0000000E+04;  0.0000000E+00;  3.9990453E+04;  2.0869805E-02;  0.0000000E+00; -3.9844885E-03;  1.6055347E+02;
  6.2166291E-01;  9.9999998E-03; -7.0027329E-02;6251;  6.9353301E-03;  0.0000000E+00;  2.9794007E-04;  9.9942688E+02;  1.0140128E-01; -4.7480139E+02;3;  1.0797490E+00;  0.0000000E+00; -1.6516004E-02;0;  1.6871376E-02;  3.8872855E+04;  0.0000000E+00;  1.0386246E-01;  4.0000000E+04;  0.0000000E+00;  3.9990609E+04;  2.0924050E-02;  0.0000000E+00; -4.0526749E-03;  1.6372646E+02;
  6.2166721E-01;  9.9999998E-03; -6.0024839E-02;6252;  6.8385452E-03;  0.0000000E+00;  2.5463087E-04;  9.9940350E+02;  1.0140084E-01; -4.9420825E+02;3;  1.0632871E+00;  0.0000000E+00; -1.4839059E-02;0;  1.6827535E-02;  3.8871441E+04;  0.0000000E+00;  9.0435356E-02;  4.0000000E+04;  0.0000000E+00;  3.9991000E+04;  2.0939207E-02;  0.0000000E+00; -4.1116723E-03;  1.5855304E+02;
  6.2166452E-01;  9.9999998E-03; -5.0020881E-02;6253;  6.7290301E-03;  0.0000000E+00;  2.1470376E-04;  9.9937885E+02;  1.0140058E-01; -5.1460272E+02;3;  1.0471587E+00;  0.0000000E+00; -1.1895067E-02;0;  1.6754709E-02;  3.8870145E+04;  0.0000000E+00;  7.1396530E-02;  4.0000000E+04;  0.0000000E+00;  3.9991191E+04;  2.0917166E-02;  0.0000000E+00; -4.1624578E-03;  1.4439264E+02;
  6.2165743E-01;  9.9999998E-03; -4.0016398E-02;6254;  6.6273138E-03;  0.0000000E+00;  1.7479819E-04;  9.9936108E+02;  1.0140052E-01; -5.2931836E+02;3;  1.0320359E+00;  0.0000000E+00; -8.2453648E-03;0;  1.6661601E-02;  3.8869160E+04;  0.0000000E+00;  5.0222274E-02;  4.0000000E+04;  0.0000000E+00;  3.9991105E+04;  2.0867074E-02;  0.0000000E+00; -4.2054728E-03;  1.2445471E+02;
  6.2164849E-01;  9.9999998E-03; -3.0012045E-02;6255;  6.5477928E-03;  0.0000000E+00;  1.3338866E-04;  9.9934985E+02;  1.0140011E-01; -5.3865143E+02;3;  1.0222101E+00;  0.0000000E+00; -6.0551367E-03;0;  1.6562549E-02;  3.8868441E+04;  0.0000000E+00;  3.0205434E-02;  4.0000000E+04;  0.0000000E+00;  3.9991070E+04;  2.0802882E-02;  0.0000000E+00; -4.2403326E-03;  1.0357265E+02;
  6.2164026E-01;  9.9999998E-03; -2.0007905E-02;6256;  6.4934017E-03;  0.0000000E+00;  8.8910027E-05;  9.9933844E+02;  1.0139981E-01; -5.4808325E+02;3;  1.0137602E+00;  0.0000000E+00; -4.0994561E-03;0;  1.6475186E-02;  3.8867945E+04;  0.0000000E+00;  1.4031194E-02;  4.0000000E+04;  0.0000000E+00;  3.9990707E+04;  2.0741373E-02;  0.0000000E+00; -4.2661880E-03;  8.6432922E+01;
  6.2163430E-01;  9.9999998E-03; -1.0003834E-02;6257;  6.4638094E-03;  0.0000000E+00;  4.4366108E-05;  9.9933472E+02;  1.0140011E-01; -5.5119427E+02;3;  1.0120474E+00;  0.0000000E+00; -1.9293185E-03;0;  1.6415074E-02;  3.8867566E+04;  0.0000000E+00;  3.5965852E-03;  4.0000000E+04;  0.0000000E+00;  3.9990707E+04;  2.0697203E-02;  0.0000000E+00; -4.2821276E-03;  7.6117165E+01;
  6.2163210E-01;  9.9999998E-03;  1.8430049E-08;6258;  6.4551882E-03;  0.0000000E+00;  4.6017551E-08;  9.9933191E+02;  1.0139997E-01; -5.5351520E+02;3;  1.0118500E+00;  0.0000000E+00;  1.8700928E-05;0;  1.6393570E-02;  3.8867555E+04;  0.0000000E+00; -3.2584092E-11;  4.0000000E+04;  0.0000000E+00;  3.9990703E+04;  2.0681081E-02;  0.0000000E+00; -4.2875111E-03;  7.2807556E+01;
  6.2163430E-01;  9.9999998E-03;  1.0003871E-02;6259;  6.4638117E-03;  0.0000000E+00; -4.4274155E-05;  9.9933472E+02;  1.0140011E-01; -5.5119427E+02;3;  1.0120466E+00;  0.0000000E+00;  1.9633414E-03;0;  1.6415102E-02;  3.8867555E+04;  0.0000000E+00;  3.5968274E-03;  4.0000000E+04;  0.0000000E+00;  3.9990707E+04;  2.0697227E-02;  0.0000000E+00; -4.2821243E-03;  7.6110123E+01;
  6.2164026E-01;  9.9999998E-03;  2.0007942E-02;6260;  6.4934059E-03;  0.0000000E+00; -8.8818204E-05;  9.9933844E+02;  1.0139981E-01; -5.4808325E+02;3;  1.0137626E+00;  0.0000000E+00;  4.1301427E-03;0;  1.6475214E-02;  3.8867949E+04;  0.0000000E+00;  1.4031317E-02;  4.0000000E+04;  0.0000000E+00;  3.9990707E+04;  2.0741396E-02;  0.0000000E+00; -4.2661820E-03;  8.6430061E+01;
  6.2164849E-01;  9.9999998E-03;  3.0012082E-02;6261;  6.5478063E-03;  0.0000000E+00; -1.3329668E-04;  9.9934973E+02;  1.0140017E-01; -5.3875018E+02;3;  1.0222241E+00;  0.0000000E+00;  6.0777790E-03;0;  1.6562583E-02;  3.8868438E+04;  0.0000000E+00;  3.0204650E-02;  4.0000000E+04;  0.0000000E+00;  3.9991070E+04;  2.0802908E-02;  0.0000000E+00; -4.2403252E-03;  1.0357452E+02;
  6.2165743E-01;  9.9999998E-03;  4.0016431E-02;6262;  6.6273203E-03;  0.0000000E+00; -1.7470666E-04;  9.9936108E+02;  1.0140052E-01; -5.2931836E+02;3;  1.0320421E+00;  0.0000000E+00;  8.2612801E-03;0;  1.6661616E-02;  3.8869156E+04;  0.0000000E+00;  5.0220091E-02;  4.0000000E+04;  0.0000000E+00;  3.9991105E+04;  2.0867085E-02;  0.0000000E+00; -4.2054686E-03;  1.2445638E+02;
  6.2166452E-01;  9.9999998E-03;  5.0020918E-02;6263;  6.7290398E-03;  0.0000000E+00; -2.1461246E-04;  9.9937885E+02;  1.0140058E-01; -5.1460272E+02;3;  1.0471632E+00;  0.0000000E+00;  1.1902686E-02;0;  1.6754732E-02;  3.8870145E+04;  0.0000000E+00;  7.1393415E-02;  4.0000000E+04;  0.0000000E+00;  3.9991191E+04;  2.0917188E-02;  0.0000000E+00; -4.1624564E-03;  1.4439592E+02;
  6.2166721E-01;  9.9999998E-03;  6.0024876E-02;6264;  6.8385620E-03;  0.0000000E+00; -2.5453931E-04;  9.9940344E+02;  1.0140084E-01; -4.9425763E+02;3;  1.0632936E+00;  0.0000000E+00;  1.4836481E-02;0;  1.6827499E-02;  3.8871441E+04;  0.0000000E+00;  9.0431087E-02;  4.0000000E+04;  0.0000000E+00;  3.9991004E+04;  2.0939162E-02;  0.0000000E+00; -4.1116620E-03;  1.5854938E+02;
  6.3152534E-01;  9.9999998E-03; -1.0003099E-01;6309;  7.0473673E-03;  0.0000000E+00;  4.4991690E-04;  9.9938574E+02;  1.0214076E-01; -5.0892389E+02;3;  1.0909270E+00;  0.0000000E+00; -1.1691399E-02;0;  1.8015383E-02;  3.8314023E+04;  0.0000000E+00; -5.8658354E-02;  4.0000000E+04;  0.0000000E+00;  3.9985039E+04;  2.1971652E-02;  0.0000000E+00; -3.9562690E-03;  9.6146675E+01;
  6.3157779E-01;  9.9999998E-03; -9.0029910E-02;6310;  7.0968075E-03;  0.0000000E+00;  4.0998854E-04;  9.9938239E+02;  1.0213955E-01; -5.1168924E+02;3;  1.1097103E+00;  0.0000000E+00; -1.1032201E-02;0;  1.8105112E-02;  3.8314133E+04;  0.0000000E+00; -2.6393460E-02;  4.0000000E+04;  0.0000000E+00;  3.9985559E+04;  2.2149341E-02;  0.0000000E+00; -4.0442282E-03;  5.4975224E+01;
  6.3162047E-01;  9.9999998E-03; -8.0028139E-02;6311;  7.0970152E-03;  0.0000000E+00;  3.6388531E-04;  9.9938226E+02;  1.0213891E-01; -5.1178799E+02;3;  1.1144906E+00;  0.0000000E+00; -1.2017718E-02;0;  1.8183377E-02;  3.8315000E+04;  0.0000000E+00; -1.2060996E-03;  4.0000000E+04;  0.0000000E+00;  3.9986277E+04;  2.2306513E-02;  0.0000000E+00; -4.1231359E-03;  1.0722985E+02;
  6.3165027E-01;  9.9999998E-03; -7.0025511E-02;6312;  7.0473892E-03;  0.0000000E+00;  3.1749165E-04;  9.9938812E+02;  1.0213833E-01; -5.0694864E+02;3;  1.1044265E+00;  0.0000000E+00; -1.3480629E-02;0;  1.8238543E-02;  3.8315562E+04;  0.0000000E+00;  1.5413896E-02;  4.0000000E+04;  0.0000000E+00;  3.9986531E+04;  2.2431064E-02;  0.0000000E+00; -4.1925213E-03;  1.5914912E+02;
  6.3166702E-01;  9.9999998E-03; -6.0021892E-02;6313;  6.9538285E-03;  0.0000000E+00;  2.7476967E-04;  9.9938354E+02;  1.0213739E-01; -5.1070160E+02;3;  1.0877053E+00;  0.0000000E+00; -1.2661298E-02;0;  1.8265156E-02;  3.8316098E+04;  0.0000000E+00;  2.3494679E-02;  4.0000000E+04;  0.0000000E+00;  3.9986602E+04;  2.2518130E-02;  0.0000000E+00; -4.2529744E-03;  1.9028075E+02;
  6.3167274E-01;  9.9999998E-03; -5.0017536E-02;6314;  6.8323370E-03;  0.0000000E+00;  2.3502321E-04;  9.9938409E+02;  1.0213724E-01; -5.1025717E+02;3;  1.0625707E+00;  0.0000000E+00; -9.9273669E-03;0;  1.8263157E-02;  3.8316953E+04;  0.0000000E+00;  2.4319233E-02;  4.0000000E+04;  0.0000000E+00;  3.9986871E+04;  2.2568714E-02;  0.0000000E+00; -4.3055560E-03;  2.0121907E+02;
  6.3167065E-01;  9.9999998E-03; -4.0013094E-02;6315;  6.7108786E-03;  0.0000000E+00;  1.9507327E-04;  9.9938776E+02;  1.0213652E-01; -5.0724490E+02;3;  1.0432472E+00;  0.0000000E+00; -6.4585777E-03;0;  1.8236900E-02;  3.8317797E+04;  0.0000000E+00;  2.0079026E-02;  4.0000000E+04;  0.0000000E+00;  3.9986852E+04;  2.2587625E-02;  0.0000000E+00; -4.3507251E-03;  1.9684285E+02;
  6.3166463E-01;  9.9999998E-03; -3.0009145E-02;6316;  6.6105532E-03;  0.0000000E+00;  1.5032625E-04;  9.9939526E+02;  1.0213626E-01; -5.0102286E+02;3;  1.0296583E+00;  0.0000000E+00; -3.4798826E-03;0;  1.8196061E-02;  3.8318402E+04;  0.0000000E+00;  1.3358625E-02;  4.0000000E+04;  0.0000000E+00;  3.9986652E+04;  2.2584008E-02;  0.0000000E+00; -4.3879468E-03;  1.8361925E+02;
  6.3165778E-01;  9.9999998E-03; -2.0005997E-02;6317;  6.5419949E-03;  0.0000000E+00;  1.0281758E-04;  9.9939594E+02;  1.0213589E-01; -5.0047968E+02;3;  1.0202147E+00;  0.0000000E+00; -1.5429100E-03;0;  1.8153237E-02;  3.8319176E+04;  0.0000000E+00;  6.6077490E-03;  4.0000000E+04;  0.0000000E+00;  3.9986684E+04;  2.2569235E-02;  0.0000000E+00; -4.4159978E-03;  1.6812204E+02;
  6.3165230E-01;  9.9999998E-03; -1.0003265E-02;6318;  6.5012518E-03;  0.0000000E+00;  5.1758867E-05;  9.9940173E+02;  1.0213576E-01; -4.9564029E+02;3;  1.0147098E+00;  0.0000000E+00; -1.4693473E-03;0;  1.8121650E-02;  3.8319547E+04;  0.0000000E+00;  1.7537981E-03;  4.0000000E+04;  0.0000000E+00;  3.9986664E+04;  2.2555159E-02;  0.0000000E+00; -4.4335085E-03;  1.5611742E+02;
  6.3165009E-01;  9.9999998E-03;  1.9041861E-08;6319;  6.4882576E-03;  0.0000000E+00;  4.5316746E-08;  9.9939716E+02;  1.0213578E-01; -4.9944266E+02;3;  1.0143669E+00;  0.0000000E+00;  2.0346039E-05;0;  1.8109938E-02;  3.8319836E+04;  0.0000000E+00; -4.8136852E-11;  4.0000000E+04;  0.0000000E+00;  3.9986723E+04;  2.2549406E-02;  0.0000000E+00; -4.4394680E-03;  1.5166710E+02;
  6.3165230E-01;  9.9999998E-03;  1.0003303E-02;6320;  6.5012570E-03;  0.0000000E+00; -5.1668394E-05;  9.9940167E+02;  1.0213573E-01; -4.9568970E+02;3;  1.0147089E+00;  0.0000000E+00;  1.5076754E-03;0;  1.8121617E-02;  3.8319543E+04;  0.0000000E+00;  1.7542992E-03;  4.0000000E+04;  0.0000000E+00;  3.9986660E+04;  2.2555128E-02;  0.0000000E+00; -4.4335108E-03;  1.5611485E+02;
  6.3165778E-01;  9.9999998E-03;  2.0006035E-02;6321;  6.5419986E-03;  0.0000000E+00; -1.0272716E-04;  9.9939594E+02;  1.0213578E-01; -5.0047968E+02;3;  1.0202149E+00;  0.0000000E+00;  1.5773337E-03;0;  1.8153248E-02;  3.8319172E+04;  0.0000000E+00;  6.6085667E-03;  4.0000000E+04;  0.0000000E+00;  3.9986688E+04;  2.2569245E-02;  0.0000000E+00; -4.4159964E-03;  1.6811958E+02;
  6.3166463E-01;  9.9999998E-03;  3.0009182E-02;6322;  6.6105593E-03;  0.0000000E+00; -1.5023616E-04;  9.9939526E+02;  1.0213626E-01; -5.0102286E+02;3;  1.0296593E+00;  0.0000000E+00;  3.5058486E-03;0;  1.8196039E-02;  3.8318406E+04;  0.0000000E+00;  1.3359306E-02;  4.0000000E+04;  0.0000000E+00;  3.9986652E+04;  2.2583988E-02;  0.0000000E+00; -4.3879491E-03;  1.8361786E+02;
  6.3167065E-01;  9.9999998E-03;  4.0013131E-02;6323;  6.7108851E-03;  0.0000000E+00; -1.9498395E-04;  9.9938776E+02;  1.0213652E-01; -5.0724490E+02;3;  1.0432481E+00;  0.0000000E+00;  6.4743017E-03;0;  1.8236909E-02;  3.8317801E+04;  0.0000000E+00;  2.0079553E-02;  4.0000000E+04;  0.0000000E+00;  3.9986852E+04;  2.2587625E-02;  0.0000000E+00; -4.3507158E-03;  1.9683559E+02;
  6.3167274E-01;  9.9999998E-03;  5.0017573E-02;6324;  6.8323491E-03;  0.0000000E+00; -2.3493385E-04;  9.9938403E+02;  1.0213724E-01; -5.1030655E+02;3;  1.0625725E+00;  0.0000000E+00;  9.9361865E-03;0;  1.8263187E-02;  3.8316949E+04;  0.0000000E+00;  2.4315881E-02;  4.0000000E+04;  0.0000000E+00;  3.9986871E+04;  2.2568727E-02;  0.0000000E+00; -4.3055392E-03;  2.0121898E+02;
  6.3166702E-01;  9.9999998E-03;  6.0021929E-02;6325;  6.9538425E-03;  0.0000000E+00; -2.7468009E-04;  9.9938348E+02;  1.0213742E-01; -5.1075098E+02;3;  1.0877151E+00;  0.0000000E+00;  1.2664323E-02;0;  1.8265177E-02;  3.8316098E+04;  0.0000000E+00;  2.3488250E-02;  4.0000000E+04;  0.0000000E+00;  3.9986602E+04;  2.2518143E-02;  0.0000000E+00; -4.2529670E-03;  1.9027684E+02;
  6.4158469E-01;  9.9999998E-03; -1.0000869E-01;6370;  7.1326653E-03;  0.0000000E+00;  4.6922051E-04;  9.9958557E+02;  1.0316058E-01; -3.4334833E+02;3;  1.1216159E+00;  0.0000000E+00; -5.3741084E-03;0;  1.9221505E-02;  3.7577617E+04;  0.0000000E+00; -2.2288927E-01;  4.0000000E+04;  0.0000000E+00;  3.9978793E+04;  2.3322845E-02;  0.0000000E+00; -4.1013402E-03;  3.4011829E+02;
  6.4163691E-01;  9.9999998E-03; -9.0008512E-02;6371;  7.2213300E-03;  0.0000000E+00;  4.3162526E-04;  9.9960663E+02;  1.0315883E-01; -3.2591672E+02;3;  1.1551386E+00;  0.0000000E+00; -3.9358381E-03;0;  1.9337067E-02;  3.7579984E+04;  0.0000000E+00; -1.7664771E-01;  4.0000000E+04;  0.0000000E+00;  3.9979582E+04;  2.3525447E-02;  0.0000000E+00; -4.1883788E-03;  2.9307129E+02;
  6.4167899E-01;  9.9999998E-03; -8.0008350E-02;6372;  7.2622467E-03;  0.0000000E+00;  3.8413040E-04;  9.9962830E+02;  1.0315756E-01; -3.0794189E+02;3;  1.1701421E+00;  0.0000000E+00; -3.8999380E-03;0;  1.9446135E-02;  3.7582398E+04;  0.0000000E+00; -1.3162981E-01;  4.0000000E+04;  0.0000000E+00;  3.9980258E+04;  2.3713129E-02;  0.0000000E+00; -4.2669950E-03;  2.8222617E+02;
  6.4170915E-01;  9.9999998E-03; -7.0007943E-02;6373;  7.2366931E-03;  0.0000000E+00;  3.3386034E-04;  9.9965045E+02;  1.0315657E-01; -2.8957205E+02;3;  1.1654463E+00;  0.0000000E+00; -8.8438010E-03;0;  1.9540038E-02;  3.7584977E+04;  0.0000000E+00; -9.1682360E-02;  4.0000000E+04;  0.0000000E+00;  3.9980707E+04;  2.3876667E-02;  0.0000000E+00; -4.3366291E-03;  2.9282419E+02;
  6.4172769E-01;  9.9999998E-03; -6.0006969E-02;6374;  7.1447883E-03;  0.0000000E+00;  2.8994828E-04;  9.9967706E+02;  1.0315521E-01; -2.6754797E+02;3;  1.1411035E+00;  0.0000000E+00; -1.0944412E-02;0;  1.9613605E-02;  3.7588102E+04;  0.0000000E+00; -5.9193332E-02;  4.0000000E+04;  0.0000000E+00;  3.9981098E+04;  2.4011403E-02;  0.0000000E+00; -4.3977974E-03;  3.0317603E+02;
  6.4173681E-01;  9.9999998E-03; -5.0005596E-02;6375;  7.0152692E-03;  0.0000000E+00;  2.5135744E-04;  9.9970251E+02;  1.0315417E-01; -2.4646216E+02;3;  1.1082797E+00;  0.0000000E+00; -6.2638316E-03;0;  1.9664055E-02;  3.7590832E+04;  0.0000000E+00; -3.5011292E-02;  4.0000000E+04;  0.0000000E+00;  3.9981238E+04;  2.4115602E-02;  0.0000000E+00; -4.4515464E-03;  3.0229770E+02;
  6.4173919E-01;  9.9999998E-03; -4.0004306E-02;6376;  6.8772701E-03;  0.0000000E+00;  2.1155193E-04;  9.9972327E+02;  1.0315340E-01; -2.2927747E+02;3;  1.0754397E+00;  0.0000000E+00; -2.8455539E-03;0;  1.9692328E-02;  3.7593445E+04;  0.0000000E+00; -1.8636633E-02;  4.0000000E+04;  0.0000000E+00;  3.9981324E+04;  2.4190594E-02;  0.0000000E+00; -4.4982652E-03;  2.8912628E+02;
  6.4173782E-01;  9.9999998E-03; -3.0003458E-02;6377;  6.7559737E-03;  0.0000000E+00;  1.6705076E-04;  9.9974365E+02;  1.0315263E-01; -2.1238905E+02;3;  1.0546073E+00;  0.0000000E+00; -2.0699606E-03;0;  1.9702878E-02;  3.7595617E+04;  0.0000000E+00; -8.6366981E-03;  4.0000000E+04;  0.0000000E+00;  3.9981094E+04;  2.4240147E-02;  0.0000000E+00; -4.5372699E-03;  2.6805228E+02;
  6.4173543E-01;  9.9999998E-03; -2.0003365E-02;6378;  6.6661867E-03;  0.0000000E+00;  1.1527930E-04;  9.9975903E+02;  1.0315228E-01; -1.9964868E+02;3;  1.0383004E+00;  0.0000000E+00; -4.3066175E-04;0;  1.9702598E-02;  3.7597336E+04;  0.0000000E+00; -3.2101450E-03;  4.0000000E+04;  0.0000000E+00;  3.9981051E+04;  2.4269637E-02;  0.0000000E+00; -4.5670392E-03;  2.4561743E+02;
  6.4173341E-01;  9.9999998E-03; -1.0002739E-02;6379;  6.6125812E-03;  0.0000000E+00;  5.8546269E-05;  9.9976599E+02;  1.0315170E-01; -1.9387106E+02;3;  1.0311735E+00;  0.0000000E+00;  5.0337135E-04;0;  1.9698771E-02;  3.7598809E+04;  0.0000000E+00; -7.0529728E-04;  4.0000000E+04;  0.0000000E+00;  3.9980930E+04;  2.4284592E-02;  0.0000000E+00; -4.5858207E-03;  2.2861139E+02;
  6.4173263E-01;  9.9999998E-03;  1.9887052E-08;6380;  6.5951510E-03;  0.0000000E+00;  4.5102858E-08;  9.9977087E+02;  1.0315151E-01; -1.8982179E+02;3;  1.0294845E+00;  0.0000000E+00;  2.0771515E-05;0;  1.9696807E-02;  3.7599031E+04;  0.0000000E+00; -7.0975122E-11;  4.0000000E+04;  0.0000000E+00;  3.9980680E+04;  2.4289053E-02;  0.0000000E+00; -4.5922459E-03;  2.2227054E+02;
  6.4173341E-01;  9.9999998E-03;  1.0002779E-02;6381;  6.6125859E-03;  0.0000000E+00; -5.8456386E-05;  9.9976599E+02;  1.0315170E-01; -1.9387106E+02;3;  1.0311720E+00;  0.0000000E+00; -4.6409518E-04;0;  1.9698769E-02;  3.7598805E+04;  0.0000000E+00; -7.0405978E-04;  4.0000000E+04;  0.0000000E+00;  3.9980930E+04;  2.4284586E-02;  0.0000000E+00; -4.5858184E-03;  2.2859843E+02;
  6.4173543E-01;  9.9999998E-03;  2.0003406E-02;6382;  6.6661914E-03;  0.0000000E+00; -1.1518978E-04;  9.9975909E+02;  1.0315228E-01; -1.9959929E+02;3;  1.0382975E+00;  0.0000000E+00;  4.6758456E-04;0;  1.9702621E-02;  3.7597332E+04;  0.0000000E+00; -3.2084596E-03;  4.0000000E+04;  0.0000000E+00;  3.9981051E+04;  2.4269659E-02;  0.0000000E+00; -4.5670373E-03;  2.4562430E+02;
  6.4173782E-01;  9.9999998E-03;  3.0003497E-02;6383;  6.7559844E-03;  0.0000000E+00; -1.6696185E-04;  9.9974365E+02;  1.0315263E-01; -2.1238905E+02;3;  1.0546081E+00;  0.0000000E+00;  2.0978758E-03;0;  1.9702900E-02;  3.7595621E+04;  0.0000000E+00; -8.6347358E-03;  4.0000000E+04;  0.0000000E+00;  3.9981098E+04;  2.4240166E-02;  0.0000000E+00; -4.5372648E-03;  2.6805722E+02;
  6.4173919E-01;  9.9999998E-03;  4.0004343E-02;6384;  6.8772784E-03;  0.0000000E+00; -2.1146372E-04;  9.9972339E+02;  1.0315338E-01; -2.2917871E+02;3;  1.0754426E+00;  0.0000000E+00;  2.8695948E-03;0;  1.9692335E-02;  3.7593434E+04;  0.0000000E+00; -1.8635813E-02;  4.0000000E+04;  0.0000000E+00;  3.9981324E+04;  2.4190597E-02;  0.0000000E+00; -4.4982620E-03;  2.8913593E+02;
  6.4173681E-01;  9.9999998E-03;  5.0005637E-02;6385;  7.0152823E-03;  0.0000000E+00; -2.5126908E-04;  9.9970251E+02;  1.0315417E-01; -2.4646216E+02;3;  1.1082813E+00;  0.0000000E+00;  6.2773116E-03;0;  1.9664090E-02;  3.7590832E+04;  0.0000000E+00; -3.5011109E-02;  4.0000000E+04;  0.0000000E+00;  3.9981242E+04;  2.4115629E-02;  0.0000000E+00; -4.4515384E-03;  3.0230511E+02;
  6.4172769E-01;  9.9999998E-03;  6.0007010E-02;6386;  7.1448036E-03;  0.0000000E+00; -2.8985937E-04;  9.9967700E+02;  1.0315521E-01; -2.6759738E+02;3;  1.1411096E+00;  0.0000000E+00;  1.0951697E-02;0;  1.9613635E-02;  3.7588102E+04;  0.0000000E+00; -5.9193842E-02;  4.0000000E+04;  0.0000000E+00;  3.9981102E+04;  2.4011424E-02;  0.0000000E+00; -4.3977899E-03;  3.0317590E+02;
  6.5179783E-01;  9.9999998E-03;  2.0927031E-08;6441;  6.9406349E-03;  0.0000000E+00;  4.5418098E-08;  1.0003488E+03;  1.0447160E-01;  2.8897949E+02;3;  1.1016799E+00;  0.0000000E+00;  1.6830641E-05;0;  2.0999247E-02;  3.6696105E+04;  0.0000000E+00; -1.0127289E-10;  4.0000000E+04;  0.0000000E+00;  3.9972750E+04;  2.5742883E-02;  0.0000000E+00; -4.7436361E-03;  2.6803857E+02;
  6.5179777E-01;  9.9999998E-03; -9.9996384E-03;6440;  6.9677955E-03;  0.0000000E+00;  6.1959618E-05;  1.0003445E+03;  1.0447188E-01;  2.8542401E+02;3;  1.1049963E+00;  0.0000000E+00;  1.4835126E-03;0;  2.0993548E-02;  3.6695441E+04;  0.0000000E+00; -3.2191188E-03;  4.0000000E+04;  0.0000000E+00;  3.9972996E+04;  2.5730461E-02;  0.0000000E+00; -4.7369134E-03;  2.7680936E+02;
  6.5179777E-01;  9.9999998E-03;  9.9996803E-03;6442;  6.9678030E-03;  0.0000000E+00; -6.1868901E-05;  1.0003445E+03;  1.0447188E-01;  2.8542401E+02;3;  1.1049966E+00;  0.0000000E+00; -1.4461782E-03;0;  2.0993592E-02;  3.6695441E+04;  0.0000000E+00; -3.2171051E-03;  4.0000000E+04;  0.0000000E+00;  3.9972996E+04;  2.5730504E-02;  0.0000000E+00; -4.7369115E-03;  2.7681744E+02;
  6.5179688E-01;  9.9999998E-03; -1.9998323E-02;6439;  7.0445538E-03;  0.0000000E+00;  1.1928134E-04;  1.0003248E+03;  1.0447238E-01;  2.6902942E+02;3;  1.1240331E+00;  0.0000000E+00;  1.1653426E-03;0;  2.0975679E-02;  3.6693754E+04;  0.0000000E+00; -1.3211025E-02;  4.0000000E+04;  0.0000000E+00;  3.9973062E+04;  2.5692999E-02;  0.0000000E+00; -4.7173207E-03;  3.0116217E+02;
  6.5179688E-01;  9.9999998E-03;  1.9998364E-02;6443;  7.0445677E-03;  0.0000000E+00; -1.1919070E-04;  1.0003248E+03;  1.0447238E-01;  2.6902942E+02;3;  1.1240323E+00;  0.0000000E+00; -1.1300741E-03;0;  2.0975679E-02;  3.6693754E+04;  0.0000000E+00; -1.3207563E-02;  4.0000000E+04;  0.0000000E+00;  3.9973066E+04;  2.5692996E-02;  0.0000000E+00; -4.7173169E-03;  3.0117163E+02;
  6.5179437E-01;  9.9999998E-03; -2.9996281E-02;6438;  7.1683768E-03;  0.0000000E+00;  1.6859997E-04;  1.0002968E+03;  1.0447284E-01;  2.4591898E+02;3;  1.1569395E+00;  0.0000000E+00; -8.0361898E-04;0;  2.0944247E-02;  3.6690664E+04;  0.0000000E+00; -3.0882297E-02;  4.0000000E+04;  0.0000000E+00;  3.9973289E+04;  2.5630675E-02;  0.0000000E+00; -4.6864287E-03;  3.3585303E+02;
  6.5179437E-01;  9.9999998E-03;  2.9996322E-02;6444;  7.1683964E-03;  0.0000000E+00; -1.6850985E-04;  1.0002969E+03;  1.0447284E-01;  2.4591898E+02;3;  1.1569383E+00;  0.0000000E+00;  8.3380949E-04;0;  2.0944279E-02;  3.6690664E+04;  0.0000000E+00; -3.0877540E-02;  4.0000000E+04;  0.0000000E+00;  3.9973281E+04;  2.5630701E-02;  0.0000000E+00; -4.6864226E-03;  3.3587085E+02;
  6.5178847E-01;  9.9999998E-03; -3.9994884E-02;6437;  7.3287738E-03;  0.0000000E+00;  2.1137056E-04;  1.0002659E+03;  1.0447374E-01;  2.2024069E+02;3;  1.2074744E+00;  0.0000000E+00; -2.7118325E-03;0;  2.0897787E-02;  3.6687141E+04;  0.0000000E+00; -5.7415195E-02;  4.0000000E+04;  0.0000000E+00;  3.9973523E+04;  2.5544005E-02;  0.0000000E+00; -4.6462175E-03;  3.7395511E+02;
  6.5178847E-01;  9.9999998E-03;  3.9994922E-02;6445;  7.3287915E-03;  0.0000000E+00; -2.1128105E-04;  1.0002659E+03;  1.0447374E-01;  2.2024069E+02;3;  1.2074797E+00;  0.0000000E+00;  2.7352499E-03;0;  2.0897772E-02;  3.6687145E+04;  0.0000000E+00; -5.7412330E-02;  4.0000000E+04;  0.0000000E+00;  3.9973523E+04;  2.5543990E-02;  0.0000000E+00; -4.6462179E-03;  3.7394482E+02;
  6.5177697E-01;  9.9999998E-03; -4.9994379E-02;6436;  7.5030173E-03;  0.0000000E+00;  2.5404192E-04;  1.0002227E+03;  1.0447542E-01;  1.8448862E+02;3;  1.2734969E+00;  0.0000000E+00; -2.5108785E-03;0;  2.0835407E-02;  3.6682898E+04;  0.0000000E+00; -9.3782887E-02;  4.0000000E+04;  0.0000000E+00;  3.9973383E+04;  2.5433794E-02;  0.0000000E+00; -4.5983871E-03;  4.0908411E+02;
  6.5177697E-01;  9.9999998E-03;  4.9994420E-02;6446;  7.5030397E-03;  0.0000000E+00; -2.5395092E-04;  1.0002227E+03;  1.0447542E-01;  1.8448862E+02;3;  1.2734991E+00;  0.0000000E+00;  2.5261124E-03;0;  2.0835442E-02;  3.6682902E+04;  0.0000000E+00; -9.3781121E-02;  4.0000000E+04;  0.0000000E+00;  3.9973383E+04;  2.5433822E-02;  0.0000000E+00; -4.5983787E-03;  4.0907538E+02;
  6.5175700E-01;  9.9999998E-03; -5.9994269E-02;6435;  7.6570464E-03;  0.0000000E+00;  3.0303589E-04;  1.0001866E+03;  1.0447723E-01;  1.5456352E+02;3;  1.3336619E+00;  0.0000000E+00;  4.8863464E-03;0;  2.0757912E-02;  3.6678492E+04;  0.0000000E+00; -1.4013889E-01;  4.0000000E+04;  0.0000000E+00;  3.9973566E+04;  2.5301667E-02;  0.0000000E+00; -4.5437552E-03;  4.3765298E+02;
  6.5175700E-01;  9.9999998E-03;  5.9994310E-02;6447;  7.6570716E-03;  0.0000000E+00; -3.0294483E-04;  1.0001867E+03;  1.0447721E-01;  1.5466229E+02;3;  1.3336717E+00;  0.0000000E+00; -4.8806882E-03;0;  2.0757915E-02;  3.6678500E+04;  0.0000000E+00; -1.4013807E-01;  4.0000000E+04;  0.0000000E+00;  3.9973562E+04;  2.5301661E-02;  0.0000000E+00; -4.5437464E-03;  4.3764136E+02;
  6.5172726E-01;  9.9999998E-03; -6.9994062E-02;6434;  7.7406573E-03;  0.0000000E+00;  3.5956281E-04;  1.0001440E+03;  1.0447907E-01;  1.1930527E+02;3;  1.3634816E+00;  0.0000000E+00;  1.0027106E-02;0;  2.0666707E-02;  3.6673906E+04;  0.0000000E+00; -1.9523323E-01;  4.0000000E+04;  0.0000000E+00;  3.9973176E+04;  2.5148837E-02;  0.0000000E+00; -4.4821305E-03;  4.6159470E+02;
  6.5168709E-01;  9.9999998E-03; -7.9993486E-02;6433;  7.7301832E-03;  0.0000000E+00;  4.1744325E-04;  1.0001031E+03;  1.0448122E-01;  8.5429680E+01;3;  1.3556616E+00;  0.0000000E+00;  1.4989005E-02;0;  2.0565607E-02;  3.6669598E+04;  0.0000000E+00; -2.5607765E-01;  4.0000000E+04;  0.0000000E+00;  3.9972473E+04;  2.4978286E-02;  0.0000000E+00; -4.4126799E-03;  4.8947006E+02;
  6.5163690E-01;  9.9999998E-03; -8.9993052E-02;6432;  7.6120193E-03;  0.0000000E+00;  4.6961254E-04;  1.0000729E+03;  1.0448410E-01;  6.0442734E+01;3;  1.3047856E+00;  0.0000000E+00;  1.4488979E-02;0;  2.0458724E-02;  3.6665488E+04;  0.0000000E+00; -3.1793526E-01;  4.0000000E+04;  0.0000000E+00;  3.9971805E+04;  2.4793686E-02;  0.0000000E+00; -4.3349615E-03;  5.3202832E+02;
  6.5157878E-01;  9.9999998E-03; -9.9993043E-02;6431;  7.4171834E-03;  0.0000000E+00;  5.0910510E-04;  1.0000406E+03;  1.0448702E-01;  3.3678059E+01;3;  1.2212435E+00;  0.0000000E+00;  1.1620173E-02;0;  2.0353543E-02;  3.6661930E+04;  0.0000000E+00; -3.7465718E-01;  4.0000000E+04;  0.0000000E+00;  3.9970480E+04;  2.4602992E-02;  0.0000000E+00; -4.2494494E-03;  5.9226831E+02;
  6.6184580E-01;  9.9999998E-03; -9.9960025E-03;6501;  7.9140309E-03;  0.0000000E+00;  5.6373778E-05;  1.0008103E+03;  1.0608612E-01;  6.7128967E+02;3;  1.4445976E+00;  0.0000000E+00;  6.5111448E-03;0;  2.2062350E-02;  3.5616180E+04;  0.0000000E+00; -5.0813938E-03;  4.0000000E+04;  0.0000000E+00;  3.9962855E+04;  2.6950143E-02;  0.0000000E+00; -4.8877927E-03;  2.7957571E+02;
  6.6184604E-01;  9.9999998E-03;  2.2051136E-08;6502;  7.8793475E-03;  0.0000000E+00;  4.8752035E-08;  1.0008194E+03;  1.0608586E-01;  6.7889441E+02;3;  1.4310199E+00;  0.0000000E+00;  1.6824724E-05;0;  2.2071868E-02;  3.5616875E+04;  0.0000000E+00; -1.3767784E-10;  4.0000000E+04;  0.0000000E+00;  3.9962711E+04;  2.6966522E-02;  0.0000000E+00; -4.8946543E-03;  2.6784549E+02;
  6.6184580E-01;  9.9999998E-03;  9.9960463E-03;6503;  7.9139965E-03;  0.0000000E+00; -5.6276829E-05;  1.0008101E+03;  1.0608622E-01;  6.7119092E+02;3;  1.4445740E+00;  0.0000000E+00; -6.4845965E-03;0;  2.2062363E-02;  3.5616188E+04;  0.0000000E+00; -5.0787292E-03;  4.0000000E+04;  0.0000000E+00;  3.9962855E+04;  2.6950154E-02;  0.0000000E+00; -4.8877909E-03;  2.7958221E+02;
  6.6184509E-01;  9.9999998E-03; -1.9992052E-02;6500;  8.0146799E-03;  0.0000000E+00;  1.1036581E-04;  1.0007884E+03;  1.0608685E-01;  6.5321606E+02;3;  1.4874139E+00;  0.0000000E+00;  6.8818363E-03;0;  2.2034490E-02;  3.5613957E+04;  0.0000000E+00; -2.0624349E-02;  4.0000000E+04;  0.0000000E+00;  3.9962855E+04;  2.6902309E-02;  0.0000000E+00; -4.8678182E-03;  3.1311667E+02;
  6.6184509E-01;  9.9999998E-03;  1.9992096E-02;6504;  8.0146790E-03;  0.0000000E+00; -1.1026897E-04;  1.0007883E+03;  1.0608685E-01;  6.5311731E+02;3;  1.4874215E+00;  0.0000000E+00; -6.8511888E-03;0;  2.2034479E-02;  3.5613961E+04;  0.0000000E+00; -2.0619953E-02;  4.0000000E+04;  0.0000000E+00;  3.9962859E+04;  2.6902294E-02;  0.0000000E+00; -4.8678145E-03;  3.1311545E+02;
  6.6184294E-01;  9.9999998E-03; -2.9988155E-02;6499;  8.1675807E-03;  0.0000000E+00;  1.6075755E-04;  1.0007592E+03;  1.0608841E-01;  6.2892047E+02;3;  1.5527569E+00;  0.0000000E+00;  1.3145970E-02;0;  2.1989420E-02;  3.5610270E+04;  0.0000000E+00; -4.7368985E-02;  4.0000000E+04;  0.0000000E+00;  3.9963109E+04;  2.6825769E-02;  0.0000000E+00; -4.8363493E-03;  3.6354581E+02;
  6.6184294E-01;  9.9999998E-03;  2.9988198E-02;6505;  8.1675854E-03;  0.0000000E+00; -1.6066150E-04;  1.0007591E+03;  1.0608827E-01;  6.2892047E+02;3;  1.5527428E+00;  0.0000000E+00; -1.3121035E-02;0;  2.1989437E-02;  3.5610266E+04;  0.0000000E+00; -4.7362857E-02;  4.0000000E+04;  0.0000000E+00;  3.9963113E+04;  2.6825782E-02;  0.0000000E+00; -4.8363451E-03;  3.6355780E+02;
  6.6183740E-01;  9.9999998E-03; -3.9984394E-02;6498;  8.3427513E-03;  0.0000000E+00;  2.0982364E-04;  1.0007208E+03;  1.0609008E-01;  5.9721765E+02;3;  1.6258144E+00;  0.0000000E+00;  1.7017033E-02;0;  2.1928206E-02;  3.5605562E+04;  0.0000000E+00; -8.6090237E-02;  4.0000000E+04;  0.0000000E+00;  3.9963496E+04;  2.6723623E-02;  0.0000000E+00; -4.7954177E-03;  4.2349329E+02;
  6.6183740E-01;  9.9999998E-03;  3.9984439E-02;6506;  8.3427746E-03;  0.0000000E+00; -2.0972699E-04;  1.0007208E+03;  1.0609008E-01;  5.9721765E+02;3;  1.6258181E+00;  0.0000000E+00; -1.6989952E-02;0;  2.1928219E-02;  3.5605562E+04;  0.0000000E+00; -8.6083099E-02;  4.0000000E+04;  0.0000000E+00;  3.9963496E+04;  2.6723629E-02;  0.0000000E+00; -4.7954097E-03;  4.2347876E+02;
  6.6182643E-01;  9.9999998E-03; -4.9981143E-02;6497;  8.4972540E-03;  0.0000000E+00;  2.5997087E-04;  1.0006684E+03;  1.0609205E-01;  5.5376215E+02;3;  1.6813276E+00;  0.0000000E+00;  2.0287320E-02;0;  2.1852542E-02;  3.5600348E+04;  0.0000000E+00; -1.3705978E-01;  4.0000000E+04;  0.0000000E+00;  3.9963578E+04;  2.6599325E-02;  0.0000000E+00; -4.7467845E-03;  4.8531143E+02;
  6.6182643E-01;  9.9999998E-03;  4.9981184E-02;6507;  8.4972614E-03;  0.0000000E+00; -2.5987375E-04;  1.0006683E+03;  1.0609199E-01;  5.5366333E+02;3;  1.6813196E+00;  0.0000000E+00; -2.0269208E-02;0;  2.1852579E-02;  3.5600352E+04;  0.0000000E+00; -1.3705404E-01;  4.0000000E+04;  0.0000000E+00;  3.9963578E+04;  2.6599359E-02;  0.0000000E+00; -4.7467789E-03;  4.8530927E+02;
  6.6180855E-01;  9.9999998E-03; -5.9978195E-02;6496;  8.6018825E-03;  0.0000000E+00;  3.1473840E-04;  1.0006230E+03;  1.0609499E-01;  5.1613354E+02;3;  1.7135874E+00;  0.0000000E+00;  2.7217854E-02;0;  2.1768421E-02;  3.5594758E+04;  0.0000000E+00; -1.9938442E-01;  4.0000000E+04;  0.0000000E+00;  3.9963773E+04;  2.6459916E-02;  0.0000000E+00; -4.6914937E-03;  5.4401556E+02;
  6.6180855E-01;  9.9999998E-03;  5.9978236E-02;6508;  8.6018983E-03;  0.0000000E+00; -3.1464107E-04;  1.0006230E+03;  1.0609499E-01;  5.1613354E+02;3;  1.7135909E+00;  0.0000000E+00; -2.7211675E-02;0;  2.1768413E-02;  3.5594762E+04;  0.0000000E+00; -1.9938308E-01;  4.0000000E+04;  0.0000000E+00;  3.9963773E+04;  2.6459899E-02;  0.0000000E+00; -4.6914844E-03;  5.4402716E+02;
  6.6178250E-01;  9.9999998E-03; -6.9975592E-02;6495;  8.6310832E-03;  0.0000000E+00;  3.7729854E-04;  1.0005795E+03;  1.0609844E-01;  4.8008517E+02;3;  1.7070436E+00;  0.0000000E+00;  3.3022832E-02;0;  2.1682447E-02;  3.5589309E+04;  0.0000000E+00; -2.7038777E-01;  4.0000000E+04;  0.0000000E+00;  3.9963340E+04;  2.6312185E-02;  0.0000000E+00; -4.6297386E-03;  5.9961896E+02;
  6.6174752E-01;  9.9999998E-03; -7.9973340E-02;6494;  8.5712038E-03;  0.0000000E+00;  4.4174690E-04;  1.0005396E+03;  1.0610209E-01;  4.4709848E+02;3;  1.6703701E+00;  0.0000000E+00;  3.7778780E-02;0;  2.1600893E-02;  3.5583855E+04;  0.0000000E+00; -3.4529564E-01;  4.0000000E+04;  0.0000000E+00;  3.9962602E+04;  2.6161939E-02;  0.0000000E+00; -4.5610461E-03;  6.5687054E+02;
  6.6170311E-01;  9.9999998E-03; -8.9971803E-02;6493;  8.4102442E-03;  0.0000000E+00;  5.0218432E-04;  1.0005070E+03;  1.0610646E-01;  4.2003751E+02;3;  1.5934131E+00;  0.0000000E+00;  3.7470449E-02;0;  2.1526767E-02;  3.5579195E+04;  0.0000000E+00; -4.1731790E-01;  4.0000000E+04;  0.0000000E+00;  3.9961824E+04;  2.6011735E-02;  0.0000000E+00; -4.4849683E-03;  7.2033728E+02;
  6.6164994E-01;  9.9999998E-03; -9.9971324E-02;6492;  8.1389500E-03;  0.0000000E+00;  5.5318675E-04;  1.0004826E+03;  1.0611106E-01;  3.9979117E+02;3;  1.4824555E+00;  0.0000000E+00;  3.0955963E-02;0;  2.1459874E-02;  3.5575004E+04;  0.0000000E+00; -4.7826836E-01;  4.0000000E+04;  0.0000000E+00;  3.9960773E+04;  2.5861463E-02;  0.0000000E+00; -4.4015897E-03;  7.8759998E+02;
  6.7171305E-01;  9.9999998E-03; -9.9955261E-02;6553;  8.9186197E-03;  0.0000000E+00;  5.4176297E-04;  1.0006003E+03;  1.0800669E-01;  4.9736865E+02;3;  1.7600349E+00;  0.0000000E+00;  2.8508319E-02;0;  2.2564378E-02;  3.4340445E+04;  0.0000000E+00; -5.0015980E-01;  4.0000000E+04;  0.0000000E+00;  3.9948656E+04;  2.7120702E-02;  0.0000000E+00; -4.5563234E-03;  8.6617944E+02;
  6.7173773E-01;  9.9999998E-03; -8.9957595E-02;6554;  9.1015985E-03;  0.0000000E+00;  4.7803053E-04;  1.0006058E+03;  1.0799950E-01;  5.0191174E+02;3;  1.8422496E+00;  0.0000000E+00;  2.7748462E-02;0;  2.2535861E-02;  3.4344691E+04;  0.0000000E+00; -4.4417563E-01;  4.0000000E+04;  0.0000000E+00;  3.9949883E+04;  2.7173080E-02;  0.0000000E+00; -4.6372181E-03;  8.0356110E+02;
  6.7175645E-01;  9.9999998E-03; -7.9961024E-02;6555;  9.1951834E-03;  0.0000000E+00;  4.1179714E-04;  1.0006241E+03;  1.0799278E-01;  5.1702240E+02;3;  1.8993391E+00;  0.0000000E+00;  2.3240361E-02;0;  2.2530824E-02;  3.4349789E+04;  0.0000000E+00; -3.7265646E-01;  4.0000000E+04;  0.0000000E+00;  3.9950789E+04;  2.7242145E-02;  0.0000000E+00; -4.7113206E-03;  7.3289301E+02;
  6.7177027E-01;  9.9999998E-03; -6.9965094E-02;6556;  9.2247631E-03;  0.0000000E+00;  3.4877044E-04;  1.0006499E+03;  1.0798662E-01;  5.3845392E+02;3;  1.9397482E+00;  0.0000000E+00;  1.5440827E-02;0;  2.2557054E-02;  3.4355441E+04;  0.0000000E+00; -2.9509550E-01;  4.0000000E+04;  0.0000000E+00;  3.9951395E+04;  2.7336160E-02;  0.0000000E+00; -4.7791065E-03;  6.5939630E+02;
  6.7178047E-01;  9.9999998E-03; -5.9969649E-02;6557;  9.2129298E-03;  0.0000000E+00;  2.9138516E-04;  1.0006913E+03;  1.0798125E-01;  5.7272455E+02;3;  1.9549239E+00;  0.0000000E+00;  5.7593356E-03;0;  2.2615347E-02;  3.4361691E+04;  0.0000000E+00; -2.1965224E-01;  4.0000000E+04;  0.0000000E+00;  3.9951699E+04;  2.7456403E-02;  0.0000000E+00; -4.8410567E-03;  5.8212408E+02;
  6.7178780E-01;  9.9999998E-03; -4.9974345E-02;6558;  9.1742985E-03;  0.0000000E+00;  2.4141153E-04;  1.0007362E+03;  1.0797668E-01;  6.0995807E+02;3;  1.9585495E+00;  0.0000000E+00;  3.1645638E-03;0;  2.2698171E-02;  3.4367984E+04;  0.0000000E+00; -1.5222813E-01;  4.0000000E+04;  0.0000000E+00;  3.9951617E+04;  2.7595315E-02;  0.0000000E+00; -4.8971437E-03;  4.9918539E+02;
  6.7179251E-01;  9.9999998E-03; -3.9979238E-02;6559;  9.1133779E-03;  0.0000000E+00;  1.9451274E-04;  1.0007787E+03;  1.0797307E-01;  6.4511755E+02;3;  1.9559900E+00;  0.0000000E+00;  4.5110267E-03;0;  2.2790583E-02;  3.4374090E+04;  0.0000000E+00; -9.6289456E-02;  4.0000000E+04;  0.0000000E+00;  3.9951246E+04;  2.7737213E-02;  0.0000000E+00; -4.9466309E-03;  4.1283023E+02;
  6.7179525E-01;  9.9999998E-03; -2.9984370E-02;6560;  9.0413773E-03;  0.0000000E+00;  1.4691794E-04;  1.0008212E+03;  1.0797056E-01;  6.8027704E+02;3;  1.9421521E+00;  0.0000000E+00;  1.8822271E-03;0;  2.2878140E-02;  3.4379352E+04;  0.0000000E+00; -5.3285521E-02;  4.0000000E+04;  0.0000000E+00;  3.9950801E+04;  2.7866345E-02;  0.0000000E+00; -4.9882038E-03;  3.3062302E+02;
  6.7179632E-01;  9.9999998E-03; -1.9989427E-02;6561;  8.9701125E-03;  0.0000000E+00;  9.9050034E-05;  1.0008505E+03;  1.0796814E-01;  7.0467145E+02;3;  1.9205639E+00;  0.0000000E+00;  1.6870426E-03;0;  2.2947837E-02;  3.4383516E+04;  0.0000000E+00; -2.3306454E-02;  4.0000000E+04;  0.0000000E+00;  3.9950363E+04;  2.7967896E-02;  0.0000000E+00; -5.0200592E-03;  2.6288223E+02;
  6.7179680E-01;  9.9999998E-03; -9.9946465E-03;6562;  8.9201517E-03;  0.0000000E+00;  5.0427803E-05;  1.0008747E+03;  1.0796691E-01;  7.2462146E+02;3;  1.9053574E+00;  0.0000000E+00;  1.7733835E-03;0;  2.2992872E-02;  3.4386391E+04;  0.0000000E+00; -5.7609822E-03;  4.0000000E+04;  0.0000000E+00;  3.9950055E+04;  2.8033093E-02;  0.0000000E+00; -5.0402205E-03;  2.1882712E+02;
  6.7179686E-01;  9.9999998E-03;  2.2904809E-08;6563;  8.9015737E-03;  0.0000000E+00;  5.3460081E-08;  1.0008822E+03;  1.0796670E-01;  7.3084351E+02;3;  1.8999397E+00;  0.0000000E+00;  1.8902874E-05;0;  2.3008194E-02;  3.4387277E+04;  0.0000000E+00; -1.7249099E-10;  4.0000000E+04;  0.0000000E+00;  3.9950164E+04;  2.8055329E-02;  0.0000000E+00; -5.0471351E-03;  2.0374753E+02;
  6.7179680E-01;  9.9999998E-03;  9.9946922E-03;6564;  8.9201713E-03;  0.0000000E+00; -5.0320999E-05;  1.0008748E+03;  1.0796720E-01;  7.2472021E+02;3;  1.9053717E+00;  0.0000000E+00; -1.7343254E-03;0;  2.2992900E-02;  3.4386391E+04;  0.0000000E+00; -5.7580867E-03;  4.0000000E+04;  0.0000000E+00;  3.9950051E+04;  2.8033115E-02;  0.0000000E+00; -5.0402158E-03;  2.1884883E+02;
  6.7179632E-01;  9.9999998E-03;  1.9989472E-02;6565;  8.9700883E-03;  0.0000000E+00; -9.8944889E-05;  1.0008503E+03;  1.0796822E-01;  7.0447388E+02;3;  1.9205623E+00;  0.0000000E+00; -1.6509750E-03;0;  2.2947855E-02;  3.4383516E+04;  0.0000000E+00; -2.3300728E-02;  4.0000000E+04;  0.0000000E+00;  3.9950359E+04;  2.7967915E-02;  0.0000000E+00; -5.0200596E-03;  2.6287784E+02;
  6.7179525E-01;  9.9999998E-03;  2.9984415E-02;6566;  9.0414016E-03;  0.0000000E+00; -1.4681273E-04;  1.0008212E+03;  1.0797051E-01;  6.8037579E+02;3;  1.9421709E+00;  0.0000000E+00; -1.8478354E-03;0;  2.2878163E-02;  3.4379352E+04;  0.0000000E+00; -5.3278655E-02;  4.0000000E+04;  0.0000000E+00;  3.9950801E+04;  2.7866367E-02;  0.0000000E+00; -4.9882056E-03;  3.3063565E+02;
  6.7179251E-01;  9.9999998E-03;  3.9979283E-02;6567;  9.1133835E-03;  0.0000000E+00; -1.9440937E-04;  1.0007786E+03;  1.0797307E-01;  6.4511755E+02;3;  1.9559664E+00;  0.0000000E+00; -4.4811941E-03;0;  2.2790644E-02;  3.4374090E+04;  0.0000000E+00; -9.6281640E-02;  4.0000000E+04;  0.0000000E+00;  3.9951250E+04;  2.7737275E-02;  0.0000000E+00; -4.9466304E-03;  4.1282767E+02;
  6.7178780E-01;  9.9999998E-03;  4.9974389E-02;6568;  9.1743246E-03;  0.0000000E+00; -2.4130882E-04;  1.0007363E+03;  1.0797677E-01;  6.0995807E+02;3;  1.9585657E+00;  0.0000000E+00; -3.1391606E-03;0;  2.2698216E-02;  3.4367980E+04;  0.0000000E+00; -1.5222104E-01;  4.0000000E+04;  0.0000000E+00;  3.9951617E+04;  2.7595356E-02;  0.0000000E+00; -4.8971390E-03;  4.9918170E+02;
  6.7178047E-01;  9.9999998E-03;  5.9969690E-02;6569;  9.2129586E-03;  0.0000000E+00; -2.9128272E-04;  1.0006913E+03;  1.0798122E-01;  5.7272455E+02;3;  1.9549092E+00;  0.0000000E+00; -5.7491479E-03;0;  2.2615358E-02;  3.4361691E+04;  0.0000000E+00; -2.1964835E-01;  4.0000000E+04;  0.0000000E+00;  3.9951699E+04;  2.7456410E-02;  0.0000000E+00; -4.8410529E-03;  5.8211981E+02;
  6.8174386E-01;  9.9999998E-03; -9.9955365E-02;6614;  9.3105994E-03;  0.0000000E+00;  5.0123339E-04;  1.0003170E+03;  1.1015628E-01;  2.6260986E+02;3;  1.9038795E+00;  0.0000000E+00;  6.5894239E-03;0;  2.3597557E-02;  3.2993949E+04;  0.0000000E+00; -4.2024735E-01;  4.0000000E+04;  0.0000000E+00;  3.9935312E+04;  2.8313490E-02;  0.0000000E+00; -4.7159325E-03;  7.7898627E+02;
  6.8174332E-01;  9.9999998E-03; -8.9957431E-02;6615;  9.3814898E-03;  0.0000000E+00;  4.4148089E-04;  1.0002834E+03;  1.1014520E-01;  2.3485756E+02;3;  1.9615668E+00;  0.0000000E+00; -5.5686705E-04;0;  2.3450896E-02;  3.2998309E+04;  0.0000000E+00; -3.8043150E-01;  4.0000000E+04;  0.0000000E+00;  3.9936371E+04;  2.8245961E-02;  0.0000000E+00; -4.7950656E-03;  7.3824860E+02;
  6.8174022E-01;  9.9999998E-03; -7.9960503E-02;6616;  9.4015598E-03;  0.0000000E+00;  3.8760129E-04;  1.0002696E+03;  1.1013468E-01;  2.2340109E+02;3;  1.9891213E+00;  0.0000000E+00; -4.1143857E-03;0;  2.3351416E-02;  3.3002883E+04;  0.0000000E+00; -3.2314226E-01;  4.0000000E+04;  0.0000000E+00;  3.9936871E+04;  2.8219279E-02;  0.0000000E+00; -4.8678629E-03;  6.8108350E+02;
  6.8173552E-01;  9.9999998E-03; -6.9964290E-02;6617;  9.4014695E-03;  0.0000000E+00;  3.3881183E-04;  1.0002733E+03;  1.1012568E-01;  2.2646274E+02;3;  2.0038595E+00;  0.0000000E+00; -9.4642546E-03;0;  2.3311000E-02;  3.3008520E+04;  0.0000000E+00; -2.5768867E-01;  4.0000000E+04;  0.0000000E+00;  3.9937492E+04;  2.8246276E-02;  0.0000000E+00; -4.9352767E-03;  6.1167822E+02;
  6.8172973E-01;  9.9999998E-03; -5.9968758E-02;6618;  9.3876785E-03;  0.0000000E+00;  2.9204320E-04;  1.0002886E+03;  1.1011732E-01;  2.3910435E+02;3;  2.0131521E+00;  0.0000000E+00; -8.8509656E-03;0;  2.3325771E-02;  3.3015086E+04;  0.0000000E+00; -1.9238482E-01;  4.0000000E+04;  0.0000000E+00;  3.9937656E+04;  2.8323511E-02;  0.0000000E+00; -4.9977391E-03;  5.2974060E+02;
  6.8172348E-01;  9.9999998E-03; -4.9973667E-02;6619;  9.3635786E-03;  0.0000000E+00;  2.4450742E-04;  1.0003234E+03;  1.1011066E-01;  2.6794305E+02;3;  2.0197251E+00;  0.0000000E+00; -7.2733858E-03;0;  2.3383861E-02;  3.3021844E+04;  0.0000000E+00; -1.3334906E-01;  4.0000000E+04;  0.0000000E+00;  3.9937477E+04;  2.8438563E-02;  0.0000000E+00; -5.0547016E-03;  4.3491214E+02;
  6.8171722E-01;  9.9999998E-03; -3.9978929E-02;6620;  9.3308780E-03;  0.0000000E+00;  1.9587313E-04;  1.0003563E+03;  1.1010469E-01;  2.9520154E+02;3;  2.0178778E+00;  0.0000000E+00; -4.7556409E-03;0;  2.3467589E-02;  3.3028730E+04;  0.0000000E+00; -8.4222063E-02;  4.0000000E+04;  0.0000000E+00;  3.9936770E+04;  2.8572544E-02;  0.0000000E+00; -5.1049544E-03;  3.3186719E+02;
  6.8171132E-01;  9.9999998E-03; -2.9984359E-02;6621;  9.2972266E-03;  0.0000000E+00;  1.4808454E-04;  1.0003940E+03;  1.1010028E-01;  3.2641052E+02;3;  2.0156054E+00;  0.0000000E+00; -7.1389466E-03;0;  2.3558449E-02;  3.3034785E+04;  0.0000000E+00; -4.6528514E-02;  4.0000000E+04;  0.0000000E+00;  3.9936391E+04;  2.8705444E-02;  0.0000000E+00; -5.1469957E-03;  2.3110570E+02;
  6.8170637E-01;  9.9999998E-03; -1.9989785E-02;6622;  9.2678024E-03;  0.0000000E+00;  9.9987446E-05;  1.0004267E+03;  1.1009674E-01;  3.5347150E+02;3;  2.0159910E+00;  0.0000000E+00; -4.0702471E-03;0;  2.3638085E-02;  3.3039406E+04;  0.0000000E+00; -2.0330649E-02;  4.0000000E+04;  0.0000000E+00;  3.9935863E+04;  2.8817127E-02;  0.0000000E+00; -5.1790420E-03;  1.4622687E+02;
  6.8170297E-01;  9.9999998E-03; -9.9951373E-03;6623;  9.2460942E-03;  0.0000000E+00;  5.0209444E-05;  1.0004449E+03;  1.1009508E-01;  3.6858215E+02;3;  2.0159132E+00;  0.0000000E+00; -1.6842606E-03;0;  2.3691434E-02;  3.3042402E+04;  0.0000000E+00; -5.0227367E-03;  4.0000000E+04;  0.0000000E+00;  3.9935156E+04;  2.8890643E-02;  0.0000000E+00; -5.1992089E-03;  9.0336037E+01;
  6.8170184E-01;  9.9999998E-03;  2.3388454E-08;6624;  9.2380177E-03;  0.0000000E+00;  5.4520203E-08;  1.0004511E+03;  1.1009413E-01;  3.7371783E+02;3;  2.0160415E+00;  0.0000000E+00;  1.5340167E-05;0;  2.3710126E-02;  3.3043461E+04;  0.0000000E+00; -2.0106158E-10;  4.0000000E+04;  0.0000000E+00;  3.9935184E+04;  2.8916240E-02;  0.0000000E+00; -5.2061137E-03;  7.1370239E+01;
  6.8170297E-01;  9.9999998E-03;  9.9951839E-03;6625;  9.2460997E-03;  0.0000000E+00; -5.0100080E-05;  1.0004449E+03;  1.1009508E-01;  3.6858215E+02;3;  2.0159063E+00;  0.0000000E+00;  1.7210776E-03;0;  2.3691444E-02;  3.3042402E+04;  0.0000000E+00; -5.0197011E-03;  4.0000000E+04;  0.0000000E+00;  3.9935156E+04;  2.8890651E-02;  0.0000000E+00; -5.1992070E-03;  9.0327774E+01;
  6.8170643E-01;  9.9999998E-03;  1.9989831E-02;6626;  9.2678154E-03;  0.0000000E+00; -9.9879231E-05;  1.0004268E+03;  1.1009681E-01;  3.5357025E+02;3;  2.0159676E+00;  0.0000000E+00;  4.1041528E-03;0;  2.3638090E-02;  3.3039402E+04;  0.0000000E+00; -2.0324709E-02;  4.0000000E+04;  0.0000000E+00;  3.9935863E+04;  2.8817128E-02;  0.0000000E+00; -5.1790383E-03;  1.4622488E+02;
  6.8171132E-01;  9.9999998E-03;  2.9984405E-02;6627;  9.2972377E-03;  0.0000000E+00; -1.4797738E-04;  1.0003940E+03;  1.1010028E-01;  3.2641052E+02;3;  2.0155959E+00;  0.0000000E+00;  7.1733659E-03;0;  2.3558412E-02;  3.3034785E+04;  0.0000000E+00; -4.6522208E-02;  4.0000000E+04;  0.0000000E+00;  3.9936391E+04;  2.8705414E-02;  0.0000000E+00; -5.1470022E-03;  2.3110289E+02;
  6.8171722E-01;  9.9999998E-03;  3.9978974E-02;6628;  9.3308967E-03;  0.0000000E+00; -1.9576649E-04;  1.0003563E+03;  1.1010469E-01;  2.9520154E+02;3;  2.0178676E+00;  0.0000000E+00;  4.7925296E-03;0;  2.3467593E-02;  3.3028723E+04;  0.0000000E+00; -8.4214196E-02;  4.0000000E+04;  0.0000000E+00;  3.9936770E+04;  2.8572550E-02;  0.0000000E+00; -5.1049571E-03;  3.3185132E+02;
  6.8172348E-01;  9.9999998E-03;  4.9973715E-02;6629;  9.3636001E-03;  0.0000000E+00; -2.4440343E-04;  1.0003234E+03;  1.1011063E-01;  2.6794305E+02;3;  2.0197132E+00;  0.0000000E+00;  7.2985343E-03;0;  2.3383880E-02;  3.3021848E+04;  0.0000000E+00; -1.3334328E-01;  4.0000000E+04;  0.0000000E+00;  3.9937477E+04;  2.8438585E-02;  0.0000000E+00; -5.0547044E-03;  4.3490442E+02;
  6.8172973E-01;  9.9999998E-03;  5.9968803E-02;6630;  9.3877092E-03;  0.0000000E+00; -2.9193994E-04;  1.0002887E+03;  1.1011732E-01;  2.3920311E+02;3;  2.0131202E+00;  0.0000000E+00;  8.8664303E-03;0;  2.3325799E-02;  3.3015078E+04;  0.0000000E+00; -1.9238208E-01;  4.0000000E+04;  0.0000000E+00;  3.9937656E+04;  2.8323537E-02;  0.0000000E+00; -4.9977382E-03;  5.2974207E+02;
  6.9231755E-01;  9.9999998E-03; -9.9998526E-02;6675;  9.4234813E-03;  0.0000000E+00;  4.7815201E-04;  9.9971155E+02;  1.1264547E-01; -2.3895621E+02;3;  1.9716271E+00;  0.0000000E+00; -2.0546295E-02;0;  2.4750277E-02;  3.1523051E+04;  0.0000000E+00; -2.3262234E-01;  4.0000000E+04;  0.0000000E+00;  3.9919586E+04;  2.9646669E-02;  0.0000000E+00; -4.8963907E-03;  4.9406747E+02;
  6.9228780E-01;  9.9999998E-03; -8.9996770E-02;6676;  9.4394395E-03;  0.0000000E+00;  4.3274194E-04;  9.9962982E+02;  1.1262806E-01; -3.0670737E+02;3;  1.9895381E+00;  0.0000000E+00; -2.4393255E-02;0;  2.4516981E-02;  3.1526957E+04;  0.0000000E+00; -2.2056466E-01;  4.0000000E+04;  0.0000000E+00;  3.9920344E+04;  2.9491695E-02;  0.0000000E+00; -4.9747135E-03;  5.0118414E+02;
  6.9225085E-01;  9.9999998E-03; -7.9995982E-02;6677;  9.4421413E-03;  0.0000000E+00;  3.9059643E-04;  9.9957245E+02;  1.1261085E-01; -3.5421222E+02;3;  2.0075929E+00;  0.0000000E+00; -2.2057567E-02;0;  2.4349738E-02;  3.1532861E+04;  0.0000000E+00; -1.9247207E-01;  4.0000000E+04;  0.0000000E+00;  3.9921020E+04;  2.9396558E-02;  0.0000000E+00; -5.0468207E-03;  4.8871671E+02;
  6.9220871E-01;  9.9999998E-03; -6.9995001E-02;6678;  9.4334232E-03;  0.0000000E+00;  3.4647499E-04;  9.9954425E+02;  1.1259457E-01; -3.7756958E+02;3;  2.0170515E+00;  0.0000000E+00; -1.9221894E-02;0;  2.4250928E-02;  3.1540305E+04;  0.0000000E+00; -1.5562090E-01;  4.0000000E+04;  0.0000000E+00;  3.9921180E+04;  2.9364912E-02;  0.0000000E+00; -5.1139835E-03;  4.5347601E+02;
  6.9216406E-01;  9.9999998E-03; -5.9994265E-02;6679;  9.4171651E-03;  0.0000000E+00;  2.9973846E-04;  9.9953754E+02;  1.1257912E-01; -3.8314966E+02;3;  2.0237644E+00;  0.0000000E+00; -1.7017329E-02;0;  2.4216542E-02;  3.1549113E+04;  0.0000000E+00; -1.1667686E-01;  4.0000000E+04;  0.0000000E+00;  3.9921281E+04;  2.9393084E-02;  0.0000000E+00; -5.1765423E-03;  3.9173047E+02;
  6.9212002E-01;  9.9999998E-03; -4.9994223E-02;6680;  9.4001768E-03;  0.0000000E+00;  2.5421206E-04;  9.9955084E+02;  1.1256533E-01; -3.7213763E+02;3;  2.0261464E+00;  0.0000000E+00; -1.8146228E-02;0;  2.4237042E-02;  3.1558619E+04;  0.0000000E+00; -8.0644436E-02;  4.0000000E+04;  0.0000000E+00;  3.9920938E+04;  2.9470727E-02;  0.0000000E+00; -5.2336850E-03;  3.0408047E+02;
  6.9207960E-01;  9.9999998E-03; -3.9994981E-02;6681;  9.3797650E-03;  0.0000000E+00;  2.0718270E-04;  9.9957727E+02;  1.1255291E-01; -3.5021231E+02;3;  2.0300858E+00;  0.0000000E+00; -1.3360032E-02;0;  2.4293453E-02;  3.1567842E+04;  0.0000000E+00; -5.0554439E-02;  4.0000000E+04;  0.0000000E+00;  3.9920590E+04;  2.9577404E-02;  0.0000000E+00; -5.2839518E-03;  1.9876485E+02;
  6.9204545E-01;  9.9999998E-03; -2.9996175E-02;6682;  9.3553867E-03;  0.0000000E+00;  1.5749809E-04;  9.9960651E+02;  1.1254330E-01; -3.2601547E+02;3;  2.0310364E+00;  0.0000000E+00; -9.3689542E-03;0;  2.4364416E-02;  3.1576262E+04;  0.0000000E+00; -2.7661119E-02;  4.0000000E+04;  0.0000000E+00;  3.9919629E+04;  2.9690178E-02;  0.0000000E+00; -5.3257626E-03;  9.1823372E+01;
  6.9201958E-01;  9.9999998E-03; -1.9997520E-02;6683;  9.3342848E-03;  0.0000000E+00;  1.0548995E-04;  9.9963403E+02;  1.1253632E-01; -3.0320129E+02;3;  2.0280786E+00;  0.0000000E+00; -6.3999868E-03;0;  2.4431746E-02;  3.1582783E+04;  0.0000000E+00; -1.1975160E-02;  4.0000000E+04;  0.0000000E+00;  3.9919148E+04;  2.9789135E-02;  0.0000000E+00; -5.3573879E-03;  3.0484655E+01;
  6.9200349E-01;  9.9999998E-03; -9.9989455E-03;6684;  9.3212081E-03;  0.0000000E+00;  5.2935153E-05;  9.9965338E+02;  1.1253200E-01; -2.8715237E+02;3;  2.0290248E+00;  0.0000000E+00; -4.0436098E-03;0;  2.4479711E-02;  3.1586807E+04;  0.0000000E+00; -2.9396398E-03;  4.0000000E+04;  0.0000000E+00;  3.9918477E+04;  2.9856930E-02;  0.0000000E+00; -5.3772181E-03;  7.9200729E+01;
  6.9199795E-01;  9.9999998E-03;  2.3811426E-08;6685;  9.3163447E-03;  0.0000000E+00;  5.4287618E-08;  9.9965692E+02;  1.1253030E-01; -2.8423886E+02;3;  2.0310690E+00;  0.0000000E+00;  1.3317160E-05;0;  2.4496816E-02;  3.1588420E+04;  0.0000000E+00; -2.1332493E-10;  4.0000000E+04;  0.0000000E+00;  3.9918426E+04;  2.9880797E-02;  0.0000000E+00; -5.3839823E-03;  1.0105097E+02;
  6.9200349E-01;  9.9999998E-03;  9.9989921E-03;6686;  9.3212044E-03;  0.0000000E+00; -5.2827010E-05;  9.9965332E+02;  1.1253189E-01; -2.8720175E+02;3;  2.0290205E+00;  0.0000000E+00;  4.0725558E-03;0;  2.4479706E-02;  3.1586814E+04;  0.0000000E+00; -2.9369728E-03;  4.0000000E+04;  0.0000000E+00;  3.9918477E+04;  2.9856926E-02;  0.0000000E+00; -5.3772205E-03;  7.9195473E+01;
  6.9201958E-01;  9.9999998E-03;  1.9997569E-02;6687;  9.3342820E-03;  0.0000000E+00; -1.0538248E-04;  9.9963391E+02;  1.1253625E-01; -3.0330005E+02;3;  2.0280759E+00;  0.0000000E+00;  6.4301048E-03;0;  2.4431758E-02;  3.1582787E+04;  0.0000000E+00; -1.1970312E-02;  4.0000000E+04;  0.0000000E+00;  3.9919145E+04;  2.9789152E-02;  0.0000000E+00; -5.3573940E-03;  3.0478853E+01;
  6.9204545E-01;  9.9999998E-03;  2.9996222E-02;6688;  9.3553821E-03;  0.0000000E+00; -1.5739183E-04;  9.9960632E+02;  1.1254327E-01; -3.2616360E+02;3;  2.0310025E+00;  0.0000000E+00;  9.3955537E-03;0;  2.4364401E-02;  3.1576262E+04;  0.0000000E+00; -2.7655186E-02;  4.0000000E+04;  0.0000000E+00;  3.9919633E+04;  2.9690156E-02;  0.0000000E+00; -5.3257560E-03;  9.1812912E+01;
  6.9207960E-01;  9.9999998E-03;  3.9995026E-02;6689;  9.3797883E-03;  0.0000000E+00; -2.0707733E-04;  9.9957733E+02;  1.1255290E-01; -3.5016293E+02;3;  2.0300694E+00;  0.0000000E+00;  1.3386550E-02;0;  2.4293438E-02;  3.1567842E+04;  0.0000000E+00; -5.0546505E-02;  4.0000000E+04;  0.0000000E+00;  3.9920586E+04;  2.9577397E-02;  0.0000000E+00; -5.2839601E-03;  1.9872845E+02;
  6.9212002E-01;  9.9999998E-03;  4.9994271E-02;6690;  9.4002001E-03;  0.0000000E+00; -2.5410776E-04;  9.9955084E+02;  1.1256533E-01; -3.7213763E+02;3;  2.0261302E+00;  0.0000000E+00;  1.8167892E-02;0;  2.4237037E-02;  3.1558619E+04;  0.0000000E+00; -8.0639377E-02;  4.0000000E+04;  0.0000000E+00;  3.9920938E+04;  2.9470727E-02;  0.0000000E+00; -5.2336897E-03;  3.0406973E+02;
  6.9216406E-01;  9.9999998E-03;  5.9994314E-02;6691;  9.4171902E-03;  0.0000000E+00; -2.9963488E-04;  9.9953754E+02;  1.1257912E-01; -3.8314966E+02;3;  2.0237434E+00;  0.0000000E+00;  1.7034225E-02;0;  2.4216522E-02;  3.1549115E+04;  0.0000000E+00; -1.1667413E-01;  4.0000000E+04;  0.0000000E+00;  3.9921289E+04;  2.9393068E-02;  0.0000000E+00; -5.1765470E-03;  3.9172971E+02;
  7.0442110E-01;  9.9999998E-03; -1.0016040E-01;6736;  9.4438782E-03;  0.0000000E+00;  4.8374382E-04;  9.9919574E+02;  1.1572332E-01; -6.6630212E+02;3;  1.9867210E+00;  0.0000000E+00; -3.9960556E-02;0;  2.6513511E-02;  2.9858494E+04;  0.0000000E+00;  6.3118845E-02;  4.0000000E+04;  0.0000000E+00;  3.9900562E+04;  3.1643379E-02;  0.0000000E+00; -5.1298677E-03;  1.0766220E+02;
  7.0441782E-01;  9.9999998E-03; -9.0150304E-02;6737;  9.4430260E-03;  0.0000000E+00;  4.4558465E-04;  9.9905658E+02;  1.1571142E-01; -7.8160754E+02;3;  2.0013912E+00;  0.0000000E+00; -3.7880767E-02;0;  2.6255488E-02;  2.9856199E+04;  0.0000000E+00;  3.8703293E-02;  4.0000000E+04;  0.0000000E+00;  3.9901371E+04;  3.1465132E-02;  0.0000000E+00; -5.2096439E-03;  1.8158835E+02;
  7.0440137E-01;  9.9999998E-03; -8.0140844E-02;6738;  9.4343927E-03;  0.0000000E+00;  4.0425843E-04;  9.9894849E+02;  1.1569832E-01; -8.7113586E+02;3;  2.0126920E+00;  0.0000000E+00; -3.2821782E-02;0;  2.6056979E-02;  2.9856572E+04;  0.0000000E+00;  2.3957266E-02;  4.0000000E+04;  0.0000000E+00;  3.9901801E+04;  3.1339753E-02;  0.0000000E+00; -5.2827736E-03;  2.3770837E+02;
  7.0437306E-01;  9.9999998E-03; -7.0131123E-02;6739;  9.4251009E-03;  0.0000000E+00;  3.6115356E-04;  9.9887268E+02;  1.1568467E-01; -9.3394891E+02;3;  2.0163441E+00;  0.0000000E+00; -3.2296672E-02;0;  2.5923185E-02;  2.9859795E+04;  0.0000000E+00;  1.5771808E-02;  4.0000000E+04;  0.0000000E+00;  3.9901906E+04;  3.1273764E-02;  0.0000000E+00; -5.3505776E-03;  2.5391412E+02;
  7.0433581E-01;  9.9999998E-03; -6.0120162E-02;6740;  9.4123632E-03;  0.0000000E+00;  3.1728260E-04;  9.9883002E+02;  1.1567078E-01; -9.6930591E+02;3;  2.0242293E+00;  0.0000000E+00; -2.6566343E-02;0;  2.5850365E-02;  2.9865234E+04;  0.0000000E+00;  1.1283421E-02;  4.0000000E+04;  0.0000000E+00;  3.9901949E+04;  3.1263720E-02;  0.0000000E+00; -5.4133558E-03;  2.2429106E+02;
  7.0429349E-01;  9.9999998E-03; -5.0107244E-02;6741;  9.3946308E-03;  0.0000000E+00;  2.6971297E-04;  9.9882294E+02;  1.1565778E-01; -9.7518231E+02;3;  2.0290956E+00;  0.0000000E+00; -2.1137586E-02;0;  2.5829446E-02;  2.9872482E+04;  0.0000000E+00;  8.4414966E-03;  4.0000000E+04;  0.0000000E+00;  3.9901500E+04;  3.1299744E-02;  0.0000000E+00; -5.4702992E-03;  1.5261215E+02;
  7.0425040E-01;  9.9999998E-03; -4.0092029E-02;6742;  9.3776146E-03;  0.0000000E+00;  2.2024941E-04;  9.9882782E+02;  1.1564524E-01; -9.7113306E+02;3;  2.0299618E+00;  0.0000000E+00; -1.8220836E-02;0;  2.5848392E-02;  2.9880408E+04;  0.0000000E+00;  6.1158189E-03;  4.0000000E+04;  0.0000000E+00;  3.9900621E+04;  3.1368367E-02;  0.0000000E+00; -5.5199759E-03;  5.1402660E+01;
  7.0421141E-01;  9.9999998E-03; -3.0073693E-02;6743;  9.3628233E-03;  0.0000000E+00;  1.6873311E-04;  9.9884534E+02;  1.1563516E-01; -9.5661493E+02;3;  2.0336454E+00;  0.0000000E+00; -1.3871745E-02;0;  2.5890063E-02;  2.9887902E+04;  0.0000000E+00;  3.9164075E-03;  4.0000000E+04;  0.0000000E+00;  3.9900156E+04;  3.1450979E-02;  0.0000000E+00; -5.5609155E-03;  6.0199158E+01;
  7.0418048E-01;  9.9999998E-03; -2.0051690E-02;6744;  9.3495538E-03;  0.0000000E+00;  1.1428756E-04;  9.9886346E+02;  1.1562708E-01; -9.4160303E+02;3;  2.0367601E+00;  0.0000000E+00; -8.4528690E-03;0;  2.5935737E-02;  2.9894238E+04;  0.0000000E+00;  1.9385882E-03;  4.0000000E+04;  0.0000000E+00;  3.9899117E+04;  3.1527378E-02;  0.0000000E+00; -5.5916407E-03;  1.6036555E+02;
  7.0416081E-01;  9.9999998E-03; -1.0026798E-02;6745;  9.3400823E-03;  0.0000000E+00;  5.7614016E-05;  9.9888055E+02;  1.1562194E-01; -9.2743054E+02;3;  2.0363348E+00;  0.0000000E+00; -3.6589901E-03;0;  2.5969977E-02;  2.9898305E+04;  0.0000000E+00;  5.1992870E-04;  4.0000000E+04;  0.0000000E+00;  3.9898523E+04;  3.1580742E-02;  0.0000000E+00; -5.6107659E-03;  2.2960855E+02;
  7.0415407E-01;  9.9999998E-03;  2.3899837E-08;6746;  9.3367463E-03;  0.0000000E+00;  5.3368773E-08;  9.9888452E+02;  1.1562067E-01; -9.2417139E+02;3;  2.0332589E+00;  0.0000000E+00;  7.3151023E-06;0;  2.5982659E-02;  2.9899725E+04;  0.0000000E+00; -1.9469637E-10;  4.0000000E+04;  0.0000000E+00;  3.9898250E+04;  3.1599924E-02;  0.0000000E+00; -5.6172637E-03;  2.5436044E+02;
  7.0416081E-01;  9.9999998E-03;  1.0026845E-02;6747;  9.3400879E-03;  0.0000000E+00; -5.7507197E-05;  9.9888062E+02;  1.1562190E-01; -9.2738116E+02;3;  2.0363269E+00;  0.0000000E+00;  3.6744913E-03;0;  2.5969928E-02;  2.9898303E+04;  0.0000000E+00;  5.2168540E-04;  4.0000000E+04;  0.0000000E+00;  3.9898531E+04;  3.1580698E-02;  0.0000000E+00; -5.6107696E-03;  2.2960410E+02;
  7.0418048E-01;  9.9999998E-03;  2.0051736E-02;6748;  9.3495613E-03;  0.0000000E+00; -1.1418120E-04;  9.9886346E+02;  1.1562708E-01; -9.4160303E+02;3;  2.0367465E+00;  0.0000000E+00;  8.4714461E-03;0;  2.5935698E-02;  2.9894240E+04;  0.0000000E+00;  1.9417735E-03;  4.0000000E+04;  0.0000000E+00;  3.9899117E+04;  3.1527344E-02;  0.0000000E+00; -5.5916454E-03;  1.6037346E+02;
  7.0421141E-01;  9.9999998E-03;  3.0073740E-02;6749;  9.3628382E-03;  0.0000000E+00; -1.6862797E-04;  9.9884534E+02;  1.1563516E-01; -9.5661493E+02;3;  2.0336263E+00;  0.0000000E+00;  1.3888545E-02;0;  2.5890063E-02;  2.9887904E+04;  0.0000000E+00;  3.9204983E-03;  4.0000000E+04;  0.0000000E+00;  3.9900160E+04;  3.1450987E-02;  0.0000000E+00; -5.5609229E-03;  6.0222290E+01;
  7.0425040E-01;  9.9999998E-03;  4.0092077E-02;6750;  9.3776332E-03;  0.0000000E+00; -2.2014516E-04;  9.9882782E+02;  1.1564524E-01; -9.7113306E+02;3;  2.0299358E+00;  0.0000000E+00;  1.8233381E-02;0;  2.5848327E-02;  2.9880412E+04;  0.0000000E+00;  6.1197332E-03;  4.0000000E+04;  0.0000000E+00;  3.9900621E+04;  3.1368311E-02;  0.0000000E+00; -5.5199838E-03;  5.1398495E+01;
  7.0429349E-01;  9.9999998E-03;  5.0107293E-02;6751;  9.3946429E-03;  0.0000000E+00; -2.6960942E-04;  9.9882275E+02;  1.1565779E-01; -9.7533044E+02;3;  2.0290744E+00;  0.0000000E+00;  2.1152373E-02;0;  2.5829377E-02;  2.9872486E+04;  0.0000000E+00;  8.4461402E-03;  4.0000000E+04;  0.0000000E+00;  3.9901500E+04;  3.1299680E-02;  0.0000000E+00; -5.4703034E-03;  1.5260623E+02;
  7.0433575E-01;  9.9999998E-03;  6.0120210E-02;6752;  9.4123939E-03;  0.0000000E+00; -3.1717969E-04;  9.9883008E+02;  1.1567055E-01; -9.6925653E+02;3;  2.0242083E+00;  0.0000000E+00;  2.6582669E-02;0;  2.5850337E-02;  2.9865232E+04;  0.0000000E+00;  1.1285754E-02;  4.0000000E+04;  0.0000000E+00;  3.9901957E+04;  3.1263702E-02;  0.0000000E+00; -5.4133651E-03;  2.2428372E+02;
  7.1726817E-01;  9.9999998E-03; -1.0028532E-01;6797;  9.4796903E-03;  0.0000000E+00;  5.1583134E-04;  9.9932898E+02;  1.1931013E-01; -5.5593488E+02;3;  2.0010498E+00;  0.0000000E+00; -4.8467021E-02;0;  2.9209724E-02;  2.8122395E+04;  0.0000000E+00;  3.7895182E-01;  4.0000000E+04;  0.0000000E+00;  3.9880199E+04;  3.4635294E-02;  0.0000000E+00; -5.4255710E-03;  7.0591193E+02;
  7.1731186E-01;  9.9999998E-03; -9.0268418E-02;6798;  9.4638839E-03;  0.0000000E+00;  4.7380175E-04;  9.9916681E+02;  1.1931047E-01; -6.9030145E+02;3;  2.0138204E+00;  0.0000000E+00; -4.3645814E-02;0;  2.8997274E-02;  2.8113086E+04;  0.0000000E+00;  3.2202670E-01;  4.0000000E+04;  0.0000000E+00;  3.9880715E+04;  3.4505099E-02;  0.0000000E+00; -5.5078254E-03;  6.2419934E+02;
  7.1734029E-01;  9.9999998E-03; -8.0249898E-02;6799;  9.4493460E-03;  0.0000000E+00;  4.2890181E-04;  9.9904181E+02;  1.1931025E-01; -7.9385406E+02;3;  2.0150580E+00;  0.0000000E+00; -4.3108117E-02;0;  2.8823607E-02;  2.8106475E+04;  0.0000000E+00;  2.6414487E-01;  4.0000000E+04;  0.0000000E+00;  3.9880859E+04;  3.4406021E-02;  0.0000000E+00; -5.5824150E-03;  5.4134259E+02;
  7.1735412E-01;  9.9999998E-03; -7.0229150E-02;6800;  9.4365263E-03;  0.0000000E+00;  3.8384416E-04;  9.9894922E+02;  1.1930910E-01; -8.7054327E+02;3;  2.0230436E+00;  0.0000000E+00; -3.6177687E-02;0;  2.8693469E-02;  2.8102955E+04;  0.0000000E+00;  2.0773126E-01;  4.0000000E+04;  0.0000000E+00;  3.9880770E+04;  3.4343973E-02;  0.0000000E+00; -5.6505040E-03;  4.5069394E+02;
  7.1735477E-01;  9.9999998E-03; -6.0205810E-02;6801;  9.4243716E-03;  0.0000000E+00;  3.3629002E-04;  9.9889917E+02;  1.1930643E-01; -9.1202356E+02;3;  2.0256901E+00;  0.0000000E+00; -3.1970765E-02;0;  2.8608501E-02;  2.8102258E+04;  0.0000000E+00;  1.5519735E-01;  4.0000000E+04;  0.0000000E+00;  3.9880441E+04;  3.4320891E-02;  0.0000000E+00; -5.7123895E-03;  3.4637436E+02;
  7.1734625E-01;  9.9999998E-03; -5.0179821E-02;6802;  9.4121881E-03;  0.0000000E+00;  2.8661001E-04;  9.9887573E+02;  1.1930332E-01; -9.3143042E+02;3;  2.0305080E+00;  0.0000000E+00; -2.6982849E-02;0;  2.8565923E-02;  2.8103861E+04;  0.0000000E+00;  1.0866604E-01;  4.0000000E+04;  0.0000000E+00;  3.9880137E+04;  3.4333475E-02;  0.0000000E+00; -5.7675522E-03;  2.3091362E+02;
  7.1732986E-01;  9.9999998E-03; -4.0150002E-02;6803;  9.3997847E-03;  0.0000000E+00;  2.3381902E-04;  9.9888196E+02;  1.1929952E-01; -9.2629480E+02;3;  2.0349603E+00;  0.0000000E+00; -2.1182224E-02;0;  2.8557301E-02;  2.8107143E+04;  0.0000000E+00;  6.9677010E-02;  4.0000000E+04;  0.0000000E+00;  3.9879090E+04;  3.4372237E-02;  0.0000000E+00; -5.8149369E-03;  1.3146048E+02;
  7.1730840E-01;  9.9999998E-03; -3.0116156E-02;6804;  9.3902005E-03;  0.0000000E+00;  1.7828694E-04;  9.9890009E+02;  1.1929509E-01; -9.1128290E+02;3;  2.0360947E+00;  0.0000000E+00; -1.6332291E-02;0;  2.8571296E-02;  2.8111330E+04;  0.0000000E+00;  3.9118670E-02;  4.0000000E+04;  0.0000000E+00;  3.9878238E+04;  3.4424666E-02;  0.0000000E+00; -5.8533698E-03;  1.3828294E+02;
  7.1728718E-01;  9.9999998E-03; -2.0079484E-02;6805;  9.3832379E-03;  0.0000000E+00;  1.2073816E-04;  9.9892084E+02;  1.1929139E-01; -8.9404877E+02;3;  2.0395956E+00;  0.0000000E+00; -1.1036611E-02;0;  2.8594218E-02;  2.8115424E+04;  0.0000000E+00;  1.7327655E-02;  4.0000000E+04;  0.0000000E+00;  3.9877461E+04;  3.4476001E-02;  0.0000000E+00; -5.8817831E-03;  2.2308336E+02;
  7.1727175E-01;  9.9999998E-03; -1.0040689E-02;6806;  9.3787601E-03;  0.0000000E+00;  6.1149389E-05;  9.9893347E+02;  1.1928820E-01; -8.8357996E+02;3;  2.0409622E+00;  0.0000000E+00; -4.8915851E-03;0;  2.8613659E-02;  2.8118391E+04;  0.0000000E+00;  4.3195030E-03;  4.0000000E+04;  0.0000000E+00;  3.9876969E+04;  3.4512930E-02;  0.0000000E+00; -5.8992710E-03;  2.9248892E+02;
  7.1726620E-01;  9.9999998E-03;  2.3500364E-08;6807;  9.3771080E-03;  0.0000000E+00;  5.2007742E-08;  9.9893896E+02;  1.1928692E-01; -8.7903687E+02;3;  2.0424335E+00;  0.0000000E+00; -6.7872043E-06;0;  2.8621199E-02;  2.8119490E+04;  0.0000000E+00; -1.3239917E-10;  4.0000000E+04;  0.0000000E+00;  3.9876723E+04;  3.4526374E-02;  0.0000000E+00; -5.9051760E-03;  3.1796667E+02;
  7.1727175E-01;  9.9999998E-03;  1.0040737E-02;6808;  9.3787676E-03;  0.0000000E+00; -6.1045204E-05;  9.9893353E+02;  1.1928800E-01; -8.8353058E+02;3;  2.0409515E+00;  0.0000000E+00;  4.8839706E-03;0;  2.8613621E-02;  2.8118393E+04;  0.0000000E+00;  4.3198327E-03;  4.0000000E+04;  0.0000000E+00;  3.9876965E+04;  3.4512900E-02;  0.0000000E+00; -5.8992784E-03;  2.9249667E+02;
  7.1728712E-01;  9.9999998E-03;  2.0079533E-02;6809;  9.3832463E-03;  0.0000000E+00; -1.2063450E-04;  9.9892078E+02;  1.1929139E-01; -8.9409814E+02;3;  2.0395820E+00;  0.0000000E+00;  1.1031083E-02;0;  2.8594133E-02;  2.8115432E+04;  0.0000000E+00;  1.7328540E-02;  4.0000000E+04;  0.0000000E+00;  3.9877461E+04;  3.4475926E-02;  0.0000000E+00; -5.8817947E-03;  2.2308864E+02;
  7.1730840E-01;  9.9999998E-03;  3.0116202E-02;6810;  9.3902191E-03;  0.0000000E+00; -1.7818344E-04;  9.9890021E+02;  1.1929507E-01; -9.1113470E+02;3;  2.0360689E+00;  0.0000000E+00;  1.6333405E-02;0;  2.8571257E-02;  2.8111330E+04;  0.0000000E+00;  3.9118718E-02;  4.0000000E+04;  0.0000000E+00;  3.9878238E+04;  3.4424640E-02;  0.0000000E+00; -5.8533829E-03;  1.3828001E+02;
  7.1732986E-01;  9.9999998E-03;  4.0150050E-02;6811;  9.3998071E-03;  0.0000000E+00; -2.3371578E-04;  9.9888202E+02;  1.1929952E-01; -9.2624542E+02;3;  2.0349264E+00;  0.0000000E+00;  2.1185730E-02;0;  2.8557271E-02;  2.8107139E+04;  0.0000000E+00;  6.9676079E-02;  4.0000000E+04;  0.0000000E+00;  3.9879082E+04;  3.4372218E-02;  0.0000000E+00; -5.8149472E-03;  1.3146019E+02;
  7.1734619E-01;  9.9999998E-03;  5.0179869E-02;6812;  9.4122021E-03;  0.0000000E+00; -2.8650672E-04;  9.9887555E+02;  1.1930332E-01; -9.3157861E+02;3;  2.0304682E+00;  0.0000000E+00;  2.6989626E-02;0;  2.8565865E-02;  2.8103859E+04;  0.0000000E+00;  1.0866407E-01;  4.0000000E+04;  0.0000000E+00;  3.9880137E+04;  3.4333423E-02;  0.0000000E+00; -5.7675582E-03;  2.3090176E+02;
  7.1735477E-01;  9.9999998E-03;  6.0205858E-02;6813;  9.4243893E-03;  0.0000000E+00; -3.3618725E-04;  9.9889899E+02;  1.1930644E-01; -9.1217175E+02;3;  2.0256534E+00;  0.0000000E+00;  3.1975605E-02;0;  2.8608495E-02;  2.8102252E+04;  0.0000000E+00;  1.5519597E-01;  4.0000000E+04;  0.0000000E+00;  3.9880434E+04;  3.4320883E-02;  0.0000000E+00; -5.7123885E-03;  3.4637219E+02;
  7.2931153E-01;  9.9999998E-03; -1.0030107E-01;6858;  9.5406771E-03;  0.0000000E+00;  5.6138827E-04;  9.9960919E+02;  1.2296841E-01; -3.2379330E+02;3;  2.0271423E+00;  0.0000000E+00; -4.6567526E-02;0;  3.2548320E-02;  2.6510965E+04;  0.0000000E+00;  5.8713228E-01;  4.0000000E+04;  0.0000000E+00;  3.9859891E+04;  3.8306456E-02;  0.0000000E+00; -5.7581374E-03;  1.2363798E+03;
  7.2935498E-01;  9.9999998E-03; -9.0276450E-02;6859;  9.5129553E-03;  0.0000000E+00;  5.1091268E-04;  9.9945605E+02;  1.2296852E-01; -4.5065393E+02;3;  2.0291588E+00;  0.0000000E+00; -4.4758298E-02;0;  3.2410927E-02;  2.6502711E+04;  0.0000000E+00;  5.1373535E-01;  4.0000000E+04;  0.0000000E+00;  3.9860574E+04;  3.8251743E-02;  0.0000000E+00; -5.8408151E-03;  1.1095170E+03;
  7.2938102E-01;  9.9999998E-03; -8.0250390E-02;6860;  9.4896583E-03;  0.0000000E+00;  4.5975149E-04;  9.9934363E+02;  1.2296768E-01; -5.4378711E+02;3;  2.0314445E+00;  0.0000000E+00; -4.1595507E-02;0;  3.2281108E-02;  2.6497031E+04;  0.0000000E+00;  4.2838186E-01;  4.0000000E+04;  0.0000000E+00;  3.9861008E+04;  3.8195606E-02;  0.0000000E+00; -5.9144986E-03;  9.5208228E+02;
  7.2938949E-01;  9.9999998E-03; -7.0223004E-02;6861;  9.4691236E-03;  0.0000000E+00;  4.0705933E-04;  9.9926642E+02;  1.2296462E-01; -6.0773590E+02;3;  2.0284190E+00;  0.0000000E+00; -3.8430326E-02;0;  3.2166515E-02;  2.6494240E+04;  0.0000000E+00;  3.3883458E-01;  4.0000000E+04;  0.0000000E+00;  3.9860664E+04;  3.8146704E-02;  0.0000000E+00; -5.9801899E-03;  7.7571808E+02;
  7.2938401E-01;  9.9999998E-03; -6.0194217E-02;6862;  9.4561307E-03;  0.0000000E+00;  3.5443084E-04;  9.9923962E+02;  1.2296287E-01; -6.2995752E+02;3;  2.0313237E+00;  0.0000000E+00; -3.4573317E-02;0;  3.2076173E-02;  2.6494053E+04;  0.0000000E+00;  2.5261497E-01;  4.0000000E+04;  0.0000000E+00;  3.9860527E+04;  3.8114436E-02;  0.0000000E+00; -6.0382634E-03;  5.9130505E+02;
  7.2936821E-01;  9.9999998E-03; -5.0165251E-02;6863;  9.4475606E-03;  0.0000000E+00;  3.0048128E-04;  9.9923340E+02;  1.2295943E-01; -6.3509314E+02;3;  2.0341916E+00;  0.0000000E+00; -2.8988447E-02;0;  3.2014016E-02;  2.6496061E+04;  0.0000000E+00;  1.7561188E-01;  4.0000000E+04;  0.0000000E+00;  3.9860203E+04;  3.8102683E-02;  0.0000000E+00; -6.0886671E-03;  4.0995618E+02;
  7.2934741E-01;  9.9999998E-03; -4.0136736E-02;6864;  9.4414633E-03;  0.0000000E+00;  2.4416478E-04;  9.9925250E+02;  1.2295745E-01; -6.1929114E+02;3;  2.0397749E+00;  0.0000000E+00; -2.3878060E-02;0;  3.1979680E-02;  2.6499098E+04;  0.0000000E+00;  1.1151295E-01;  4.0000000E+04;  0.0000000E+00;  3.9859230E+04;  3.8110722E-02;  0.0000000E+00; -6.1310409E-03;  2.4791875E+02;
  7.2932470E-01;  9.9999998E-03; -3.0106580E-02;6865;  9.4362516E-03;  0.0000000E+00;  1.8549565E-04;  9.9927783E+02;  1.2295479E-01; -5.9830408E+02;3;  2.0422611E+00;  0.0000000E+00; -1.7651638E-02;0;  3.1967215E-02;  2.6502773E+04;  0.0000000E+00;  6.1964758E-02;  4.0000000E+04;  0.0000000E+00;  3.9858527E+04;  3.8131982E-02;  0.0000000E+00; -6.1647659E-03;  1.4592355E+02;
  7.2930360E-01;  9.9999998E-03; -2.0073945E-02;6866;  9.4340658E-03;  0.0000000E+00;  1.2491146E-04;  9.9930737E+02;  1.2295080E-01; -5.7381091E+02;3;  2.0442793E+00;  0.0000000E+00; -1.2488949E-02;0;  3.1967983E-02;  2.6506312E+04;  0.0000000E+00;  2.7202856E-02;  4.0000000E+04;  0.0000000E+00;  3.9857750E+04;  3.8157266E-02;  0.0000000E+00; -6.1892821E-03;  1.6211920E+02;
  7.2928870E-01;  9.9999998E-03; -1.0038463E-02;6867;  9.4339298E-03;  0.0000000E+00;  6.2853331E-05;  9.9932977E+02;  1.2294927E-01; -5.5529291E+02;3;  2.0489337E+00;  0.0000000E+00; -6.1758328E-03;0;  3.1973023E-02;  2.6508881E+04;  0.0000000E+00;  6.7406930E-03;  4.0000000E+04;  0.0000000E+00;  3.9857418E+04;  3.8177185E-02;  0.0000000E+00; -6.2041609E-03;  2.1735857E+02;
  7.2928351E-01;  9.9999998E-03;  2.4222137E-08;6868;  9.4339186E-03;  0.0000000E+00;  5.1081987E-08;  9.9933447E+02;  1.2294853E-01; -5.5139178E+02;3;  2.0505579E+00;  0.0000000E+00; -1.5066033E-05;0;  3.1975564E-02;  2.6509760E+04;  0.0000000E+00; -3.7055716E-11;  4.0000000E+04;  0.0000000E+00;  3.9857227E+04;  3.8184714E-02;  0.0000000E+00; -6.2091490E-03;  2.4050073E+02;
  7.2928870E-01;  9.9999998E-03;  1.0038513E-02;6869;  9.4339401E-03;  0.0000000E+00; -6.2751031E-05;  9.9932996E+02;  1.2294991E-01; -5.5509540E+02;3;  2.0489271E+00;  0.0000000E+00;  6.1467760E-03;0;  3.1972989E-02;  2.6508881E+04;  0.0000000E+00;  6.7398241E-03;  4.0000000E+04;  0.0000000E+00;  3.9857418E+04;  3.8177155E-02;  0.0000000E+00; -6.2041641E-03;  2.1736856E+02;
  7.2930366E-01;  9.9999998E-03;  2.0073993E-02;6870;  9.4340751E-03;  0.0000000E+00; -1.2480922E-04;  9.9930731E+02;  1.2295163E-01; -5.7386029E+02;3;  2.0442655E+00;  0.0000000E+00;  1.2466370E-02;0;  3.1967949E-02;  2.6506316E+04;  0.0000000E+00;  2.7201172E-02;  4.0000000E+04;  0.0000000E+00;  3.9857750E+04;  3.8157240E-02;  0.0000000E+00; -6.1892895E-03;  1.6214153E+02;
  7.2932470E-01;  9.9999998E-03;  3.0106630E-02;6871;  9.4362730E-03;  0.0000000E+00; -1.8539304E-04;  9.9927808E+02;  1.2295419E-01; -5.9810657E+02;3;  2.0422411E+00;  0.0000000E+00;  1.7636573E-02;0;  3.1967156E-02;  2.6502771E+04;  0.0000000E+00;  6.1961483E-02;  4.0000000E+04;  0.0000000E+00;  3.9858523E+04;  3.8131934E-02;  0.0000000E+00; -6.1647780E-03;  1.4591229E+02;
  7.2934741E-01;  9.9999998E-03;  4.0136784E-02;6872;  9.4414810E-03;  0.0000000E+00; -2.4406215E-04;  9.9925250E+02;  1.2295745E-01; -6.1929114E+02;3;  2.0397503E+00;  0.0000000E+00;  2.3869699E-02;0;  3.1979647E-02;  2.6499098E+04;  0.0000000E+00;  1.1150848E-01;  4.0000000E+04;  0.0000000E+00;  3.9859223E+04;  3.8110703E-02;  0.0000000E+00; -6.1310581E-03;  2.4791571E+02;
  7.2936821E-01;  9.9999998E-03;  5.0165299E-02;6873;  9.4475821E-03;  0.0000000E+00; -3.0037909E-04;  9.9923346E+02;  1.2295968E-01; -6.3504376E+02;3;  2.0341575E+00;  0.0000000E+00;  2.8980700E-02;0;  3.2013975E-02;  2.6496057E+04;  0.0000000E+00;  1.7560798E-01;  4.0000000E+04;  0.0000000E+00;  3.9860207E+04;  3.8102664E-02;  0.0000000E+00; -6.0886876E-03;  4.0995447E+02;
  7.2938401E-01;  9.9999998E-03;  6.0194265E-02;6874;  9.4561530E-03;  0.0000000E+00; -3.5432793E-04;  9.9923962E+02;  1.2296197E-01; -6.2995752E+02;3;  2.0312762E+00;  0.0000000E+00;  3.4573775E-02;0;  3.2076128E-02;  2.6494049E+04;  0.0000000E+00;  2.5261027E-01;  4.0000000E+04;  0.0000000E+00;  3.9860527E+04;  3.8114402E-02;  0.0000000E+00; -6.0382751E-03;  5.9129279E+02;
  7.4135947E-01;  9.9999998E-03; -1.0031157E-01;6919;  9.6869338E-03;  0.0000000E+00;  6.2211585E-04;  9.9964746E+02;  1.2681669E-01; -2.9209052E+02;3;  2.0786679E+00;  0.0000000E+00; -3.7383415E-02;0;  3.6489319E-02;  2.4947850E+04;  0.0000000E+00;  6.5501410E-01;  4.0000000E+04;  0.0000000E+00;  3.9839695E+04;  4.2636219E-02;  0.0000000E+00; -6.1469008E-03;  1.5509325E+03;
  7.4141920E-01;  9.9999998E-03; -9.0279050E-02;6920;  9.6538337E-03;  0.0000000E+00;  5.6247192E-04;  9.9955719E+02;  1.2681960E-01; -3.6685382E+02;3;  2.0789680E+00;  0.0000000E+00; -3.5201639E-02;0;  3.6440033E-02;  2.4940666E+04;  0.0000000E+00;  5.8477038E-01;  4.0000000E+04;  0.0000000E+00;  3.9840516E+04;  4.2669207E-02;  0.0000000E+00; -6.2291729E-03;  1.4253110E+03;
  7.4146247E-01;  9.9999998E-03; -8.0245316E-02;6921;  9.6193096E-03;  0.0000000E+00;  5.0129893E-04;  9.9949908E+02;  1.2682231E-01; -4.1500061E+02;3;  2.0772636E+00;  0.0000000E+00; -3.4093518E-02;0;  3.6365520E-02;  2.4935406E+04;  0.0000000E+00;  4.9257070E-01;  4.0000000E+04;  0.0000000E+00;  3.9841098E+04;  4.2666834E-02;  0.0000000E+00; -6.3013141E-03;  1.2420188E+03;
  7.4149090E-01;  9.9999998E-03; -7.0210978E-02;6922;  9.5879789E-03;  0.0000000E+00;  4.3919499E-04;  9.9947266E+02;  1.2682430E-01; -4.3687653E+02;3;  2.0693393E+00;  0.0000000E+00; -3.4077164E-02;0;  3.6278263E-02;  2.4932355E+04;  0.0000000E+00;  3.9044023E-01;  4.0000000E+04;  0.0000000E+00;  3.9841070E+04;  4.2642452E-02;  0.0000000E+00; -6.3641891E-03;  1.0252529E+03;
  7.4150896E-01;  9.9999998E-03; -6.0178358E-02;6923;  9.5661879E-03;  0.0000000E+00;  3.7764583E-04;  9.9948065E+02;  1.2682810E-01; -4.3025943E+02;3;  2.0699191E+00;  0.0000000E+00; -3.1833999E-02;0;  3.6193468E-02;  2.4931051E+04;  0.0000000E+00;  2.9003987E-01;  4.0000000E+04;  0.0000000E+00;  3.9840816E+04;  4.2611707E-02;  0.0000000E+00; -6.4182384E-03;  7.9824249E+02;
  7.4151558E-01;  9.9999998E-03; -5.0147578E-02;6924;  9.5548537E-03;  0.0000000E+00;  3.1635066E-04;  9.9951886E+02;  1.2683144E-01; -3.9860602E+02;3;  2.0654595E+00;  0.0000000E+00; -2.7796313E-02;0;  3.6120996E-02;  2.4931539E+04;  0.0000000E+00;  2.0016520E-01;  4.0000000E+04;  0.0000000E+00;  3.9840367E+04;  4.2584617E-02;  0.0000000E+00; -6.4636208E-03;  5.7951471E+02;
  7.4151397E-01;  9.9999998E-03; -4.0118616E-02;6925;  9.5511917E-03;  0.0000000E+00;  2.5450852E-04;  9.9956665E+02;  1.2683319E-01; -3.5900220E+02;3;  2.0669909E+00;  0.0000000E+00; -2.3412302E-02;0;  3.6067296E-02;  2.4933150E+04;  0.0000000E+00;  1.2596649E-01;  4.0000000E+04;  0.0000000E+00;  3.9839793E+04;  4.2567752E-02;  0.0000000E+00; -6.5004556E-03;  3.8288925E+02;
  7.4150801E-01;  9.9999998E-03; -3.0091383E-02;6926;  9.5533337E-03;  0.0000000E+00;  1.9200673E-04;  9.9961823E+02;  1.2683560E-01; -3.1628735E+02;3;  2.0698330E+00;  0.0000000E+00; -1.7838603E-02;0;  3.6033291E-02;  2.4935391E+04;  0.0000000E+00;  6.9390334E-02;  4.0000000E+04;  0.0000000E+00;  3.9839176E+04;  4.2562120E-02;  0.0000000E+00; -6.5288297E-03;  2.1850171E+02;
  7.4150193E-01;  9.9999998E-03; -2.0064266E-02;6927;  9.5567061E-03;  0.0000000E+00;  1.2866620E-04;  9.9966223E+02;  1.2683600E-01; -2.7984393E+02;3;  2.0719852E+00;  0.0000000E+00; -1.1650691E-02;0;  3.6015622E-02;  2.4937352E+04;  0.0000000E+00;  3.0254623E-02;  4.0000000E+04;  0.0000000E+00;  3.9838488E+04;  4.2564496E-02;  0.0000000E+00; -6.5488736E-03;  9.4268692E+01;
  7.4149752E-01;  9.9999998E-03; -1.0034275E-02;6928;  9.5597506E-03;  0.0000000E+00;  6.4482265E-05;  9.9969666E+02;  1.2683789E-01; -2.5130153E+02;3;  2.0714817E+00;  0.0000000E+00; -5.7925242E-03;0;  3.6008552E-02;  2.4938732E+04;  0.0000000E+00;  7.4663735E-03;  4.0000000E+04;  0.0000000E+00;  3.9838043E+04;  4.2569324E-02;  0.0000000E+00; -6.5607717E-03;  1.8955378E+01;
  7.4149579E-01;  9.9999998E-03;  2.5114174E-08;6929;  9.5613012E-03;  0.0000000E+00;  5.0933650E-08;  9.9970557E+02;  1.2683794E-01; -2.4394373E+02;3;  2.0713868E+00;  0.0000000E+00; -2.3687411E-05;0;  3.6006778E-02;  2.4939320E+04;  0.0000000E+00;  8.3014144E-11;  4.0000000E+04;  0.0000000E+00;  3.9837953E+04;  4.2571485E-02;  0.0000000E+00; -6.5647075E-03;  1.6132853E+01;
  7.4149752E-01;  9.9999998E-03;  1.0034326E-02;6930;  9.5597552E-03;  0.0000000E+00; -6.4380263E-05;  9.9969666E+02;  1.2683730E-01; -2.5130153E+02;3;  2.0714741E+00;  0.0000000E+00;  5.7482268E-03;0;  3.6008541E-02;  2.4938730E+04;  0.0000000E+00;  7.4647628E-03;  4.0000000E+04;  0.0000000E+00;  3.9838043E+04;  4.2569317E-02;  0.0000000E+00; -6.5607764E-03;  1.8954260E+01;
  7.4150193E-01;  9.9999998E-03;  2.0064319E-02;6931;  9.5567144E-03;  0.0000000E+00; -1.2856408E-04;  9.9966217E+02;  1.2683608E-01; -2.7989331E+02;3;  2.0719712E+00;  0.0000000E+00;  1.1612703E-02;0;  3.6015600E-02;  2.4937354E+04;  0.0000000E+00;  3.0251229E-02;  4.0000000E+04;  0.0000000E+00;  3.9838484E+04;  4.2564481E-02;  0.0000000E+00; -6.5488811E-03;  9.4273643E+01;
  7.4150801E-01;  9.9999998E-03;  3.0091435E-02;6932;  9.5533505E-03;  0.0000000E+00; -1.9190439E-04;  9.9961823E+02;  1.2683499E-01; -3.1628735E+02;3;  2.0698080E+00;  0.0000000E+00;  1.7807173E-02;0;  3.6033209E-02;  2.4935393E+04;  0.0000000E+00;  6.9385715E-02;  4.0000000E+04;  0.0000000E+00;  3.9839168E+04;  4.2562053E-02;  0.0000000E+00; -6.5288441E-03;  2.1849074E+02;
  7.4151397E-01;  9.9999998E-03;  4.0118665E-02;6933;  9.5512085E-03;  0.0000000E+00; -2.5440587E-04;  9.9956659E+02;  1.2683287E-01; -3.5905157E+02;3;  2.0669634E+00;  0.0000000E+00;  2.3390576E-02;0;  3.6067255E-02;  2.4933156E+04;  0.0000000E+00;  1.2596145E-01;  4.0000000E+04;  0.0000000E+00;  3.9839785E+04;  4.2567730E-02;  0.0000000E+00; -6.5004765E-03;  3.8288318E+02;
  7.4151558E-01;  9.9999998E-03;  5.0147630E-02;6934;  9.5548714E-03;  0.0000000E+00; -3.1624758E-04;  9.9951886E+02;  1.2683111E-01; -3.9860602E+02;3;  2.0654223E+00;  0.0000000E+00;  2.7781814E-02;0;  3.6120981E-02;  2.4931541E+04;  0.0000000E+00;  2.0015502E-01;  4.0000000E+04;  0.0000000E+00;  3.9840371E+04;  4.2584613E-02;  0.0000000E+00; -6.4636329E-03;  5.7951068E+02;
  7.4150896E-01;  9.9999998E-03;  6.0178410E-02;6935;  9.5662046E-03;  0.0000000E+00; -3.7754187E-04;  9.9948065E+02;  1.2682773E-01; -4.3025943E+02;3;  2.0698769E+00;  0.0000000E+00;  3.1824823E-02;0;  3.6193389E-02;  2.4931055E+04;  0.0000000E+00;  2.9003054E-01;  4.0000000E+04;  0.0000000E+00;  3.9840816E+04;  4.2611647E-02;  0.0000000E+00; -6.4182566E-03;  7.9822772E+02;
  7.5424927E-01;  9.9999998E-03; -1.0034070E-01;6980;  1.0104232E-02;  0.0000000E+00;  7.0839614E-04;  9.9961462E+02;  1.3108593E-01; -3.1929962E+02;3;  2.2509775E+00;  0.0000000E+00; -1.3940654E-02;0;  4.0984455E-02;  2.3364404E+04;  0.0000000E+00;  5.6132436E-01;  4.0000000E+04;  0.0000000E+00;  3.9817953E+04;  4.7606129E-02;  0.0000000E+00; -6.6216723E-03;  1.5434103E+03;
  7.5433838E-01;  9.9999998E-03; -9.0302557E-02;6981;  1.0088474E-02;  0.0000000E+00;  6.3857756E-04;  9.9960632E+02;  1.3109300E-01; -3.2616360E+02;3;  2.2580900E+00;  0.0000000E+00; -1.2921494E-02;0;  4.1003898E-02;  2.3358061E+04;  0.0000000E+00;  5.1324379E-01;  4.0000000E+04;  0.0000000E+00;  3.9819078E+04;  4.7707412E-02;  0.0000000E+00; -6.7035127E-03;  1.4711172E+03;
  7.5439531E-01;  9.9999998E-03; -8.0262683E-02;6982;  1.0055630E-02;  0.0000000E+00;  5.6752091E-04;  9.9962256E+02;  1.3109750E-01; -3.1268253E+02;3;  2.2501132E+00;  0.0000000E+00; -1.2844506E-02;0;  4.0963557E-02;  2.3354207E+04;  0.0000000E+00;  4.3677446E-01;  4.0000000E+04;  0.0000000E+00;  3.9819680E+04;  4.7737386E-02;  0.0000000E+00; -6.7738285E-03;  1.3204375E+03;
  7.5441474E-01;  9.9999998E-03; -7.0225023E-02;6983;  1.0016564E-02;  0.0000000E+00;  4.9420143E-04;  9.9965271E+02;  1.3109714E-01; -2.8774493E+02;3;  2.2416821E+00;  0.0000000E+00; -1.5112475E-02;0;  4.0876988E-02;  2.3353637E+04;  0.0000000E+00;  3.4626156E-01;  4.0000000E+04;  0.0000000E+00;  3.9819777E+04;  4.7709979E-02;  0.0000000E+00; -6.8329913E-03;  1.1222793E+03;
  7.5440174E-01;  9.9999998E-03; -6.0191665E-02;6984;  9.9803787E-03;  0.0000000E+00;  4.2197161E-04;  9.9971173E+02;  1.3109307E-01; -2.3880806E+02;3;  2.2266545E+00;  0.0000000E+00; -1.4272979E-02;0;  4.0764891E-02;  2.3355926E+04;  0.0000000E+00;  2.5546893E-01;  4.0000000E+04;  0.0000000E+00;  3.9819559E+04;  4.7646374E-02;  0.0000000E+00; -6.8814829E-03;  9.0796948E+02;
  7.5436914E-01;  9.9999998E-03; -5.0160095E-02;6985;  9.9546611E-03;  0.0000000E+00;  3.5002959E-04;  9.9977942E+02;  1.3108607E-01; -1.8276027E+02;3;  2.2164679E+00;  0.0000000E+00; -1.3497656E-02;0;  4.0648930E-02;  2.3360010E+04;  0.0000000E+00;  1.7434284E-01;  4.0000000E+04;  0.0000000E+00;  3.9819555E+04;  4.7568999E-02;  0.0000000E+00; -6.9200685E-03;  7.0435913E+02;
  7.5432944E-01;  9.9999998E-03; -4.0128492E-02;6986;  9.9422084E-03;  0.0000000E+00;  2.7874048E-04;  9.9985321E+02;  1.3107908E-01; -1.2162619E+02;3;  2.2094705E+00;  0.0000000E+00; -1.2495394E-02;0;  4.0545616E-02;  2.3365135E+04;  0.0000000E+00;  1.0826330E-01;  4.0000000E+04;  0.0000000E+00;  3.9818977E+04;  4.7495257E-02;  0.0000000E+00; -6.9496422E-03;  5.3186511E+02;
  7.5429016E-01;  9.9999998E-03; -3.0098327E-02;6987;  9.9424366E-03;  0.0000000E+00;  2.0801873E-04;  9.9991858E+02;  1.3107242E-01; -6.7454880E+01;3;  2.2072165E+00;  0.0000000E+00; -9.6152397E-03;0;  4.0463876E-02;  2.3370006E+04;  0.0000000E+00;  5.8869768E-02;  4.0000000E+04;  0.0000000E+00;  3.9818434E+04;  4.7434852E-02;  0.0000000E+00; -6.9709765E-03;  4.0275787E+02;
  7.5425750E-01;  9.9999998E-03; -2.0069508E-02;6988;  9.9488432E-03;  0.0000000E+00;  1.3821294E-04;  9.9997925E+02;  1.3106747E-01; -1.7184700E+01;3;  2.2064528E+00;  0.0000000E+00; -6.7387074E-03;0;  4.0406831E-02;  2.3374078E+04;  0.0000000E+00;  2.5405463E-02;  4.0000000E+04;  0.0000000E+00;  3.9818207E+04;  4.7391865E-02;  0.0000000E+00; -6.9850343E-03;  3.1987256E+02;
  7.5423402E-01;  9.9999998E-03; -1.0037737E-02;6989;  9.9560469E-03;  0.0000000E+00;  6.8865316E-05;  1.0000173E+03;  1.3106379E-01;  1.4320582E+01;3;  2.2071850E+00;  0.0000000E+00; -2.9217168E-03;0;  4.0373102E-02;  2.3376805E+04;  0.0000000E+00;  6.2322812E-03;  4.0000000E+04;  0.0000000E+00;  3.9818156E+04;  4.7365937E-02;  0.0000000E+00; -6.9928342E-03;  2.7721393E+02;
  7.5422508E-01;  9.9999998E-03;  2.5893414E-08;6990;  9.9589098E-03;  0.0000000E+00;  5.3176215E-08;  1.0000323E+03;  1.3106270E-01;  2.6764675E+01;3;  2.2065048E+00;  0.0000000E+00; -2.7024951E-05;0;  4.0361948E-02;  2.3377785E+04;  0.0000000E+00;  2.0992975E-10;  4.0000000E+04;  0.0000000E+00;  3.9817863E+04;  4.7357243E-02;  0.0000000E+00; -6.9952942E-03;  2.6471158E+02;
  7.5423408E-01;  9.9999998E-03;  1.0037788E-02;6991;  9.9560488E-03;  0.0000000E+00; -6.8758978E-05;  1.0000173E+03;  1.3106379E-01;  1.4320582E+01;3;  2.2071760E+00;  0.0000000E+00;  2.8690535E-03;0;  4.0373079E-02;  2.3376803E+04;  0.0000000E+00;  6.2300069E-03;  4.0000000E+04;  0.0000000E+00;  3.9818160E+04;  4.7365922E-02;  0.0000000E+00; -6.9928425E-03;  2.7723550E+02;
  7.5425750E-01;  9.9999998E-03;  2.0069560E-02;6992;  9.9488432E-03;  0.0000000E+00; -1.3810652E-04;  9.9997925E+02;  1.3106745E-01; -1.7184700E+01;3;  2.2064369E+00;  0.0000000E+00;  6.6958135E-03;0;  4.0406760E-02;  2.3374082E+04;  0.0000000E+00;  2.5401494E-02;  4.0000000E+04;  0.0000000E+00;  3.9818211E+04;  4.7391810E-02;  0.0000000E+00; -6.9850511E-03;  3.1983719E+02;
  7.5429016E-01;  9.9999998E-03;  3.0098379E-02;6993;  9.9424459E-03;  0.0000000E+00; -2.0791340E-04;  9.9991840E+02;  1.3107251E-01; -6.7603027E+01;3;  2.2072024E+00;  0.0000000E+00;  9.5758419E-03;0;  4.0463828E-02;  2.3370010E+04;  0.0000000E+00;  5.8863752E-02;  4.0000000E+04;  0.0000000E+00;  3.9818434E+04;  4.7434818E-02;  0.0000000E+00; -6.9709914E-03;  4.0274176E+02;
  7.5432944E-01;  9.9999998E-03;  4.0128544E-02;6994;  9.9422131E-03;  0.0000000E+00; -2.7863571E-04;  9.9985327E+02;  1.3107881E-01; -1.2157681E+02;3;  2.2094502E+00;  0.0000000E+00;  1.2465189E-02;0;  4.0545527E-02;  2.3365131E+04;  0.0000000E+00;  1.0825644E-01;  4.0000000E+04;  0.0000000E+00;  3.9818984E+04;  4.7495190E-02;  0.0000000E+00; -6.9496622E-03;  5.3185559E+02;
  7.5436914E-01;  9.9999998E-03;  5.0160147E-02;6995;  9.9546788E-03;  0.0000000E+00; -3.4992539E-04;  9.9977948E+02;  1.3108566E-01; -1.8271088E+02;3;  2.2164407E+00;  0.0000000E+00;  1.3473545E-02;0;  4.0648878E-02;  2.3360008E+04;  0.0000000E+00;  1.7433459E-01;  4.0000000E+04;  0.0000000E+00;  3.9819551E+04;  4.7568969E-02;  0.0000000E+00; -6.9200899E-03;  7.0435114E+02;
  7.5440174E-01;  9.9999998E-03;  6.0191717E-02;6996;  9.9803982E-03;  0.0000000E+00; -4.2186663E-04;  9.9971179E+02;  1.3109291E-01; -2.3875868E+02;3;  2.2266202E+00;  0.0000000E+00;  1.4255743E-02;0;  4.0764797E-02;  2.3355926E+04;  0.0000000E+00;  2.5545672E-01;  4.0000000E+04;  0.0000000E+00;  3.9819562E+04;  4.7646295E-02;  0.0000000E+00; -6.8814992E-03;  9.0795490E+02;
  7.6813036E-01;  9.9999998E-03; -1.0016758E-01;7041;  1.1191620E-02;  0.0000000E+00;  7.9913036E-04;  9.9977405E+02;  1.3590510E-01; -1.8720457E+02;3;  2.6800320E+00;  0.0000000E+00;  1.6151512E-02;0;  4.5550209E-02;  2.1757207E+04;  0.0000000E+00;  2.9633588E-01;  4.0000000E+04;  0.0000000E+00;  3.9794855E+04;  5.2745473E-02;  0.0000000E+00; -7.1952636E-03;  1.1250045E+03;
  7.6830941E-01;  9.9999998E-03; -9.0135060E-02;7042;  1.1259329E-02;  0.0000000E+00;  7.1699114E-04;  9.9985394E+02;  1.3593638E-01; -1.2098423E+02;3;  2.7318444E+00;  0.0000000E+00;  1.2167045E-02;0;  4.5584206E-02;  2.1745832E+04;  0.0000000E+00;  2.8303114E-01;  4.0000000E+04;  0.0000000E+00;  3.9795762E+04;  5.2865617E-02;  0.0000000E+00; -7.2814124E-03;  1.1703218E+03;
  7.6844239E-01;  9.9999998E-03; -8.0105685E-02;7043;  1.1273338E-02;  0.0000000E+00;  6.3651416E-04;  9.9994312E+02;  1.3596077E-01; -4.7109779E+01;3;  2.7507164E+00;  0.0000000E+00;  1.3041998E-02;0;  4.5541860E-02;  2.1737629E+04;  0.0000000E+00;  2.4361202E-01;  4.0000000E+04;  0.0000000E+00;  3.9796457E+04;  5.2897252E-02;  0.0000000E+00; -7.3553901E-03;  1.1267141E+03;
  7.6853210E-01;  9.9999998E-03; -7.0080914E-02;7044;  1.1256229E-02;  0.0000000E+00;  5.5468694E-04;  1.0000356E+03;  1.3597663E-01;  2.9530029E+01;3;  2.7568221E+00;  0.0000000E+00;  8.9106504E-03;0;  4.5440156E-02;  2.1732504E+04;  0.0000000E+00;  1.9098389E-01;  4.0000000E+04;  0.0000000E+00;  3.9796438E+04;  5.2857716E-02;  0.0000000E+00; -7.4175596E-03;  1.0196266E+03;
  7.6858556E-01;  9.9999998E-03; -6.0060948E-02;7045;  1.1234937E-02;  0.0000000E+00;  4.7349642E-04;  1.0001405E+03;  1.3598759E-01;  1.1644115E+02;3;  2.7566719E+00;  0.0000000E+00;  7.5582121E-03;0;  4.5300972E-02;  2.1730195E+04;  0.0000000E+00;  1.3704814E-01;  4.0000000E+04;  0.0000000E+00;  3.9796148E+04;  5.2769084E-02;  0.0000000E+00; -7.4681113E-03;  8.8160284E+02;
  7.6860923E-01;  9.9999998E-03; -5.0044701E-02;7046;  1.1231720E-02;  0.0000000E+00;  3.9307858E-04;  1.0002425E+03;  1.3599280E-01;  2.0088321E+02;3;  2.7622139E+00;  0.0000000E+00;  5.0874148E-03;0;  4.5145527E-02;  2.1730059E+04;  0.0000000E+00;  8.9913078E-02;  4.0000000E+04;  0.0000000E+00;  3.9795812E+04;  5.2652761E-02;  0.0000000E+00; -7.5072357E-03;  7.4615851E+02;
  7.6860732E-01;  9.9999998E-03; -4.0029593E-02;7047;  1.1254731E-02;  0.0000000E+00;  3.1291248E-04;  1.0003365E+03;  1.3599266E-01;  2.7880692E+02;3;  2.7794919E+00;  0.0000000E+00;  2.7372714E-03;0;  4.4992089E-02;  2.1731850E+04;  0.0000000E+00;  5.3295109E-02;  4.0000000E+04;  0.0000000E+00;  3.9795305E+04;  5.2527484E-02;  0.0000000E+00; -7.5353943E-03;  6.4016870E+02;
  7.6859128E-01;  9.9999998E-03; -3.0017318E-02;7048;  1.1299077E-02;  0.0000000E+00;  2.3323730E-04;  1.0004226E+03;  1.3599016E-01;  3.5011356E+02;3;  2.8062985E+00;  0.0000000E+00;  1.9381394E-03;0;  4.4857528E-02;  2.1734502E+04;  0.0000000E+00;  2.7614193E-02;  4.0000000E+04;  0.0000000E+00;  3.9794961E+04;  5.2411467E-02;  0.0000000E+00; -7.5539383E-03;  5.7425745E+02;
  7.6857752E-01;  9.9999998E-03; -2.0010356E-02;7049;  1.1352846E-02;  0.0000000E+00;  1.5458334E-04;  1.0004850E+03;  1.3598827E-01;  4.0186517E+02;3;  2.8360465E+00;  0.0000000E+00;  2.5822339E-03;0;  4.4755351E-02;  2.1736752E+04;  0.0000000E+00;  1.1419375E-02;  4.0000000E+04;  0.0000000E+00;  3.9794941E+04;  5.2320443E-02;  0.0000000E+00; -7.5650918E-03;  5.4192126E+02;
  7.6856965E-01;  9.9999998E-03; -1.0005848E-02;7050;  1.1395176E-02;  0.0000000E+00;  7.6860546E-05;  1.0005286E+03;  1.3598725E-01;  4.3791354E+02;3;  2.8579664E+00;  0.0000000E+00;  1.0572103E-03;0;  4.4692412E-02;  2.1738072E+04;  0.0000000E+00;  2.7208866E-03;  4.0000000E+04;  0.0000000E+00;  3.9794941E+04;  5.2263223E-02;  0.0000000E+00; -7.5708092E-03;  5.2983319E+02;
  7.6856804E-01;  9.9999998E-03;  2.6836403E-08;7051;  1.1410936E-02;  0.0000000E+00;  5.8733633E-08;  1.0005458E+03;  1.3598800E-01;  4.5223413E+02;3;  2.8660765E+00;  0.0000000E+00; -2.5340085E-05;0;  4.4671435E-02;  2.1738426E+04;  0.0000000E+00;  3.3226474E-10;  4.0000000E+04;  0.0000000E+00;  3.9794938E+04;  5.2244000E-02;  0.0000000E+00; -7.5725643E-03;  5.2702399E+02;
  7.6856965E-01;  9.9999998E-03;  1.0005902E-02;7052;  1.1395126E-02;  0.0000000E+00; -7.6742894E-05;  1.0005287E+03;  1.3598734E-01;  4.3801230E+02;3;  2.8579457E+00;  0.0000000E+00; -1.1029148E-03;0;  4.4692386E-02;  2.1738074E+04;  0.0000000E+00;  2.7192549E-03;  4.0000000E+04;  0.0000000E+00;  3.9794938E+04;  5.2263200E-02;  0.0000000E+00; -7.5708148E-03;  5.2982288E+02;
  7.6857752E-01;  9.9999998E-03;  2.0010410E-02;7053;  1.1352831E-02;  0.0000000E+00; -1.5446680E-04;  1.0004850E+03;  1.3598850E-01;  4.0176642E+02;3;  2.8360205E+00;  0.0000000E+00; -2.6300126E-03;0;  4.4755355E-02;  2.1736746E+04;  0.0000000E+00;  1.1416064E-02;  4.0000000E+04;  0.0000000E+00;  3.9794941E+04;  5.2320454E-02;  0.0000000E+00; -7.5650988E-03;  5.4193085E+02;
  7.6859128E-01;  9.9999998E-03;  3.0017372E-02;7054;  1.1299047E-02;  0.0000000E+00; -2.3312200E-04;  1.0004226E+03;  1.3599016E-01;  3.5011356E+02;3;  2.8062687E+00;  0.0000000E+00; -1.9742188E-03;0;  4.4857442E-02;  2.1734496E+04;  0.0000000E+00;  2.7609335E-02;  4.0000000E+04;  0.0000000E+00;  3.9794961E+04;  5.2411400E-02;  0.0000000E+00; -7.5539583E-03;  5.7424902E+02;
  7.6860732E-01;  9.9999998E-03;  4.0029645E-02;7055;  1.1254703E-02;  0.0000000E+00; -3.1279781E-04;  1.0003365E+03;  1.3599266E-01;  2.7880692E+02;3;  2.7794640E+00;  0.0000000E+00; -2.7717326E-03;0;  4.4992018E-02;  2.1731850E+04;  0.0000000E+00;  5.3291224E-02;  4.0000000E+04;  0.0000000E+00;  3.9795305E+04;  5.2527435E-02;  0.0000000E+00; -7.5354152E-03;  6.4015350E+02;
  7.6860923E-01;  9.9999998E-03;  5.0044749E-02;7056;  1.1231744E-02;  0.0000000E+00; -3.9296667E-04;  1.0002424E+03;  1.3599271E-01;  2.0078444E+02;3;  2.7621934E+00;  0.0000000E+00; -5.1158080E-03;0;  4.5145418E-02;  2.1730049E+04;  0.0000000E+00;  8.9905962E-02;  4.0000000E+04;  0.0000000E+00;  3.9795816E+04;  5.2652672E-02;  0.0000000E+00; -7.5072544E-03;  7.4612549E+02;
  7.6858556E-01;  9.9999998E-03;  6.0061000E-02;7057;  1.1234940E-02;  0.0000000E+00; -4.7338443E-04;  1.0001407E+03;  1.3598765E-01;  1.1653992E+02;3;  2.7566555E+00;  0.0000000E+00; -7.5853532E-03;0;  4.5300916E-02;  2.1730195E+04;  0.0000000E+00;  1.3704203E-01;  4.0000000E+04;  0.0000000E+00;  3.9796145E+04;  5.2769050E-02;  0.0000000E+00; -7.4681351E-03;  8.8159900E+02;
  7.8233951E-01;  9.9999998E-03; -1.0006548E-01;7102;  1.3102872E-02;  0.0000000E+00;  7.9821597E-04;  1.0001874E+03;  1.4114845E-01;  1.5525485E+02;3;  3.3898559E+00;  0.0000000E+00;  2.0111302E-02;0;  4.9482521E-02;  2.0197832E+04;  0.0000000E+00; -6.3567027E-02;  4.0000000E+04;  0.0000000E+00;  3.9770281E+04;  5.7320844E-02;  0.0000000E+00; -7.8383228E-03;  6.3472510E+02;
  7.8230035E-01;  9.9999998E-03; -9.0048186E-02;7103;  1.3185375E-02;  0.0000000E+00;  7.0920610E-04;  1.0002140E+03;  1.4110669E-01;  1.7727893E+02;3;  3.4575505E+00;  0.0000000E+00;  2.1126006E-02;0;  4.9402390E-02;  2.0204600E+04;  0.0000000E+00; -3.2741550E-02;  4.0000000E+04;  0.0000000E+00;  3.9771570E+04;  5.7325676E-02;  0.0000000E+00; -7.9232873E-03;  7.9652521E+02;
  7.8224552E-01;  9.9999998E-03; -8.0045588E-02;7104;  1.3193840E-02;  0.0000000E+00;  6.2158139E-04;  1.0002534E+03;  1.4106953E-01;  2.0996936E+02;3;  3.4978728E+00;  0.0000000E+00;  1.5797060E-02;0;  4.9262568E-02;  2.0211771E+04;  0.0000000E+00; -1.9916320E-02;  4.0000000E+04;  0.0000000E+00;  3.9772211E+04;  5.7260282E-02;  0.0000000E+00; -7.9977131E-03;  8.4461047E+02;
  7.8226310E-01;  9.9999998E-03; -7.0050865E-02;7105;  1.3189287E-02;  0.0000000E+00;  5.3602661E-04;  1.0003188E+03;  1.4106458E-01;  2.6419003E+02;3;  3.5256841E+00;  0.0000000E+00;  1.3356534E-02;0;  4.9092893E-02;  2.0211482E+04;  0.0000000E+00; -1.8632783E-02;  4.0000000E+04;  0.0000000E+00;  3.9771797E+04;  5.7158783E-02;  0.0000000E+00; -8.0658896E-03;  7.9844440E+02;
  7.8227675E-01;  9.9999998E-03; -6.0055815E-02;7106;  1.3194786E-02;  0.0000000E+00;  4.5296777E-04;  1.0003936E+03;  1.4106417E-01;  3.2611420E+02;3;  3.5523350E+00;  0.0000000E+00;  9.3663586E-03;0;  4.8889078E-02;  2.0210830E+04;  0.0000000E+00; -2.0096231E-02;  4.0000000E+04;  0.0000000E+00;  3.9771066E+04;  5.7012364E-02;  0.0000000E+00; -8.1232861E-03;  7.0589868E+02;
  7.8227407E-01;  9.9999998E-03; -5.0053693E-02;7107;  1.3231098E-02;  0.0000000E+00;  3.7125996E-04;  1.0004733E+03;  1.4106148E-01;  3.9218640E+02;3;  3.5875878E+00;  0.0000000E+00;  4.3798853E-03;0;  4.8666753E-02;  2.0211488E+04;  0.0000000E+00; -1.9855754E-02;  4.0000000E+04;  0.0000000E+00;  3.9770258E+04;  5.6835063E-02;  0.0000000E+00; -8.1683090E-03;  6.1617590E+02;
  7.8226209E-01;  9.9999998E-03; -4.0045150E-02;7108;  1.3302363E-02;  0.0000000E+00;  2.9171107E-04;  1.0005482E+03;  1.4105643E-01;  4.5420935E+02;3;  3.6355891E+00;  0.0000000E+00;  3.4104255E-03;0;  4.8448101E-02;  2.0212857E+04;  0.0000000E+00; -1.6676951E-02;  4.0000000E+04;  0.0000000E+00;  3.9769992E+04;  5.6649145E-02;  0.0000000E+00; -8.2010459E-03;  5.6136975E+02;
  7.8225309E-01;  9.9999998E-03; -3.0030720E-02;7109;  1.3394708E-02;  0.0000000E+00;  2.1473478E-04;  1.0006148E+03;  1.4105359E-01;  5.0931888E+02;3;  3.6877749E+00;  0.0000000E+00; -1.4582131E-03;0;  4.8255637E-02;  2.0213928E+04;  0.0000000E+00; -1.1428953E-02;  4.0000000E+04;  0.0000000E+00;  3.9769910E+04;  5.6478571E-02;  0.0000000E+00; -8.2229348E-03;  5.4897412E+02;
  7.8224921E-01;  9.9999998E-03; -2.0015864E-02;7110;  1.3484889E-02;  0.0000000E+00;  1.4059831E-04;  1.0006692E+03;  1.4105447E-01;  5.5445343E+02;3;  3.7340906E+00;  0.0000000E+00; -7.0355640E-04;0;  4.8106864E-02;  2.0214607E+04;  0.0000000E+00; -5.8079702E-03;  4.0000000E+04;  0.0000000E+00;  3.9770074E+04;  5.6342848E-02;  0.0000000E+00; -8.2359836E-03;  5.6355212E+02;
  7.8224826E-01;  9.9999998E-03; -1.0006358E-02;7111;  1.3549038E-02;  0.0000000E+00;  6.9274589E-05;  1.0007069E+03;  1.4105345E-01;  5.8566241E+02;3;  3.7677596E+00;  0.0000000E+00;  1.3541069E-03;0;  4.8013363E-02;  2.0214748E+04;  0.0000000E+00; -1.5670072E-03;  4.0000000E+04;  0.0000000E+00;  3.9770215E+04;  5.6255862E-02;  0.0000000E+00; -8.2425000E-03;  5.8315845E+02;
  7.8224814E-01;  9.9999998E-03;  2.7559022E-08;7112;  1.3571793E-02;  0.0000000E+00;  6.1928425E-08;  1.0007219E+03;  1.4105380E-01;  5.9800775E+02;3;  3.7797272E+00;  0.0000000E+00; -2.7841990E-05;0;  4.7981508E-02;  2.0214855E+04;  0.0000000E+00;  3.9742254E-10;  4.0000000E+04;  0.0000000E+00;  3.9770160E+04;  5.6225937E-02;  0.0000000E+00; -8.2444279E-03;  5.9164294E+02;
  7.8224826E-01;  9.9999998E-03;  1.0006413E-02;7113;  1.3549007E-02;  0.0000000E+00; -6.9152185E-05;  1.0007069E+03;  1.4105396E-01;  5.8566241E+02;3;  3.7677450E+00;  0.0000000E+00; -1.4100170E-03;0;  4.8013292E-02;  2.0214764E+04;  0.0000000E+00; -1.5674549E-03;  4.0000000E+04;  0.0000000E+00;  3.9770215E+04;  5.6255799E-02;  0.0000000E+00; -8.2425084E-03;  5.8314441E+02;
  7.8224921E-01;  9.9999998E-03;  2.0015918E-02;7114;  1.3484838E-02;  0.0000000E+00; -1.4047585E-04;  1.0006691E+03;  1.4105430E-01;  5.5435468E+02;3;  3.7340574E+00;  0.0000000E+00;  6.5634231E-04;0;  4.8106827E-02;  2.0214604E+04;  0.0000000E+00; -5.8088312E-03;  4.0000000E+04;  0.0000000E+00;  3.9770070E+04;  5.6342822E-02;  0.0000000E+00; -8.2359966E-03;  5.6354120E+02;
  7.8225309E-01;  9.9999998E-03;  3.0030774E-02;7115;  1.3394658E-02;  0.0000000E+00; -2.1461271E-04;  1.0006147E+03;  1.4105347E-01;  5.0922012E+02;3;  3.6877482E+00;  0.0000000E+00;  1.4180476E-03;0;  4.8255574E-02;  2.0213928E+04;  0.0000000E+00; -1.1430606E-02;  4.0000000E+04;  0.0000000E+00;  3.9769914E+04;  5.6478515E-02;  0.0000000E+00; -8.2229413E-03;  5.4899548E+02;
  7.8226209E-01;  9.9999998E-03;  4.0045206E-02;7116;  1.3302305E-02;  0.0000000E+00; -2.9159005E-04;  1.0005482E+03;  1.4105670E-01;  4.5411057E+02;3;  3.6355517E+00;  0.0000000E+00; -3.4469469E-03;0;  4.8447989E-02;  2.0212861E+04;  0.0000000E+00; -1.6679242E-02;  4.0000000E+04;  0.0000000E+00;  3.9769992E+04;  5.6649055E-02;  0.0000000E+00; -8.2010683E-03;  5.6135583E+02;
  7.8227407E-01;  9.9999998E-03;  5.0053746E-02;7117;  1.3231081E-02;  0.0000000E+00; -3.7113926E-04;  1.0004732E+03;  1.4106137E-01;  3.9208765E+02;3;  3.5875666E+00;  0.0000000E+00; -4.4075856E-03;0;  4.8666619E-02;  2.0211484E+04;  0.0000000E+00; -1.9859131E-02;  4.0000000E+04;  0.0000000E+00;  3.9770262E+04;  5.6834947E-02;  0.0000000E+00; -8.1683295E-03;  6.1617310E+02;
  7.8227675E-01;  9.9999998E-03;  6.0055871E-02;7118;  1.3194754E-02;  0.0000000E+00; -4.5284623E-04;  1.0003938E+03;  1.4106429E-01;  3.2621298E+02;3;  3.5523009E+00;  0.0000000E+00; -9.3818521E-03;0;  4.8888963E-02;  2.0210830E+04;  0.0000000E+00; -2.0098522E-02;  4.0000000E+04;  0.0000000E+00;  3.9771070E+04;  5.7012275E-02;  0.0000000E+00; -8.1233112E-03;  7.0592297E+02;
  7.9656696E-01;  9.9999998E-03; -1.0014266E-01;7163;  1.4721015E-02;  0.0000000E+00;  7.4875075E-04;  1.0002784E+03;  1.4676504E-01;  2.3070950E+02;3;  3.9067614E+00;  0.0000000E+00; -5.2450113E-03;0;  5.3099845E-02;  1.8695125E+04;  0.0000000E+00; -4.1448155E-01;  4.0000000E+04;  0.0000000E+00;  3.9744152E+04;  6.1643928E-02;  0.0000000E+00; -8.5440828E-03;  1.1573293E+03;
  7.9654706E-01;  9.9999998E-03; -9.0134934E-02;7164;  1.4676807E-02;  0.0000000E+00;  6.6684169E-04;  1.0002440E+03;  1.4673175E-01;  2.0206834E+02;3;  3.9357545E+00;  0.0000000E+00; -4.4790735E-03;0;  5.3037081E-02;  1.8697545E+04;  0.0000000E+00; -3.5220176E-01;  4.0000000E+04;  0.0000000E+00;  3.9744660E+04;  6.1692212E-02;  0.0000000E+00; -8.6551318E-03;  1.0978574E+03;
  7.9651773E-01;  9.9999998E-03; -8.0141596E-02;7165;  1.4616581E-02;  0.0000000E+00;  5.8622821E-04;  1.0002186E+03;  1.4669739E-01;  1.8113066E+02;3;  3.9565043E+00;  0.0000000E+00; -3.6103695E-03;0;  5.2919865E-02;  1.8700676E+04;  0.0000000E+00; -2.9360870E-01;  4.0000000E+04;  0.0000000E+00;  3.9744395E+04;  6.1676573E-02;  0.0000000E+00; -8.7567093E-03;  9.7912231E+02;
  7.9648721E-01;  9.9999998E-03; -7.0149630E-02;7166;  1.4567107E-02;  0.0000000E+00;  5.0746411E-04;  1.0002095E+03;  1.4666595E-01;  1.7352594E+02;3;  3.9762225E+00;  0.0000000E+00; -7.1481005E-03;0;  5.2751828E-02;  1.8703947E+04;  0.0000000E+00; -2.3772910E-01;  4.0000000E+04;  0.0000000E+00;  3.9743727E+04;  6.1599817E-02;  0.0000000E+00; -8.8479901E-03;  8.0768646E+02;
  7.9644340E-01;  9.9999998E-03; -6.0146470E-02;7167;  1.4537878E-02;  0.0000000E+00;  4.3188603E-04;  1.0002035E+03;  1.4663500E-01;  1.6858781E+02;3;  3.9998925E+00;  0.0000000E+00; -8.9190369E-03;0;  5.2540962E-02;  1.8708191E+04;  0.0000000E+00; -1.8397772E-01;  4.0000000E+04;  0.0000000E+00;  3.9742625E+04;  6.1466996E-02;  0.0000000E+00; -8.9260340E-03;  6.2629742E+02;
  7.9635942E-01;  9.9999998E-03; -5.0122991E-02;7168;  1.4531664E-02;  0.0000000E+00;  3.5685039E-04;  1.0002040E+03;  1.4659625E-01;  1.6908162E+02;3;  4.0248518E+00;  0.0000000E+00; -5.9579643E-03;0;  5.2297197E-02;  1.8714439E+04;  0.0000000E+00; -1.3347489E-01;  4.0000000E+04;  0.0000000E+00;  3.9741750E+04;  6.1283946E-02;  0.0000000E+00; -8.9867506E-03;  4.8566541E+02;
  7.9627144E-01;  9.9999998E-03; -4.0085096E-02;7169;  1.4545899E-02;  0.0000000E+00;  2.8170002E-04;  1.0002137E+03;  1.4656064E-01;  1.7708141E+02;3;  4.0469766E+00;  0.0000000E+00; -3.0553641E-03;0;  5.2052449E-02;  1.8720887E+04;  0.0000000E+00; -8.8356502E-02;  4.0000000E+04;  0.0000000E+00;  3.9741941E+04;  6.1083522E-02;  0.0000000E+00; -9.0310723E-03;  4.1810443E+02;
  7.9619670E-01;  9.9999998E-03; -3.0055640E-02;7170;  1.4571279E-02;  0.0000000E+00;  2.0823610E-04;  1.0002286E+03;  1.4653113E-01;  1.8932796E+02;3;  4.0651226E+00;  0.0000000E+00; -1.6620921E-03;0;  5.1833943E-02;  1.8726172E+04;  0.0000000E+00; -5.0961252E-02;  4.0000000E+04;  0.0000000E+00;  3.9742258E+04;  6.0894579E-02;  0.0000000E+00; -9.0606380E-03;  4.2433154E+02;
  7.9614383E-01;  9.9999998E-03; -2.0032084E-02;7171;  1.4598779E-02;  0.0000000E+00;  1.3712642E-04;  1.0002452E+03;  1.4651094E-01;  2.0315474E+02;3;  4.0784745E+00;  0.0000000E+00; -5.1482546E-04;0;  5.1663265E-02;  1.8729895E+04;  0.0000000E+00; -2.3034014E-02;  4.0000000E+04;  0.0000000E+00;  3.9742977E+04;  6.0741652E-02;  0.0000000E+00; -9.0783862E-03;  4.7637442E+02;
  7.9611242E-01;  9.9999998E-03; -1.0014220E-02;7172;  1.4618088E-02;  0.0000000E+00;  6.8001740E-05;  1.0002590E+03;  1.4649954E-01;  2.1451244E+02;3;  4.0904617E+00;  0.0000000E+00;  5.8115076E-04;0;  5.1555026E-02;  1.8731957E+04;  0.0000000E+00; -5.8133821E-03;  4.0000000E+04;  0.0000000E+00;  3.9743309E+04;  6.0642362E-02;  0.0000000E+00; -9.0873344E-03;  5.2892487E+02;
  7.9610181E-01;  9.9999998E-03;  2.7488998E-08;7173;  1.4624384E-02;  0.0000000E+00;  6.1886567E-08;  1.0002615E+03;  1.4649592E-01;  2.1658646E+02;3;  4.0951061E+00;  0.0000000E+00; -3.1015297E-05;0;  5.1517956E-02;  1.8732787E+04;  0.0000000E+00;  4.0534562E-10;  4.0000000E+04;  0.0000000E+00;  3.9743340E+04;  6.0607940E-02;  0.0000000E+00; -9.0899831E-03;  5.5002606E+02;
  7.9611236E-01;  9.9999998E-03;  1.0014276E-02;7174;  1.4618076E-02;  0.0000000E+00; -6.7877481E-05;  1.0002590E+03;  1.4649943E-01;  2.1461119E+02;3;  4.0904622E+00;  0.0000000E+00; -6.4562581E-04;0;  5.1554993E-02;  1.8731959E+04;  0.0000000E+00; -5.8123064E-03;  4.0000000E+04;  0.0000000E+00;  3.9743309E+04;  6.0642332E-02;  0.0000000E+00; -9.0873390E-03;  5.2891553E+02;
  7.9614383E-01;  9.9999998E-03;  2.0032139E-02;7175;  1.4598751E-02;  0.0000000E+00; -1.3700160E-04;  1.0002452E+03;  1.4651108E-01;  2.0315474E+02;3;  4.0784783E+00;  0.0000000E+00;  4.5892390E-04;0;  5.1663183E-02;  1.8729893E+04;  0.0000000E+00; -2.3032652E-02;  4.0000000E+04;  0.0000000E+00;  3.9742980E+04;  6.0741581E-02;  0.0000000E+00; -9.0783983E-03;  4.7637943E+02;
  7.9619670E-01;  9.9999998E-03;  3.0055698E-02;7176;  1.4571243E-02;  0.0000000E+00; -2.0811010E-04;  1.0002287E+03;  1.4653103E-01;  1.8942673E+02;3;  4.0651259E+00;  0.0000000E+00;  1.6060454E-03;0;  5.1833764E-02;  1.8726174E+04;  0.0000000E+00; -5.0959483E-02;  4.0000000E+04;  0.0000000E+00;  3.9742262E+04;  6.0894415E-02;  0.0000000E+00; -9.0606529E-03;  4.2430496E+02;
  7.9627144E-01;  9.9999998E-03;  4.0085156E-02;7177;  1.4545869E-02;  0.0000000E+00; -2.8157345E-04;  1.0002137E+03;  1.4656088E-01;  1.7708141E+02;3;  4.0469832E+00;  0.0000000E+00;  3.0100911E-03;0;  5.2052308E-02;  1.8720889E+04;  0.0000000E+00; -8.8354751E-02;  4.0000000E+04;  0.0000000E+00;  3.9741945E+04;  6.1083391E-02;  0.0000000E+00; -9.0310825E-03;  4.1809375E+02;
  7.9635942E-01;  9.9999998E-03;  5.0123051E-02;7178;  1.4531636E-02;  0.0000000E+00; -3.5672294E-04;  1.0002042E+03;  1.4659637E-01;  1.6918039E+02;3;  4.0248628E+00;  0.0000000E+00;  5.9173964E-03;0;  5.2297045E-02;  1.8714434E+04;  0.0000000E+00; -1.3347144E-01;  4.0000000E+04;  0.0000000E+00;  3.9741742E+04;  6.1283823E-02;  0.0000000E+00; -8.9867795E-03;  4.8567233E+02;
  7.9644340E-01;  9.9999998E-03;  6.0146529E-02;7179;  1.4537873E-02;  0.0000000E+00; -4.3175957E-04;  1.0002034E+03;  1.4663461E-01;  1.6848904E+02;3;  3.9998958E+00;  0.0000000E+00;  8.8906372E-03;0;  5.2540790E-02;  1.8708189E+04;  0.0000000E+00; -1.8397498E-01;  4.0000000E+04;  0.0000000E+00;  3.9742629E+04;  6.1466858E-02;  0.0000000E+00; -8.9260684E-03;  6.2631226E+02;
  8.1078863E-01;  9.9999998E-03; -1.0029531E-01;7224;  1.5294795E-02;  0.0000000E+00;  8.4324204E-04;  9.9977637E+02;  1.5264466E-01; -1.8527870E+02;3;  3.9532287E+00;  0.0000000E+00; -1.5597223E-02;0;  5.7228591E-02;  1.7278658E+04;  0.0000000E+00; -6.7921847E-01;  4.0000000E+04;  0.0000000E+00;  3.9716836E+04;  6.6565894E-02;  0.0000000E+00; -9.3373032E-03;  1.9709044E+03;
  8.1076032E-01;  9.9999998E-03; -9.0307266E-02;7225;  1.5206353E-02;  0.0000000E+00;  7.5751916E-04;  9.9968042E+02;  1.5261708E-01; -2.6478262E+02;3;  3.9719849E+00;  0.0000000E+00; -1.7596463E-02;0;  5.7270449E-02;  1.7278537E+04;  0.0000000E+00; -6.0013562E-01;  4.0000000E+04;  0.0000000E+00;  3.9716555E+04;  6.6765994E-02;  0.0000000E+00; -9.4955442E-03;  1.7764154E+03;
  8.1074977E-01;  9.9999998E-03; -8.0314092E-02;7226;  1.5128350E-02;  0.0000000E+00;  6.7586172E-04;  9.9959497E+02;  1.5260296E-01; -3.3554605E+02;3;  4.0015759E+00;  0.0000000E+00; -2.0256106E-02;0;  5.7271026E-02;  1.7276318E+04;  0.0000000E+00; -5.1017505E-01;  4.0000000E+04;  0.0000000E+00;  3.9715371E+04;  6.6917576E-02;  0.0000000E+00; -9.6465498E-03;  1.5060022E+03;
  8.1075186E-01;  9.9999998E-03; -7.0320524E-02;7227;  1.5049972E-02;  0.0000000E+00;  5.9153145E-04;  9.9952917E+02;  1.5259822E-01; -3.9006302E+02;3;  4.0310206E+00;  0.0000000E+00; -1.5697958E-02;0;  5.7221904E-02;  1.7272873E+04;  0.0000000E+00; -4.1443956E-01;  4.0000000E+04;  0.0000000E+00;  3.9713922E+04;  6.7008480E-02;  0.0000000E+00; -9.7865770E-03;  1.1972175E+03;
  8.1055158E-01;  9.9999998E-03; -6.0296427E-02;7228;  1.4975798E-02;  0.0000000E+00;  5.0247507E-04;  9.9946289E+02;  1.5251251E-01; -4.4497504E+02;3;  4.0553751E+00;  0.0000000E+00; -1.1645631E-02;0;  5.7048447E-02;  1.7287703E+04;  0.0000000E+00; -3.1655002E-01;  4.0000000E+04;  0.0000000E+00;  3.9713059E+04;  6.6943899E-02;  0.0000000E+00; -9.8954504E-03;  8.9330890E+02;
  8.1031698E-01;  9.9999998E-03; -5.0217863E-02;7229;  1.4919154E-02;  0.0000000E+00;  4.1109213E-04;  9.9940320E+02;  1.5241627E-01; -4.9445511E+02;3;  4.0750618E+00;  0.0000000E+00; -9.4629042E-03;0;  5.6822531E-02;  1.7305174E+04;  0.0000000E+00; -2.2467436E-01;  4.0000000E+04;  0.0000000E+00;  3.9712625E+04;  6.6803157E-02;  0.0000000E+00; -9.9806245E-03;  6.3220691E+02;
  8.1009936E-01;  9.9999998E-03; -4.0148970E-02;7230;  1.4881007E-02;  0.0000000E+00;  3.2146522E-04;  9.9936072E+02;  1.5232769E-01; -5.2961462E+02;3;  4.0881591E+00;  0.0000000E+00; -7.7583008E-03;0;  5.6584243E-02;  1.7321295E+04;  0.0000000E+00; -1.4553301E-01;  4.0000000E+04;  0.0000000E+00;  3.9713375E+04;  6.6627517E-02;  0.0000000E+00; -1.0043275E-02;  4.3598682E+02;
  8.0991977E-01;  9.9999998E-03; -3.0099405E-02;7231;  1.4862609E-02;  0.0000000E+00;  2.3546274E-04;  9.9933081E+02;  1.5225504E-01; -5.5440405E+02;3;  4.0992785E+00;  0.0000000E+00; -7.4340636E-03;0;  5.6365412E-02;  1.7334346E+04;  0.0000000E+00; -8.2396448E-02;  4.0000000E+04;  0.0000000E+00;  3.9714230E+04;  6.6451147E-02;  0.0000000E+00; -1.0085736E-02;  3.5424124E+02;
  8.0978912E-01;  9.9999998E-03; -2.0061577E-02;7232;  1.4848642E-02;  0.0000000E+00;  1.5417681E-04;  9.9931519E+02;  1.5220413E-01; -5.6734192E+02;3;  4.1081181E+00;  0.0000000E+00; -5.4034158E-03;0;  5.6190480E-02;  1.7343721E+04;  0.0000000E+00; -3.6734644E-02;  4.0000000E+04;  0.0000000E+00;  3.9715152E+04;  6.6302270E-02;  0.0000000E+00; -1.0111789E-02;  3.9829013E+02;
  8.0970931E-01;  9.9999998E-03; -1.0029485E-02;7233;  1.4840581E-02;  0.0000000E+00;  7.6243399E-05;  9.9930981E+02;  1.5217315E-01; -5.7178625E+02;3;  4.1140990E+00;  0.0000000E+00; -2.8392898E-03;0;  5.6077622E-02;  1.7349373E+04;  0.0000000E+00; -9.1928840E-03;  4.0000000E+04;  0.0000000E+00;  3.9715938E+04;  6.6202894E-02;  0.0000000E+00; -1.0125270E-02;  4.7252319E+02;
  8.0968273E-01;  9.9999998E-03;  2.8970520E-08;7234;  1.4838754E-02;  0.0000000E+00;  6.1558040E-08;  9.9930609E+02;  1.5216216E-01; -5.7489728E+02;3;  4.1166973E+00;  0.0000000E+00; -2.8566412E-05;0;  5.6038789E-02;  1.7351305E+04;  0.0000000E+00;  3.5342584E-10;  4.0000000E+04;  0.0000000E+00;  3.9716270E+04;  6.6168159E-02;  0.0000000E+00; -1.0129372E-02;  5.0384982E+02;
  8.0970931E-01;  9.9999998E-03;  1.0029542E-02;7235;  1.4840574E-02;  0.0000000E+00; -7.6120552E-05;  9.9930975E+02;  1.5217276E-01; -5.7183563E+02;3;  4.1141057E+00;  0.0000000E+00;  2.7835337E-03;0;  5.6077596E-02;  1.7349369E+04;  0.0000000E+00; -9.1910353E-03;  4.0000000E+04;  0.0000000E+00;  3.9715938E+04;  6.6202864E-02;  0.0000000E+00; -1.0125268E-02;  4.7252307E+02;
  8.0978912E-01;  9.9999998E-03;  2.0061636E-02;7236;  1.4848631E-02;  0.0000000E+00; -1.5405352E-04;  9.9931519E+02;  1.5220413E-01; -5.6734192E+02;3;  4.1081319E+00;  0.0000000E+00;  5.3515257E-03;0;  5.6190409E-02;  1.7343719E+04;  0.0000000E+00; -3.6730528E-02;  4.0000000E+04;  0.0000000E+00;  3.9715145E+04;  6.6302210E-02;  0.0000000E+00; -1.0111803E-02;  3.9827222E+02;
  8.0991977E-01;  9.9999998E-03;  3.0099466E-02;7237;  1.4862601E-02;  0.0000000E+00; -2.3533807E-04;  9.9933099E+02;  1.5225536E-01; -5.5425586E+02;3;  4.0993028E+00;  0.0000000E+00;  7.3885089E-03;0;  5.6365393E-02;  1.7334344E+04;  0.0000000E+00; -8.2391553E-02;  4.0000000E+04;  0.0000000E+00;  3.9714227E+04;  6.6451140E-02;  0.0000000E+00; -1.0085746E-02;  3.5421170E+02;
  8.1009936E-01;  9.9999998E-03;  4.0149029E-02;7238;  1.4880987E-02;  0.0000000E+00; -3.2134017E-04;  9.9936066E+02;  1.5232733E-01; -5.2966400E+02;3;  4.0881848E+00;  0.0000000E+00;  7.7149151E-03;0;  5.6584153E-02;  1.7321287E+04;  0.0000000E+00; -1.4552660E-01;  4.0000000E+04;  0.0000000E+00;  3.9713379E+04;  6.6627435E-02;  0.0000000E+00; -1.0043283E-02;  4.3598492E+02;
  8.1031698E-01;  9.9999998E-03;  5.0217923E-02;7239;  1.4919138E-02;  0.0000000E+00; -4.1096614E-04;  9.9940320E+02;  1.5241607E-01; -4.9445511E+02;3;  4.0750928E+00;  0.0000000E+00;  9.4314236E-03;0;  5.6822423E-02;  1.7305172E+04;  0.0000000E+00; -2.2466916E-01;  4.0000000E+04;  0.0000000E+00;  3.9712625E+04;  6.6803068E-02;  0.0000000E+00; -9.9806460E-03;  6.3220618E+02;
  8.1055158E-01;  9.9999998E-03;  6.0296487E-02;7240;  1.4975790E-02;  0.0000000E+00; -5.0234835E-04;  9.9946283E+02;  1.5251234E-01; -4.4502441E+02;3;  4.0554175E+00;  0.0000000E+00;  1.1618366E-02;0;  5.7048298E-02;  1.7287707E+04;  0.0000000E+00; -3.1654322E-01;  4.0000000E+04;  0.0000000E+00;  3.9713062E+04;  6.6943772E-02;  0.0000000E+00; -9.8954746E-03;  8.9330530E+02;
  8.2449579E-01;  9.9999998E-03;  2.8801786E-08;7295;  1.4864936E-02;  0.0000000E+00;  6.0107908E-08;  9.9857080E+02;  1.5846357E-01; -1.1840652E+03;3;  4.1164536E+00;  0.0000000E+00; -1.7388946E-05;0;  6.3026808E-02;  1.6006292E+04;  0.0000000E+00;  2.3288776E-10;  4.0000000E+04;  0.0000000E+00;  3.9688484E+04;  7.4580573E-02;  0.0000000E+00; -1.1553763E-02;  5.4570001E+02;
  8.2450938E-01;  9.9999998E-03; -1.0044937E-02;7294;  1.4872074E-02;  0.0000000E+00;  9.2519374E-05;  9.9857123E+02;  1.5846792E-01; -1.1837195E+03;3;  4.1151314E+00;  0.0000000E+00; -4.9045901E-03;0;  6.3044101E-02;  1.6005633E+04;  0.0000000E+00; -1.1140326E-02;  4.0000000E+04;  0.0000000E+00;  3.9688117E+04;  7.4587464E-02;  0.0000000E+00; -1.1543364E-02;  5.0833414E+02;
  8.2450938E-01;  9.9999998E-03;  1.0044997E-02;7296;  1.4872075E-02;  0.0000000E+00; -9.2398608E-05;  9.9857135E+02;  1.5846850E-01; -1.1836207E+03;3;  4.1151557E+00;  0.0000000E+00;  4.8721372E-03;0;  6.3044123E-02;  1.6005636E+04;  0.0000000E+00; -1.1138254E-02;  4.0000000E+04;  0.0000000E+00;  3.9688117E+04;  7.4587479E-02;  0.0000000E+00; -1.1543359E-02;  5.0830804E+02;
  8.2455105E-01;  9.9999998E-03; -2.0086626E-02;7293;  1.4893575E-02;  0.0000000E+00;  1.8756432E-04;  9.9857361E+02;  1.5848172E-01; -1.1817443E+03;3;  4.1112332E+00;  0.0000000E+00; -8.8649616E-03;0;  6.3093141E-02;  1.6003702E+04;  0.0000000E+00; -4.4480111E-02;  4.0000000E+04;  0.0000000E+00;  3.9687508E+04;  7.4604213E-02;  0.0000000E+00; -1.1511073E-02;  4.2150723E+02;
  8.2455105E-01;  9.9999998E-03;  2.0086687E-02;7297;  1.4893581E-02;  0.0000000E+00; -1.8744309E-04;  9.9857385E+02;  1.5848273E-01; -1.1815468E+03;3;  4.1112514E+00;  0.0000000E+00;  8.8288486E-03;0;  6.3093156E-02;  1.6003702E+04;  0.0000000E+00; -4.4475455E-02;  4.0000000E+04;  0.0000000E+00;  3.9687508E+04;  7.4604221E-02;  0.0000000E+00; -1.1511068E-02;  4.2149866E+02;
  8.2462442E-01;  9.9999998E-03; -3.0126803E-02;7292;  1.4933782E-02;  0.0000000E+00;  2.8695431E-04;  9.9858484E+02;  1.5850809E-01; -1.1724113E+03;3;  4.1063776E+00;  0.0000000E+00; -1.3245150E-02;0;  6.3166909E-02;  1.5999800E+04;  0.0000000E+00; -9.9705607E-02;  4.0000000E+04;  0.0000000E+00;  3.9686160E+04;  7.4621201E-02;  0.0000000E+00; -1.1454292E-02;  3.8796539E+02;
  8.2462442E-01;  9.9999998E-03;  3.0126864E-02;7298;  1.4933762E-02;  0.0000000E+00; -2.8683268E-04;  9.9858478E+02;  1.5850832E-01; -1.1724606E+03;3;  4.1064148E+00;  0.0000000E+00;  1.3213149E-02;0;  6.3166879E-02;  1.5999801E+04;  0.0000000E+00; -9.9699877E-02;  4.0000000E+04;  0.0000000E+00;  3.9686156E+04;  7.4621163E-02;  0.0000000E+00; -1.1454282E-02;  3.8793777E+02;
  8.2473552E-01;  9.9999998E-03; -4.0172331E-02;7291;  1.4991987E-02;  0.0000000E+00;  3.9023501E-04;  9.9860815E+02;  1.5854949E-01; -1.1531031E+03;3;  4.0943241E+00;  0.0000000E+00; -1.8324852E-02;0;  6.3253097E-02;  1.5993438E+04;  0.0000000E+00; -1.7612864E-01;  4.0000000E+04;  0.0000000E+00;  3.9684801E+04;  7.4623182E-02;  0.0000000E+00; -1.1370084E-02;  5.3120587E+02;
  8.2473552E-01;  9.9999998E-03;  4.0172391E-02;7299;  1.4991978E-02;  0.0000000E+00; -3.9011278E-04;  9.9860822E+02;  1.5854937E-01; -1.1530537E+03;3;  4.0943599E+00;  0.0000000E+00;  1.8297045E-02;0;  6.3253097E-02;  1.5993431E+04;  0.0000000E+00; -1.7612220E-01;  4.0000000E+04;  0.0000000E+00;  3.9684801E+04;  7.4623175E-02;  0.0000000E+00; -1.1370080E-02;  5.3119885E+02;
  8.2487786E-01;  9.9999998E-03; -5.0233770E-02;7290;  1.5064081E-02;  0.0000000E+00;  4.9583189E-04;  9.9864893E+02;  1.5860488E-01; -1.1193263E+03;3;  4.0748591E+00;  0.0000000E+00; -2.3668448E-02;0;  6.3327946E-02;  1.5984530E+04;  0.0000000E+00; -2.7227056E-01;  4.0000000E+04;  0.0000000E+00;  3.9684094E+04;  7.4583195E-02;  0.0000000E+00; -1.1255248E-02;  8.0520428E+02;
  8.2487786E-01;  9.9999998E-03;  5.0233830E-02;7300;  1.5064092E-02;  0.0000000E+00; -4.9570936E-04;  9.9864917E+02;  1.5860525E-01; -1.1191288E+03;3;  4.0749130E+00;  0.0000000E+00;  2.3639550E-02;0;  6.3327819E-02;  1.5984531E+04;  0.0000000E+00; -2.7225906E-01;  4.0000000E+04;  0.0000000E+00;  3.9684098E+04;  7.4583083E-02;  0.0000000E+00; -1.1255262E-02;  8.0519611E+02;
  8.2505876E-01;  9.9999998E-03; -6.0317744E-02;7289;  1.5140603E-02;  0.0000000E+00;  6.0203701E-04;  9.9870508E+02;  1.5867820E-01; -1.0728091E+03;3;  4.0486717E+00;  0.0000000E+00; -2.7218608E-02;0;  6.3372813E-02;  1.5972321E+04;  0.0000000E+00; -3.8502848E-01;  4.0000000E+04;  0.0000000E+00;  3.9683953E+04;  7.4483082E-02;  0.0000000E+00; -1.1110266E-02;  1.1426396E+03;
  8.2505882E-01;  9.9999998E-03;  6.0317803E-02;7301;  1.5140614E-02;  0.0000000E+00; -6.0191518E-04;  9.9870526E+02;  1.5867877E-01; -1.0726609E+03;3;  4.0487247E+00;  0.0000000E+00;  2.7193852E-02;0;  6.3372619E-02;  1.5972319E+04;  0.0000000E+00; -3.8501677E-01;  4.0000000E+04;  0.0000000E+00;  3.9683949E+04;  7.4482895E-02;  0.0000000E+00; -1.1110273E-02;  1.1426185E+03;
  8.2525617E-01;  9.9999998E-03; -7.0395656E-02;7288;  1.5231097E-02;  0.0000000E+00;  7.1014784E-04;  9.9878210E+02;  1.5876469E-01; -1.0090084E+03;3;  4.0375657E+00;  0.0000000E+00; -2.6474148E-02;0;  6.3361079E-02;  1.5958083E+04;  0.0000000E+00; -5.0780785E-01;  4.0000000E+04;  0.0000000E+00;  3.9684895E+04;  7.4297562E-02;  0.0000000E+00; -1.0936482E-02;  1.5210299E+03;
  8.2541430E-01;  9.9999998E-03; -8.0391861E-02;7287;  1.5331767E-02;  0.0000000E+00;  8.1575703E-04;  9.9887213E+02;  1.5884319E-01; -9.3439325E+02;3;  4.0148134E+00;  0.0000000E+00; -2.9100118E-02;0;  6.3258007E-02;  1.5945287E+04;  0.0000000E+00; -6.2961608E-01;  4.0000000E+04;  0.0000000E+00;  3.9686613E+04;  7.3994704E-02;  0.0000000E+00; -1.0736697E-02;  1.9142717E+03;
  8.2553476E-01;  9.9999998E-03; -9.0372071E-02;7286;  1.5434348E-02;  0.0000000E+00;  9.1497798E-04;  9.9896960E+02;  1.5892053E-01; -8.5365479E+02;3;  3.9866407E+00;  0.0000000E+00; -3.1663992E-02;0;  6.3065469E-02;  1.5933488E+04;  0.0000000E+00; -7.4008471E-01;  4.0000000E+04;  0.0000000E+00;  3.9688160E+04;  7.3582821E-02;  0.0000000E+00; -1.0517348E-02;  2.2659436E+03;
  8.2565159E-01;  9.9999998E-03; -1.0033479E-01;7285;  1.5526550E-02;  0.0000000E+00;  1.0063018E-03;  9.9907880E+02;  1.5899879E-01; -7.6318823E+02;3;  3.9508588E+00;  0.0000000E+00; -3.5912808E-02;0;  6.2810808E-02;  1.5921449E+04;  0.0000000E+00; -8.2717049E-01;  4.0000000E+04;  0.0000000E+00;  3.9688738E+04;  7.3098771E-02;  0.0000000E+00; -1.0287966E-02;  2.5070562E+03;
  8.4220874E-01;  9.9999998E-03;  3.0023937E-08;7356;  1.4939557E-02;  0.0000000E+00;  5.7156534E-08;  9.9860822E+02;  1.6612965E-01; -1.1530537E+03;3;  4.1123285E+00;  0.0000000E+00; -3.0750919E-06;0;  7.4567422E-02;  1.4604414E+04;  0.0000000E+00;  5.0513375E-11;  4.0000000E+04;  0.0000000E+00;  3.9657707E+04;  8.8273324E-02;  0.0000000E+00; -1.3705903E-02;  6.8594928E+02;
  8.4219021E-01;  9.9999998E-03; -1.0046460E-02;7355;  1.4953638E-02;  0.0000000E+00;  1.1811992E-04;  9.9860254E+02;  1.6612065E-01; -1.1577943E+03;3;  4.1098747E+00;  0.0000000E+00; -5.9872400E-03;0;  7.4523509E-02;  1.4605724E+04;  0.0000000E+00; -1.1555866E-02;  4.0000000E+04;  0.0000000E+00;  3.9657484E+04;  8.8205181E-02;  0.0000000E+00; -1.3681669E-02;  6.5301764E+02;
  8.4219021E-01;  9.9999998E-03;  1.0046521E-02;7357;  1.4953637E-02;  0.0000000E+00; -1.1800446E-04;  9.9860254E+02;  1.6612123E-01; -1.1577943E+03;3;  4.1098866E+00;  0.0000000E+00;  5.9832018E-03;0;  7.4523509E-02;  1.4605722E+04;  0.0000000E+00; -1.1554273E-02;  4.0000000E+04;  0.0000000E+00;  3.9657480E+04;  8.8205174E-02;  0.0000000E+00; -1.3681666E-02;  6.5298395E+02;
  8.4213769E-01;  9.9999998E-03; -2.0088566E-02;7354;  1.4994686E-02;  0.0000000E+00;  2.3773580E-04;  9.9859662E+02;  1.6609831E-01; -1.1626831E+03;3;  4.1042881E+00;  0.0000000E+00; -1.3360192E-02;0;  7.4393712E-02;  1.4609374E+04;  0.0000000E+00; -4.5903713E-02;  4.0000000E+04;  0.0000000E+00;  3.9656789E+04;  8.8002272E-02;  0.0000000E+00; -1.3608560E-02;  5.7059320E+02;
  8.4213769E-01;  9.9999998E-03;  2.0088630E-02;7358;  1.4994685E-02;  0.0000000E+00; -2.3762064E-04;  9.9859662E+02;  1.6609831E-01; -1.1626831E+03;3;  4.1043248E+00;  0.0000000E+00;  1.3353118E-02;0;  7.4393697E-02;  1.4609370E+04;  0.0000000E+00; -4.5899879E-02;  4.0000000E+04;  0.0000000E+00;  3.9656789E+04;  8.8002257E-02;  0.0000000E+00; -1.3608557E-02;  5.7053442E+02;
  8.4206164E-01;  9.9999998E-03; -3.0127628E-02;7353;  1.5057472E-02;  0.0000000E+00;  3.5929060E-04;  9.9858221E+02;  1.6606510E-01; -1.1745840E+03;3;  4.0952797E+00;  0.0000000E+00; -2.2213485E-02;0;  7.4182853E-02;  1.4614621E+04;  0.0000000E+00; -1.0226563E-01;  4.0000000E+04;  0.0000000E+00;  3.9655473E+04;  8.7668881E-02;  0.0000000E+00; -1.3486027E-02;  5.0738004E+02;
  8.4206158E-01;  9.9999998E-03;  3.0127691E-02;7359;  1.5057454E-02;  0.0000000E+00; -3.5917546E-04;  9.9858203E+02;  1.6606502E-01; -1.1747815E+03;3;  4.0953164E+00;  0.0000000E+00;  2.2204420E-02;0;  7.4182801E-02;  1.4614623E+04;  0.0000000E+00; -1.0226062E-01;  4.0000000E+04;  0.0000000E+00;  3.9655477E+04;  8.7668814E-02;  0.0000000E+00; -1.3486014E-02;  5.0734390E+02;
  8.4197789E-01;  9.9999998E-03; -4.0170953E-02;7352;  1.5135494E-02;  0.0000000E+00;  4.8337082E-04;  9.9857269E+02;  1.6603011E-01; -1.1824850E+03;3;  4.0826144E+00;  0.0000000E+00; -2.8008973E-02;0;  7.3897108E-02;  1.4620182E+04;  0.0000000E+00; -1.7966759E-01;  4.0000000E+04;  0.0000000E+00;  3.9654527E+04;  8.7211184E-02;  0.0000000E+00; -1.3314079E-02;  5.8656219E+02;
  8.4197789E-01;  9.9999998E-03;  4.0171016E-02;7360;  1.5135506E-02;  0.0000000E+00; -4.8325484E-04;  9.9857281E+02;  1.6603047E-01; -1.1823862E+03;3;  4.0826564E+00;  0.0000000E+00;  2.7996721E-02;0;  7.3897012E-02;  1.4620183E+04;  0.0000000E+00; -1.7966127E-01;  4.0000000E+04;  0.0000000E+00;  3.9654520E+04;  8.7211072E-02;  0.0000000E+00; -1.3314059E-02;  5.8652936E+02;
  8.4190118E-01;  9.9999998E-03; -5.0231561E-02;7351;  1.5228014E-02;  0.0000000E+00;  6.1008055E-04;  9.9857153E+02;  1.6599953E-01; -1.1834727E+03;3;  4.0775285E+00;  0.0000000E+00; -3.0749239E-02;0;  7.3540591E-02;  1.4624798E+04;  0.0000000E+00; -2.7673140E-01;  4.0000000E+04;  0.0000000E+00;  3.9653793E+04;  8.6634420E-02;  0.0000000E+00; -1.3093831E-02;  8.3447382E+02;
  8.4190112E-01;  9.9999998E-03;  5.0231628E-02;7361;  1.5227996E-02;  0.0000000E+00; -6.0996466E-04;  9.9857129E+02;  1.6600013E-01; -1.1836702E+03;3;  4.0775928E+00;  0.0000000E+00;  3.0736111E-02;0;  7.3540628E-02;  1.4624794E+04;  0.0000000E+00; -2.7672386E-01;  4.0000000E+04;  0.0000000E+00;  3.9653801E+04;  8.6634450E-02;  0.0000000E+00; -1.3093824E-02;  8.3445703E+02;
  8.4184253E-01;  9.9999998E-03; -6.0319286E-02;7350;  1.5331839E-02;  0.0000000E+00;  7.3953869E-04;  9.9859357E+02;  1.6598019E-01; -1.1652015E+03;3;  4.0611291E+00;  0.0000000E+00; -3.6423955E-02;0;  7.3112689E-02;  1.4627525E+04;  0.0000000E+00; -3.9077574E-01;  4.0000000E+04;  0.0000000E+00;  3.9653691E+04;  8.5941039E-02;  0.0000000E+00; -1.2828348E-02;  1.1792594E+03;
  8.4184253E-01;  9.9999998E-03;  6.0319349E-02;7362;  1.5331864E-02;  0.0000000E+00; -7.3942455E-04;  9.9859369E+02;  1.6598152E-01; -1.1651028E+03;3;  4.0611973E+00;  0.0000000E+00;  3.6404762E-02;0;  7.3112704E-02;  1.4627529E+04;  0.0000000E+00; -3.9076543E-01;  4.0000000E+04;  0.0000000E+00;  3.9653688E+04;  8.5941039E-02;  0.0000000E+00; -1.2828338E-02;  1.1792502E+03;
  8.4181416E-01;  9.9999998E-03; -7.0425116E-02;7349;  1.5437344E-02;  0.0000000E+00;  8.6393097E-04;  9.9862463E+02;  1.6597773E-01; -1.1394739E+03;3;  4.0358052E+00;  0.0000000E+00; -4.1741665E-02;0;  7.2612584E-02;  1.4627336E+04;  0.0000000E+00; -5.1626182E-01;  4.0000000E+04;  0.0000000E+00;  3.9654703E+04;  8.5137181E-02;  0.0000000E+00; -1.2524596E-02;  1.5741885E+03;
  8.4180999E-01;  9.9999998E-03; -8.0492243E-02;7348;  1.5529655E-02;  0.0000000E+00;  9.8234031E-04;  9.9867731E+02;  1.6598883E-01; -1.0958208E+03;3;  4.0059977E+00;  0.0000000E+00; -4.4989470E-02;0;  7.2033361E-02;  1.4624540E+04;  0.0000000E+00; -6.4262772E-01;  4.0000000E+04;  0.0000000E+00;  3.9655957E+04;  8.4225886E-02;  0.0000000E+00; -1.2192523E-02;  1.9816465E+03;
  8.4183103E-01;  9.9999998E-03; -9.0534523E-02;7347;  1.5621305E-02;  0.0000000E+00;  1.0963933E-03;  9.9873950E+02;  1.6601653E-01; -1.0443160E+03;3;  3.9896243E+00;  0.0000000E+00; -4.4729374E-02;0;  7.1383007E-02;  1.4619285E+04;  0.0000000E+00; -7.5586051E-01;  4.0000000E+04;  0.0000000E+00;  3.9657734E+04;  8.3225489E-02;  0.0000000E+00; -1.1842484E-02;  2.3388254E+03;
  8.4187835E-01;  9.9999998E-03; -1.0055831E-01;7346;  1.5702918E-02;  0.0000000E+00;  1.2038379E-03;  9.9880408E+02;  1.6606052E-01; -9.9078674E+02;3;  3.9567060E+00;  0.0000000E+00; -4.8366968E-02;0;  7.0672199E-02;  1.4611352E+04;  0.0000000E+00; -8.4060663E-01;  4.0000000E+04;  0.0000000E+00;  3.9658629E+04;  8.2157075E-02;  0.0000000E+00; -1.1484879E-02;  2.5630205E+03;
  8.5960728E-01;  9.9999998E-03; -1.0055834E-02;7416;  1.5562479E-02;  0.0000000E+00;  1.4594270E-04;  9.9968903E+02;  1.7428486E-01; -2.5762231E+02;3;  4.1292224E+00;  0.0000000E+00; -7.7249850E-03;0;  8.7454252E-02;  1.3334236E+04;  0.0000000E+00; -9.5487228E-03;  4.0000000E+04;  0.0000000E+00;  3.9625812E+04;  1.0372146E-01;  0.0000000E+00; -1.6267212E-02;  7.1717047E+02;
  8.5960948E-01;  9.9999998E-03;  3.1456619E-08;7417;  1.5547048E-02;  0.0000000E+00;  5.2685238E-08;  9.9970355E+02;  1.7428970E-01; -2.4562267E+02;3;  4.1312346E+00;  0.0000000E+00;  1.0556837E-05;0;  8.7540977E-02;  1.3334128E+04;  0.0000000E+00; -8.5410852E-11;  4.0000000E+04;  0.0000000E+00;  3.9625820E+04;  1.0384348E-01;  0.0000000E+00; -1.6302502E-02;  7.3778204E+02;
  8.5960728E-01;  9.9999998E-03;  1.0055898E-02;7418;  1.5562451E-02;  0.0000000E+00; -1.4583746E-04;  9.9968890E+02;  1.7428523E-01; -2.5772110E+02;3;  4.1292267E+00;  0.0000000E+00;  7.7419886E-03;0;  8.7454155E-02;  1.3334237E+04;  0.0000000E+00; -9.5477775E-03;  4.0000000E+04;  0.0000000E+00;  3.9625816E+04;  1.0372135E-01;  0.0000000E+00; -1.6267197E-02;  7.1716974E+02;
  8.5960233E-01;  9.9999998E-03; -2.0106629E-02;7415;  1.5609939E-02;  0.0000000E+00;  2.9282941E-04;  9.9965320E+02;  1.7427258E-01; -2.8730051E+02;3;  4.1259117E+00;  0.0000000E+00; -1.5074381E-02;0;  8.7198421E-02;  1.3334784E+04;  0.0000000E+00; -3.7968636E-02;  4.0000000E+04;  0.0000000E+00;  3.9625207E+04;  1.0335940E-01;  0.0000000E+00; -1.6160980E-02;  6.6015009E+02;
  8.5960233E-01;  9.9999998E-03;  2.0106694E-02;7419;  1.5609981E-02;  0.0000000E+00; -2.9272449E-04;  9.9965344E+02;  1.7427255E-01; -2.8710297E+02;3;  4.1259356E+00;  0.0000000E+00;  1.5086965E-02;0;  8.7198570E-02;  1.3334781E+04;  0.0000000E+00; -3.7966829E-02;  4.0000000E+04;  0.0000000E+00;  3.9625211E+04;  1.0335951E-01;  0.0000000E+00; -1.6160941E-02;  6.6011365E+02;
  8.5959893E-01;  9.9999998E-03; -3.0151224E-02;7414;  1.5689205E-02;  0.0000000E+00;  4.4215590E-04;  9.9960016E+02;  1.7425434E-01; -3.3124988E+02;3;  4.1247449E+00;  0.0000000E+00; -2.1388100E-02;0;  8.6784400E-02;  1.3335175E+04;  0.0000000E+00; -8.4825024E-02;  4.0000000E+04;  0.0000000E+00;  3.9624488E+04;  1.0276736E-01;  0.0000000E+00; -1.5982963E-02;  5.9337836E+02;
  8.5959893E-01;  9.9999998E-03;  3.0151291E-02;7420;  1.5689209E-02;  0.0000000E+00; -4.4205040E-04;  9.9960022E+02;  1.7425419E-01; -3.3120047E+02;3;  4.1247683E+00;  0.0000000E+00;  2.1393759E-02;0;  8.6784407E-02;  1.3335174E+04;  0.0000000E+00; -8.4821135E-02;  4.0000000E+04;  0.0000000E+00;  3.9624488E+04;  1.0276734E-01;  0.0000000E+00; -1.5982937E-02;  5.9333728E+02;
  8.5960191E-01;  9.9999998E-03; -4.0195223E-02;7413;  1.5792750E-02;  0.0000000E+00;  5.9237814E-04;  9.9953955E+02;  1.7423542E-01; -3.8147067E+02;3;  4.1196012E+00;  0.0000000E+00; -2.9326513E-02;0;  8.6223528E-02;  1.3335106E+04;  0.0000000E+00; -1.4984314E-01;  4.0000000E+04;  0.0000000E+00;  3.9623246E+04;  1.0195629E-01;  0.0000000E+00; -1.5732761E-02;  5.8849860E+02;
  8.5960191E-01;  9.9999998E-03;  4.0195290E-02;7421;  1.5792759E-02;  0.0000000E+00; -5.9227174E-04;  9.9953961E+02;  1.7423595E-01; -3.8142130E+02;3;  4.1196446E+00;  0.0000000E+00;  2.9322011E-02;0;  8.6223572E-02;  1.3335105E+04;  0.0000000E+00; -1.4983654E-01;  4.0000000E+04;  0.0000000E+00;  3.9623246E+04;  1.0195631E-01;  0.0000000E+00; -1.5732735E-02;  5.8843585E+02;
  8.5961634E-01;  9.9999998E-03; -5.0248012E-02;7412;  1.5901474E-02;  0.0000000E+00;  7.4405334E-04;  9.9947113E+02;  1.7421901E-01; -4.3816040E+02;3;  4.1071677E+00;  0.0000000E+00; -3.5982292E-02;0;  8.5525446E-02;  1.3333957E+04;  0.0000000E+00; -2.3271586E-01;  4.0000000E+04;  0.0000000E+00;  3.9622566E+04;  1.0093705E-01;  0.0000000E+00; -1.5411598E-02;  7.2407581E+02;
  8.5961634E-01;  9.9999998E-03;  5.0248079E-02;7422;  1.5901458E-02;  0.0000000E+00; -7.4394559E-04;  9.9947101E+02;  1.7421976E-01; -4.3825919E+02;3;  4.1072087E+00;  0.0000000E+00;  3.5969421E-02;0;  8.5525535E-02;  1.3333954E+04;  0.0000000E+00; -2.3270738E-01;  4.0000000E+04;  0.0000000E+00;  3.9622562E+04;  1.0093711E-01;  0.0000000E+00; -1.5411572E-02;  7.2403180E+02;
  8.5964710E-01;  9.9999998E-03; -6.0321394E-02;7411;  1.6013598E-02;  0.0000000E+00;  8.9813309E-04;  9.9941150E+02;  1.7420994E-01; -4.8754172E+02;3;  4.1042838E+00;  0.0000000E+00; -3.4533348E-02;0;  8.4702745E-02;  1.3331225E+04;  0.0000000E+00; -3.3200449E-01;  4.0000000E+04;  0.0000000E+00;  3.9622016E+04;  9.9726111E-02;  0.0000000E+00; -1.5023364E-02;  9.8994293E+02;
  8.5964710E-01;  9.9999998E-03;  6.0321461E-02;7423;  1.6013615E-02;  0.0000000E+00; -8.9802349E-04;  9.9941150E+02;  1.7420989E-01; -4.8754172E+02;3;  4.1043339E+00;  0.0000000E+00;  3.4510568E-02;0;  8.4702790E-02;  1.3331226E+04;  0.0000000E+00; -3.3199054E-01;  4.0000000E+04;  0.0000000E+00;  3.9622004E+04;  9.9726133E-02;  0.0000000E+00; -1.5023347E-02;  9.8990662E+02;
  8.5970461E-01;  9.9999998E-03; -7.0426732E-02;7410;  1.6123226E-02;  0.0000000E+00;  1.0512177E-03;  9.9937189E+02;  1.7421292E-01; -5.2038031E+02;3;  4.0904875E+00;  0.0000000E+00; -3.5660326E-02;0;  8.3769709E-02;  1.3326402E+04;  0.0000000E+00; -4.4335255E-01;  4.0000000E+04;  0.0000000E+00;  3.9622363E+04;  9.8346151E-02;  0.0000000E+00; -1.4576441E-02;  1.3314672E+03;
  8.5978961E-01;  9.9999998E-03; -8.0536753E-02;7409;  1.6221534E-02;  0.0000000E+00;  1.1971635E-03;  9.9936078E+02;  1.7423286E-01; -5.2956525E+02;3;  4.0751739E+00;  0.0000000E+00; -3.4065086E-02;0;  8.2735792E-02;  1.3319023E+04;  0.0000000E+00; -5.5804360E-01;  4.0000000E+04;  0.0000000E+00;  3.9623602E+04;  9.6819893E-02;  0.0000000E+00; -1.4084098E-02;  1.6952565E+03;
  8.5989374E-01;  9.9999998E-03; -9.0620525E-02;7408;  1.6293116E-02;  0.0000000E+00;  1.3397040E-03;  9.9936957E+02;  1.7426679E-01; -5.2230615E+02;3;  4.0527730E+00;  0.0000000E+00; -3.3124287E-02;0;  8.1606053E-02;  1.3309807E+04;  0.0000000E+00; -6.6273034E-01;  4.0000000E+04;  0.0000000E+00;  3.9624910E+04;  9.5168419E-02;  0.0000000E+00; -1.3562369E-02;  2.0088314E+03;
  8.6000627E-01;  9.9999998E-03; -1.0069243E-01;7407;  1.6347103E-02;  0.0000000E+00;  1.4706370E-03;  9.9939349E+02;  1.7430854E-01; -5.0245490E+02;3;  4.0262876E+00;  0.0000000E+00; -3.2067709E-02;0;  8.0385983E-02;  1.3299429E+04;  0.0000000E+00; -7.4225920E-01;  4.0000000E+04;  0.0000000E+00;  3.9625762E+04;  9.3412817E-02;  0.0000000E+00; -1.3026837E-02;  2.1802949E+03;
  8.7710643E-01;  9.9999998E-03; -1.0065285E-02;7477;  1.8302090E-02;  0.0000000E+00;  1.6640128E-04;  1.0002782E+03;  1.8267842E-01;  2.3051198E+02;3;  4.6652026E+00;  0.0000000E+00;  1.1606395E-03;0;  9.8045878E-02;  1.2172496E+04;  0.0000000E+00; -5.4805749E-03;  4.0000000E+04;  0.0000000E+00;  3.9593863E+04;  1.1733018E-01;  0.0000000E+00; -1.9284301E-02;  8.0122369E+02;
  8.7710804E-01;  9.9999998E-03;  3.3058612E-08;7478;  1.8281253E-02;  0.0000000E+00;  5.3643380E-08;  1.0002869E+03;  1.8268086E-01;  2.3772165E+02;3;  4.6617951E+00;  0.0000000E+00;  3.1930802E-05;0;  9.8190300E-02;  1.2172655E+04;  0.0000000E+00; -1.0601753E-10;  4.0000000E+04;  0.0000000E+00;  3.9593941E+04;  1.1752655E-01;  0.0000000E+00; -1.9336248E-02;  8.0600165E+02;
  8.7710643E-01;  9.9999998E-03;  1.0065350E-02;7479;  1.8302005E-02;  0.0000000E+00; -1.6629425E-04;  1.0002781E+03;  1.8267727E-01;  2.3041322E+02;3;  4.6651902E+00;  0.0000000E+00; -1.1047679E-03;0;  9.8045923E-02;  1.2172493E+04;  0.0000000E+00; -5.4795826E-03;  4.0000000E+04;  0.0000000E+00;  3.9593859E+04;  1.1733022E-01;  0.0000000E+00; -1.9284301E-02;  8.0120154E+02;
  8.7710136E-01;  9.9999998E-03; -2.0121742E-02;7476;  1.8357066E-02;  0.0000000E+00;  3.3557278E-04;  1.0002383E+03;  1.8267116E-01;  1.9742650E+02;3;  4.6716938E+00;  0.0000000E+00;  8.8924961E-03;0;  9.7618125E-02;  1.2172005E+04;  0.0000000E+00; -2.2212807E-02;  4.0000000E+04;  0.0000000E+00;  3.9593895E+04;  1.1674649E-01;  0.0000000E+00; -1.9128367E-02;  7.8154968E+02;
  8.7710136E-01;  9.9999998E-03;  2.0121811E-02;7480;  1.8357007E-02;  0.0000000E+00; -3.3546422E-04;  1.0002382E+03;  1.8267068E-01;  1.9732774E+02;3;  4.6716595E+00;  0.0000000E+00; -8.8383639E-03;0;  9.7618192E-02;  1.2172009E+04;  0.0000000E+00; -2.2210402E-02;  4.0000000E+04;  0.0000000E+00;  3.9593895E+04;  1.1674654E-01;  0.0000000E+00; -1.9128343E-02;  7.8152063E+02;
  8.7709367E-01;  9.9999998E-03; -3.0168070E-02;7475;  1.8448582E-02;  0.0000000E+00;  5.0987414E-04;  1.0001808E+03;  1.8265873E-01;  1.4982291E+02;3;  4.6842122E+00;  0.0000000E+00;  1.2380592E-02;0;  9.6928529E-02;  1.2171140E+04;  0.0000000E+00; -5.1081572E-02;  4.0000000E+04;  0.0000000E+00;  3.9593289E+04;  1.1579713E-01;  0.0000000E+00; -1.8868601E-02;  7.3950732E+02;
  8.7709367E-01;  9.9999998E-03;  3.0168140E-02;7481;  1.8448584E-02;  0.0000000E+00; -5.0976366E-04;  1.0001809E+03;  1.8265796E-01;  1.4992168E+02;3;  4.6842394E+00;  0.0000000E+00; -1.2338252E-02;0;  9.6928641E-02;  1.2171139E+04;  0.0000000E+00; -5.1077493E-02;  4.0000000E+04;  0.0000000E+00;  3.9593289E+04;  1.1579721E-01;  0.0000000E+00; -1.8868562E-02;  7.3947479E+02;
  8.7708485E-01;  9.9999998E-03; -4.0209450E-02;7474;  1.8563133E-02;  0.0000000E+00;  6.9036544E-04;  1.0001016E+03;  1.8264259E-01;  8.4145760E+01;3;  4.6986561E+00;  0.0000000E+00;  1.4587406E-02;0;  9.6004702E-02;  1.2169852E+04;  0.0000000E+00; -9.3543909E-02;  4.0000000E+04;  0.0000000E+00;  3.9592945E+04;  1.1451080E-01;  0.0000000E+00; -1.8506097E-02;  6.8634009E+02;
  8.7708485E-01;  9.9999998E-03;  4.0209524E-02;7482;  1.8563021E-02;  0.0000000E+00; -6.9025042E-04;  1.0001016E+03;  1.8264277E-01;  8.4145760E+01;3;  4.6986599E+00;  0.0000000E+00; -1.4553912E-02;0;  9.6004844E-02;  1.2169850E+04;  0.0000000E+00; -9.3539044E-02;  4.0000000E+04;  0.0000000E+00;  3.9592945E+04;  1.1451089E-01;  0.0000000E+00; -1.8506050E-02;  6.8631476E+02;
  8.7707627E-01;  9.9999998E-03; -5.0255083E-02;7473;  1.8684257E-02;  0.0000000E+00;  8.7646028E-04;  1.0000164E+03;  1.8262477E-01;  1.3629243E+01;3;  4.7086821E+00;  0.0000000E+00;  1.5735019E-02;0;  9.4878666E-02;  1.2168115E+04;  0.0000000E+00; -1.5126842E-01;  4.0000000E+04;  0.0000000E+00;  3.9591926E+04;  1.1292260E-01;  0.0000000E+00; -1.8043933E-02;  6.6977441E+02;
  8.7707627E-01;  9.9999998E-03;  5.0255157E-02;7483;  1.8684216E-02;  0.0000000E+00; -8.7634247E-04;  1.0000165E+03;  1.8262464E-01;  1.3629243E+01;3;  4.7086859E+00;  0.0000000E+00; -1.5719132E-02;0;  9.4878912E-02;  1.2168111E+04;  0.0000000E+00; -1.5126206E-01;  4.0000000E+04;  0.0000000E+00;  3.9591922E+04;  1.1292282E-01;  0.0000000E+00; -1.8043911E-02;  6.6974908E+02;
  8.7707269E-01;  9.9999998E-03; -6.0317904E-02;7472;  1.8791853E-02;  0.0000000E+00;  1.0658785E-03;  9.9994153E+02;  1.8260607E-01; -4.8443069E+01;3;  4.7111273E+00;  0.0000000E+00;  1.9685958E-02;0;  9.3583770E-02;  1.2165699E+04;  0.0000000E+00; -2.2495863E-01;  4.0000000E+04;  0.0000000E+00;  3.9591824E+04;  1.1107267E-01;  0.0000000E+00; -1.7488904E-02;  7.5331451E+02;
  8.7707269E-01;  9.9999998E-03;  6.0317982E-02;7484;  1.8791774E-02;  0.0000000E+00; -1.0657558E-03;  9.9994147E+02;  1.8260576E-01; -4.8492451E+01;3;  4.7111368E+00;  0.0000000E+00; -1.9679680E-02;0;  9.3583971E-02;  1.2165702E+04;  0.0000000E+00; -2.2494465E-01;  4.0000000E+04;  0.0000000E+00;  3.9591840E+04;  1.1107285E-01;  0.0000000E+00; -1.7488880E-02;  7.5325342E+02;
  8.7708580E-01;  9.9999998E-03; -7.0410602E-02;7471;  1.8863965E-02;  0.0000000E+00;  1.2564339E-03;  9.9988214E+02;  1.8259536E-01; -9.7626862E+01;3;  4.6989551E+00;  0.0000000E+00;  3.2381069E-02;0;  9.2152260E-02;  1.2161899E+04;  0.0000000E+00; -3.1251851E-01;  4.0000000E+04;  0.0000000E+00;  3.9591926E+04;  1.0900517E-01;  0.0000000E+00; -1.6852908E-02;  9.4886371E+02;
  8.7713736E-01;  9.9999998E-03; -8.0523245E-02;7470;  1.8883524E-02;  0.0000000E+00;  1.4443811E-03;  9.9985345E+02;  1.8260330E-01; -1.2142866E+02;3;  4.6630516E+00;  0.0000000E+00;  3.2286938E-02;0;  9.0616703E-02;  1.2155512E+04;  0.0000000E+00; -4.0749604E-01;  4.0000000E+04;  0.0000000E+00;  3.9592652E+04;  1.0677205E-01;  0.0000000E+00; -1.6155344E-02;  1.2026383E+03;
  8.7725025E-01;  9.9999998E-03; -9.0614781E-02;7469;  1.8852092E-02;  0.0000000E+00;  1.6178944E-03;  9.9984546E+02;  1.8264383E-01; -1.2804575E+02;3;  4.6050587E+00;  0.0000000E+00;  2.5674256E-02;0;  8.9008979E-02;  1.2145161E+04;  0.0000000E+00; -4.9906874E-01;  4.0000000E+04;  0.0000000E+00;  3.9593895E+04;  1.0443176E-01;  0.0000000E+00; -1.5422784E-02;  1.4255638E+03;
  8.7739587E-01;  9.9999998E-03; -1.0068265E-01;7468;  1.8722564E-02;  0.0000000E+00;  1.7770403E-03;  9.9986169E+02;  1.8270196E-01; -1.1456465E+02;3;  4.4995470E+00;  0.0000000E+00;  2.9871693E-02;0;  8.7323368E-02;  1.2132775E+04;  0.0000000E+00; -5.7479620E-01;  4.0000000E+04;  0.0000000E+00;  3.9594035E+04;  1.0199852E-01;  0.0000000E+00; -1.4675148E-02;  1.5214954E+03;
  8.9642560E-01;  9.9999998E-03; -1.0060831E-01;7529;  2.3729328E-02;  0.0000000E+00;  2.0823148E-03;  9.9981781E+02;  1.9209528E-01; -1.5095868E+02;3;  4.7625518E+00;  0.0000000E+00;  9.9926996E-01;0;  8.7358251E-02;  1.0982828E+04;  0.0000000E+00; -3.9465043E-01;  4.0000000E+04;  0.0000000E+00;  3.9559688E+04;  1.0395777E-01;  0.0000000E+00; -1.6599525E-02;  1.1253884E+03;
  8.9632803E-01;  9.9999998E-03; -9.0555623E-02;7530;  2.3945358E-02;  0.0000000E+00;  1.9307996E-03;  9.9979822E+02;  1.9206275E-01; -1.6715575E+02;3;  4.9008842E+00;  0.0000000E+00;  9.7478688E-01;0;  8.9360885E-02;  1.0990872E+04;  0.0000000E+00; -3.1892934E-01;  4.0000000E+04;  0.0000000E+00;  3.9560000E+04;  1.0697483E-01;  0.0000000E+00; -1.7613949E-02;  1.0918198E+03;
  8.9619678E-01;  9.9999998E-03; -8.0477700E-02;7531;  2.4057571E-02;  0.0000000E+00;  1.7512288E-03;  9.9979260E+02;  1.9201685E-01; -1.7184698E+02;3;  5.0330391E+00;  0.0000000E+00;  9.2187047E-01;0;  9.1355726E-02;  1.1000870E+04;  0.0000000E+00; -2.4327572E-01;  4.0000000E+04;  0.0000000E+00;  3.9559297E+04;  1.0995713E-01;  0.0000000E+00; -1.8601401E-02;  9.9136053E+02;
  8.9605272E-01;  9.9999998E-03; -7.0371360E-02;7532;  2.4093695E-02;  0.0000000E+00;  1.5477106E-03;  9.9981604E+02;  1.9196445E-01; -1.5239075E+02;3;  5.1398449E+00;  0.0000000E+00;  8.5515821E-01;0;  9.3320534E-02;  1.1011535E+04;  0.0000000E+00; -1.7348079E-01;  4.0000000E+04;  0.0000000E+00;  3.9558809E+04;  1.1285291E-01;  0.0000000E+00; -1.9532371E-02;  8.8893073E+02;
  8.9590752E-01;  9.9999998E-03; -6.0285266E-02;7533;  2.4082040E-02;  0.0000000E+00;  1.3288342E-03;  9.9986212E+02;  1.9190937E-01; -1.1421899E+02;3;  5.2425518E+00;  0.0000000E+00;  7.6532912E-01;0;  9.5206104E-02;  1.1022258E+04;  0.0000000E+00; -1.1492977E-01;  4.0000000E+04;  0.0000000E+00;  3.9558770E+04;  1.1558113E-01;  0.0000000E+00; -2.0375023E-02;  8.4423126E+02;
  8.9576858E-01;  9.9999998E-03; -5.0230470E-02;7534;  2.4044789E-02;  0.0000000E+00;  1.1022446E-03;  9.9992450E+02;  1.9185476E-01; -6.2566128E+01;3;  5.3289790E+00;  0.0000000E+00;  6.4652485E-01;0;  9.6957132E-02;  1.1032528E+04;  0.0000000E+00; -7.0145093E-02;  4.0000000E+04;  0.0000000E+00;  3.9559055E+04;  1.1806473E-01;  0.0000000E+00; -2.1107597E-02;  8.5956165E+02;
  8.9564133E-01;  9.9999998E-03; -4.0192153E-02;7535;  2.4003733E-02;  0.0000000E+00;  8.7574014E-04;  9.9999609E+02;  1.9180420E-01; -3.2591667E+00;3;  5.3989215E+00;  0.0000000E+00;  5.0563294E-01;0;  9.8514780E-02;  1.1041946E+04;  0.0000000E+00; -3.8812079E-02;  4.0000000E+04;  0.0000000E+00;  3.9559738E+04;  1.2023171E-01;  0.0000000E+00; -2.1716926E-02;  8.9621631E+02;
  8.9553237E-01;  9.9999998E-03; -3.0157160E-02;7536;  2.3970976E-02;  0.0000000E+00;  6.5478322E-04;  1.0000605E+03;  1.9175810E-01;  5.0072655E+01;3;  5.4511089E+00;  0.0000000E+00;  3.8996881E-01;0;  9.9815309E-02;  1.1049956E+04;  0.0000000E+00; -1.8763002E-02;  4.0000000E+04;  0.0000000E+00;  3.9560230E+04;  1.2201058E-01;  0.0000000E+00; -2.2195276E-02;  9.1867188E+02;
  8.9544863E-01;  9.9999998E-03; -2.0115038E-02;7537;  2.3953125E-02;  0.0000000E+00;  4.3649573E-04;  1.0001085E+03;  1.9172210E-01;  8.9873993E+01;3;  5.4913468E+00;  0.0000000E+00;  2.7338889E-01;0;  1.0079826E-01;  1.1056098E+04;  0.0000000E+00; -7.2421394E-03;  4.0000000E+04;  0.0000000E+00;  3.9560262E+04;  1.2333699E-01;  0.0000000E+00; -2.2538725E-02;  9.1553204E+02;
  8.9539593E-01;  9.9999998E-03; -1.0061878E-02;7538;  2.3947487E-02;  0.0000000E+00;  2.1767017E-04;  1.0001404E+03;  1.9170003E-01;  1.1634238E+02;3;  5.5175705E+00;  0.0000000E+00;  1.2780401E-01;0;  1.0141191E-01;  1.1059916E+04;  0.0000000E+00; -1.6298624E-03;  4.0000000E+04;  0.0000000E+00;  3.9560301E+04;  1.2415728E-01;  0.0000000E+00; -2.2745373E-02;  8.9935364E+02;
  8.9537799E-01;  9.9999998E-03;  3.3459653E-08;7539;  2.3945425E-02;  0.0000000E+00;  8.5003997E-08;  1.0001499E+03;  1.9169252E-01;  1.2414463E+02;3;  5.5218158E+00;  0.0000000E+00;  5.9044905E-05;0;  1.0162033E-01;  1.1061220E+04;  0.0000000E+00; -4.8685127E-12;  4.0000000E+04;  0.0000000E+00;  3.9560246E+04;  1.2443466E-01;  0.0000000E+00; -2.2814335E-02;  8.9070703E+02;
  8.9539593E-01;  9.9999998E-03;  1.0061945E-02;7540;  2.3947526E-02;  0.0000000E+00; -2.1750036E-04;  1.0001404E+03;  1.9169925E-01;  1.1634238E+02;3;  5.5175772E+00;  0.0000000E+00; -1.2768611E-01;0;  1.0141189E-01;  1.1059920E+04;  0.0000000E+00; -1.6277196E-03;  4.0000000E+04;  0.0000000E+00;  3.9560301E+04;  1.2415726E-01;  0.0000000E+00; -2.2745369E-02;  8.9931799E+02;
  8.9544857E-01;  9.9999998E-03;  2.0115105E-02;7541;  2.3953095E-02;  0.0000000E+00; -4.3632579E-04;  1.0001085E+03;  1.9172157E-01;  8.9873993E+01;3;  5.4913826E+00;  0.0000000E+00; -2.7328360E-01;0;  1.0079850E-01;  1.1056098E+04;  0.0000000E+00; -7.2378721E-03;  4.0000000E+04;  0.0000000E+00;  3.9560262E+04;  1.2333719E-01;  0.0000000E+00; -2.2538694E-02;  9.1549670E+02;
  8.9553237E-01;  9.9999998E-03;  3.0157225E-02;7542;  2.3971006E-02;  0.0000000E+00; -6.5461430E-04;  1.0000605E+03;  1.9175796E-01;  5.0171417E+01;3;  5.4511247E+00;  0.0000000E+00; -3.8986918E-01;0;  9.9815577E-02;  1.1049957E+04;  0.0000000E+00; -1.8755876E-02;  4.0000000E+04;  0.0000000E+00;  3.9560230E+04;  1.2201083E-01;  0.0000000E+00; -2.2195254E-02;  9.1863525E+02;
  8.9564133E-01;  9.9999998E-03;  4.0192220E-02;7543;  2.4003875E-02;  0.0000000E+00; -8.7557361E-04;  9.9999640E+02;  1.9180343E-01; -2.9628789E+00;3;  5.3989511E+00;  0.0000000E+00; -5.0555116E-01;0;  9.8515101E-02;  1.1041947E+04;  0.0000000E+00; -3.8804077E-02;  4.0000000E+04;  0.0000000E+00;  3.9559746E+04;  1.2023199E-01;  0.0000000E+00; -2.1716887E-02;  8.9612177E+02;
  8.9576858E-01;  9.9999998E-03;  5.0230540E-02;7544;  2.4044802E-02;  0.0000000E+00; -1.1020676E-03;  9.9992456E+02;  1.9185513E-01; -6.2516747E+01;3;  5.3290167E+00;  0.0000000E+00; -6.4643878E-01;0;  9.6957587E-02;  1.1032532E+04;  0.0000000E+00; -7.0138805E-02;  4.0000000E+04;  0.0000000E+00;  3.9559055E+04;  1.1806515E-01;  0.0000000E+00; -2.1107564E-02;  8.5948865E+02;
  8.9590752E-01;  9.9999998E-03;  6.0285341E-02;7545;  2.4081983E-02;  0.0000000E+00; -1.3286499E-03;  9.9986212E+02;  1.9191025E-01; -1.1421899E+02;3;  5.2426109E+00;  0.0000000E+00; -7.6524848E-01;0;  9.5206633E-02;  1.1022257E+04;  0.0000000E+00; -1.1491960E-01;  4.0000000E+04;  0.0000000E+00;  3.9558762E+04;  1.1558162E-01;  0.0000000E+00; -2.0374989E-02;  8.4425232E+02;
  9.1589075E-01;  9.9999998E-03; -1.0052574E-01;7590;  2.6564950E-02;  0.0000000E+00;  2.8242401E-03;  9.9914941E+02;  2.0211065E-01; -7.0467139E+02;3;  3.1981645E+00;  0.0000000E+00;  1.3578607E+00;0;  7.7037305E-02;  9.9136250E+03;  0.0000000E+00; -2.5898570E-01;  4.0000000E+04;  0.0000000E+00;  3.9524434E+04;  9.5592052E-02;  0.0000000E+00; -1.8554743E-02;  1.7806964E+03;
  9.1592920E-01;  9.9999998E-03; -9.0466067E-02;7591;  2.6782736E-02;  0.0000000E+00;  2.6261285E-03;  9.9911273E+02;  2.0214443E-01; -7.3509027E+02;3;  3.5716696E+00;  0.0000000E+00;  1.2723411E+00;0;  7.9081841E-02;  9.9134805E+03;  0.0000000E+00; -1.8186882E-01;  4.0000000E+04;  0.0000000E+00;  3.9523996E+04;  9.8940082E-02;  0.0000000E+00; -1.9858239E-02;  1.6347351E+03;
  9.1592658E-01;  9.9999998E-03; -8.0389015E-02;7592;  2.6964700E-02;  0.0000000E+00;  2.3971780E-03;  9.9909784E+02;  2.0215556E-01; -7.4743561E+02;3;  3.9386945E+00;  0.0000000E+00;  1.1939785E+00;0;  8.1191748E-02;  9.9159502E+03;  0.0000000E+00; -1.2375447E-01;  4.0000000E+04;  0.0000000E+00;  3.9523051E+04;  1.0232584E-01;  0.0000000E+00; -2.1134097E-02;  1.4212074E+03;
  9.1589355E-01;  9.9999998E-03; -7.0300803E-02;7593;  2.7103286E-02;  0.0000000E+00;  2.1365753E-03;  9.9910706E+02;  2.0214795E-01; -7.3978149E+02;3;  4.3173409E+00;  0.0000000E+00;  1.0659788E+00;0;  8.3334021E-02;  9.9201973E+03;  0.0000000E+00; -8.0971286E-02;  4.0000000E+04;  0.0000000E+00;  3.9522148E+04;  1.0567851E-01;  0.0000000E+00; -2.2344483E-02;  1.2153641E+03;
  9.1583562E-01;  9.9999998E-03; -6.0220957E-02;7594;  2.7203357E-02;  0.0000000E+00;  1.8561623E-03;  9.9913440E+02;  2.0212045E-01; -7.1711548E+02;3;  4.6202745E+00;  0.0000000E+00;  9.3076003E-01;0;  8.5451998E-02;  9.9258271E+03;  0.0000000E+00; -5.0134182E-02;  4.0000000E+04;  0.0000000E+00;  3.9521988E+04;  1.0890340E-01;  0.0000000E+00; -2.3451405E-02;  1.0737391E+03;
  9.1575396E-01;  9.9999998E-03; -5.0166387E-02;7595;  2.7283452E-02;  0.0000000E+00;  1.5594395E-03;  9.9916791E+02;  2.0207667E-01; -6.8936316E+02;3;  4.8984275E+00;  0.0000000E+00;  7.9519898E-01;0;  8.7472096E-02;  9.9326562E+03;  0.0000000E+00; -2.8650558E-02;  4.0000000E+04;  0.0000000E+00;  3.9522188E+04;  1.1189543E-01;  0.0000000E+00; -2.4423340E-02;  1.0101121E+03;
  9.1565698E-01;  9.9999998E-03; -4.0135972E-02;7596;  2.7346930E-02;  0.0000000E+00;  1.2526459E-03;  9.9920587E+02;  2.0202400E-01; -6.5790729E+02;3;  5.1032171E+00;  0.0000000E+00;  6.2969679E-01;0;  8.9306429E-02;  9.9399443E+03;  0.0000000E+00; -1.4571861E-02;  4.0000000E+04;  0.0000000E+00;  3.9522535E+04;  1.1454477E-01;  0.0000000E+00; -2.5238339E-02;  9.9375769E+02;
  9.1555661E-01;  9.9999998E-03; -3.0114705E-02;7597;  2.7407667E-02;  0.0000000E+00;  9.4488799E-04;  9.9923505E+02;  2.0196876E-01; -6.3375983E+02;3;  5.2732267E+00;  0.0000000E+00;  4.9288756E-01;0;  9.0864673E-02;  9.9469600E+03;  0.0000000E+00; -6.2456257E-03;  4.0000000E+04;  0.0000000E+00;  3.9522758E+04;  1.1674722E-01;  0.0000000E+00; -2.5882546E-02;  9.8242072E+02;
  9.1546863E-01;  9.9999998E-03; -2.0089401E-02;7598;  2.7463421E-02;  0.0000000E+00;  6.3301076E-04;  9.9924982E+02;  2.0191830E-01; -6.2151324E+02;3;  5.4283633E+00;  0.0000000E+00;  3.4127828E-01;0;  9.2057914E-02;  9.9526934E+03;  0.0000000E+00; -2.0592252E-03;  4.0000000E+04;  0.0000000E+00;  3.9522988E+04;  1.1840563E-01;  0.0000000E+00; -2.6347714E-02;  9.5736969E+02;
  9.1540849E-01;  9.9999998E-03; -1.0050852E-02;7599;  2.7499396E-02;  0.0000000E+00;  3.1498089E-04;  9.9925812E+02;  2.0188560E-01; -6.1464923E+02;3;  5.5419245E+00;  0.0000000E+00;  1.6224474E-01;0;  9.2808895E-02;  9.9565693E+03;  0.0000000E+00; -3.9600686E-04;  4.0000000E+04;  0.0000000E+00;  3.9522617E+04;  1.1943770E-01;  0.0000000E+00; -2.6628805E-02;  9.2733002E+02;
  9.1538733E-01;  9.9999998E-03;  3.6735326E-08;7600;  2.7504057E-02;  0.0000000E+00;  9.1744958E-08;  9.9925879E+02;  2.0187350E-01; -6.1405664E+02;3;  5.5653443E+00;  0.0000000E+00;  4.0408697E-05;0;  9.3064591E-02;  9.9579111E+03;  0.0000000E+00;  1.3278030E-10;  4.0000000E+04;  0.0000000E+00;  3.9522730E+04;  1.1978743E-01;  0.0000000E+00; -2.6722841E-02;  9.1371613E+02;
  9.1540849E-01;  9.9999998E-03;  1.0050924E-02;7601;  2.7499434E-02;  0.0000000E+00; -3.1479757E-04;  9.9925806E+02;  2.0188569E-01; -6.1469861E+02;3;  5.5419240E+00;  0.0000000E+00; -1.6215648E-01;0;  9.2808947E-02;  9.9565674E+03;  0.0000000E+00; -3.9281283E-04;  4.0000000E+04;  0.0000000E+00;  3.9522621E+04;  1.1943775E-01;  0.0000000E+00; -2.6628803E-02;  9.2731995E+02;
  9.1546863E-01;  9.9999998E-03;  2.0089472E-02;7602;  2.7463501E-02;  0.0000000E+00; -6.3283060E-04;  9.9924994E+02;  2.0191811E-01; -6.2141449E+02;3;  5.4283533E+00;  0.0000000E+00; -3.4119573E-01;0;  9.2057973E-02;  9.9526904E+03;  0.0000000E+00; -2.0535141E-03;  4.0000000E+04;  0.0000000E+00;  3.9522988E+04;  1.1840569E-01;  0.0000000E+00; -2.6347721E-02;  9.5731244E+02;
  9.1555661E-01;  9.9999998E-03;  3.0114774E-02;7603;  2.7407771E-02;  0.0000000E+00; -9.4470935E-04;  9.9923517E+02;  2.0196845E-01; -6.3366107E+02;3;  5.2732120E+00;  0.0000000E+00; -4.9282095E-01;0;  9.0864919E-02;  9.9469609E+03;  0.0000000E+00; -6.2385388E-03;  4.0000000E+04;  0.0000000E+00;  3.9522758E+04;  1.1674745E-01;  0.0000000E+00; -2.5882535E-02;  9.8235754E+02;
  9.1565698E-01;  9.9999998E-03;  4.0136043E-02;7604;  2.7347049E-02;  0.0000000E+00; -1.2524709E-03;  9.9920587E+02;  2.0202400E-01; -6.5790729E+02;3;  5.1032062E+00;  0.0000000E+00; -6.2965149E-01;0;  8.9306682E-02;  9.9399395E+03;  0.0000000E+00; -1.4562885E-02;  4.0000000E+04;  0.0000000E+00;  3.9522523E+04;  1.1454503E-01;  0.0000000E+00; -2.5238348E-02;  9.9367267E+02;
  9.1575402E-01;  9.9999998E-03;  5.0166462E-02;7605;  2.7283581E-02;  0.0000000E+00; -1.5592675E-03;  9.9916803E+02;  2.0207827E-01; -6.8926440E+02;3;  4.8984270E+00;  0.0000000E+00; -7.9516935E-01;0;  8.7472498E-02;  9.9326514E+03;  0.0000000E+00; -2.8642491E-02;  4.0000000E+04;  0.0000000E+00;  3.9522191E+04;  1.1189583E-01;  0.0000000E+00; -2.4423327E-02;  1.0100869E+03;
  9.1583562E-01;  9.9999998E-03;  6.0221031E-02;7606;  2.7203482E-02;  0.0000000E+00; -1.8559875E-03;  9.9913458E+02;  2.0212132E-01; -7.1696735E+02;3;  4.6202660E+00;  0.0000000E+00; -9.3073183E-01;0;  8.5452594E-02;  9.9258223E+03;  0.0000000E+00; -5.0125159E-02;  4.0000000E+04;  0.0000000E+00;  3.9521980E+04;  1.0890400E-01;  0.0000000E+00; -2.3451401E-02;  1.0736902E+03;
  9.3781555E-01;  9.9999998E-03; -1.0076161E-01;7651;  2.7508009E-02;  0.0000000E+00;  3.2376396E-03;  9.9884985E+02;  2.1385376E-01; -9.5286188E+02;3;  3.0985038E+00;  0.0000000E+00;  8.8767296E-01;0;  5.7862196E-02;  8.8550391E+03;  0.0000000E+00; -1.7750713E-01;  4.0000000E+04;  0.0000000E+00;  3.9485281E+04;  7.8459397E-02;  0.0000000E+00; -2.0597201E-02;  2.8974724E+03;
  9.3793917E-01;  9.9999998E-03; -9.0711467E-02;7652;  2.7790895E-02;  0.0000000E+00;  2.9989623E-03;  9.9879980E+02;  2.1394137E-01; -9.9434216E+02;3;  3.6130581E+00;  0.0000000E+00;  8.6787975E-01;0;  6.0018286E-02;  8.8492305E+03;  0.0000000E+00; -9.0231337E-02;  4.0000000E+04;  0.0000000E+00;  3.9483582E+04;  8.2212195E-02;  0.0000000E+00; -2.2193909E-02;  2.6820691E+03;
  9.3796569E-01;  9.9999998E-03; -8.0644757E-02;7653;  2.8049842E-02;  0.0000000E+00;  2.7314909E-03;  9.9875769E+02;  2.1397349E-01; -1.0292053E+03;3;  4.0747190E+00;  0.0000000E+00;  8.3008188E-01;0;  6.2279522E-02;  8.8483330E+03;  0.0000000E+00; -4.0814973E-02;  4.0000000E+04;  0.0000000E+00;  3.9482219E+04;  8.6034924E-02;  0.0000000E+00; -2.3755401E-02;  2.2744536E+03;
  9.3791741E-01;  9.9999998E-03; -7.0559643E-02;7654;  2.8301777E-02;  0.0000000E+00;  2.4367040E-03;  9.9872998E+02;  2.1395503E-01; -1.0521677E+03;3;  4.4883776E+00;  0.0000000E+00;  7.7827436E-01;0;  6.4595267E-02;  8.8510205E+03;  0.0000000E+00; -1.8870873E-02;  4.0000000E+04;  0.0000000E+00;  3.9480898E+04;  8.9835562E-02;  0.0000000E+00; -2.5240296E-02;  1.8004633E+03;
  9.3782181E-01;  9.9999998E-03; -6.0475644E-02;7655;  2.8554752E-02;  0.0000000E+00;  2.1260327E-03;  9.9869928E+02;  2.1390797E-01; -1.0775991E+03;3;  4.9163103E+00;  0.0000000E+00;  7.0642269E-01;0;  6.6884145E-02;  8.8561064E+03;  0.0000000E+00; -1.1992708E-02;  4.0000000E+04;  0.0000000E+00;  3.9480074E+04;  9.3490347E-02;  0.0000000E+00; -2.6606204E-02;  1.3810105E+03;
  9.3769330E-01;  9.9999998E-03; -5.0393339E-02;7656;  2.8821317E-02;  0.0000000E+00;  1.8110734E-03;  9.9866766E+02;  2.1383262E-01; -1.1038206E+03;3;  5.2273231E+00;  0.0000000E+00;  6.1427879E-01;0;  6.9062732E-02;  8.8627061E+03;  0.0000000E+00; -1.0471468E-02;  4.0000000E+04;  0.0000000E+00;  3.9480078E+04;  9.6880093E-02;  0.0000000E+00; -2.7817363E-02;  1.0970002E+03;
  9.3755800E-01;  9.9999998E-03; -4.0316362E-02;7657;  2.9066458E-02;  0.0000000E+00;  1.4751884E-03;  9.9863977E+02;  2.1375206E-01; -1.1269310E+03;3;  5.4985228E+00;  0.0000000E+00;  5.1179051E-01;0;  7.1026951E-02;  8.8694971E+03;  0.0000000E+00; -9.1451453E-03;  4.0000000E+04;  0.0000000E+00;  3.9480516E+04;  9.9874094E-02;  0.0000000E+00; -2.8847139E-02;  9.6455707E+02;
  9.3743891E-01;  9.9999998E-03; -3.0244892E-02;7658;  2.9269788E-02;  0.0000000E+00;  1.1224309E-03;  9.9860724E+02;  2.1367694E-01; -1.1538932E+03;3;  5.7329221E+00;  0.0000000E+00;  3.9878821E-01;0;  7.2675258E-02;  8.8754746E+03;  0.0000000E+00; -6.6286502E-03;  4.0000000E+04;  0.0000000E+00;  3.9480660E+04;  1.0234839E-01;  0.0000000E+00; -2.9673137E-02;  9.3003241E+02;
  9.3734252E-01;  9.9999998E-03; -2.0173311E-02;7659;  2.9432610E-02;  0.0000000E+00;  7.5834192E-04;  9.9857538E+02;  2.1361400E-01; -1.1802628E+03;3;  5.8855743E+00;  0.0000000E+00;  2.6454836E-01;0;  7.3925860E-02;  8.8802793E+03;  0.0000000E+00; -3.5176631E-03;  4.0000000E+04;  0.0000000E+00;  3.9481074E+04;  1.0420232E-01;  0.0000000E+00; -3.0276455E-02;  9.2603058E+02;
  9.3727934E-01;  9.9999998E-03; -1.0092544E-02;7660;  2.9542590E-02;  0.0000000E+00;  3.8463020E-04;  9.9854999E+02;  2.1357404E-01; -1.2012993E+03;3;  5.9714060E+00;  0.0000000E+00;  1.4160462E-01;0;  7.4708208E-02;  8.8833877E+03;  0.0000000E+00; -9.7646966E-04;  4.0000000E+04;  0.0000000E+00;  3.9481344E+04;  1.0535250E-01;  0.0000000E+00; -3.0644292E-02;  9.2203943E+02;
  9.3725687E-01;  9.9999998E-03;  4.0177724E-08;7661;  2.9586280E-02;  0.0000000E+00;  7.5295858E-08;  9.9854150E+02;  2.1355975E-01; -1.2083608E+03;3;  5.9884734E+00;  0.0000000E+00;  3.3082870E-05;0;  7.4974887E-02;  8.8845107E+03;  0.0000000E+00;  1.6934330E-10;  4.0000000E+04;  0.0000000E+00;  3.9481184E+04;  1.0574284E-01;  0.0000000E+00; -3.0767953E-02;  9.1889771E+02;
  9.3727934E-01;  9.9999998E-03;  1.0092624E-02;7662;  2.9542616E-02;  0.0000000E+00; -3.8447787E-04;  9.9854974E+02;  2.1357359E-01; -1.2014968E+03;3;  5.9714160E+00;  0.0000000E+00; -1.4153925E-01;0;  7.4708156E-02;  8.8833877E+03;  0.0000000E+00; -9.7470538E-04;  4.0000000E+04;  0.0000000E+00;  3.9481344E+04;  1.0535248E-01;  0.0000000E+00; -3.0644326E-02;  9.2202429E+02;
  9.3734252E-01;  9.9999998E-03;  2.0173388E-02;7663;  2.9432662E-02;  0.0000000E+00; -7.5818895E-04;  9.9857520E+02;  2.1361414E-01; -1.1804110E+03;3;  5.8855672E+00;  0.0000000E+00; -2.6449367E-01;0;  7.3925957E-02;  8.8802793E+03;  0.0000000E+00; -3.5143837E-03;  4.0000000E+04;  0.0000000E+00;  3.9481070E+04;  1.0420240E-01;  0.0000000E+00; -3.0276442E-02;  9.2603943E+02;
  9.3743891E-01;  9.9999998E-03;  3.0244965E-02;7664;  2.9269857E-02;  0.0000000E+00; -1.1222772E-03;  9.9860724E+02;  2.1367694E-01; -1.1538932E+03;3;  5.7329059E+00;  0.0000000E+00; -3.9873827E-01;0;  7.2675392E-02;  8.8754736E+03;  0.0000000E+00; -6.6251713E-03;  4.0000000E+04;  0.0000000E+00;  3.9480656E+04;  1.0234851E-01;  0.0000000E+00; -2.9673122E-02;  9.3000159E+02;
  9.3755800E-01;  9.9999998E-03;  4.0316436E-02;7665;  2.9066550E-02;  0.0000000E+00; -1.4750337E-03;  9.9863965E+02;  2.1375221E-01; -1.1270298E+03;3;  5.4985137E+00;  0.0000000E+00; -5.1176423E-01;0;  7.1027189E-02;  8.8694971E+03;  0.0000000E+00; -9.1437222E-03;  4.0000000E+04;  0.0000000E+00;  3.9480504E+04;  9.9874333E-02;  0.0000000E+00; -2.8847145E-02;  9.6455359E+02;
  9.3769330E-01;  9.9999998E-03;  5.0393414E-02;7666;  2.8821427E-02;  0.0000000E+00; -1.8109168E-03;  9.9866742E+02;  2.1383323E-01; -1.1040181E+03;3;  5.2273102E+00;  0.0000000E+00; -6.1424065E-01;0;  6.9062948E-02;  8.8627070E+03;  0.0000000E+00; -1.0472257E-02;  4.0000000E+04;  0.0000000E+00;  3.9480086E+04;  9.6880324E-02;  0.0000000E+00; -2.7817378E-02;  1.0970250E+03;
  9.3782181E-01;  9.9999998E-03;  6.0475715E-02;7667;  2.8554879E-02;  0.0000000E+00; -2.1258791E-03;  9.9869940E+02;  2.1390826E-01; -1.0775004E+03;3;  4.9163146E+00;  0.0000000E+00; -7.0640326E-01;0;  6.6884592E-02;  8.8561084E+03;  0.0000000E+00; -1.1994678E-02;  4.0000000E+04;  0.0000000E+00;  3.9480074E+04;  9.3490839E-02;  0.0000000E+00; -2.6606243E-02;  1.3810199E+03;
  9.6009612E-01;  9.9999998E-03; -1.0082500E-01;7712;  2.8077651E-02;  0.0000000E+00;  3.4104292E-03;  9.9893427E+02;  2.2637635E-01; -8.8293793E+02;3;  2.8924139E+00;  0.0000000E+00;  3.3035991E-01;0;  3.8380295E-02;  7.9105039E+03;  0.0000000E+00; -1.8273969E-01;  4.0000000E+04;  0.0000000E+00;  3.9443234E+04;  6.0736183E-02;  0.0000000E+00; -2.2355890E-02;  3.7529558E+03;
  9.6018493E-01;  9.9999998E-03; -9.0753563E-02;7713;  2.8499322E-02;  0.0000000E+00;  3.1623400E-03;  9.9890082E+02;  2.2644012E-01; -9.1064087E+02;3;  3.5051818E+00;  0.0000000E+00;  3.7011200E-01;0;  4.0923432E-02;  7.9062500E+03;  0.0000000E+00; -6.7836471E-02;  4.0000000E+04;  0.0000000E+00;  3.9441508E+04;  6.5153413E-02;  0.0000000E+00; -2.4229981E-02;  3.6444541E+03;
  9.6019173E-01;  9.9999998E-03; -8.0674134E-02;7714;  2.8910289E-02;  0.0000000E+00;  2.8905277E-03;  9.9886670E+02;  2.2645108E-01; -9.3893634E+02;3;  3.9997146E+00;  0.0000000E+00;  3.6488798E-01;0;  4.3457061E-02;  7.9057729E+03;  0.0000000E+00; -3.2457944E-03;  4.0000000E+04;  0.0000000E+00;  3.9439766E+04;  6.9523670E-02;  0.0000000E+00; -2.6066607E-02;  3.2229739E+03;
  9.6014524E-01;  9.9999998E-03; -7.0579603E-02;7715;  2.9325902E-02;  0.0000000E+00;  2.5926745E-03;  9.9883984E+02;  2.2642414E-01; -9.6115796E+02;3;  4.4476509E+00;  0.0000000E+00;  3.7974706E-01;0;  4.5920674E-02;  7.9078618E+03;  0.0000000E+00;  2.0987481E-02;  4.0000000E+04;  0.0000000E+00;  3.9438340E+04;  7.3743127E-02;  0.0000000E+00; -2.7822454E-02;  2.6208862E+03;
  9.6006328E-01;  9.9999998E-03; -6.0478158E-02;7716;  2.9745186E-02;  0.0000000E+00;  2.2740657E-03;  9.9881250E+02;  2.2636850E-01; -9.8382397E+02;3;  4.8546152E+00;  0.0000000E+00;  3.6097836E-01;0;  4.8249491E-02;  7.9117329E+03;  0.0000000E+00;  2.1786889E-02;  4.0000000E+04;  0.0000000E+00;  3.9437855E+04;  7.7699915E-02;  0.0000000E+00; -2.9450424E-02;  1.9959281E+03;
  9.5997339E-01;  9.9999998E-03; -5.0385110E-02;7717;  3.0160949E-02;  0.0000000E+00;  1.9337742E-03;  9.9878711E+02;  2.2630379E-01; -1.0048604E+03;3;  5.2168860E+00;  0.0000000E+00;  3.3656809E-01;0;  5.0363071E-02;  7.9160513E+03;  0.0000000E+00;  1.3995913E-02;  4.0000000E+04;  0.0000000E+00;  3.9438543E+04;  8.1270695E-02;  0.0000000E+00; -3.0907622E-02;  1.4899126E+03;
  9.5989513E-01;  9.9999998E-03; -4.0300220E-02;7718;  3.0557623E-02;  0.0000000E+00;  1.5774755E-03;  9.9876031E+02;  2.2624078E-01; -1.0270326E+03;3;  5.5449133E+00;  0.0000000E+00;  2.9660454E-01;0;  5.2189786E-02;  7.9199326E+03;  0.0000000E+00;  6.3007916E-03;  4.0000000E+04;  0.0000000E+00;  3.9439324E+04;  8.4347405E-02;  0.0000000E+00; -3.2157619E-02;  1.2012686E+03;
  9.5983368E-01;  9.9999998E-03; -3.0222120E-02;7719;  3.0896718E-02;  0.0000000E+00;  1.2004587E-03;  9.9873846E+02;  2.2618656E-01; -1.0451555E+03;3;  5.7702131E+00;  0.0000000E+00;  2.3263410E-01;0;  5.3674702E-02;  7.9231294E+03;  0.0000000E+00;  1.7102225E-03;  4.0000000E+04;  0.0000000E+00;  3.9440355E+04;  8.6842805E-02;  0.0000000E+00; -3.3168104E-02;  1.1299937E+03;
  9.5978719E-01;  9.9999998E-03; -2.0148298E-02;7720;  3.1159684E-02;  0.0000000E+00;  8.1084768E-04;  9.9871460E+02;  2.2614424E-01; -1.0649081E+03;3;  5.9094963E+00;  0.0000000E+00;  1.5443601E-01;0;  5.4772787E-02;  7.9255283E+03;  0.0000000E+00;  4.4638306E-05;  4.0000000E+04;  0.0000000E+00;  3.9441246E+04;  8.8683836E-02;  0.0000000E+00; -3.3911049E-02;  1.1700066E+03;
  9.5975822E-01;  9.9999998E-03; -1.0075137E-02;7721;  3.1341307E-02;  0.0000000E+00;  4.0957387E-04;  9.9869543E+02;  2.2611763E-01; -1.0808088E+03;3;  5.9930859E+00;  0.0000000E+00;  9.3904495E-02;0;  5.5443779E-02;  7.9270327E+03;  0.0000000E+00; -1.0320494E-04;  4.0000000E+04;  0.0000000E+00;  3.9441871E+04;  8.9809626E-02;  0.0000000E+00; -3.4365848E-02;  1.2216210E+03;
  9.5974821E-01;  9.9999998E-03;  4.0919115E-08;7722;  3.1416878E-02;  0.0000000E+00;  6.8009768E-08;  9.9868756E+02;  2.2610785E-01; -1.0873271E+03;3;  6.0044999E+00;  0.0000000E+00;  3.0453286E-05;0;  5.5666775E-02;  7.9275493E+03;  0.0000000E+00;  1.1445437E-11;  4.0000000E+04;  0.0000000E+00;  3.9441766E+04;  9.0185747E-02;  0.0000000E+00; -3.4518972E-02;  1.2418883E+03;
  9.5975822E-01;  9.9999998E-03;  1.0075220E-02;7723;  3.1341314E-02;  0.0000000E+00; -4.0943650E-04;  9.9869537E+02;  2.2611780E-01; -1.0808583E+03;3;  5.9930997E+00;  0.0000000E+00; -9.3849465E-02;0;  5.5443767E-02;  7.9270342E+03;  0.0000000E+00; -1.0676862E-04;  4.0000000E+04;  0.0000000E+00;  3.9441867E+04;  8.9809641E-02;  0.0000000E+00; -3.4365874E-02;  1.2216299E+03;
  9.5978719E-01;  9.9999998E-03;  2.0148380E-02;7724;  3.1159652E-02;  0.0000000E+00; -8.1070745E-04;  9.9871478E+02;  2.2614533E-01; -1.0647599E+03;3;  5.9095116E+00;  0.0000000E+00; -1.5437503E-01;0;  5.4772828E-02;  7.9255254E+03;  0.0000000E+00;  3.6728601E-05;  4.0000000E+04;  0.0000000E+00;  3.9441246E+04;  8.8683881E-02;  0.0000000E+00; -3.3911053E-02;  1.1700144E+03;
  9.5983368E-01;  9.9999998E-03;  3.0222198E-02;7725;  3.0896729E-02;  0.0000000E+00; -1.2003189E-03;  9.9873840E+02;  2.2618659E-01; -1.0452050E+03;3;  5.7702317E+00;  0.0000000E+00; -2.3259045E-01;0;  5.3674668E-02;  7.9231274E+03;  0.0000000E+00;  1.6970428E-03;  4.0000000E+04;  0.0000000E+00;  3.9440363E+04;  8.6842805E-02;  0.0000000E+00; -3.3168137E-02;  1.1299492E+03;
  9.5989513E-01;  9.9999998E-03;  4.0300295E-02;7726;  3.0557634E-02;  0.0000000E+00; -1.5773324E-03;  9.9876038E+02;  2.2624016E-01; -1.0269833E+03;3;  5.5449424E+00;  0.0000000E+00; -2.9655594E-01;0;  5.2189805E-02;  7.9199360E+03;  0.0000000E+00;  6.2810420E-03;  4.0000000E+04;  0.0000000E+00;  3.9439324E+04;  8.4347472E-02;  0.0000000E+00; -3.2157667E-02;  1.2012125E+03;
  9.5997334E-01;  9.9999998E-03;  5.0385185E-02;7727;  3.0160999E-02;  0.0000000E+00; -1.9336307E-03;  9.9878699E+02;  2.2630385E-01; -1.0049592E+03;3;  5.2169185E+00;  0.0000000E+00; -3.3652470E-01;0;  5.0363164E-02;  7.9160552E+03;  0.0000000E+00;  1.3971672E-02;  4.0000000E+04;  0.0000000E+00;  3.9438547E+04;  8.1270829E-02;  0.0000000E+00; -3.0907664E-02;  1.4898617E+03;
  9.6006328E-01;  9.9999998E-03;  6.0478229E-02;7728;  2.9745260E-02;  0.0000000E+00; -2.2739212E-03;  9.9881232E+02;  2.2636801E-01; -9.8397211E+02;3;  4.8546405E+00;  0.0000000E+00; -3.6093962E-01;0;  4.8249647E-02;  7.9117363E+03;  0.0000000E+00;  2.1756671E-02;  4.0000000E+04;  0.0000000E+00;  3.9437855E+04;  7.7700168E-02;  0.0000000E+00; -2.9450519E-02;  1.9958755E+03;
  9.8279494E-01;  9.9999998E-03; -1.0074631E-01;7773;  2.8585128E-02;  0.0000000E+00;  3.4580457E-03;  9.9895477E+02;  2.3968737E-01; -8.6595074E+02;3;  2.5224843E+00;  0.0000000E+00; -2.6026130E-01;0;  2.4113931E-02;  7.0642456E+03;  0.0000000E+00; -3.7041011E-01;  4.0000000E+04;  0.0000000E+00;  3.9401066E+04;  4.7815803E-02;  0.0000000E+00; -2.3701873E-02;  3.8347734E+03;
  9.8316312E-01;  9.9999998E-03; -9.0668723E-02;7774;  2.9161682E-02;  0.0000000E+00;  3.2010286E-03;  9.9895837E+02;  2.3991559E-01; -8.6298785E+02;3;  3.0367358E+00;  0.0000000E+00; -1.9756405E-01;0;  2.6903685E-02;  7.0501240E+03;  0.0000000E+00; -2.4031305E-01;  4.0000000E+04;  0.0000000E+00;  3.9398875E+04;  5.2810881E-02;  0.0000000E+00; -2.5907196E-02;  3.8539321E+03;
  9.8345214E-01;  9.9999998E-03; -8.0590256E-02;7775;  2.9762885E-02;  0.0000000E+00;  2.9226462E-03;  9.9897516E+02;  2.4009280E-01; -8.4906232E+02;3;  3.4764934E+00;  0.0000000E+00; -1.0481257E-01;0;  2.9524717E-02;  7.0395078E+03;  0.0000000E+00; -1.5039849E-01;  4.0000000E+04;  0.0000000E+00;  3.9397145E+04;  5.7612021E-02;  0.0000000E+00; -2.8087303E-02;  3.5434209E+03;
  9.8365253E-01;  9.9999998E-03; -7.0506528E-02;7776;  3.0366609E-02;  0.0000000E+00;  2.6182884E-03;  9.9900305E+02;  2.4020717E-01; -8.2595190E+02;3;  3.9318373E+00;  0.0000000E+00; -4.0593058E-02;0;  3.1935118E-02;  7.0325967E+03;  0.0000000E+00; -9.6189626E-02;  4.0000000E+04;  0.0000000E+00;  3.9395875E+04;  6.2121317E-02;  0.0000000E+00; -3.0186201E-02;  3.0083711E+03;
  9.8378867E-01;  9.9999998E-03; -6.0414381E-02;7777;  3.0966647E-02;  0.0000000E+00;  2.2958757E-03;  9.9904242E+02;  2.4027984E-01; -7.9336023E+02;3;  4.3392520E+00;  0.0000000E+00; -7.3281196E-03;0;  3.4084622E-02;  7.0283193E+03;  0.0000000E+00; -6.5008692E-02;  4.0000000E+04;  0.0000000E+00;  3.9395055E+04;  6.6232756E-02;  0.0000000E+00; -3.2148134E-02;  2.4041770E+03;
  9.8388445E-01;  9.9999998E-03; -5.0329596E-02;7778;  3.1556457E-02;  0.0000000E+00;  1.9570880E-03;  9.9908362E+02;  2.4032235E-01; -7.5918835E+02;3;  4.6084051E+00;  0.0000000E+00;  4.0994663E-02;0;  3.5926245E-02;  7.0257871E+03;  0.0000000E+00; -4.5105774E-02;  4.0000000E+04;  0.0000000E+00;  3.9395871E+04;  6.9842182E-02;  0.0000000E+00; -3.3915937E-02;  1.8912628E+03;
  9.8396856E-01;  9.9999998E-03; -4.0260617E-02;7779;  3.2107562E-02;  0.0000000E+00;  1.5961244E-03;  9.9912671E+02;  2.4035589E-01; -7.2348566E+02;3;  4.9182043E+00;  0.0000000E+00;  8.2178906E-02;0;  3.7429556E-02;  7.0237646E+03;  0.0000000E+00; -2.9793682E-02;  4.0000000E+04;  0.0000000E+00;  3.9396988E+04;  7.2869726E-02;  0.0000000E+00; -3.5440169E-02;  1.5975300E+03;
  9.8404801E-01;  9.9999998E-03; -3.0200792E-02;7780;  3.2591462E-02;  0.0000000E+00;  1.2192786E-03;  9.9916968E+02;  2.4038753E-01; -6.8788171E+02;3;  5.1505337E+00;  0.0000000E+00;  5.0050043E-02;0;  3.8583897E-02;  7.0219111E+03;  0.0000000E+00; -1.7237935E-02;  4.0000000E+04;  0.0000000E+00;  3.9398273E+04;  7.5262710E-02;  0.0000000E+00; -3.6678813E-02;  1.5486547E+03;
  9.8411381E-01;  9.9999998E-03; -2.0137195E-02;7781;  3.2966312E-02;  0.0000000E+00;  8.2609203E-04;  9.9920587E+02;  2.4041288E-01; -6.5790729E+02;3;  5.2052827E+00;  0.0000000E+00;  3.2164909E-02;0;  3.9396681E-02;  7.0204331E+03;  0.0000000E+00; -7.7667269E-03;  4.0000000E+04;  0.0000000E+00;  3.9399723E+04;  7.6991417E-02;  0.0000000E+00; -3.7594736E-02;  1.6386799E+03;
  9.8416102E-01;  9.9999998E-03; -1.0069572E-02;7782;  3.3217814E-02;  0.0000000E+00;  4.2163901E-04;  9.9922705E+02;  2.4043177E-01; -6.4037689E+02;3;  5.2903104E+00;  0.0000000E+00;  3.8069896E-02;0;  3.9872698E-02;  7.0192896E+03;  0.0000000E+00; -1.9360258E-03;  4.0000000E+04;  0.0000000E+00;  3.9400781E+04;  7.8030780E-02;  0.0000000E+00; -3.8158081E-02;  1.7388352E+03;
  9.8417789E-01;  9.9999998E-03;  3.9037815E-08;7783;  3.3310182E-02;  0.0000000E+00;  7.6315310E-08;  9.9923541E+02;  2.4043748E-01; -6.3346350E+02;3;  5.2084923E+00;  0.0000000E+00;  2.1706383E-05;0;  4.0026434E-02;  7.0188926E+03;  0.0000000E+00; -2.7448510E-10;  4.0000000E+04;  0.0000000E+00;  3.9400871E+04;  7.8374669E-02;  0.0000000E+00; -3.8348235E-02;  1.7787238E+03;
  9.8416096E-01;  9.9999998E-03;  1.0069652E-02;7784;  3.3217736E-02;  0.0000000E+00; -4.2148284E-04;  9.9922729E+02;  2.4043140E-01; -6.4017938E+02;3;  5.2903752E+00;  0.0000000E+00; -3.8009938E-02;0;  3.9872680E-02;  7.0192896E+03;  0.0000000E+00; -1.9461290E-03;  4.0000000E+04;  0.0000000E+00;  3.9400777E+04;  7.8030787E-02;  0.0000000E+00; -3.8158108E-02;  1.7388431E+03;
  9.8411381E-01;  9.9999998E-03;  2.0137275E-02;7785;  3.2966278E-02;  0.0000000E+00; -8.2593650E-04;  9.9920587E+02;  2.4041229E-01; -6.5790729E+02;3;  5.2053547E+00;  0.0000000E+00; -3.2097146E-02;0;  3.9396647E-02;  7.0204346E+03;  0.0000000E+00; -7.7871671E-03;  4.0000000E+04;  0.0000000E+00;  3.9399715E+04;  7.6991417E-02;  0.0000000E+00; -3.7594769E-02;  1.6386791E+03;
  9.8404795E-01;  9.9999998E-03;  3.0200871E-02;7786;  3.2591417E-02;  0.0000000E+00; -1.2191205E-03;  9.9916962E+02;  2.4038756E-01; -6.8798047E+02;3;  5.1506228E+00;  0.0000000E+00; -5.0001506E-02;0;  3.8583897E-02;  7.0219092E+03;  0.0000000E+00; -1.7268701E-02;  4.0000000E+04;  0.0000000E+00;  3.9398273E+04;  7.5262792E-02;  0.0000000E+00; -3.6678895E-02;  1.5486283E+03;
  9.8396856E-01;  9.9999998E-03;  4.0260695E-02;7787;  3.2107562E-02;  0.0000000E+00; -1.5959711E-03;  9.9912634E+02;  2.4035542E-01; -7.2383130E+02;3;  4.9182305E+00;  0.0000000E+00; -8.2133457E-02;0;  3.7429504E-02;  7.0237671E+03;  0.0000000E+00; -2.9835664E-02;  4.0000000E+04;  0.0000000E+00;  3.9396996E+04;  7.2869755E-02;  0.0000000E+00; -3.5440251E-02;  1.5974443E+03;
  9.8388439E-01;  9.9999998E-03;  5.0329667E-02;7788;  3.1556420E-02;  0.0000000E+00; -1.9569253E-03;  9.9908362E+02;  2.4032296E-01; -7.5918835E+02;3;  4.6084929E+00;  0.0000000E+00; -4.0945794E-02;0;  3.5926208E-02;  7.0257856E+03;  0.0000000E+00; -4.5160431E-02;  4.0000000E+04;  0.0000000E+00;  3.9395863E+04;  6.9842264E-02;  0.0000000E+00; -3.3916056E-02;  1.8911791E+03;
  9.8378861E-01;  9.9999998E-03;  6.0414456E-02;7789;  3.0966623E-02;  0.0000000E+00; -2.2957118E-03;  9.9904248E+02;  2.4027985E-01; -7.9331085E+02;3;  4.3393393E+00;  0.0000000E+00;  7.3396051E-03;0;  3.4084577E-02;  7.0283145E+03;  0.0000000E+00; -6.5072879E-02;  4.0000000E+04;  0.0000000E+00;  3.9395043E+04;  6.6232875E-02;  0.0000000E+00; -3.2148298E-02;  2.4040674E+03;
  1.0076655E+00;  9.9999998E-03; -1.0068273E-01;7834;  2.9385120E-02;  0.0000000E+00;  3.5896373E-03;  9.9878644E+02;  2.5490135E-01; -1.0054036E+03;3;  1.5719523E+00;  0.0000000E+00; -8.6190766E-01;0;  1.5547933E-02;  6.2530400E+03;  0.0000000E+00; -6.1863726E-01;  4.0000000E+04;  0.0000000E+00;  3.9356320E+04;  4.0174283E-02;  0.0000000E+00; -2.4626350E-02;  2.8854902E+03;
  1.0081270E+00;  9.9999998E-03; -9.0615928E-02;7835;  3.0168857E-02;  0.0000000E+00;  3.3275448E-03;  9.9880188E+02;  2.5518996E-01; -9.9261383E+02;3;  1.9017090E+00;  0.0000000E+00; -7.3266304E-01;0;  1.8538717E-02;  6.2373579E+03;  0.0000000E+00; -5.1768488E-01;  4.0000000E+04;  0.0000000E+00;  3.9354746E+04;  4.5792740E-02;  0.0000000E+00; -2.7254023E-02;  2.7268271E+03;
  1.0084186E+00;  9.9999998E-03; -8.0543227E-02;7836;  3.0964166E-02;  0.0000000E+00;  3.0390192E-03;  9.9882898E+02;  2.5536448E-01; -9.7014532E+02;3;  2.3021679E+00;  0.0000000E+00; -5.8619845E-01;0;  2.1207409E-02;  6.2275889E+03;  0.0000000E+00; -4.2341155E-01;  4.0000000E+04;  0.0000000E+00;  3.9352855E+04;  5.1083069E-02;  0.0000000E+00; -2.9875660E-02;  2.4325830E+03;
  1.0086291E+00;  9.9999998E-03; -7.0470691E-02;7837;  3.1750742E-02;  0.0000000E+00;  2.7276403E-03;  9.9886334E+02;  2.5548649E-01; -9.4170166E+02;3;  2.6695316E+00;  0.0000000E+00; -4.4885650E-01;0;  2.3499757E-02;  6.2207920E+03;  0.0000000E+00; -3.3747667E-01;  4.0000000E+04;  0.0000000E+00;  3.9351855E+04;  5.5921320E-02;  0.0000000E+00; -3.2421563E-02;  2.0901682E+03;
  1.0088892E+00;  9.9999998E-03; -1.0073223E-02;7843;  3.5030998E-02;  0.0000000E+00;  4.3915145E-04;  9.9902045E+02;  2.5559199E-01; -8.1153253E+02;3;  3.6586697E+00;  0.0000000E+00; -4.9513705E-02;0;  2.9967155E-02;  6.2136104E+03;  0.0000000E+00; -7.5518982E-03;  4.0000000E+04;  0.0000000E+00;  3.9358477E+04;  7.2142996E-02;  0.0000000E+00; -4.2175841E-02;  2.2469045E+03;
  1.0089024E+00;  9.9999998E-03;  3.8399588E-08;7844;  3.5119269E-02;  0.0000000E+00;  9.4905566E-08;  9.9902618E+02;  2.5559810E-01; -8.0679193E+02;3;  3.6135945E+00;  0.0000000E+00;  1.2781182E-05;0;  3.0075263E-02;  6.2132534E+03;  0.0000000E+00; -5.4435501E-10;  4.0000000E+04;  0.0000000E+00;  3.9358934E+04;  7.2484545E-02;  0.0000000E+00; -4.2409282E-02;  2.2978879E+03;
  1.0088892E+00;  9.9999998E-03;  1.0073300E-02;7845;  3.5030950E-02;  0.0000000E+00; -4.3896164E-04;  9.9902063E+02;  2.5559205E-01; -8.1138440E+02;3;  3.6587300E+00;  0.0000000E+00;  4.9541116E-02;0;  2.9967219E-02;  6.2136113E+03;  0.0000000E+00; -7.5626438E-03;  4.0000000E+04;  0.0000000E+00;  3.9358480E+04;  7.2143055E-02;  0.0000000E+00; -4.2175837E-02;  2.2468894E+03;
  1.0088574E+00;  9.9999998E-03; -2.0140905E-02;7842;  3.4768522E-02;  0.0000000E+00;  8.6152903E-04;  9.9900574E+02;  2.5557488E-01; -8.2372974E+02;3;  3.6743417E+00;  0.0000000E+00; -7.1128853E-02;0;  2.9633500E-02;  6.2144766E+03;  0.0000000E+00; -3.0301955E-02;  4.0000000E+04;  0.0000000E+00;  3.9357359E+04;  7.1117945E-02;  0.0000000E+00; -4.1484445E-02;  2.1066531E+03;
  1.0088574E+00;  9.9999998E-03;  2.0140985E-02;7846;  3.4768485E-02;  0.0000000E+00; -8.6133817E-04;  9.9900574E+02;  2.5557584E-01; -8.2372974E+02;3;  3.6744227E+00;  0.0000000E+00;  7.1177319E-02;0;  2.9633582E-02;  6.2144785E+03;  0.0000000E+00; -3.0323699E-02;  4.0000000E+04;  0.0000000E+00;  3.9357363E+04;  7.1118116E-02;  0.0000000E+00; -4.1484535E-02;  2.1066108E+03;
  1.0088252E+00;  9.9999998E-03; -3.0202327E-02;7841;  3.4369320E-02;  0.0000000E+00;  1.2701402E-03;  9.9898492E+02;  2.5556359E-01; -8.4096381E+02;3;  3.6114914E+00;  0.0000000E+00; -1.0576307E-01;0;  2.9042941E-02;  6.2153027E+03;  0.0000000E+00; -6.8184800E-02;  4.0000000E+04;  0.0000000E+00;  3.9355820E+04;  6.9404237E-02;  0.0000000E+00; -4.0361296E-02;  1.9168390E+03;
  1.0088251E+00;  9.9999998E-03;  3.0202406E-02;7847;  3.4369290E-02;  0.0000000E+00; -1.2699472E-03;  9.9898486E+02;  2.5556409E-01; -8.4101318E+02;3;  3.6116371E+00;  0.0000000E+00;  1.0582271E-01;0;  2.9043034E-02;  6.2153042E+03;  0.0000000E+00; -6.8218470E-02;  4.0000000E+04;  0.0000000E+00;  3.9355812E+04;  6.9404401E-02;  0.0000000E+00; -4.0361367E-02;  1.9168174E+03;
  1.0088155E+00;  9.9999998E-03; -4.0267967E-02;7840;  3.3835437E-02;  0.0000000E+00;  1.6646729E-03;  9.9895898E+02;  2.5556859E-01; -8.6244470E+02;3;  3.4806523E+00;  0.0000000E+00; -1.2198035E-01;0;  2.8161883E-02;  6.2153936E+03;  0.0000000E+00; -1.2035641E-01;  4.0000000E+04;  0.0000000E+00;  3.9354039E+04;  6.7005865E-02;  0.0000000E+00; -3.8843982E-02;  1.7459202E+03;
  1.0088155E+00;  9.9999998E-03;  4.0268045E-02;7848;  3.3835411E-02;  0.0000000E+00; -1.6644846E-03;  9.9895880E+02;  2.5556898E-01; -8.6259283E+02;3;  3.4807787E+00;  0.0000000E+00;  1.2200154E-01;0;  2.8162032E-02;  6.2153931E+03;  0.0000000E+00; -1.2040106E-01;  4.0000000E+04;  0.0000000E+00;  3.9354039E+04;  6.7006141E-02;  0.0000000E+00; -3.8844109E-02;  1.7458503E+03;
  1.0087935E+00;  9.9999998E-03; -6.0405251E-02;7838;  3.2508615E-02;  0.0000000E+00;  2.3922736E-03;  9.9890466E+02;  2.5557840E-01; -9.0748047E+02;3;  3.0265751E+00;  0.0000000E+00; -3.3813873E-01;0;  2.5401123E-02;  6.2156743E+03;  0.0000000E+00; -2.5806090E-01;  4.0000000E+04;  0.0000000E+00;  3.9351535E+04;  6.0217861E-02;  0.0000000E+00; -3.4816738E-02;  1.8092799E+03;
  1.0087934E+00;  9.9999998E-03;  6.0405340E-02;7850;  3.2508526E-02;  0.0000000E+00; -2.3920659E-03;  9.9890540E+02;  2.5557950E-01; -9.0683850E+02;3;  3.0267925E+00;  0.0000000E+00;  3.3816093E-01;0;  2.5401253E-02;  6.2156763E+03;  0.0000000E+00; -2.5812289E-01;  4.0000000E+04;  0.0000000E+00;  3.9351531E+04;  6.0218193E-02;  0.0000000E+00; -3.4816939E-02;  1.8092074E+03;
  1.0088246E+00;  9.9999998E-03; -5.0339103E-02;7839;  3.3209357E-02;  0.0000000E+00;  2.0387950E-03;  9.9893530E+02;  2.5558695E-01; -8.8209845E+02;3;  3.2574461E+00;  0.0000000E+00; -2.4120294E-01;0;  2.6952930E-02;  6.2148838E+03;  0.0000000E+00; -1.8471988E-01;  4.0000000E+04;  0.0000000E+00;  3.9352492E+04;  6.3931048E-02;  0.0000000E+00; -3.6978118E-02;  1.6871364E+03;
  1.0088245E+00;  9.9999998E-03;  5.0339185E-02;7849;  3.3209283E-02;  0.0000000E+00; -2.0385964E-03;  9.9893561E+02;  2.5558656E-01; -8.8185156E+02;3;  3.2576160E+00;  0.0000000E+00;  2.4125920E-01;0;  2.6953101E-02;  6.2148833E+03;  0.0000000E+00; -1.8477380E-01;  4.0000000E+04;  0.0000000E+00;  3.9352492E+04;  6.3931376E-02;  0.0000000E+00; -3.6978275E-02;  1.6870415E+03;
  1.0334260E+00;  9.9999998E-03;  4.2361787E-08;7905;  3.6822528E-02;  0.0000000E+00;  9.7067897E-08;  9.9854260E+02;  2.7118197E-01; -1.2074226E+03;3;  1.5934776E+00;  0.0000000E+00;  1.8686318E-05;0;  2.1678485E-02;  5.5231392E+03;  0.0000000E+00; -6.1000993E-10;  4.0000000E+04;  0.0000000E+00;  3.9317688E+04;  6.8444654E-02;  0.0000000E+00; -4.6766169E-02;  2.8255127E+03;
  1.0334449E+00;  9.9999998E-03; -1.0065785E-02;7904;  3.6738969E-02;  0.0000000E+00;  5.0883932E-04;  9.9855634E+02;  2.7119082E-01; -1.1960648E+03;3;  1.5786214E+00;  0.0000000E+00; -1.0678048E-01;0;  2.1597378E-02;  5.5228691E+03;  0.0000000E+00; -7.0532635E-03;  4.0000000E+04;  0.0000000E+00;  3.9317121E+04;  6.8081878E-02;  0.0000000E+00; -4.6484500E-02;  2.7716501E+03;
  1.0334449E+00;  9.9999998E-03;  1.0065868E-02;7906;  3.6739010E-02;  0.0000000E+00; -5.0865015E-04;  9.9855646E+02;  2.7119184E-01; -1.1959661E+03;3;  1.5786101E+00;  0.0000000E+00;  1.0680603E-01;0;  2.1597475E-02;  5.5228662E+03;  0.0000000E+00; -7.0547694E-03;  4.0000000E+04;  0.0000000E+00;  3.9317113E+04;  6.8082027E-02;  0.0000000E+00; -4.6484552E-02;  2.7716204E+03;
  1.0335042E+00;  9.9999998E-03; -2.0129427E-02;7903;  3.6533292E-02;  0.0000000E+00;  1.0092389E-03;  9.9858954E+02;  2.7123022E-01; -1.1685594E+03;3;  1.5289984E+00;  0.0000000E+00; -2.4917410E-01;0;  2.1348439E-02;  5.5219634E+03;  0.0000000E+00; -2.8280936E-02;  4.0000000E+04;  0.0000000E+00;  3.9316148E+04;  6.6997126E-02;  0.0000000E+00; -4.5648687E-02;  2.6201973E+03;
  1.0335044E+00;  9.9999998E-03;  2.0129507E-02;7907;  3.6533352E-02;  0.0000000E+00; -1.0090530E-03;  9.9858954E+02;  2.7123022E-01; -1.1685594E+03;3;  1.5290059E+00;  0.0000000E+00;  2.4921222E-01;0;  2.1348618E-02;  5.5219580E+03;  0.0000000E+00; -2.8284574E-02;  4.0000000E+04;  0.0000000E+00;  3.9316148E+04;  6.6997401E-02;  0.0000000E+00; -4.5648783E-02;  2.6201074E+03;
  1.0336092E+00;  9.9999998E-03; -3.0195983E-02;7902;  3.6204636E-02;  0.0000000E+00;  1.5008138E-03;  9.9863647E+02;  2.7129573E-01; -1.1296470E+03;3;  1.4799217E+00;  0.0000000E+00; -3.7023029E-01;0;  2.0906705E-02;  5.5201304E+03;  0.0000000E+00; -6.3697048E-02;  4.0000000E+04;  0.0000000E+00;  3.9313887E+04;  6.5191418E-02;  0.0000000E+00; -4.4284713E-02;  2.4002449E+03;
  1.0336093E+00;  9.9999998E-03;  3.0196063E-02;7908;  3.6204707E-02;  0.0000000E+00; -1.5006319E-03;  9.9863660E+02;  2.7129602E-01; -1.1295482E+03;3;  1.4798911E+00;  0.0000000E+00;  3.7027434E-01;0;  2.0906921E-02;  5.5201270E+03;  0.0000000E+00; -6.3703142E-02;  4.0000000E+04;  0.0000000E+00;  3.9313887E+04;  6.5191753E-02;  0.0000000E+00; -4.4284832E-02;  2.4001953E+03;
  1.0337675E+00;  9.9999998E-03; -4.0272839E-02;7901;  3.5760194E-02;  0.0000000E+00;  1.9769748E-03;  9.9869989E+02;  2.7140015E-01; -1.0771052E+03;3;  1.2221781E+00;  0.0000000E+00; -4.7895336E-01;0;  2.0234820E-02;  5.5170015E+03;  0.0000000E+00; -1.1282606E-01;  4.0000000E+04;  0.0000000E+00;  3.9311770E+04;  6.2668025E-02;  0.0000000E+00; -4.2433206E-02;  2.1596108E+03;
  1.0337675E+00;  9.9999998E-03;  4.0272925E-02;7909;  3.5760269E-02;  0.0000000E+00; -1.9767941E-03;  9.9870020E+02;  2.7140051E-01; -1.0768584E+03;3;  1.2222120E+00;  0.0000000E+00;  4.7899297E-01;0;  2.0235103E-02;  5.5170000E+03;  0.0000000E+00; -1.1283354E-01;  4.0000000E+04;  0.0000000E+00;  3.9311766E+04;  6.2668532E-02;  0.0000000E+00; -4.2433430E-02;  2.1595955E+03;
  1.0339782E+00;  9.9999998E-03; -5.0351843E-02;7900;  3.5214670E-02;  0.0000000E+00;  2.4364723E-03;  9.9875476E+02;  2.7154389E-01; -1.0316744E+03;3;  8.7824643E-01;  0.0000000E+00; -6.6902828E-01;0;  1.9287366E-02;  5.5124546E+03;  0.0000000E+00; -1.7417066E-01;  4.0000000E+04;  0.0000000E+00;  3.9309977E+04;  5.9441015E-02;  0.0000000E+00; -4.0153649E-02;  1.9600756E+03;
  1.0339782E+00;  9.9999998E-03;  5.0351933E-02;7910;  3.5214737E-02;  0.0000000E+00; -2.4362954E-03;  9.9875482E+02;  2.7154461E-01; -1.0316251E+03;3;  8.7828177E-01;  0.0000000E+00;  6.6902357E-01;0;  1.9287728E-02;  5.5124575E+03;  0.0000000E+00; -1.7418307E-01;  4.0000000E+04;  0.0000000E+00;  3.9309965E+04;  5.9441607E-02;  0.0000000E+00; -4.0153880E-02;  1.9599895E+03;
  1.0342323E+00;  9.9999998E-03; -6.0424406E-02;7899;  3.4555409E-02;  0.0000000E+00;  2.8643098E-03;  9.9880060E+02;  2.7171794E-01; -9.9370013E+02;3;  5.1908267E-01;  0.0000000E+00; -8.8208443E-01;0;  1.8018976E-02;  5.5065713E+03;  0.0000000E+00; -2.4489546E-01;  4.0000000E+04;  0.0000000E+00;  3.9308777E+04;  5.5536572E-02;  0.0000000E+00; -3.7517596E-02;  1.8521854E+03;
  1.0342323E+00;  9.9999998E-03;  6.0424495E-02;7911;  3.4555472E-02;  0.0000000E+00; -2.8641352E-03;  9.9880060E+02;  2.7171925E-01; -9.9370013E+02;3;  5.1916987E-01;  0.0000000E+00;  8.8210583E-01;0;  1.8019315E-02;  5.5065679E+03;  0.0000000E+00; -2.4490865E-01;  4.0000000E+04;  0.0000000E+00;  3.9308777E+04;  5.5537205E-02;  0.0000000E+00; -3.7517890E-02;  1.8521641E+03;
  1.0342551E+00;  9.9999998E-03; -1.0071175E-01;7895;  3.0981308E-02;  0.0000000E+00;  4.1844170E-03;  9.9874036E+02;  2.7178705E-01; -1.0435753E+03;3; -7.3703033E-01;  0.0000000E+00; -1.7781861E+00;0;  9.3123186E-03;  5.5094019E+03;  0.0000000E+00; -5.5444592E-01;  4.0000000E+04;  0.0000000E+00;  3.9310320E+04;  3.4444503E-02;  0.0000000E+00; -2.5132185E-02;  2.3098645E+03;
  1.0344813E+00;  9.9999998E-03; -7.0499621E-02;7898;  3.3803347E-02;  0.0000000E+00;  3.2577927E-03;  9.9882623E+02;  2.7189627E-01; -9.7246619E+02;3;  1.9903673E-01;  0.0000000E+00; -1.1466209E+00;0;  1.6395416E-02;  5.5006582E+03;  0.0000000E+00; -3.2139510E-01;  4.0000000E+04;  0.0000000E+00;  3.9308207E+04;  5.0999038E-02;  0.0000000E+00; -3.4603622E-02;  1.8451418E+03;
  1.0345887E+00;  9.9999998E-03; -9.0648003E-02;7896;  3.1989697E-02;  0.0000000E+00;  3.9181039E-03;  9.9878455E+02;  2.7200022E-01; -1.0069837E+03;3; -5.3802282E-01;  0.0000000E+00; -1.5749152E+00;0;  1.2035927E-02;  5.4991597E+03;  0.0000000E+00; -4.7859442E-01;  4.0000000E+04;  0.0000000E+00;  3.9309152E+04;  4.0345602E-02;  0.0000000E+00; -2.8309675E-02;  2.0967549E+03;
  1.0346354E+00;  9.9999998E-03; -8.0575794E-02;7897;  3.2948058E-02;  0.0000000E+00;  3.6098990E-03;  9.9881958E+02;  2.7201694E-01; -9.7794751E+02;3; -2.1034610E-01;  0.0000000E+00; -1.3593875E+00;0;  1.4401685E-02;  5.4971616E+03;  0.0000000E+00; -4.0019080E-01;  4.0000000E+04;  0.0000000E+00;  3.9308262E+04;  4.5902405E-02;  0.0000000E+00; -3.1500719E-02;  1.9306051E+03;
  1.0618421E+00;  9.9999998E-03; -1.0084542E-02;7965;  3.9120380E-02;  0.0000000E+00;  6.3612440E-04;  9.9861877E+02;  2.8998756E-01; -1.1443131E+03;3; -1.7773538E+00;  0.0000000E+00; -2.3698021E-01;0;  7.9184696E-03;  4.8401113E+03;  0.0000000E+00;  2.9166455E-03;  4.0000000E+04;  0.0000000E+00;  3.9268469E+04;  5.9078965E-02;  0.0000000E+00; -5.1160496E-02;  3.1584587E+03;
  1.0618733E+00;  9.9999998E-03;  4.9564321E-08;7966;  3.9217509E-02;  0.0000000E+00;  8.9261299E-08;  9.9859918E+02;  2.9001608E-01; -1.1605596E+03;3; -1.7601454E+00;  0.0000000E+00;  2.2646447E-05;0;  7.9359636E-03;  4.8389121E+03;  0.0000000E+00; -4.6148979E-10;  4.0000000E+04;  0.0000000E+00;  3.9269055E+04;  5.9457880E-02;  0.0000000E+00; -5.1521916E-02;  3.2207415E+03;
  1.0618421E+00;  9.9999998E-03;  1.0084639E-02;7967;  3.9120387E-02;  0.0000000E+00; -6.3594937E-04;  9.9861865E+02;  2.8998539E-01; -1.1444119E+03;3; -1.7773671E+00;  0.0000000E+00;  2.3699480E-01;0;  7.9185702E-03;  4.8401133E+03;  0.0000000E+00;  2.9321969E-03;  4.0000000E+04;  0.0000000E+00;  3.9268465E+04;  5.9079092E-02;  0.0000000E+00; -5.1160522E-02;  3.1584744E+03;
  1.0617850E+00;  9.9999998E-03; -2.0163935E-02;7964;  3.8848497E-02;  0.0000000E+00;  1.2520935E-03;  9.9867157E+02;  2.8992894E-01; -1.1005613E+03;3; -1.6866839E+00;  0.0000000E+00; -4.4903985E-01;0;  7.8380778E-03;  4.8426934E+03;  0.0000000E+00;  1.1392988E-02;  4.0000000E+04;  0.0000000E+00;  3.9267582E+04;  5.7932865E-02;  0.0000000E+00; -5.0094787E-02;  2.9856067E+03;
  1.0617850E+00;  9.9999998E-03;  2.0164030E-02;7968;  3.8848568E-02;  0.0000000E+00; -1.2519221E-03;  9.9867163E+02;  2.8992987E-01; -1.1005120E+03;3; -1.6866688E+00;  0.0000000E+00;  4.4906110E-01;0;  7.8382418E-03;  4.8426943E+03;  0.0000000E+00;  1.1424025E-02;  4.0000000E+04;  0.0000000E+00;  3.9267578E+04;  5.7933155E-02;  0.0000000E+00; -5.0094914E-02;  2.9856187E+03;
  1.0617219E+00;  9.9999998E-03; -3.0236792E-02;7963;  3.8450036E-02;  0.0000000E+00;  1.8594330E-03;  9.9875110E+02;  2.8985733E-01; -1.0346866E+03;3; -1.8294954E+00;  0.0000000E+00; -6.4956862E-01;0;  7.6747052E-03;  4.8460513E+03;  0.0000000E+00;  2.4394033E-02;  4.0000000E+04;  0.0000000E+00;  3.9265496E+04;  5.6042746E-02;  0.0000000E+00; -4.8368040E-02;  2.7417026E+03;
  1.0617219E+00;  9.9999998E-03;  3.0236881E-02;7969;  3.8450103E-02;  0.0000000E+00; -1.8592634E-03;  9.9875098E+02;  2.8985682E-01; -1.0347854E+03;3; -1.8294427E+00;  0.0000000E+00;  6.4959943E-01;0;  7.6749697E-03;  4.8460513E+03;  0.0000000E+00;  2.4437368E-02;  4.0000000E+04;  0.0000000E+00;  3.9265496E+04;  5.6043178E-02;  0.0000000E+00; -4.8368208E-02;  2.7416670E+03;
  1.0616609E+00;  9.9999998E-03; -4.0311076E-02;7962;  3.7917782E-02;  0.0000000E+00;  2.4386081E-03;  9.9884467E+02;  2.8978211E-01; -9.5715796E+02;3; -1.8383090E+00;  0.0000000E+00; -8.6299998E-01;0;  7.3721409E-03;  4.8497642E+03;  0.0000000E+00;  3.9666262E-02;  4.0000000E+04;  0.0000000E+00;  3.9263887E+04;  5.3414620E-02;  0.0000000E+00; -4.6042480E-02;  2.4892759E+03;
  1.0616609E+00;  9.9999998E-03;  4.0311169E-02;7970;  3.7917878E-02;  0.0000000E+00; -2.4384458E-03;  9.9884448E+02;  2.8978229E-01; -9.5730609E+02;3; -1.8382573E+00;  0.0000000E+00;  8.6302787E-01;0;  7.3724687E-03;  4.8497642E+03;  0.0000000E+00;  3.9718710E-02;  4.0000000E+04;  0.0000000E+00;  3.9263891E+04;  5.3415179E-02;  0.0000000E+00; -4.6042711E-02;  2.4892551E+03;
  1.0616254E+00;  9.9999998E-03; -5.0395440E-02;7961;  3.7280492E-02;  0.0000000E+00;  2.9802991E-03;  9.9894324E+02;  2.8972107E-01; -8.7553064E+02;3; -1.9627601E+00;  0.0000000E+00; -1.1233577E+00;0;  6.8753920E-03;  4.8529980E+03;  0.0000000E+00;  5.3293630E-02;  4.0000000E+04;  0.0000000E+00;  3.9262004E+04;  5.0077818E-02;  0.0000000E+00; -4.3202426E-02;  2.3007725E+03;
  1.0616255E+00;  9.9999998E-03;  5.0395537E-02;7971;  3.7280619E-02;  0.0000000E+00; -2.9801428E-03;  9.9894342E+02;  2.8972140E-01; -8.7533313E+02;3; -1.9627445E+00;  0.0000000E+00;  1.1233959E+00;0;  6.8756901E-03;  4.8529995E+03;  0.0000000E+00;  5.3355843E-02;  4.0000000E+04;  0.0000000E+00;  3.9261996E+04;  5.0078433E-02;  0.0000000E+00; -4.3202743E-02;  2.3007485E+03;
  1.0616435E+00;  9.9999998E-03; -6.0481984E-02;7960;  3.6527093E-02;  0.0000000E+00;  3.4752337E-03;  9.9900812E+02;  2.8970692E-01; -8.2175439E+02;3; -2.1031487E+00;  0.0000000E+00; -1.4236448E+00;0;  6.1048381E-03;  4.8547656E+03;  0.0000000E+00;  5.8662992E-02;  4.0000000E+04;  0.0000000E+00;  3.9261094E+04;  4.6059202E-02;  0.0000000E+00; -3.9954364E-02;  2.2353259E+03;
  1.0616436E+00;  9.9999998E-03;  6.0482077E-02;7972;  3.6527209E-02;  0.0000000E+00; -3.4750823E-03;  9.9900793E+02;  2.8970766E-01; -8.2190253E+02;3; -2.1031475E+00;  0.0000000E+00;  1.4236506E+00;0;  6.1052889E-03;  4.8547690E+03;  0.0000000E+00;  5.8733709E-02;  4.0000000E+04;  0.0000000E+00;  3.9261090E+04;  4.6059962E-02;  0.0000000E+00; -3.9954673E-02;  2.2353821E+03;
  1.0618514E+00;  9.9999998E-03; -7.0570789E-02;7959;  3.5677478E-02;  0.0000000E+00;  3.9119660E-03;  9.9905273E+02;  2.8983665E-01; -7.8476782E+02;3; -2.2645028E+00;  0.0000000E+00; -1.6822048E+00;0;  4.9416572E-03;  4.8515874E+03;  0.0000000E+00;  4.7600839E-02;  4.0000000E+04;  0.0000000E+00;  3.9260691E+04;  4.1358486E-02;  0.0000000E+00; -3.6416829E-02;  2.3056580E+03;
  1.0623465E+00;  9.9999998E-03; -8.0662943E-02;7958;  3.4720898E-02;  0.0000000E+00;  4.2927549E-03;  9.9906140E+02;  2.9018649E-01; -7.7760754E+02;3; -2.6862838E+00;  0.0000000E+00; -1.9676847E+00;0;  3.2933131E-03;  4.8411343E+03;  0.0000000E+00;  1.0280385E-02;  4.0000000E+04;  0.0000000E+00;  3.9260609E+04;  3.5998549E-02;  0.0000000E+00; -3.2705236E-02;  2.4751416E+03;
  1.0628371E+00;  9.9999998E-03; -9.0751871E-02;7957;  3.3617891E-02;  0.0000000E+00;  4.5933463E-03;  9.9903961E+02;  2.9054180E-01; -7.9568109E+02;3; -2.9726391E+00;  0.0000000E+00; -2.2558126E+00;0;  1.2838524E-03;  4.8306274E+03;  0.0000000E+00; -6.7492232E-02;  4.0000000E+04;  0.0000000E+00;  3.9261176E+04;  3.0204915E-02;  0.0000000E+00; -2.8921062E-02;  2.6673333E+03;
  1.0634004E+00;  9.9999998E-03; -1.0084572E-01;7956;  3.2408904E-02;  0.0000000E+00;  4.8140241E-03;  9.9900616E+02;  2.9094946E-01; -8.2338397E+02;3; -3.1284754E+00;  0.0000000E+00; -2.5321543E+00;0; -1.1367965E-03;  4.8185205E+03;  0.0000000E+00; -1.8914616E-01;  4.0000000E+04;  0.0000000E+00;  3.9261176E+04;  2.4036936E-02;  0.0000000E+00; -2.5173733E-02;  2.8432539E+03;
  1.0915061E+00;  9.9999998E-03; -1.0110347E-02;8026;  4.1280705E-02;  0.0000000E+00;  7.2145317E-04;  9.9864325E+02;  3.1006506E-01; -1.1240173E+03;3; -5.8540845E+00;  0.0000000E+00; -3.2142025E-01;0; -1.2315709E-02;  4.2412593E+03;  0.0000000E+00;  8.9398799E-03;  4.0000000E+04;  0.0000000E+00;  3.9217820E+04;  4.1669343E-02;  0.0000000E+00; -5.3985052E-02;  3.4208660E+03;
  1.0915000E+00;  9.9999998E-03;  5.5675276E-08;8027;  4.1379564E-02;  0.0000000E+00;  7.9815912E-08;  9.9861853E+02;  3.1006867E-01; -1.1445106E+03;3; -5.8910923E+00;  0.0000000E+00;  1.6965183E-05;0; -1.2324911E-02;  4.2409795E+03;  0.0000000E+00; -2.0581675E-10;  4.0000000E+04;  0.0000000E+00;  3.9218402E+04;  4.2081688E-02;  0.0000000E+00; -5.4406598E-02;  3.4859700E+03;
  1.0915061E+00;  9.9999998E-03;  1.0110455E-02;8028;  4.1280713E-02;  0.0000000E+00; -7.2129356E-04;  9.9864313E+02;  3.1006581E-01; -1.1241655E+03;3; -5.8540845E+00;  0.0000000E+00;  3.2143193E-01;0; -1.2315568E-02;  4.2412588E+03;  0.0000000E+00;  8.9683738E-03;  4.0000000E+04;  0.0000000E+00;  3.9217828E+04;  4.1669529E-02;  0.0000000E+00; -5.3985097E-02;  3.4208892E+03;
  1.0915327E+00;  9.9999998E-03; -2.0213418E-02;8025;  4.1000098E-02;  0.0000000E+00;  1.4292382E-03;  9.9871173E+02;  3.1006694E-01; -1.0673276E+03;3; -5.7369547E+00;  0.0000000E+00; -6.7629766E-01;0; -1.2298081E-02;  4.2419141E+03;  0.0000000E+00;  3.5984267E-02;  4.0000000E+04;  0.0000000E+00;  3.9216258E+04;  4.0441222E-02;  0.0000000E+00; -5.2739304E-02;  3.2419353E+03;
  1.0915327E+00;  9.9999998E-03;  2.0213524E-02;8029;  4.1000139E-02;  0.0000000E+00; -1.4290817E-03;  9.9871167E+02;  3.1006482E-01; -1.0673770E+03;3; -5.7370224E+00;  0.0000000E+00;  6.7632276E-01;0; -1.2298018E-02;  4.2419150E+03;  0.0000000E+00;  3.6040187E-02;  4.0000000E+04;  0.0000000E+00;  3.9216262E+04;  4.0441435E-02;  0.0000000E+00; -5.2739453E-02;  3.2419255E+03;
  1.0915835E+00;  9.9999998E-03; -3.0311169E-02;8024;  4.0558163E-02;  0.0000000E+00;  2.1172618E-03;  9.9880957E+02;  3.1007546E-01; -9.8624347E+02;3; -5.3603745E+00;  0.0000000E+00; -9.0358257E-01;0; -1.2295429E-02;  4.2426777E+03;  0.0000000E+00;  8.1268549E-02;  4.0000000E+04;  0.0000000E+00;  3.9213930E+04;  3.8426358E-02;  0.0000000E+00; -5.0721787E-02;  3.0040317E+03;
  1.0915835E+00;  9.9999998E-03;  3.0311270E-02;8030;  4.0558226E-02;  0.0000000E+00; -2.1171065E-03;  9.9880951E+02;  3.1007534E-01; -9.8629285E+02;3; -5.3604522E+00;  0.0000000E+00;  9.0361029E-01;0; -1.2295313E-02;  4.2426807E+03;  0.0000000E+00;  8.1349999E-02;  4.0000000E+04;  0.0000000E+00;  3.9213930E+04;  3.8426653E-02;  0.0000000E+00; -5.0721966E-02;  3.0040403E+03;
  1.0916507E+00;  9.9999998E-03; -4.0413946E-02;8023;  3.9938405E-02;  0.0000000E+00;  2.7784121E-03;  9.9892841E+02;  3.1008950E-01; -8.8777716E+02;3; -5.3432794E+00;  0.0000000E+00; -1.1548951E+00;0; -1.2350842E-02;  4.2434487E+03;  0.0000000E+00;  1.4306580E-01;  4.0000000E+04;  0.0000000E+00;  3.9211766E+04;  3.5663303E-02;  0.0000000E+00; -4.8014145E-02;  2.8122424E+03;
  1.0916507E+00;  9.9999998E-03;  4.0414043E-02;8031;  3.9938472E-02;  0.0000000E+00; -2.7782624E-03;  9.9892816E+02;  3.1008875E-01; -8.8797467E+02;3; -5.3433137E+00;  0.0000000E+00;  1.1549411E+00;0; -1.2350652E-02;  4.2434473E+03;  0.0000000E+00;  1.4317019E-01;  4.0000000E+04;  0.0000000E+00;  3.9211754E+04;  3.5663724E-02;  0.0000000E+00; -4.8014376E-02;  2.8122896E+03;
  1.0917525E+00;  9.9999998E-03; -5.0533719E-02;8022;  3.9135445E-02;  0.0000000E+00;  3.3819794E-03;  9.9903632E+02;  3.1012517E-01; -7.9839697E+02;3; -5.1468201E+00;  0.0000000E+00; -1.4778134E+00;0; -1.2550358E-02;  4.2436724E+03;  0.0000000E+00;  2.1433072E-01;  4.0000000E+04;  0.0000000E+00;  3.9209566E+04;  3.2175440E-02;  0.0000000E+00; -4.4725798E-02;  2.7931880E+03;
  1.0917525E+00;  9.9999998E-03;  5.0533820E-02;8032;  3.9135601E-02;  0.0000000E+00; -3.3818448E-03;  9.9903680E+02;  3.1012505E-01; -7.9800195E+02;3; -5.1469502E+00;  0.0000000E+00;  1.4778516E+00;0; -1.2550179E-02;  4.2436733E+03;  0.0000000E+00;  2.1445587E-01;  4.0000000E+04;  0.0000000E+00;  3.9209566E+04;  3.2175928E-02;  0.0000000E+00; -4.4726107E-02;  2.7932537E+03;
  1.0918885E+00;  9.9999998E-03; -6.0659852E-02;8021;  3.8166098E-02;  0.0000000E+00;  3.9089369E-03;  9.9912189E+02;  3.1018940E-01; -7.2748541E+02;3; -4.9361906E+00;  0.0000000E+00; -1.7432094E+00;0; -1.2949308E-02;  4.2430122E+03;  0.0000000E+00;  2.7913699E-01;  4.0000000E+04;  0.0000000E+00;  3.9208309E+04;  2.8047679E-02;  0.0000000E+00; -4.0996987E-02;  2.9888486E+03;
  1.0918885E+00;  9.9999998E-03;  6.0659956E-02;8033;  3.8166251E-02;  0.0000000E+00; -3.9088009E-03;  9.9912207E+02;  3.1018934E-01; -7.2733728E+02;3; -4.9362035E+00;  0.0000000E+00;  1.7432492E+00;0; -1.2949057E-02;  4.2430117E+03;  0.0000000E+00;  2.7927744E-01;  4.0000000E+04;  0.0000000E+00;  3.9208309E+04;  2.8048247E-02;  0.0000000E+00; -4.0997304E-02;  2.9889780E+03;
  1.0921344E+00;  9.9999998E-03; -7.0780978E-02;8020;  3.7059750E-02;  0.0000000E+00;  4.3585850E-03;  9.9916504E+02;  3.1034222E-01; -6.9173334E+02;3; -4.8269668E+00;  0.0000000E+00; -1.9596378E+00;0; -1.3652740E-02;  4.2396938E+03;  0.0000000E+00;  3.1297514E-01;  4.0000000E+04;  0.0000000E+00;  3.9208488E+04;  2.3331603E-02;  0.0000000E+00; -3.6984343E-02;  3.2972412E+03;
  1.0925714E+00;  9.9999998E-03; -8.0888510E-02;8019;  3.5830338E-02;  0.0000000E+00;  4.7165505E-03;  9.9915271E+02;  3.1064981E-01; -7.0195532E+02;3; -4.7353101E+00;  0.0000000E+00; -2.2580373E+00;0; -1.4767909E-02;  4.2319463E+03;  0.0000000E+00;  2.8818780E-01;  4.0000000E+04;  0.0000000E+00;  3.9209191E+04;  1.8075695E-02;  0.0000000E+00; -3.2843605E-02;  3.5653506E+03;
  1.0931865E+00;  9.9999998E-03; -9.0985335E-02;8018;  3.4499511E-02;  0.0000000E+00;  4.9799378E-03;  9.9908380E+02;  3.1109762E-01; -7.5904010E+02;3; -4.6251602E+00;  0.0000000E+00; -2.4506636E+00;0; -1.6318023E-02;  4.2202070E+03;  0.0000000E+00;  1.8426171E-01;  4.0000000E+04;  0.0000000E+00;  3.9210445E+04;  1.2397368E-02;  0.0000000E+00; -2.8715393E-02;  3.7030845E+03;
  1.0937499E+00;  9.9999998E-03; -1.0107623E-01;8017;  3.3077277E-02;  0.0000000E+00;  5.1682298E-03;  9.9898230E+02;  3.1150249E-01; -8.4313647E+02;3; -4.6203842E+00;  0.0000000E+00; -2.6726501E+00;0; -1.8188585E-02;  4.2095254E+03;  0.0000000E+00; -1.5859753E-03;  4.0000000E+04;  0.0000000E+00;  3.9211863E+04;  6.5349042E-03;  0.0000000E+00; -2.4723489E-02;  3.7099014E+03;
  1.1247337E+00;  9.9999998E-03; -1.0134663E-02;8087;  4.2173240E-02;  0.0000000E+00;  6.8868604E-04;  9.9788068E+02;  3.3318335E-01; -1.7558015E+03;3; -9.7865944E+00;  0.0000000E+00; -3.9404005E-01;0; -3.5428084E-02;  3.6738181E+03;  0.0000000E+00;  1.2381553E-03;  4.0000000E+04;  0.0000000E+00;  3.9162723E+04;  1.7398793E-02;  0.0000000E+00; -5.2826878E-02;  3.8804089E+03;
  1.1247617E+00;  9.9999998E-03;  5.8306771E-08;8088;  4.2276111E-02;  0.0000000E+00;  6.5340274E-08;  9.9784802E+02;  3.3321291E-01; -1.7828624E+03;3; -9.8219690E+00;  0.0000000E+00; -6.6955108E-06;0; -3.5510071E-02;  3.6729158E+03;  0.0000000E+00;  3.2317168E-10;  4.0000000E+04;  0.0000000E+00;  3.9162992E+04;  1.7763505E-02;  0.0000000E+00; -5.3273577E-02;  3.9537671E+03;
  1.1247337E+00;  9.9999998E-03;  1.0134778E-02;8089;  4.2173263E-02;  0.0000000E+00; -6.8855425E-04;  9.9788080E+02;  3.3318296E-01; -1.7557028E+03;3; -9.7865601E+00;  0.0000000E+00;  3.9403641E-01;0; -3.5428122E-02;  3.6738196E+03;  0.0000000E+00;  1.2592034E-03;  4.0000000E+04;  0.0000000E+00;  3.9162730E+04;  1.7398858E-02;  0.0000000E+00; -5.2826982E-02;  3.8803955E+03;
  1.1246616E+00;  9.9999998E-03; -2.0259529E-02;8086;  4.1878521E-02;  0.0000000E+00;  1.3678112E-03;  9.9798529E+02;  3.3310547E-01; -1.6691373E+03;3; -9.5565920E+00;  0.0000000E+00; -8.3407187E-01;0; -3.5202079E-02;  3.6762598E+03;  0.0000000E+00;  6.8080169E-03;  4.0000000E+04;  0.0000000E+00;  3.9161309E+04;  1.6306434E-02;  0.0000000E+00; -5.1508512E-02;  3.6689292E+03;
  1.1246614E+00;  9.9999998E-03;  2.0259645E-02;8090;  4.1878536E-02;  0.0000000E+00; -1.3676775E-03;  9.9798492E+02;  3.3310750E-01; -1.6694336E+03;3; -9.5565510E+00;  0.0000000E+00;  8.3409786E-01;0; -3.5202168E-02;  3.6762617E+03;  0.0000000E+00;  6.8518138E-03;  4.0000000E+04;  0.0000000E+00;  3.9161301E+04;  1.6306503E-02;  0.0000000E+00; -5.1508673E-02;  3.6688853E+03;
  1.1245579E+00;  9.9999998E-03; -3.0371105E-02;8085;  4.1408427E-02;  0.0000000E+00;  2.0519772E-03;  9.9812976E+02;  3.3299354E-01; -1.5494371E+03;3; -9.1439133E+00;  0.0000000E+00; -1.1451780E+00;0; -3.4873612E-02;  3.6798904E+03;  0.0000000E+00;  2.1273373E-02;  4.0000000E+04;  0.0000000E+00;  3.9158984E+04;  1.4509102E-02;  0.0000000E+00; -4.9382716E-02;  3.3576475E+03;
  1.1245579E+00;  9.9999998E-03;  3.0371219E-02;8091;  4.1408479E-02;  0.0000000E+00; -2.0518429E-03;  9.9812994E+02;  3.3299366E-01; -1.5492889E+03;3; -9.1440191E+00;  0.0000000E+00;  1.1452284E+00;0; -3.4873687E-02;  3.6798911E+03;  0.0000000E+00;  2.1341002E-02;  4.0000000E+04;  0.0000000E+00;  3.9158980E+04;  1.4509198E-02;  0.0000000E+00; -4.9382884E-02;  3.3576384E+03;
  1.1244833E+00;  9.9999998E-03; -4.0479753E-02;8084;  4.0737648E-02;  0.0000000E+00;  2.7098211E-03;  9.9830408E+02;  3.3289352E-01; -1.4050461E+03;3; -8.6926107E+00;  0.0000000E+00; -1.4207163E+00;0; -3.4554191E-02;  3.6833108E+03;  0.0000000E+00;  4.8652407E-02;  4.0000000E+04;  0.0000000E+00;  3.9156316E+04;  1.1993898E-02;  0.0000000E+00; -4.6548091E-02;  3.0395347E+03;
  1.1244833E+00;  9.9999998E-03;  4.0479865E-02;8092;  4.0737726E-02;  0.0000000E+00; -2.7096877E-03;  9.9830426E+02;  3.3289281E-01; -1.4048979E+03;3; -8.6927538E+00;  0.0000000E+00;  1.4207637E+00;0; -3.4554310E-02;  3.6833105E+03;  0.0000000E+00;  4.8747692E-02;  4.0000000E+04;  0.0000000E+00;  3.9156316E+04;  1.1994029E-02;  0.0000000E+00; -4.6548340E-02;  3.0394519E+03;
  1.1244595E+00;  9.9999998E-03; -5.0607357E-02;8083;  3.9849434E-02;  0.0000000E+00;  3.3071795E-03;  9.9846472E+02;  3.3282939E-01; -1.2719635E+03;3; -7.9956656E+00;  0.0000000E+00; -1.6295824E+00;0; -3.4349997E-02;  3.6859492E+03;  0.0000000E+00;  8.8410839E-02;  4.0000000E+04;  0.0000000E+00;  3.9154492E+04;  8.7896073E-03;  0.0000000E+00; -4.3139603E-02;  2.8525183E+03;
  1.1244595E+00;  9.9999998E-03;  5.0607476E-02;8093;  3.9849531E-02;  0.0000000E+00; -3.3070499E-03;  9.9846472E+02;  3.3282939E-01; -1.2719635E+03;3; -7.9957891E+00;  0.0000000E+00;  1.6296406E+00;0; -3.4350090E-02;  3.6859514E+03;  0.0000000E+00;  8.8528305E-02;  4.0000000E+04;  0.0000000E+00;  3.9154504E+04;  8.7897964E-03;  0.0000000E+00; -4.3139886E-02;  2.8525491E+03;
  1.1244931E+00;  9.9999998E-03; -6.0751945E-02;8082;  3.8745798E-02;  0.0000000E+00;  3.8249337E-03;  9.9859222E+02;  3.3280793E-01; -1.1663369E+03;3; -7.4555430E+00;  0.0000000E+00; -1.8324499E+00;0; -3.4351647E-02;  3.6873982E+03;  0.0000000E+00;  1.3142075E-01;  4.0000000E+04;  0.0000000E+00;  3.9153234E+04;  4.9735336E-03;  0.0000000E+00; -3.9325181E-02;  2.9238125E+03;
  1.1244932E+00;  9.9999998E-03;  6.0752064E-02;8094;  3.8745936E-02;  0.0000000E+00; -3.8248103E-03;  9.9859247E+02;  3.3280852E-01; -1.1660901E+03;3; -7.4556556E+00;  0.0000000E+00;  1.8324882E+00;0; -3.4351747E-02;  3.6873955E+03;  0.0000000E+00;  1.3155648E-01;  4.0000000E+04;  0.0000000E+00;  3.9153234E+04;  4.9737659E-03;  0.0000000E+00; -3.9325513E-02;  2.9239683E+03;
  1.1246244E+00;  9.9999998E-03; -7.0891030E-02;8081;  3.7450515E-02;  0.0000000E+00;  4.2525972E-03;  9.9867169E+02;  3.3286935E-01; -1.1004623E+03;3; -7.0775127E+00;  0.0000000E+00; -2.0397465E+00;0; -3.4664713E-02;  3.6866948E+03;  0.0000000E+00;  1.5868270E-01;  4.0000000E+04;  0.0000000E+00;  3.9154004E+04;  6.2475476E-04;  0.0000000E+00; -3.5289466E-02;  3.2451077E+03;
  1.1248909E+00;  9.9999998E-03; -8.1015103E-02;8080;  3.5998873E-02;  0.0000000E+00;  4.5832694E-03;  9.9867542E+02;  3.3304301E-01; -1.0974006E+03;3; -6.7430730E+00;  0.0000000E+00; -2.2449632E+00;0; -3.5377398E-02;  3.6830586E+03;  0.0000000E+00;  1.4616483E-01;  4.0000000E+04;  0.0000000E+00;  3.9155512E+04; -4.1693067E-03;  0.0000000E+00; -3.1208092E-02;  3.6560171E+03;
  1.1252766E+00;  9.9999998E-03; -9.1116779E-02;8079;  3.4429133E-02;  0.0000000E+00;  4.8224786E-03;  9.9861072E+02;  3.3332056E-01; -1.1509794E+03;3; -6.4338102E+00;  0.0000000E+00; -2.4441013E+00;0; -3.6527213E-02;  3.6769109E+03;  0.0000000E+00;  7.4358620E-02;  4.0000000E+04;  0.0000000E+00;  3.9157922E+04; -9.2909522E-03;  0.0000000E+00; -2.7236260E-02;  3.9899116E+03;
  1.1258154E+00;  9.9999998E-03; -1.0119712E-01;8078;  3.2790877E-02;  0.0000000E+00;  4.9828272E-03;  9.9849493E+02;  3.3371514E-01; -1.2469272E+03;3; -6.1260533E+00;  0.0000000E+00; -2.5978067E+00;0; -3.8152356E-02;  3.6679165E+03;  0.0000000E+00; -6.2686779E-02;  4.0000000E+04;  0.0000000E+00;  3.9159414E+04; -1.4669946E-02;  0.0000000E+00; -2.3482408E-02;  4.1708677E+03;
  1.1612900E+00;  9.9999998E-03; -1.0140950E-02;8148;  4.1955523E-02;  0.0000000E+00;  5.6186860E-04;  9.9646851E+02;  3.5939947E-01; -2.9257920E+03;3; -1.2078077E+01;  0.0000000E+00; -3.2100183E-01;0; -4.8701733E-02;  3.1540842E+03;  0.0000000E+00; -8.7255491E-03;  4.0000000E+04;  0.0000000E+00;  3.9101582E+04; -2.3557246E-03;  0.0000000E+00; -4.6346009E-02;  4.2776973E+03;
  1.1613522E+00;  9.9999998E-03;  6.5707503E-08;8149;  4.2078499E-02;  0.0000000E+00;  5.4089927E-08;  9.9642371E+02;  3.5946071E-01; -2.9628774E+03;3; -1.2203390E+01;  0.0000000E+00;  2.3543835E-06;0; -4.8762135E-02;  3.1527974E+03;  0.0000000E+00;  1.2814653E-09;  4.0000000E+04;  0.0000000E+00;  3.9102055E+04; -1.9993917E-03;  0.0000000E+00; -4.6762742E-02;  4.3532388E+03;
  1.1612900E+00;  9.9999998E-03;  1.0141082E-02;8150;  4.1955542E-02;  0.0000000E+00; -5.6176336E-04;  9.9646875E+02;  3.5939905E-01; -2.9255945E+03;3; -1.2078177E+01;  0.0000000E+00;  3.2101294E-01;0; -4.8701856E-02;  3.1540852E+03;  0.0000000E+00; -8.7262811E-03;  4.0000000E+04;  0.0000000E+00;  3.9101574E+04; -2.3557399E-03;  0.0000000E+00; -4.6346117E-02;  4.2776216E+03;
  1.1611167E+00;  9.9999998E-03; -2.0273227E-02;8147;  4.1621204E-02;  0.0000000E+00;  1.1014288E-03;  9.9659741E+02;  3.5923088E-01; -2.8189802E+03;3; -1.1956306E+01;  0.0000000E+00; -7.2269064E-01;0; -4.8529010E-02;  3.1577637E+03;  0.0000000E+00; -3.2970909E-02;  4.0000000E+04;  0.0000000E+00;  3.9100285E+04; -3.4105368E-03;  0.0000000E+00; -4.5118473E-02;  4.0545774E+03;
  1.1611167E+00;  9.9999998E-03;  2.0273363E-02;8151;  4.1621231E-02;  0.0000000E+00; -1.1013192E-03;  9.9659778E+02;  3.5923126E-01; -2.8186841E+03;3; -1.1956309E+01;  0.0000000E+00;  7.2265542E-01;0; -4.8529211E-02;  3.1577637E+03;  0.0000000E+00; -3.2967974E-02;  4.0000000E+04;  0.0000000E+00;  3.9100281E+04; -3.4106127E-03;  0.0000000E+00; -4.5118600E-02;  4.0544443E+03;
  1.1608306E+00;  9.9999998E-03; -3.0400775E-02;8146;  4.1122429E-02;  0.0000000E+00;  1.6940437E-03;  9.9679120E+02;  3.5895151E-01; -2.6584417E+03;3; -1.1610702E+01;  0.0000000E+00; -1.0253899E+00;0; -4.8270792E-02;  3.1637603E+03;  0.0000000E+00; -6.7027040E-02;  4.0000000E+04;  0.0000000E+00;  3.9098238E+04; -5.1283333E-03;  0.0000000E+00; -4.3142460E-02;  3.7076189E+03;
  1.1608306E+00;  9.9999998E-03;  3.0400924E-02;8152;  4.1122459E-02;  0.0000000E+00; -1.6939257E-03;  9.9679089E+02;  3.5895163E-01; -2.6586887E+03;3; -1.1610737E+01;  0.0000000E+00;  1.0254200E+00;0; -4.8271079E-02;  3.1637615E+03;  0.0000000E+00; -6.7013599E-02;  4.0000000E+04;  0.0000000E+00;  3.9098238E+04; -5.1284260E-03;  0.0000000E+00; -4.3142654E-02;  3.7075161E+03;
  1.1604699E+00;  9.9999998E-03; -4.0535502E-02;8145;  4.0387515E-02;  0.0000000E+00;  2.2586782E-03;  9.9702747E+02;  3.5859576E-01; -2.4626943E+03;3; -1.1081142E+01;  0.0000000E+00; -1.2640895E+00;0; -4.8023608E-02;  3.1713438E+03;  0.0000000E+00; -1.0186610E-01;  4.0000000E+04;  0.0000000E+00;  3.9095945E+04; -7.5028823E-03;  0.0000000E+00; -4.0520724E-02;  3.3015710E+03;
  1.1604699E+00;  9.9999998E-03;  4.0535647E-02;8153;  4.0387578E-02;  0.0000000E+00; -2.2585623E-03;  9.9702747E+02;  3.5859576E-01; -2.4626943E+03;3; -1.1081211E+01;  0.0000000E+00;  1.2641110E+00;0; -4.8023954E-02;  3.1713450E+03;  0.0000000E+00; -1.0183299E-01;  4.0000000E+04;  0.0000000E+00;  3.9095938E+04; -7.5029661E-03;  0.0000000E+00; -4.0520988E-02;  3.3015259E+03;
  1.1601170E+00;  9.9999998E-03; -5.0667658E-02;8144;  3.9413270E-02;  0.0000000E+00;  2.7758235E-03;  9.9727606E+02;  3.5823196E-01; -2.2567249E+03;3; -1.0288554E+01;  0.0000000E+00; -1.4109658E+00;0; -4.7896978E-02;  3.1790654E+03;  0.0000000E+00; -1.2702624E-01;  4.0000000E+04;  0.0000000E+00;  3.9093930E+04; -1.0507990E-02;  0.0000000E+00; -3.7388988E-02;  2.9442708E+03;
  1.1601170E+00;  9.9999998E-03;  5.0667800E-02;8154;  3.9413363E-02;  0.0000000E+00; -2.7757112E-03;  9.9727643E+02;  3.5822904E-01; -2.2564287E+03;3; -1.0288790E+01;  0.0000000E+00;  1.4110334E+00;0; -4.7897384E-02;  3.1790635E+03;  0.0000000E+00; -1.2697023E-01;  4.0000000E+04;  0.0000000E+00;  3.9093938E+04; -1.0508059E-02;  0.0000000E+00; -3.7389327E-02;  2.9442104E+03;
  1.1598531E+00;  9.9999998E-03; -6.0812995E-02;8143;  3.8190231E-02;  0.0000000E+00;  3.2219368E-03;  9.9750519E+02;  3.5793477E-01; -2.0669033E+03;3; -9.7185698E+00;  0.0000000E+00; -1.5716813E+00;0; -4.8010614E-02;  3.1854565E+03;  0.0000000E+00; -1.3495550E-01;  4.0000000E+04;  0.0000000E+00;  3.9093215E+04; -1.4106255E-02;  0.0000000E+00; -3.3904359E-02;  2.7392373E+03;
  1.1598531E+00;  9.9999998E-03;  6.0813144E-02;8155;  3.8190357E-02;  0.0000000E+00; -3.2218290E-03;  9.9750537E+02;  3.5793582E-01; -2.0667551E+03;3; -9.7187481E+00;  0.0000000E+00;  1.5717053E+00;0; -4.8010968E-02;  3.1854558E+03;  0.0000000E+00; -1.3487117E-01;  4.0000000E+04;  0.0000000E+00;  3.9093215E+04; -1.4106280E-02;  0.0000000E+00; -3.3904687E-02;  2.7392549E+03;
  1.1597754E+00;  9.9999998E-03; -7.0962541E-02;8142;  3.6760852E-02;  0.0000000E+00;  3.5873468E-03;  9.9768365E+02;  3.5778949E-01; -1.9190557E+03;3; -9.1595812E+00;  0.0000000E+00; -1.7526515E+00;0; -4.8477009E-02;  3.1887837E+03;  0.0000000E+00; -1.2616615E-01;  4.0000000E+04;  0.0000000E+00;  3.9093574E+04; -1.8238069E-02;  0.0000000E+00; -3.0238939E-02;  2.7652803E+03;
  1.1601369E+00;  9.9999998E-03; -8.1098847E-02;8141;  3.5141096E-02;  0.0000000E+00;  3.8493362E-03;  9.9779486E+02;  3.5801455E-01; -1.8269102E+03;3; -8.6774731E+00;  0.0000000E+00; -1.9218711E+00;0; -4.9426265E-02;  3.1851580E+03;  0.0000000E+00; -1.1174794E-01;  4.0000000E+04;  0.0000000E+00;  3.9094496E+04; -2.2890415E-02;  0.0000000E+00; -2.6535848E-02;  3.0317300E+03;
  1.1608303E+00;  9.9999998E-03; -9.1212943E-02;8140;  3.3371918E-02;  0.0000000E+00;  4.0135593E-03;  9.9782709E+02;  3.5852477E-01; -1.8001949E+03;3; -8.3572264E+00;  0.0000000E+00; -2.1248951E+00;0; -5.0891556E-02;  3.1761870E+03;  0.0000000E+00; -1.0522441E-01;  4.0000000E+04;  0.0000000E+00;  3.9095621E+04; -2.7917445E-02;  0.0000000E+00; -2.2974111E-02;  3.4139902E+03;
  1.1615864E+00;  9.9999998E-03; -1.0130851E-01;8139;  3.1515546E-02;  0.0000000E+00;  4.1193352E-03;  9.9780713E+02;  3.5909286E-01; -1.8167377E+03;3; -8.0150585E+00;  0.0000000E+00; -2.3219478E+00;0; -5.2835226E-02;  3.1660515E+03;  0.0000000E+00; -1.1669625E-01;  4.0000000E+04;  0.0000000E+00;  3.9096141E+04; -3.3139147E-02;  0.0000000E+00; -1.9696081E-02;  3.7557207E+03;
  1.1990277E+00;  9.9999998E-03; -6.0801856E-02;8204;  3.6774740E-02;  0.0000000E+00;  2.1753367E-03;  9.9677106E+02;  3.8652918E-01; -2.6751311E+03;3; -1.2200043E+01;  0.0000000E+00; -1.0705981E+00;0; -4.6053581E-02;  2.7319653E+03;  0.0000000E+00; -2.3454334E-01;  4.0000000E+04;  0.0000000E+00;  3.9026230E+04; -2.2324191E-02;  0.0000000E+00; -2.3729391E-02;  2.7590762E+03;
  1.1990277E+00;  9.9999998E-03;  6.0802039E-02;8216;  3.6774840E-02;  0.0000000E+00; -2.1752417E-03;  9.9677106E+02;  3.8652799E-01; -2.6751311E+03;3; -1.2200083E+01;  0.0000000E+00;  1.0705935E+00;0; -4.6054248E-02;  2.7319651E+03;  0.0000000E+00; -2.3453456E-01;  4.0000000E+04;  0.0000000E+00;  3.9026242E+04; -2.2324406E-02;  0.0000000E+00; -2.3729842E-02;  2.7591216E+03;
  1.1991845E+00;  9.9999998E-03; -5.0641388E-02;8205;  3.8165011E-02;  0.0000000E+00;  1.9195093E-03;  9.9659454E+02;  3.8678026E-01; -2.8213491E+03;3; -1.2806122E+01;  0.0000000E+00; -8.9422446E-01;0; -4.5315720E-02;  2.7277883E+03;  0.0000000E+00; -1.8604295E-01;  4.0000000E+04;  0.0000000E+00;  3.9028242E+04; -1.8287325E-02;  0.0000000E+00; -2.7028397E-02;  3.0389575E+03;
  1.1991844E+00;  9.9999998E-03;  5.0641555E-02;8215;  3.8165100E-02;  0.0000000E+00; -1.9194132E-03;  9.9659479E+02;  3.8678291E-01; -2.8211516E+03;3; -1.2806191E+01;  0.0000000E+00;  8.9425975E-01;0; -4.5316346E-02;  2.7277908E+03;  0.0000000E+00; -1.8604960E-01;  4.0000000E+04;  0.0000000E+00;  3.9028254E+04; -1.8287508E-02;  0.0000000E+00; -2.7028838E-02;  3.0389434E+03;
  1.1990082E+00;  9.9999998E-03; -7.0955515E-02;8203;  3.5176020E-02;  0.0000000E+00;  2.3729017E-03;  9.9695135E+02;  3.8638809E-01; -2.5257529E+03;3; -1.1565486E+01;  0.0000000E+00; -1.2547228E+00;0; -4.7161043E-02;  2.7344207E+03;  0.0000000E+00; -2.6346141E-01;  4.0000000E+04;  0.0000000E+00;  3.9025176E+04; -2.6878549E-02;  0.0000000E+00; -2.0282496E-02;  2.5992615E+03;
  1.1994739E+00;  9.9999998E-03; -4.0484492E-02;8206;  3.9321426E-02;  0.0000000E+00;  1.5995909E-03;  9.9642108E+02;  3.8713169E-01; -2.9650486E+03;3; -1.3194456E+01;  0.0000000E+00; -7.8765452E-01;0; -4.4856459E-02;  2.7221716E+03;  0.0000000E+00; -1.2976973E-01;  4.0000000E+04;  0.0000000E+00;  3.9030211E+04; -1.4856692E-02;  0.0000000E+00; -2.9999765E-02;  3.4202800E+03;
  1.1994739E+00;  9.9999998E-03;  4.0484678E-02;8214;  3.9321478E-02;  0.0000000E+00; -1.5994802E-03;  9.9642084E+02;  3.8713139E-01; -2.9652461E+03;3; -1.3194510E+01;  0.0000000E+00;  7.8767276E-01;0; -4.4856999E-02;  2.7221726E+03;  0.0000000E+00; -1.2978616E-01;  4.0000000E+04;  0.0000000E+00;  3.9030219E+04; -1.4856896E-02;  0.0000000E+00; -3.0000104E-02;  3.4202202E+03;
  1.1990882E+00;  9.9999998E-03; -8.1097923E-02;8202;  3.3412565E-02;  0.0000000E+00;  2.5205191E-03;  9.9709100E+02;  3.8633236E-01; -2.4100525E+03;3; -1.0992977E+01;  0.0000000E+00; -1.4393427E+00;0; -4.8724540E-02;  2.7354807E+03;  0.0000000E+00; -2.6260504E-01;  4.0000000E+04;  0.0000000E+00;  3.9024789E+04; -3.1861152E-02;  0.0000000E+00; -1.6863387E-02;  2.5114692E+03;
  1.1998122E+00;  9.9999998E-03; -3.0355513E-02;8207;  4.0191121E-02;  0.0000000E+00;  1.2252231E-03;  9.9628619E+02;  3.8750458E-01; -3.0767983E+03;3; -1.3913343E+01;  0.0000000E+00; -6.6581023E-01;0; -4.4597566E-02;  2.7163508E+03;  0.0000000E+00; -7.6781832E-02;  4.0000000E+04;  0.0000000E+00;  3.9032746E+04; -1.2109693E-02;  0.0000000E+00; -3.2487873E-02;  3.8138147E+03;
  1.1998122E+00;  9.9999998E-03;  3.0355684E-02;8213;  4.0191155E-02;  0.0000000E+00; -1.2251084E-03;  9.9628644E+02;  3.8750729E-01; -3.0766008E+03;3; -1.3913347E+01;  0.0000000E+00;  6.6581571E-01;0; -4.4598006E-02;  2.7163506E+03;  0.0000000E+00; -7.6802894E-02;  4.0000000E+04;  0.0000000E+00;  3.9032742E+04; -1.2109859E-02;  0.0000000E+00; -3.2488149E-02;  3.8136328E+03;
  1.1992743E+00;  9.9999998E-03; -9.1229677E-02;8201;  3.1530082E-02;  0.0000000E+00;  2.6283562E-03;  9.9719592E+02;  3.8638696E-01; -2.3231416E+03;3; -1.0476786E+01;  0.0000000E+00; -1.6225306E+00;0; -5.0804026E-02;  2.7348760E+03;  0.0000000E+00; -2.2627071E-01;  4.0000000E+04;  0.0000000E+00;  3.9024652E+04; -3.7201650E-02;  0.0000000E+00; -1.3602376E-02;  2.4611260E+03;
  1.2001150E+00;  9.9999998E-03; -2.0240465E-02;8208;  4.0782917E-02;  0.0000000E+00;  8.1031304E-04;  9.9618713E+02;  3.8782632E-01; -3.1588701E+03;3; -1.4222498E+01;  0.0000000E+00; -4.8477530E-01;0; -4.4468071E-02;  2.7114075E+03;  0.0000000E+00; -3.5007838E-02;  4.0000000E+04;  0.0000000E+00;  3.9034441E+04; -1.0099910E-02;  0.0000000E+00; -3.4368161E-02;  4.1352466E+03;
  1.2001150E+00;  9.9999998E-03;  2.0240633E-02;8212;  4.0782940E-02;  0.0000000E+00; -8.1019750E-04;  9.9618726E+02;  3.8782588E-01; -3.1587712E+03;3; -1.4222428E+01;  0.0000000E+00;  4.8474398E-01;0; -4.4468347E-02;  2.7114094E+03;  0.0000000E+00; -3.5026621E-02;  4.0000000E+04;  0.0000000E+00;  3.9034445E+04; -1.0100025E-02;  0.0000000E+00; -3.4368321E-02;  4.1351431E+03;
  1.2003005E+00;  9.9999998E-03; -1.0124006E-02;8209;  4.1135233E-02;  0.0000000E+00;  3.9143290E-04;  9.9611975E+02;  3.8802132E-01; -3.2147202E+03;3; -1.4282929E+01;  0.0000000E+00; -2.4153131E-01;0; -4.4416644E-02;  2.7083694E+03;  0.0000000E+00; -8.8449474E-03;  4.0000000E+04;  0.0000000E+00;  3.9035590E+04; -8.8704107E-03;  0.0000000E+00; -3.5546232E-02;  4.3360684E+03;
  1.2003003E+00;  9.9999998E-03;  1.0124170E-02;8211;  4.1135248E-02;  0.0000000E+00; -3.9132478E-04;  9.9612000E+02;  3.8802275E-01; -3.2145227E+03;3; -1.4282949E+01;  0.0000000E+00;  2.4152982E-01;0; -4.4416845E-02;  2.7083704E+03;  0.0000000E+00; -8.8556120E-03;  4.0000000E+04;  0.0000000E+00;  3.9035605E+04; -8.8704703E-03;  0.0000000E+00; -3.5546374E-02;  4.3360337E+03;
  1.2003554E+00;  9.9999998E-03;  8.0620303E-08;8210;  4.1262195E-02;  0.0000000E+00;  5.4217434E-08;  9.9609790E+02;  3.8808280E-01; -3.2327937E+03;3; -1.4417229E+01;  0.0000000E+00;  2.0305626E-05;0; -4.4405758E-02;  2.7074407E+03;  0.0000000E+00;  6.4190375E-10;  4.0000000E+04;  0.0000000E+00;  3.9036148E+04; -8.4559005E-03;  0.0000000E+00; -3.5949856E-02;  4.4027275E+03;
  1.1995769E+00;  9.9999998E-03; -1.0135511E-01;8200;  2.9567057E-02;  0.0000000E+00;  2.7051424E-03;  9.9724048E+02;  3.8655430E-01; -2.2862043E+03;3; -9.9320202E+00;  0.0000000E+00; -1.8014792E+00;0; -5.3433269E-02;  2.7324883E+03;  0.0000000E+00; -1.5595441E-01;  4.0000000E+04;  0.0000000E+00;  3.9024184E+04; -4.2847428E-02;  0.0000000E+00; -1.0585841E-02;  2.4728748E+03;
  1.2408949E+00;  9.9999998E-03; -8.1128061E-02;8263;  3.2344852E-02;  0.0000000E+00;  2.0343354E-03;  9.9770081E+02;  4.1756430E-01; -1.9048312E+03;3; -1.6797922E+01;  0.0000000E+00; -3.4157596E+00;0; -4.0284839E-02;  2.3491021E+03;  0.0000000E+00; -3.9005598E-01;  4.0000000E+04;  0.0000000E+00;  3.8950527E+04; -4.1086089E-02;  0.0000000E+00;  8.0125016E-04;  1.8232870E+03;
  1.2407788E+00;  9.9999998E-03; -9.1265708E-02;8262;  3.0288296E-02;  0.0000000E+00;  2.0680209E-03;  9.9779120E+02;  4.1734424E-01; -1.8299692E+03;3; -1.5612193E+01;  0.0000000E+00; -3.4744353E+00;0; -4.3254483E-02;  2.3514382E+03;  0.0000000E+00; -4.4303462E-01;  4.0000000E+04;  0.0000000E+00;  3.8949672E+04; -4.7011878E-02;  0.0000000E+00;  3.7573939E-03;  1.7099622E+03;
  1.2412454E+00;  9.9999998E-03; -7.0976764E-02;8264;  3.4260463E-02;  0.0000000E+00;  1.9441429E-03;  9.9762488E+02;  4.1801158E-01; -1.9677428E+03;3; -1.8095907E+01;  0.0000000E+00; -3.3208072E+00;0; -3.7869435E-02;  2.3441824E+03;  0.0000000E+00; -3.0933538E-01;  4.0000000E+04;  0.0000000E+00;  3.8951188E+04; -3.5740890E-02;  0.0000000E+00; -2.1285464E-03;  2.0823186E+03;
  1.2409347E+00;  9.9999998E-03; -1.0139340E-01;8261;  2.8111110E-02;  0.0000000E+00;  2.0374609E-03;  9.9788885E+02;  4.1739628E-01; -1.7490334E+03;3; -1.4480700E+01;  0.0000000E+00; -3.4785066E+00;0; -4.6836566E-02;  2.3507595E+03;  0.0000000E+00; -4.5476180E-01;  4.0000000E+04;  0.0000000E+00;  3.8948902E+04; -5.3471949E-02;  0.0000000E+00;  6.6353837E-03;  1.6530730E+03;
  1.2417368E+00;  9.9999998E-03; -6.0807355E-02;8265;  3.6019977E-02;  0.0000000E+00;  1.8117987E-03;  9.9758197E+02;  4.1859522E-01; -2.0032972E+03;3; -1.9537321E+01;  0.0000000E+00; -3.2020841E+00;0; -3.5953369E-02;  2.3377961E+03;  0.0000000E+00; -2.1905921E-01;  4.0000000E+04;  0.0000000E+00;  3.8952418E+04; -3.1012783E-02;  0.0000000E+00; -4.9405852E-03;  2.4411379E+03;
  1.2417367E+00;  9.9999998E-03;  6.0807534E-02;8277;  3.6020033E-02;  0.0000000E+00; -1.8116329E-03;  9.9758221E+02;  4.1859451E-01; -2.0030997E+03;3; -1.9537270E+01;  0.0000000E+00;  3.2020175E+00;0; -3.5954095E-02;  2.3377961E+03;  0.0000000E+00; -2.1913408E-01;  4.0000000E+04;  0.0000000E+00;  3.8952422E+04; -3.1012816E-02;  0.0000000E+00; -4.9412781E-03;  2.4410684E+03;
  1.2422794E+00;  9.9999998E-03; -1.0110861E-02;8270;  4.1548211E-02;  0.0000000E+00;  5.3154328E-04;  9.9735535E+02;  4.1948447E-01; -2.1910447E+03;3; -3.3742596E+01;  0.0000000E+00; -8.3482122E-01;0; -3.2517619E-02;  2.3270730E+03;  0.0000000E+00; -2.6764644E-03;  4.0000000E+04;  0.0000000E+00;  3.8963848E+04; -1.7257631E-02;  0.0000000E+00; -1.5259988E-02;  3.9856511E+03;
  1.2422674E+00;  9.9999998E-03;  9.1978123E-08;8271;  4.1763328E-02;  0.0000000E+00;  9.8483035E-08;  9.9734442E+02;  4.1948462E-01; -2.2000815E+03;3; -3.4073238E+01;  0.0000000E+00; -3.3693155E-05;0; -3.2486234E-02;  2.3270027E+03;  0.0000000E+00; -1.1103036E-09;  4.0000000E+04;  0.0000000E+00;  3.8964266E+04; -1.6841324E-02;  0.0000000E+00; -1.5644910E-02;  4.0507969E+03;
  1.2422792E+00;  9.9999998E-03;  1.0111046E-02;8272;  4.1548189E-02;  0.0000000E+00; -5.3135067E-04;  9.9735565E+02;  4.1948244E-01; -2.1907979E+03;3; -3.3742588E+01;  0.0000000E+00;  8.3475822E-01;0; -3.2517783E-02;  2.3270752E+03;  0.0000000E+00; -2.6910191E-03;  4.0000000E+04;  0.0000000E+00;  3.8963855E+04; -1.7257551E-02;  0.0000000E+00; -1.5260234E-02;  3.9855684E+03;
  1.2423072E+00;  9.9999998E-03; -2.0220434E-02;8269;  4.1035205E-02;  0.0000000E+00;  9.4149914E-04;  9.9738794E+02;  4.1947481E-01; -2.1640332E+03;3; -3.0479851E+01;  0.0000000E+00; -2.7476020E+00;0; -3.2643989E-02;  2.3273486E+03;  0.0000000E+00; -1.2563606E-02;  4.0000000E+04;  0.0000000E+00;  3.8962277E+04; -1.8500321E-02;  0.0000000E+00; -1.4143669E-02;  3.7976257E+03;
  1.2423073E+00;  9.9999998E-03;  2.0220628E-02;8273;  4.1035198E-02;  0.0000000E+00; -9.4131235E-04;  9.9738757E+02;  4.1947475E-01; -2.1643293E+03;3; -3.0480049E+01;  0.0000000E+00;  2.7475142E+00;0; -3.2644242E-02;  2.3273481E+03;  0.0000000E+00; -1.2592679E-02;  4.0000000E+04;  0.0000000E+00;  3.8962270E+04; -1.8500356E-02;  0.0000000E+00; -1.4143884E-02;  3.7975334E+03;
  1.2423506E+00;  9.9999998E-03; -3.0336739E-02;8268;  4.0216904E-02;  0.0000000E+00;  1.2542165E-03;  9.9744067E+02;  4.1945526E-01; -2.1203308E+03;3; -2.7193110E+01;  0.0000000E+00; -3.3251417E+00;0; -3.2964345E-02;  2.3277935E+03;  0.0000000E+00; -3.4539636E-02;  4.0000000E+04;  0.0000000E+00;  3.8959816E+04; -2.0578561E-02;  0.0000000E+00; -1.2385785E-02;  3.5138376E+03;
  1.2423505E+00;  9.9999998E-03;  3.0336931E-02;8274;  4.0216882E-02;  0.0000000E+00; -1.2540346E-03;  9.9744086E+02;  4.1945601E-01; -2.1201826E+03;3; -2.7193039E+01;  0.0000000E+00;  3.3251328E+00;0; -3.2964747E-02;  2.3277930E+03;  0.0000000E+00; -3.4584884E-02;  4.0000000E+04;  0.0000000E+00;  3.8959801E+04; -2.0578515E-02;  0.0000000E+00; -1.2386233E-02;  3.5137166E+03;
  1.2423813E+00;  9.9999998E-03; -4.0471047E-02;8267;  3.9052118E-02;  0.0000000E+00;  1.4846766E-03;  9.9750134E+02;  4.1940853E-01; -2.0701101E+03;3; -2.4118933E+01;  0.0000000E+00; -3.2520306E+00;0; -3.3542156E-02;  2.3286182E+03;  0.0000000E+00; -7.4661843E-02;  4.0000000E+04;  0.0000000E+00;  3.8956910E+04; -2.3422414E-02;  0.0000000E+00; -1.0119743E-02;  3.1763987E+03;
  1.2423812E+00;  9.9999998E-03;  4.0471241E-02;8275;  3.9052125E-02;  0.0000000E+00; -1.4844951E-03;  9.9750116E+02;  4.1941020E-01; -2.0702583E+03;3; -2.4118879E+01;  0.0000000E+00;  3.2519848E+00;0; -3.3542670E-02;  2.3286179E+03;  0.0000000E+00; -7.4719638E-02;  4.0000000E+04;  0.0000000E+00;  3.8956906E+04; -2.3422401E-02;  0.0000000E+00; -1.0120271E-02;  3.1762271E+03;
  1.2422696E+00;  9.9999998E-03; -5.0629817E-02;8266;  3.7619304E-02;  0.0000000E+00;  1.6491448E-03;  9.9756323E+02;  4.1920558E-01; -2.0188030E+03;3; -2.1425001E+01;  0.0000000E+00; -3.1319227E+00;0; -3.4494150E-02;  2.3310591E+03;  0.0000000E+00; -1.3690056E-01;  4.0000000E+04;  0.0000000E+00;  3.8954391E+04; -2.6945392E-02;  0.0000000E+00; -7.5487602E-03;  2.8205247E+03;
  1.2422698E+00;  9.9999998E-03;  5.0630022E-02;8276;  3.7619319E-02;  0.0000000E+00; -1.6489552E-03;  9.9756281E+02;  4.1920459E-01; -2.0191487E+03;3; -2.1424915E+01;  0.0000000E+00;  3.1318407E+00;0; -3.4494758E-02;  2.3310593E+03;  0.0000000E+00; -1.3697322E-01;  4.0000000E+04;  0.0000000E+00;  3.8954387E+04; -2.6945487E-02;  0.0000000E+00; -7.5492715E-03;  2.8204282E+03;
  1.2848690E+00;  9.9999998E-03; -1.0152840E-01;8322;  2.5964290E-02;  0.0000000E+00; -1.7580386E-04;  9.9862994E+02;  4.5116362E-01; -1.1350746E+03;3; -1.8648762E+01;  0.0000000E+00; -2.1508083E+00;0; -4.9287915E-02;  2.0181810E+03;  0.0000000E+00; -7.7391547E-01;  4.0000000E+04;  0.0000000E+00;  3.8877727E+04; -8.0374755E-02;  0.0000000E+00;  3.1086840E-02;  1.8824446E+03;
  1.2852896E+00;  9.9999998E-03; -9.1385975E-02;8323;  2.8491633E-02;  0.0000000E+00;  1.9436996E-04;  9.9845758E+02;  4.5166737E-01; -1.2778848E+03;3; -2.0839098E+01;  0.0000000E+00; -2.2433925E+00;0; -4.3134622E-02;  2.0137629E+03;  0.0000000E+00; -6.4040577E-01;  4.0000000E+04;  0.0000000E+00;  3.8874891E+04; -7.4609160E-02;  0.0000000E+00;  3.1474538E-02;  2.3214023E+03;
  1.2859939E+00;  9.9999998E-03; -8.1233062E-02;8324;  3.0868109E-02;  0.0000000E+00;  3.7512716E-04;  9.9832959E+02;  4.5247108E-01; -1.3839060E+03;3; -2.2984804E+01;  0.0000000E+00; -2.0301881E+00;0; -3.7319832E-02;  2.0067579E+03;  0.0000000E+00; -4.7758526E-01;  4.0000000E+04;  0.0000000E+00;  3.8871941E+04; -6.9663674E-02;  0.0000000E+00;  3.2343842E-02;  2.8331477E+03;
  1.2866446E+00;  9.9999998E-03; -7.1046837E-02;8325;  3.3100363E-02;  0.0000000E+00;  4.2533627E-04;  9.9822736E+02;  4.5322478E-01; -1.4685947E+03;3; -2.5343233E+01;  0.0000000E+00; -1.7727228E+00;0; -3.1823002E-02;  2.0001647E+03;  0.0000000E+00; -3.1524554E-01;  4.0000000E+04;  0.0000000E+00;  3.8869980E+04; -6.5349855E-02;  0.0000000E+00;  3.3526853E-02;  3.0345469E+03;
  1.2869499E+00;  9.9999998E-03; -6.0845494E-02;8326;  3.5191178E-02;  0.0000000E+00;  4.3586185E-04;  9.9811340E+02;  4.5363683E-01; -1.5630112E+03;3; -2.7783600E+01;  0.0000000E+00; -1.6033157E+00;0; -2.6862081E-02;  1.9964790E+03;  0.0000000E+00; -1.7966244E-01;  4.0000000E+04;  0.0000000E+00;  3.8870227E+04; -6.1520532E-02;  0.0000000E+00;  3.4658451E-02;  2.8887495E+03;
  1.2869498E+00;  9.9999998E-03;  6.0845707E-02;8338;  3.5191264E-02;  0.0000000E+00; -4.3570276E-04;  9.9811353E+02;  4.5363671E-01; -1.5629125E+03;3; -2.7783575E+01;  0.0000000E+00;  1.6033646E+00;0; -2.6862517E-02;  1.9964791E+03;  0.0000000E+00; -1.7979112E-01;  4.0000000E+04;  0.0000000E+00;  3.8870219E+04; -6.1520301E-02;  0.0000000E+00;  3.4657784E-02;  2.8883547E+03;
  1.2870177E+00;  9.9999998E-03; -5.0675228E-02;8327;  3.7083879E-02;  0.0000000E+00;  4.3668231E-04;  9.9800409E+02;  4.5380446E-01; -1.6535763E+03;3; -3.0245510E+01;  0.0000000E+00; -1.5101913E+00;0; -2.2569630E-02;  1.9947826E+03;  0.0000000E+00; -8.3679125E-02;  4.0000000E+04;  0.0000000E+00;  3.8871676E+04; -5.8238469E-02;  0.0000000E+00;  3.5668839E-02;  2.6045359E+03;
  1.2870178E+00;  9.9999998E-03;  5.0675455E-02;8337;  3.7083924E-02;  0.0000000E+00; -4.3649686E-04;  9.9800409E+02;  4.5380414E-01; -1.6535763E+03;3; -3.0245543E+01;  0.0000000E+00;  1.5101905E+00;0; -2.2569854E-02;  1.9947815E+03;  0.0000000E+00; -8.3784699E-02;  4.0000000E+04;  0.0000000E+00;  3.8871680E+04; -5.8238324E-02;  0.0000000E+00;  3.5668470E-02;  2.6042419E+03;
  1.2872639E+00;  9.9999998E-03; -3.0406022E-02;8329;  3.9990690E-02;  0.0000000E+00;  3.7331946E-04;  9.9788971E+02;  4.5421207E-01; -1.7483386E+03;3; -3.4787899E+01;  0.0000000E+00; -1.1765726E+00;0; -1.5763666E-02;  1.9906765E+03;  0.0000000E+00; -1.6073772E-03;  4.0000000E+04;  0.0000000E+00;  3.8877219E+04; -5.3654030E-02;  0.0000000E+00;  3.7890363E-02;  2.5216990E+03;
  1.2872636E+00;  9.9999998E-03;  3.0406231E-02;8335;  3.9990708E-02;  0.0000000E+00; -3.7316210E-04;  9.9789044E+02;  4.5420974E-01; -1.7477461E+03;3; -3.4787880E+01;  0.0000000E+00;  1.1766412E+00;0; -1.5764147E-02;  1.9906783E+03;  0.0000000E+00; -1.6648087E-03;  4.0000000E+04;  0.0000000E+00;  3.8877219E+04; -5.3653676E-02;  0.0000000E+00;  3.7889529E-02;  2.5214038E+03;
  1.2871175E+00;  9.9999998E-03; -4.0534794E-02;8328;  3.8693048E-02;  0.0000000E+00;  4.1695149E-04;  9.9793311E+02;  4.5399025E-01; -1.7123892E+03;3; -3.2643017E+01;  0.0000000E+00; -1.3960763E+00;0; -1.8855009E-02;  1.9928679E+03;  0.0000000E+00; -2.7082348E-02;  4.0000000E+04;  0.0000000E+00;  3.8874281E+04; -5.5623759E-02;  0.0000000E+00;  3.6768749E-02;  2.4438167E+03;
  1.2871174E+00;  9.9999998E-03;  4.0535010E-02;8336;  3.8693082E-02;  0.0000000E+00; -4.1678152E-04;  9.9793353E+02;  4.5399207E-01; -1.7120435E+03;3; -3.2643085E+01;  0.0000000E+00;  1.3961267E+00;0; -1.8855337E-02;  1.9928689E+03;  0.0000000E+00; -2.7162658E-02;  4.0000000E+04;  0.0000000E+00;  3.8874266E+04; -5.5623505E-02;  0.0000000E+00;  3.6768168E-02;  2.4434985E+03;
  1.2874575E+00;  9.9999998E-03;  9.9512349E-08;8332;  4.1891042E-02;  0.0000000E+00;  8.4059600E-08;  9.9782098E+02;  4.5450854E-01; -1.8052750E+03;3; -3.8173141E+01;  0.0000000E+00;  1.8225735E-05;0; -1.1629544E-02;  1.9876761E+03;  0.0000000E+00; -4.4447415E-10;  4.0000000E+04;  0.0000000E+00;  3.8881562E+04; -5.1207699E-02;  0.0000000E+00;  3.9578155E-02;  3.0015300E+03;
  1.2874359E+00;  9.9999998E-03; -1.0138668E-02;8331;  4.1610815E-02;  0.0000000E+00;  1.8352346E-04;  9.9782825E+02;  4.5447052E-01; -1.7992506E+03;3; -3.7703434E+01;  0.0000000E+00; -3.2377759E-01;0; -1.2076151E-02;  1.9880098E+03;  0.0000000E+00;  1.8565130E-03;  4.0000000E+04;  0.0000000E+00;  3.8881180E+04; -5.1453646E-02;  0.0000000E+00;  3.9377496E-02;  2.9281343E+03;
  1.2874357E+00;  9.9999998E-03;  1.0138867E-02;8333;  4.1610830E-02;  0.0000000E+00; -1.8336118E-04;  9.9782800E+02;  4.5446956E-01; -1.7994481E+03;3; -3.7703400E+01;  0.0000000E+00;  3.2382652E-01;0; -1.2076408E-02;  1.9880107E+03;  0.0000000E+00;  1.8386662E-03;  4.0000000E+04;  0.0000000E+00;  3.8881180E+04; -5.1453449E-02;  0.0000000E+00;  3.9377041E-02;  2.9280471E+03;
  1.2873824E+00;  9.9999998E-03; -2.0273902E-02;8330;  4.0957469E-02;  0.0000000E+00;  3.0312012E-04;  9.9785663E+02;  4.5438698E-01; -1.7757451E+03;3; -3.6484764E+01;  0.0000000E+00; -7.2722614E-01;0; -1.3458438E-02;  1.9889320E+03;  0.0000000E+00;  4.1912608E-03;  4.0000000E+04;  0.0000000E+00;  3.8879691E+04; -5.2272364E-02;  0.0000000E+00;  3.8813926E-02;  2.7364084E+03;
  1.2873822E+00;  9.9999998E-03;  2.0274105E-02;8334;  4.0957488E-02;  0.0000000E+00; -3.0295795E-04;  9.9785669E+02;  4.5438465E-01; -1.7756958E+03;3; -3.6484779E+01;  0.0000000E+00;  7.2728539E-01;0; -1.3458718E-02;  1.9889337E+03;  0.0000000E+00;  4.1542375E-03;  4.0000000E+04;  0.0000000E+00;  3.8879695E+04; -5.2272115E-02;  0.0000000E+00;  3.8813397E-02;  2.7362927E+03;
  1.3326181E+00;  9.9999998E-03; -1.0162843E-01;8383;  2.0717967E-02;  0.0000000E+00; -1.0279213E-02;  9.9624548E+02;  4.8862976E-01; -3.1105046E+03;3; -1.9567070E+01;  0.0000000E+00;  7.4275327E+00;0;  1.9223124E-02;  1.7143195E+03;  0.0000000E+00; -6.9923836E-01;  4.0000000E+04;  0.0000000E+00;  3.8797398E+04; -4.7365837E-02;  0.0000000E+00;  6.6588961E-02;  2.3655413E+03;
  1.3329877E+00;  9.9999998E-03; -9.1449469E-02;8384;  2.3486219E-02;  0.0000000E+00; -9.7473906E-03;  9.9592798E+02;  4.8910958E-01; -3.3735566E+03;3; -2.1975832E+01;  0.0000000E+00;  7.0545945E+00;0;  4.5061503E-02;  1.7106703E+03;  0.0000000E+00; -5.1185060E-01;  4.0000000E+04;  0.0000000E+00;  3.8791191E+04; -3.2450747E-02;  0.0000000E+00;  7.7512249E-02;  2.8038054E+03;
  1.3333530E+00;  9.9999998E-03; -8.1225403E-02;8385;  2.6196500E-02;  0.0000000E+00; -9.1265133E-03;  9.9561938E+02;  4.8961115E-01; -3.6292510E+03;3; -2.4542950E+01;  0.0000000E+00;  6.8001823E+00;0;  7.1205355E-02;  1.7068884E+03;  0.0000000E+00; -3.3373836E-01;  4.0000000E+04;  0.0000000E+00;  3.8785473E+04; -1.8353438E-02;  0.0000000E+00;  8.9558795E-02;  3.1062732E+03;
  1.3335485E+00;  9.9999998E-03; -7.1000837E-02;8386;  2.8774869E-02;  0.0000000E+00; -8.4040705E-03;  9.9534851E+02;  4.8994085E-01; -3.8536379E+03;3; -2.7105350E+01;  0.0000000E+00;  6.8031964E+00;0;  9.5929600E-02;  1.7042560E+03;  0.0000000E+00; -1.8702562E-01;  4.0000000E+04;  0.0000000E+00;  3.8781547E+04; -6.0468735E-03;  0.0000000E+00;  1.0197648E-01;  3.0638403E+03;
  1.3338063E+00;  9.9999998E-03; -6.0808849E-02;8387;  3.1128909E-02;  0.0000000E+00; -7.7125276E-03;  9.9512494E+02;  4.9033985E-01; -4.0388655E+03;3; -2.9635216E+01;  0.0000000E+00;  6.5389261E+00;0;  1.1966583E-01;  1.7011317E+03;  0.0000000E+00; -8.1603445E-02;  4.0000000E+04;  0.0000000E+00;  3.8779191E+04;  5.0452105E-03;  0.0000000E+00;  1.1462062E-01;  2.6759734E+03;
  1.3338065E+00;  9.9999998E-03;  6.0809098E-02;8399;  3.1128976E-02;  0.0000000E+00;  7.7126296E-03;  9.9512494E+02;  4.9033985E-01; -4.0388655E+03;3; -2.9635189E+01;  0.0000000E+00; -6.5389814E+00;0;  1.1966683E-01;  1.7011306E+03;  0.0000000E+00; -8.1719883E-02;  4.0000000E+04;  0.0000000E+00;  3.8779195E+04;  5.0459821E-03;  0.0000000E+00;  1.1462085E-01;  2.6755574E+03;
  1.3341204E+00;  9.9999998E-03; -5.0649323E-02;8388;  3.3227146E-02;  0.0000000E+00; -7.0286137E-03;  9.9497784E+02;  4.9079370E-01; -4.1607378E+03;3; -3.1885878E+01;  0.0000000E+00;  6.0656734E+00;0;  1.4186335E-01;  1.6976497E+03;  0.0000000E+00; -1.7287282E-02;  4.0000000E+04;  0.0000000E+00;  3.8778910E+04;  1.4860980E-02;  0.0000000E+00;  1.2700237E-01;  2.0608933E+03;
  1.3341205E+00;  9.9999998E-03;  5.0649568E-02;8398;  3.3227239E-02;  0.0000000E+00;  7.0286766E-03;  9.9497760E+02;  4.9079353E-01; -4.1609351E+03;3; -3.1885782E+01;  0.0000000E+00; -6.0656695E+00;0;  1.4186342E-01;  1.6976487E+03;  0.0000000E+00; -1.7375320E-02;  4.0000000E+04;  0.0000000E+00;  3.8778910E+04;  1.4861248E-02;  0.0000000E+00;  1.2700218E-01;  2.0605330E+03;
  1.3344377E+00;  9.9999998E-03; -4.0511869E-02;8389;  3.5004366E-02;  0.0000000E+00; -6.0749925E-03;  9.9487390E+02;  4.9123454E-01; -4.2468579E+03;3; -3.3659050E+01;  0.0000000E+00;  4.8854966E+00;0;  1.6160217E-01;  1.6942697E+03;  0.0000000E+00;  1.2666791E-02;  4.0000000E+04;  0.0000000E+00;  3.8779730E+04;  2.3175096E-02;  0.0000000E+00;  1.3842708E-01;  1.3861042E+03;
  1.3344378E+00;  9.9999998E-03;  4.0512115E-02;8397;  3.5004467E-02;  0.0000000E+00;  6.0750637E-03;  9.9487396E+02;  4.9123511E-01; -4.2468086E+03;3; -3.3659054E+01;  0.0000000E+00; -4.8853998E+00;0;  1.6160199E-01;  1.6942701E+03;  0.0000000E+00;  1.2604139E-02;  4.0000000E+04;  0.0000000E+00;  3.8779742E+04;  2.3175217E-02;  0.0000000E+00;  1.3842678E-01;  1.3858098E+03;
  1.3347089E+00;  9.9999998E-03; -3.0383006E-02;8390;  3.6402129E-02;  0.0000000E+00; -4.8659057E-03;  9.9481354E+02;  4.9160135E-01; -4.2968311E+03;3; -3.5214455E+01;  0.0000000E+00;  3.6106899E+00;0;  1.7793645E-01;  1.6914414E+03;  0.0000000E+00;  1.8607030E-02;  4.0000000E+04;  0.0000000E+00;  3.8781199E+04;  2.9767677E-02;  0.0000000E+00;  1.4816877E-01;  8.3346857E+02;
  1.3347088E+00;  9.9999998E-03;  3.0383250E-02;8396;  3.6402225E-02;  0.0000000E+00;  4.8660105E-03;  9.9481354E+02;  4.9160498E-01; -4.2968311E+03;3; -3.5214417E+01;  0.0000000E+00; -3.6105759E+00;0;  1.7793572E-01;  1.6914410E+03;  0.0000000E+00;  1.8567663E-02;  4.0000000E+04;  0.0000000E+00;  3.8781191E+04;  2.9767478E-02;  0.0000000E+00;  1.4816824E-01;  8.3321991E+02;
  1.3349144E+00;  9.9999998E-03; -2.0255093E-02;8391;  3.7432197E-02;  0.0000000E+00; -3.4025279E-03;  9.9478656E+02;  4.9187595E-01; -4.3192007E+03;3; -3.6416214E+01;  0.0000000E+00;  2.3784893E+00;0;  1.9015473E-01;  1.6893314E+03;  0.0000000E+00;  1.2177038E-02;  4.0000000E+04;  0.0000000E+00;  3.8782723E+04;  3.4539305E-02;  0.0000000E+00;  1.5561542E-01;  5.9795642E+02;
  1.3349144E+00;  9.9999998E-03;  2.0255335E-02;8395;  3.7432253E-02;  0.0000000E+00;  3.4027365E-03;  9.9478668E+02;  4.9187997E-01; -4.3191021E+03;3; -3.6416214E+01;  0.0000000E+00; -2.3783853E+00;0;  1.9015487E-01;  1.6893315E+03;  0.0000000E+00;  1.2153740E-02;  4.0000000E+04;  0.0000000E+00;  3.8782719E+04;  3.4539551E-02;  0.0000000E+00;  1.5561531E-01;  5.9781628E+02;
  1.3350353E+00;  9.9999998E-03; -1.0127590E-02;8392;  3.8070790E-02;  0.0000000E+00; -1.7471600E-03;  9.9477039E+02;  4.9204186E-01; -4.3325830E+03;3; -3.7153473E+01;  0.0000000E+00;  1.1671690E+00;0;  1.9765389E-01;  1.6880746E+03;  0.0000000E+00;  3.6614253E-03;  4.0000000E+04;  0.0000000E+00;  3.8783707E+04;  3.7389647E-02;  0.0000000E+00;  1.6026424E-01;  6.4793823E+02;
  1.3350352E+00;  9.9999998E-03;  1.0127828E-02;8394;  3.8070843E-02;  0.0000000E+00;  1.7474205E-03;  9.9477057E+02;  4.9204102E-01; -4.3324346E+03;3; -3.7153439E+01;  0.0000000E+00; -1.1670673E+00;0;  1.9765267E-01;  1.6880763E+03;  0.0000000E+00;  3.6512399E-03;  4.0000000E+04;  0.0000000E+00;  3.8783703E+04;  3.7389033E-02;  0.0000000E+00;  1.6026363E-01;  6.4782935E+02;
  1.3350732E+00;  9.9999998E-03;  1.1831537E-07;8393;  3.8286891E-02;  0.0000000E+00;  1.5106372E-07;  9.9476575E+02;  4.9209434E-01; -4.3364346E+03;3; -3.7434402E+01;  0.0000000E+00;  3.7774444E-05;0;  2.0016468E-01;  1.6876697E+03;  0.0000000E+00;  2.0603717E-09;  4.0000000E+04;  0.0000000E+00;  3.8783977E+04;  3.8326792E-02;  0.0000000E+00;  1.6183788E-01;  6.9804565E+02;
  1.3834463E+00;  9.9999998E-03; -1.0169583E-01;8444;  1.3492052E-02;  0.0000000E+00; -2.6292438E-02;  9.9575421E+02;  5.2723020E-01; -3.5175200E+03;3; -2.1429255E+01;  0.0000000E+00;  1.7977648E+01;0;  7.6282299E-01;  1.4730312E+03;  0.0000000E+00; -1.5820378E-01;  4.0000000E+04;  0.0000000E+00;  3.8694082E+04;  6.2273163E-01;  0.0000000E+00;  1.4009134E-01;  2.0604436E+03;
  1.3837875E+00;  9.9999998E-03; -9.1494627E-02;8445;  1.6285468E-02;  0.0000000E+00; -2.5736380E-02;  9.9555554E+02;  5.2769798E-01; -3.6821047E+03;3; -2.3691957E+01;  0.0000000E+00;  1.9109562E+01;0;  8.1468016E-01;  1.4703433E+03;  0.0000000E+00; -7.3343225E-02;  4.0000000E+04;  0.0000000E+00;  3.8689105E+04;  6.4485759E-01;  0.0000000E+00;  1.6982257E-01;  2.6981741E+03;
  1.3840944E+00;  9.9999998E-03; -8.1282191E-02;8446;  1.9023960E-02;  0.0000000E+00; -2.5165616E-02;  9.9534930E+02;  5.2816689E-01; -3.8529609E+03;3; -2.6145788E+01;  0.0000000E+00;  2.0050564E+01;0;  8.6775380E-01;  1.4676508E+03;  0.0000000E+00; -3.1893321E-03;  4.0000000E+04;  0.0000000E+00;  3.8683285E+04;  6.6647959E-01;  0.0000000E+00;  2.0127423E-01;  3.2602341E+03;
  1.3844411E+00;  9.9999998E-03; -7.1080595E-02;8447;  2.1570580E-02;  0.0000000E+00; -2.4031200E-02;  9.9517053E+02;  5.2868634E-01; -4.0010525E+03;3; -2.8331757E+01;  0.0000000E+00;  1.9218889E+01;0;  9.2175716E-01;  1.4646406E+03;  0.0000000E+00;  4.6715677E-02;  4.0000000E+04;  0.0000000E+00;  3.8678129E+04;  6.8842846E-01;  0.0000000E+00;  2.3332871E-01;  3.6512725E+03;
  1.3847787E+00;  9.9999998E-03; -6.0894180E-02;8448;  2.3827221E-02;  0.0000000E+00; -2.2227166E-02;  9.9505817E+02;  5.2918673E-01; -4.0941345E+03;3; -3.0184027E+01;  0.0000000E+00;  1.7055475E+01;0;  9.7303861E-01;  1.4617551E+03;  0.0000000E+00;  7.3429428E-02;  4.0000000E+04;  0.0000000E+00;  3.8674871E+04;  7.0853168E-01;  0.0000000E+00;  2.6450694E-01;  3.8247419E+03;
  1.3847786E+00;  9.9999998E-03;  6.0894463E-02;8460;  2.3827387E-02;  0.0000000E+00;  2.2227272E-02;  9.9505835E+02;  5.2918404E-01; -4.0939863E+03;3; -3.0184015E+01;  0.0000000E+00; -1.7055483E+01;0;  9.7303540E-01;  1.4617561E+03;  0.0000000E+00;  7.3387392E-02;  4.0000000E+04;  0.0000000E+00;  3.8674879E+04;  7.0852917E-01;  0.0000000E+00;  2.6450622E-01;  3.8247312E+03;
  1.3851103E+00;  9.9999998E-03; -5.0725590E-02;8449;  2.5774255E-02;  0.0000000E+00; -1.9649098E-02;  9.9498944E+02;  5.2965587E-01; -4.1510703E+03;3; -3.2045971E+01;  0.0000000E+00;  1.4003214E+01;0;  1.0198030E+00;  1.4590441E+03;  0.0000000E+00;  7.8233458E-02;  4.0000000E+04;  0.0000000E+00;  3.8673230E+04;  7.2631633E-01;  0.0000000E+00;  2.9348665E-01;  3.7991438E+03;
  1.3851103E+00;  9.9999998E-03;  5.0725874E-02;8459;  2.5774390E-02;  0.0000000E+00;  1.9649278E-02;  9.9498962E+02;  5.2965319E-01; -4.1509219E+03;3; -3.2045895E+01;  0.0000000E+00; -1.4003204E+01;0;  1.0198026E+00;  1.4590437E+03;  0.0000000E+00;  7.8204013E-02;  4.0000000E+04;  0.0000000E+00;  3.8673211E+04;  7.2631633E-01;  0.0000000E+00;  2.9348627E-01;  3.7992480E+03;
  1.3854315E+00;  9.9999998E-03; -4.0572271E-02;8450;  2.7422870E-02;  0.0000000E+00; -1.6504357E-02;  9.9498328E+02;  5.3008282E-01; -4.1562051E+03;3; -3.3890743E+01;  0.0000000E+00;  1.0903939E+01;0;  1.0605867E+00;  1.4565817E+03;  0.0000000E+00;  6.6357881E-02;  4.0000000E+04;  0.0000000E+00;  3.8672617E+04;  7.4147820E-01;  0.0000000E+00;  3.1910846E-01;  3.6407974E+03;
  1.3854316E+00;  9.9999998E-03;  4.0572558E-02;8458;  2.7422957E-02;  0.0000000E+00;  1.6504586E-02;  9.9498309E+02;  5.3008217E-01; -4.1563530E+03;3; -3.3890675E+01;  0.0000000E+00; -1.0903896E+01;0;  1.0605892E+00;  1.4565802E+03;  0.0000000E+00;  6.6334836E-02;  4.0000000E+04;  0.0000000E+00;  3.8672605E+04;  7.4148071E-01;  0.0000000E+00;  3.1910852E-01;  3.6409277E+03;
  1.3856958E+00;  9.9999998E-03; -3.0426404E-02;8451;  2.8734988E-02;  0.0000000E+00; -1.2918291E-02;  9.9501178E+02;  5.3042603E-01; -4.1325518E+03;3; -3.5405186E+01;  0.0000000E+00;  8.0364971E+00;0;  1.0931947E+00;  1.4546212E+03;  0.0000000E+00;  4.5300480E-02;  4.0000000E+04;  0.0000000E+00;  3.8673508E+04;  7.5298911E-01;  0.0000000E+00;  3.4020561E-01;  3.4311199E+03;
  1.3856957E+00;  9.9999998E-03;  3.0426688E-02;8457;  2.8735131E-02;  0.0000000E+00;  1.2918504E-02;  9.9501208E+02;  5.3042519E-01; -4.1323047E+03;3; -3.5405125E+01;  0.0000000E+00; -8.0363655E+00;0;  1.0931926E+00;  1.4546227E+03;  0.0000000E+00;  4.5286316E-02;  4.0000000E+04;  0.0000000E+00;  3.8673508E+04;  7.5298733E-01;  0.0000000E+00;  3.4020519E-01;  3.4314014E+03;
  1.3858584E+00;  9.9999998E-03; -2.0283420E-02;8452;  2.9684337E-02;  0.0000000E+00; -8.9189801E-03;  9.9504559E+02;  5.3063631E-01; -4.1045527E+03;3; -3.6622948E+01;  0.0000000E+00;  5.2450423E+00;0;  1.1158888E+00;  1.4534144E+03;  0.0000000E+00;  2.2947801E-02;  4.0000000E+04;  0.0000000E+00;  3.8674328E+04;  7.6012194E-01;  0.0000000E+00;  3.5576689E-01;  3.2426123E+03;
  1.3858582E+00;  9.9999998E-03;  2.0283697E-02;8456;  2.9684480E-02;  0.0000000E+00;  8.9190435E-03;  9.9504596E+02;  5.3063291E-01; -4.1042563E+03;3; -3.6622917E+01;  0.0000000E+00; -5.2448168E+00;0;  1.1158829E+00;  1.4534149E+03;  0.0000000E+00;  2.2938710E-02;  4.0000000E+04;  0.0000000E+00;  3.8674324E+04;  7.6011682E-01;  0.0000000E+00;  3.5576606E-01;  3.2428010E+03;
  1.3859400E+00;  9.9999998E-03; -1.0142138E-02;8453;  3.0251017E-02;  0.0000000E+00; -4.5643430E-03;  9.9506311E+02;  5.3073663E-01; -4.0900347E+03;3; -3.7401642E+01;  0.0000000E+00;  2.5743704E+00;0;  1.1290706E+00;  1.4527953E+03;  0.0000000E+00;  6.2010940E-03;  4.0000000E+04;  0.0000000E+00;  3.8675012E+04;  7.6379496E-01;  0.0000000E+00;  3.6527568E-01;  3.1198884E+03;
  1.3859395E+00;  9.9999998E-03;  1.0142406E-02;8455;  3.0251246E-02;  0.0000000E+00;  4.5642550E-03;  9.9506415E+02;  5.3073257E-01; -4.0891951E+03;3; -3.7401676E+01;  0.0000000E+00; -2.5740507E+00;0;  1.1290566E+00;  1.4527969E+03;  0.0000000E+00;  6.1966865E-03;  4.0000000E+04;  0.0000000E+00;  3.8675008E+04;  7.6378316E-01;  0.0000000E+00;  3.6527339E-01;  3.1201011E+03;
  1.3859634E+00;  9.9999998E-03;  1.3299912E-07;8454;  3.0438563E-02;  0.0000000E+00; -8.5394412E-08;  9.9507001E+02;  5.3076828E-01; -4.0843560E+03;3; -3.7841045E+01;  0.0000000E+00;  9.7961107E-05;0;  1.1333652E+00;  1.4526057E+03;  0.0000000E+00;  1.2478069E-09;  4.0000000E+04;  0.0000000E+00;  3.8675312E+04;  7.6489466E-01;  0.0000000E+00;  3.6847046E-01;  3.0783384E+03;
  1.4387516E+00;  9.9999998E-03; -1.0187382E-01;8505;  4.2927008E-02;  0.0000000E+00; -6.1123557E-02;  1.0049006E+03;  5.5098104E-01;  4.0598760E+03;3; -4.8405132E+01;  0.0000000E+00;  2.1895203E+01;0;  2.9889364E+00;  1.3750854E+03;  0.0000000E+00;  4.0638256E-01;  4.0000000E+04;  0.0000000E+00;  3.8599086E+04;  2.6581998E+00;  0.0000000E+00;  3.3073658E-01;  6.7775415E+03;
  1.4390914E+00;  9.9999998E-03; -9.1703899E-02;8506;  5.7670593E-02;  0.0000000E+00; -6.0089242E-02;  1.0049165E+03;  5.5131906E-01;  4.0731086E+03;3; -4.5028332E+01;  0.0000000E+00;  5.5712438E+00;0;  2.9496748E+00;  1.3736676E+03;  0.0000000E+00;  3.8298002E-01;  4.0000000E+04;  0.0000000E+00;  3.8598430E+04;  2.5742085E+00;  0.0000000E+00;  3.7546632E-01;  6.6833828E+03;
  1.4395020E+00;  9.9999998E-03; -8.1516214E-02;8507;  7.0306450E-02;  0.0000000E+00; -5.3537007E-02;  1.0049018E+03;  5.5169892E-01;  4.0608621E+03;3; -4.1843971E+01;  0.0000000E+00; -2.4964020E+00;0;  2.9176543E+00;  1.3719493E+03;  0.0000000E+00;  3.4185123E-01;  4.0000000E+04;  0.0000000E+00;  3.8596004E+04;  2.4978554E+00;  0.0000000E+00;  4.1979888E-01;  6.7374521E+03;
  1.4399132E+00;  9.9999998E-03; -7.1316592E-02;8508;  8.0311954E-02;  0.0000000E+00; -4.6873234E-02;  1.0048911E+03;  5.5205572E-01;  4.0520713E+03;3; -3.8908665E+01;  0.0000000E+00; -1.9924021E+00;0;  2.8902025E+00;  1.3702329E+03;  0.0000000E+00;  2.8977320E-01;  4.0000000E+04;  0.0000000E+00;  3.8593984E+04;  2.4275231E+00;  0.0000000E+00;  4.6267939E-01;  6.8130801E+03;
  1.4403248E+00;  9.9999998E-03; -6.1110999E-02;8509;  8.8097781E-02;  0.0000000E+00; -4.0734161E-02;  1.0048904E+03;  5.5238050E-01;  4.0514780E+03;3; -3.6331753E+01;  0.0000000E+00; -1.6583433E+00;0;  2.8670404E+00;  1.3685990E+03;  0.0000000E+00;  2.3153301E-01;  4.0000000E+04;  0.0000000E+00;  3.8593094E+04;  2.3643050E+00;  0.0000000E+00;  5.0273538E-01;  6.7885654E+03;
  1.4403249E+00;  9.9999998E-03;  6.1111305E-02;8521;  8.8098079E-02;  0.0000000E+00;  4.0734157E-02;  1.0048901E+03;  5.5238426E-01;  4.0511816E+03;3; -3.6331585E+01;  0.0000000E+00;  1.6583730E+00;0;  2.8670442E+00;  1.3685983E+03;  0.0000000E+00;  2.3152773E-01;  4.0000000E+04;  0.0000000E+00;  3.8593090E+04;  2.3643103E+00;  0.0000000E+00;  5.0273401E-01;  6.7886079E+03;
  1.4406896E+00;  9.9999998E-03; -5.0906699E-02;8510;  9.3713090E-02;  0.0000000E+00; -3.4850392E-02;  1.0049156E+03;  5.5263579E-01;  4.0723149E+03;3; -3.4230274E+01;  0.0000000E+00; -1.4344571E+00;0;  2.8468935E+00;  1.3672200E+03;  0.0000000E+00;  1.7192106E-01;  4.0000000E+04;  0.0000000E+00;  3.8593523E+04;  2.3082707E+00;  0.0000000E+00;  5.3862292E-01;  6.6110771E+03;
  1.4406894E+00;  9.9999998E-03;  5.0907005E-02;8520;  9.3712777E-02;  0.0000000E+00;  3.4850460E-02;  1.0049160E+03;  5.5263609E-01;  4.0726111E+03;3; -3.4230331E+01;  0.0000000E+00;  1.4346232E+00;0;  2.8468945E+00;  1.3672196E+03;  0.0000000E+00;  1.7191742E-01;  4.0000000E+04;  0.0000000E+00;  3.8593508E+04;  2.3082731E+00;  0.0000000E+00;  5.3862137E-01;  6.6112480E+03;
  1.4409859E+00;  9.9999998E-03; -4.0707678E-02;8511;  9.7448431E-02;  0.0000000E+00; -2.8970987E-02;  1.0049598E+03;  5.5281931E-01;  4.1089536E+03;3; -3.2628311E+01;  0.0000000E+00; -1.2432497E+00;0;  2.8296857E+00;  1.3661696E+03;  0.0000000E+00;  1.1578771E-01;  4.0000000E+04;  0.0000000E+00;  3.8595266E+04;  2.2603219E+00;  0.0000000E+00;  5.6936377E-01;  6.3037686E+03;
  1.4409859E+00;  9.9999998E-03;  4.0707983E-02;8519;  9.7448364E-02;  0.0000000E+00;  2.8970953E-02;  1.0049598E+03;  5.5281854E-01;  4.1089536E+03;3; -3.2628330E+01;  0.0000000E+00;  1.2434424E+00;0;  2.8296859E+00;  1.3661696E+03;  0.0000000E+00;  1.1579058E-01;  4.0000000E+04;  0.0000000E+00;  3.8595281E+04;  2.2603230E+00;  0.0000000E+00;  5.6936282E-01;  6.3039316E+03;
  1.4411981E+00;  9.9999998E-03; -3.0519193E-02;8512;  9.9582754E-02;  0.0000000E+00; -2.2778923E-02;  1.0050067E+03;  5.5292612E-01;  4.1477651E+03;3; -3.1517952E+01;  0.0000000E+00; -1.0192429E+00;0;  2.8155270E+00;  1.3654363E+03;  0.0000000E+00;  6.7565233E-02;  4.0000000E+04;  0.0000000E+00;  3.8597469E+04;  2.2213914E+00;  0.0000000E+00;  5.9413564E-01;  5.9475229E+03;
  1.4411981E+00;  9.9999998E-03;  3.0519497E-02;8518;  9.9583246E-02;  0.0000000E+00;  2.2778885E-02;  1.0050070E+03;  5.5292660E-01;  4.1479629E+03;3; -3.1517759E+01;  0.0000000E+00;  1.0194974E+00;0;  2.8155277E+00;  1.3654358E+03;  0.0000000E+00;  6.7568973E-02;  4.0000000E+04;  0.0000000E+00;  3.8597469E+04;  2.2213931E+00;  0.0000000E+00;  5.9413463E-01;  5.9476494E+03;
  1.4413155E+00;  9.9999998E-03; -2.0340489E-02;8513;  1.0040296E-01;  0.0000000E+00; -1.5685892E-02;  1.0050449E+03;  5.5297297E-01;  4.1793677E+03;3; -3.0868660E+01;  0.0000000E+00; -7.3082709E-01;0;  2.8045080E+00;  1.3650299E+03;  0.0000000E+00;  3.0766621E-02;  4.0000000E+04;  0.0000000E+00;  3.8599895E+04;  2.1922781E+00;  0.0000000E+00;  6.1222976E-01;  5.6313867E+03;
  1.4413546E+00;  9.9999998E-03; -1.0169118E-02;8514;  1.0051625E-01;  0.0000000E+00; -8.0096321E-03;  1.0050657E+03;  5.5298263E-01;  4.1966504E+03;3; -3.0585487E+01;  0.0000000E+00; -3.8218427E-01;0;  2.7972019E+00;  1.3648757E+03;  0.0000000E+00;  7.7965241E-03;  4.0000000E+04;  0.0000000E+00;  3.8601402E+04;  2.1739967E+00;  0.0000000E+00;  6.2320518E-01;  5.4217334E+03;
  1.4413548E+00;  9.9999998E-03;  1.0169424E-02;8516;  1.0051703E-01;  0.0000000E+00;  8.0098500E-03;  1.0050660E+03;  5.5298233E-01;  4.1969468E+03;3; -3.0585184E+01;  0.0000000E+00;  3.8252297E-01;0;  2.7972050E+00;  1.3648757E+03;  0.0000000E+00;  7.7995807E-03;  4.0000000E+04;  0.0000000E+00;  3.8601406E+04;  2.1739995E+00;  0.0000000E+00;  6.2320530E-01;  5.4217866E+03;
  1.4413155E+00;  9.9999998E-03;  2.0340793E-02;8517;  1.0040338E-01;  0.0000000E+00;  1.5685923E-02;  1.0050444E+03;  5.5297452E-01;  4.1790713E+03;3; -3.0868557E+01;  0.0000000E+00;  7.3110539E-01;0;  2.8045092E+00;  1.3650292E+03;  0.0000000E+00;  3.0770868E-02;  4.0000000E+04;  0.0000000E+00;  3.8599898E+04;  2.1922798E+00;  0.0000000E+00;  6.1222941E-01;  5.6315352E+03;
  1.4413593E+00;  9.9999998E-03;  1.5250274E-07;8515;  1.0047019E-01;  0.0000000E+00;  1.0433535E-07;  1.0050729E+03;  5.5298120E-01;  4.2025762E+03;3; -3.0517578E+01;  0.0000000E+00;  1.6665402E-04;0;  2.7945898E+00;  1.3648446E+03;  0.0000000E+00;  1.5525955E-09;  4.0000000E+04;  0.0000000E+00;  3.8601953E+04;  2.1677146E+00;  0.0000000E+00;  6.2687510E-01;  5.3493467E+03;
  1.4945453E+00;  9.9999998E-03; -8.1537776E-02;8568;  3.4865838E-01;  0.0000000E+00; -7.5707115E-02;  1.0028837E+03;  5.2670103E-01;  2.3888545E+03;3;  7.5424599E+01;  0.0000000E+00; -4.9936333E+00;0;  2.9082642E+00;  1.4969962E+03;  0.0000000E+00;  3.3579260E-01;  4.0000000E+04;  0.0000000E+00;  3.8614711E+04;  2.3313591E+00;  0.0000000E+00;  5.7690507E-01;  3.3879502E+03;
  1.4953430E+00;  9.9999998E-03; -6.1179109E-02;8570;  3.3201000E-01;  0.0000000E+00; -5.7418581E-02;  1.0027645E+03;  5.2693492E-01;  2.2900984E+03;3;  8.1205399E+01;  0.0000000E+00; -3.6150639E+00;0;  2.7140613E+00;  1.4948964E+03;  0.0000000E+00;  2.2708961E-01;  4.0000000E+04;  0.0000000E+00;  3.8615812E+04;  2.0867193E+00;  0.0000000E+00;  6.2734210E-01;  2.3965979E+03;
  1.4953430E+00;  9.9999998E-03;  6.1179444E-02;8582;  3.3201069E-01;  0.0000000E+00;  5.7419620E-02;  1.0027651E+03;  5.2693367E-01;  2.2905923E+03;3;  8.1205002E+01;  0.0000000E+00;  3.6151643E+00;0;  2.7140646E+00;  1.4948961E+03;  0.0000000E+00;  2.2711544E-01;  4.0000000E+04;  0.0000000E+00;  3.8615801E+04;  2.0867245E+00;  0.0000000E+00;  6.2733996E-01;  2.3966575E+03;
  1.4949356E+00;  9.9999998E-03; -7.1369842E-02;8569;  3.4000573E-01;  0.0000000E+00; -6.6853628E-02;  1.0028080E+03;  5.2685046E-01;  2.3261448E+03;3;  7.8625008E+01;  0.0000000E+00; -4.3345208E+00;0;  2.8057144E+00;  1.4957788E+03;  0.0000000E+00;  2.8474894E-01;  4.0000000E+04;  0.0000000E+00;  3.8615777E+04;  2.2024183E+00;  0.0000000E+00;  6.0329604E-01;  2.7719673E+03;
  1.4943316E+00;  9.9999998E-03; -9.1682121E-02;8567;  3.5782337E-01;  0.0000000E+00; -8.3732426E-02;  1.0029966E+03;  5.2646714E-01;  2.4823750E+03;3;  7.1806694E+01;  0.0000000E+00; -5.4337778E+00;0;  3.0156152E+00;  1.4986600E+03;  0.0000000E+00;  3.7373948E-01;  4.0000000E+04;  0.0000000E+00;  3.8613191E+04;  2.4664409E+00;  0.0000000E+00;  5.4917425E-01;  4.2082295E+03;
  1.4957119E+00;  9.9999998E-03; -5.0972126E-02;8571;  3.2487878E-01;  0.0000000E+00; -4.7629423E-02;  1.0027474E+03;  5.2695733E-01;  2.2759753E+03;3;  8.3120750E+01;  0.0000000E+00; -2.9510672E+00;0;  2.6355133E+00;  1.4942997E+03;  0.0000000E+00;  1.6863267E-01;  4.0000000E+04;  0.0000000E+00;  3.8616750E+04;  1.9871756E+00;  0.0000000E+00;  6.4833784E-01;  2.1540801E+03;
  1.4957118E+00;  9.9999998E-03;  5.0972451E-02;8581;  3.2487926E-01;  0.0000000E+00;  4.7630418E-02;  1.0027476E+03;  5.2695841E-01;  2.2761729E+03;3;  8.3120316E+01;  0.0000000E+00;  2.9511316E+00;0;  2.6355190E+00;  1.4942992E+03;  0.0000000E+00;  1.6865531E-01;  4.0000000E+04;  0.0000000E+00;  3.8616723E+04;  1.9871818E+00;  0.0000000E+00;  6.4833719E-01;  2.1542222E+03;
  1.4960464E+00;  9.9999998E-03; -4.0760159E-02;8572;  3.1876090E-01;  0.0000000E+00; -3.7682988E-02;  1.0027502E+03;  5.2692544E-01;  2.2783445E+03;3;  8.4608932E+01;  0.0000000E+00; -2.2182593E+00;0;  2.5701466E+00;  1.4939896E+03;  0.0000000E+00;  1.1396520E-01;  4.0000000E+04;  0.0000000E+00;  3.8617918E+04;  1.9043739E+00;  0.0000000E+00;  6.6577280E-01;  1.9384070E+03;
  1.4960463E+00;  9.9999998E-03;  4.0760476E-02;8580;  3.1876129E-01;  0.0000000E+00;  3.7683867E-02;  1.0027504E+03;  5.2692318E-01;  2.2784434E+03;3;  8.4608482E+01;  0.0000000E+00;  2.2183306E+00;0;  2.5701523E+00;  1.4939890E+03;  0.0000000E+00;  1.1398778E-01;  4.0000000E+04;  0.0000000E+00;  3.8617938E+04;  1.9043806E+00;  0.0000000E+00;  6.6577160E-01;  1.9386547E+03;
  1.4943746E+00;  9.9999998E-03; -1.0180680E-01;8566;  3.6752260E-01;  0.0000000E+00; -9.0671629E-02;  1.0031518E+03;  5.2617317E-01;  2.6109526E+03;3;  6.7838692E+01;  0.0000000E+00; -5.6584158E+00;0;  3.1238351E+00;  1.5007642E+03;  0.0000000E+00;  3.9409423E-01;  4.0000000E+04;  0.0000000E+00;  3.8609684E+04;  2.6024899E+00;  0.0000000E+00;  5.2134520E-01;  5.0670146E+03;
  1.4963176E+00;  9.9999998E-03; -3.0554373E-02;8573;  3.1391081E-01;  0.0000000E+00; -2.7865047E-02;  1.0027641E+03;  5.2686888E-01;  2.2897991E+03;3;  8.5509499E+01;  0.0000000E+00; -1.5570916E+00;0;  2.5189807E+00;  1.4938630E+03;  0.0000000E+00;  6.6897906E-02;  4.0000000E+04;  0.0000000E+00;  3.8619367E+04;  1.8395772E+00;  0.0000000E+00;  6.7940360E-01;  1.7342482E+03;
  1.4963177E+00;  9.9999998E-03;  3.0554695E-02;8579;  3.1391123E-01;  0.0000000E+00;  2.7865864E-02;  1.0027642E+03;  5.2686995E-01;  2.2898977E+03;3;  8.5509178E+01;  0.0000000E+00;  1.5571928E+00;0;  2.5189781E+00;  1.4938633E+03;  0.0000000E+00;  6.6913053E-02;  4.0000000E+04;  0.0000000E+00;  3.8619375E+04;  1.8395758E+00;  0.0000000E+00;  6.7940247E-01;  1.7343770E+03;
  1.4964939E+00;  9.9999998E-03; -2.0360917E-02;8574;  3.1042150E-01;  0.0000000E+00; -1.8342789E-02;  1.0027799E+03;  5.2680624E-01;  2.3029326E+03;3;  8.6222435E+01;  0.0000000E+00; -9.9248970E-01;0;  2.4830649E+00;  1.4938407E+03;  0.0000000E+00;  3.0660378E-02;  4.0000000E+04;  0.0000000E+00;  3.8620438E+04;  1.7938768E+00;  0.0000000E+00;  6.8918812E-01;  1.5729420E+03;
  1.4964939E+00;  9.9999998E-03;  2.0361237E-02;8578;  3.1042176E-01;  0.0000000E+00;  1.8343555E-02;  1.0027799E+03;  5.2680779E-01;  2.3029326E+03;3;  8.6222176E+01;  0.0000000E+00;  9.9259442E-01;0;  2.4830637E+00;  1.4938408E+03;  0.0000000E+00;  3.0670395E-02;  4.0000000E+04;  0.0000000E+00;  3.8620438E+04;  1.7938764E+00;  0.0000000E+00;  6.8918717E-01;  1.5730302E+03;
  1.4965737E+00;  9.9999998E-03; -1.0178344E-02;8575;  3.0832124E-01;  0.0000000E+00; -9.1474000E-03;  1.0027903E+03;  5.2676678E-01;  2.3115239E+03;3;  8.6668930E+01;  0.0000000E+00; -4.2056221E-01;0;  2.4623981E+00;  1.4938438E+03;  0.0000000E+00;  7.8096562E-03;  4.0000000E+04;  0.0000000E+00;  3.8621113E+04;  1.7672796E+00;  0.0000000E+00;  6.9511837E-01;  1.4776995E+03;
  1.4965950E+00;  9.9999998E-03;  1.5916631E-07;8576;  3.0761212E-01;  0.0000000E+00;  3.4289775E-07;  1.0027959E+03;  5.2675492E-01;  2.3161653E+03;3;  8.6565956E+01;  0.0000000E+00;  2.9805264E-05;0;  2.4556859E+00;  1.4938367E+03;  0.0000000E+00;  4.6137238E-10;  4.0000000E+04;  0.0000000E+00;  3.8621348E+04;  1.7585769E+00;  0.0000000E+00;  6.9710898E-01;  1.4470206E+03;
  1.4965740E+00;  9.9999998E-03;  1.0178667E-02;8577;  3.0832148E-01;  0.0000000E+00;  9.1481060E-03;  1.0027906E+03;  5.2677017E-01;  2.3117214E+03;3;  8.6668976E+01;  0.0000000E+00;  4.2063007E-01;0;  2.4623897E+00;  1.4938441E+03;  0.0000000E+00;  7.8143282E-03;  4.0000000E+04;  0.0000000E+00;  3.8621117E+04;  1.7672720E+00;  0.0000000E+00;  6.9511771E-01;  1.4776641E+03;
  1.5445169E+00;  9.9999998E-03; -8.1472822E-02;8629;  3.5271198E-01;  0.0000000E+00; -4.0782813E-02;  1.0006294E+03;  4.8223007E-01;  5.2136810E+02;3;  8.2819191E+01;  0.0000000E+00; -1.1108418E+01;0;  9.8903692E-01;  1.7723082E+03;  0.0000000E+00;  2.6833269E-01;  4.0000000E+04;  0.0000000E+00;  3.8703746E+04;  5.7445329E-01;  0.0000000E+00;  4.1458359E-01;  7.8673398E+03;
  1.5444777E+00;  9.9999998E-03; -9.1572508E-02;8628;  3.6396927E-01;  0.0000000E+00; -4.5621887E-02;  1.0010360E+03;  4.8194543E-01;  8.5818384E+02;3;  8.0868805E+01;  0.0000000E+00; -1.2687248E+01;0;  1.0396956E+00;  1.7758087E+03;  0.0000000E+00;  2.8069702E-01;  4.0000000E+04;  0.0000000E+00;  3.8700137E+04;  6.2978894E-01;  0.0000000E+00;  4.0990669E-01;  7.5105410E+03;
  1.5447713E+00;  9.9999998E-03; -7.1343273E-02;8630;  3.4248844E-01;  0.0000000E+00; -3.5673708E-02;  1.0003267E+03;  4.8237959E-01;  2.7065698E+02;3;  8.4660469E+01;  0.0000000E+00; -9.5137978E+00;0;  9.3830276E-01;  1.7700123E+03;  0.0000000E+00;  2.4924430E-01;  4.0000000E+04;  0.0000000E+00;  3.8704719E+04;  5.1966512E-01;  0.0000000E+00;  4.1863760E-01;  7.9386743E+03;
  1.5447646E+00;  9.9999998E-03; -1.0165460E-01;8627;  3.7618339E-01;  0.0000000E+00; -5.0022773E-02;  1.0015734E+03;  4.8150384E-01;  1.3032218E+03;3;  7.8988365E+01;  0.0000000E+00; -1.4184982E+01;0;  1.0858479E+00;  1.7806973E+03;  0.0000000E+00;  2.9981825E-01;  4.0000000E+04;  0.0000000E+00;  3.8693316E+04;  6.8095702E-01;  0.0000000E+00;  4.0489078E-01;  6.7688970E+03;
  1.5451488E+00;  9.9999998E-03; -6.1180897E-02;8631;  3.3333564E-01;  0.0000000E+00; -3.0356770E-02;  1.0001188E+03;  4.8241618E-01;  9.8447548E+01;3;  8.6037331E+01;  0.0000000E+00; -8.1726437E+00;0;  8.9081788E-01;  1.7686893E+03;  0.0000000E+00;  2.1863662E-01;  4.0000000E+04;  0.0000000E+00;  3.8703461E+04;  4.6896303E-01;  0.0000000E+00;  4.2185482E-01;  7.7931152E+03;
  1.5451488E+00;  9.9999998E-03;  6.1181232E-02;8643;  3.3333609E-01;  0.0000000E+00;  3.0357096E-02;  1.0001191E+03;  4.8241761E-01;  9.8645035E+01;3;  8.6036079E+01;  0.0000000E+00;  8.1725664E+00;0;  8.9081562E-01;  1.7686888E+03;  0.0000000E+00;  2.1864384E-01;  4.0000000E+04;  0.0000000E+00;  3.8703453E+04;  4.6896139E-01;  0.0000000E+00;  4.2185426E-01;  7.7930693E+03;
  1.5455099E+00;  9.9999998E-03; -5.0992124E-02;8632;  3.2539588E-01;  0.0000000E+00; -2.4994321E-02;  1.0000011E+03;  4.8239401E-01;  8.8869309E-01;3;  8.7063835E+01;  0.0000000E+00; -6.6303954E+00;0;  8.5077941E-01;  1.7679596E+03;  0.0000000E+00;  1.7730568E-01;  4.0000000E+04;  0.0000000E+00;  3.8700730E+04;  4.2616960E-01;  0.0000000E+00;  4.2460978E-01;  7.4651079E+03;
  1.5455098E+00;  9.9999998E-03;  5.0992459E-02;8642;  3.2539627E-01;  0.0000000E+00;  2.4994640E-02;  1.0000014E+03;  4.8239520E-01;  1.1849241E+00;3;  8.7063026E+01;  0.0000000E+00;  6.6302409E+00;0;  8.5077924E-01;  1.7679604E+03;  0.0000000E+00;  1.7731936E-01;  4.0000000E+04;  0.0000000E+00;  3.8700734E+04;  4.2616931E-01;  0.0000000E+00;  4.2460993E-01;  7.4648965E+03;
  1.5458316E+00;  9.9999998E-03; -4.0791769E-02;8633;  3.1877512E-01;  0.0000000E+00; -1.9619478E-02;  9.9993774E+02;  4.8233187E-01; -5.1544151E+01;3;  8.8325073E+01;  0.0000000E+00; -5.0584641E+00;0;  8.1846440E-01;  1.7676841E+03;  0.0000000E+00;  1.2946452E-01;  4.0000000E+04;  0.0000000E+00;  3.8696945E+04;  3.9172512E-01;  0.0000000E+00;  4.2673928E-01;  7.0278657E+03;
  1.5458317E+00;  9.9999998E-03;  4.0792104E-02;8641;  3.1877542E-01;  0.0000000E+00;  1.9619728E-02;  9.9993768E+02;  4.8233047E-01; -5.1642895E+01;3;  8.8324455E+01;  0.0000000E+00;  5.0582533E+00;0;  8.1846023E-01;  1.7676846E+03;  0.0000000E+00;  1.2947632E-01;  4.0000000E+04;  0.0000000E+00;  3.8696941E+04;  3.9172187E-01;  0.0000000E+00;  4.2673832E-01;  7.0278315E+03;
  1.5461190E+00;  9.9999998E-03; -3.0590110E-02;8634;  3.1353885E-01;  0.0000000E+00; -1.4454146E-02;  9.9991461E+02;  4.8223680E-01; -7.0749718E+01;3;  8.9350876E+01;  0.0000000E+00; -3.8553724E+00;0;  7.9320073E-01;  1.7677394E+03;  0.0000000E+00;  8.1050292E-02;  4.0000000E+04;  0.0000000E+00;  3.8693105E+04;  3.6514258E-01;  0.0000000E+00;  4.2805812E-01;  6.5694077E+03;
  1.5461189E+00;  9.9999998E-03;  3.0590439E-02;8640;  3.1353915E-01;  0.0000000E+00;  1.4454450E-02;  9.9991516E+02;  4.8223948E-01; -7.0255997E+01;3;  8.9350418E+01;  0.0000000E+00;  3.8551111E+00;0;  7.9320037E-01;  1.7677396E+03;  0.0000000E+00;  8.1060253E-02;  4.0000000E+04;  0.0000000E+00;  3.8693125E+04;  3.6514243E-01;  0.0000000E+00;  4.2805797E-01;  6.5692832E+03;
  1.5463513E+00;  9.9999998E-03; -2.0391706E-02;8635;  3.0977735E-01;  0.0000000E+00; -9.5221149E-03;  9.9990161E+02;  4.8214057E-01; -8.1512711E+01;3;  9.0270187E+01;  0.0000000E+00; -2.5095646E+00;0;  7.7499807E-01;  1.7679412E+03;  0.0000000E+00;  3.8995676E-02;  4.0000000E+04;  0.0000000E+00;  3.8689918E+04;  3.4628746E-01;  0.0000000E+00;  4.2871058E-01;  6.1676479E+03;
  1.5463513E+00;  9.9999998E-03;  2.0392030E-02;8639;  3.0977753E-01;  0.0000000E+00;  9.5223943E-03;  9.9990088E+02;  4.8214313E-01; -8.2105171E+01;3;  9.0269966E+01;  0.0000000E+00;  2.5092688E+00;0;  7.7499676E-01;  1.7679409E+03;  0.0000000E+00;  3.9002743E-02;  4.0000000E+04;  0.0000000E+00;  3.8689926E+04;  3.4628636E-01;  0.0000000E+00;  4.2871043E-01;  6.1675479E+03;
  1.5464983E+00;  9.9999998E-03; -1.0195814E-02;8636;  3.0750889E-01;  0.0000000E+00; -4.7103870E-03;  9.9990228E+02;  4.8207459E-01; -8.0920204E+01;3;  9.0685760E+01;  0.0000000E+00; -1.3526164E+00;0;  7.6414382E-01;  1.7681251E+03;  0.0000000E+00;  1.0236673E-02;  4.0000000E+04;  0.0000000E+00;  3.8687656E+04;  3.3514699E-01;  0.0000000E+00;  4.2899683E-01;  5.8899951E+03;
  1.5464984E+00;  9.9999998E-03;  1.0196143E-02;8638;  3.0750895E-01;  0.0000000E+00;  4.7106794E-03;  9.9990234E+02;  4.8207554E-01; -8.0870834E+01;3;  9.0685768E+01;  0.0000000E+00;  1.3523175E+00;0;  7.6413840E-01;  1.7681245E+03;  0.0000000E+00;  1.0239939E-02;  4.0000000E+04;  0.0000000E+00;  3.8687652E+04;  3.3514312E-01;  0.0000000E+00;  4.2899528E-01;  5.8900059E+03;
  1.5465444E+00;  9.9999998E-03;  1.6366425E-07;8637;  3.0669668E-01;  0.0000000E+00;  1.4820526E-07;  9.9989795E+02;  4.8205531E-01; -8.4524330E+01;3;  9.0789665E+01;  0.0000000E+00; -1.2349337E-04;0;  7.6065129E-01;  1.7681876E+03;  0.0000000E+00; -3.6247384E-11;  4.0000000E+04;  0.0000000E+00;  3.8686762E+04;  3.3154517E-01;  0.0000000E+00;  4.2910612E-01;  5.7894185E+03;
  1.5913478E+00;  9.9999998E-03; -9.1500558E-02;8689;  3.5670641E-01;  0.0000000E+00; -4.0253783E-03;  9.9337097E+02;  4.3354487E-01; -5.4899458E+03;3;  7.8969673E+01;  0.0000000E+00; -2.0864544E+01;0;  2.1703151E-01;  2.1564285E+03;  0.0000000E+00;  5.1766121E-01;  4.0000000E+04;  0.0000000E+00;  3.8763250E+04;  1.4521310E-01;  0.0000000E+00;  7.1818411E-02;  1.3871168E+04;
  1.5913749E+00;  9.9999998E-03; -8.1387959E-02;8690;  3.4500802E-01;  0.0000000E+00; -3.5186962E-03;  9.9264429E+02;  4.3375951E-01; -6.0917227E+03;3;  7.9991325E+01;  0.0000000E+00; -1.8911728E+01;0;  2.0298380E-01;  2.1514592E+03;  0.0000000E+00;  4.4214281E-01;  4.0000000E+04;  0.0000000E+00;  3.8768590E+04;  1.4488533E-01;  0.0000000E+00;  5.8098469E-02;  1.4592592E+04;
  1.5915970E+00;  9.9999998E-03; -1.0159452E-01;8688;  3.6948580E-01;  0.0000000E+00; -4.2280699E-03;  9.9434161E+02;  4.3317947E-01; -4.6860713E+03;3;  7.8265549E+01;  0.0000000E+00; -2.2544292E+01;0;  2.3373580E-01;  2.1636428E+03;  0.0000000E+00;  6.1315018E-01;  4.0000000E+04;  0.0000000E+00;  3.8755473E+04;  1.4785087E-01;  0.0000000E+00;  8.5884936E-02;  1.2775737E+04;
  1.5915684E+00;  9.9999998E-03; -7.1252190E-02;8691;  3.3437407E-01;  0.0000000E+00; -2.8197791E-03;  9.9214703E+02;  4.3387222E-01; -6.5035464E+03;3;  8.1379814E+01;  0.0000000E+00; -1.7074524E+01;0;  1.9192819E-01;  2.1482839E+03;  0.0000000E+00;  3.7202138E-01;  4.0000000E+04;  0.0000000E+00;  3.8770211E+04;  1.4688817E-01;  0.0000000E+00;  4.5040026E-02;  1.4874535E+04;
  1.5918000E+00;  9.9999998E-03; -6.1097197E-02;8692;  3.2490209E-01;  0.0000000E+00; -2.0974991E-03;  9.9187268E+02;  4.3392426E-01; -6.7307529E+03;3;  8.2650894E+01;  0.0000000E+00; -1.4926125E+01;0;  1.8367954E-01;  2.1463096E+03;  0.0000000E+00;  3.0139366E-01;  4.0000000E+04;  0.0000000E+00;  3.8768609E+04;  1.5032311E-01;  0.0000000E+00;  3.3356428E-02;  1.4728963E+04;
  1.5918000E+00;  9.9999998E-03;  6.1097536E-02;8704;  3.2490247E-01;  0.0000000E+00;  2.0974395E-03;  9.9187250E+02;  4.3392289E-01; -6.7309009E+03;3;  8.2650497E+01;  0.0000000E+00;  1.4926239E+01;0;  1.8367778E-01;  2.1463105E+03;  0.0000000E+00;  3.0141643E-01;  4.0000000E+04;  0.0000000E+00;  3.8768586E+04;  1.5032089E-01;  0.0000000E+00;  3.3356886E-02;  1.4729062E+04;
  1.5920566E+00;  9.9999998E-03; -5.0928663E-02;8693;  3.1664893E-01;  0.0000000E+00; -1.3879500E-03;  9.9176703E+02;  4.3392992E-01; -6.8182129E+03;3;  8.3949677E+01;  0.0000000E+00; -1.2343554E+01;0;  1.7797691E-01;  2.1453564E+03;  0.0000000E+00;  2.3042937E-01;  4.0000000E+04;  0.0000000E+00;  3.8764625E+04;  1.5505235E-01;  0.0000000E+00;  2.2924557E-02;  1.4250045E+04;
  1.5920566E+00;  9.9999998E-03;  5.0929014E-02;8703;  3.1664929E-01;  0.0000000E+00;  1.3878866E-03;  9.9176672E+02;  4.3393135E-01; -6.8184595E+03;3;  8.3949364E+01;  0.0000000E+00;  1.2343648E+01;0;  1.7797559E-01;  2.1453569E+03;  0.0000000E+00;  2.3044752E-01;  4.0000000E+04;  0.0000000E+00;  3.8764629E+04;  1.5505056E-01;  0.0000000E+00;  2.2925029E-02;  1.4250034E+04;
  1.5923364E+00;  9.9999998E-03; -4.0752057E-02;8694;  3.0973291E-01;  0.0000000E+00; -7.9466973E-04;  9.9178253E+02;  4.3388316E-01; -6.8053677E+03;3;  8.5450508E+01;  0.0000000E+00; -9.3364983E+00;0;  1.7449474E-01;  2.1452322E+03;  0.0000000E+00;  1.6158442E-01;  4.0000000E+04;  0.0000000E+00;  3.8759391E+04;  1.6086967E-01;  0.0000000E+00;  1.3625073E-02;  1.3573561E+04;
  1.5923364E+00;  9.9999998E-03;  4.0752411E-02;8702;  3.0973324E-01;  0.0000000E+00;  7.9462421E-04;  9.9178247E+02;  4.3388245E-01; -6.8054170E+03;3;  8.5450584E+01;  0.0000000E+00;  9.3365555E+00;0;  1.7449358E-01;  2.1452327E+03;  0.0000000E+00;  1.6160236E-01;  4.0000000E+04;  0.0000000E+00;  3.8759402E+04;  1.6086781E-01;  0.0000000E+00;  1.3625763E-02;  1.3573556E+04;
  1.5926315E+00;  9.9999998E-03; -3.0570757E-02;8695;  3.0426788E-01;  0.0000000E+00; -3.6586041E-04;  9.9186041E+02;  4.3379921E-01; -6.7408892E+03;3;  8.8082375E+01;  0.0000000E+00; -6.0865765E+00;0;  1.7284705E-01;  2.1457183E+03;  0.0000000E+00;  9.8639846E-02;  4.0000000E+04;  0.0000000E+00;  3.8753383E+04;  1.6734813E-01;  0.0000000E+00;  5.4989173E-03;  1.2849520E+04;
  1.5926315E+00;  9.9999998E-03;  3.0571114E-02;8701;  3.0426806E-01;  0.0000000E+00;  3.6578954E-04;  9.9186053E+02;  4.3380347E-01; -6.7407900E+03;3;  8.8082596E+01;  0.0000000E+00;  6.0867667E+00;0;  1.7284663E-01;  2.1457180E+03;  0.0000000E+00;  9.8652169E-02;  4.0000000E+04;  0.0000000E+00;  3.8753379E+04;  1.6734806E-01;  0.0000000E+00;  5.4985718E-03;  1.2849516E+04;
  1.5928953E+00;  9.9999998E-03; -2.0385373E-02;8696;  3.0026722E-01;  0.0000000E+00; -1.2846617E-04;  9.9195660E+02;  4.3370995E-01; -6.6612080E+03;3;  8.9840256E+01;  0.0000000E+00; -3.6419022E+00;0;  1.7241442E-01;  2.1464343E+03;  0.0000000E+00;  4.6821117E-02;  4.0000000E+04;  0.0000000E+00;  3.8748684E+04;  1.7336701E-01;  0.0000000E+00; -9.5259334E-04;  1.2215208E+04;
  1.5928954E+00;  9.9999998E-03;  2.0385722E-02;8700;  3.0026734E-01;  0.0000000E+00;  1.2838531E-04;  9.9195667E+02;  4.3370959E-01; -6.6611587E+03;3;  8.9839661E+01;  0.0000000E+00;  3.6420643E+00;0;  1.7241414E-01;  2.1464355E+03;  0.0000000E+00;  4.6830129E-02;  4.0000000E+04;  0.0000000E+00;  3.8748688E+04;  1.7336705E-01;  0.0000000E+00; -9.5291279E-04;  1.2215157E+04;
  1.5930626E+00;  9.9999998E-03; -1.0194918E-02;8697;  2.9782903E-01;  0.0000000E+00; -3.4517150E-05;  9.9202679E+02;  4.3364865E-01; -6.6030537E+03;3;  9.0644424E+01;  0.0000000E+00; -1.7509624E+00;0;  1.7243232E-01;  2.1469617E+03;  0.0000000E+00;  1.2217764E-02;  4.0000000E+04;  0.0000000E+00;  3.8745258E+04;  1.7740998E-01;  0.0000000E+00; -4.9776514E-03;  1.1781050E+04;
  1.5930626E+00;  9.9999998E-03;  1.0195254E-02;8699;  2.9782906E-01;  0.0000000E+00;  3.4420369E-05;  9.9202747E+02;  4.3364856E-01; -6.6025107E+03;3;  9.0644379E+01;  0.0000000E+00;  1.7510098E+00;0;  1.7243257E-01;  2.1469622E+03;  0.0000000E+00;  1.2222661E-02;  4.0000000E+04;  0.0000000E+00;  3.8745266E+04;  1.7741102E-01;  0.0000000E+00; -4.9784482E-03;  1.1781050E+04;
  1.5931162E+00;  9.9999998E-03;  1.6451239E-07;8698;  2.9701543E-01;  0.0000000E+00; -4.5646939E-08;  9.9205566E+02;  4.3362847E-01; -6.5791597E+03;3;  9.1078522E+01;  0.0000000E+00; -1.0278076E-05;0;  1.7246732E-01;  2.1471313E+03;  0.0000000E+00; -1.6508912E-10;  4.0000000E+04;  0.0000000E+00;  3.8744012E+04;  1.7877656E-01;  0.0000000E+00; -6.3092439E-03;  1.1626273E+04;
  1.6345768E+00;  9.9999998E-03;  1.6683748E-07;8759;  2.8974918E-01;  0.0000000E+00; -1.2869668E-07;  9.8770233E+02;  3.8459501E-01; -1.0180970E+04;3;  8.7308258E+01;  0.0000000E+00;  3.5645161E-04;0;  1.2695024E+00;  2.7048259E+03;  0.0000000E+00; -3.7761894E-11;  4.0000000E+04;  0.0000000E+00;  3.8763254E+04;  1.6759323E+00;  0.0000000E+00; -4.0642995E-01;  1.1778904E+04;
  1.6345272E+00;  9.9999998E-03; -1.0166767E-02;8758;  2.9053998E-01;  0.0000000E+00;  4.9054204E-03;  9.8762915E+02;  3.8460395E-01; -1.0241522E+04;3;  8.5893913E+01;  0.0000000E+00; -4.1029520E+00;0;  1.2643443E+00;  2.7044319E+03;  0.0000000E+00;  9.0037826E-03;  4.0000000E+04;  0.0000000E+00;  3.8764391E+04;  1.6686772E+00;  0.0000000E+00; -4.0433288E-01;  1.1899012E+04;
  1.6345272E+00;  9.9999998E-03;  1.0167103E-02;8760;  2.9054001E-01;  0.0000000E+00; -4.9056527E-03;  9.8762939E+02;  3.8460523E-01; -1.0241325E+04;3;  8.5893974E+01;  0.0000000E+00;  4.1035457E+00;0;  1.2643436E+00;  2.7044321E+03;  0.0000000E+00;  9.0055801E-03;  4.0000000E+04;  0.0000000E+00;  3.8764391E+04;  1.6686758E+00;  0.0000000E+00; -4.0433216E-01;  1.1898941E+04;
  1.6343848E+00;  9.9999998E-03; -2.0328740E-02;8757;  2.9298738E-01;  0.0000000E+00;  9.7138034E-03;  9.8742346E+02;  3.8463885E-01; -1.0411830E+04;3;  8.5123985E+01;  0.0000000E+00; -8.6274023E+00;0;  1.2493567E+00;  2.7033489E+03;  0.0000000E+00;  3.5443928E-02;  4.0000000E+04;  0.0000000E+00;  3.8766898E+04;  1.6474971E+00;  0.0000000E+00; -3.9814028E-01;  1.2235366E+04;
  1.6343848E+00;  9.9999998E-03;  2.0329086E-02;8761;  2.9298747E-01;  0.0000000E+00; -9.7140241E-03;  9.8742352E+02;  3.8463846E-01; -1.0411780E+04;3;  8.5123634E+01;  0.0000000E+00;  8.6280890E+00;0;  1.2493564E+00;  2.7033474E+03;  0.0000000E+00;  3.5447717E-02;  4.0000000E+04;  0.0000000E+00;  3.8766902E+04;  1.6474962E+00;  0.0000000E+00; -3.9813986E-01;  1.2235350E+04;
  1.6341860E+00;  9.9999998E-03; -3.0484742E-02;8756;  2.9701674E-01;  0.0000000E+00;  1.4339670E-02;  9.8713934E+02;  3.8467458E-01; -1.0647082E+04;3;  8.3966949E+01;  0.0000000E+00; -1.2815564E+01;0;  1.2266955E+00;  2.7019521E+03;  0.0000000E+00;  7.7642225E-02;  4.0000000E+04;  0.0000000E+00;  3.8770426E+04;  1.6149747E+00;  0.0000000E+00; -3.8827926E-01;  1.2719649E+04;
  1.6341860E+00;  9.9999998E-03;  3.0485097E-02;8762;  2.9701689E-01;  0.0000000E+00; -1.4339850E-02;  9.8713959E+02;  3.8467482E-01; -1.0646885E+04;3;  8.3966873E+01;  0.0000000E+00;  1.2815948E+01;0;  1.2266934E+00;  2.7019534E+03;  0.0000000E+00;  7.7648312E-02;  4.0000000E+04;  0.0000000E+00;  3.8770422E+04;  1.6149713E+00;  0.0000000E+00; -3.8827795E-01;  1.2719573E+04;
  1.6339730E+00;  9.9999998E-03; -4.0636212E-02;8755;  3.0245143E-01;  0.0000000E+00;  1.8693525E-02;  9.8684644E+02;  3.8469291E-01; -1.0889591E+04;3;  8.0897789E+01;  0.0000000E+00; -1.7183439E+01;0;  1.1987678E+00;  2.7007705E+03;  0.0000000E+00;  1.3281366E-01;  4.0000000E+04;  0.0000000E+00;  3.8774367E+04;  1.5740055E+00;  0.0000000E+00; -3.7523770E-01;  1.3247060E+04;
  1.6339730E+00;  9.9999998E-03;  4.0636569E-02;8763;  3.0245170E-01;  0.0000000E+00; -1.8693715E-02;  9.8684650E+02;  3.8469207E-01; -1.0889541E+04;3;  8.0897675E+01;  0.0000000E+00;  1.7183731E+01;0;  1.1987658E+00;  2.7007700E+03;  0.0000000E+00;  1.3282064E-01;  4.0000000E+04;  0.0000000E+00;  3.8774367E+04;  1.5740017E+00;  0.0000000E+00; -3.7523586E-01;  1.3247023E+04;
  1.6337706E+00;  9.9999998E-03; -5.0784439E-02;8754;  3.0913413E-01;  0.0000000E+00;  2.2711806E-02;  9.8662585E+02;  3.8469893E-01; -1.1072244E+04;3;  7.8523094E+01;  0.0000000E+00; -2.0195158E+01;0;  1.1670680E+00;  2.7002236E+03;  0.0000000E+00;  1.9716485E-01;  4.0000000E+04;  0.0000000E+00;  3.8777840E+04;  1.5264182E+00;  0.0000000E+00; -3.5935017E-01;  1.3693687E+04;
  1.6337705E+00;  9.9999998E-03;  5.0784793E-02;8764;  3.0913439E-01;  0.0000000E+00; -2.2711901E-02;  9.8662579E+02;  3.8469583E-01; -1.1072293E+04;3;  7.8523018E+01;  0.0000000E+00;  2.0195412E+01;0;  1.1670617E+00;  2.7002244E+03;  0.0000000E+00;  1.9717748E-01;  4.0000000E+04;  0.0000000E+00;  3.8777832E+04;  1.5264093E+00;  0.0000000E+00; -3.5934755E-01;  1.3693676E+04;
  1.6336298E+00;  9.9999998E-03; -6.0930118E-02;8753;  3.1718513E-01;  0.0000000E+00;  2.6457353E-02;  9.8657288E+02;  3.8464895E-01; -1.1116129E+04;3;  7.8363983E+01;  0.0000000E+00; -2.2593407E+01;0;  1.1338321E+00;  2.7010012E+03;  0.0000000E+00;  2.6641750E-01;  4.0000000E+04;  0.0000000E+00;  3.8779684E+04;  1.4749714E+00;  0.0000000E+00; -3.4113929E-01;  1.3941544E+04;
  1.6336297E+00;  9.9999998E-03;  6.0930472E-02;8765;  3.1718543E-01;  0.0000000E+00; -2.6457455E-02;  9.8657239E+02;  3.8465178E-01; -1.1116523E+04;3;  7.8363396E+01;  0.0000000E+00;  2.2593643E+01;0;  1.1338288E+00;  2.7010024E+03;  0.0000000E+00;  2.6642948E-01;  4.0000000E+04;  0.0000000E+00;  3.8779684E+04;  1.4749660E+00;  0.0000000E+00; -3.4113729E-01;  1.3941566E+04;
  1.6338542E+00;  9.9999998E-03; -1.0147376E-01;8749;  3.6356020E-01;  0.0000000E+00;  3.9264530E-02;  9.8921094E+02;  3.8401300E-01; -8.9320625E+03;3;  7.8759117E+01;  0.0000000E+00; -3.0686193E+01;0;  9.8306489E-01;  2.7223254E+03;  0.0000000E+00;  5.8754718E-01;  4.0000000E+04;  0.0000000E+00;  3.8767305E+04;  1.2303681E+00;  0.0000000E+00; -2.4730328E-01;  1.2193910E+04;
  1.6336256E+00;  9.9999998E-03; -8.1212558E-02;8751;  3.3759192E-01;  0.0000000E+00;  3.3319291E-02;  9.8727484E+02;  3.8437983E-01; -1.0534983E+04;3;  7.8830307E+01;  0.0000000E+00; -2.6500031E+01;0;  1.0648868E+00;  2.7082607E+03;  0.0000000E+00;  4.0918484E-01;  4.0000000E+04;  0.0000000E+00;  3.8777383E+04;  1.3635702E+00;  0.0000000E+00; -2.9868346E-01;  1.3571111E+04;
  1.6335834E+00;  9.9999998E-03; -7.1073696E-02;8752;  3.2667032E-01;  0.0000000E+00;  2.9992789E-02;  9.8677069E+02;  3.8454220E-01; -1.0952355E+04;3;  7.8549660E+01;  0.0000000E+00; -2.4600996E+01;0;  1.1000726E+00;  2.7036531E+03;  0.0000000E+00;  3.3717901E-01;  4.0000000E+04;  0.0000000E+00;  3.8779711E+04;  1.4209980E+00;  0.0000000E+00; -3.2092538E-01;  1.3908728E+04;
  1.6337351E+00;  9.9999998E-03; -9.1344938E-02;8750;  3.4991306E-01;  0.0000000E+00;  3.6423553E-02;  9.8809198E+02;  3.8418955E-01; -9.8584414E+03;3;  7.8963707E+01;  0.0000000E+00; -2.8613722E+01;0;  1.0267435E+00;  2.7147231E+03;  0.0000000E+00;  4.8821878E-01;  4.0000000E+04;  0.0000000E+00;  3.8772949E+04;  1.3010180E+00;  0.0000000E+00; -2.7427444E-01;  1.2967841E+04;
  1.6703928E+00;  9.9999998E-03; -1.0158350E-01;8810;  3.6322582E-01;  0.0000000E+00;  8.3390899E-02;  9.8888818E+02;  3.3913070E-01; -9.1944316E+03;3;  7.2604828E+01;  0.0000000E+00; -2.5733473E+01;0;  2.9398854E+00;  3.4894988E+03;  0.0000000E+00;  3.7668502E-01;  4.0000000E+04;  0.0000000E+00;  3.8749988E+04;  3.4212291E+00;  0.0000000E+00; -4.8134366E-01;  7.5501890E+03;
  1.6702904E+00;  9.9999998E-03;  1.6701586E-07;8820;  3.0027601E-01;  0.0000000E+00; -1.5260765E-07;  9.8809680E+02;  3.3974051E-01; -9.8493184E+03;3;  7.3733950E+00;  0.0000000E+00;  2.2640434E-04;0;  3.6048245E+00;  3.4746660E+03;  0.0000000E+00;  1.9136780E-10;  4.0000000E+04;  0.0000000E+00;  3.8741297E+04;  4.2543330E+00;  0.0000000E+00; -6.4950836E-01;  6.5493916E+03;
  1.6702656E+00;  9.9999998E-03; -1.0161630E-02;8819;  2.9989818E-01;  0.0000000E+00;  9.1608651E-03;  9.8801697E+02;  3.3973211E-01; -9.9153613E+03;3;  1.2204775E+01;  0.0000000E+00; -2.7344348E+00;0;  3.5970511E+00;  3.4743149E+03;  0.0000000E+00;  1.3145966E-02;  4.0000000E+04;  0.0000000E+00;  3.8742238E+04;  4.2446332E+00;  0.0000000E+00; -6.4758205E-01;  6.6165806E+03;
  1.6702657E+00;  9.9999998E-03;  1.0161963E-02;8821;  2.9989934E-01;  0.0000000E+00; -9.1611603E-03;  9.8801685E+02;  3.3973390E-01; -9.9154600E+03;3;  1.2199732E+01;  0.0000000E+00;  2.7346923E+00;0;  3.5970576E+00;  3.4743154E+03;  0.0000000E+00;  1.3139961E-02;  4.0000000E+04;  0.0000000E+00;  3.8742234E+04;  4.2446399E+00;  0.0000000E+00; -6.4758223E-01;  6.6165859E+03;
  1.6701815E+00;  9.9999998E-03; -2.0321792E-02;8818;  2.9934135E-01;  0.0000000E+00;  1.8343640E-02;  9.8778687E+02;  3.3972722E-01; -1.0105752E+04;3;  2.8002800E+01;  0.0000000E+00; -5.2664642E+00;0;  3.5727925E+00;  3.4731418E+03;  0.0000000E+00;  5.0323978E-02;  4.0000000E+04;  0.0000000E+00;  3.8743418E+04;  4.2145629E+00;  0.0000000E+00; -6.4177048E-01;  6.8075430E+03;
  1.6701816E+00;  9.9999998E-03;  2.0322127E-02;8822;  2.9934195E-01;  0.0000000E+00; -1.8343925E-02;  9.8778687E+02;  3.3972889E-01; -1.0105752E+04;3;  2.7999678E+01;  0.0000000E+00;  5.2666836E+00;0;  3.5727949E+00;  3.4731421E+03;  0.0000000E+00;  5.0312959E-02;  4.0000000E+04;  0.0000000E+00;  3.8743414E+04;  4.2145643E+00;  0.0000000E+00; -6.4176941E-01;  6.8074521E+03;
  1.6703637E+00;  9.9999998E-03; -9.1432221E-02;8811;  3.4962586E-01;  0.0000000E+00;  7.6688588E-02;  9.8805511E+02;  3.3912048E-01; -9.8837793E+03;3;  7.3112877E+01;  0.0000000E+00; -2.3838497E+01;0;  3.0719848E+00;  3.4851892E+03;  0.0000000E+00;  3.3137956E-01;  4.0000000E+04;  0.0000000E+00;  3.8750387E+04;  3.5827482E+00;  0.0000000E+00; -5.1076335E-01;  7.6910752E+03;
  1.6700732E+00;  9.9999998E-03; -3.0481653E-02;8817;  3.0038416E-01;  0.0000000E+00;  2.7388189E-02;  9.8746075E+02;  3.3971077E-01; -1.0375652E+04;3;  4.8743187E+01;  0.0000000E+00; -9.4097719E+00;0;  3.5338745E+00;  3.4717009E+03;  0.0000000E+00;  1.0498447E-01;  4.0000000E+04;  0.0000000E+00;  3.8745434E+04;  4.1661372E+00;  0.0000000E+00; -6.3226283E-01;  7.0827900E+03;
  1.6700732E+00;  9.9999998E-03;  3.0481992E-02;8823;  3.0038378E-01;  0.0000000E+00; -2.7388474E-02;  9.8746130E+02;  3.3970946E-01; -1.0375159E+04;3;  4.8747398E+01;  0.0000000E+00;  9.4102488E+00;0;  3.5338690E+00;  3.4716990E+03;  0.0000000E+00;  1.0496955E-01;  4.0000000E+04;  0.0000000E+00;  3.8745438E+04;  4.1661301E+00;  0.0000000E+00; -6.3226104E-01;  7.0828354E+03;
  1.6699798E+00;  9.9999998E-03; -4.0642593E-02;8816;  3.0377612E-01;  0.0000000E+00;  3.6265422E-02;  9.8713379E+02;  3.3966410E-01; -1.0646190E+04;3;  6.2926655E+01;  0.0000000E+00; -1.2065791E+01;0;  3.4826798E+00;  3.4706340E+03;  0.0000000E+00;  1.6719519E-01;  4.0000000E+04;  0.0000000E+00;  3.8747613E+04;  4.1019735E+00;  0.0000000E+00; -6.1929357E-01;  7.3843569E+03;
  1.6699798E+00;  9.9999998E-03;  4.0642943E-02;8824;  3.0377614E-01;  0.0000000E+00; -3.6265664E-02;  9.8713373E+02;  3.3966422E-01; -1.0646239E+04;3;  6.2927673E+01;  0.0000000E+00;  1.2066258E+01;0;  3.4826794E+00;  3.4706338E+03;  0.0000000E+00;  1.6718072E-01;  4.0000000E+04;  0.0000000E+00;  3.8747609E+04;  4.1019711E+00;  0.0000000E+00; -6.1929172E-01;  7.3842456E+03;
  1.6702203E+00;  9.9999998E-03; -8.1279114E-02;8812;  3.3729008E-01;  0.0000000E+00;  6.9370747E-02;  9.8739142E+02;  3.3921462E-01; -1.0432983E+04;3;  7.3843735E+01;  0.0000000E+00; -2.1587025E+01;0;  3.1804221E+00;  3.4798445E+03;  0.0000000E+00;  3.1303775E-01;  4.0000000E+04;  0.0000000E+00;  3.8751363E+04;  3.7180619E+00;  0.0000000E+00; -5.3763992E-01;  7.8139976E+03;
  1.6699322E+00;  9.9999998E-03; -5.0804794E-02;8815;  3.0944014E-01;  0.0000000E+00;  4.4948362E-02;  9.8688055E+02;  3.3959353E-01; -1.0855762E+04;3;  7.0298805E+01;  0.0000000E+00; -1.4975121E+01;0;  3.4211946E+00;  3.4705037E+03;  0.0000000E+00;  2.2554830E-01;  4.0000000E+04;  0.0000000E+00;  3.8749531E+04;  4.0242896E+00;  0.0000000E+00; -6.0309494E-01;  7.6468149E+03;
  1.6699322E+00;  9.9999998E-03;  5.0805144E-02;8825;  3.0944017E-01;  0.0000000E+00; -4.4948541E-02;  9.8688062E+02;  3.3959329E-01; -1.0855713E+04;3;  7.0300079E+01;  0.0000000E+00;  1.4975529E+01;0;  3.4211888E+00;  3.4705015E+03;  0.0000000E+00;  2.2553471E-01;  4.0000000E+04;  0.0000000E+00;  3.8749539E+04;  4.0242820E+00;  0.0000000E+00; -6.0309309E-01;  7.6467559E+03;
  1.6700530E+00;  9.9999998E-03; -7.1124747E-02;8813;  3.2639694E-01;  0.0000000E+00;  6.1527248E-02;  9.8695917E+02;  3.3936426E-01; -1.0790685E+04;3;  7.4566132E+01;  0.0000000E+00; -1.9785715E+01;0;  3.2709422E+00;  3.4749514E+03;  0.0000000E+00;  2.9789799E-01;  4.0000000E+04;  0.0000000E+00;  3.8751488E+04;  3.8329501E+00;  0.0000000E+00; -5.6200778E-01;  7.8686870E+03;
  1.6699469E+00;  9.9999998E-03; -6.0966525E-02;8814;  3.1706539E-01;  0.0000000E+00;  5.3353962E-02;  9.8681049E+02;  3.3949888E-01; -1.0913710E+04;3;  7.3651588E+01;  0.0000000E+00; -1.7258768E+01;0;  3.3501546E+00;  3.4717246E+03;  0.0000000E+00;  2.7041399E-01;  4.0000000E+04;  0.0000000E+00;  3.8750871E+04;  3.9340363E+00;  0.0000000E+00; -5.8388156E-01;  7.8170796E+03;
  1.6699469E+00;  9.9999998E-03;  6.0966879E-02;8826;  3.1706539E-01;  0.0000000E+00; -5.3354058E-02;  9.8681110E+02;  3.3950064E-01; -1.0913217E+04;3;  7.3653023E+01;  0.0000000E+00;  1.7259226E+01;0;  3.3501465E+00;  3.4717209E+03;  0.0000000E+00;  2.7040470E-01;  4.0000000E+04;  0.0000000E+00;  3.8750875E+04;  3.9340253E+00;  0.0000000E+00; -5.8387876E-01;  7.8170220E+03;
  1.7016515E+00;  9.9999998E-03; -1.0166841E-02;8880;  5.3809845E-01;  0.0000000E+00;  9.5554078E-03;  9.9004816E+02;  3.0140945E-01; -8.2284941E+03;3; -1.4830699E+02;  0.0000000E+00;  6.9236004E-01;0;  5.6419230E+00;  4.4431416E+03;  0.0000000E+00;  1.8921776E-02;  4.0000000E+04;  0.0000000E+00;  3.8699242E+04;  6.3616395E+00;  0.0000000E+00; -7.1971667E-01;  4.8099896E+02;
  1.7016568E+00;  9.9999998E-03;  1.7167498E-07;8881;  5.3963292E-01;  0.0000000E+00; -4.8119169E-08;  9.9009686E+02;  3.0142561E-01; -8.1882285E+03;3; -1.4843327E+02;  0.0000000E+00; -8.7164110E-05;0;  5.6488810E+00;  4.4431597E+03;  0.0000000E+00;  5.2580462E-10;  4.0000000E+04;  0.0000000E+00;  3.8699051E+04;  6.3700976E+00;  0.0000000E+00; -7.2121692E-01;  5.1218994E+02;
  1.7016515E+00;  9.9999998E-03;  1.0167183E-02;8882;  5.3809929E-01;  0.0000000E+00; -9.5555047E-03;  9.9004816E+02;  3.0141136E-01; -8.2284941E+03;3; -1.4830704E+02;  0.0000000E+00; -6.9248867E-01;0;  5.6419272E+00;  4.4431392E+03;  0.0000000E+00;  1.8910479E-02;  4.0000000E+04;  0.0000000E+00;  3.8699242E+04;  6.3616438E+00;  0.0000000E+00; -7.1971661E-01;  4.8108206E+02;
  1.7016388E+00;  9.9999998E-03; -2.0334715E-02;8879;  5.3389919E-01;  0.0000000E+00;  1.9076452E-02;  9.8990979E+02;  3.0136621E-01; -8.3429326E+03;3; -1.4785892E+02;  0.0000000E+00;  1.3476251E+00;0;  5.6209688E+00;  4.4431743E+03;  0.0000000E+00;  7.0476167E-02;  4.0000000E+04;  0.0000000E+00;  3.8700113E+04;  6.3362093E+00;  0.0000000E+00; -7.1524036E-01;  4.0010388E+02;
  1.7016388E+00;  9.9999998E-03;  2.0335058E-02;8883;  5.3389966E-01;  0.0000000E+00; -1.9076537E-02;  9.8990973E+02;  3.0136672E-01; -8.3429814E+03;3; -1.4785873E+02;  0.0000000E+00; -1.3478116E+00;0;  5.6209702E+00;  4.4431729E+03;  0.0000000E+00;  7.0455298E-02;  4.0000000E+04;  0.0000000E+00;  3.8700117E+04;  6.3362103E+00;  0.0000000E+00; -7.1524006E-01;  4.0018845E+02;
  1.7016326E+00;  9.9999998E-03; -3.0506169E-02;8878;  5.2823073E-01;  0.0000000E+00;  2.8536897E-02;  9.8972882E+02;  3.0129650E-01; -8.4925576E+03;3; -1.4678838E+02;  0.0000000E+00;  2.1423206E+00;0;  5.5858765E+00;  4.4435005E+03;  0.0000000E+00;  1.4089802E-01;  4.0000000E+04;  0.0000000E+00;  3.8701062E+04;  6.2937331E+00;  0.0000000E+00; -7.0785642E-01;  2.9785568E+02;
  1.7016326E+00;  9.9999998E-03;  3.0506512E-02;8884;  5.2823222E-01;  0.0000000E+00; -2.8536940E-02;  9.8972888E+02;  3.0129772E-01; -8.4925088E+03;3; -1.4678816E+02;  0.0000000E+00; -2.1423671E+00;0;  5.5858774E+00;  4.4435010E+03;  0.0000000E+00;  1.4087035E-01;  4.0000000E+04;  0.0000000E+00;  3.8701055E+04;  6.2937331E+00;  0.0000000E+00; -7.0785564E-01;  2.9790771E+02;
  1.7016582E+00;  9.9999998E-03; -4.0683102E-02;8877;  5.2302802E-01;  0.0000000E+00;  3.7888378E-02;  9.8956622E+02;  3.0120140E-01; -8.6269951E+03;3; -1.4463664E+02;  0.0000000E+00;  3.0630684E+00;0;  5.5365944E+00;  4.4446250E+03;  0.0000000E+00;  2.1247986E-01;  4.0000000E+04;  0.0000000E+00;  3.8702402E+04;  6.2342634E+00;  0.0000000E+00; -6.9766915E-01;  2.1381165E+02;
  1.7016582E+00;  9.9999998E-03;  4.0683448E-02;8885;  5.2302951E-01;  0.0000000E+00; -3.7888404E-02;  9.8956622E+02;  3.0120021E-01; -8.6269951E+03;3; -1.4463658E+02;  0.0000000E+00; -3.0632818E+00;0;  5.5365949E+00;  4.4446284E+03;  0.0000000E+00;  2.1245131E-01;  4.0000000E+04;  0.0000000E+00;  3.8702414E+04;  6.2342629E+00;  0.0000000E+00; -6.9766819E-01;  2.1374751E+02;
  1.7017277E+00;  9.9999998E-03; -5.0865244E-02;8876;  5.1994067E-01;  0.0000000E+00;  4.7119327E-02;  9.8949164E+02;  3.0108193E-01; -8.6886299E+03;3; -1.4153432E+02;  0.0000000E+00;  3.7747579E+00;0;  5.4722424E+00;  4.4466895E+03;  0.0000000E+00;  2.6938748E-01;  4.0000000E+04;  0.0000000E+00;  3.8704363E+04;  6.1570554E+00;  0.0000000E+00; -6.8481308E-01;  2.5600235E+02;
  1.7017277E+00;  9.9999998E-03;  5.0865591E-02;8886;  5.1994139E-01;  0.0000000E+00; -4.7119338E-02;  9.8949127E+02;  3.0108282E-01; -8.6889258E+03;3; -1.4153426E+02;  0.0000000E+00; -3.7748485E+00;0;  5.4722471E+00;  4.4466870E+03;  0.0000000E+00;  2.6936239E-01;  4.0000000E+04;  0.0000000E+00;  3.8704363E+04;  6.1570587E+00;  0.0000000E+00; -6.8481159E-01;  2.5592291E+02;
  1.7018429E+00;  9.9999998E-03; -6.1049223E-02;8875;  5.2011973E-01;  0.0000000E+00;  5.6156840E-02;  9.8954993E+02;  3.0095762E-01; -8.6404014E+03;3; -1.3713541E+02;  0.0000000E+00;  4.3578682E+00;0;  5.3915043E+00;  4.4497593E+03;  0.0000000E+00;  3.0305493E-01;  4.0000000E+04;  0.0000000E+00;  3.8706566E+04;  6.0609756E+00;  0.0000000E+00; -6.6947138E-01;  4.7361844E+02;
  1.7018429E+00;  9.9999998E-03;  6.1049569E-02;8887;  5.2011853E-01;  0.0000000E+00; -5.6156825E-02;  9.8955005E+02;  3.0095980E-01; -8.6403027E+03;3; -1.3713571E+02;  0.0000000E+00; -4.3579125E+00;0;  5.3915033E+00;  4.4497588E+03;  0.0000000E+00;  3.0303323E-01;  4.0000000E+04;  0.0000000E+00;  3.8706559E+04;  6.0609741E+00;  0.0000000E+00; -6.6947067E-01;  4.7351245E+02;
  1.7019871E+00;  9.9999998E-03; -7.1228914E-02;8874;  5.2409720E-01;  0.0000000E+00;  6.5000631E-02;  9.8977045E+02;  3.0084959E-01; -8.4580186E+03;3; -1.3163611E+02;  0.0000000E+00;  4.8551011E+00;0;  5.2924013E+00;  4.4534482E+03;  0.0000000E+00;  3.1525281E-01;  4.0000000E+04;  0.0000000E+00;  3.8709195E+04;  5.9442892E+00;  0.0000000E+00; -6.5188813E-01;  7.8297882E+02;
  1.7019958E+00;  9.9999998E-03; -1.0170899E-01;8871;  5.4185456E-01;  0.0000000E+00;  8.9317314E-02;  9.9098596E+02;  3.0097562E-01; -7.4529985E+03;3; -1.0920827E+02;  0.0000000E+00;  6.0182767E+00;0;  4.8566699E+00;  4.4554854E+03;  0.0000000E+00;  3.5501984E-01;  4.0000000E+04;  0.0000000E+00;  3.8720145E+04;  5.4445529E+00;  0.0000000E+00; -5.8788294E-01;  2.0448894E+03;
  1.7021224E+00;  9.9999998E-03; -8.1399009E-02;8873;  5.3081757E-01;  0.0000000E+00;  7.3549107E-02;  9.9013336E+02;  3.0077729E-01; -8.1579536E+03;3; -1.2483717E+02;  0.0000000E+00;  5.3202925E+00;0;  5.1727610E+00;  4.4570220E+03;  0.0000000E+00;  3.1728101E-01;  4.0000000E+04;  0.0000000E+00;  3.8712555E+04;  5.8050966E+00;  0.0000000E+00; -6.3233566E-01;  1.1410209E+03;
  1.7021586E+00;  9.9999998E-03; -9.1558032E-02;8872;  5.3776693E-01;  0.0000000E+00;  8.1700534E-02;  9.9057037E+02;  3.0079719E-01; -7.7966074E+03;3; -1.1736369E+02;  0.0000000E+00;  5.8930550E+00;0;  5.0287409E+00;  4.4584531E+03;  0.0000000E+00;  3.2523349E-01;  4.0000000E+04;  0.0000000E+00;  3.8716148E+04;  5.6397395E+00;  0.0000000E+00; -6.1099863E-01;  1.5576396E+03;
  1.7291782E+00;  9.9999998E-03;  1.7730417E-07;8941;  8.1927198E-01;  0.0000000E+00; -2.4952520E-08;  9.9273657E+02;  2.6981142E-01; -5.9995469E+03;3; -1.6050806E+02;  0.0000000E+00; -3.7207465E-05;0;  6.3922691E+00;  5.5862476E+03;  0.0000000E+00;  7.3721312E-10;  4.0000000E+04;  0.0000000E+00;  3.8658461E+04;  7.0656385E+00;  0.0000000E+00; -6.7336947E-01;  6.1331841E+03;
  1.7291980E+00;  9.9999998E-03; -1.0168270E-02;8940;  8.1856370E-01;  0.0000000E+00;  7.9535805E-03;  9.9273480E+02;  2.6978651E-01; -6.0010186E+03;3; -1.6041978E+02;  0.0000000E+00;  1.7039506E+00;0;  6.3871765E+00;  5.5871021E+03;  0.0000000E+00;  1.9147841E-02;  4.0000000E+04;  0.0000000E+00;  3.8658559E+04;  7.0594969E+00;  0.0000000E+00; -6.7232031E-01;  6.1329575E+03;
  1.7291980E+00;  9.9999998E-03;  1.0168625E-02;8942;  8.1856382E-01;  0.0000000E+00; -7.9536363E-03;  9.9273511E+02;  2.6978520E-01; -6.0007725E+03;3; -1.6041986E+02;  0.0000000E+00; -1.7040251E+00;0;  6.3871760E+00;  5.5871045E+03;  0.0000000E+00;  1.9136051E-02;  4.0000000E+04;  0.0000000E+00;  3.8658559E+04;  7.0594959E+00;  0.0000000E+00; -6.7231989E-01;  6.1329839E+03;
  1.7292610E+00;  9.9999998E-03; -2.0338371E-02;8939;  8.1671882E-01;  0.0000000E+00;  1.5884846E-02;  9.9272870E+02;  2.6971588E-01; -6.0060234E+03;3; -1.6004230E+02;  0.0000000E+00;  3.3479149E+00;0;  6.3716669E+00;  5.5897314E+03;  0.0000000E+00;  7.0402227E-02;  4.0000000E+04;  0.0000000E+00;  3.8658355E+04;  7.0408549E+00;  0.0000000E+00; -6.6918778E-01;  6.1267749E+03;
  1.7292610E+00;  9.9999998E-03;  2.0338725E-02;8943;  8.1671947E-01;  0.0000000E+00; -1.5884904E-02;  9.9272864E+02;  2.6971582E-01; -6.0060728E+03;3; -1.6004205E+02;  0.0000000E+00; -3.3480241E+00;0;  6.3716650E+00;  5.5897354E+03;  0.0000000E+00;  7.0380703E-02;  4.0000000E+04;  0.0000000E+00;  3.8658355E+04;  7.0408530E+00;  0.0000000E+00; -6.6918814E-01;  6.1268179E+03;
  1.7295613E+00;  9.9999998E-03; -1.0174381E-01;8931;  7.9730415E-01;  0.0000000E+00;  7.5676493E-02;  9.9399481E+02;  2.6950350E-01; -4.9601504E+03;3; -1.3606303E+02;  0.0000000E+00;  1.5520421E+01;0;  5.7699313E+00;  5.6010371E+03;  0.0000000E+00;  4.0044463E-01;  4.0000000E+04;  0.0000000E+00;  3.8683914E+04;  6.3553901E+00;  0.0000000E+00; -5.8545876E-01;  3.1978516E+03;
  1.7293625E+00;  9.9999998E-03; -3.0511603E-02;8938;  8.1422722E-01;  0.0000000E+00;  2.3759792E-02;  9.9275024E+02;  2.6960751E-01; -5.9882227E+03;3; -1.5926215E+02;  0.0000000E+00;  4.9022474E+00;0;  6.3450584E+00;  5.5938755E+03;  0.0000000E+00;  1.3801591E-01;  4.0000000E+04;  0.0000000E+00;  3.8658715E+04;  7.0091228E+00;  0.0000000E+00; -6.6406447E-01;  6.0947671E+03;
  1.7293626E+00;  9.9999998E-03;  3.0511953E-02;8944;  8.1422877E-01;  0.0000000E+00; -2.3759853E-02;  9.9275024E+02;  2.6960704E-01; -5.9882227E+03;3; -1.5926163E+02;  0.0000000E+00; -4.9022970E+00;0;  6.3450570E+00;  5.5938794E+03;  0.0000000E+00;  1.3798729E-01;  4.0000000E+04;  0.0000000E+00;  3.8658703E+04;  7.0091209E+00;  0.0000000E+00; -6.6406399E-01;  6.0948433E+03;
  1.7295046E+00;  9.9999998E-03; -4.0689737E-02;8937;  8.1197345E-01;  0.0000000E+00;  3.1603541E-02;  9.9282367E+02;  2.6947162E-01; -5.9275303E+03;3; -1.5765112E+02;  0.0000000E+00;  6.3242474E+00;0;  6.3063803E+00;  5.5994038E+03;  0.0000000E+00;  2.0371622E-01;  4.0000000E+04;  0.0000000E+00;  3.8659449E+04;  6.9634190E+00;  0.0000000E+00; -6.5703863E-01;  6.0074155E+03;
  1.7295047E+00;  9.9999998E-03;  4.0690083E-02;8945;  8.1197482E-01;  0.0000000E+00; -3.1603601E-02;  9.9282330E+02;  2.6947039E-01; -5.9278257E+03;3; -1.5765080E+02;  0.0000000E+00; -6.3242126E+00;0;  6.3063793E+00;  5.5994077E+03;  0.0000000E+00;  2.0368768E-01;  4.0000000E+04;  0.0000000E+00;  3.8659457E+04;  6.9634180E+00;  0.0000000E+00; -6.5703845E-01;  6.0074878E+03;
  1.7296762E+00;  9.9999998E-03; -5.0873045E-02;8936;  8.1044453E-01;  0.0000000E+00;  3.9433561E-02;  9.9297699E+02;  2.6932824E-01; -5.8008599E+03;3; -1.5518961E+02;  0.0000000E+00;  8.0037851E+00;0;  6.2545862E+00;  5.6056919E+03;  0.0000000E+00;  2.5481483E-01;  4.0000000E+04;  0.0000000E+00;  3.8660984E+04;  6.9028363E+00;  0.0000000E+00; -6.4825016E-01;  5.8314761E+03;
  1.7296764E+00;  9.9999998E-03;  5.0873391E-02;8946;  8.1044561E-01;  0.0000000E+00; -3.9433639E-02;  9.9297675E+02;  2.6932916E-01; -5.8010571E+03;3; -1.5518954E+02;  0.0000000E+00; -8.0038509E+00;0;  6.2545896E+00;  5.6056929E+03;  0.0000000E+00;  2.5479028E-01;  4.0000000E+04;  0.0000000E+00;  3.8660992E+04;  6.9028397E+00;  0.0000000E+00; -6.4825004E-01;  5.8315420E+03;
  1.7299064E+00;  9.9999998E-03; -9.1596588E-02;8932;  8.0459821E-01;  0.0000000E+00;  6.8792589E-02;  9.9395337E+02;  2.6924103E-01; -4.9943384E+03;3; -1.3986324E+02;  0.0000000E+00;  1.4333458E+01;0;  5.8993568E+00;  5.6127725E+03;  0.0000000E+00;  3.6881548E-01;  4.0000000E+04;  0.0000000E+00;  3.8677574E+04;  6.4993687E+00;  0.0000000E+00; -6.0001159E-01;  3.9240630E+03;
  1.7298490E+00;  9.9999998E-03; -6.1061181E-02;8935;  8.0961955E-01;  0.0000000E+00;  4.7126863E-02;  9.9319159E+02;  2.6920354E-01; -5.6235308E+03;3; -1.5191855E+02;  0.0000000E+00;  9.6129465E+00;0;  6.1887088E+00;  5.6116616E+03;  0.0000000E+00;  2.8921467E-01;  4.0000000E+04;  0.0000000E+00;  3.8663457E+04;  6.8266196E+00;  0.0000000E+00; -6.3791084E-01;  5.5389487E+03;
  1.7298491E+00;  9.9999998E-03;  6.1061528E-02;8947;  8.0962020E-01;  0.0000000E+00; -4.7126934E-02;  9.9319171E+02;  2.6920459E-01; -5.6234326E+03;3; -1.5191846E+02;  0.0000000E+00; -9.6129379E+00;0;  6.1887054E+00;  5.6116553E+03;  0.0000000E+00;  2.8919849E-01;  4.0000000E+04;  0.0000000E+00;  3.8663465E+04;  6.8266153E+00;  0.0000000E+00; -6.3791013E-01;  5.5389385E+03;
  1.7300284E+00;  9.9999998E-03; -8.1431307E-02;8933;  8.0801111E-01;  0.0000000E+00;  6.1861530E-02;  9.9375244E+02;  2.6912439E-01; -5.1602690E+03;3; -1.4399908E+02;  0.0000000E+00;  1.2770866E+01;0;  6.0116892E+00;  5.6171294E+03;  0.0000000E+00;  3.3925128E-01;  4.0000000E+04;  0.0000000E+00;  3.8672129E+04;  6.6252742E+00;  0.0000000E+00; -6.1358482E-01;  4.5663647E+03;
  1.7299864E+00;  9.9999998E-03; -7.1250096E-02;8934;  8.0929685E-01;  0.0000000E+00;  5.4606702E-02;  9.9346643E+02;  2.6912525E-01; -5.3964902E+03;3; -1.4804443E+02;  0.0000000E+00;  1.1291862E+01;0;  6.1078911E+00;  5.6160645E+03;  0.0000000E+00;  3.1416312E-01;  4.0000000E+04;  0.0000000E+00;  3.8667289E+04;  6.7341595E+00;  0.0000000E+00; -6.2626833E-01;  5.1148218E+03;
  1.7535950E+00;  9.9999998E-03;  1.7804500E-07;9000;  1.0372951E+00;  0.0000000E+00; -9.6697605E-08;  9.9560529E+02;  2.4400342E-01; -3.6252153E+03;3; -1.4000945E+02;  0.0000000E+00; -1.4851075E-05;0;  5.9929142E+00;  6.8775415E+03;  0.0000000E+00;  5.6692157E-10;  4.0000000E+04;  0.0000000E+00;  3.8627082E+04;  6.5620637E+00;  0.0000000E+00; -5.6914961E-01;  9.2440986E+03;
  1.7536342E+00;  9.9999998E-03; -1.0165794E-02;8999;  1.0371422E+00;  0.0000000E+00;  6.2429458E-03;  9.9563403E+02;  2.4397586E-01; -3.6015071E+03;3; -1.3987396E+02;  0.0000000E+00;  1.8414823E+00;0;  5.9889016E+00;  6.8793926E+03;  0.0000000E+00;  1.4009423E-02;  4.0000000E+04;  0.0000000E+00;  3.8627016E+04;  6.5573230E+00;  0.0000000E+00; -5.6842119E-01;  9.2818525E+03;
  1.7536343E+00;  9.9999998E-03;  1.0166150E-02;9001;  1.0371424E+00;  0.0000000E+00; -6.2431395E-03;  9.9563409E+02;  2.4397585E-01; -3.6014578E+03;3; -1.3987389E+02;  0.0000000E+00; -1.8415065E+00;0;  5.9888983E+00;  6.8793931E+03;  0.0000000E+00;  1.4000985E-02;  4.0000000E+04;  0.0000000E+00;  3.8627012E+04;  6.5573192E+00;  0.0000000E+00; -5.6842107E-01;  9.2818271E+03;
  1.7539017E+00;  9.9999998E-03; -1.0165947E-01;8990;  1.0033815E+00;  0.0000000E+00;  6.0695432E-02;  9.9691943E+02;  2.4390179E-01; -2.5411060E+03;3; -1.3110478E+02;  0.0000000E+00;  1.7625240E+01;0;  5.6796589E+00;  6.8918892E+03;  0.0000000E+00;  4.0578601E-01;  4.0000000E+04;  0.0000000E+00;  3.8645758E+04;  6.1978889E+00;  0.0000000E+00; -5.1822984E-01;  7.1060103E+03;
  1.7537467E+00;  9.9999998E-03; -2.0332325E-02;8998;  1.0367244E+00;  0.0000000E+00;  1.2490219E-02;  9.9573285E+02;  2.4390091E-01; -3.5199612E+03;3; -1.3958972E+02;  0.0000000E+00;  3.7282565E+00;0;  5.9769716E+00;  6.8846782E+03;  0.0000000E+00;  5.1753368E-02;  4.0000000E+04;  0.0000000E+00;  3.8626012E+04;  6.5432544E+00;  0.0000000E+00; -5.6628287E-01;  9.3806406E+03;
  1.7537467E+00;  9.9999998E-03;  2.0332679E-02;9002;  1.0367249E+00;  0.0000000E+00; -1.2490419E-02;  9.9573279E+02;  2.4390084E-01; -3.5200100E+03;3; -1.3958943E+02;  0.0000000E+00; -3.7282431E+00;0;  5.9769607E+00;  6.8846826E+03;  0.0000000E+00;  5.1738884E-02;  4.0000000E+04;  0.0000000E+00;  3.8626020E+04;  6.5432434E+00;  0.0000000E+00; -5.6628281E-01;  9.3806328E+03;
  1.7539179E+00;  9.9999998E-03; -3.0499712E-02;8997;  1.0361656E+00;  0.0000000E+00;  1.8749420E-02;  9.9589679E+02;  2.4379015E-01; -3.3846631E+03;3; -1.3892746E+02;  0.0000000E+00;  5.4389515E+00;0;  5.9574585E+00;  6.8927109E+03;  0.0000000E+00;  1.0284390E-01;  4.0000000E+04;  0.0000000E+00;  3.8625160E+04;  6.5203104E+00;  0.0000000E+00; -5.6285179E-01;  9.4993936E+03;
  1.7539179E+00;  9.9999998E-03;  3.0500062E-02;9003;  1.0361664E+00;  0.0000000E+00; -1.8749634E-02;  9.9589728E+02;  2.4379015E-01; -3.3842698E+03;3; -1.3892740E+02;  0.0000000E+00; -5.4389706E+00;0;  5.9574513E+00;  6.8927124E+03;  0.0000000E+00;  1.0282632E-01;  4.0000000E+04;  0.0000000E+00;  3.8625160E+04;  6.5203032E+00;  0.0000000E+00; -5.6285185E-01;  9.4994365E+03;
  1.7541308E+00;  9.9999998E-03; -4.0668651E-02;8996;  1.0356072E+00;  0.0000000E+00;  2.4993272E-02;  9.9612909E+02;  2.4365634E-01; -3.1930149E+03;3; -1.3775629E+02;  0.0000000E+00;  7.0556321E+00;0;  5.9307361E+00;  6.9025630E+03;  0.0000000E+00;  1.5660334E-01;  4.0000000E+04;  0.0000000E+00;  3.8624641E+04;  6.4889970E+00;  0.0000000E+00; -5.5826074E-01;  9.5809980E+03;
  1.7541308E+00;  9.9999998E-03;  4.0668998E-02;9004;  1.0356082E+00;  0.0000000E+00; -2.4993490E-02;  9.9612897E+02;  2.4365741E-01; -3.1931133E+03;3; -1.3775630E+02;  0.0000000E+00; -7.0556002E+00;0;  5.9307375E+00;  6.9025640E+03;  0.0000000E+00;  1.5658644E-01;  4.0000000E+04;  0.0000000E+00;  3.8624637E+04;  6.4889979E+00;  0.0000000E+00; -5.5826032E-01;  9.5810225E+03;
  1.7543722E+00;  9.9999998E-03; -9.1507576E-02;8991;  1.0159929E+00;  0.0000000E+00;  5.4848611E-02;  9.9716382E+02;  2.4360663E-01; -2.3394492E+03;3; -1.3145685E+02;  0.0000000E+00;  1.6023785E+01;0;  5.7283783E+00;  6.9125337E+03;  0.0000000E+00;  3.9279044E-01;  4.0000000E+04;  0.0000000E+00;  3.8639234E+04;  6.2539558E+00;  0.0000000E+00; -5.2557743E-01;  7.9235654E+03;
  1.7543546E+00;  9.9999998E-03; -5.0838839E-02;8995;  1.0347986E+00;  0.0000000E+00;  3.1222388E-02;  9.9642365E+02;  2.4352615E-01; -2.9499917E+03;3; -1.3623169E+02;  0.0000000E+00;  8.9663877E+00;0;  5.8977213E+00;  6.9126289E+03;  0.0000000E+00;  2.0753871E-01;  4.0000000E+04;  0.0000000E+00;  3.8624742E+04;  6.4504147E+00;  0.0000000E+00; -5.5269325E-01;  9.5657129E+03;
  1.7543546E+00;  9.9999998E-03;  5.0839186E-02;9005;  1.0347998E+00;  0.0000000E+00; -3.1222621E-02;  9.9642365E+02;  2.4352615E-01; -2.9499917E+03;3; -1.3623146E+02;  0.0000000E+00; -8.9663315E+00;0;  5.8977098E+00;  6.9126294E+03;  0.0000000E+00;  2.0752668E-01;  4.0000000E+04;  0.0000000E+00;  3.8624727E+04;  6.4504027E+00;  0.0000000E+00; -5.5269283E-01;  9.5657217E+03;
  1.7546231E+00;  9.9999998E-03; -8.1344709E-02;8992;  1.0249122E+00;  0.0000000E+00;  4.9071699E-02;  9.9717822E+02;  2.4343546E-01; -2.3275620E+03;3; -1.3200124E+02;  0.0000000E+00;  1.4399215E+01;0;  5.7738228E+00;  6.9236738E+03;  0.0000000E+00;  3.5560018E-01;  4.0000000E+04;  0.0000000E+00;  3.8633742E+04;  6.3064504E+00;  0.0000000E+00; -5.3262782E-01;  8.5844443E+03;
  1.7545501E+00;  9.9999998E-03; -6.1009161E-02;8994;  1.0332571E+00;  0.0000000E+00;  3.7331827E-02;  9.9673419E+02;  2.4342796E-01; -2.6938040E+03;3; -1.3456081E+02;  0.0000000E+00;  1.0791335E+01;0;  5.8595405E+00;  6.9211523E+03;  0.0000000E+00;  2.5655112E-01;  4.0000000E+04;  0.0000000E+00;  3.8626375E+04;  6.4059157E+00;  0.0000000E+00; -5.4637539E-01;  9.4071992E+03;
  1.7545501E+00;  9.9999998E-03;  6.1009508E-02;9006;  1.0332581E+00;  0.0000000E+00; -3.7332054E-02;  9.9673438E+02;  2.4342646E-01; -2.6936565E+03;3; -1.3456042E+02;  0.0000000E+00; -1.0791357E+01;0;  5.8595371E+00;  6.9211562E+03;  0.0000000E+00;  2.5655049E-01;  4.0000000E+04;  0.0000000E+00;  3.8626359E+04;  6.4059119E+00;  0.0000000E+00; -5.4637492E-01;  9.4072168E+03;
  1.7546643E+00;  9.9999998E-03; -7.1178019E-02;8993;  1.0304114E+00;  0.0000000E+00;  4.3221395E-02;  9.9701379E+02;  2.4338455E-01; -2.4631521E+03;3; -1.3289748E+02;  0.0000000E+00;  1.2676318E+01;0;  5.8176441E+00;  6.9258042E+03;  0.0000000E+00;  3.0660045E-01;  4.0000000E+04;  0.0000000E+00;  3.8629406E+04;  6.3572340E+00;  0.0000000E+00; -5.3958970E-01;  9.0812500E+03;
  1.7756855E+00;  9.9999998E-03; -1.0157797E-01;9049;  1.1504431E+00;  0.0000000E+00;  4.6367619E-02;  9.9906720E+02;  2.2316319E-01; -7.6818622E+02;3; -1.0781011E+02;  0.0000000E+00;  1.8381378E+01;0;  4.9831543E+00;  8.2817422E+03;  0.0000000E+00;  3.1633401E-01;  4.0000000E+04;  0.0000000E+00;  3.8608102E+04;  5.4069633E+00;  0.0000000E+00; -4.2380884E-01;  9.5787021E+03;
  1.7756982E+00;  9.9999998E-03;  1.7727834E-07;9059;  1.1884344E+00;  0.0000000E+00; -1.5306796E-07;  9.9810907E+02;  2.2299828E-01; -1.5572319E+03;3; -1.0403235E+02;  0.0000000E+00; -4.6218400E-05;0;  4.9744020E+00;  8.2807607E+03;  0.0000000E+00;  1.3980843E-10;  4.0000000E+04;  0.0000000E+00;  3.8599848E+04;  5.4231849E+00;  0.0000000E+00; -4.4878307E-01;  1.0447813E+04;
  1.7757452E+00;  9.9999998E-03; -1.0163785E-02;9058;  1.1884667E+00;  0.0000000E+00;  4.6012369E-03;  9.9815424E+02;  2.2297487E-01; -1.5200190E+03;3; -1.0394122E+02;  0.0000000E+00;  1.8995173E+00;0;  4.9718966E+00;  8.2832617E+03;  0.0000000E+00;  9.7060269E-03;  4.0000000E+04;  0.0000000E+00;  3.8599328E+04;  5.4201918E+00;  0.0000000E+00; -4.4829515E-01;  1.0524839E+04;
  1.7757452E+00;  9.9999998E-03;  1.0164138E-02;9060;  1.1884667E+00;  0.0000000E+00; -4.6015396E-03;  9.9815430E+02;  2.2297490E-01; -1.5199700E+03;3; -1.0394122E+02;  0.0000000E+00; -1.8995869E+00;0;  4.9718976E+00;  8.2832617E+03;  0.0000000E+00;  9.7027766E-03;  4.0000000E+04;  0.0000000E+00;  3.8599324E+04;  5.4201927E+00;  0.0000000E+00; -4.4829509E-01;  1.0524800E+04;
  1.7762289E+00;  9.9999998E-03; -9.1417901E-02;9050;  1.1643307E+00;  0.0000000E+00;  4.1518278E-02;  9.9948029E+02;  2.2286937E-01; -4.2795462E+02;3; -1.0537567E+02;  0.0000000E+00;  1.6679621E+01;0;  4.9571900E+00;  8.3105449E+03;  0.0000000E+00;  3.4838581E-01;  4.0000000E+04;  0.0000000E+00;  3.8602086E+04;  5.3833995E+00;  0.0000000E+00; -4.2620960E-01;  1.0341271E+04;
  1.7758769E+00;  9.9999998E-03; -2.0327991E-02;9057;  1.1885380E+00;  0.0000000E+00;  9.1806976E-03;  9.9829712E+02;  2.2291036E-01; -1.4023456E+03;3; -1.0370311E+02;  0.0000000E+00;  3.7940466E+00;0;  4.9649401E+00;  8.2903320E+03;  0.0000000E+00;  3.7308048E-02;  4.0000000E+04;  0.0000000E+00;  3.8597719E+04;  5.4118280E+00;  0.0000000E+00; -4.4688812E-01;  1.0733805E+04;
  1.7758769E+00;  9.9999998E-03;  2.0328343E-02;9061;  1.1885380E+00;  0.0000000E+00; -9.1810003E-03;  9.9829724E+02;  2.2291075E-01; -1.4022473E+03;3; -1.0370305E+02;  0.0000000E+00; -3.7941072E+00;0;  4.9649334E+00;  8.2903379E+03;  0.0000000E+00;  3.7303194E-02;  4.0000000E+04;  0.0000000E+00;  3.8597719E+04;  5.4118214E+00;  0.0000000E+00; -4.4688821E-01;  1.0733856E+04;
  1.7760714E+00;  9.9999998E-03; -3.0492105E-02;9056;  1.1886303E+00;  0.0000000E+00;  1.3824785E-02;  9.9852759E+02;  2.2281724E-01; -1.2125143E+03;3; -1.0338811E+02;  0.0000000E+00;  5.7148743E+00;0;  4.9548383E+00;  8.3009688E+03;  0.0000000E+00;  7.9123415E-02;  4.0000000E+04;  0.0000000E+00;  3.8594996E+04;  5.3995280E+00;  0.0000000E+00; -4.4468969E-01;  1.1013782E+04;
  1.7760714E+00;  9.9999998E-03;  3.0492457E-02;9062;  1.1886306E+00;  0.0000000E+00; -1.3825104E-02;  9.9852771E+02;  2.2281742E-01; -1.2124161E+03;3; -1.0338805E+02;  0.0000000E+00; -5.7149220E+00;0;  4.9548388E+00;  8.3009756E+03;  0.0000000E+00;  7.9118006E-02;  4.0000000E+04;  0.0000000E+00;  3.8594992E+04;  5.3995285E+00;  0.0000000E+00; -4.4468984E-01;  1.1013813E+04;
  1.7765622E+00;  9.9999998E-03; -8.1268765E-02;9051;  1.1746086E+00;  0.0000000E+00;  3.6836237E-02;  9.9965381E+02;  2.2267605E-01; -2.8506543E+02;3; -1.0332540E+02;  0.0000000E+00;  1.4854012E+01;0;  4.9385529E+00;  8.3279561E+03;  0.0000000E+00;  3.4292221E-01;  4.0000000E+04;  0.0000000E+00;  3.8596727E+04;  5.3674202E+00;  0.0000000E+00; -4.2886749E-01;  1.0921734E+04;
  1.7762945E+00;  9.9999998E-03; -4.0654678E-02;9055;  1.1885656E+00;  0.0000000E+00;  1.8509148E-02;  9.9881763E+02;  2.2271563E-01; -9.7365363E+02;3; -1.0285519E+02;  0.0000000E+00;  7.4708190E+00;0;  4.9436779E+00;  8.3131973E+03;  0.0000000E+00;  1.3107601E-01;  4.0000000E+04;  0.0000000E+00;  3.8593102E+04;  5.3855553E+00;  0.0000000E+00; -4.4187739E-01;  1.1281510E+04;
  1.7762946E+00;  9.9999998E-03;  4.0655024E-02;9063;  1.1885662E+00;  0.0000000E+00; -1.8509457E-02;  9.9881732E+02;  2.2271530E-01; -9.7389899E+02;3; -1.0285498E+02;  0.0000000E+00; -7.4708672E+00;0;  4.9436779E+00;  8.3132021E+03;  0.0000000E+00;  1.3107359E-01;  4.0000000E+04;  0.0000000E+00;  3.8593102E+04;  5.3855553E+00;  0.0000000E+00; -4.4187754E-01;  1.1281473E+04;
  1.7765051E+00;  9.9999998E-03; -5.0814498E-02;9054;  1.1878346E+00;  0.0000000E+00;  2.3161858E-02;  9.9913232E+02;  2.2262679E-01; -7.1448334E+02;3; -1.0223430E+02;  0.0000000E+00;  9.4026814E+00;0;  4.9338894E+00;  8.3246338E+03;  0.0000000E+00;  1.8959124E-01;  4.0000000E+04;  0.0000000E+00;  3.8591879E+04;  5.3725419E+00;  0.0000000E+00; -4.3865231E-01;  1.1454663E+04;
  1.7765051E+00;  9.9999998E-03;  5.0814845E-02;9064;  1.1878352E+00;  0.0000000E+00; -2.3162175E-02;  9.9913184E+02;  2.2262555E-01; -7.1487604E+02;3; -1.0223422E+02;  0.0000000E+00; -9.4027119E+00;0;  4.9338903E+00;  8.3246377E+03;  0.0000000E+00;  1.8959196E-01;  4.0000000E+04;  0.0000000E+00;  3.8591883E+04;  5.3725429E+00;  0.0000000E+00; -4.3865243E-01;  1.1454765E+04;
  1.7766912E+00;  9.9999998E-03; -7.1121328E-02;9052;  1.1815144E+00;  0.0000000E+00;  3.2328375E-02;  9.9962805E+02;  2.2258687E-01; -3.0626511E+02;3; -1.0229401E+02;  0.0000000E+00;  1.3072359E+01;0;  4.9290767E+00;  8.3345967E+03;  0.0000000E+00;  3.0562955E-01;  4.0000000E+04;  0.0000000E+00;  3.8593641E+04;  5.3609867E+00;  0.0000000E+00; -4.3190986E-01;  1.1298884E+04;
  1.7766553E+00;  9.9999998E-03; -6.0970169E-02;9053;  1.1857023E+00;  0.0000000E+00;  2.7792864E-02;  9.9942572E+02;  2.2257566E-01; -4.7289642E+02;3; -1.0201125E+02;  0.0000000E+00;  1.1299080E+01;0;  4.9281402E+00;  8.3326738E+03;  0.0000000E+00;  2.5034335E-01;  4.0000000E+04;  0.0000000E+00;  3.8591926E+04;  5.3633819E+00;  0.0000000E+00; -4.3524185E-01;  1.1471913E+04;
  1.7766554E+00;  9.9999998E-03;  6.0970515E-02;9065;  1.1857024E+00;  0.0000000E+00; -2.7793180E-02;  9.9942584E+02;  2.2257496E-01; -4.7279825E+02;3; -1.0201122E+02;  0.0000000E+00; -1.1299046E+01;0;  4.9281425E+00;  8.3326719E+03;  0.0000000E+00;  2.5035098E-01;  4.0000000E+04;  0.0000000E+00;  3.8591930E+04;  5.3633842E+00;  0.0000000E+00; -4.3524176E-01;  1.1471922E+04;
  1.7954472E+00;  9.9999998E-03; -1.0160527E-01;9108;  1.2472146E+00;  0.0000000E+00;  3.3096924E-02;  1.0003375E+03;  2.0634548E-01;  2.7735266E+02;3; -7.6991524E+01;  0.0000000E+00;  1.8612768E+01;0;  4.0578327E+00;  9.7259707E+03;  0.0000000E+00;  2.0603338E-01;  4.0000000E+04;  0.0000000E+00;  3.8570426E+04;  4.3824258E+00;  0.0000000E+00; -3.2459316E-01;  1.0659745E+04;
  1.7959934E+00;  9.9999998E-03; -9.1424055E-02;9109;  1.2596165E+00;  0.0000000E+00;  2.9411672E-02;  1.0008109E+03;  2.0609532E-01;  6.6634735E+02;3; -7.2859749E+01;  0.0000000E+00;  1.6913971E+01;0;  3.9823191E+00;  9.7587881E+03;  0.0000000E+00;  2.6596928E-01;  4.0000000E+04;  0.0000000E+00;  3.8564215E+04;  4.3062892E+00;  0.0000000E+00; -3.2397008E-01;  1.1365878E+04;
  1.7963922E+00;  9.9999998E-03; -8.1262745E-02;9110;  1.2691983E+00;  0.0000000E+00;  2.5859954E-02;  1.0010875E+03;  2.0590514E-01;  8.9367749E+02;3; -6.9238609E+01;  0.0000000E+00;  1.5091733E+01;0;  3.9181354E+00;  9.7817422E+03;  0.0000000E+00;  2.9611641E-01;  4.0000000E+04;  0.0000000E+00;  3.8559426E+04;  4.2419214E+00;  0.0000000E+00; -3.2378599E-01;  1.1895017E+04;
  1.7961702E+00;  9.9999998E-03; -1.0163864E-02;9117;  1.2847084E+00;  0.0000000E+00;  3.1499101E-03;  1.0000706E+03;  2.0586827E-01;  5.7993126E+01;3; -6.3341991E+01;  0.0000000E+00;  1.8770092E+00;0;  3.7805490E+00;  9.7604678E+03;  0.0000000E+00;  8.9411205E-03;  4.0000000E+04;  0.0000000E+00;  3.8566879E+04;  4.1113977E+00;  0.0000000E+00; -3.3084863E-01;  1.0873422E+04;
  1.7961324E+00;  9.9999998E-03;  1.7574580E-07;9118;  1.2846687E+00;  0.0000000E+00; -1.5485853E-07;  1.0000233E+03;  2.0588122E-01;  1.9200514E+01;3; -6.3356655E+01;  0.0000000E+00; -5.5307595E-05;0;  3.7806067E+00;  9.7581230E+03;  0.0000000E+00; -2.7952837E-10;  4.0000000E+04;  0.0000000E+00;  3.8567703E+04;  4.1117311E+00;  0.0000000E+00; -3.3112437E-01;  1.0771799E+04;
  1.7961702E+00;  9.9999998E-03;  1.0164215E-02;9119;  1.2847085E+00;  0.0000000E+00; -3.1502198E-03;  1.0000706E+03;  2.0586741E-01;  5.7993126E+01;3; -6.3342041E+01;  0.0000000E+00; -1.8771077E+00;0;  3.7805505E+00;  9.7604678E+03;  0.0000000E+00;  8.9433957E-03;  4.0000000E+04;  0.0000000E+00;  3.8566883E+04;  4.1113992E+00;  0.0000000E+00; -3.3084857E-01;  1.0873390E+04;
  1.7966356E+00;  9.9999998E-03; -7.1110889E-02;9111;  1.2761002E+00;  0.0000000E+00;  2.2451008E-02;  1.0011733E+03;  2.0577607E-01;  9.6408136E+02;3; -6.6510521E+01;  0.0000000E+00;  1.3243354E+01;0;  3.8670421E+00;  9.7950195E+03;  0.0000000E+00;  2.8858215E-01;  4.0000000E+04;  0.0000000E+00;  3.8556590E+04;  4.1911316E+00;  0.0000000E+00; -3.2408947E-01;  1.2210201E+04;
  1.7962756E+00;  9.9999998E-03; -2.0327562E-02;9116;  1.2847351E+00;  0.0000000E+00;  6.2836148E-03;  1.0001957E+03;  2.0583253E-01;  1.6085051E+02;3; -6.3334003E+01;  0.0000000E+00;  3.7463183E+00;0;  3.7809401E+00;  9.7670186E+03;  0.0000000E+00;  3.5408713E-02;  4.0000000E+04;  0.0000000E+00;  3.8564508E+04;  4.1110044E+00;  0.0000000E+00; -3.3006433E-01;  1.1150431E+04;
  1.7962756E+00;  9.9999998E-03;  2.0327913E-02;9120;  1.2847352E+00;  0.0000000E+00; -6.2839240E-03;  1.0001959E+03;  2.0583142E-01;  1.6094847E+02;3; -6.3334038E+01;  0.0000000E+00; -3.7464111E+00;0;  3.7809415E+00;  9.7670186E+03;  0.0000000E+00;  3.5413213E-02;  4.0000000E+04;  0.0000000E+00;  3.8564508E+04;  4.1110058E+00;  0.0000000E+00; -3.3006424E-01;  1.1150417E+04;
  1.7964224E+00;  9.9999998E-03; -3.0490693E-02;9115;  1.2846348E+00;  0.0000000E+00;  9.4236480E-03;  1.0004034E+03;  2.0578171E-01;  3.3149112E+02;3; -6.3355164E+01;  0.0000000E+00;  5.6383777E+00;0;  3.7835145E+00;  9.7765400E+03;  0.0000000E+00;  7.7942945E-02;  4.0000000E+04;  0.0000000E+00;  3.8561305E+04;  4.1124158E+00;  0.0000000E+00; -3.2890129E-01;  1.1527800E+04;
  1.7964224E+00;  9.9999998E-03;  3.0491041E-02;9121;  1.2846347E+00;  0.0000000E+00; -9.4239637E-03;  1.0004033E+03;  2.0578036E-01;  3.3139316E+02;3; -6.3355194E+01;  0.0000000E+00; -5.6384530E+00;0;  3.7835155E+00;  9.7765361E+03;  0.0000000E+00;  7.7951036E-02;  4.0000000E+04;  0.0000000E+00;  3.8561312E+04;  4.1124167E+00;  0.0000000E+00; -3.2890129E-01;  1.1527802E+04;
  1.7967247E+00;  9.9999998E-03; -6.0961686E-02;9112;  1.2805800E+00;  0.0000000E+00;  1.9120693E-02;  1.0010967E+03;  2.0571327E-01;  9.0118390E+02;3; -6.4694115E+01;  0.0000000E+00;  1.1317759E+01;0;  3.8298340E+00;  9.7987881E+03;  0.0000000E+00;  2.5015387E-01;  4.0000000E+04;  0.0000000E+00;  3.8555766E+04;  4.1547461E+00;  0.0000000E+00; -3.2491216E-01;  1.2302401E+04;
  1.7967247E+00;  9.9999998E-03;  6.0962029E-02;9124;  1.2805798E+00;  0.0000000E+00; -1.9121015E-02;  1.0010967E+03;  2.0571327E-01;  9.0118390E+02;3; -6.4694046E+01;  0.0000000E+00; -1.1317756E+01;0;  3.8298357E+00;  9.7987910E+03;  0.0000000E+00;  2.5016606E-01;  4.0000000E+04;  0.0000000E+00;  3.8555766E+04;  4.1547484E+00;  0.0000000E+00; -3.2491276E-01;  1.2302433E+04;
  1.7965739E+00;  9.9999998E-03; -4.0652111E-02;9114;  1.2842302E+00;  0.0000000E+00;  1.2622104E-02;  1.0006508E+03;  2.0573267E-01;  5.3474493E+02;3; -6.3502449E+01;  0.0000000E+00;  7.6037889E+00;0;  3.7907104E+00;  9.7867734E+03;  0.0000000E+00;  1.3300270E-01;  4.0000000E+04;  0.0000000E+00;  3.8558535E+04;  4.1182380E+00;  0.0000000E+00; -3.2752752E-01;  1.1905046E+04;
  1.7965739E+00;  9.9999998E-03;  4.0652458E-02;9122;  1.2842305E+00;  0.0000000E+00; -1.2622427E-02;  1.0006509E+03;  2.0573308E-01;  5.3484283E+02;3; -6.3502457E+01;  0.0000000E+00; -7.6038523E+00;0;  3.7907076E+00;  9.7867705E+03;  0.0000000E+00;  1.3301319E-01;  4.0000000E+04;  0.0000000E+00;  3.8558543E+04;  4.1182356E+00;  0.0000000E+00; -3.2752791E-01;  1.1905056E+04;
  1.7966902E+00;  9.9999998E-03; -5.0809454E-02;9113;  1.2830802E+00;  0.0000000E+00;  1.5863791E-02;  1.0008994E+03;  2.0570460E-01;  7.3897394E+02;3; -6.3825031E+01;  0.0000000E+00;  9.4698095E+00;0;  3.8051763E+00;  9.7951562E+03;  0.0000000E+00;  1.9387141E-01;  4.0000000E+04;  0.0000000E+00;  3.8556191E+04;  4.1313000E+00;  0.0000000E+00; -3.2612371E-01;  1.2186819E+04;
  1.7966902E+00;  9.9999998E-03;  5.0809793E-02;9123;  1.2830802E+00;  0.0000000E+00; -1.5864111E-02;  1.0008996E+03;  2.0570405E-01;  7.3916986E+02;3; -6.3825027E+01;  0.0000000E+00; -9.4698505E+00;0;  3.8051763E+00;  9.7951582E+03;  0.0000000E+00;  1.9388476E-01;  4.0000000E+04;  0.0000000E+00;  3.8556191E+04;  4.1313000E+00;  0.0000000E+00; -3.2612377E-01;  1.2186854E+04;
  1.8136948E+00;  9.9999998E-03; -1.0175765E-01;9166;  1.3067775E+00;  0.0000000E+00;  2.1550292E-02;  1.0008319E+03;  1.9264597E-01;  6.8202661E+02;3; -4.5828072E+01;  0.0000000E+00;  1.7791485E+01;0;  3.1359880E+00;  1.1184680E+04;  0.0000000E+00;  1.3516478E-01;  4.0000000E+04;  0.0000000E+00;  3.8531273E+04;  3.3674150E+00;  0.0000000E+00; -2.3142703E-01;  1.0515727E+04;
  1.8141974E+00;  9.9999998E-03; -9.1527179E-02;9167;  1.3162478E+00;  0.0000000E+00;  1.8906454E-02;  1.0012455E+03;  1.9245152E-01;  1.0209562E+03;3; -4.0548794E+01;  0.0000000E+00;  1.6159973E+01;0;  3.0360761E+00;  1.1217137E+04;  0.0000000E+00;  1.8002664E-01;  4.0000000E+04;  0.0000000E+00;  3.8524832E+04;  3.2650514E+00;  0.0000000E+00; -2.2897533E-01;  1.1205788E+04;
  1.8146422E+00;  9.9999998E-03; -8.1330761E-02;9168;  1.3239788E+00;  0.0000000E+00;  1.6363651E-02;  1.0015620E+03;  1.9227573E-01;  1.2803076E+03;3; -3.5793156E+01;  0.0000000E+00;  1.4398304E+01;0;  2.9468827E+00;  1.1244003E+04;  0.0000000E+00;  2.1847554E-01;  4.0000000E+04;  0.0000000E+00;  3.8519594E+04;  3.1738105E+00;  0.0000000E+00; -2.2692765E-01;  1.1745023E+04;
  1.8149827E+00;  9.9999998E-03; -7.1155831E-02;9169;  1.3297966E+00;  0.0000000E+00;  1.4001609E-02;  1.0017419E+03;  1.9213694E-01;  1.4276764E+03;3; -3.2042850E+01;  0.0000000E+00;  1.2750127E+01;0;  2.8714168E+00;  1.1263262E+04;  0.0000000E+00;  2.3294243E-01;  4.0000000E+04;  0.0000000E+00;  3.8516258E+04;  3.0968294E+00;  0.0000000E+00; -2.2541264E-01;  1.2091045E+04;
  1.8152061E+00;  9.9999998E-03; -6.0991343E-02;9170;  1.3338395E+00;  0.0000000E+00;  1.1788147E-02;  1.0017828E+03;  1.9203554E-01;  1.4612354E+03;3; -2.9267872E+01;  0.0000000E+00;  1.0935071E+01;0;  2.8106370E+00;  1.1274462E+04;  0.0000000E+00;  2.1923582E-01;  4.0000000E+04;  0.0000000E+00;  3.8514406E+04;  3.0351017E+00;  0.0000000E+00; -2.2446457E-01;  1.2225356E+04;
  1.8152062E+00;  9.9999998E-03;  6.0991686E-02;9182;  1.3338394E+00;  0.0000000E+00; -1.1788480E-02;  1.0017828E+03;  1.9203624E-01;  1.4611377E+03;3; -2.9267990E+01;  0.0000000E+00; -1.0935135E+01;0;  2.8106346E+00;  1.1274461E+04;  0.0000000E+00;  2.1925659E-01;  4.0000000E+04;  0.0000000E+00;  3.8514406E+04;  3.0350995E+00;  0.0000000E+00; -2.2446488E-01;  1.2225360E+04;
  1.8153206E+00;  9.9999998E-03; -5.0828811E-02;9171;  1.3364499E+00;  0.0000000E+00;  9.6804369E-03;  1.0017213E+03;  1.9197606E-01;  1.4106975E+03;3; -2.7362514E+01;  0.0000000E+00;  9.0853825E+00;0;  2.7640860E+00;  1.1278496E+04;  0.0000000E+00;  1.8283947E-01;  4.0000000E+04;  0.0000000E+00;  3.8514582E+04;  2.9881251E+00;  0.0000000E+00; -2.2403912E-01;  1.2156317E+04;
  1.8153206E+00;  9.9999998E-03;  5.0829150E-02;9181;  1.3364500E+00;  0.0000000E+00; -9.6807685E-03;  1.0017209E+03;  1.9197525E-01;  1.4104044E+03;3; -2.7362623E+01;  0.0000000E+00; -9.0854874E+00;0;  2.7640858E+00;  1.1278495E+04;  0.0000000E+00;  1.8286186E-01;  4.0000000E+04;  0.0000000E+00;  3.8514582E+04;  2.9881248E+00;  0.0000000E+00; -2.2403920E-01;  1.2156342E+04;
  1.8153485E+00;  9.9999998E-03; -4.0664867E-02;9172;  1.3379972E+00;  0.0000000E+00;  7.6665361E-03;  1.0015902E+03;  1.9194448E-01;  1.3033190E+03;3; -2.6168661E+01;  0.0000000E+00;  7.1506286E+00;0;  2.7303143E+00;  1.1277307E+04;  0.0000000E+00;  1.3379249E-01;  4.0000000E+04;  0.0000000E+00;  3.8516555E+04;  2.9543386E+00;  0.0000000E+00; -2.2402439E-01;  1.1920947E+04;
  1.8153485E+00;  9.9999998E-03;  4.0665206E-02;9180;  1.3379973E+00;  0.0000000E+00; -7.6668682E-03;  1.0015903E+03;  1.9194442E-01;  1.3033188E+03;3; -2.6168684E+01;  0.0000000E+00; -7.1506929E+00;0;  2.7303095E+00;  1.1277307E+04;  0.0000000E+00;  1.3381270E-01;  4.0000000E+04;  0.0000000E+00;  3.8516551E+04;  2.9543340E+00;  0.0000000E+00; -2.2402446E-01;  1.1920953E+04;
  1.8153224E+00;  9.9999998E-03; -3.0499671E-02;9173;  1.3388189E+00;  0.0000000E+00;  5.7412428E-03;  1.0014361E+03;  1.9193718E-01;  1.1769977E+03;3; -2.5483896E+01;  0.0000000E+00;  5.2990766E+00;0;  2.7071726E+00;  1.1273128E+04;  0.0000000E+00;  8.2811534E-02;  4.0000000E+04;  0.0000000E+00;  3.8519152E+04;  2.9314270E+00;  0.0000000E+00; -2.2425427E-01;  1.1585312E+04;
  1.8153224E+00;  9.9999998E-03;  3.0500012E-02;9179;  1.3388188E+00;  0.0000000E+00; -5.7415813E-03;  1.0014363E+03;  1.9193880E-01;  1.1771930E+03;3; -2.5483929E+01;  0.0000000E+00; -5.2992153E+00;0;  2.7071698E+00;  1.1273129E+04;  0.0000000E+00;  8.2828857E-02;  4.0000000E+04;  0.0000000E+00;  3.8519156E+04;  2.9314239E+00;  0.0000000E+00; -2.2425422E-01;  1.1585303E+04;
  1.8152237E+00;  9.9999998E-03; -1.0167193E-02;9175;  1.3392676E+00;  0.0000000E+00;  1.9326814E-03;  1.0012212E+03;  1.9194847E-01;  1.0008594E+03;3; -2.4887711E+01;  0.0000000E+00;  1.7579693E+00;0;  2.6850674E+00;  1.1264328E+04;  0.0000000E+00;  1.0176207E-02;  4.0000000E+04;  0.0000000E+00;  3.8524109E+04;  2.9099355E+00;  0.0000000E+00; -2.2486801E-01;  1.0982711E+04;
  1.8152051E+00;  9.9999998E-03;  1.7180042E-07;9176;  1.3392866E+00;  0.0000000E+00; -1.6779745E-07;  1.0011936E+03;  1.9195238E-01;  9.7829315E+02;3; -2.4821615E+01;  0.0000000E+00; -7.3797848E-05;0;  2.6826930E+00;  1.1262884E+04;  0.0000000E+00; -4.8748927E-10;  4.0000000E+04;  0.0000000E+00;  3.8525094E+04;  2.9076700E+00;  0.0000000E+00; -2.2497714E-01;  1.0887481E+04;
  1.8152237E+00;  9.9999998E-03;  1.0167536E-02;9177;  1.3392676E+00;  0.0000000E+00; -1.9330198E-03;  1.0012209E+03;  1.9194967E-01;  1.0006640E+03;3; -2.4887714E+01;  0.0000000E+00; -1.7581245E+00;0;  2.6850667E+00;  1.1264335E+04;  0.0000000E+00;  1.0182513E-02;  4.0000000E+04;  0.0000000E+00;  3.8524113E+04;  2.9099348E+00;  0.0000000E+00; -2.2486797E-01;  1.0982705E+04;
  1.8152698E+00;  9.9999998E-03; -2.0333629E-02;9174;  1.3391525E+00;  0.0000000E+00;  3.8454491E-03;  1.0013039E+03;  1.9194385E-01;  1.0686567E+03;3; -2.5117203E+01;  0.0000000E+00;  3.4872870E+00;0;  2.6927795E+00;  1.1268137E+04;  0.0000000E+00;  3.9240252E-02;  4.0000000E+04;  0.0000000E+00;  3.8521852E+04;  2.9173706E+00;  0.0000000E+00; -2.2459099E-01;  1.1240259E+04;
  1.8152698E+00;  9.9999998E-03;  2.0333974E-02;9178;  1.3391526E+00;  0.0000000E+00; -3.8457818E-03;  1.0013038E+03;  1.9194271E-01;  1.0685591E+03;3; -2.5117250E+01;  0.0000000E+00; -3.4874246E+00;0;  2.6927786E+00;  1.1268135E+04;  0.0000000E+00;  3.9252415E-02;  4.0000000E+04;  0.0000000E+00;  3.8521859E+04;  2.9173696E+00;  0.0000000E+00; -2.2459100E-01;  1.1240297E+04;
  1.8309357E+00;  9.9999998E-03; -1.0199340E-01;9223;  1.3411714E+00;  0.0000000E+00;  1.1870477E-02;  1.0008500E+03;  1.8136577E-01;  6.9466034E+02;3; -1.8985250E+01;  0.0000000E+00;  1.6436747E+01;0;  2.3284712E+00;  1.2636143E+04;  0.0000000E+00;  1.2014290E-01;  4.0000000E+04;  0.0000000E+00;  3.8488398E+04;  2.4767878E+00;  0.0000000E+00; -1.4831671E-01;  9.4324150E+03;
  1.8313339E+00;  9.9999998E-03; -9.1712147E-02;9224;  1.3469834E+00;  0.0000000E+00;  1.0261176E-02;  1.0011143E+03;  1.8123950E-01;  9.1068250E+02;3; -1.3269148E+01;  0.0000000E+00;  1.4503018E+01;0;  2.2245681E+00;  1.2661906E+04;  0.0000000E+00;  1.1577868E-01;  4.0000000E+04;  0.0000000E+00;  3.8481840E+04;  2.3693917E+00;  0.0000000E+00; -1.4482360E-01;  1.0095231E+04;
  1.8317517E+00;  9.9999998E-03; -8.1468701E-02;9225;  1.3519899E+00;  0.0000000E+00;  8.7121101E-03;  1.0013713E+03;  1.8110631E-01;  1.1205282E+03;3; -7.9029093E+00;  0.0000000E+00;  1.2596930E+01;0;  2.1299493E+00;  1.2687622E+04;  0.0000000E+00;  1.2654337E-01;  4.0000000E+04;  0.0000000E+00;  3.8475820E+04;  2.2717531E+00;  0.0000000E+00; -1.4180367E-01;  1.0672015E+04;
  1.8321350E+00;  9.9999998E-03; -7.1254484E-02;9226;  1.3558947E+00;  0.0000000E+00;  7.2918101E-03;  1.0015941E+03;  1.8098147E-01;  1.3024897E+03;3; -3.2024689E+00;  0.0000000E+00;  1.0787185E+01;0;  2.0472791E+00;  1.2709955E+04;  0.0000000E+00;  1.3803826E-01;  4.0000000E+04;  0.0000000E+00;  3.8471102E+04;  2.1865690E+00;  0.0000000E+00; -1.3928978E-01;  1.1111710E+04;
  1.8324566E+00;  9.9999998E-03; -6.1059806E-02;9227;  1.3587242E+00;  0.0000000E+00;  6.0174572E-03;  1.0017507E+03;  1.8087241E-01;  1.4303851E+03;3;  6.5193135E-01;  0.0000000E+00;  8.9964561E+00;0;  1.9776375E+00;  1.2727525E+04;  0.0000000E+00;  1.3892710E-01;  4.0000000E+04;  0.0000000E+00;  3.8468086E+04;  2.1149337E+00;  0.0000000E+00; -1.3729614E-01;  1.1386715E+04;
  1.8324566E+00;  9.9999998E-03;  6.1060145E-02;9239;  1.3587242E+00;  0.0000000E+00; -6.0178097E-03;  1.0017509E+03;  1.8087311E-01;  1.4304825E+03;3;  6.5189481E-01;  0.0000000E+00; -8.9965343E+00;0;  1.9776367E+00;  1.2727522E+04;  0.0000000E+00;  1.3894324E-01;  4.0000000E+04;  0.0000000E+00;  3.8468098E+04;  2.1149330E+00;  0.0000000E+00; -1.3729633E-01;  1.1386751E+04;
  1.8327036E+00;  9.9999998E-03; -5.0876703E-02;9228;  1.3606830E+00;  0.0000000E+00;  4.8589529E-03;  1.0018240E+03;  1.8078499E-01;  1.4902095E+03;3;  3.4816463E+00;  0.0000000E+00;  7.1862116E+00;0;  1.9211992E+00;  1.2739831E+04;  0.0000000E+00;  1.2524630E-01;  4.0000000E+04;  0.0000000E+00;  3.8466336E+04;  2.0570288E+00;  0.0000000E+00; -1.3582955E-01;  1.1494054E+04;
  1.8327036E+00;  9.9999998E-03;  5.0877042E-02;9238;  1.3606830E+00;  0.0000000E+00; -4.8593166E-03;  1.0018241E+03;  1.8078484E-01;  1.4903069E+03;3;  3.4816217E+00;  0.0000000E+00; -7.1862297E+00;0;  1.9211986E+00;  1.2739830E+04;  0.0000000E+00;  1.2526944E-01;  4.0000000E+04;  0.0000000E+00;  3.8466336E+04;  2.0570283E+00;  0.0000000E+00; -1.3582967E-01;  1.1494022E+04;
  1.8328730E+00;  9.9999998E-03; -4.0698867E-02;9229;  1.3619862E+00;  0.0000000E+00;  3.8098216E-03;  1.0018332E+03;  1.8072012E-01;  1.4976567E+03;3;  5.4191194E+00;  0.0000000E+00;  5.3680601E+00;0;  1.8775387E+00;  1.2747303E+04;  0.0000000E+00;  9.8984092E-02;  4.0000000E+04;  0.0000000E+00;  3.8466000E+04;  2.0124130E+00;  0.0000000E+00; -1.3487428E-01;  1.1455782E+04;
  1.8328730E+00;  9.9999998E-03;  4.0699206E-02;9237;  1.3619863E+00;  0.0000000E+00; -3.8101757E-03;  1.0018334E+03;  1.8071936E-01;  1.4978514E+03;3;  5.4190197E+00;  0.0000000E+00; -5.3681045E+00;0;  1.8775389E+00;  1.2747302E+04;  0.0000000E+00;  9.9007256E-02;  4.0000000E+04;  0.0000000E+00;  3.8466016E+04;  2.0124133E+00;  0.0000000E+00; -1.3487437E-01;  1.1455789E+04;
  1.8329749E+00;  9.9999998E-03; -3.0523062E-02;9230;  1.3628051E+00;  0.0000000E+00;  2.8564674E-03;  1.0018130E+03;  1.8067420E-01;  1.4810695E+03;3;  6.6692505E+00;  0.0000000E+00;  3.8925962E+00;0;  1.8455944E+00;  1.2750900E+04;  0.0000000E+00;  6.5724313E-02;  4.0000000E+04;  0.0000000E+00;  3.8466863E+04;  1.9799422E+00;  0.0000000E+00; -1.3434780E-01;  1.1317298E+04;
  1.8329749E+00;  9.9999998E-03;  3.0523401E-02;9236;  1.3628052E+00;  0.0000000E+00; -2.8568259E-03;  1.0018129E+03;  1.8067470E-01;  1.4810695E+03;3;  6.6691384E+00;  0.0000000E+00; -3.8927140E+00;0;  1.8455945E+00;  1.2750901E+04;  0.0000000E+00;  6.5745138E-02;  4.0000000E+04;  0.0000000E+00;  3.8466867E+04;  1.9799424E+00;  0.0000000E+00; -1.3434790E-01;  1.1317347E+04;
  1.8330278E+00;  9.9999998E-03; -2.0348296E-02;9231;  1.3632365E+00;  0.0000000E+00;  1.9315290E-03;  1.0017855E+03;  1.8064806E-01;  1.4586544E+03;3;  7.4390359E+00;  0.0000000E+00;  2.5217440E+00;0;  1.8240318E+00;  1.2752140E+04;  0.0000000E+00;  3.2993708E-02;  4.0000000E+04;  0.0000000E+00;  3.8468383E+04;  1.9581504E+00;  0.0000000E+00; -1.3411859E-01;  1.1142236E+04;
  1.8330278E+00;  9.9999998E-03;  2.0348636E-02;9235;  1.3632365E+00;  0.0000000E+00; -1.9318985E-03;  1.0017858E+03;  1.8064918E-01;  1.4588492E+03;3;  7.4390655E+00;  0.0000000E+00; -2.5218618E+00;0;  1.8240308E+00;  1.2752145E+04;  0.0000000E+00;  3.3009417E-02;  4.0000000E+04;  0.0000000E+00;  3.8468383E+04;  1.9581493E+00;  0.0000000E+00; -1.3411859E-01;  1.1142265E+04;
  1.8330522E+00;  9.9999998E-03; -1.0174022E-02;9232;  1.3634367E+00;  0.0000000E+00;  9.8134822E-04;  1.0017559E+03;  1.8063356E-01;  1.4344954E+03;3;  7.8288465E+00;  0.0000000E+00;  1.2939289E+00;0;  1.8115700E+00;  1.2752367E+04;  0.0000000E+00;  8.8915452E-03;  4.0000000E+04;  0.0000000E+00;  3.8469312E+04;  1.9456105E+00;  0.0000000E+00; -1.3404043E-01;  1.0999671E+04;
  1.8330522E+00;  9.9999998E-03;  1.0174363E-02;9234;  1.3634367E+00;  0.0000000E+00; -9.8171714E-04;  1.0017558E+03;  1.8063334E-01;  1.4343979E+03;3;  7.8288512E+00;  0.0000000E+00; -1.2940685E+00;0;  1.8115696E+00;  1.2752366E+04;  0.0000000E+00;  8.8998862E-03;  4.0000000E+04;  0.0000000E+00;  3.8469316E+04;  1.9456098E+00;  0.0000000E+00; -1.3404021E-01;  1.0999704E+04;
  1.8330585E+00;  9.9999998E-03;  1.7020406E-07;9233;  1.3634926E+00;  0.0000000E+00; -1.8528794E-07;  1.0017475E+03;  1.8062817E-01;  1.4275790E+03;3;  7.9504747E+00;  0.0000000E+00; -8.8764122E-05;0;  1.8075162E+00;  1.2752356E+04;  0.0000000E+00; -4.9147192E-10;  4.0000000E+04;  0.0000000E+00;  3.8469977E+04;  1.9415431E+00;  0.0000000E+00; -1.3402686E-01;  1.0945084E+04;
  1.8476720E+00;  9.9999998E-03; -9.1952942E-02;9281;  1.3618068E+00;  0.0000000E+00;  2.6694494E-03;  1.0006549E+03;  1.7197976E-01;  5.3324841E+02;3;  6.0697007E+00;  0.0000000E+00;  1.4871989E+01;0;  1.5780554E+00;  1.4069815E+04;  0.0000000E+00;  8.4533006E-02;  4.0000000E+04;  0.0000000E+00;  3.8431898E+04;  1.6511778E+00;  0.0000000E+00; -7.3122337E-02;  8.3742090E+03;
  1.8479916E+00;  9.9999998E-03; -8.1661604E-02;9282;  1.3639061E+00;  0.0000000E+00;  2.1544453E-03;  1.0008018E+03;  1.7190102E-01;  6.5277344E+02;3;  1.0000281E+01;  0.0000000E+00;  1.3128947E+01;0;  1.4899076E+00;  1.4088509E+04;  0.0000000E+00;  5.3290762E-02;  4.0000000E+04;  0.0000000E+00;  3.8425879E+04;  1.5596790E+00;  0.0000000E+00; -6.9771454E-02;  8.9387227E+03;
  1.8483567E+00;  9.9999998E-03; -7.1401648E-02;9283;  1.3656595E+00;  0.0000000E+00;  1.6397557E-03;  1.0010105E+03;  1.7181088E-01;  8.2263507E+02;3;  1.3123686E+01;  0.0000000E+00;  1.1609229E+01;0;  1.4110615E+00;  1.4109629E+04;  0.0000000E+00;  3.9164029E-02;  4.0000000E+04;  0.0000000E+00;  3.8420266E+04;  1.4779546E+00;  0.0000000E+00; -6.6893078E-02;  9.4640889E+03;
  1.8487176E+00;  9.9999998E-03; -6.1166991E-02;9284;  1.3669689E+00;  0.0000000E+00;  1.2103106E-03;  1.0012269E+03;  1.7171502E-01;  9.9867578E+02;3;  1.5534786E+01;  0.0000000E+00;  1.0028861E+01;0;  1.3431133E+00;  1.4130495E+04;  0.0000000E+00;  3.5798986E-02;  4.0000000E+04;  0.0000000E+00;  3.8415133E+04;  1.4076172E+00;  0.0000000E+00; -6.4503931E-02;  9.9073838E+03;
  1.8487176E+00;  9.9999998E-03;  6.1167326E-02;9296;  1.3669688E+00;  0.0000000E+00; -1.2107121E-03;  1.0012267E+03;  1.7171563E-01;  9.9848169E+02;3;  1.5534635E+01;  0.0000000E+00; -1.0028664E+01;0;  1.3431146E+00;  1.4130492E+04;  0.0000000E+00;  3.5810530E-02;  4.0000000E+04;  0.0000000E+00;  3.8415137E+04;  1.4076186E+00;  0.0000000E+00; -6.4503998E-02;  9.9074004E+03;
  1.8490475E+00;  9.9999998E-03; -5.0951511E-02;9285;  1.3678838E+00;  0.0000000E+00;  9.0202742E-04;  1.0014139E+03;  1.7162453E-01;  1.1508243E+03;3;  1.7526211E+01;  0.0000000E+00;  8.3937311E+00;0;  1.2864906E+00;  1.4149291E+04;  0.0000000E+00;  3.4720317E-02;  4.0000000E+04;  0.0000000E+00;  3.8411137E+04;  1.3490914E+00;  0.0000000E+00; -6.2600821E-02;  1.0247104E+04;
  1.8490475E+00;  9.9999998E-03;  5.0951850E-02;9295;  1.3678839E+00;  0.0000000E+00; -9.0240431E-04;  1.0014142E+03;  1.7162466E-01;  1.1510183E+03;3;  1.7526148E+01;  0.0000000E+00; -8.3937254E+00;0;  1.2864910E+00;  1.4149288E+04;  0.0000000E+00;  3.4738041E-02;  4.0000000E+04;  0.0000000E+00;  3.8411137E+04;  1.3490918E+00;  0.0000000E+00; -6.2600754E-02;  1.0247098E+04;
  1.8493277E+00;  9.9999998E-03; -4.0750388E-02;9286;  1.3684921E+00;  0.0000000E+00;  6.8404456E-04;  1.0015674E+03;  1.7154559E-01;  1.2757010E+03;3;  1.9053322E+01;  0.0000000E+00;  6.7998362E+00;0;  1.2411619E+00;  1.4164956E+04;  0.0000000E+00;  3.0728295E-02;  4.0000000E+04;  0.0000000E+00;  3.8407992E+04;  1.3023427E+00;  0.0000000E+00; -6.1180763E-02;  1.0480683E+04;
  1.8493277E+00;  9.9999998E-03;  4.0750727E-02;9294;  1.3684922E+00;  0.0000000E+00; -6.8443123E-04;  1.0015671E+03;  1.7154440E-01;  1.2754099E+03;3;  1.9053160E+01;  0.0000000E+00; -6.7998896E+00;0;  1.2411637E+00;  1.4164957E+04;  0.0000000E+00;  3.0746695E-02;  4.0000000E+04;  0.0000000E+00;  3.8407988E+04;  1.3023447E+00;  0.0000000E+00; -6.1180927E-02;  1.0480708E+04;
  1.8495433E+00;  9.9999998E-03; -3.0558117E-02;9287;  1.3688823E+00;  0.0000000E+00;  5.1437150E-04;  1.0016810E+03;  1.7148501E-01;  1.3679861E+03;3;  2.0251581E+01;  0.0000000E+00;  5.0442476E+00;0;  1.2068924E+00;  1.4176687E+04;  0.0000000E+00;  2.2607943E-02;  4.0000000E+04;  0.0000000E+00;  3.8406109E+04;  1.2671217E+00;  0.0000000E+00; -6.0229264E-02;  1.0620698E+04;
  1.8495433E+00;  9.9999998E-03;  3.0558456E-02;9293;  1.3688823E+00;  0.0000000E+00; -5.1477132E-04;  1.0016812E+03;  1.7148511E-01;  1.3681801E+03;3;  2.0251884E+01;  0.0000000E+00; -5.0444131E+00;0;  1.2068927E+00;  1.4176692E+04;  0.0000000E+00;  2.2626808E-02;  4.0000000E+04;  0.0000000E+00;  3.8406109E+04;  1.2671220E+00;  0.0000000E+00; -6.0229339E-02;  1.0620698E+04;
  1.8496920E+00;  9.9999998E-03; -2.0370567E-02;9288;  1.3691015E+00;  0.0000000E+00;  3.4776391E-04;  1.0017604E+03;  1.7144151E-01;  1.4325414E+03;3;  2.1088800E+01;  0.0000000E+00;  3.3684380E+00;0;  1.1830992E+00;  1.4184664E+04;  0.0000000E+00;  1.2259149E-02;  4.0000000E+04;  0.0000000E+00;  3.8404863E+04;  1.2427689E+00;  0.0000000E+00; -5.9669700E-02;  1.0690033E+04;
  1.8496920E+00;  9.9999998E-03;  2.0370906E-02;9292;  1.3691015E+00;  0.0000000E+00; -3.4815300E-04;  1.0017602E+03;  1.7144142E-01;  1.4324445E+03;3;  2.1088249E+01;  0.0000000E+00; -3.3684466E+00;0;  1.1830999E+00;  1.4184665E+04;  0.0000000E+00;  1.2273314E-02;  4.0000000E+04;  0.0000000E+00;  3.8404867E+04;  1.2427696E+00;  0.0000000E+00; -5.9669685E-02;  1.0690029E+04;
  1.8497767E+00;  9.9999998E-03; -1.0184942E-02;9289;  1.3692055E+00;  0.0000000E+00;  1.7295308E-04;  1.0017977E+03;  1.7141433E-01;  1.4628730E+03;3;  2.1572031E+01;  0.0000000E+00;  1.6896977E+00;0;  1.1691750E+00;  1.4189196E+04;  0.0000000E+00;  3.4635244E-03;  4.0000000E+04;  0.0000000E+00;  3.8404680E+04;  1.2285742E+00;  0.0000000E+00; -5.9399143E-02;  1.0716168E+04;
  1.8497767E+00;  9.9999998E-03;  1.0185282E-02;9291;  1.3692055E+00;  0.0000000E+00; -1.7335519E-04;  1.0017978E+03;  1.7141557E-01;  1.4629701E+03;3;  2.1572096E+01;  0.0000000E+00; -1.6898293E+00;0;  1.1691753E+00;  1.4189193E+04;  0.0000000E+00;  3.4712187E-03;  4.0000000E+04;  0.0000000E+00;  3.8404684E+04;  1.2285744E+00;  0.0000000E+00; -5.9399180E-02;  1.0716119E+04;
  1.8498045E+00;  9.9999998E-03;  1.7017400E-07;9290;  1.3692342E+00;  0.0000000E+00; -2.0309255E-07;  1.0018151E+03;  1.7140572E-01;  1.4770254E+03;3;  2.1800703E+01;  0.0000000E+00; -4.8198712E-05;0;  1.1645818E+00;  1.4190627E+04;  0.0000000E+00; -3.6361494E-10;  4.0000000E+04;  0.0000000E+00;  3.8404242E+04;  1.2239016E+00;  0.0000000E+00; -5.9319831E-02;  1.0721753E+04;
  1.8634677E+00;  9.9999998E-03; -9.2195153E-02;9337;  1.3692493E+00;  0.0000000E+00; -5.1430613E-03;  1.0001588E+03;  1.6428614E-01;  1.2870428E+02;3;  1.5722473E+01;  0.0000000E+00;  1.4727551E+01;0;  1.0913893E+00;  1.5428759E+04;  0.0000000E+00;  7.8621596E-02;  4.0000000E+04;  0.0000000E+00;  3.8370172E+04;  1.1056154E+00;  0.0000000E+00; -1.4226124E-02;  6.5204346E+03;
  1.8636248E+00;  9.9999998E-03; -8.1872560E-02;9338;  1.3691664E+00;  0.0000000E+00; -4.2602709E-03;  1.0001219E+03;  1.6426240E-01;  9.8745659E+01;3;  1.7975693E+01;  0.0000000E+00;  1.2327393E+01;0;  1.0158768E+00;  1.5434730E+04;  0.0000000E+00;  2.4391567E-02;  4.0000000E+04;  0.0000000E+00;  3.8365629E+04;  1.0268437E+00;  0.0000000E+00; -1.0966885E-02;  6.9330420E+03;
  1.8638902E+00;  9.9999998E-03; -7.1570322E-02;9339;  1.3693810E+00;  0.0000000E+00; -3.6159276E-03;  1.0002481E+03;  1.6421582E-01;  2.0104926E+02;3;  1.9839148E+01;  0.0000000E+00;  1.0022077E+01;0;  9.4768155E-01;  1.5449031E+04;  0.0000000E+00; -1.2445369E-02;  4.0000000E+04;  0.0000000E+00;  3.8359938E+04;  9.5594692E-01;  0.0000000E+00; -8.2653509E-03;  7.4476528E+03;
  1.8642200E+00;  9.9999998E-03; -6.1294835E-02;9340;  1.3696384E+00;  0.0000000E+00; -3.0948964E-03;  1.0004666E+03;  1.6415305E-01;  3.7809888E+02;3;  2.1379444E+01;  0.0000000E+00;  8.1329823E+00;0;  8.8797688E-01;  1.5468076E+04;  0.0000000E+00; -3.1963620E-02;  4.0000000E+04;  0.0000000E+00;  3.8353738E+04;  8.9397973E-01;  0.0000000E+00; -6.0028350E-03;  7.9947524E+03;
  1.8642200E+00;  9.9999998E-03;  6.1295170E-02;9352;  1.3696384E+00;  0.0000000E+00;  3.0943588E-03;  1.0004667E+03;  1.6415288E-01;  3.7819550E+02;3;  2.1379717E+01;  0.0000000E+00; -8.1331110E+00;0;  8.8797647E-01;  1.5468080E+04;  0.0000000E+00; -3.1964321E-02;  4.0000000E+04;  0.0000000E+00;  3.8353746E+04;  8.9397937E-01;  0.0000000E+00; -6.0029044E-03;  7.9947393E+03;
  1.8645641E+00;  9.9999998E-03; -5.1043611E-02;9341;  1.3698353E+00;  0.0000000E+00; -2.6171340E-03;  1.0007153E+03;  1.6408181E-01;  5.7964240E+02;3;  2.2409979E+01;  0.0000000E+00;  6.6034636E+00;0;  8.3761144E-01;  1.5489287E+04;  0.0000000E+00; -3.5562720E-02;  4.0000000E+04;  0.0000000E+00;  3.8347758E+04;  8.4178436E-01;  0.0000000E+00; -4.1729053E-03;  8.5256377E+03;
  1.8645641E+00;  9.9999998E-03;  5.1043946E-02;9351;  1.3698354E+00;  0.0000000E+00;  2.6167005E-03;  1.0007154E+03;  1.6408254E-01;  5.7964240E+02;3;  2.2409847E+01;  0.0000000E+00; -6.6034894E+00;0;  8.3761227E-01;  1.5489291E+04;  0.0000000E+00; -3.5557568E-02;  4.0000000E+04;  0.0000000E+00;  3.8347754E+04;  8.4178525E-01;  0.0000000E+00; -4.1729975E-03;  8.5256270E+03;
  1.8648891E+00;  9.9999998E-03; -4.0813416E-02;9342;  1.3699510E+00;  0.0000000E+00; -2.1277643E-03;  1.0009655E+03;  1.6401142E-01;  7.8220813E+02;3;  2.3153896E+01;  0.0000000E+00;  5.2250872E+00;0;  7.9672551E-01;  1.5509641E+04;  0.0000000E+00; -2.9056335E-02;  4.0000000E+04;  0.0000000E+00;  3.8342164E+04;  7.9948759E-01;  0.0000000E+00; -2.7620555E-03;  9.0040049E+03;
  1.8648891E+00;  9.9999998E-03;  4.0813755E-02;9350;  1.3699510E+00;  0.0000000E+00;  2.1273200E-03;  1.0009655E+03;  1.6401073E-01;  7.8220813E+02;3;  2.3153427E+01;  0.0000000E+00; -5.2249513E+00;0;  7.9672521E-01;  1.5509645E+04;  0.0000000E+00; -2.9047748E-02;  4.0000000E+04;  0.0000000E+00;  3.8342168E+04;  7.9948729E-01;  0.0000000E+00; -2.7620916E-03;  9.0040410E+03;
  1.8651662E+00;  9.9999998E-03; -3.0599210E-02;9343;  1.3699994E+00;  0.0000000E+00; -1.6101096E-03;  1.0011849E+03;  1.6395211E-01;  9.5983057E+02;3;  2.3731991E+01;  0.0000000E+00;  3.9687212E+00;0;  7.6527494E-01;  1.5527150E+04;  0.0000000E+00; -1.8722862E-02;  4.0000000E+04;  0.0000000E+00;  3.8337148E+04;  7.6703501E-01;  0.0000000E+00; -1.7600878E-03;  9.4033076E+03;
  1.8651662E+00;  9.9999998E-03;  3.0599549E-02;9349;  1.3699995E+00;  0.0000000E+00;  1.6096608E-03;  1.0011849E+03;  1.6395190E-01;  9.5992712E+02;3;  2.3731417E+01;  0.0000000E+00; -3.9686968E+00;0;  7.6527500E-01;  1.5527152E+04;  0.0000000E+00; -1.8713513E-02;  4.0000000E+04;  0.0000000E+00;  3.8337145E+04;  7.6703513E-01;  0.0000000E+00; -1.7601200E-03;  9.4033408E+03;
  1.8653728E+00;  9.9999998E-03; -2.0395182E-02;9344;  1.3699940E+00;  0.0000000E+00; -1.0924434E-03;  1.0013575E+03;  1.6390714E-01;  1.0996896E+03;3;  2.4109383E+01;  0.0000000E+00;  2.8342757E+00;0;  7.4311268E-01;  1.5540340E+04;  0.0000000E+00; -8.9571476E-03;  4.0000000E+04;  0.0000000E+00;  3.8333793E+04;  7.4424225E-01;  0.0000000E+00; -1.1295673E-03;  9.7031523E+03;
  1.8653728E+00;  9.9999998E-03;  2.0395519E-02;9348;  1.3699940E+00;  0.0000000E+00;  1.0919799E-03;  1.0013576E+03;  1.6390598E-01;  1.0996896E+03;3;  2.4109589E+01;  0.0000000E+00; -2.8344064E+00;0;  7.4311262E-01;  1.5540332E+04;  0.0000000E+00; -8.9495871E-03;  4.0000000E+04;  0.0000000E+00;  3.8333793E+04;  7.4424219E-01;  0.0000000E+00; -1.1295588E-03;  9.7031602E+03;
  1.8654978E+00;  9.9999998E-03; -1.0196892E-02;9345;  1.3699818E+00;  0.0000000E+00; -5.7672121E-04;  1.0014414E+03;  1.6387664E-01;  1.1675277E+03;3;  2.4396383E+01;  0.0000000E+00;  1.7275510E+00;0;  7.2999513E-01;  1.5548335E+04;  0.0000000E+00; -2.3206528E-03;  4.0000000E+04;  0.0000000E+00;  3.8331684E+04;  7.3079681E-01;  0.0000000E+00; -8.0165913E-04;  9.8888818E+03;
  1.8654978E+00;  9.9999998E-03;  1.0197228E-02;9347;  1.3699818E+00;  0.0000000E+00;  5.7626294E-04;  1.0014414E+03;  1.6387664E-01;  1.1675277E+03;3;  2.4396441E+01;  0.0000000E+00; -1.7276745E+00;0;  7.2999531E-01;  1.5548334E+04;  0.0000000E+00; -2.3164796E-03;  4.0000000E+04;  0.0000000E+00;  3.8331676E+04;  7.3079699E-01;  0.0000000E+00; -8.0167549E-04;  9.8888809E+03;
  1.8655391E+00;  9.9999998E-03;  1.6804520E-07;9346;  1.3699694E+00;  0.0000000E+00; -2.2830018E-07;  1.0014866E+03;  1.6386946E-01;  1.2041083E+03;3;  2.4395599E+01;  0.0000000E+00; -6.9287002E-05;0;  7.2566229E-01;  1.5550991E+04;  0.0000000E+00; -1.9153139E-10;  4.0000000E+04;  0.0000000E+00;  3.8330836E+04;  7.2636676E-01;  0.0000000E+00; -7.0449588E-04;  9.9517119E+03;
  1.8788974E+00;  9.9999998E-03; -8.2054362E-02;9393;  1.3715883E+00;  0.0000000E+00; -9.4506228E-03;  9.9952673E+02;  1.5788236E-01; -3.8151071E+02;3;  2.2963917E+01;  0.0000000E+00;  9.0508146E+00;0;  6.7899472E-01;  1.6721562E+04;  0.0000000E+00;  3.6040857E-02;  4.0000000E+04;  0.0000000E+00;  3.8289516E+04;  6.4412194E-01;  0.0000000E+00;  3.4872763E-02;  5.1199282E+03;
  1.8789470E+00;  9.9999998E-03; -9.2369616E-02;9392;  1.3729970E+00;  0.0000000E+00; -1.1218112E-02;  9.9978674E+02;  1.5785855E-01; -1.7191670E+02;3;  2.1208252E+01;  0.0000000E+00;  1.1397285E+01;0;  7.4042797E-01;  1.6732555E+04;  0.0000000E+00;  8.6726286E-02;  4.0000000E+04;  0.0000000E+00;  3.8290410E+04;  7.0844555E-01;  0.0000000E+00;  3.1982407E-02;  5.0653594E+03;
  1.8789833E+00;  9.9999998E-03; -7.1732305E-02;9394;  1.3706239E+00;  0.0000000E+00; -7.6712412E-03;  9.9949084E+02;  1.5788063E-01; -4.1042242E+02;3;  2.3843086E+01;  0.0000000E+00;  6.2452912E+00;0;  6.2348413E-01;  1.6722885E+04;  0.0000000E+00;  3.4614906E-03;  4.0000000E+04;  0.0000000E+00;  3.8285652E+04;  5.8640915E-01;  0.0000000E+00;  3.7074979E-02;  5.4491162E+03;
  1.8791871E+00;  9.9999998E-03; -6.1425827E-02;9395;  1.3700974E+00;  0.0000000E+00; -6.1054267E-03;  9.9962335E+02;  1.5785922E-01; -3.0358829E+02;3;  2.4361235E+01;  0.0000000E+00;  4.6904526E+00;0;  5.7457328E-01;  1.6733760E+04;  0.0000000E+00; -1.8110920E-02;  4.0000000E+04;  0.0000000E+00;  3.8280043E+04;  5.3574085E-01;  0.0000000E+00;  3.8832448E-02;  5.9501621E+03;
  1.8791871E+00;  9.9999998E-03;  6.1426166E-02;9407;  1.3700975E+00;  0.0000000E+00;  6.1049401E-03;  9.9962323E+02;  1.5785995E-01; -3.0368439E+02;3;  2.4360821E+01;  0.0000000E+00; -4.6904368E+00;0;  5.7457328E-01;  1.6733762E+04;  0.0000000E+00; -1.8123861E-02;  4.0000000E+04;  0.0000000E+00;  3.8280047E+04;  5.3574091E-01;  0.0000000E+00;  3.8832355E-02;  5.9501870E+03;
  1.8794637E+00;  9.9999998E-03; -5.1142417E-02;9396;  1.3698468E+00;  0.0000000E+00; -4.7957976E-03;  9.9985864E+02;  1.5782188E-01; -1.1394724E+02;3;  2.4698797E+01;  0.0000000E+00;  3.4470756E+00;0;  5.3289467E-01;  1.6750986E+04;  0.0000000E+00; -2.9060489E-02;  4.0000000E+04;  0.0000000E+00;  3.8273367E+04;  4.9263883E-01;  0.0000000E+00;  4.0255819E-02;  6.5403623E+03;
  1.8794637E+00;  9.9999998E-03;  5.1142752E-02;9406;  1.3698469E+00;  0.0000000E+00;  4.7953133E-03;  9.9985852E+02;  1.5782201E-01; -1.1404331E+02;3;  2.4697273E+01;  0.0000000E+00; -3.4466023E+00;0;  5.3289419E-01;  1.6750986E+04;  0.0000000E+00; -2.9066816E-02;  4.0000000E+04;  0.0000000E+00;  3.8273363E+04;  4.9263841E-01;  0.0000000E+00;  4.0255774E-02;  6.5403926E+03;
  1.8797531E+00;  9.9999998E-03; -4.0881932E-02;9397;  1.3697206E+00;  0.0000000E+00; -3.6503344E-03;  1.0001450E+03;  1.5777941E-01;  1.1681612E+02;3;  2.5157185E+01;  0.0000000E+00;  2.5328178E+00;0;  4.9896204E-01;  1.6770432E+04;  0.0000000E+00; -2.8737674E-02;  4.0000000E+04;  0.0000000E+00;  3.8266059E+04;  4.5761397E-01;  0.0000000E+00;  4.1348081E-02;  7.1493101E+03;
  1.8797531E+00;  9.9999998E-03;  4.0882267E-02;9405;  1.3697207E+00;  0.0000000E+00;  3.6498141E-03;  1.0001448E+03;  1.5777978E-01;  1.1662399E+02;3;  2.5157658E+01;  0.0000000E+00; -2.5330133E+00;0;  4.9896234E-01;  1.6770424E+04;  0.0000000E+00; -2.8741904E-02;  4.0000000E+04;  0.0000000E+00;  3.8266059E+04;  4.5761439E-01;  0.0000000E+00;  4.1347954E-02;  7.1493159E+03;
  1.8800209E+00;  9.9999998E-03; -3.0641733E-02;9398;  1.3696402E+00;  0.0000000E+00; -2.6400152E-03;  1.0004176E+03;  1.5773566E-01;  3.3648288E+02;3;  2.5411552E+01;  0.0000000E+00;  1.8094318E+00;0;  4.7271606E-01;  1.6789174E+04;  0.0000000E+00; -2.0850960E-02;  4.0000000E+04;  0.0000000E+00;  3.8260016E+04;  4.3057060E-01;  0.0000000E+00;  4.2145472E-02;  7.7092734E+03;
  1.8800209E+00;  9.9999998E-03;  3.0642068E-02;9404;  1.3696402E+00;  0.0000000E+00;  2.6395086E-03;  1.0004177E+03;  1.5773582E-01;  3.3657895E+02;3;  2.5411961E+01;  0.0000000E+00; -1.8095797E+00;0;  4.7271582E-01;  1.6789182E+04;  0.0000000E+00; -2.0852793E-02;  4.0000000E+04;  0.0000000E+00;  3.8260027E+04;  4.3057036E-01;  0.0000000E+00;  4.2145450E-02;  7.7093062E+03;
  1.8802350E+00;  9.9999998E-03; -2.0418204E-02;9399;  1.3695759E+00;  0.0000000E+00; -1.7307196E-03;  1.0006433E+03;  1.5770255E-01;  5.1827179E+02;3;  2.5619356E+01;  0.0000000E+00;  1.1690731E+00;0;  4.5407596E-01;  1.6804363E+04;  0.0000000E+00; -1.0767353E-02;  4.0000000E+04;  0.0000000E+00;  3.8254812E+04;  4.1140178E-01;  0.0000000E+00;  4.2674173E-02;  8.1604771E+03;
  1.8802350E+00;  9.9999998E-03;  2.0418540E-02;9403;  1.3695760E+00;  0.0000000E+00;  1.7302248E-03;  1.0006431E+03;  1.5770252E-01;  5.1817578E+02;3;  2.5619530E+01;  0.0000000E+00; -1.1693701E+00;0;  4.5407590E-01;  1.6804367E+04;  0.0000000E+00; -1.0768929E-02;  4.0000000E+04;  0.0000000E+00;  3.8254812E+04;  4.1140175E-01;  0.0000000E+00;  4.2674147E-02;  8.1604956E+03;
  1.8803684E+00;  9.9999998E-03; -1.0206291E-02;9400;  1.3695165E+00;  0.0000000E+00; -8.6776022E-04;  1.0007931E+03;  1.5768315E-01;  6.3896924E+02;3;  2.5725418E+01;  0.0000000E+00;  5.8872139E-01;0;  4.4300380E-01;  1.6814000E+04;  0.0000000E+00; -2.9145607E-03;  4.0000000E+04;  0.0000000E+00;  3.8251375E+04;  4.0004557E-01;  0.0000000E+00;  4.2958230E-02;  8.4544268E+03;
  1.8803684E+00;  9.9999998E-03;  1.0206624E-02;9402;  1.3695165E+00;  0.0000000E+00;  8.6726528E-04;  1.0007932E+03;  1.5768304E-01;  6.3896924E+02;3;  2.5725588E+01;  0.0000000E+00; -5.8888882E-01;0;  4.4300383E-01;  1.6814000E+04;  0.0000000E+00; -2.9150026E-03;  4.0000000E+04;  0.0000000E+00;  3.8251371E+04;  4.0004560E-01;  0.0000000E+00;  4.2958219E-02;  8.4544326E+03;
  1.8804114E+00;  9.9999998E-03;  1.6648855E-07;9401;  1.3694807E+00;  0.0000000E+00; -2.5788285E-07;  1.0008445E+03;  1.5767579E-01;  6.8035175E+02;3;  2.5614611E+01;  0.0000000E+00; -9.8635457E-05;0;  4.3936443E-01;  1.6817105E+04;  0.0000000E+00; -1.2942179E-11;  4.0000000E+04;  0.0000000E+00;  3.8250359E+04;  3.9632374E-01;  0.0000000E+00;  4.3040685E-02;  8.5568721E+03;
  1.8938159E+00;  9.9999998E-03; -7.1850955E-02;9448;  1.3707623E+00;  0.0000000E+00; -1.0340037E-02;  9.9895789E+02;  1.5258613E-01; -8.3464337E+02;3;  2.5915354E+01;  0.0000000E+00;  4.8050551E+00;0;  4.0594110E-01;  1.7929307E+04;  0.0000000E+00;  5.4648608E-02;  4.0000000E+04;  0.0000000E+00;  3.8191688E+04;  3.3606932E-01;  0.0000000E+00;  6.9871776E-02;  3.9066672E+03;
  1.8938224E+00;  9.9999998E-03; -6.1534256E-02;9449;  1.3697119E+00;  0.0000000E+00; -8.2117794E-03;  9.9892847E+02;  1.5260111E-01; -8.5817523E+02;3;  2.5933361E+01;  0.0000000E+00;  3.1379828E+00;0;  3.6740732E-01;  1.7926672E+04;  0.0000000E+00;  5.9833843E-02;  4.0000000E+04;  0.0000000E+00;  3.8188789E+04;  2.9642087E-01;  0.0000000E+00;  7.0986465E-02;  4.1617876E+03;
  1.8938224E+00;  9.9999998E-03;  6.1534591E-02;9461;  1.3697119E+00;  0.0000000E+00;  8.2112597E-03;  9.9892847E+02;  1.5260111E-01; -8.5817523E+02;3;  2.5933893E+01;  0.0000000E+00; -3.1383681E+00;0;  3.6740682E-01;  1.7926678E+04;  0.0000000E+00;  5.9812434E-02;  4.0000000E+04;  0.0000000E+00;  3.8188789E+04;  2.9642034E-01;  0.0000000E+00;  7.0986480E-02;  4.1617437E+03;
  1.8939456E+00;  9.9999998E-03; -5.1229570E-02;9450;  1.3691275E+00;  0.0000000E+00; -6.2492271E-03;  9.9905127E+02;  1.5260065E-01; -7.5979120E+02;3;  2.5894506E+01;  0.0000000E+00;  1.9954500E+00;0;  3.3465359E-01;  1.7933805E+04;  0.0000000E+00;  5.6921590E-02;  4.0000000E+04;  0.0000000E+00;  3.8183430E+04;  2.6279336E-01;  0.0000000E+00;  7.1860231E-02;  4.6249941E+03;
  1.8939456E+00;  9.9999998E-03;  5.1229905E-02;9460;  1.3691275E+00;  0.0000000E+00;  6.2487386E-03;  9.9905127E+02;  1.5260065E-01; -7.5979120E+02;3;  2.5894203E+01;  0.0000000E+00; -1.9953454E+00;0;  3.3465374E-01;  1.7933803E+04;  0.0000000E+00;  5.6901898E-02;  4.0000000E+04;  0.0000000E+00;  3.8183434E+04;  2.6279345E-01;  0.0000000E+00;  7.1860269E-02;  4.6249663E+03;
  1.8939433E+00;  9.9999998E-03; -8.2157664E-02;9447;  1.3723648E+00;  0.0000000E+00; -1.2554009E-02;  9.9920166E+02;  1.5254971E-01; -6.3935754E+02;3;  2.5493782E+01;  0.0000000E+00;  6.1703529E+00;0;  4.5002168E-01;  1.7944439E+04;  0.0000000E+00;  5.0149377E-02;  4.0000000E+04;  0.0000000E+00;  3.8191027E+04;  3.8165218E-01;  0.0000000E+00;  6.8369493E-02;  3.9730759E+03;
  1.8941318E+00;  9.9999998E-03; -4.0946297E-02;9451;  1.3688172E+00;  0.0000000E+00; -4.5584282E-03;  9.9927258E+02;  1.5258735E-01; -5.8250024E+02;3;  2.6002464E+01;  0.0000000E+00;  1.4713577E+00;0;  3.0796209E-01;  1.7946523E+04;  0.0000000E+00;  4.5965716E-02;  4.0000000E+04;  0.0000000E+00;  3.8177172E+04;  2.3541336E-01;  0.0000000E+00;  7.2548732E-02;  5.1950464E+03;
  1.8941318E+00;  9.9999998E-03;  4.0946633E-02;9459;  1.3688174E+00;  0.0000000E+00;  4.5578997E-03;  9.9927264E+02;  1.5258725E-01; -5.8245251E+02;3;  2.6003256E+01;  0.0000000E+00; -1.4716238E+00;0;  3.0796209E-01;  1.7946525E+04;  0.0000000E+00;  4.5948684E-02;  4.0000000E+04;  0.0000000E+00;  3.8177172E+04;  2.3541334E-01;  0.0000000E+00;  7.2548747E-02;  5.1950674E+03;
  1.8941702E+00;  9.9999998E-03; -9.2421696E-02;9446;  1.3744833E+00;  0.0000000E+00; -1.4507193E-02;  9.9969165E+02;  1.5250541E-01; -2.4690413E+02;3;  2.4842134E+01;  0.0000000E+00;  8.1287155E+00;0;  4.9966484E-01;  1.7971996E+04;  0.0000000E+00;  7.1852691E-02;  4.0000000E+04;  0.0000000E+00;  3.8185676E+04;  4.3343803E-01;  0.0000000E+00;  6.6226825E-02;  4.4822739E+03;
  1.8943278E+00;  9.9999998E-03; -3.0685095E-02;9452;  1.3686600E+00;  0.0000000E+00; -3.1491457E-03;  9.9951367E+02;  1.5256922E-01; -3.8939435E+02;3;  2.6188917E+01;  0.0000000E+00;  9.7622681E-01;0;  2.8741312E-01;  1.7961107E+04;  0.0000000E+00;  3.1111171E-02;  4.0000000E+04;  0.0000000E+00;  3.8170531E+04;  2.1434629E-01;  0.0000000E+00;  7.3066816E-02;  5.7738506E+03;
  1.8943278E+00;  9.9999998E-03;  3.0685430E-02;9458;  1.3686601E+00;  0.0000000E+00;  3.1486547E-03;  9.9951398E+02;  1.5256995E-01; -3.8915573E+02;3;  2.6188099E+01;  0.0000000E+00; -9.7620857E-01;0;  2.8741291E-01;  1.7961107E+04;  0.0000000E+00;  3.1094968E-02;  4.0000000E+04;  0.0000000E+00;  3.8170531E+04;  2.1434605E-01;  0.0000000E+00;  7.3066868E-02;  5.7738315E+03;
  1.8944876E+00;  9.9999998E-03; -2.0443106E-02;9453;  1.3685824E+00;  0.0000000E+00; -1.9787457E-03;  9.9973578E+02;  1.5255646E-01; -2.1155177E+02;3;  2.6303423E+01;  0.0000000E+00;  7.3998594E-01;0;  2.7296805E-01;  1.7973773E+04;  0.0000000E+00;  1.5882690E-02;  4.0000000E+04;  0.0000000E+00;  3.8165098E+04;  1.9955388E-01;  0.0000000E+00;  7.3414192E-02;  6.2701133E+03;
  1.8944876E+00;  9.9999998E-03;  2.0443439E-02;9457;  1.3685824E+00;  0.0000000E+00;  1.9782174E-03;  9.9973590E+02;  1.5255624E-01; -2.1145633E+02;3;  2.6303680E+01;  0.0000000E+00; -7.4018002E-01;0;  2.7296790E-01;  1.7973777E+04;  0.0000000E+00;  1.5870780E-02;  4.0000000E+04;  0.0000000E+00;  3.8165098E+04;  1.9955371E-01;  0.0000000E+00;  7.3414192E-02;  6.2701230E+03;
  1.8945868E+00;  9.9999998E-03; -1.0216868E-02;9454;  1.3685582E+00;  0.0000000E+00; -9.6600235E-04;  9.9988123E+02;  1.5254764E-01; -9.5105423E+01;3;  2.6420399E+01;  0.0000000E+00;  3.9367649E-01;0;  2.6445460E-01;  1.7981939E+04;  0.0000000E+00;  4.3236604E-03;  4.0000000E+04;  0.0000000E+00;  3.8161188E+04;  1.9085090E-01;  0.0000000E+00;  7.3603712E-02;  6.6052939E+03;
  1.8945868E+00;  9.9999998E-03;  1.0217200E-02;9456;  1.3685582E+00;  0.0000000E+00;  9.6546503E-04;  9.9988123E+02;  1.5254781E-01; -9.5105423E+01;3;  2.6420637E+01;  0.0000000E+00; -3.9387566E-01;0;  2.6445484E-01;  1.7981941E+04;  0.0000000E+00;  4.3171030E-03;  4.0000000E+04;  0.0000000E+00;  3.8161188E+04;  1.9085114E-01;  0.0000000E+00;  7.3603712E-02;  6.6053018E+03;
  1.8946166E+00;  9.9999998E-03;  1.6607224E-07;9455;  1.3685558E+00;  0.0000000E+00; -2.6338927E-07;  9.9993286E+02;  1.5254565E-01; -5.3731636E+01;3;  2.6504269E+01;  0.0000000E+00; -1.2200527E-04;0;  2.6167998E-01;  1.7984805E+04;  0.0000000E+00;  1.4582480E-10;  4.0000000E+04;  0.0000000E+00;  3.8159969E+04;  1.8802358E-01;  0.0000000E+00;  7.3656395E-02;  6.7244424E+03;
  1.9082000E+00;  9.9999998E-03; -4.1001532E-02;9504;  1.3676938E+00;  0.0000000E+00; -5.3744935E-03;  9.9850336E+02;  1.4824751E-01; -1.1895656E+03;3;  2.6813648E+01;  0.0000000E+00;  1.1444405E+00;0;  1.8939117E-01;  1.9040637E+04;  0.0000000E+00;  1.4490689E-01;  4.0000000E+04;  0.0000000E+00;  3.8069371E+04;  9.7056039E-02;  0.0000000E+00;  9.2335127E-02;  3.5182241E+03;
  1.9082000E+00;  9.9999998E-03;  4.1001868E-02;9512;  1.3676939E+00;  0.0000000E+00;  5.3739254E-03;  9.9850330E+02;  1.4824751E-01; -1.1896130E+03;3;  2.6812689E+01;  0.0000000E+00; -1.1443785E+00;0;  1.8939108E-01;  1.9040637E+04;  0.0000000E+00;  1.4488080E-01;  4.0000000E+04;  0.0000000E+00;  3.8069375E+04;  9.7055912E-02;  0.0000000E+00;  9.2335157E-02;  3.5182246E+03;
  1.9081936E+00;  9.9999998E-03; -5.1295552E-02;9503;  1.3681502E+00;  0.0000000E+00; -7.3733516E-03;  9.9843329E+02;  1.4823091E-01; -1.2452349E+03;3;  2.6672235E+01;  0.0000000E+00;  1.7480788E+00;0;  2.0996666E-01;  1.9040076E+04;  0.0000000E+00;  1.4936645E-01;  4.0000000E+04;  0.0000000E+00;  3.8073227E+04;  1.1794353E-01;  0.0000000E+00;  9.2023142E-02;  3.1550889E+03;
  1.9081936E+00;  9.9999998E-03;  5.1295884E-02;9513;  1.3681504E+00;  0.0000000E+00;  7.3727737E-03;  9.9843353E+02;  1.4823030E-01; -1.2450454E+03;3;  2.6671570E+01;  0.0000000E+00; -1.7479695E+00;0;  2.0996642E-01;  1.9040082E+04;  0.0000000E+00;  1.4934225E-01;  4.0000000E+04;  0.0000000E+00;  3.8073219E+04;  1.1794323E-01;  0.0000000E+00;  9.2023194E-02;  3.1550796E+03;
  1.9082685E+00;  9.9999998E-03; -3.0727735E-02;9505;  1.3674533E+00;  0.0000000E+00; -3.6871161E-03;  9.9864728E+02;  1.4825575E-01; -1.0751140E+03;3;  2.6924326E+01;  0.0000000E+00;  8.8183135E-01;0;  1.7362100E-01;  1.9046285E+04;  0.0000000E+00;  1.0793328E-01;  4.0000000E+04;  0.0000000E+00;  3.8064176E+04;  8.0991812E-02;  0.0000000E+00;  9.2629194E-02;  3.9697732E+03;
  1.9082685E+00;  9.9999998E-03;  3.0728068E-02;9511;  1.3674532E+00;  0.0000000E+00;  3.6865724E-03;  9.9864728E+02;  1.4825495E-01; -1.0751140E+03;3;  2.6924917E+01;  0.0000000E+00; -8.8208801E-01;0;  1.7362103E-01;  1.9046287E+04;  0.0000000E+00;  1.0790692E-01;  4.0000000E+04;  0.0000000E+00;  3.8064180E+04;  8.0991857E-02;  0.0000000E+00;  9.2629179E-02;  3.9698076E+03;
  1.9083494E+00;  9.9999998E-03; -2.0474451E-02;9506;  1.3673652E+00;  0.0000000E+00; -2.3313062E-03;  9.9878094E+02;  1.4825712E-01; -9.6881213E+02;3;  2.7090954E+01;  0.0000000E+00;  6.0354251E-01;0;  1.6255823E-01;  1.9053273E+04;  0.0000000E+00;  5.7847165E-02;  4.0000000E+04;  0.0000000E+00;  3.8059484E+04;  6.9685161E-02;  0.0000000E+00;  9.2873059E-02;  4.3970430E+03;
  1.9083494E+00;  9.9999998E-03;  2.0474782E-02;9510;  1.3673654E+00;  0.0000000E+00;  2.3307388E-03;  9.9878082E+02;  1.4825705E-01; -9.6890686E+02;3;  2.7091272E+01;  0.0000000E+00; -6.0369825E-01;0;  1.6255847E-01;  1.9053273E+04;  0.0000000E+00;  5.7826132E-02;  4.0000000E+04;  0.0000000E+00;  3.8059480E+04;  6.9685280E-02;  0.0000000E+00;  9.2873178E-02;  4.3970625E+03;
  1.9082904E+00;  9.9999998E-03; -6.1600428E-02;9502;  1.3689818E+00;  0.0000000E+00; -9.5538124E-03;  9.9847638E+02;  1.4819731E-01; -1.2109148E+03;3;  2.7025293E+01;  0.0000000E+00;  2.5110288E+00;0;  2.3543979E-01;  1.9047936E+04;  0.0000000E+00;  1.1088976E-01;  4.0000000E+04;  0.0000000E+00;  3.8074469E+04;  1.4373896E-01;  0.0000000E+00;  9.1700837E-02;  2.9976804E+03;
  1.9082904E+00;  9.9999998E-03;  6.1600763E-02;9514;  1.3689817E+00;  0.0000000E+00;  9.5532704E-03;  9.9847638E+02;  1.4819780E-01; -1.2109148E+03;3;  2.7025930E+01;  0.0000000E+00; -2.5113301E+00;0;  2.3543945E-01;  1.9047930E+04;  0.0000000E+00;  1.1086628E-01;  4.0000000E+04;  0.0000000E+00;  3.8074465E+04;  1.4373873E-01;  0.0000000E+00;  9.1700710E-02;  2.9976731E+03;
  1.9084152E+00;  9.9999998E-03;  1.6568528E-07;9508;  1.3673278E+00;  0.0000000E+00; -2.7761266E-07;  9.9892578E+02;  1.4826296E-01; -8.5367010E+02;3;  2.7311760E+01;  0.0000000E+00; -1.2556680E-04;0;  1.5395349E-01;  1.9059359E+04;  0.0000000E+00;  2.4457028E-10;  4.0000000E+04;  0.0000000E+00;  3.8054781E+04;  6.0882714E-02;  0.0000000E+00;  9.3070783E-02;  4.8138130E+03;
  1.9084010E+00;  9.9999998E-03; -1.0234389E-02;9507;  1.3673379E+00;  0.0000000E+00; -1.1372225E-03;  9.9889087E+02;  1.4825998E-01; -8.8143518E+02;3;  2.7239326E+01;  0.0000000E+00;  2.3980650E-01;0;  1.5607113E-01;  1.9057854E+04;  0.0000000E+00;  1.6126793E-02;  4.0000000E+04;  0.0000000E+00;  3.8055941E+04;  6.3047536E-02;  0.0000000E+00;  9.3023591E-02;  4.7024893E+03;
  1.9084010E+00;  9.9999998E-03;  1.0234721E-02;9509;  1.3673379E+00;  0.0000000E+00;  1.1366723E-03;  9.9889087E+02;  1.4825998E-01; -8.8143518E+02;3;  2.7239470E+01;  0.0000000E+00; -2.3996244E-01;0;  1.5607114E-01;  1.9057846E+04;  0.0000000E+00;  1.6115323E-02;  4.0000000E+04;  0.0000000E+00;  3.8055938E+04;  6.3047588E-02;  0.0000000E+00;  9.3023553E-02;  4.7025029E+03;
  1.9085151E+00;  9.9999998E-03; -7.1894802E-02;9501;  1.3703438E+00;  0.0000000E+00; -1.1751190E-02;  9.9872369E+02;  1.4815404E-01; -1.0142365E+03;3;  2.7151842E+01;  0.0000000E+00;  3.7982664E+00;0;  2.6584086E-01;  1.9067521E+04;  0.0000000E+00;  3.4913134E-02;  4.0000000E+04;  0.0000000E+00;  3.8072039E+04;  1.7448767E-01;  0.0000000E+00;  9.1353200E-02;  3.1653477E+03;
  1.9088271E+00;  9.9999998E-03; -8.2150213E-02;9500;  1.3722720E+00;  0.0000000E+00; -1.3707689E-02;  9.9918060E+02;  1.4810495E-01; -6.5101367E+02;3;  2.6993448E+01;  0.0000000E+00;  4.6478786E+00;0;  3.0138490E-01;  1.9098771E+04;  0.0000000E+00; -4.3769211E-02;  4.0000000E+04;  0.0000000E+00;  3.8064898E+04;  2.1049096E-01;  0.0000000E+00;  9.0893939E-02;  3.7779839E+03;
  1.9091300E+00;  9.9999998E-03; -9.2334121E-02;9499;  1.3746796E+00;  0.0000000E+00; -1.5359027E-02;  9.9982117E+02;  1.4805888E-01; -1.4204497E+02;3;  2.6688330E+01;  0.0000000E+00;  5.7912011E+00;0;  3.4244055E-01;  1.9138184E+04;  0.0000000E+00; -3.9726563E-02;  4.0000000E+04;  0.0000000E+00;  3.8051641E+04;  2.5232357E-01;  0.0000000E+00;  9.0116985E-02;  4.9249043E+03;
  1.9219794E+00;  9.9999998E-03;  1.6480182E-07;9560;  1.3659052E+00;  0.0000000E+00; -2.8470868E-07;  9.9798706E+02;  1.4467415E-01; -1.5858971E+03;3;  2.7985235E+01;  0.0000000E+00; -4.1714302E-05;0;  9.0801492E-02;  2.0050391E+04;  0.0000000E+00;  2.8355313E-10;  4.0000000E+04;  0.0000000E+00;  3.7928344E+04; -1.2023282E-02;  0.0000000E+00;  1.0282478E-01;  3.2534409E+03;
  1.9219905E+00;  9.9999998E-03; -1.0259129E-02;9559;  1.3659247E+00;  0.0000000E+00; -1.3323983E-03;  9.9797491E+02;  1.4466830E-01; -1.5954174E+03;3;  2.7974785E+01;  0.0000000E+00;  2.0847672E-01;0;  9.2401303E-02;  2.0050910E+04;  0.0000000E+00;  2.3298105E-02;  4.0000000E+04;  0.0000000E+00;  3.7929211E+04; -1.0361300E-02;  0.0000000E+00;  1.0276260E-01;  3.1676389E+03;
  1.9219905E+00;  9.9999998E-03;  1.0259459E-02;9561;  1.3659247E+00;  0.0000000E+00;  1.3318183E-03;  9.9797473E+02;  1.4466707E-01; -1.5955583E+03;3;  2.7977001E+01;  0.0000000E+00; -2.0866598E-01;0;  9.2401385E-02;  2.0050908E+04;  0.0000000E+00;  2.3284260E-02;  4.0000000E+04;  0.0000000E+00;  3.7929215E+04; -1.0361302E-02;  0.0000000E+00;  1.0276268E-01;  3.1676426E+03;
  1.9220204E+00;  9.9999998E-03; -2.0517144E-02;9558;  1.3659858E+00;  0.0000000E+00; -2.7369491E-03;  9.9794159E+02;  1.4465301E-01; -1.6216335E+03;3;  2.7868097E+01;  0.0000000E+00;  5.0690049E-01;0;  9.7293094E-02;  2.0052021E+04;  0.0000000E+00;  7.9991415E-02;  4.0000000E+04;  0.0000000E+00;  3.7931656E+04; -5.3015673E-03;  0.0000000E+00;  1.0259466E-01;  2.9434973E+03;
  1.9220204E+00;  9.9999998E-03;  2.0517474E-02;9562;  1.3659858E+00;  0.0000000E+00;  2.7363678E-03;  9.9794177E+02;  1.4465295E-01; -1.6214927E+03;3;  2.7868486E+01;  0.0000000E+00; -5.0706923E-01;0;  9.7293027E-02;  2.0052020E+04;  0.0000000E+00;  7.9967052E-02;  4.0000000E+04;  0.0000000E+00;  3.7931656E+04; -5.3015980E-03;  0.0000000E+00;  1.0259462E-01;  2.9435012E+03;
  1.9220812E+00;  9.9999998E-03; -3.0782701E-02;9557;  1.3661306E+00;  0.0000000E+00; -4.2865812E-03;  9.9792969E+02;  1.4463368E-01; -1.6309559E+03;3;  2.7724945E+01;  0.0000000E+00;  8.3514595E-01;0;  1.0567725E-01;  2.0055080E+04;  0.0000000E+00;  1.3586265E-01;  4.0000000E+04;  0.0000000E+00;  3.7934609E+04;  3.2965799E-03;  0.0000000E+00;  1.0238067E-01;  2.6655266E+03;
  1.9220811E+00;  9.9999998E-03;  3.0783033E-02;9563;  1.3661307E+00;  0.0000000E+00;  4.2859903E-03;  9.9792963E+02;  1.4463361E-01; -1.6310029E+03;3;  2.7723722E+01;  0.0000000E+00; -8.3524925E-01;0;  1.0567734E-01;  2.0055076E+04;  0.0000000E+00;  1.3583088E-01;  4.0000000E+04;  0.0000000E+00;  3.7934613E+04;  3.2965548E-03;  0.0000000E+00;  1.0238079E-01;  2.6655164E+03;
  1.9222087E+00;  9.9999998E-03; -4.1060813E-02;9556;  1.3664585E+00;  0.0000000E+00; -6.1025051E-03;  9.9797083E+02;  1.4460362E-01; -1.5984142E+03;3;  2.7637720E+01;  0.0000000E+00;  1.1874251E+00;0;  1.1778948E-01;  2.0062547E+04;  0.0000000E+00;  1.4961745E-01;  4.0000000E+04;  0.0000000E+00;  3.7936785E+04;  1.5572746E-02;  0.0000000E+00;  1.0221673E-01;  2.4446318E+03;
  1.9222087E+00;  9.9999998E-03;  4.1061144E-02;9564;  1.3664587E+00;  0.0000000E+00;  6.1019151E-03;  9.9797089E+02;  1.4460365E-01; -1.5983672E+03;3;  2.7638559E+01;  0.0000000E+00; -1.1876227E+00;0;  1.1778945E-01;  2.0062545E+04;  0.0000000E+00;  1.4958408E-01;  4.0000000E+04;  0.0000000E+00;  3.7936789E+04;  1.5572665E-02;  0.0000000E+00;  1.0221678E-01;  2.4446240E+03;
  1.9224361E+00;  9.9999998E-03; -5.1346958E-02;9555;  1.3670530E+00;  0.0000000E+00; -8.1074955E-03;  9.9810144E+02;  1.4456175E-01; -1.4953053E+03;3;  2.7502420E+01;  0.0000000E+00;  1.8113133E+00;0;  1.3390113E-01;  2.0078203E+04;  0.0000000E+00;  8.7348618E-02;  4.0000000E+04;  0.0000000E+00;  3.7936414E+04;  3.1684685E-02;  0.0000000E+00;  1.0221644E-01;  2.4012925E+03;
  1.9224361E+00;  9.9999998E-03;  5.1347289E-02;9565;  1.3670530E+00;  0.0000000E+00;  8.1069311E-03;  9.9810144E+02;  1.4456077E-01; -1.4953053E+03;3;  2.7499821E+01;  0.0000000E+00; -1.8109282E+00;0;  1.3390121E-01;  2.0078199E+04;  0.0000000E+00;  8.7318838E-02;  4.0000000E+04;  0.0000000E+00;  3.7936418E+04;  3.1684514E-02;  0.0000000E+00;  1.0221670E-01;  2.4012964E+03;
  1.9227782E+00;  9.9999998E-03; -6.1623476E-02;9554;  1.3680550E+00;  0.0000000E+00; -1.0056539E-02;  9.9837653E+02;  1.4450926E-01; -1.2783047E+03;3;  2.7766785E+01;  0.0000000E+00;  2.5338161E+00;0;  1.5429057E-01;  2.0103693E+04;  0.0000000E+00; -6.1052840E-02;  4.0000000E+04;  0.0000000E+00;  3.7932465E+04;  5.1772334E-02;  0.0000000E+00;  1.0251824E-01;  2.6580261E+03;
  1.9227782E+00;  9.9999998E-03;  6.1623808E-02;9566;  1.3680551E+00;  0.0000000E+00;  1.0055978E-02;  9.9837659E+02;  1.4450921E-01; -1.2782577E+03;3;  2.7767563E+01;  0.0000000E+00; -2.5340784E+00;0;  1.5429030E-01;  2.0103686E+04;  0.0000000E+00; -6.1086297E-02;  4.0000000E+04;  0.0000000E+00;  3.7932457E+04;  5.1772062E-02;  0.0000000E+00;  1.0251825E-01;  2.6580066E+03;
  1.9231761E+00;  9.9999998E-03; -7.1865998E-02;9553;  1.3695902E+00;  0.0000000E+00; -1.1770969E-02;  9.9882770E+02;  1.4445527E-01; -9.2281219E+02;3;  2.8077929E+01;  0.0000000E+00;  3.3213911E+00;0;  1.7935774E-01;  2.0138773E+04;  0.0000000E+00; -2.5551879E-01;  4.0000000E+04;  0.0000000E+00;  3.7923203E+04;  7.6122977E-02;  0.0000000E+00;  1.0323476E-01;  3.3283135E+03;
  1.9235458E+00;  9.9999998E-03; -8.2044184E-02;9552;  1.3716688E+00;  0.0000000E+00; -1.3172288E-02;  9.9940997E+02;  1.4440757E-01; -4.6433398E+02;3;  2.7866123E+01;  0.0000000E+00;  3.6640925E+00;0;  2.0935711E-01;  2.0179945E+04;  0.0000000E+00; -3.7566975E-01;  4.0000000E+04;  0.0000000E+00;  3.7908758E+04;  1.0497531E-01;  0.0000000E+00;  1.0438181E-01;  4.4696455E+03;
  1.9239230E+00;  9.9999998E-03; -1.0213139E-01;9550;  1.3770356E+00;  0.0000000E+00; -1.5265721E-02;  1.0006552E+03;  1.4437087E-01;  5.1546497E+02;3;  2.6994415E+01;  0.0000000E+00;  4.0044594E+00;0;  2.8384775E-01;  2.0258320E+04;  0.0000000E+00;  5.8109778E-01;  4.0000000E+04;  0.0000000E+00;  3.7869020E+04;  1.7682458E-01;  0.0000000E+00;  1.0702317E-01;  8.2221143E+03;
  1.9238338E+00;  9.9999998E-03; -9.2126817E-02;9551;  1.3741808E+00;  0.0000000E+00; -1.4319364E-02;  1.0000438E+03;  1.4437649E-01;  3.4422791E+01;3;  2.7699877E+01;  0.0000000E+00;  3.8699470E+00;0;  2.4412227E-01;  2.0222266E+04;  0.0000000E+00; -2.0333487E-01;  4.0000000E+04;  0.0000000E+00;  3.7889684E+04;  1.3832818E-01;  0.0000000E+00;  1.0579409E-01;  6.0858999E+03;
  1.9354934E+00;  9.9999998E-03;  1.6479332E-07;9610;  1.3643479E+00;  0.0000000E+00; -2.9709750E-07;  9.9728064E+02;  1.4166619E-01; -2.1205171E+03;3;  2.8466215E+01;  0.0000000E+00; -2.1735323E-05;0;  5.2839555E-02;  2.0969406E+04;  0.0000000E+00;  2.7475716E-10;  4.0000000E+04;  0.0000000E+00;  3.7774621E+04; -5.1463008E-02;  0.0000000E+00;  1.0430256E-01;  2.3534062E+03;
  1.9355485E+00;  9.9999998E-03; -1.0309575E-02;9609;  1.3643790E+00;  0.0000000E+00; -1.5293299E-03;  9.9729926E+02;  1.4165728E-01; -2.1059194E+03;3;  2.8519564E+01;  0.0000000E+00;  2.1628729E-01;0;  5.4066058E-02;  2.0972412E+04;  0.0000000E+00;  1.0530913E-02;  4.0000000E+04;  0.0000000E+00;  3.7775188E+04; -5.0134379E-02;  0.0000000E+00;  1.0420044E-01;  2.3005024E+03;
  1.9355485E+00;  9.9999998E-03;  1.0309905E-02;9611;  1.3643792E+00;  0.0000000E+00;  1.5287363E-03;  9.9729919E+02;  1.4165749E-01; -2.1059658E+03;3;  2.8519854E+01;  0.0000000E+00; -2.1637014E-01;0;  5.4066032E-02;  2.0972416E+04;  0.0000000E+00;  1.0516777E-02;  4.0000000E+04;  0.0000000E+00;  3.7775180E+04; -5.0134443E-02;  0.0000000E+00;  1.0420047E-01;  2.3005178E+03;
  1.9356996E+00;  9.9999998E-03; -2.0598838E-02;9608;  1.3644835E+00;  0.0000000E+00; -3.1119529E-03;  9.9738135E+02;  1.4163424E-01; -2.0416658E+03;3;  2.8588497E+01;  0.0000000E+00;  4.8010027E-01;0;  5.7859663E-02;  2.0981246E+04;  0.0000000E+00;  2.3627378E-02;  4.0000000E+04;  0.0000000E+00;  3.7775980E+04; -4.6084184E-02;  0.0000000E+00;  1.0394385E-01;  2.1814609E+03;
  1.9356996E+00;  9.9999998E-03;  2.0599168E-02;9612;  1.3644835E+00;  0.0000000E+00;  3.1113490E-03;  9.9738141E+02;  1.4163457E-01; -2.0416193E+03;3;  2.8591143E+01;  0.0000000E+00; -4.8034155E-01;0;  5.7859458E-02;  2.0981248E+04;  0.0000000E+00;  2.3602145E-02;  4.0000000E+04;  0.0000000E+00;  3.7775984E+04; -4.6084344E-02;  0.0000000E+00;  1.0394380E-01;  2.1814868E+03;
  1.9359412E+00;  9.9999998E-03; -3.0874653E-02;9607;  1.3647121E+00;  0.0000000E+00; -4.7795302E-03;  9.9751996E+02;  1.4159784E-01; -1.9331863E+03;3;  2.8578396E+01;  0.0000000E+00;  8.3213449E-01;0;  6.4484023E-02;  2.0996219E+04;  0.0000000E+00; -5.6545348E-03;  4.0000000E+04;  0.0000000E+00;  3.7776504E+04; -3.9185725E-02;  0.0000000E+00;  1.0366975E-01;  2.0904219E+03;
  1.9359413E+00;  9.9999998E-03;  3.0874982E-02;9613;  1.3647121E+00;  0.0000000E+00;  4.7789267E-03;  9.9752020E+02;  1.4159846E-01; -1.9330004E+03;3;  2.8579094E+01;  0.0000000E+00; -8.3235896E-01;0;  6.4483844E-02;  2.0996221E+04;  0.0000000E+00; -5.6887255E-03;  4.0000000E+04;  0.0000000E+00;  3.7776500E+04; -3.9185897E-02;  0.0000000E+00;  1.0366974E-01;  2.0904194E+03;
  1.9362953E+00;  9.9999998E-03; -4.1145273E-02;9606;  1.3651600E+00;  0.0000000E+00; -6.5408703E-03;  9.9777625E+02;  1.4155166E-01; -1.7328898E+03;3;  2.8539024E+01;  0.0000000E+00;  1.2479975E+00;0;  7.4272513E-02;  2.1019436E+04;  0.0000000E+00; -1.2657908E-01;  4.0000000E+04;  0.0000000E+00;  3.7774594E+04; -2.9320572E-02;  0.0000000E+00;  1.0359308E-01;  2.1442012E+03;
  1.9362952E+00;  9.9999998E-03;  4.1145604E-02;9614;  1.3651600E+00;  0.0000000E+00;  6.5402915E-03;  9.9777625E+02;  1.4155179E-01; -1.7328898E+03;3;  2.8537937E+01;  0.0000000E+00; -1.2480873E+00;0;  7.4272394E-02;  2.1019436E+04;  0.0000000E+00; -1.2661502E-01;  4.0000000E+04;  0.0000000E+00;  3.7774594E+04; -2.9320683E-02;  0.0000000E+00;  1.0359307E-01;  2.1442043E+03;
  1.9367623E+00;  9.9999998E-03; -5.1400840E-02;9605;  1.3659098E+00;  0.0000000E+00; -8.2434677E-03;  9.9810962E+02;  1.4149363E-01; -1.4725298E+03;3;  2.8398113E+01;  0.0000000E+00;  1.9007510E+00;0;  8.7625399E-02;  2.1051664E+04;  0.0000000E+00; -3.6252850E-01;  4.0000000E+04;  0.0000000E+00;  3.7769223E+04; -1.6382659E-02;  0.0000000E+00;  1.0400806E-01;  2.4627339E+03;
  1.9367622E+00;  9.9999998E-03;  5.1401172E-02;9615;  1.3659099E+00;  0.0000000E+00;  8.2428781E-03;  9.9810962E+02;  1.4149363E-01; -1.4725298E+03;3;  2.8399088E+01;  0.0000000E+00; -1.9009165E+00;0;  8.7625228E-02;  2.1051654E+04;  0.0000000E+00; -3.6256143E-01;  4.0000000E+04;  0.0000000E+00;  3.7769227E+04; -1.6382843E-02;  0.0000000E+00;  1.0400807E-01;  2.4627285E+03;
  1.9372716E+00;  9.9999998E-03; -6.1624955E-02;9604;  1.3670545E+00;  0.0000000E+00; -9.6244225E-03;  9.9857172E+02;  1.4143397E-01; -1.1121273E+03;3;  2.8418362E+01;  0.0000000E+00;  2.5444825E+00;0;  1.0501568E-01;  2.1091814E+04;  0.0000000E+00; -6.7299390E-01;  4.0000000E+04;  0.0000000E+00;  3.7759219E+04; -2.4216762E-04;  0.0000000E+00;  1.0525785E-01;  3.1353140E+03;
  1.9372716E+00;  9.9999998E-03;  6.1625287E-02;9616;  1.3670547E+00;  0.0000000E+00;  9.6238134E-03;  9.9857166E+02;  1.4143445E-01; -1.1121737E+03;3;  2.8419107E+01;  0.0000000E+00; -2.5446975E+00;0;  1.0501568E-01;  2.1091816E+04;  0.0000000E+00; -6.7302108E-01;  4.0000000E+04;  0.0000000E+00;  3.7759219E+04; -2.4234784E-04;  0.0000000E+00;  1.0525803E-01;  3.1352996E+03;
  1.9377210E+00;  9.9999998E-03; -7.1793661E-02;9603;  1.3686780E+00;  0.0000000E+00; -1.0625611E-02;  9.9911517E+02;  1.4138506E-01; -6.8869733E+02;3;  2.8626623E+01;  0.0000000E+00;  2.8909647E+00;0;  1.2678756E-01;  2.1134686E+04;  0.0000000E+00; -9.1041440E-01;  4.0000000E+04;  0.0000000E+00;  3.7744633E+04;  1.9196702E-02;  0.0000000E+00;  1.0759085E-01;  4.1771836E+03;
  1.9379263E+00;  9.9999998E-03; -1.0189408E-01;9600;  1.3762223E+00;  0.0000000E+00; -1.2791622E-02;  1.0004523E+03;  1.4137562E-01;  3.5196530E+02;3;  2.7890285E+01;  0.0000000E+00;  2.5553823E+00;0;  2.1783242E-01;  2.1221117E+04;  0.0000000E+00;  2.1209669E+00;  4.0000000E+04;  0.0000000E+00;  3.7693680E+04;  9.8484948E-02;  0.0000000E+00;  1.1934748E-01;  1.0072200E+04;
  1.9380566E+00;  9.9999998E-03; -8.1877425E-02;9602;  1.3707513E+00;  0.0000000E+00; -1.1375278E-02;  9.9964551E+02;  1.4135605E-01; -2.7581775E+02;3;  2.8488279E+01;  0.0000000E+00;  2.7840862E+00;0;  1.5284470E-01;  2.1175088E+04;  0.0000000E+00; -8.0114597E-01;  4.0000000E+04;  0.0000000E+00;  3.7725914E+04;  4.1849259E-02;  0.0000000E+00;  1.1099543E-01;  5.5621841E+03;
  1.9381577E+00;  9.9999998E-03; -9.1896132E-02;9601;  1.3733273E+00;  0.0000000E+00; -1.2126253E-02;  1.0001016E+03;  1.4134930E-01;  7.9023537E+01;3;  2.8267061E+01;  0.0000000E+00;  2.4972713E+00;0;  1.8318552E-01;  2.1205914E+04;  0.0000000E+00;  4.6941809E-02;  4.0000000E+04;  0.0000000E+00;  3.7707602E+04;  6.8056360E-02;  0.0000000E+00;  1.1512917E-01;  7.3776772E+03;
  1.9490978E+00;  9.9999998E-03;  1.6538823E-07;9658;  1.3627194E+00;  0.0000000E+00; -3.0849284E-07;  9.9692969E+02;  1.3914922E-01; -2.3651350E+03;3;  2.9346931E+01;  0.0000000E+00; -2.5704503E-06;0;  2.8537378E-02;  2.1828229E+04;  0.0000000E+00;  2.3782445E-10;  4.0000000E+04;  0.0000000E+00;  3.7590762E+04; -7.0203930E-02;  0.0000000E+00;  9.8741308E-02;  2.1954500E+03;
  1.9491985E+00;  9.9999998E-03; -1.0386943E-02;9657;  1.3627650E+00;  0.0000000E+00; -1.6750848E-03;  9.9700647E+02;  1.3914001E-01; -2.3057703E+03;3;  2.9335627E+01;  0.0000000E+00;  2.3731425E-01;0;  2.9540285E-02;  2.1833953E+04;  0.0000000E+00; -3.7827361E-02;  4.0000000E+04;  0.0000000E+00;  3.7590852E+04; -6.9051653E-02;  0.0000000E+00;  9.8591939E-02;  2.1802158E+03;
  1.9491985E+00;  9.9999998E-03;  1.0387274E-02;9659;  1.3627650E+00;  0.0000000E+00;  1.6744664E-03;  9.9700653E+02;  1.3914077E-01; -2.3057244E+03;3;  2.9335855E+01;  0.0000000E+00; -2.3733169E-01;0;  2.9540256E-02;  2.1833951E+04;  0.0000000E+00; -3.7839420E-02;  4.0000000E+04;  0.0000000E+00;  3.7590848E+04; -6.9051631E-02;  0.0000000E+00;  9.8591886E-02;  2.1802312E+03;
  1.9494712E+00;  9.9999998E-03; -2.0722147E-02;9656;  1.3629202E+00;  0.0000000E+00; -3.3462169E-03;  9.9714673E+02;  1.3910645E-01; -2.1971584E+03;3;  2.9315842E+01;  0.0000000E+00;  5.2655423E-01;0;  3.2678440E-02;  2.1850330E+04;  0.0000000E+00; -1.6537803E-01;  4.0000000E+04;  0.0000000E+00;  3.7589996E+04; -6.5571584E-02;  0.0000000E+00;  9.8250024E-02;  2.1798792E+03;
  1.9494712E+00;  9.9999998E-03;  2.0722479E-02;9660;  1.3629203E+00;  0.0000000E+00;  3.3456082E-03;  9.9714661E+02;  1.3910636E-01; -2.1972502E+03;3;  2.9314041E+01;  0.0000000E+00; -5.2664572E-01;0;  3.2678448E-02;  2.1850320E+04;  0.0000000E+00; -1.6539957E-01;  4.0000000E+04;  0.0000000E+00;  3.7589996E+04; -6.5571636E-02;  0.0000000E+00;  9.8250084E-02;  2.1798845E+03;
  1.9498787E+00;  9.9999998E-03; -3.1011062E-02;9655;  1.3632466E+00;  0.0000000E+00; -4.9695075E-03;  9.9748181E+02;  1.3906822E-01; -1.9383445E+03;3;  2.9321325E+01;  0.0000000E+00;  9.1563362E-01;0;  3.8276281E-02;  2.1876270E+04;  0.0000000E+00; -4.1037899E-01;  4.0000000E+04;  0.0000000E+00;  3.7587199E+04; -5.9718471E-02;  0.0000000E+00;  9.7994752E-02;  2.2953335E+03;
  1.9498787E+00;  9.9999998E-03;  3.1011393E-02;9661;  1.3632467E+00;  0.0000000E+00;  4.9688928E-03;  9.9748169E+02;  1.3906866E-01; -1.9384362E+03;3;  2.9322073E+01;  0.0000000E+00; -9.1575849E-01;0;  3.8276169E-02;  2.1876268E+04;  0.0000000E+00; -4.1040367E-01;  4.0000000E+04;  0.0000000E+00;  3.7587199E+04; -5.9718650E-02;  0.0000000E+00;  9.7994819E-02;  2.2953496E+03;
  1.9504080E+00;  9.9999998E-03; -4.1262772E-02;9654;  1.3638345E+00;  0.0000000E+00; -6.4497129E-03;  9.9785773E+02;  1.3901192E-01; -1.6481198E+03;3;  2.9375631E+01;  0.0000000E+00;  1.3729923E+00;0;  4.6749327E-02;  2.1911354E+04;  0.0000000E+00; -7.8021914E-01;  4.0000000E+04;  0.0000000E+00;  3.7581367E+04; -5.1481228E-02;  0.0000000E+00;  9.8230556E-02;  2.6282937E+03;
  1.9504080E+00;  9.9999998E-03;  4.1263103E-02;9662;  1.3638345E+00;  0.0000000E+00;  6.4490996E-03;  9.9785785E+02;  1.3901164E-01; -1.6480280E+03;3;  2.9376501E+01;  0.0000000E+00; -1.3731086E+00;0;  4.6749298E-02;  2.1911354E+04;  0.0000000E+00; -7.8024888E-01;  4.0000000E+04;  0.0000000E+00;  3.7581363E+04; -5.1481429E-02;  0.0000000E+00;  9.8230727E-02;  2.6283032E+03;
  1.9511366E+00;  9.9999998E-03; -1.0184690E-01;9648;  1.3754277E+00;  0.0000000E+00; -1.0160506E-02;  9.9995007E+02;  1.3895334E-01; -3.8399799E+01;3;  2.8423716E+01;  0.0000000E+00;  1.6593866E+00;0;  1.7422554E-01;  2.2055918E+04;  0.0000000E+00;  6.3322506E+00;  4.0000000E+04;  0.0000000E+00;  3.7520086E+04;  4.7364332E-02;  0.0000000E+00;  1.2686120E-01;  1.3433396E+04;
  1.9509916E+00;  9.9999998E-03; -5.1472247E-02;9653;  1.3647596E+00;  0.0000000E+00; -7.5968620E-03;  9.9831396E+02;  1.3895583E-01; -1.2963864E+03;3;  2.9272833E+01;  0.0000000E+00;  1.9203531E+00;0;  5.8582578E-02;  2.1952666E+04;  0.0000000E+00; -1.2189485E+00;  4.0000000E+04;  0.0000000E+00;  3.7571277E+04; -4.0890563E-02;  0.0000000E+00;  9.9473141E-02;  3.2290881E+03;
  1.9509916E+00;  9.9999998E-03;  5.1472578E-02;9663;  1.3647598E+00;  0.0000000E+00;  7.5962441E-03;  9.9831396E+02;  1.3895583E-01; -1.2963864E+03;3;  2.9273632E+01;  0.0000000E+00; -1.9204836E+00;0;  5.8582503E-02;  2.1952670E+04;  0.0000000E+00; -1.2189736E+00;  4.0000000E+04;  0.0000000E+00;  3.7571289E+04; -4.0890742E-02;  0.0000000E+00;  9.9473245E-02;  3.2290967E+03;
  1.9515027E+00;  9.9999998E-03; -6.1631698E-02;9652;  1.3660437E+00;  0.0000000E+00; -8.3182016E-03;  9.9878241E+02;  1.3890825E-01; -9.3573352E+02;3;  2.9083448E+01;  0.0000000E+00;  2.3694191E+00;0;  7.4207276E-02;  2.1994709E+04;  0.0000000E+00; -1.5541790E+00;  4.0000000E+04;  0.0000000E+00;  3.7557430E+04; -2.7993271E-02;  0.0000000E+00;  1.0220055E-01;  4.0743364E+03;
  1.9515027E+00;  9.9999998E-03;  6.1632030E-02;9664;  1.3660438E+00;  0.0000000E+00;  8.3176000E-03;  9.9878241E+02;  1.3890825E-01; -9.3573352E+02;3;  2.9084358E+01;  0.0000000E+00; -2.3696659E+00;0;  7.4207246E-02;  2.1994703E+04;  0.0000000E+00; -1.5541972E+00;  4.0000000E+04;  0.0000000E+00;  3.7557430E+04; -2.7993513E-02;  0.0000000E+00;  1.0220076E-01;  4.0743196E+03;
  1.9517463E+00;  9.9999998E-03; -9.1791183E-02;9649;  1.3724092E+00;  0.0000000E+00; -9.5480373E-03;  9.9972125E+02;  1.3889697E-01; -2.1418436E+02;3;  2.8614752E+01;  0.0000000E+00;  1.8004799E+00;0;  1.4389959E-01;  2.2063771E+04;  0.0000000E+00;  1.8735474E+00;  4.0000000E+04;  0.0000000E+00;  3.7517773E+04;  2.4312079E-02;  0.0000000E+00;  1.1958752E-01;  8.9361123E+03;
  1.9518639E+00;  9.9999998E-03; -7.1723387E-02;9651;  1.3677346E+00;  0.0000000E+00; -8.7115560E-03;  9.9921362E+02;  1.3887975E-01; -6.0410547E+02;3;  2.8968199E+01;  0.0000000E+00;  2.4122951E+00;0;  9.3701653E-02;  2.2031016E+04;  0.0000000E+00; -1.4700942E+00;  4.0000000E+04;  0.0000000E+00;  3.7541531E+04; -1.2910805E-02;  0.0000000E+00;  1.0661246E-01;  5.1240557E+03;
  1.9519783E+00;  9.9999998E-03; -8.1762858E-02;9650;  1.3698446E+00;  0.0000000E+00; -9.0689911E-03;  9.9950500E+02;  1.3887195E-01; -3.8024097E+02;3;  2.8948303E+01;  0.0000000E+00;  1.9856514E+00;0;  1.1697137E-01;  2.2055420E+04;  0.0000000E+00; -5.1418412E-01;  4.0000000E+04;  0.0000000E+00;  3.7526711E+04;  4.4035446E-03;  0.0000000E+00;  1.1256783E-01;  6.5295801E+03;
  1.9628601E+00;  9.9999998E-03;  1.6507653E-07;9705;  1.3610553E+00;  0.0000000E+00; -3.1375794E-07;  9.9696625E+02;  1.3704453E-01; -2.3033572E+03;3;  3.0238861E+01;  0.0000000E+00;  1.4430843E-06;0;  1.0106228E-02;  2.2635418E+04;  0.0000000E+00;  1.8192550E-10;  4.0000000E+04;  0.0000000E+00;  3.7377141E+04; -7.7414937E-02;  0.0000000E+00;  8.7521166E-02;  2.5998274E+03;
  1.9629796E+00;  9.9999998E-03; -1.0475705E-02;9704;  1.3611265E+00;  0.0000000E+00; -1.6972134E-03;  9.9704706E+02;  1.3703750E-01; -2.2416873E+03;3;  3.0234432E+01;  0.0000000E+00;  2.4804963E-01;0;  1.0998078E-02;  2.2642250E+04;  0.0000000E+00; -1.1342222E-01;  4.0000000E+04;  0.0000000E+00;  3.7376234E+04; -7.6395869E-02;  0.0000000E+00;  8.7393947E-02;  2.6259854E+03;
  1.9629797E+00;  9.9999998E-03;  1.0476036E-02;9706;  1.3611265E+00;  0.0000000E+00;  1.6965811E-03;  9.9704718E+02;  1.3703655E-01; -2.2415967E+03;3;  3.0234549E+01;  0.0000000E+00; -2.4809062E-01;0;  1.0997921E-02;  2.2642248E+04;  0.0000000E+00; -1.1343056E-01;  4.0000000E+04;  0.0000000E+00;  3.7376238E+04; -7.6395966E-02;  0.0000000E+00;  8.7393887E-02;  2.6259875E+03;
  1.9634697E+00;  9.9999998E-03; -1.0211905E-01;9695;  1.3748798E+00;  0.0000000E+00; -8.0533493E-03;  9.9960150E+02;  1.3699530E-01; -3.0236035E+02;3;  2.8764296E+01;  0.0000000E+00;  9.9869251E-01;0;  1.4127281E-01;  2.2786439E+04;  0.0000000E+00;  1.5145053E+01;  4.0000000E+04;  0.0000000E+00;  3.7348953E+04;  1.0429570E-02;  0.0000000E+00;  1.3084324E-01;  2.0183742E+04;
  1.9632982E+00;  9.9999998E-03; -2.0868935E-02;9703;  1.3613648E+00;  0.0000000E+00; -3.3117570E-03;  9.9726520E+02;  1.3700917E-01; -2.0753245E+03;3;  3.0228642E+01;  0.0000000E+00;  5.1659489E-01;0;  1.3809323E-02;  2.2661568E+04;  0.0000000E+00; -4.4276899E-01;  4.0000000E+04;  0.0000000E+00;  3.7373641E+04; -7.3376380E-02;  0.0000000E+00;  8.7185703E-02;  2.7456389E+03;
  1.9632982E+00;  9.9999998E-03;  2.0869266E-02;9707;  1.3613648E+00;  0.0000000E+00;  3.3111263E-03;  9.9726532E+02;  1.3700962E-01; -2.0752339E+03;3;  3.0226841E+01;  0.0000000E+00; -5.1666576E-01;0;  1.3809234E-02;  2.2661564E+04;  0.0000000E+00; -4.4278359E-01;  4.0000000E+04;  0.0000000E+00;  3.7373633E+04; -7.3376566E-02;  0.0000000E+00;  8.7185800E-02;  2.7456460E+03;
  1.9637655E+00;  9.9999998E-03; -3.1174058E-02;9702;  1.3618263E+00;  0.0000000E+00; -4.7108321E-03;  9.9758954E+02;  1.3697159E-01; -1.8282391E+03;3;  3.0191614E+01;  0.0000000E+00;  9.1131020E-01;0;  1.8871911E-02;  2.2690568E+04;  0.0000000E+00; -9.4422692E-01;  4.0000000E+04;  0.0000000E+00;  3.7368031E+04; -6.8445489E-02;  0.0000000E+00;  8.7317400E-02;  3.0324626E+03;
  1.9637655E+00;  9.9999998E-03;  3.1174390E-02;9708;  1.3618264E+00;  0.0000000E+00;  4.7102142E-03;  9.9758960E+02;  1.3697137E-01; -1.8281938E+03;3;  3.0192211E+01;  0.0000000E+00; -9.1141683E-01;0;  1.8871874E-02;  2.2690570E+04;  0.0000000E+00; -9.4424492E-01;  4.0000000E+04;  0.0000000E+00;  3.7368035E+04; -6.8445638E-02;  0.0000000E+00;  8.7317511E-02;  3.0324875E+03;
  1.9643961E+00;  9.9999998E-03; -9.1926597E-02;9696;  1.3716562E+00;  0.0000000E+00; -7.2294492E-03;  9.9914996E+02;  1.3692750E-01; -6.4423657E+02;3;  2.9014887E+01;  0.0000000E+00;  1.2647576E+00;0;  1.1460170E-01;  2.2801695E+04;  0.0000000E+00;  7.0752554E+00;  4.0000000E+04;  0.0000000E+00;  3.7328523E+04; -5.9268712E-03;  0.0000000E+00;  1.2052857E-01;  1.2548816E+04;
  1.9643162E+00;  9.9999998E-03; -4.1406948E-02;9701;  1.3625884E+00;  0.0000000E+00; -5.7308092E-03;  9.9795416E+02;  1.3692938E-01; -1.5506749E+03;3;  3.0121109E+01;  0.0000000E+00;  1.3814173E+00;0;  2.6638769E-02;  2.2725430E+04;  0.0000000E+00; -1.5082228E+00;  4.0000000E+04;  0.0000000E+00;  3.7358941E+04; -6.1735220E-02;  0.0000000E+00;  8.8373989E-02;  3.5076565E+03;
  1.9643162E+00;  9.9999998E-03;  4.1407280E-02;9709;  1.3625884E+00;  0.0000000E+00;  5.7302052E-03;  9.9795422E+02;  1.3692942E-01; -1.5506298E+03;3;  3.0119545E+01;  0.0000000E+00; -1.3814834E+00;0;  2.6638597E-02;  2.2725428E+04;  0.0000000E+00; -1.5082426E+00;  4.0000000E+04;  0.0000000E+00;  3.7358945E+04; -6.1735488E-02;  0.0000000E+00;  8.8374086E-02;  3.5076641E+03;
  1.9648255E+00;  9.9999998E-03; -5.1576085E-02;9700;  1.3636944E+00;  0.0000000E+00; -6.2725563E-03;  9.9830432E+02;  1.3689087E-01; -1.2845358E+03;3;  2.9987318E+01;  0.0000000E+00;  1.6824231E+00;0;  3.7563324E-02;  2.2760215E+04;  0.0000000E+00; -1.9184357E+00;  4.0000000E+04;  0.0000000E+00;  3.7347125E+04; -5.3418525E-02;  0.0000000E+00;  9.0981849E-02;  4.1206279E+03;
  1.9648255E+00;  9.9999998E-03;  5.1576421E-02;9710;  1.3636944E+00;  0.0000000E+00;  6.2719616E-03;  9.9830432E+02;  1.3689145E-01; -1.2845358E+03;3;  2.9988159E+01;  0.0000000E+00; -1.6827389E+00;0;  3.7563346E-02;  2.2760213E+04;  0.0000000E+00; -1.9184389E+00;  4.0000000E+04;  0.0000000E+00;  3.7347125E+04; -5.3418718E-02;  0.0000000E+00;  9.0982065E-02;  4.1206299E+03;
  1.9650089E+00;  9.9999998E-03; -8.1823781E-02;9697;  1.3690513E+00;  0.0000000E+00; -6.8247924E-03;  9.9891895E+02;  1.3688309E-01; -8.1875128E+02;3;  2.9063856E+01;  0.0000000E+00;  1.6542132E+00;0;  9.0633675E-02;  2.2809594E+04;  0.0000000E+00;  2.0164573E+00;  4.0000000E+04;  0.0000000E+00;  3.7321082E+04; -2.0100376E-02;  0.0000000E+00;  1.1073405E-01;  8.0657988E+03;
  1.9651722E+00;  9.9999998E-03; -6.1686210E-02;9699;  1.3651326E+00;  0.0000000E+00; -6.4905556E-03;  9.9857123E+02;  1.3686663E-01; -1.0819073E+03;3;  2.9731178E+01;  0.0000000E+00;  1.7772397E+00;0;  5.1890355E-02;  2.2788742E+04;  0.0000000E+00; -1.8204644E+00;  4.0000000E+04;  0.0000000E+00;  3.7334383E+04; -4.3671060E-02;  0.0000000E+00;  9.5561415E-02;  4.8345591E+03;
  1.9651721E+00;  9.9999998E-03;  6.1686542E-02;9711;  1.3651327E+00;  0.0000000E+00;  6.4899628E-03;  9.9857117E+02;  1.3686585E-01; -1.0819524E+03;3;  2.9729881E+01;  0.0000000E+00; -1.7770669E+00;0;  5.1890243E-02;  2.2788736E+04;  0.0000000E+00; -1.8204590E+00;  4.0000000E+04;  0.0000000E+00;  3.7334387E+04; -4.3671314E-02;  0.0000000E+00;  9.5561557E-02;  4.8345469E+03;
  1.9652601E+00;  9.9999998E-03; -7.1756408E-02;9698;  1.3668963E+00;  0.0000000E+00; -6.6130897E-03;  9.9876093E+02;  1.3686167E-01; -9.3814935E+02;3;  2.9406094E+01;  0.0000000E+00;  1.8335006E+00;0;  6.9623798E-02;  2.2805908E+04;  0.0000000E+00; -7.1562213E-01;  4.0000000E+04;  0.0000000E+00;  3.7323953E+04; -3.2595929E-02;  0.0000000E+00;  1.0221973E-01;  5.8773579E+03;
  1.9763458E+00;  9.9999998E-03; -9.2378080E-02;9742;  1.3711928E+00;  0.0000000E+00; -5.5313725E-03;  9.9895160E+02;  1.3532457E-01; -7.8294128E+02;3;  2.9500057E+01;  0.0000000E+00;  7.4826360E-01;0;  8.8268042E-02;  2.3464156E+04;  0.0000000E+00;  1.7116680E+01;  4.0000000E+04;  0.0000000E+00;  3.7133824E+04; -3.0972999E-02;  0.0000000E+00;  1.1924104E-01;  1.9248975E+04;
  1.9766816E+00;  9.9999998E-03;  1.6443633E-07;9751;  1.3594476E+00;  0.0000000E+00; -3.1741089E-07;  9.9703522E+02;  1.3530356E-01; -2.2131487E+03;3;  3.1048660E+01;  0.0000000E+00;  2.3552217E-05;0; -6.6698641E-03;  2.3378086E+04;  0.0000000E+00;  1.1835211E-10;  4.0000000E+04;  0.0000000E+00;  3.7137773E+04; -7.9080649E-02;  0.0000000E+00;  7.2410785E-02;  3.1065874E+03;
  1.9767776E+00;  9.9999998E-03; -1.0521776E-02;9750;  1.3595557E+00;  0.0000000E+00; -1.5402674E-03;  9.9710120E+02;  1.3529861E-01; -2.1636201E+03;3;  3.1045490E+01;  0.0000000E+00;  2.3096496E-01;0; -5.8246702E-03;  2.3383354E+04;  0.0000000E+00; -1.6925287E-01;  4.0000000E+04;  0.0000000E+00;  3.7136289E+04; -7.8268886E-02;  0.0000000E+00;  7.2444215E-02;  3.1690391E+03;
  1.9767776E+00;  9.9999998E-03;  1.0522105E-02;9752;  1.3595557E+00;  0.0000000E+00;  1.5396258E-03;  9.9710120E+02;  1.3529861E-01; -2.1636201E+03;3;  3.1045790E+01;  0.0000000E+00; -2.3101267E-01;0; -5.8245957E-03;  2.3383350E+04;  0.0000000E+00; -1.6925843E-01;  4.0000000E+04;  0.0000000E+00;  3.7136293E+04; -7.8268990E-02;  0.0000000E+00;  7.2444394E-02;  3.1690452E+03;
  1.9771535E+00;  9.9999998E-03; -8.2105622E-02;9743;  1.3684032E+00;  0.0000000E+00; -4.9661677E-03;  9.9840936E+02;  1.3527828E-01; -1.1866115E+03;3;  2.9486813E+01;  0.0000000E+00;  1.2334654E+00;0;  6.7172199E-02;  2.3470234E+04;  0.0000000E+00;  8.5160265E+00;  4.0000000E+04;  0.0000000E+00;  3.7112582E+04; -3.9575968E-02;  0.0000000E+00;  1.0674817E-01;  1.2029399E+04;
  1.9770408E+00;  9.9999998E-03; -2.0959314E-02;9749;  1.3599000E+00;  0.0000000E+00; -2.9096082E-03;  9.9726428E+02;  1.3528535E-01; -2.0411913E+03;3;  3.1021423E+01;  0.0000000E+00;  5.1556861E-01;0; -3.1705946E-03;  2.3397973E+04;  0.0000000E+00; -6.2033188E-01;  4.0000000E+04;  0.0000000E+00;  3.7131488E+04; -7.5900927E-02;  0.0000000E+00;  7.2730333E-02;  3.3666306E+03;
  1.9770408E+00;  9.9999998E-03;  2.0959646E-02;9753;  1.3599001E+00;  0.0000000E+00;  2.9089770E-03;  9.9726428E+02;  1.3528441E-01; -2.0411913E+03;3;  3.1021893E+01;  0.0000000E+00; -5.1563776E-01;0; -3.1706318E-03;  2.3397975E+04;  0.0000000E+00; -6.2034100E-01;  4.0000000E+04;  0.0000000E+00;  3.7131488E+04; -7.5901024E-02;  0.0000000E+00;  7.2730392E-02;  3.3666487E+03;
  1.9774077E+00;  9.9999998E-03; -3.1294748E-02;9748;  1.3605341E+00;  0.0000000E+00; -3.9013668E-03;  9.9741211E+02;  1.3526013E-01; -1.9299604E+03;3;  3.0967110E+01;  0.0000000E+00;  8.4299773E-01;0;  1.6195849E-03;  2.3418334E+04;  0.0000000E+00; -1.1900462E+00;  4.0000000E+04;  0.0000000E+00;  3.7123676E+04; -7.2133861E-02;  0.0000000E+00;  7.3753446E-02;  3.7028301E+03;
  1.9774077E+00;  9.9999998E-03;  3.1295080E-02;9754;  1.3605341E+00;  0.0000000E+00;  3.9007424E-03;  9.9741193E+02;  1.3526070E-01; -1.9300939E+03;3;  3.0967648E+01;  0.0000000E+00; -8.4307629E-01;0;  1.6195923E-03;  2.3418332E+04;  0.0000000E+00; -1.1900585E+00;  4.0000000E+04;  0.0000000E+00;  3.7123676E+04; -7.2134003E-02;  0.0000000E+00;  7.3753595E-02;  3.7028538E+03;
  1.9777291E+00;  9.9999998E-03; -7.1933202E-02;9744;  1.3661695E+00;  0.0000000E+00; -4.7337180E-03;  9.9803210E+02;  1.3524239E-01; -1.4669565E+03;3;  2.9893923E+01;  0.0000000E+00;  1.2705700E+00;0;  4.8404340E-02;  2.3471984E+04;  0.0000000E+00;  2.9702153E+00;  4.0000000E+04;  0.0000000E+00;  3.7100992E+04; -4.7425848E-02;  0.0000000E+00;  9.5830187E-02;  7.6534961E+03;
  1.9777718E+00;  9.9999998E-03; -4.1528817E-02;9747;  1.3614938E+00;  0.0000000E+00; -4.3788403E-03;  9.9758496E+02;  1.3523997E-01; -1.8001808E+03;3;  3.0816521E+01;  0.0000000E+00;  1.0613047E+00;0;  8.9498982E-03;  2.3439709E+04;  0.0000000E+00; -1.5926183E+00;  4.0000000E+04;  0.0000000E+00;  3.7114035E+04; -6.7184165E-02;  0.0000000E+00;  7.6134063E-02;  4.1295181E+03;
  1.9777718E+00;  9.9999998E-03;  4.1529149E-02;9755;  1.3614938E+00;  0.0000000E+00;  4.3782331E-03;  9.9758502E+02;  1.3524029E-01; -1.8001364E+03;3;  3.0814808E+01;  0.0000000E+00; -1.0611935E+00;0;  8.9496747E-03;  2.3439703E+04;  0.0000000E+00; -1.5926322E+00;  4.0000000E+04;  0.0000000E+00;  3.7114035E+04; -6.7184396E-02;  0.0000000E+00;  7.6134071E-02;  4.1295127E+03;
  1.9780114E+00;  9.9999998E-03; -5.1685914E-02;9746;  1.3627522E+00;  0.0000000E+00; -4.5482819E-03;  9.9775098E+02;  1.3523263E-01; -1.6758649E+03;3;  3.0578892E+01;  0.0000000E+00;  1.1704555E+00;0;  1.9117504E-02;  2.3457129E+04;  0.0000000E+00; -1.4109159E+00;  4.0000000E+04;  0.0000000E+00;  3.7104539E+04; -6.1301939E-02;  0.0000000E+00;  8.0419444E-02;  4.6352441E+03;
  1.9780114E+00;  9.9999998E-03;  5.1686250E-02;9756;  1.3627523E+00;  0.0000000E+00;  4.5476705E-03;  9.9775104E+02;  1.3523304E-01; -1.6758203E+03;3;  3.0577427E+01;  0.0000000E+00; -1.1702681E+00;0;  1.9117318E-02;  2.3457137E+04;  0.0000000E+00; -1.4109129E+00;  4.0000000E+04;  0.0000000E+00;  3.7104547E+04; -6.1302252E-02;  0.0000000E+00;  8.0419570E-02;  4.6352412E+03;
  1.9780166E+00;  9.9999998E-03; -6.1807167E-02;9745;  1.3643035E+00;  0.0000000E+00; -4.6342374E-03;  9.9788300E+02;  1.3523223E-01; -1.5774746E+03;3;  3.0270311E+01;  0.0000000E+00;  1.2505155E+00;0;  3.2287605E-02;  2.3467988E+04;  0.0000000E+00; -1.0469539E-01;  4.0000000E+04;  0.0000000E+00;  3.7098930E+04; -5.4679342E-02;  0.0000000E+00;  8.6966947E-02;  5.5245239E+03;
  1.9780166E+00;  9.9999998E-03;  6.1807498E-02;9757;  1.3643037E+00;  0.0000000E+00;  4.6336269E-03;  9.9788318E+02;  1.3523214E-01; -1.5773414E+03;3;  3.0271238E+01;  0.0000000E+00; -1.2509463E+00;0;  3.2287478E-02;  2.3467986E+04;  0.0000000E+00; -1.0467905E-01;  4.0000000E+04;  0.0000000E+00;  3.7098930E+04; -5.4679595E-02;  0.0000000E+00;  8.6967073E-02;  5.5245376E+03;
  1.9882628E+00;  9.9999998E-03; -9.3203209E-02;9786;  1.3710600E+00;  0.0000000E+00; -4.4412124E-03;  9.9866956E+02;  1.3398749E-01; -9.7717688E+02;3;  3.0092274E+01;  0.0000000E+00;  2.8189423E-02;0;  6.0687315E-02;  2.4070566E+04;  0.0000000E+00;  3.0058031E+01;  4.0000000E+04;  0.0000000E+00;  3.6909969E+04; -5.5978920E-02;  0.0000000E+00;  1.1666624E-01;  2.6510867E+04;
  1.9889674E+00;  9.9999998E-03; -8.2670763E-02;9787;  1.3679615E+00;  0.0000000E+00; -3.6097525E-03;  9.9830292E+02;  1.3395360E-01; -1.2451534E+03;3;  3.0023283E+01;  0.0000000E+00;  6.4856666E-01;0;  4.2708769E-02;  2.4078947E+04;  0.0000000E+00;  1.9069136E+01;  4.0000000E+04;  0.0000000E+00;  3.6891016E+04; -5.8695845E-02;  0.0000000E+00;  1.0140461E-01;  1.7971475E+04;
  1.9895986E+00;  9.9999998E-03; -7.2236829E-02;9788;  1.3655282E+00;  0.0000000E+00; -3.2373772E-03;  9.9781604E+02;  1.3392662E-01; -1.6008934E+03;3;  3.0345934E+01;  0.0000000E+00;  7.9623210E-01;0;  2.6513260E-02;  2.4077537E+04;  0.0000000E+00;  1.0770045E+01;  4.0000000E+04;  0.0000000E+00;  3.6874758E+04; -6.1652038E-02;  0.0000000E+00;  8.8165298E-02;  1.1658691E+04;
  1.9900767E+00;  9.9999998E-03; -6.1884403E-02;9789;  1.3635097E+00;  0.0000000E+00; -3.0448313E-03;  9.9736957E+02;  1.3390447E-01; -1.9267567E+03;3;  3.0709864E+01;  0.0000000E+00;  8.1019676E-01;0;  1.2271494E-02;  2.4071600E+04;  0.0000000E+00;  5.1428242E+00;  4.0000000E+04;  0.0000000E+00;  3.6864168E+04; -6.4980537E-02;  0.0000000E+00;  7.7252030E-02;  7.5229790E+03;
  1.9900767E+00;  9.9999998E-03;  6.1884739E-02;9801;  1.3635095E+00;  0.0000000E+00;  3.0442229E-03;  9.9736957E+02;  1.3390419E-01; -1.9267565E+03;3;  3.0710604E+01;  0.0000000E+00; -8.1030738E-01;0;  1.2271248E-02;  2.4071590E+04;  0.0000000E+00;  5.1428266E+00;  4.0000000E+04;  0.0000000E+00;  3.6864172E+04; -6.4980902E-02;  0.0000000E+00;  7.7252150E-02;  7.5229775E+03;
  1.9901122E+00;  9.9999998E-03;  1.6364159E-07;9795;  1.3579952E+00;  0.0000000E+00; -3.2172647E-07;  9.9668048E+02;  1.3390110E-01; -2.4313792E+03;3;  3.1737461E+01;  0.0000000E+00;  9.5982105E-06;0; -2.3578089E-02;  2.4025463E+04;  0.0000000E+00;  6.1886468E-11;  4.0000000E+04;  0.0000000E+00;  3.6881395E+04; -7.9280198E-02;  0.0000000E+00;  5.5702109E-02;  3.1497947E+03;
  1.9901601E+00;  9.9999998E-03; -1.0466464E-02;9794;  1.3581420E+00;  0.0000000E+00; -1.1901121E-03;  9.9668872E+02;  1.3389933E-01; -2.4251794E+03;3;  3.1736311E+01;  0.0000000E+00;  1.9751507E-01;0; -2.2760808E-02;  2.4027846E+04;  0.0000000E+00; -1.2911524E-01;  4.0000000E+04;  0.0000000E+00;  3.6879164E+04; -7.8750826E-02;  0.0000000E+00;  5.5990018E-02;  3.2267344E+03;
  1.9901601E+00;  9.9999998E-03;  1.0466792E-02;9796;  1.3581420E+00;  0.0000000E+00;  1.1894703E-03;  9.9668866E+02;  1.3389912E-01; -2.4252231E+03;3;  3.1736557E+01;  0.0000000E+00; -1.9750707E-01;0; -2.2760797E-02;  2.4027852E+04;  0.0000000E+00; -1.2912187E-01;  4.0000000E+04;  0.0000000E+00;  3.6879168E+04; -7.8750893E-02;  0.0000000E+00;  5.5990096E-02;  3.2267456E+03;
  1.9903667E+00;  9.9999998E-03; -5.1621370E-02;9790;  1.3618349E+00;  0.0000000E+00; -2.9167479E-03;  9.9704993E+02;  1.3389349E-01; -2.1599597E+03;3;  3.1063139E+01;  0.0000000E+00;  7.8805947E-01;0;  4.2936206E-04;  2.4063436E+04;  0.0000000E+00;  1.7151797E+00;  4.0000000E+04;  0.0000000E+00;  3.6859965E+04; -6.8452641E-02;  0.0000000E+00;  6.8882003E-02;  5.2431528E+03;
  1.9903668E+00;  9.9999998E-03;  5.1621705E-02;9800;  1.3618349E+00;  0.0000000E+00;  2.9161295E-03;  9.9704993E+02;  1.3389349E-01; -2.1599595E+03;3;  3.1063818E+01;  0.0000000E+00; -7.8820223E-01;0;  4.2906404E-04;  2.4063430E+04;  0.0000000E+00;  1.7151496E+00;  4.0000000E+04;  0.0000000E+00;  3.6859965E+04; -6.8452992E-02;  0.0000000E+00;  6.8882056E-02;  5.2431450E+03;
  1.9902782E+00;  9.9999998E-03; -2.0863049E-02;9793;  1.3586020E+00;  0.0000000E+00; -2.1157786E-03;  9.9671667E+02;  1.3389468E-01; -2.4042769E+03;3;  3.1677588E+01;  0.0000000E+00;  4.2606476E-01;0; -2.0197965E-02;  2.4034850E+04;  0.0000000E+00; -4.0251902E-01;  4.0000000E+04;  0.0000000E+00;  3.6874246E+04; -7.7212110E-02;  0.0000000E+00;  5.7014145E-02;  3.4400225E+03;
  1.9902782E+00;  9.9999998E-03;  2.0863380E-02;9797;  1.3586022E+00;  0.0000000E+00;  2.1151388E-03;  9.9671661E+02;  1.3389494E-01; -2.4043203E+03;3;  3.1677929E+01;  0.0000000E+00; -4.2612085E-01;0; -2.0198125E-02;  2.4034852E+04;  0.0000000E+00; -4.0253499E-01;  4.0000000E+04;  0.0000000E+00;  3.6874250E+04; -7.7212274E-02;  0.0000000E+00;  5.7014149E-02;  3.4400085E+03;
  1.9904066E+00;  9.9999998E-03; -3.1167299E-02;9792;  1.3593901E+00;  0.0000000E+00; -2.5881671E-03;  9.9676355E+02;  1.3389035E-01; -2.3695115E+03;3;  3.1565163E+01;  0.0000000E+00;  6.1188281E-01;0; -1.5643902E-02;  2.4044285E+04;  0.0000000E+00; -5.0777644E-01;  4.0000000E+04;  0.0000000E+00;  3.6867230E+04; -7.4814394E-02;  0.0000000E+00;  5.9170492E-02;  3.7538782E+03;
  1.9904065E+00;  9.9999998E-03;  3.1167626E-02;9798;  1.3593903E+00;  0.0000000E+00;  2.5875433E-03;  9.9676349E+02;  1.3389005E-01; -2.3695549E+03;3;  3.1565674E+01;  0.0000000E+00; -6.1209959E-01;0; -1.5643928E-02;  2.4044291E+04;  0.0000000E+00; -5.0778306E-01;  4.0000000E+04;  0.0000000E+00;  3.6867234E+04; -7.4814536E-02;  0.0000000E+00;  5.9170607E-02;  3.7539038E+03;
  1.9904625E+00;  9.9999998E-03; -4.1401591E-02;9791;  1.3604686E+00;  0.0000000E+00; -2.7833036E-03;  9.9685822E+02;  1.3388820E-01; -2.2999756E+03;3;  3.1360380E+01;  0.0000000E+00;  7.1965766E-01;0; -8.8469088E-03;  2.4054057E+04;  0.0000000E+00;  1.6906943E-02;  4.0000000E+04;  0.0000000E+00;  3.6861492E+04; -7.1811132E-02;  0.0000000E+00;  6.2964223E-02;  4.2265005E+03;
  1.9904625E+00;  9.9999998E-03;  4.1401915E-02;9799;  1.3604687E+00;  0.0000000E+00;  2.7826759E-03;  9.9685809E+02;  1.3388823E-01; -2.3000630E+03;3;  3.1360901E+01;  0.0000000E+00; -7.1977997E-01;0; -8.8470057E-03;  2.4054057E+04;  0.0000000E+00;  1.6912458E-02;  4.0000000E+04;  0.0000000E+00;  3.6861496E+04; -7.1811289E-02;  0.0000000E+00;  6.2964283E-02;  4.2265317E+03;
  2.0003195E+00;  9.9999998E-03; -9.4224706E-02;9828;  1.3711164E+00;  0.0000000E+00; -3.4966976E-03;  9.9775763E+02;  1.3287704E-01; -1.6161620E+03;3;  3.0823959E+01;  0.0000000E+00; -8.0689752E-01;0;  2.9499963E-02;  2.4613150E+04;  0.0000000E+00;  3.9573303E+01;  4.0000000E+04;  0.0000000E+00;  3.6643555E+04; -8.3155647E-02;  0.0000000E+00;  1.1265561E-01;  3.0122674E+04;
  2.0008941E+00;  9.9999998E-03; -8.3514214E-02;9829;  1.3676854E+00;  0.0000000E+00; -2.5666978E-03;  9.9787268E+02;  1.3284548E-01; -1.5317476E+03;3;  3.0613840E+01;  0.0000000E+00; -6.1190039E-02;0;  1.4851503E-02;  2.4633408E+04;  0.0000000E+00;  2.9450436E+01;  4.0000000E+04;  0.0000000E+00;  3.6638324E+04; -8.0126762E-02;  0.0000000E+00;  9.4978265E-02;  2.2532246E+04;
  2.0014272E+00;  9.9999998E-03; -7.2809041E-02;9830;  1.3650100E+00;  0.0000000E+00; -2.0945992E-03;  9.9778583E+02;  1.3282546E-01; -1.5929065E+03;3;  3.0783697E+01;  0.0000000E+00;  2.5277081E-01;0;  1.8799007E-03;  2.4639717E+04;  0.0000000E+00;  2.0759155E+01;  4.0000000E+04;  0.0000000E+00;  3.6633047E+04; -7.7733047E-02;  0.0000000E+00;  7.9612948E-02;  1.6137260E+04;
  2.0018713E+00;  9.9999998E-03; -6.2129885E-02;9831;  1.3627952E+00;  0.0000000E+00; -1.8097636E-03;  9.9749597E+02;  1.3280454E-01; -1.8000940E+03;3;  3.1156429E+01;  0.0000000E+00;  3.6130422E-01;0; -9.8665059E-03;  2.4638154E+04;  0.0000000E+00;  1.3879246E+01;  4.0000000E+04;  0.0000000E+00;  3.6628297E+04; -7.6687470E-02;  0.0000000E+00;  6.6820964E-02;  1.1123164E+04;
  2.0018713E+00;  9.9999998E-03;  6.2130209E-02;9843;  1.3627952E+00;  0.0000000E+00;  1.8091581E-03;  9.9749597E+02;  1.3280454E-01; -1.8000940E+03;3;  3.1155020E+01;  0.0000000E+00; -3.6096314E-01;0; -9.8666251E-03;  2.4638148E+04;  0.0000000E+00;  1.3879355E+01;  4.0000000E+04;  0.0000000E+00;  3.6628293E+04; -7.6687694E-02;  0.0000000E+00;  6.6821069E-02;  1.1123210E+04;
  2.0022221E+00;  9.9999998E-03; -5.1587120E-02;9832;  1.3609809E+00;  0.0000000E+00; -1.6158783E-03;  9.9713739E+02;  1.3279608E-01; -2.0566570E+03;3;  3.1497744E+01;  0.0000000E+00;  4.0748036E-01;0; -1.9851755E-02;  2.4629666E+04;  0.0000000E+00;  8.3874798E+00;  4.0000000E+04;  0.0000000E+00;  3.6621168E+04; -7.6723464E-02;  0.0000000E+00;  5.6871708E-02;  7.3560005E+03;
  2.0022221E+00;  9.9999998E-03;  5.1587451E-02;9842;  1.3609810E+00;  0.0000000E+00;  1.6152554E-03;  9.9713739E+02;  1.3279551E-01; -2.0566570E+03;3;  3.1498419E+01;  0.0000000E+00; -4.0775239E-01;0; -1.9852046E-02;  2.4629666E+04;  0.0000000E+00;  8.3874969E+00;  4.0000000E+04;  0.0000000E+00;  3.6621168E+04; -7.6723836E-02;  0.0000000E+00;  5.6871790E-02;  7.3560176E+03;
  2.0024526E+00;  9.9999998E-03; -4.1186206E-02;9833;  1.3595039E+00;  0.0000000E+00; -1.4530227E-03;  9.9679529E+02;  1.3278842E-01; -2.3015237E+03;3;  3.1787764E+01;  0.0000000E+00;  4.1453448E-01;0; -2.7828477E-02;  2.4620006E+04;  0.0000000E+00;  4.4335027E+00;  4.0000000E+04;  0.0000000E+00;  3.6615707E+04; -7.7457868E-02;  0.0000000E+00;  4.9629390E-02;  4.8963833E+03;
  2.0024526E+00;  9.9999998E-03;  4.1186538E-02;9841;  1.3595039E+00;  0.0000000E+00;  1.4523785E-03;  9.9679523E+02;  1.3278812E-01; -2.3015664E+03;3;  3.1788130E+01;  0.0000000E+00; -4.1461882E-01;0; -2.7828693E-02;  2.4620012E+04;  0.0000000E+00;  4.4334888E+00;  4.0000000E+04;  0.0000000E+00;  3.6615703E+04; -7.7458113E-02;  0.0000000E+00;  4.9629420E-02;  4.8963784E+03;
  2.0025728E+00;  9.9999998E-03; -3.0886002E-02;9834;  1.3583403E+00;  0.0000000E+00; -1.2833269E-03;  9.9656476E+02;  1.3278751E-01; -2.4665991E+03;3;  3.2043201E+01;  0.0000000E+00;  3.5760257E-01;0; -3.3777956E-02;  2.4611133E+04;  0.0000000E+00;  1.9439856E+00;  4.0000000E+04;  0.0000000E+00;  3.6613766E+04; -7.8497104E-02;  0.0000000E+00;  4.4719148E-02;  3.6082053E+03;
  2.0025725E+00;  9.9999998E-03;  3.0886326E-02;9840;  1.3583403E+00;  0.0000000E+00;  1.2826999E-03;  9.9656464E+02;  1.3278662E-01; -2.4666851E+03;3;  3.2043564E+01;  0.0000000E+00; -3.5778573E-01;0; -3.3778064E-02;  2.4611139E+04;  0.0000000E+00;  1.9439864E+00;  4.0000000E+04;  0.0000000E+00;  3.6613770E+04; -7.8497328E-02;  0.0000000E+00;  4.4719264E-02;  3.6082417E+03;
  2.0026097E+00;  9.9999998E-03; -2.0623179E-02;9835;  1.3574805E+00;  0.0000000E+00; -1.0629797E-03;  9.9643481E+02;  1.3278483E-01; -2.5597380E+03;3;  3.2201080E+01;  0.0000000E+00;  2.7961820E-01;0; -3.7838366E-02;  2.4604418E+04;  0.0000000E+00;  6.3719189E-01;  4.0000000E+04;  0.0000000E+00;  3.6614609E+04; -7.9519480E-02;  0.0000000E+00;  4.1681115E-02;  3.0841292E+03;
  2.0026097E+00;  9.9999998E-03;  2.0623507E-02;9839;  1.3574804E+00;  0.0000000E+00;  1.0623480E-03;  9.9643469E+02;  1.3278477E-01; -2.5598237E+03;3;  3.2201214E+01;  0.0000000E+00; -2.7963477E-01;0; -3.7838403E-02;  2.4604420E+04;  0.0000000E+00;  6.3717765E-01;  4.0000000E+04;  0.0000000E+00;  3.6614613E+04; -7.9519615E-02;  0.0000000E+00;  4.1681211E-02;  3.0841311E+03;
  2.0026066E+00;  9.9999998E-03; -1.0332724E-02;9836;  1.3569286E+00;  0.0000000E+00; -6.6594739E-04;  9.9637958E+02;  1.3278440E-01; -2.5994229E+03;3;  3.2297501E+01;  0.0000000E+00;  1.4096561E-01;0; -4.0224709E-02;  2.4600371E+04;  0.0000000E+00;  1.1786451E-01;  4.0000000E+04;  0.0000000E+00;  3.6617113E+04; -8.0284581E-02;  0.0000000E+00;  4.0059872E-02;  2.8817290E+03;
  2.0026066E+00;  9.9999998E-03;  1.0333054E-02;9838;  1.3569286E+00;  0.0000000E+00;  6.6530518E-04;  9.9637964E+02;  1.3278414E-01; -2.5993799E+03;3;  3.2295372E+01;  0.0000000E+00; -1.4085770E-01;0; -4.0224556E-02;  2.4600355E+04;  0.0000000E+00;  1.1785333E-01;  4.0000000E+04;  0.0000000E+00;  3.6617109E+04; -8.0284446E-02;  0.0000000E+00;  4.0059891E-02;  2.8816848E+03;
  2.0026009E+00;  9.9999998E-03;  1.6361260E-07;9837;  1.3567394E+00;  0.0000000E+00; -3.2427999E-07;  9.9636914E+02;  1.3278352E-01; -2.6069368E+03;3;  3.2324490E+01;  0.0000000E+00; -9.3188137E-06;0; -4.1012306E-02;  2.4599012E+04;  0.0000000E+00;  2.7548292E-11;  4.0000000E+04;  0.0000000E+00;  3.6618270E+04; -8.0562420E-02;  0.0000000E+00;  3.9550114E-02;  2.8206543E+03;
  2.0123534E+00;  9.9999998E-03; -9.5163703E-02;9867;  1.3711663E+00;  0.0000000E+00; -2.0625738E-03;  9.9703693E+02;  1.3195667E-01; -2.0912888E+03;3;  3.1620110E+01;  0.0000000E+00; -1.5929124E+00;0; -6.1988905E-03;  2.5124059E+04;  0.0000000E+00;  3.9677834E+01;  4.0000000E+04;  0.0000000E+00;  3.6355238E+04; -1.1177119E-01;  0.0000000E+00;  1.0557230E-01;  2.7757143E+04;
  2.0128658E+00;  9.9999998E-03; -8.4414728E-02;9868;  1.3674679E+00;  0.0000000E+00; -1.3804646E-03;  9.9734210E+02;  1.3192984E-01; -1.8741394E+03;3;  3.1225613E+01;  0.0000000E+00; -8.1693935E-01;0; -1.7305486E-02;  2.5145293E+04;  0.0000000E+00;  3.3297035E+01;  4.0000000E+04;  0.0000000E+00;  3.6358121E+04; -1.0414976E-01;  0.0000000E+00;  8.6844273E-02;  2.2652303E+04;
  2.0133278E+00;  9.9999998E-03; -7.3610291E-02;9869;  1.3645850E+00;  0.0000000E+00; -1.0263376E-03;  9.9756396E+02;  1.3190863E-01; -1.7162498E+03;3;  3.1267910E+01;  0.0000000E+00; -3.7820238E-01;0; -2.6468903E-02;  2.5159393E+04;  0.0000000E+00;  2.6927361E+01;  4.0000000E+04;  0.0000000E+00;  3.6363184E+04; -9.6667111E-02;  0.0000000E+00;  7.0198208E-02;  1.7778986E+04;
  2.0137208E+00;  9.9999998E-03; -6.2755570E-02;9870;  1.3622183E+00;  0.0000000E+00; -8.0166955E-04;  9.9768500E+02;  1.3189279E-01; -1.6297802E+03;3;  3.1591354E+01;  0.0000000E+00; -1.9222957E-01;0; -3.4933209E-02;  2.5166213E+04;  0.0000000E+00;  2.1268148E+01;  4.0000000E+04;  0.0000000E+00;  3.6370453E+04; -9.0965450E-02;  0.0000000E+00;  5.6032240E-02;  1.3502774E+04;
  2.0137208E+00;  9.9999998E-03;  6.2755898E-02;9882;  1.3622184E+00;  0.0000000E+00;  8.0105645E-04;  9.9768500E+02;  1.3189256E-01; -1.6297802E+03;3;  3.1589947E+01;  0.0000000E+00;  1.9246869E-01;0; -3.4933094E-02;  2.5166211E+04;  0.0000000E+00;  2.1268122E+01;  4.0000000E+04;  0.0000000E+00;  3.6370449E+04; -9.0965338E-02;  0.0000000E+00;  5.6032244E-02;  1.3502801E+04;
  2.0140371E+00;  9.9999998E-03; -5.1938977E-02;9871;  1.3602492E+00;  0.0000000E+00; -6.2167697E-04;  9.9762885E+02;  1.3188028E-01; -1.6683315E+03;3;  3.1885311E+01;  0.0000000E+00; -8.2378909E-03;0; -4.2539727E-02;  2.5166533E+04;  0.0000000E+00;  1.5896494E+01;  4.0000000E+04;  0.0000000E+00;  3.6373023E+04; -8.7275684E-02;  0.0000000E+00;  4.4735957E-02;  9.7535791E+03;
  2.0140371E+00;  9.9999998E-03;  5.1939305E-02;9881;  1.3602492E+00;  0.0000000E+00;  6.2105292E-04;  9.9762885E+02;  1.3187976E-01; -1.6683315E+03;3;  3.1885866E+01;  0.0000000E+00;  7.9146046E-03;0; -4.2540066E-02;  2.5166529E+04;  0.0000000E+00;  1.5896493E+01;  4.0000000E+04;  0.0000000E+00;  3.6373020E+04; -8.7276086E-02;  0.0000000E+00;  4.4736020E-02;  9.7535684E+03;
  2.0142798E+00;  9.9999998E-03; -4.1254614E-02;9872;  1.3586525E+00;  0.0000000E+00; -4.6425412E-04;  9.9742920E+02;  1.3187455E-01; -1.8080099E+03;3;  3.2191452E+01;  0.0000000E+00;  8.5369952E-02;0; -4.8864212E-02;  2.5161264E+04;  0.0000000E+00;  1.0739679E+01;  4.0000000E+04;  0.0000000E+00;  3.6370141E+04; -8.5192896E-02;  0.0000000E+00;  3.6328685E-02;  6.5583516E+03;
  2.0142798E+00;  9.9999998E-03;  4.1254949E-02;9880;  1.3586525E+00;  0.0000000E+00;  4.6361165E-04;  9.9742920E+02;  1.3187416E-01; -1.8080099E+03;3;  3.2191677E+01;  0.0000000E+00; -8.5427150E-02;0; -4.8864573E-02;  2.5161250E+04;  0.0000000E+00;  1.0739615E+01;  4.0000000E+04;  0.0000000E+00;  3.6370148E+04; -8.5193299E-02;  0.0000000E+00;  3.6328726E-02;  6.5583296E+03;
  2.0144453E+00;  9.9999998E-03; -3.0751720E-02;9873;  1.3574033E+00;  0.0000000E+00; -3.2526164E-04;  9.9715668E+02;  1.3187094E-01; -1.9990493E+03;3;  3.2462494E+01;  0.0000000E+00;  1.1383578E-01;0; -5.3719506E-02;  2.5154594E+04;  0.0000000E+00;  6.2024908E+00;  4.0000000E+04;  0.0000000E+00;  3.6363551E+04; -8.4233232E-02;  0.0000000E+00;  3.0513724E-02;  4.1373711E+03;
  2.0144453E+00;  9.9999998E-03;  3.0752074E-02;9879;  1.3574032E+00;  0.0000000E+00;  3.2464095E-04;  9.9715668E+02;  1.3187097E-01; -1.9990490E+03;3;  3.2460297E+01;  0.0000000E+00; -1.1352935E-01;0; -5.3719446E-02;  2.5154578E+04;  0.0000000E+00;  6.2023659E+00;  4.0000000E+04;  0.0000000E+00;  3.6363547E+04; -8.4233165E-02;  0.0000000E+00;  3.0513717E-02;  4.1372803E+03;
  2.0145462E+00;  9.9999998E-03; -2.0418551E-02;9874;  1.3564869E+00;  0.0000000E+00; -1.9070783E-04;  9.9691040E+02;  1.3186905E-01; -2.1717983E+03;3;  3.2651817E+01;  0.0000000E+00;  1.1905160E-01;0; -5.7126753E-02;  2.5148443E+04;  0.0000000E+00;  2.7530191E+00;  4.0000000E+04;  0.0000000E+00;  3.6357082E+04; -8.3953753E-02;  0.0000000E+00;  2.6827002E-02;  2.7722852E+03;
  2.0145462E+00;  9.9999998E-03;  2.0418884E-02;9878;  1.3564869E+00;  0.0000000E+00;  1.9007691E-04;  9.9691046E+02;  1.3186884E-01; -2.1717563E+03;3;  3.2649841E+01;  0.0000000E+00; -1.1874431E-01;0; -5.7126530E-02;  2.5148441E+04;  0.0000000E+00;  2.7529886E+00;  4.0000000E+04;  0.0000000E+00;  3.6357078E+04; -8.3953552E-02;  0.0000000E+00;  2.6827022E-02;  2.7722583E+03;
  2.0145977E+00;  9.9999998E-03; -1.0193519E-02;9875;  1.3559142E+00;  0.0000000E+00; -7.3661897E-05;  9.9676013E+02;  1.3186905E-01; -2.2772058E+03;3;  3.2784588E+01;  0.0000000E+00;  8.3009079E-02;0; -5.9153169E-02;  2.5143939E+04;  0.0000000E+00;  6.7387420E-01;  4.0000000E+04;  0.0000000E+00;  3.6353336E+04; -8.3979733E-02;  0.0000000E+00;  2.4826566E-02;  2.4032822E+03;
  2.0145977E+00;  9.9999998E-03;  1.0193847E-02;9877;  1.3559142E+00;  0.0000000E+00;  7.3015202E-05;  9.9676013E+02;  1.3186967E-01; -2.2772058E+03;3;  3.2784668E+01;  0.0000000E+00; -8.3026007E-02;0; -5.9153207E-02;  2.5143941E+04;  0.0000000E+00;  6.7386407E-01;  4.0000000E+04;  0.0000000E+00;  3.6353336E+04; -8.3979778E-02;  0.0000000E+00;  2.4826569E-02;  2.4032766E+03;
  2.0146122E+00;  9.9999998E-03;  1.6347551E-07;9876;  1.3557178E+00;  0.0000000E+00; -3.2402036E-07;  9.9671173E+02;  1.3186964E-01; -2.3111609E+03;3;  3.2833393E+01;  0.0000000E+00; -2.2042543E-05;0; -5.9822820E-02;  2.5142711E+04;  0.0000000E+00;  9.1706798E-12;  4.0000000E+04;  0.0000000E+00;  3.6352055E+04; -8.4022582E-02;  0.0000000E+00;  2.4199761E-02;  2.3926729E+03;
  2.0243554E+00;  9.9999998E-03; -9.5861122E-02;9903;  1.3711826E+00;  0.0000000E+00;  2.9197001E-05;  9.9742474E+02;  1.3118348E-01; -1.7763185E+03;3;  3.2328133E+01;  0.0000000E+00; -2.0039306E+00;0; -4.4621192E-02;  2.5631510E+04;  0.0000000E+00;  2.8588089E+01;  4.0000000E+04;  0.0000000E+00;  3.6081969E+04; -1.3811211E-01;  0.0000000E+00;  9.3490921E-02;  1.9946227E+04;
  2.0248237E+00;  9.9999998E-03; -8.5148267E-02;9904;  1.3672540E+00;  0.0000000E+00;  2.7288121E-04;  9.9749927E+02;  1.3116482E-01; -1.7232708E+03;3;  3.1813459E+01;  0.0000000E+00; -1.3416964E+00;0; -5.2778125E-02;  2.5643197E+04;  0.0000000E+00;  2.7200502E+01;  4.0000000E+04;  0.0000000E+00;  3.6079969E+04; -1.2839320E-01;  0.0000000E+00;  7.5615078E-02;  1.7791707E+04;
  2.0252490E+00;  9.9999998E-03; -7.4357420E-02;9905;  1.3641831E+00;  0.0000000E+00;  3.3250978E-04;  9.9767725E+02;  1.3114914E-01; -1.5992571E+03;3;  3.1811914E+01;  0.0000000E+00; -1.0214816E+00;0; -5.8367245E-02;  2.5653213E+04;  0.0000000E+00;  2.4700888E+01;  4.0000000E+04;  0.0000000E+00;  3.6085312E+04; -1.1739885E-01;  0.0000000E+00;  5.9031606E-02;  1.5139496E+04;
  2.0256135E+00;  9.9999998E-03; -6.3496880E-02;9906;  1.3616884E+00;  0.0000000E+00;  3.3705973E-04;  9.9789581E+02;  1.3113263E-01; -1.4477036E+03;3;  3.1991407E+01;  0.0000000E+00; -7.8307015E-01;0; -6.3284680E-02;  2.5662348E+04;  0.0000000E+00;  2.1745638E+01;  4.0000000E+04;  0.0000000E+00;  3.6095043E+04; -1.0776939E-01;  0.0000000E+00;  4.4484712E-02;  1.2394313E+04;
  2.0256135E+00;  9.9999998E-03;  6.3497201E-02;9918;  1.3616885E+00;  0.0000000E+00; -3.3769826E-04;  9.9789581E+02;  1.3113353E-01; -1.4477036E+03;3;  3.1991911E+01;  0.0000000E+00;  7.8296936E-01;0; -6.3285187E-02;  2.5662357E+04;  0.0000000E+00;  2.1745893E+01;  4.0000000E+04;  0.0000000E+00;  3.6095043E+04; -1.0776992E-01;  0.0000000E+00;  4.4484738E-02;  1.2394429E+04;
  2.0259101E+00;  9.9999998E-03; -5.2586723E-02;9907;  1.3596184E+00;  0.0000000E+00;  3.3786410E-04;  9.9809583E+02;  1.3112091E-01; -1.3093346E+03;3;  3.2313400E+01;  0.0000000E+00; -5.8262753E-01;0; -6.8003446E-02;  2.5668527E+04;  0.0000000E+00;  1.8568336E+01;  4.0000000E+04;  0.0000000E+00;  3.6105855E+04; -1.0050213E-01;  0.0000000E+00;  3.2498691E-02;  9.7606553E+03;
  2.0259101E+00;  9.9999998E-03;  5.2587043E-02;9917;  1.3596187E+00;  0.0000000E+00; -3.3849606E-04;  9.9809589E+02;  1.3112122E-01; -1.3092937E+03;3;  3.2312233E+01;  0.0000000E+00;  5.8262765E-01;0; -6.8003111E-02;  2.5668527E+04;  0.0000000E+00;  1.8568462E+01;  4.0000000E+04;  0.0000000E+00;  3.6105859E+04; -1.0050181E-01;  0.0000000E+00;  3.2498702E-02;  9.7607080E+03;
  2.0261414E+00;  9.9999998E-03; -4.1697424E-02;9908;  1.3579266E+00;  0.0000000E+00;  3.3430092E-04;  9.9816632E+02;  1.3111170E-01; -1.2602610E+03;3;  3.2605568E+01;  0.0000000E+00; -4.3246573E-01;0; -7.2252616E-02;  2.5670900E+04;  0.0000000E+00;  1.4764924E+01;  4.0000000E+04;  0.0000000E+00;  3.6112102E+04; -9.5545948E-02;  0.0000000E+00;  2.3293333E-02;  7.2009990E+03;
  2.0261412E+00;  9.9999998E-03;  4.1697755E-02;9916;  1.3579266E+00;  0.0000000E+00; -3.3494062E-04;  9.9816632E+02;  1.3111222E-01; -1.2602610E+03;3;  3.2605862E+01;  0.0000000E+00;  4.3247476E-01;0; -7.2252952E-02;  2.5670918E+04;  0.0000000E+00;  1.4764956E+01;  4.0000000E+04;  0.0000000E+00;  3.6112105E+04; -9.5546268E-02;  0.0000000E+00;  2.3293318E-02;  7.2010127E+03;
  2.0263147E+00;  9.9999998E-03; -3.0942632E-02;9909;  1.3566018E+00;  0.0000000E+00;  3.1989234E-04;  9.9804169E+02;  1.3110922E-01; -1.3454475E+03;3;  3.2899517E+01;  0.0000000E+00; -3.2754230E-01;0; -7.5786643E-02;  2.5668594E+04;  0.0000000E+00;  1.0093842E+01;  4.0000000E+04;  0.0000000E+00;  3.6108855E+04; -9.2549503E-02;  0.0000000E+00;  1.6762862E-02;  4.7087085E+03;
  2.0263147E+00;  9.9999998E-03;  3.0942960E-02;9915;  1.3566018E+00;  0.0000000E+00; -3.2052604E-04;  9.9804169E+02;  1.3110949E-01; -1.3454475E+03;3;  3.2897575E+01;  0.0000000E+00;  3.2770479E-01;0; -7.5786203E-02;  2.5668598E+04;  0.0000000E+00;  1.0093802E+01;  4.0000000E+04;  0.0000000E+00;  3.6108859E+04; -9.2549063E-02;  0.0000000E+00;  1.6762862E-02;  4.7086909E+03;
  2.0264390E+00;  9.9999998E-03; -2.0429639E-02;9910;  1.3556684E+00;  0.0000000E+00;  2.4803635E-04;  9.9775720E+02;  1.3110961E-01; -1.5405195E+03;3;  3.3092457E+01;  0.0000000E+00; -2.4974266E-01;0; -7.8272186E-02;  2.5662914E+04;  0.0000000E+00;  5.1632824E+00;  4.0000000E+04;  0.0000000E+00;  3.6098125E+04; -9.0856954E-02;  0.0000000E+00;  1.2584765E-02;  2.6251196E+03;
  2.0264390E+00;  9.9999998E-03;  2.0429971E-02;9914;  1.3556684E+00;  0.0000000E+00; -2.4868219E-04;  9.9775720E+02;  1.3110960E-01; -1.5405195E+03;3;  3.3092461E+01;  0.0000000E+00;  2.4970773E-01;0; -7.8272447E-02;  2.5662910E+04;  0.0000000E+00;  5.1632414E+00;  4.0000000E+04;  0.0000000E+00;  3.6098129E+04; -9.0857208E-02;  0.0000000E+00;  1.2584761E-02;  2.6250776E+03;
  2.0265155E+00;  9.9999998E-03; -1.0154183E-02;9911;  1.3551177E+00;  0.0000000E+00;  1.3307658E-04;  9.9748163E+02;  1.3111287E-01; -1.7295200E+03;3;  3.3205635E+01;  0.0000000E+00; -1.3969696E-01;0; -7.9719476E-02;  2.5657174E+04;  0.0000000E+00;  1.3883357E+00;  4.0000000E+04;  0.0000000E+00;  3.6086777E+04; -9.0022713E-02;  0.0000000E+00;  1.0303238E-02;  1.7277000E+03;
  2.0265155E+00;  9.9999998E-03;  1.0154513E-02;9913;  1.3551177E+00;  0.0000000E+00; -1.3372255E-04;  9.9748163E+02;  1.3111223E-01; -1.7295200E+03;3;  3.3205715E+01;  0.0000000E+00;  1.3964452E-01;0; -7.9719543E-02;  2.5657180E+04;  0.0000000E+00;  1.3883221E+00;  4.0000000E+04;  0.0000000E+00;  3.6086777E+04; -9.0022795E-02;  0.0000000E+00;  1.0303254E-02;  1.7277128E+03;
  2.0265408E+00;  9.9999998E-03;  1.6491859E-07;9912;  1.3549347E+00;  0.0000000E+00; -3.2359566E-07;  9.9737408E+02;  1.3111329E-01; -1.8033146E+03;3;  3.3241745E+01;  0.0000000E+00; -4.3109059E-05;0; -8.0195501E-02;  2.5655080E+04;  0.0000000E+00; -6.4961313E-12;  4.0000000E+04;  0.0000000E+00;  3.6082414E+04; -8.9777663E-02;  0.0000000E+00;  9.5821638E-03;  1.7334351E+03;
  2.0363581E+00;  9.9999998E-03; -9.6336588E-02;9937;  1.3713428E+00;  0.0000000E+00;  2.4031654E-03;  9.9902515E+02;  1.3053240E-01; -6.5583636E+02;3;  3.3302261E+01;  0.0000000E+00; -2.6642890E+00;0; -7.8574128E-02;  2.6134605E+04;  0.0000000E+00;  8.9049540E+00;  4.0000000E+04;  0.0000000E+00;  3.5844527E+04; -1.5475255E-01;  0.0000000E+00;  7.6178424E-02;  9.2767598E+03;
  2.0367861E+00;  9.9999998E-03; -8.5656598E-02;9938;  1.3670864E+00;  0.0000000E+00;  2.2897653E-03;  9.9873395E+02;  1.3052371E-01; -8.5097919E+02;3;  3.2435387E+01;  0.0000000E+00; -1.9371545E+00;0; -8.7183163E-02;  2.6133010E+04;  0.0000000E+00;  1.2347302E+01;  4.0000000E+04;  0.0000000E+00;  3.5831121E+04; -1.4766671E-01;  0.0000000E+00;  6.0483549E-02;  9.6848447E+03;
  2.0371764E+00;  9.9999998E-03; -7.4910119E-02;9939;  1.3638109E+00;  0.0000000E+00;  2.0357969E-03;  9.9862604E+02;  1.3051386E-01; -9.2271356E+02;3;  3.2265812E+01;  0.0000000E+00; -1.5877899E+00;0; -9.0935804E-02;  2.6134650E+04;  0.0000000E+00;  1.3931041E+01;  4.0000000E+04;  0.0000000E+00;  3.5826480E+04; -1.3621502E-01;  0.0000000E+00;  4.5279212E-02;  9.2046240E+03;
  2.0375185E+00;  9.9999998E-03; -6.4105764E-02;9940;  1.3611912E+00;  0.0000000E+00;  1.7615554E-03;  9.9864655E+02;  1.3050255E-01; -9.0826971E+02;3;  3.2401081E+01;  0.0000000E+00; -1.2981796E+00;0; -9.3208835E-02;  2.6138146E+04;  0.0000000E+00;  1.4065381E+01;  4.0000000E+04;  0.0000000E+00;  3.5827598E+04; -1.2467577E-01;  0.0000000E+00;  3.1466939E-02;  8.1391689E+03;
  2.0375185E+00;  9.9999998E-03;  6.4106092E-02;9952;  1.3611914E+00;  0.0000000E+00; -1.7622256E-03;  9.9864655E+02;  1.3050351E-01; -9.0826971E+02;3;  3.2401432E+01;  0.0000000E+00;  1.2980107E+00;0; -9.3209445E-02;  2.6138131E+04;  0.0000000E+00;  1.4065487E+01;  4.0000000E+04;  0.0000000E+00;  3.5827590E+04; -1.2467635E-01;  0.0000000E+00;  3.1466901E-02;  8.1392012E+03;
  2.0378034E+00;  9.9999998E-03; -5.3240795E-02;9941;  1.3590541E+00;  0.0000000E+00;  1.4915629E-03;  9.9876636E+02;  1.3049348E-01; -8.2735870E+02;3;  3.2657276E+01;  0.0000000E+00; -1.0672381E+00;0; -9.5202699E-02;  2.6143039E+04;  0.0000000E+00;  1.3415220E+01;  4.0000000E+04;  0.0000000E+00;  3.5833715E+04; -1.1494168E-01;  0.0000000E+00;  1.9738982E-02;  6.8289321E+03;
  2.0378034E+00;  9.9999998E-03;  5.3241104E-02;9951;  1.3590541E+00;  0.0000000E+00; -1.4922210E-03;  9.9876630E+02;  1.3049407E-01; -8.2739874E+02;3;  3.2657238E+01;  0.0000000E+00;  1.0671887E+00;0; -9.5203102E-02;  2.6143037E+04;  0.0000000E+00;  1.3415662E+01;  4.0000000E+04;  0.0000000E+00;  3.5833711E+04; -1.1494204E-01;  0.0000000E+00;  1.9738933E-02;  6.8290742E+03;
  2.0380297E+00;  9.9999998E-03; -4.2324327E-02;9942;  1.3573176E+00;  0.0000000E+00;  1.2169458E-03;  9.9891473E+02;  1.3048629E-01; -7.2750330E+02;3;  3.2962421E+01;  0.0000000E+00; -8.9028597E-01;0; -9.7193465E-02;  2.6147273E+04;  0.0000000E+00;  1.2207269E+01;  4.0000000E+04;  0.0000000E+00;  3.5841715E+04; -1.0763078E-01;  0.0000000E+00;  1.0437320E-02;  5.4596494E+03;
  2.0380297E+00;  9.9999998E-03;  4.2324666E-02;9950;  1.3573176E+00;  0.0000000E+00; -1.2175943E-03;  9.9891473E+02;  1.3048576E-01; -7.2750330E+02;3;  3.2962669E+01;  0.0000000E+00;  8.9024532E-01;0; -9.7194023E-02;  2.6147287E+04;  0.0000000E+00;  1.2207127E+01;  4.0000000E+04;  0.0000000E+00;  3.5841719E+04; -1.0763130E-01;  0.0000000E+00;  1.0437272E-02;  5.4595874E+03;
  2.0382016E+00;  9.9999998E-03; -3.1421307E-02;9943;  1.3559620E+00;  0.0000000E+00;  9.3711173E-04;  9.9894971E+02;  1.3048260E-01; -7.0378619E+02;3;  3.3240898E+01;  0.0000000E+00; -7.2911131E-01;0; -9.9079087E-02;  2.6148787E+04;  0.0000000E+00;  9.9156208E+00;  4.0000000E+04;  0.0000000E+00;  3.5844449E+04; -1.0269117E-01;  0.0000000E+00;  3.6120878E-03;  3.9645168E+03;
  2.0382016E+00;  9.9999998E-03;  3.1421639E-02;9949;  1.3559622E+00;  0.0000000E+00; -9.3776570E-04;  9.9894965E+02;  1.3048285E-01; -7.0382617E+02;3;  3.3242775E+01;  0.0000000E+00;  7.2905529E-01;0; -9.9080592E-02;  2.6148783E+04;  0.0000000E+00;  9.9156065E+00;  4.0000000E+04;  0.0000000E+00;  3.5844445E+04; -1.0269266E-01;  0.0000000E+00;  3.6120671E-03;  3.9645149E+03;
  2.0383270E+00;  9.9999998E-03; -2.0684917E-02;9944;  1.3549986E+00;  0.0000000E+00;  6.5634731E-04;  9.9874158E+02;  1.3048260E-01; -8.4302692E+02;3;  3.3412457E+01;  0.0000000E+00; -5.1335436E-01;0; -1.0061821E-01;  2.6145840E+04;  0.0000000E+00;  6.0078187E+00;  4.0000000E+04;  0.0000000E+00;  3.5835250E+04; -9.9734329E-02;  0.0000000E+00; -8.8387600E-04;  2.2446138E+03;
  2.0383270E+00;  9.9999998E-03;  2.0685259E-02;9948;  1.3549986E+00;  0.0000000E+00; -6.5699563E-04;  9.9874158E+02;  1.3048260E-01; -8.4302692E+02;3;  3.3412666E+01;  0.0000000E+00;  5.1333869E-01;0; -1.0061826E-01;  2.6145836E+04;  0.0000000E+00;  6.0077014E+00;  4.0000000E+04;  0.0000000E+00;  3.5835254E+04; -9.9734388E-02;  0.0000000E+00; -8.8386802E-04;  2.2445889E+03;
  2.0384076E+00;  9.9999998E-03; -1.0240654E-02;9945;  1.3544384E+00;  0.0000000E+00;  3.4275759E-04;  9.9840271E+02;  1.3048525E-01; -1.0698370E+03;3;  3.3505131E+01;  0.0000000E+00; -2.6245895E-01;0; -1.0153301E-01;  2.6140088E+04;  0.0000000E+00;  1.8054104E+00;  4.0000000E+04;  0.0000000E+00;  3.5819945E+04; -9.8185241E-02;  0.0000000E+00; -3.3477661E-03;  9.1995001E+02;
  2.0384076E+00;  9.9999998E-03;  1.0241001E-02;9947;  1.3544384E+00;  0.0000000E+00; -3.4340681E-04;  9.9840277E+02;  1.3048507E-01; -1.0697970E+03;3;  3.3505470E+01;  0.0000000E+00;  2.6243573E-01;0; -1.0153311E-01;  2.6140080E+04;  0.0000000E+00;  1.8053409E+00;  4.0000000E+04;  0.0000000E+00;  3.5819945E+04; -9.8185331E-02;  0.0000000E+00; -3.3477759E-03;  9.1987427E+02;
  2.0384357E+00;  9.9999998E-03;  1.6771325E-07;9946;  1.3542554E+00;  0.0000000E+00; -3.2571160E-07;  9.9824030E+02;  1.3048680E-01; -1.1785525E+03;3;  3.3533394E+01;  0.0000000E+00; -2.5823712E-05;0; -1.0183522E-01;  2.6137375E+04;  0.0000000E+00; -2.8111104E-11;  4.0000000E+04;  0.0000000E+00;  3.5812289E+04; -9.7713068E-02;  0.0000000E+00; -4.1221566E-03;  8.3732837E+02;
  2.0483620E+00;  9.9999998E-03; -9.6730374E-02;9968;  1.3718792E+00;  0.0000000E+00;  4.8444122E-03;  1.0009198E+03;  1.2998898E-01;  6.0250092E+02;3;  3.4590359E+01;  0.0000000E+00; -3.3392360E+00;0; -9.8203897E-02;  2.6608527E+04;  0.0000000E+00; -1.0498845E+01;  4.0000000E+04;  0.0000000E+00;  3.5621242E+04; -1.5246360E-01;  0.0000000E+00;  5.4259703E-02;  1.2503262E+03;
  2.0487497E+00;  9.9999998E-03; -8.6068600E-02;9969;  1.3671732E+00;  0.0000000E+00;  4.4709463E-03;  1.0004580E+03;  1.2998690E-01;  2.9973407E+02;3;  3.3111710E+01;  0.0000000E+00; -2.4588714E+00;0; -1.1224672E-01;  2.6601787E+04;  0.0000000E+00; -6.0798240E+00;  4.0000000E+04;  0.0000000E+00;  3.5600480E+04; -1.5390897E-01;  0.0000000E+00;  4.1662242E-02;  1.7395038E+03;
  2.0491052E+00;  9.9999998E-03; -7.5352944E-02;9970;  1.3636572E+00;  0.0000000E+00;  3.9063296E-03;  1.0001350E+03;  1.2998310E-01;  8.8318871E+01;3;  3.2683407E+01;  0.0000000E+00; -1.9255435E+00;0; -1.1705187E-01;  2.6598186E+04;  0.0000000E+00; -2.1950943E+00;  4.0000000E+04;  0.0000000E+00;  3.5585703E+04; -1.4605546E-01;  0.0000000E+00;  2.9003592E-02;  2.4117805E+03;
  2.0494206E+00;  9.9999998E-03; -6.4587839E-02;9971;  1.3609041E+00;  0.0000000E+00;  3.3072664E-03;  9.9993762E+02;  1.2997806E-01; -4.0777893E+01;3;  3.2741798E+01;  0.0000000E+00; -1.6943648E+00;0; -1.1852060E-01;  2.6596871E+04;  0.0000000E+00;  6.3560313E-01;  4.0000000E+04;  0.0000000E+00;  3.5576629E+04; -1.3551199E-01;  0.0000000E+00;  1.6991390E-02;  2.6773540E+03;
  2.0494206E+00;  9.9999998E-03;  6.4588174E-02;9983;  1.3609041E+00;  0.0000000E+00; -3.3079325E-03;  9.9993756E+02;  1.2997775E-01; -4.0816841E+01;3;  3.2741959E+01;  0.0000000E+00;  1.6942410E+00;0; -1.1852124E-01;  2.6596852E+04;  0.0000000E+00;  6.3551110E-01;  4.0000000E+04;  0.0000000E+00;  3.5576633E+04; -1.3551246E-01;  0.0000000E+00;  1.6991220E-02;  2.6773313E+03;
  2.0496895E+00;  9.9999998E-03; -5.3775113E-02;9972;  1.3586774E+00;  0.0000000E+00;  2.7558275E-03;  9.9984760E+02;  1.2997195E-01; -9.9526611E+01;3;  3.2997059E+01;  0.0000000E+00; -1.4949242E+00;0; -1.1936378E-01;  2.6597395E+04;  0.0000000E+00;  2.4861836E+00;  4.0000000E+04;  0.0000000E+00;  3.5572707E+04; -1.2568699E-01;  0.0000000E+00;  6.3232109E-03;  2.5915032E+03;
  2.0496895E+00;  9.9999998E-03;  5.3775497E-02;9982;  1.3586775E+00;  0.0000000E+00; -2.7564815E-03;  9.9984772E+02;  1.2997201E-01; -9.9448761E+01;3;  3.2998051E+01;  0.0000000E+00;  1.4948304E+00;0; -1.1936434E-01;  2.6597387E+04;  0.0000000E+00;  2.4850280E+00;  4.0000000E+04;  0.0000000E+00;  3.5572707E+04; -1.2568748E-01;  0.0000000E+00;  6.3231406E-03;  2.5912151E+03;
  2.0499089E+00;  9.9999998E-03; -4.2916927E-02;9973;  1.3568776E+00;  0.0000000E+00;  2.2243080E-03;  9.9983704E+02;  1.2996778E-01; -1.0636213E+02;3;  3.3276653E+01;  0.0000000E+00; -1.3051591E+00;0; -1.2025243E-01;  2.6598574E+04;  0.0000000E+00;  3.6092138E+00;  4.0000000E+04;  0.0000000E+00;  3.5572305E+04; -1.1782968E-01;  0.0000000E+00; -2.4227470E-03;  2.3179197E+03;
  2.0499089E+00;  9.9999998E-03;  4.2917289E-02;9981;  1.3568774E+00;  0.0000000E+00; -2.2249597E-03;  9.9983710E+02;  1.2996763E-01; -1.0632323E+02;3;  3.3275673E+01;  0.0000000E+00;  1.3052337E+00;0; -1.2025148E-01;  2.6598592E+04;  0.0000000E+00;  3.6087072E+00;  4.0000000E+04;  0.0000000E+00;  3.5572305E+04; -1.1782867E-01;  0.0000000E+00; -2.4228159E-03;  2.3177927E+03;
  2.0500765E+00;  9.9999998E-03; -3.2018855E-02;9974;  1.3554761E+00;  0.0000000E+00;  1.6938249E-03;  9.9984961E+02;  1.2996575E-01; -9.8115456E+01;3;  3.3493816E+01;  0.0000000E+00; -9.9972266E-01;0; -1.2119129E-01;  2.6600043E+04;  0.0000000E+00;  4.1364965E+00;  4.0000000E+04;  0.0000000E+00;  3.5573133E+04; -1.1216314E-01;  0.0000000E+00; -9.0281423E-03;  1.9737157E+03;
  2.0500765E+00;  9.9999998E-03;  3.2019179E-02;9980;  1.3554761E+00;  0.0000000E+00; -1.6944850E-03;  9.9984955E+02;  1.2996505E-01; -9.8154358E+01;3;  3.3493877E+01;  0.0000000E+00;  9.9974561E-01;0; -1.2119173E-01;  2.6600037E+04;  0.0000000E+00;  4.1365647E+00;  4.0000000E+04;  0.0000000E+00;  3.5573137E+04; -1.1216353E-01;  0.0000000E+00; -9.0281935E-03;  1.9737186E+03;
  2.0501966E+00;  9.9999998E-03; -2.1154577E-02;9975;  1.3544774E+00;  0.0000000E+00;  1.1478214E-03;  9.9974463E+02;  1.2996486E-01; -1.6655167E+02;3;  3.3643436E+01;  0.0000000E+00; -6.6291392E-01;0; -1.2203370E-01;  2.6599105E+04;  0.0000000E+00;  3.3866127E+00;  4.0000000E+04;  0.0000000E+00;  3.5567938E+04; -1.0853714E-01;  0.0000000E+00; -1.3496553E-02;  1.4016410E+03;
  2.0501966E+00;  9.9999998E-03;  2.1154907E-02;9979;  1.3544774E+00;  0.0000000E+00; -1.1484786E-03;  9.9974451E+02;  1.2996478E-01; -1.6662944E+02;3;  3.3643597E+01;  0.0000000E+00;  6.6291738E-01;0; -1.2203383E-01;  2.6599141E+04;  0.0000000E+00;  3.3866351E+00;  4.0000000E+04;  0.0000000E+00;  3.5567938E+04; -1.0853727E-01;  0.0000000E+00; -1.3496567E-02;  1.4015854E+03;
  2.0502729E+00;  9.9999998E-03; -1.0477587E-02;9976;  1.3538916E+00;  0.0000000E+00;  5.8402342E-04;  9.9947565E+02;  1.2996557E-01; -3.4194595E+02;3;  3.3737682E+01;  0.0000000E+00; -3.2704833E-01;0; -1.2257779E-01;  2.6595145E+04;  0.0000000E+00;  1.2491881E+00;  4.0000000E+04;  0.0000000E+00;  3.5554379E+04; -1.0657997E-01;  0.0000000E+00; -1.5997821E-02;  5.9244128E+02;
  2.0502729E+00;  9.9999998E-03;  1.0477931E-02;9978;  1.3538916E+00;  0.0000000E+00; -5.8467581E-04;  9.9947565E+02;  1.2996550E-01; -3.4194595E+02;3;  3.3737862E+01;  0.0000000E+00;  3.2704943E-01;0; -1.2257800E-01;  2.6595145E+04;  0.0000000E+00;  1.2491219E+00;  4.0000000E+04;  0.0000000E+00;  3.5554375E+04; -1.0658017E-01;  0.0000000E+00; -1.5997829E-02;  5.9242584E+02;
  2.0502996E+00;  9.9999998E-03;  1.7407775E-07;9977;  1.3537023E+00;  0.0000000E+00; -3.2654287E-07;  9.9932050E+02;  1.2996763E-01; -4.4309909E+02;3;  3.3768883E+01;  0.0000000E+00; -2.9802322E-08;0; -1.2274361E-01;  2.6592941E+04;  0.0000000E+00; -3.8300370E-11;  4.0000000E+04;  0.0000000E+00;  3.5546992E+04; -1.0595701E-01;  0.0000000E+00; -1.6786600E-02;  2.5925049E+02;
  2.0603263E+00;  9.9999998E-03; -9.7138956E-02;9995;  1.3730991E+00;  0.0000000E+00;  7.3188674E-03;  1.0021155E+03;  1.2955195E-01;  1.3472145E+03;3;  3.6098518E+01;  0.0000000E+00; -4.0057182E+00;0; -9.4980963E-02;  2.7035193E+04;  0.0000000E+00; -6.2155585E+00;  4.0000000E+04;  0.0000000E+00;  3.5371211E+04; -1.2306357E-01;  0.0000000E+00;  2.8082609E-02;  2.9506230E+03;
  2.0606885E+00;  9.9999998E-03; -8.6503796E-02;9996;  1.3677871E+00;  0.0000000E+00;  6.7665842E-03;  1.0016821E+03;  1.2955333E-01;  1.0703237E+03;3;  3.4027283E+01;  0.0000000E+00; -2.9989791E+00;0; -1.1958154E-01;  2.7030719E+04;  0.0000000E+00; -1.1247429E+01;  4.0000000E+04;  0.0000000E+00;  3.5348484E+04; -1.3877745E-01;  0.0000000E+00;  1.9195907E-02;  2.9885825E+03;
  2.0610151E+00;  9.9999998E-03; -7.5815275E-02;9997;  1.3639230E+00;  0.0000000E+00;  5.9293853E-03;  1.0013561E+03;  1.2955135E-01;  8.6219342E+02;3;  3.3143028E+01;  0.0000000E+00; -2.3313344E+00;0; -1.2912180E-01;  2.7028309E+04;  0.0000000E+00; -1.1950541E+01;  4.0000000E+04;  0.0000000E+00;  3.5331316E+04; -1.3916221E-01;  0.0000000E+00;  1.0040417E-02;  2.7215920E+03;
  2.0613050E+00;  9.9999998E-03; -6.5077730E-02;9998;  1.3609591E+00;  0.0000000E+00;  5.0315638E-03;  1.0011177E+03;  1.2954836E-01;  7.1011536E+02;3;  3.3104721E+01;  0.0000000E+00; -2.0423870E+00;0; -1.3272895E-01;  2.7026980E+04;  0.0000000E+00; -1.0528269E+01;  4.0000000E+04;  0.0000000E+00;  3.5318617E+04; -1.3350493E-01;  0.0000000E+00;  7.7598344E-04;  2.3497671E+03;
  2.0613050E+00;  9.9999998E-03;  6.5078080E-02;10010;  1.3609592E+00;  0.0000000E+00; -5.0322297E-03;  1.0011177E+03;  1.2954816E-01;  7.1011536E+02;3;  3.3106022E+01;  0.0000000E+00;  2.0424798E+00;0; -1.3272974E-01;  2.7026957E+04;  0.0000000E+00; -1.0528686E+01;  4.0000000E+04;  0.0000000E+00;  3.5318625E+04; -1.3350552E-01;  0.0000000E+00;  7.7579042E-04;  2.3498435E+03;
  2.0615547E+00;  9.9999998E-03; -5.4299809E-02;9999;  1.3585963E+00;  0.0000000E+00;  4.1930294E-03;  1.0009357E+03;  1.2954454E-01;  5.9410547E+02;3;  3.3284771E+01;  0.0000000E+00; -1.7569141E+00;0; -1.3453043E-01;  2.7026201E+04;  0.0000000E+00; -8.3248291E+00;  4.0000000E+04;  0.0000000E+00;  3.5309086E+04; -1.2655497E-01;  0.0000000E+00; -7.9754600E-03;  2.0266469E+03;
  2.0615547E+00;  9.9999998E-03;  5.4300122E-02;10009;  1.3585964E+00;  0.0000000E+00; -4.1936971E-03;  1.0009357E+03;  1.2954424E-01;  5.9410547E+02;3;  3.3285999E+01;  0.0000000E+00;  1.7568805E+00;0; -1.3453253E-01;  2.7026230E+04;  0.0000000E+00; -8.3245611E+00;  4.0000000E+04;  0.0000000E+00;  3.5309082E+04; -1.2655692E-01;  0.0000000E+00; -7.9756118E-03;  2.0266724E+03;
  2.0617609E+00;  9.9999998E-03; -4.3493208E-02;10000;  1.3567164E+00;  0.0000000E+00;  3.3683579E-03;  1.0008001E+03;  1.2954110E-01;  5.0779041E+02;3;  3.3480865E+01;  0.0000000E+00; -1.4268714E+00;0; -1.3564949E-01;  2.7026158E+04;  0.0000000E+00; -6.0284681E+00;  4.0000000E+04;  0.0000000E+00;  3.5301410E+04; -1.2024062E-01;  0.0000000E+00; -1.5408867E-02;  1.7852581E+03;
  2.0617609E+00;  9.9999998E-03;  4.3493528E-02;10008;  1.3567163E+00;  0.0000000E+00; -3.3690436E-03;  1.0008000E+03;  1.2954023E-01;  5.0771478E+02;3;  3.3482342E+01;  0.0000000E+00;  1.4268906E+00;0; -1.3565156E-01;  2.7026170E+04;  0.0000000E+00; -6.0282655E+00;  4.0000000E+04;  0.0000000E+00;  3.5301418E+04; -1.2024253E-01;  0.0000000E+00; -1.5409032E-02;  1.7851561E+03;
  2.0619206E+00;  9.9999998E-03; -3.2662369E-02;10001;  1.3552781E+00;  0.0000000E+00;  2.5344845E-03;  1.0007158E+03;  1.2953821E-01;  4.5412747E+02;3;  3.3680069E+01;  0.0000000E+00; -1.0804501E+00;0; -1.3640115E-01;  2.7026709E+04;  0.0000000E+00; -3.8606164E+00;  4.0000000E+04;  0.0000000E+00;  3.5295883E+04; -1.1523121E-01;  0.0000000E+00; -2.1169938E-02;  1.6126787E+03;
  2.0619206E+00;  9.9999998E-03;  3.2662656E-02;10007;  1.3552781E+00;  0.0000000E+00; -2.5351385E-03;  1.0007158E+03;  1.2953722E-01;  4.5412747E+02;3;  3.3680202E+01;  0.0000000E+00;  1.0804670E+00;0; -1.3640127E-01;  2.7026764E+04;  0.0000000E+00; -3.8600864E+00;  4.0000000E+04;  0.0000000E+00;  3.5295895E+04; -1.1523125E-01;  0.0000000E+00; -2.1170022E-02;  1.6126500E+03;
  2.0620322E+00;  9.9999998E-03; -2.1798391E-02;10002;  1.3542469E+00;  0.0000000E+00;  1.6937016E-03;  1.0006925E+03;  1.2953593E-01;  4.3918619E+02;3;  3.3829681E+01;  0.0000000E+00; -7.2098327E-01;0; -1.3709909E-01;  2.7028215E+04;  0.0000000E+00; -1.8836899E+00;  4.0000000E+04;  0.0000000E+00;  3.5293445E+04; -1.1189998E-01;  0.0000000E+00; -2.5199104E-02;  1.5156907E+03;
  2.0620322E+00;  9.9999998E-03;  2.1798721E-02;10006;  1.3542467E+00;  0.0000000E+00; -1.6943610E-03;  1.0006924E+03;  1.2953562E-01;  4.3911060E+02;3;  3.3829212E+01;  0.0000000E+00;  7.2104067E-01;0; -1.3709919E-01;  2.7028201E+04;  0.0000000E+00; -1.8836761E+00;  4.0000000E+04;  0.0000000E+00;  3.5293445E+04; -1.1190004E-01;  0.0000000E+00; -2.5199153E-02;  1.5156384E+03;
  2.0620985E+00;  9.9999998E-03; -1.0899527E-02;10003;  1.3536228E+00;  0.0000000E+00;  8.4697438E-04;  1.0006938E+03;  1.2953345E-01;  4.3994724E+02;3;  3.3925953E+01;  0.0000000E+00; -3.5984063E-01;0; -1.3762715E-01;  2.7029260E+04;  0.0000000E+00; -4.6634692E-01;  4.0000000E+04;  0.0000000E+00;  3.5292445E+04; -1.1007130E-01;  0.0000000E+00; -2.7555851E-02;  1.4863608E+03;
  2.0620985E+00;  9.9999998E-03;  1.0899895E-02;10005;  1.3536229E+00;  0.0000000E+00; -8.4762060E-04;  1.0006939E+03;  1.2953301E-01;  4.4002283E+02;3;  3.3926094E+01;  0.0000000E+00;  3.5987461E-01;0; -1.3762718E-01;  2.7029238E+04;  0.0000000E+00; -4.6649790E-01;  4.0000000E+04;  0.0000000E+00;  3.5292449E+04; -1.1007131E-01;  0.0000000E+00; -2.7555881E-02;  1.4864904E+03;
  2.0621207E+00;  9.9999998E-03;  1.8508727E-07;10004;  1.3534160E+00;  0.0000000E+00; -3.2591200E-07;  1.0006906E+03;  1.2953359E-01;  4.3788281E+02;3;  3.3959251E+01;  0.0000000E+00;  2.0384789E-05;0; -1.3779807E-01;  2.7029754E+04;  0.0000000E+00;  1.5669327E-10;  4.0000000E+04;  0.0000000E+00;  3.5291828E+04; -1.0947221E-01;  0.0000000E+00; -2.8325856E-02;  1.4740160E+03;
  2.0721703E+00;  9.9999998E-03; -9.7370043E-02;10017;  1.3742286E+00;  0.0000000E+00;  9.7337086E-03;  1.0038068E+03;  1.2918369E-01;  2.3548811E+03;3;  3.7067268E+01;  0.0000000E+00; -3.7190645E+00;0; -8.2327746E-02;  2.7440170E+04;  0.0000000E+00;  4.9244370E+01;  4.0000000E+04;  0.0000000E+00;  3.5152184E+04; -8.0599062E-02;  0.0000000E+00; -1.7286872E-03;  1.0013041E+04;
  2.0725424E+00;  9.9999998E-03; -8.6822964E-02;10018;  1.3687285E+00;  0.0000000E+00;  8.9153545E-03;  1.0028448E+03;  1.2919047E-01;  1.7582078E+03;3;  3.5189102E+01;  0.0000000E+00; -2.8349051E+00;0; -1.1074430E-01;  2.7428297E+04;  0.0000000E+00;  2.5020828E+01;  4.0000000E+04;  0.0000000E+00;  3.5102953E+04; -1.0498029E-01;  0.0000000E+00; -5.7640141E-03;  5.7680400E+03;
  2.0728669E+00;  9.9999998E-03; -7.6207250E-02;10019;  1.3645093E+00;  0.0000000E+00;  7.8295814E-03;  1.0022430E+03;  1.2919667E-01;  1.3851705E+03;3;  3.3922260E+01;  0.0000000E+00; -2.2525883E+00;0; -1.2610526E-01;  2.7422070E+04;  0.0000000E+00;  9.7536688E+00;  4.0000000E+04;  0.0000000E+00;  3.5069383E+04; -1.1534410E-01;  0.0000000E+00; -1.0761167E-02;  3.5272739E+03;
  2.0731478E+00;  9.9999998E-03; -6.5538868E-02;10020;  1.3612708E+00;  0.0000000E+00;  6.6974643E-03;  1.0018328E+03;  1.2919939E-01;  1.1310630E+03;3;  3.3518471E+01;  0.0000000E+00; -1.9364452E+00;0; -1.3404483E-01;  2.7418314E+04;  0.0000000E+00;  1.0265303E+00;  4.0000000E+04;  0.0000000E+00;  3.5045625E+04; -1.1732804E-01;  0.0000000E+00; -1.6716791E-02;  2.6819133E+03;
  2.0731478E+00;  9.9999998E-03;  6.5539226E-02;10032;  1.3612708E+00;  0.0000000E+00; -6.6981493E-03;  1.0018329E+03;  1.2919907E-01;  1.1310630E+03;3;  3.3518589E+01;  0.0000000E+00;  1.9363420E+00;0; -1.3404551E-01;  2.7418320E+04;  0.0000000E+00;  1.0266104E+00;  4.0000000E+04;  0.0000000E+00;  3.5045609E+04; -1.1732849E-01;  0.0000000E+00; -1.6717017E-02;  2.6819263E+03;
  2.0733862E+00;  9.9999998E-03; -5.4817967E-02;10021;  1.3587717E+00;  0.0000000E+00;  5.5625001E-03;  1.0015868E+03;  1.2920062E-01;  9.7864276E+02;3;  3.3546383E+01;  0.0000000E+00; -1.6928921E+00;0; -1.3772878E-01;  2.7416898E+04;  0.0000000E+00; -3.1865337E+00;  4.0000000E+04;  0.0000000E+00;  3.5029969E+04; -1.1496548E-01;  0.0000000E+00; -2.2763297E-02;  2.4853760E+03;
  2.0733862E+00;  9.9999998E-03;  5.4818306E-02;10031;  1.3587717E+00;  0.0000000E+00; -5.5631795E-03;  1.0015869E+03;  1.2920040E-01;  9.7864276E+02;3;  3.3544945E+01;  0.0000000E+00;  1.6928490E+00;0; -1.3772729E-01;  2.7416891E+04;  0.0000000E+00; -3.1865256E+00;  4.0000000E+04;  0.0000000E+00;  3.5029973E+04; -1.1496380E-01;  0.0000000E+00; -2.2763485E-02;  2.4853967E+03;
  2.0735819E+00;  9.9999998E-03; -4.4061154E-02;10022;  1.3567984E+00;  0.0000000E+00;  4.4315476E-03;  1.0014363E+03;  1.2920061E-01;  8.8535278E+02;3;  3.3692780E+01;  0.0000000E+00; -1.4127654E+00;0; -1.4011361E-01;  2.7416400E+04;  0.0000000E+00; -4.5146847E+00;  4.0000000E+04;  0.0000000E+00;  3.5019516E+04; -1.1188184E-01;  0.0000000E+00; -2.8231772E-02;  2.3930681E+03;
  2.0735819E+00;  9.9999998E-03;  4.4061486E-02;10030;  1.3567984E+00;  0.0000000E+00; -4.4322140E-03;  1.0014363E+03;  1.2920058E-01;  8.8535278E+02;3;  3.3692337E+01;  0.0000000E+00;  1.4128287E+00;0; -1.4011407E-01;  2.7416391E+04;  0.0000000E+00; -4.5146728E+00;  4.0000000E+04;  0.0000000E+00;  3.5019520E+04; -1.1188215E-01;  0.0000000E+00; -2.8231921E-02;  2.3931226E+03;
  2.0737336E+00;  9.9999998E-03; -3.3285372E-02;10023;  1.3552752E+00;  0.0000000E+00;  3.3252428E-03;  1.0013645E+03;  1.2919992E-01;  8.4079645E+02;3;  3.3850121E+01;  0.0000000E+00; -1.0928726E+00;0; -1.4211932E-01;  2.7416832E+04;  0.0000000E+00; -4.2277131E+00;  4.0000000E+04;  0.0000000E+00;  3.5013684E+04; -1.0939424E-01;  0.0000000E+00; -3.2725088E-02;  2.2900427E+03;
  2.0737333E+00;  9.9999998E-03;  3.3285644E-02;10029;  1.3552752E+00;  0.0000000E+00; -3.3258994E-03;  1.0013645E+03;  1.2919928E-01;  8.4079645E+02;3;  3.3849400E+01;  0.0000000E+00;  1.0928977E+00;0; -1.4211744E-01;  2.7416834E+04;  0.0000000E+00; -4.2274294E+00;  4.0000000E+04;  0.0000000E+00;  3.5013699E+04; -1.0939226E-01;  0.0000000E+00; -3.2725193E-02;  2.2899517E+03;
  2.0738392E+00;  9.9999998E-03; -2.2462966E-02;10024;  1.3541803E+00;  0.0000000E+00;  2.2213429E-03;  1.0014653E+03;  1.2919717E-01;  9.0270306E+02;3;  3.3985947E+01;  0.0000000E+00; -7.4734896E-01;0; -1.4370242E-01;  2.7419445E+04;  0.0000000E+00; -2.9971836E+00;  4.0000000E+04;  0.0000000E+00;  3.5016773E+04; -1.0771069E-01;  0.0000000E+00; -3.5991721E-02;  2.3123342E+03;
  2.0738392E+00;  9.9999998E-03;  2.2463225E-02;10028;  1.3541803E+00;  0.0000000E+00; -2.2219925E-03;  1.0014653E+03;  1.2919740E-01;  9.0270325E+02;3;  3.3986282E+01;  0.0000000E+00;  7.4738729E-01;0; -1.4370249E-01;  2.7419479E+04;  0.0000000E+00; -2.9969149E+00;  4.0000000E+04;  0.0000000E+00;  3.5016781E+04; -1.0771069E-01;  0.0000000E+00; -3.5991807E-02;  2.3122920E+03;
  2.0738976E+00;  9.9999998E-03; -1.1419012E-02;10025;  1.3534966E+00;  0.0000000E+00;  1.1049189E-03;  1.0018711E+03;  1.2919024E-01;  1.1525188E+03;3;  3.4079193E+01;  0.0000000E+00; -3.8226235E-01;0; -1.4488046E-01;  2.7425338E+04;  0.0000000E+00; -1.1226921E+00;  4.0000000E+04;  0.0000000E+00;  3.5037383E+04; -1.0687681E-01;  0.0000000E+00; -3.8003650E-02;  2.6792051E+03;
  2.0738976E+00;  9.9999998E-03;  1.1419386E-02;10027;  1.3534966E+00;  0.0000000E+00; -1.1055785E-03;  1.0018710E+03;  1.2919052E-01;  1.1524456E+03;3;  3.4077396E+01;  0.0000000E+00;  3.8231409E-01;0; -1.4487863E-01;  2.7425342E+04;  0.0000000E+00; -1.1227300E+00;  4.0000000E+04;  0.0000000E+00;  3.5037387E+04; -1.0687492E-01;  0.0000000E+00; -3.8003698E-02;  2.6791245E+03;
  2.0739145E+00;  9.9999998E-03;  1.9408215E-07;10026;  1.3532549E+00;  0.0000000E+00; -3.2462313E-07;  1.0021810E+03;  1.2918659E-01;  1.3433741E+03;3;  3.4111374E+01;  0.0000000E+00;  4.7743320E-05;0; -1.4537805E-01;  2.7429846E+04;  0.0000000E+00;  1.0074543E-09;  4.0000000E+04;  0.0000000E+00;  3.5053336E+04; -1.0666557E-01;  0.0000000E+00; -3.8712487E-02;  3.0027664E+03;
  2.0851500E+00;  9.9999998E-03; -5.5072702E-02;10036;  1.3586390E+00;  0.0000000E+00;  6.5549156E-03;  1.0025590E+03;  1.2891306E-01;  1.5322073E+03;3;  3.3867867E+01;  0.0000000E+00; -1.6170814E+00;0; -1.3847928E-01;  2.7776449E+04;  0.0000000E+00;  3.2812401E+01;  4.0000000E+04;  0.0000000E+00;  3.4785637E+04; -1.0133284E-01;  0.0000000E+00; -3.7146438E-02;  6.6348081E+03;
  2.0851500E+00;  9.9999998E-03;  5.5073041E-02;10046;  1.3586390E+00;  0.0000000E+00; -6.5555908E-03;  1.0025590E+03;  1.2891331E-01;  1.5322073E+03;3;  3.3867798E+01;  0.0000000E+00;  1.6171172E+00;0; -1.3847984E-01;  2.7776447E+04;  0.0000000E+00;  3.2812634E+01;  4.0000000E+04;  0.0000000E+00;  3.4785629E+04; -1.0133318E-01;  0.0000000E+00; -3.7146669E-02;  6.6348560E+03;
  2.0853460E+00;  9.9999998E-03; -4.4379953E-02;10037;  1.3565702E+00;  0.0000000E+00;  5.2278917E-03;  1.0021685E+03;  1.2891071E-01;  1.2977374E+03;3;  3.3928280E+01;  0.0000000E+00; -1.3781199E+00;0; -1.4272144E-01;  2.7773312E+04;  0.0000000E+00;  2.1319445E+01;  4.0000000E+04;  0.0000000E+00;  3.4764172E+04; -1.0219272E-01;  0.0000000E+00; -4.0528715E-02;  4.9119399E+03;
  2.0853460E+00;  9.9999998E-03;  4.4380348E-02;10045;  1.3565702E+00;  0.0000000E+00; -5.2285516E-03;  1.0021686E+03;  1.2890971E-01;  1.2977373E+03;3;  3.3930370E+01;  0.0000000E+00;  1.3784301E+00;0; -1.4272405E-01;  2.7773293E+04;  0.0000000E+00;  2.1320419E+01;  4.0000000E+04;  0.0000000E+00;  3.4764160E+04; -1.0219514E-01;  0.0000000E+00; -4.0528912E-02;  4.9121138E+03;
  2.0854971E+00;  9.9999998E-03; -3.3666413E-02;10038;  1.3549569E+00;  0.0000000E+00;  3.9342800E-03;  1.0019655E+03;  1.2890653E-01;  1.1757955E+03;3;  3.4043385E+01;  0.0000000E+00; -1.0908207E+00;0; -1.4657252E-01;  2.7771869E+04;  0.0000000E+00;  1.3444377E+01;  4.0000000E+04;  0.0000000E+00;  3.4753242E+04; -1.0301573E-01;  0.0000000E+00; -4.3556791E-02;  3.9204617E+03;
  2.0854971E+00;  9.9999998E-03;  3.3666763E-02;10044;  1.3549571E+00;  0.0000000E+00; -3.9349389E-03;  1.0019656E+03;  1.2890676E-01;  1.1758668E+03;3;  3.4042606E+01;  0.0000000E+00;  1.0908775E+00;0; -1.4656870E-01;  2.7771844E+04;  0.0000000E+00;  1.3444636E+01;  4.0000000E+04;  0.0000000E+00;  3.4753242E+04; -1.0301179E-01;  0.0000000E+00; -4.3556903E-02;  3.9204417E+03;
  2.0856020E+00;  9.9999998E-03; -2.2915160E-02;10039;  1.3537867E+00;  0.0000000E+00;  2.6309320E-03;  1.0020677E+03;  1.2890053E-01;  1.2365812E+03;3;  3.4148102E+01;  0.0000000E+00; -7.6277423E-01;0; -1.4964357E-01;  2.7773482E+04;  0.0000000E+00;  7.8135228E+00;  4.0000000E+04;  0.0000000E+00;  3.4758633E+04; -1.0380401E-01;  0.0000000E+00; -4.5839559E-02;  3.5902808E+03;
  2.0856020E+00;  9.9999998E-03;  2.2915488E-02;10043;  1.3537866E+00;  0.0000000E+00; -2.6315828E-03;  1.0020677E+03;  1.2889984E-01;  1.2366525E+03;3;  3.4147713E+01;  0.0000000E+00;  7.6272798E-01;0; -1.4964373E-01;  2.7773488E+04;  0.0000000E+00;  7.8136334E+00;  4.0000000E+04;  0.0000000E+00;  3.4758625E+04; -1.0380410E-01;  0.0000000E+00; -4.5839638E-02;  3.5903293E+03;
  2.0856571E+00;  9.9999998E-03; -1.1848353E-02;10040;  1.3530413E+00;  0.0000000E+00;  1.2929766E-03;  1.0028034E+03;  1.2888817E-01;  1.6763685E+03;3;  3.4221737E+01;  0.0000000E+00; -4.0003526E-01;0; -1.5185201E-01;  2.7781877E+04;  0.0000000E+00;  2.8502812E+00;  4.0000000E+04;  0.0000000E+00;  3.4799086E+04; -1.0452434E-01;  0.0000000E+00; -4.7327667E-02;  4.1559888E+03;
  2.0856571E+00;  9.9999998E-03;  1.1848725E-02;10042;  1.3530413E+00;  0.0000000E+00; -1.2936449E-03;  1.0028033E+03;  1.2888855E-01;  1.6762972E+03;3;  3.4220074E+01;  0.0000000E+00;  4.0005851E-01;0; -1.5185013E-01;  2.7781871E+04;  0.0000000E+00;  2.8505118E+00;  4.0000000E+04;  0.0000000E+00;  3.4799090E+04; -1.0452238E-01;  0.0000000E+00; -4.7327761E-02;  4.1559111E+03;
  2.0856698E+00;  9.9999998E-03;  1.9942128E-07;10041;  1.3527650E+00;  0.0000000E+00; -3.2761565E-07;  1.0035070E+03;  1.2888099E-01;  2.0970151E+03;3;  3.4249428E+01;  0.0000000E+00;  1.3351440E-05;0; -1.5283170E-01;  2.7790123E+04;  0.0000000E+00;  2.5334133E-09;  4.0000000E+04;  0.0000000E+00;  3.4837676E+04; -1.0489393E-01;  0.0000000E+00; -4.7937766E-02;  4.8713076E+03;
  4.3393904E-03;  9.9999998E-03;  6.9968492E-02;2484;  6.0526291E-03;  0.0000000E+00; -1.4064944E-04;  9.8561639E+02;  1.0000000E-01; -1.1916552E+04;3;  8.4077072E+01;  0.0000000E+00; -6.6513248E-02;0;  2.7009040E-02;  3.8874645E+04;  0.0000000E+00; -3.9612977E-03;  4.0000000E+04;  0.0000000E+00;  3.9999891E+04;  2.8288972E-02;  0.0000000E+00; -1.2799306E-03;  1.1865651E+03;
  4.3552336E-03;  9.9999998E-03;  7.9963237E-02;2485;  6.0722828E-03;  0.0000000E+00; -1.9784425E-04;  9.8561865E+02;  1.0000000E-01; -1.1914676E+04;3;  8.3531441E+01;  0.0000000E+00; -3.1740060E-01;0;  2.6876789E-02;  3.8875242E+04;  0.0000000E+00; -6.4471080E-03;  4.0000000E+04;  0.0000000E+00;  3.9999449E+04;  2.8164739E-02;  0.0000000E+00; -1.2879493E-03;  1.1132755E+03;
  4.3654689E-03;  9.9999998E-03;  8.9960627E-02;2486;  6.0710348E-03;  0.0000000E+00; -2.6164736E-04;  9.8562585E+02;  1.0000000E-01; -1.1908700E+04;3;  8.2981689E+01;  0.0000000E+00; -6.4715439E-01;0;  2.6669201E-02;  3.8876594E+04;  0.0000000E+00; -1.0537291E-02;  4.0000000E+04;  0.0000000E+00;  3.9998715E+04;  2.7943658E-02;  0.0000000E+00; -1.2744580E-03;  1.0327499E+03;
  4.3684230E-03;  9.9999998E-03;  9.9960729E-02;2487;  6.0426192E-03;  0.0000000E+00; -3.2893085E-04;  9.8564441E+02;  1.0000000E-01; -1.1893343E+04;3;  8.2442772E+01;  0.0000000E+00; -1.0586423E+00;0;  2.6377033E-02;  3.8878547E+04;  0.0000000E+00; -1.7485376E-02;  4.0000000E+04;  0.0000000E+00;  3.9998145E+04;  2.7619107E-02;  0.0000000E+00; -1.2420726E-03;  9.5091626E+02;
  4.3628351E-03;  9.9999998E-03;  1.0996269E-01;2488;  5.9834132E-03;  0.0000000E+00; -3.9590170E-04;  9.8566980E+02;  1.0000000E-01; -1.1872307E+04;3;  8.2015228E+01;  0.0000000E+00; -1.5547069E+00;0;  2.5996186E-02;  3.8880891E+04;  0.0000000E+00; -2.9353626E-02;  4.0000000E+04;  0.0000000E+00;  3.9997281E+04;  2.7192529E-02;  0.0000000E+00; -1.1963425E-03;  8.7542523E+02;
  4.3482129E-03;  9.9999998E-03;  1.1996542E-01;2489;  5.8934935E-03;  0.0000000E+00; -4.5838230E-04;  9.8569580E+02;  1.0000000E-01; -1.1850776E+04;3;  8.1817879E+01;  0.0000000E+00; -2.1392710E+00;0;  2.5528390E-02;  3.8883941E+04;  0.0000000E+00; -4.9049299E-02;  4.0000000E+04;  0.0000000E+00;  3.9997379E+04;  2.6673183E-02;  0.0000000E+00; -1.1447925E-03;  8.1686957E+02;
  4.3248651E-03;  9.9999998E-03;  1.2996849E-01;2490;  5.7766535E-03;  0.0000000E+00; -5.1212340E-04;  9.8573438E+02;  1.0000000E-01; -1.1818776E+04;3;  8.1849770E+01;  0.0000000E+00; -2.8178639E+00;0;  2.4981447E-02;  3.8886809E+04;  0.0000000E+00; -7.9964407E-02;  4.0000000E+04;  0.0000000E+00;  3.9997930E+04;  2.6076421E-02;  0.0000000E+00; -1.0949749E-03;  7.9011725E+02;
  4.2936360E-03;  9.9999998E-03;  1.3997239E-01;2491;  5.6410567E-03;  0.0000000E+00; -5.5317051E-04;  9.8578894E+02;  1.0000000E-01; -1.1773593E+04;3;  8.2173828E+01;  0.0000000E+00; -3.5993857E+00;0;  2.4368957E-02;  3.8890656E+04;  0.0000000E+00; -1.2507837E-01;  4.0000000E+04;  0.0000000E+00;  3.9997969E+04;  2.5420174E-02;  0.0000000E+00; -1.0512177E-03;  8.1432648E+02;
  4.2555463E-03;  9.9999998E-03;  1.4997947E-01;2492;  5.4980027E-03;  0.0000000E+00; -5.7966181E-04;  9.8585815E+02;  1.0000000E-01; -1.1716261E+04;3;  8.2888733E+01;  0.0000000E+00; -4.5030227E+00;0;  2.3708684E-02;  3.8895812E+04;  0.0000000E+00; -1.8583685E-01;  4.0000000E+04;  0.0000000E+00;  3.9999133E+04;  2.4721494E-02;  0.0000000E+00; -1.0128096E-03;  9.0988403E+02;
  4.2105936E-03;  9.9999998E-03;  1.5999009E-01;2493;  5.3588175E-03;  0.0000000E+00; -5.9041718E-04;  9.8596753E+02;  1.0000000E-01; -1.1625646E+04;3;  8.3875946E+01;  0.0000000E+00; -5.5745816E+00;0;  2.3019712E-02;  3.8903383E+04;  0.0000000E+00; -2.6146170E-01;  4.0000000E+04;  0.0000000E+00;  3.9999574E+04;  2.3993881E-02;  0.0000000E+00; -9.7416964E-04;  1.0922013E+03;
  4.1560987E-03;  9.9999998E-03;  1.7000213E-01;2494;  5.2331123E-03;  0.0000000E+00; -5.8693415E-04;  9.8613202E+02;  1.0000000E-01; -1.1489354E+04;3;  8.5051727E+01;  0.0000000E+00; -6.8866162E+00;0;  2.2319147E-02;  3.8914152E+04;  0.0000000E+00; -3.4793666E-01;  4.0000000E+04;  0.0000000E+00;  4.0002078E+04;  2.3244971E-02;  0.0000000E+00; -9.2582440E-04;  1.3681498E+03;
  4.0860595E-03;  9.9999998E-03;  1.8001303E-01;2495;  5.1253443E-03;  0.0000000E+00; -5.7459937E-04;  9.8637231E+02;  1.0000000E-01; -1.1290298E+04;3;  8.6226501E+01;  0.0000000E+00; -8.5152321E+00;0;  2.1618865E-02;  3.8929965E+04;  0.0000000E+00; -4.3753666E-01;  4.0000000E+04;  0.0000000E+00;  4.0004895E+04;  2.2474628E-02;  0.0000000E+00; -8.5576210E-04;  1.7344775E+03;
  3.9922143E-03;  9.9999998E-03;  1.9002053E-01;2496;  5.0326088E-03;  0.0000000E+00; -5.6150585E-04;  9.8670575E+02;  1.0000000E-01; -1.1014059E+04;3;  8.7143295E+01;  0.0000000E+00; -1.0502422E+01;0;  2.0923018E-02;  3.8952359E+04;  0.0000000E+00; -5.1928443E-01;  4.0000000E+04;  0.0000000E+00;  4.0008633E+04;  2.1673724E-02;  0.0000000E+00; -7.5070473E-04;  2.1741482E+03;
  3.8630886E-03;  9.9999998E-03;  2.0002310E-01;2497;  4.9434952E-03;  0.0000000E+00; -5.5599411E-04;  9.8715259E+02;  1.0000000E-01; -1.0643847E+04;3;  8.7409607E+01;  0.0000000E+00; -1.2816270E+01;0;  2.0227421E-02;  3.8982879E+04;  0.0000000E+00; -5.8065283E-01;  4.0000000E+04;  0.0000000E+00;  4.0013176E+04;  2.0824889E-02;  0.0000000E+00; -5.9746753E-04;  2.6513330E+03;
  3.6874500E-03;  9.9999998E-03;  2.1001875E-01;2498;  4.8386967E-03;  0.0000000E+00; -5.6376564E-04;  9.8772882E+02;  1.0000000E-01; -1.0166429E+04;3;  8.6543549E+01;  0.0000000E+00; -1.5328506E+01;0;  1.9518699E-02;  3.9022980E+04;  0.0000000E+00; -6.1039060E-01;  4.0000000E+04;  0.0000000E+00;  4.0016684E+04;  1.9903408E-02;  0.0000000E+00; -3.8470890E-04;  3.1068047E+03;
  3.4533869E-03;  9.9999998E-03;  2.2000577E-01;2499;  4.6936474E-03;  0.0000000E+00; -5.8723270E-04;  9.8843793E+02;  1.0000000E-01; -9.5789385E+03;3;  8.4074127E+01;  0.0000000E+00; -1.7839098E+01;0;  1.8775696E-02;  3.9074062E+04;  0.0000000E+00; -6.0186744E-01;  4.0000000E+04;  0.0000000E+00;  4.0020211E+04;  1.8880997E-02;  0.0000000E+00; -1.0530173E-04;  3.4599548E+03;
  3.1539276E-03;  9.9999998E-03;  2.2998364E-01;2500;  4.4821547E-03;  0.0000000E+00; -6.2588288E-04;  9.8927777E+02;  1.0000000E-01; -8.8831562E+03;3;  7.9578712E+01;  0.0000000E+00; -2.0142952E+01;0;  1.7970441E-02;  3.9136277E+04;  0.0000000E+00; -5.5586433E-01;  4.0000000E+04;  0.0000000E+00;  4.0022234E+04;  1.7729582E-02;  0.0000000E+00;  2.4085812E-04;  3.6191755E+03;
  1.3682241E-02;  9.9999998E-03;  6.9977976E-02;2544;  5.2290126E-03;  0.0000000E+00; -1.3503319E-04;  9.8928766E+02;  1.0000000E-01; -8.8749590E+03;3;  4.6988987E+01;  0.0000000E+00; -4.7808368E-02;0;  2.4085389E-02;  3.9157277E+04;  0.0000000E+00; -6.4794477E-03;  4.0000000E+04;  0.0000000E+00;  3.9998535E+04;  2.5425529E-02;  0.0000000E+00; -1.3401392E-03;  8.0764917E+02;
  1.3695169E-02;  9.9999998E-03;  7.9973958E-02;2545;  5.2564405E-03;  0.0000000E+00; -1.8610206E-04;  9.8929779E+02;  1.0000000E-01; -8.8665645E+03;3;  4.6493752E+01;  0.0000000E+00; -2.6041374E-01;0;  2.3966953E-02;  3.9158730E+04;  0.0000000E+00; -9.8486030E-03;  4.0000000E+04;  0.0000000E+00;  3.9998352E+04;  2.5302725E-02;  0.0000000E+00; -1.3357726E-03;  7.5035132E+02;
  1.3702453E-02;  9.9999998E-03;  8.9972079E-02;2546;  5.2618366E-03;  0.0000000E+00; -2.4265393E-04;  9.8930743E+02;  1.0000000E-01; -8.8585645E+03;3;  4.6071667E+01;  0.0000000E+00; -5.4031962E-01;0;  2.3783000E-02;  3.9160086E+04;  0.0000000E+00; -1.5232573E-02;  4.0000000E+04;  0.0000000E+00;  3.9998609E+04;  2.5093107E-02;  0.0000000E+00; -1.3101072E-03;  6.9199719E+02;
  1.3702547E-02;  9.9999998E-03;  9.9972345E-02;2547;  5.2377079E-03;  0.0000000E+00; -3.0214997E-04;  9.8932458E+02;  1.0000000E-01; -8.8443916E+03;3;  4.5715336E+01;  0.0000000E+00; -8.8996494E-01;0;  2.3524325E-02;  3.9162629E+04;  0.0000000E+00; -2.4242518E-02;  4.0000000E+04;  0.0000000E+00;  3.9998355E+04;  2.4791693E-02;  0.0000000E+00; -1.2673689E-03;  6.3576562E+02;
  1.3694897E-02;  9.9999998E-03;  1.0997408E-01;2548;  5.1792189E-03;  0.0000000E+00; -3.6162420E-04;  9.8935223E+02;  1.0000000E-01; -8.8214785E+03;3;  4.5452370E+01;  0.0000000E+00; -1.3118634E+00;0;  2.3185875E-02;  3.9164613E+04;  0.0000000E+00; -3.9554264E-02;  4.0000000E+04;  0.0000000E+00;  3.9998238E+04;  2.4400624E-02;  0.0000000E+00; -1.2147481E-03;  5.8555060E+02;
  1.3679867E-02;  9.9999998E-03;  1.1997658E-01;2549;  5.0861468E-03;  0.0000000E+00; -4.1785574E-04;  9.8937567E+02;  1.0000000E-01; -8.8020723E+03;3;  4.5431702E+01;  0.0000000E+00; -1.8095385E+00;0;  2.2767365E-02;  3.9166273E+04;  0.0000000E+00; -6.4987674E-02;  4.0000000E+04;  0.0000000E+00;  3.9997570E+04;  2.3928391E-02;  0.0000000E+00; -1.1610253E-03;  5.4858551E+02;
  1.3658620E-02;  9.9999998E-03;  1.2997933E-01;2550;  4.9630431E-03;  0.0000000E+00; -4.6758179E-04;  9.8938812E+02;  1.0000000E-01; -8.7917510E+03;3;  4.5759529E+01;  0.0000000E+00; -2.3881309E+00;0;  2.2274468E-02;  3.9168027E+04;  0.0000000E+00; -1.0509717E-01;  4.0000000E+04;  0.0000000E+00;  3.9997887E+04;  2.3388678E-02;  0.0000000E+00; -1.1142109E-03;  5.3855292E+02;
  1.3632627E-02;  9.9999998E-03;  1.3998273E-01;2551;  4.8187645E-03;  0.0000000E+00; -5.0775142E-04;  9.8940765E+02;  1.0000000E-01; -8.7755547E+03;3;  4.6385826E+01;  0.0000000E+00; -3.0550268E+00;0;  2.1719629E-02;  3.9169508E+04;  0.0000000E+00; -1.6405098E-01;  4.0000000E+04;  0.0000000E+00;  3.9997336E+04;  2.2797657E-02;  0.0000000E+00; -1.0780287E-03;  5.7580292E+02;
  1.3603388E-02;  9.9999998E-03;  1.4998746E-01;2552;  4.6666139E-03;  0.0000000E+00; -5.3611933E-04;  9.8943329E+02;  1.0000000E-01; -8.7543203E+03;3;  4.7395405E+01;  0.0000000E+00; -3.8247344E+00;0;  2.1120097E-02;  3.9170758E+04;  0.0000000E+00; -2.4408849E-01;  4.0000000E+04;  0.0000000E+00;  3.9997797E+04;  2.2170432E-02;  0.0000000E+00; -1.0503342E-03;  6.8087079E+02;
  1.3571677E-02;  9.9999998E-03;  1.5999418E-01;2553;  4.5211958E-03;  0.0000000E+00; -5.5268279E-04;  9.8947180E+02;  1.0000000E-01; -8.7224199E+03;3;  4.8816792E+01;  0.0000000E+00; -4.7306714E+00;0;  2.0495120E-02;  3.9173320E+04;  0.0000000E+00; -3.4436968E-01;  4.0000000E+04;  0.0000000E+00;  3.9999488E+04;  2.1518672E-02;  0.0000000E+00; -1.0235512E-03;  8.6625854E+02;
  1.3536628E-02;  9.9999998E-03;  1.7000268E-01;2554;  4.3948493E-03;  0.0000000E+00; -5.6000793E-04;  9.8954865E+02;  1.0000000E-01; -8.6587676E+03;3;  5.0534782E+01;  0.0000000E+00; -5.8240399E+00;0;  1.9862732E-02;  3.9177488E+04;  0.0000000E+00; -4.5958570E-01;  4.0000000E+04;  0.0000000E+00;  4.0000484E+04;  2.0848878E-02;  0.0000000E+00; -9.8614523E-04;  1.1379471E+03;
  1.3493148E-02;  9.9999998E-03;  1.8001050E-01;2555;  4.2954059E-03;  0.0000000E+00; -5.6252489E-04;  9.8967450E+02;  1.0000000E-01; -8.5544736E+03;3;  5.2496502E+01;  0.0000000E+00; -7.1576452E+00;0;  1.9237310E-02;  3.9184996E+04;  0.0000000E+00; -5.7920510E-01;  4.0000000E+04;  0.0000000E+00;  4.0003641E+04;  2.0161623E-02;  0.0000000E+00; -9.2431350E-04;  1.4970522E+03;
  1.3433473E-02;  9.9999998E-03;  1.9001511E-01;2556;  4.2224070E-03;  0.0000000E+00; -5.6552480E-04;  9.8986926E+02;  1.0000000E-01; -8.3931455E+03;3;  5.4510494E+01;  0.0000000E+00; -8.7540941E+00;0;  1.8626811E-02;  3.9196805E+04;  0.0000000E+00; -6.8808705E-01;  4.0000000E+04;  0.0000000E+00;  4.0007438E+04;  1.9450272E-02;  0.0000000E+00; -8.2346081E-04;  1.9353081E+03;
  1.3347179E-02;  9.9999998E-03;  2.0001490E-01;2557;  4.1660988E-03;  0.0000000E+00; -5.7427230E-04;  9.9014722E+02;  1.0000000E-01; -8.1628311E+03;3;  5.6307156E+01;  0.0000000E+00; -1.0570485E+01;0;  1.8031640E-02;  3.9214566E+04;  0.0000000E+00; -7.6877707E-01;  4.0000000E+04;  0.0000000E+00;  4.0012297E+04;  1.8701054E-02;  0.0000000E+00; -6.6941348E-04;  2.4269734E+03;
  1.3222987E-02;  9.9999998E-03;  2.1000792E-01;2558;  4.1072727E-03;  0.0000000E+00; -5.9327832E-04;  9.9052802E+02;  1.0000000E-01; -7.8473828E+03;3;  5.7444286E+01;  0.0000000E+00; -1.2477397E+01;0;  1.7444124E-02;  3.9239902E+04;  0.0000000E+00; -8.0547762E-01;  4.0000000E+04;  0.0000000E+00;  4.0016227E+04;  1.7894160E-02;  0.0000000E+00; -4.5003576E-04;  2.9213594E+03;
  1.3048099E-02;  9.9999998E-03;  2.1999161E-01;2559;  4.0202402E-03;  0.0000000E+00; -6.2630628E-04;  9.9102197E+02;  1.0000000E-01; -7.4381108E+03;3;  5.7426743E+01;  0.0000000E+00; -1.4286428E+01;0;  1.6848773E-02;  3.9274098E+04;  0.0000000E+00; -7.8883207E-01;  4.0000000E+04;  0.0000000E+00;  4.0020293E+04;  1.7006215E-02;  0.0000000E+00; -1.5744148E-04;  3.3403916E+03;
  1.2811787E-02;  9.9999998E-03;  2.2996435E-01;2560;  3.8764183E-03;  0.0000000E+00; -6.7447237E-04;  9.9161060E+02;  1.0000000E-01; -6.9504702E+03;3;  5.5902924E+01;  0.0000000E+00; -1.5855574E+01;0;  1.6222449E-02;  3.9316781E+04;  0.0000000E+00; -7.2005153E-01;  4.0000000E+04;  0.0000000E+00;  4.0023355E+04;  1.6013313E-02;  0.0000000E+00;  2.0913582E-04;  3.5864397E+03;
  2.3018967E-02;  9.9999998E-03;  6.9986410E-02;2605;  4.4421763E-03;  0.0000000E+00; -1.2888944E-04;  9.9324194E+02;  1.0000000E-01; -5.5989033E+03;3;  1.2305519E+01;  0.0000000E+00; -2.9883206E-02;0;  2.0866895E-02;  3.9468051E+04;  0.0000000E+00; -9.3035707E-03;  4.0000000E+04;  0.0000000E+00;  3.9998730E+04;  2.2217201E-02;  0.0000000E+00; -1.3503061E-03;  4.0144345E+02;
  2.3029290E-02;  9.9999998E-03;  7.9982758E-02;2606;  4.4795275E-03;  0.0000000E+00; -1.7263902E-04;  9.9326538E+02;  1.0000000E-01; -5.5794966E+03;3;  1.1870931E+01;  0.0000000E+00; -2.0378344E-01;0;  2.0769950E-02;  3.9469656E+04;  0.0000000E+00; -1.3528569E-02;  4.0000000E+04;  0.0000000E+00;  3.9998941E+04;  2.2099508E-02;  0.0000000E+00; -1.3295582E-03;  3.6616589E+02;
  2.3033839E-02;  9.9999998E-03;  8.9979962E-02;2607;  4.4914801E-03;  0.0000000E+00; -2.2028534E-04;  9.9329156E+02;  1.0000000E-01; -5.5578184E+03;3;  1.1527106E+01;  0.0000000E+00; -4.3315133E-01;0;  2.0621920E-02;  3.9472168E+04;  0.0000000E+00; -1.9996967E-02;  4.0000000E+04;  0.0000000E+00;  3.9998223E+04;  2.1910692E-02;  0.0000000E+00; -1.2887722E-03;  3.3856482E+02;
  2.3031395E-02;  9.9999998E-03;  9.9978343E-02;2608;  4.4707251E-03;  0.0000000E+00; -2.7000540E-04;  9.9331677E+02;  1.0000000E-01; -5.5369297E+03;3;  1.1321957E+01;  0.0000000E+00; -7.1961421E-01;0;  2.0412525E-02;  3.9474246E+04;  0.0000000E+00; -3.0480145E-02;  4.0000000E+04;  0.0000000E+00;  3.9998055E+04;  2.1646779E-02;  0.0000000E+00; -1.2342543E-03;  3.1792349E+02;
  2.3022015E-02;  9.9999998E-03;  1.0997827E-01;2609;  4.4113304E-03;  0.0000000E+00; -3.1956335E-04;  9.9333838E+02;  1.0000000E-01; -5.5190044E+03;3;  1.1290639E+01;  0.0000000E+00; -1.0654364E+00;0;  2.0134911E-02;  3.9476320E+04;  0.0000000E+00; -4.7955837E-02;  4.0000000E+04;  0.0000000E+00;  3.9997926E+04;  2.1310028E-02;  0.0000000E+00; -1.1751160E-03;  3.0316321E+02;
  2.3006631E-02;  9.9999998E-03;  1.1997982E-01;2610;  4.3109148E-03;  0.0000000E+00; -3.6637200E-04;  9.9335400E+02;  1.0000000E-01; -5.5060664E+03;3;  1.1468017E+01;  0.0000000E+00; -1.4738969E+00;0;  1.9787068E-02;  3.9477422E+04;  0.0000000E+00; -7.6755598E-02;  4.0000000E+04;  0.0000000E+00;  3.9998102E+04;  2.0908535E-02;  0.0000000E+00; -1.1214663E-03;  2.9779568E+02;
  2.2987651E-02;  9.9999998E-03;  1.2998244E-01;2611;  4.1731675E-03;  0.0000000E+00; -4.0802962E-04;  9.9335590E+02;  1.0000000E-01; -5.5045356E+03;3;  1.1930091E+01;  0.0000000E+00; -1.9492577E+00;0;  1.9372191E-02;  3.9477441E+04;  0.0000000E+00; -1.2217451E-01;  4.0000000E+04;  0.0000000E+00;  3.9998324E+04;  2.0453777E-02;  0.0000000E+00; -1.0815865E-03;  3.1525934E+02;
  2.2967357E-02;  9.9999998E-03;  1.3998589E-01;2612;  4.0091178E-03;  0.0000000E+00; -4.4244132E-04;  9.9334290E+02;  1.0000000E-01; -5.5153008E+03;3;  1.2733582E+01;  0.0000000E+00; -2.4977100E+00;0;  1.8900119E-02;  3.9476836E+04;  0.0000000E+00; -1.8926986E-01;  4.0000000E+04;  0.0000000E+00;  3.9997699E+04;  1.9958418E-02;  0.0000000E+00; -1.0582997E-03;  3.7654611E+02;
  2.2947885E-02;  9.9999998E-03;  1.4999039E-01;2613;  3.8345472E-03;  0.0000000E+00; -4.6817836E-04;  9.9332178E+02;  1.0000000E-01; -5.5327817E+03;3;  1.3904958E+01;  0.0000000E+00; -3.1280279E+00;0;  1.8386681E-02;  3.9474879E+04;  0.0000000E+00; -2.8102708E-01;  4.0000000E+04;  0.0000000E+00;  3.9998594E+04;  1.9434243E-02;  0.0000000E+00; -1.0475637E-03;  4.9657303E+02;
  2.2930767E-02;  9.9999998E-03;  1.5999614E-01;2614;  3.6695492E-03;  0.0000000E+00; -4.8535864E-04;  9.9329938E+02;  1.0000000E-01; -5.5513491E+03;3;  1.5478922E+01;  0.0000000E+00; -3.8543074E+00;0;  1.7849537E-02;  3.9472414E+04;  0.0000000E+00; -3.9688337E-01;  4.0000000E+04;  0.0000000E+00;  3.9999152E+04;  1.8888934E-02;  0.0000000E+00; -1.0393964E-03;  6.7948022E+02;
  2.2915669E-02;  9.9999998E-03;  1.7000335E-01;2615;  3.5338881E-03;  0.0000000E+00; -4.9649918E-04;  9.9328717E+02;  1.0000000E-01; -5.5614722E+03;3;  1.7472187E+01;  0.0000000E+00; -4.6963568E+00;0;  1.7305931E-02;  3.9470262E+04;  0.0000000E+00; -5.3110015E-01;  4.0000000E+04;  0.0000000E+00;  4.0000688E+04;  1.8325839E-02;  0.0000000E+00; -1.0199076E-03;  9.2845197E+02;
  2.2898750E-02;  9.9999998E-03;  1.8001185E-01;2616;  3.4389792E-03;  0.0000000E+00; -5.0507247E-04;  9.9329822E+02;  1.0000000E-01; -5.5522876E+03;3;  1.9886602E+01;  0.0000000E+00; -5.6722293E+00;0;  1.6771432E-02;  3.9469375E+04;  0.0000000E+00; -6.7182600E-01;  4.0000000E+04;  0.0000000E+00;  4.0001957E+04;  1.7744826E-02;  0.0000000E+00; -9.7339443E-04;  1.2502163E+03;
  2.2872347E-02;  9.9999998E-03;  1.9002005E-01;2617;  3.3864120E-03;  0.0000000E+00; -5.1484181E-04;  9.9334729E+02;  1.0000000E-01; -5.5116465E+03;3;  2.2653980E+01;  0.0000000E+00; -6.7757225E+00;0;  1.6257452E-02;  3.9470449E+04;  0.0000000E+00; -8.0171436E-01;  4.0000000E+04;  0.0000000E+00;  4.0005070E+04;  1.7141260E-02;  0.0000000E+00; -8.8380772E-04;  1.6502098E+03;
  2.2825334E-02;  9.9999998E-03;  2.0002539E-01;2618;  3.3658396E-03;  0.0000000E+00; -5.2952091E-04;  9.9345306E+02;  1.0000000E-01; -5.4239946E+03;3;  2.5575983E+01;  0.0000000E+00; -7.9462156E+00;0;  1.5769703E-02;  3.9474820E+04;  0.0000000E+00; -9.0042365E-01;  4.0000000E+04;  0.0000000E+00;  4.0010410E+04;  1.6505742E-02;  0.0000000E+00; -7.3604000E-04;  2.1202158E+03;
  2.2745719E-02;  9.9999998E-03;  2.1002553E-01;2619;  3.3555573E-03;  0.0000000E+00; -5.5255275E-04;  9.9363153E+02;  1.0000000E-01; -5.2761470E+03;3;  2.8326641E+01;  0.0000000E+00; -9.0513296E+00;0;  1.5306307E-02;  3.9484289E+04;  0.0000000E+00; -9.4910014E-01;  4.0000000E+04;  0.0000000E+00;  4.0015195E+04;  1.5823819E-02;  0.0000000E+00; -5.1751174E-04;  2.6251982E+03;
  2.2621134E-02;  9.9999998E-03;  2.2001742E-01;2620;  3.3260956E-03;  0.0000000E+00; -5.8666337E-04;  9.9388745E+02;  1.0000000E-01; -5.0641528E+03;3;  3.0504744E+01;  0.0000000E+00; -9.9258223E+00;0;  1.4857001E-02;  3.9499316E+04;  0.0000000E+00; -9.3601680E-01;  4.0000000E+04;  0.0000000E+00;  4.0019008E+04;  1.5077273E-02;  0.0000000E+00; -2.2027257E-04;  3.0954236E+03;
  2.2438062E-02;  9.9999998E-03;  2.2999777E-01;2621;  3.2453390E-03;  0.0000000E+00; -6.3359347E-04;  9.9422308E+02;  1.0000000E-01; -4.7860869E+03;3;  3.1632038E+01;  0.0000000E+00; -1.0460305E+01;0;  1.4403005E-02;  3.9521383E+04;  0.0000000E+00; -8.6177516E-01;  4.0000000E+04;  0.0000000E+00;  4.0022652E+04;  1.4246687E-02;  0.0000000E+00;  1.5631795E-04;  3.4308625E+03;
  3.2418545E-02;  9.9999998E-03;  6.9994695E-02;2666;  3.7215545E-03;  0.0000000E+00; -1.2622375E-04;  9.9697351E+02;  1.0000000E-01; -2.5073860E+03;3; -1.3818929E+01;  0.0000000E+00; -1.4505519E-02;0;  1.7730938E-02;  3.9765473E+04;  0.0000000E+00; -1.1272927E-02;  4.0000000E+04;  0.0000000E+00;  3.9997996E+04;  1.9041765E-02;  0.0000000E+00; -1.3108273E-03;  2.9128910E+01;
  3.2426439E-02;  9.9999998E-03;  7.9991415E-02;2667;  3.7705132E-03;  0.0000000E+00; -1.6047966E-04;  9.9700403E+02;  1.0000000E-01; -2.4821025E+03;3; -1.4145385E+01;  0.0000000E+00; -1.5157489E-01;0;  1.7661940E-02;  3.9768078E+04;  0.0000000E+00; -1.6147448E-02;  4.0000000E+04;  0.0000000E+00;  3.9998262E+04;  1.8932387E-02;  0.0000000E+00; -1.2704472E-03;  2.6603964E+01;
  3.2428581E-02;  9.9999998E-03;  8.9988276E-02;2668;  3.7922102E-03;  0.0000000E+00; -1.9644000E-04;  9.9703314E+02;  1.0000000E-01; -2.4580046E+03;3; -1.4325727E+01;  0.0000000E+00; -3.3244187E-01;0;  1.7558599E-02;  3.9770898E+04;  0.0000000E+00; -2.3370555E-02;  4.0000000E+04;  0.0000000E+00;  3.9998434E+04;  1.8770723E-02;  0.0000000E+00; -1.2121235E-03;  3.9081928E+01;
  3.2423999E-02;  9.9999998E-03;  9.9985652E-02;2669;  3.7756795E-03;  0.0000000E+00; -2.3300704E-04;  9.9707098E+02;  1.0000000E-01; -2.4266475E+03;3; -1.4405936E+01;  0.0000000E+00; -5.5882794E-01;0;  1.7410701E-02;  3.9773090E+04;  0.0000000E+00; -3.4631114E-02;  4.0000000E+04;  0.0000000E+00;  3.9998148E+04;  1.8555347E-02;  0.0000000E+00; -1.1446464E-03;  6.3087803E+01;
  3.2413282E-02;  9.9999998E-03;  1.0998410E-01;2670;  3.7138648E-03;  0.0000000E+00; -2.6865868E-04;  9.9709930E+02;  1.0000000E-01; -2.4031914E+03;3; -1.4299749E+01;  0.0000000E+00; -8.3236241E-01;0;  1.7209005E-02;  3.9775152E+04;  0.0000000E+00; -5.2778501E-02;  4.0000000E+04;  0.0000000E+00;  3.9998746E+04;  1.8288411E-02;  0.0000000E+00; -1.0794066E-03;  9.6022163E+01;
  3.2397930E-02;  9.9999998E-03;  1.1998373E-01;2671;  3.6053353E-03;  0.0000000E+00; -3.0187285E-04;  9.9711145E+02;  1.0000000E-01; -2.3931174E+03;3; -1.3984486E+01;  0.0000000E+00; -1.1555626E+00;0;  1.6947493E-02;  3.9775672E+04;  0.0000000E+00; -8.1998758E-02;  4.0000000E+04;  0.0000000E+00;  3.9999164E+04;  1.7975433E-02;  0.0000000E+00; -1.0279389E-03;  1.3701886E+02;
  3.2380994E-02;  9.9999998E-03;  1.2998441E-01;2672;  3.4559292E-03;  0.0000000E+00; -3.3148113E-04;  9.9710736E+02;  1.0000000E-01; -2.3964753E+03;3; -1.3462830E+01;  0.0000000E+00; -1.5321078E+00;0;  1.6625367E-02;  3.9775223E+04;  0.0000000E+00; -1.2749349E-01;  4.0000000E+04;  0.0000000E+00;  3.9999320E+04;  1.7624019E-02;  0.0000000E+00; -9.9865126E-04;  1.9490910E+02;
  3.2365702E-02;  9.9999998E-03;  1.3998574E-01;2673;  3.2797917E-03;  0.0000000E+00; -3.5656118E-04;  9.9707373E+02;  1.0000000E-01; -2.4243760E+03;3; -1.2641350E+01;  0.0000000E+00; -1.9666653E+00;0;  1.6248990E-02;  3.9772609E+04;  0.0000000E+00; -1.9439958E-01;  4.0000000E+04;  0.0000000E+00;  3.9998707E+04;  1.7242152E-02;  0.0000000E+00; -9.9316228E-04;  2.8425220E+02;
  3.2354865E-02;  9.9999998E-03;  1.4998776E-01;2674;  3.0958264E-03;  0.0000000E+00; -3.7657493E-04;  9.9701440E+02;  1.0000000E-01; -2.4735103E+03;3; -1.1487339E+01;  0.0000000E+00; -2.4627941E+00;0;  1.5832156E-02;  3.9768562E+04;  0.0000000E+00; -2.8589204E-01;  4.0000000E+04;  0.0000000E+00;  3.9998672E+04;  1.6837290E-02;  0.0000000E+00; -1.0051343E-03;  4.1276569E+02;
  3.2350253E-02;  9.9999998E-03;  1.5999089E-01;2675;  2.9254474E-03;  0.0000000E+00; -3.9252662E-04;  9.9694458E+02;  1.0000000E-01; -2.5313359E+03;3; -1.0002948E+01;  0.0000000E+00; -3.0121317E+00;0;  1.5393068E-02;  3.9762094E+04;  0.0000000E+00; -4.0163055E-01;  4.0000000E+04;  0.0000000E+00;  3.9998172E+04;  1.6414858E-02;  0.0000000E+00; -1.0217900E-03;  5.7924255E+02;
  3.2352302E-02;  9.9999998E-03;  1.6999570E-01;2676;  2.7907714E-03;  0.0000000E+00; -4.0649591E-04;  9.9684991E+02;  1.0000000E-01; -2.6098027E+03;3; -8.0022306E+00;  0.0000000E+00; -3.5984130E+00;0;  1.4949701E-02;  3.9754449E+04;  0.0000000E+00; -5.3627199E-01;  4.0000000E+04;  0.0000000E+00;  3.9998262E+04;  1.5976347E-02;  0.0000000E+00; -1.0266460E-03;  7.8150293E+02;
  3.2358225E-02;  9.9999998E-03;  1.8000279E-01;2677;  2.7050350E-03;  0.0000000E+00; -4.1994287E-04;  9.9676093E+02;  1.0000000E-01; -2.6835291E+03;3; -5.5248222E+00;  0.0000000E+00; -4.1991057E+00;0;  1.4519464E-02;  3.9745641E+04;  0.0000000E+00; -6.7856264E-01;  4.0000000E+04;  0.0000000E+00;  4.0000297E+04;  1.5521316E-02;  0.0000000E+00; -1.0018516E-03;  1.0264734E+03;
  3.2361336E-02;  9.9999998E-03;  1.9001231E-01;2678;  2.6716643E-03;  0.0000000E+00; -4.3388258E-04;  9.9668787E+02;  1.0000000E-01; -2.7440212E+03;3; -2.5404074E+00;  0.0000000E+00; -4.7743320E+00;0;  1.4115965E-02;  3.9736926E+04;  0.0000000E+00; -8.1184167E-01;  4.0000000E+04;  0.0000000E+00;  4.0002965E+04;  1.5045755E-02;  0.0000000E+00; -9.2978956E-04;  1.3344540E+03;
  3.2351907E-02;  9.9999998E-03;  2.0002291E-01;2679;  2.6804043E-03;  0.0000000E+00; -4.5030439E-04;  9.9663593E+02;  1.0000000E-01; -2.7870818E+03;3;  9.2192101E-01;  0.0000000E+00; -5.2461405E+00;0;  1.3747761E-02;  3.9728914E+04;  0.0000000E+00; -9.1637427E-01;  4.0000000E+04;  0.0000000E+00;  4.0007152E+04;  1.4542365E-02;  0.0000000E+00; -7.9460407E-04;  1.7260320E+03;
  3.2315578E-02;  9.9999998E-03;  2.1003114E-01;2680;  2.7089671E-03;  0.0000000E+00; -4.7186355E-04;  9.9662756E+02;  1.0000000E-01; -2.7939951E+03;3;  4.6061940E+00;  0.0000000E+00; -5.4812651E+00;0;  1.3416806E-02;  3.9723250E+04;  0.0000000E+00; -9.7349066E-01;  4.0000000E+04;  0.0000000E+00;  4.0012543E+04;  1.4000558E-02;  0.0000000E+00; -5.8375183E-04;  2.1945955E+03;
  3.2237876E-02;  9.9999998E-03;  2.2003333E-01;2681;  2.7278790E-03;  0.0000000E+00; -5.0108513E-04;  9.9666223E+02;  1.0000000E-01; -2.7652551E+03;3;  8.2298813E+00;  0.0000000E+00; -5.3357925E+00;0;  1.3115612E-02;  3.9720543E+04;  0.0000000E+00; -9.7103709E-01;  4.0000000E+04;  0.0000000E+00;  4.0017574E+04;  1.3405381E-02;  0.0000000E+00; -2.8976856E-04;  2.6867388E+03;
  3.2103579E-02;  9.9999998E-03;  2.3002490E-01;2682;  2.7018941E-03;  0.0000000E+00; -5.4114213E-04;  9.9674774E+02;  1.0000000E-01; -2.6944424E+03;3;  1.1344850E+01;  0.0000000E+00; -4.7499352E+00;0;  1.2827653E-02;  3.9722078E+04;  0.0000000E+00; -9.0876412E-01;  4.0000000E+04;  0.0000000E+00;  4.0021129E+04;  1.2740294E-02;  0.0000000E+00;  8.7359163E-05;  3.1024141E+03;
  4.1904233E-02;  9.9999998E-03;  7.0001610E-02;2727;  3.1858138E-03;  0.0000000E+00; -1.2780594E-04;  1.0000488E+03;  1.0000000E-01;  4.0492683E+01;3; -2.8525421E+01;  0.0000000E+00; -3.2130722E-03;0;  1.4954273E-02;  4.0014953E+04;  0.0000000E+00; -1.1022058E-02;  4.0000000E+04;  0.0000000E+00;  3.9998320E+04;  1.6181458E-02;  0.0000000E+00; -1.2271847E-03;  2.7118637E+02;
  4.1910142E-02;  9.9999998E-03;  7.9999991E-02;2728;  3.2427516E-03;  0.0000000E+00; -1.5121998E-04;  1.0000814E+03;  1.0000000E-01;  6.7454880E+01;3; -2.8740839E+01;  0.0000000E+00; -1.0747887E-01;0;  1.4918989E-02;  4.0017918E+04;  0.0000000E+00; -1.6082119E-02;  4.0000000E+04;  0.0000000E+00;  3.9998379E+04;  1.6084431E-02;  0.0000000E+00; -1.1654425E-03;  2.6021954E+02;
  4.1909937E-02;  9.9999998E-03;  8.9998208E-02;2729;  3.2712033E-03;  0.0000000E+00; -1.7307428E-04;  1.0001276E+03;  1.0000000E-01;  1.0567603E+02;3; -2.8856018E+01;  0.0000000E+00; -2.4543233E-01;0;  1.4868648E-02;  4.0020711E+04;  0.0000000E+00; -2.3579398E-02;  4.0000000E+04;  0.0000000E+00;  3.9998535E+04;  1.5956901E-02;  0.0000000E+00; -1.0882531E-03;  2.1867265E+02;
  4.1903600E-02;  9.9999998E-03;  9.9996284E-02;2730;  3.2593943E-03;  0.0000000E+00; -1.9330881E-04;  1.0001690E+03;  1.0000000E-01;  1.4004543E+02;3; -2.8798000E+01;  0.0000000E+00; -4.1798842E-01;0;  1.4791283E-02;  4.0023652E+04;  0.0000000E+00; -3.4953680E-02;  4.0000000E+04;  0.0000000E+00;  3.9998734E+04;  1.5798539E-02;  0.0000000E+00; -1.0072559E-03;  1.6065511E+02;
  4.1891657E-02;  9.9999998E-03;  1.0999428E-01;2731;  3.1974374E-03;  0.0000000E+00; -2.1167952E-04;  1.0002022E+03;  1.0000000E-01;  1.6750143E+02;3; -2.8582165E+01;  0.0000000E+00; -6.2636864E-01;0;  1.4675082E-02;  4.0025512E+04;  0.0000000E+00; -5.2504160E-02;  4.0000000E+04;  0.0000000E+00;  3.9999691E+04;  1.5611512E-02;  0.0000000E+00; -9.3642960E-04;  1.1572462E+02;
  4.1876025E-02;  9.9999998E-03;  1.1999208E-01;2732;  3.0836621E-03;  0.0000000E+00; -2.2788224E-04;  1.0002203E+03;  1.0000000E-01;  1.8251335E+02;3; -2.8218082E+01;  0.0000000E+00; -8.7261224E-01;0;  1.4509939E-02;  4.0026543E+04;  0.0000000E+00; -7.9534255E-02;  4.0000000E+04;  0.0000000E+00;  4.0000586E+04;  1.5398846E-02;  0.0000000E+00; -8.8890700E-04;  1.2199643E+02;
  4.1860506E-02;  9.9999998E-03;  1.2998982E-01;2733;  2.9257347E-03;  0.0000000E+00; -2.4231162E-04;  1.0002135E+03;  1.0000000E-01;  1.7688388E+02;3; -2.7693161E+01;  0.0000000E+00; -1.1594557E+00;0;  1.4290655E-02;  4.0025789E+04;  0.0000000E+00; -1.2010857E-01;  4.0000000E+04;  0.0000000E+00;  4.0000262E+04;  1.5163769E-02;  0.0000000E+00; -8.7311375E-04;  1.7568922E+02;
  4.1849222E-02;  9.9999998E-03;  1.3998777E-01;2734;  2.7379720E-03;  0.0000000E+00; -2.5534094E-04;  1.0001740E+03;  1.0000000E-01;  1.4409470E+02;3; -2.6973917E+01;  0.0000000E+00; -1.4906482E+00;0;  1.4020871E-02;  4.0022668E+04;  0.0000000E+00; -1.7820725E-01;  4.0000000E+04;  0.0000000E+00;  4.0000676E+04;  1.4910109E-02;  0.0000000E+00; -8.8923820E-04;  2.6307285E+02;
  4.1845545E-02;  9.9999998E-03;  1.4998606E-01;2735;  2.5425935E-03;  0.0000000E+00; -2.6868805E-04;  1.0000958E+03;  1.0000000E-01;  7.9405159E+01;3; -2.5998659E+01;  0.0000000E+00; -1.8651465E+00;0;  1.3712292E-02;  4.0016840E+04;  0.0000000E+00; -2.5609136E-01;  4.0000000E+04;  0.0000000E+00;  3.9998984E+04;  1.4640673E-02;  0.0000000E+00; -9.2838140E-04;  3.8495667E+02;
  4.1851312E-02;  9.9999998E-03;  1.5998463E-01;2736;  2.3640804E-03;  0.0000000E+00; -2.8547199E-04;  9.9998401E+02;  1.0000000E-01; -1.3234194E+01;3; -2.4712666E+01;  0.0000000E+00; -2.2545667E+00;0;  1.3382542E-02;  4.0007926E+04;  0.0000000E+00; -3.5299087E-01;  4.0000000E+04;  0.0000000E+00;  3.9998695E+04;  1.4357360E-02;  0.0000000E+00; -9.7481854E-04;  5.3209607E+02;
  4.1866999E-02;  9.9999998E-03;  1.6998516E-01;2737;  2.2240807E-03;  0.0000000E+00; -3.0667050E-04;  9.9984357E+02;  1.0000000E-01; -1.2962596E+02;3; -2.3018452E+01;  0.0000000E+00; -2.6066215E+00;0;  1.3051121E-02;  3.9996141E+04;  0.0000000E+00; -4.6430364E-01;  4.0000000E+04;  0.0000000E+00;  3.9998102E+04;  1.4060496E-02;  0.0000000E+00; -1.0093758E-03;  6.8465326E+02;
  4.1890297E-02;  9.9999998E-03;  1.7998852E-01;2738;  2.1388871E-03;  0.0000000E+00; -3.2973790E-04;  9.9967719E+02;  1.0000000E-01; -2.6744922E+02;3; -2.0786392E+01;  0.0000000E+00; -2.8606031E+00;0;  1.2736363E-02;  3.9981969E+04;  0.0000000E+00; -5.8116406E-01;  4.0000000E+04;  0.0000000E+00;  3.9999105E+04;  1.3748185E-02;  0.0000000E+00; -1.0118218E-03;  8.3181647E+02;
  4.1915640E-02;  9.9999998E-03;  1.8999544E-01;2739;  2.1147016E-03;  0.0000000E+00; -3.4947004E-04;  9.9949994E+02;  1.0000000E-01; -4.1430927E+02;3; -1.7962553E+01;  0.0000000E+00; -2.9471648E+00;0;  1.2453188E-02;  3.9965473E+04;  0.0000000E+00; -6.9088721E-01;  4.0000000E+04;  0.0000000E+00;  4.0001090E+04;  1.3416059E-02;  0.0000000E+00; -9.6287101E-04;  9.9809735E+02;
  4.1934744E-02;  9.9999998E-03;  2.0000650E-01;2740;  2.1492366E-03;  0.0000000E+00; -3.6271109E-04;  9.9932068E+02;  1.0000000E-01; -5.6279889E+02;3; -1.4529158E+01;  0.0000000E+00; -2.7731049E+00;0;  1.2209981E-02;  3.9947305E+04;  0.0000000E+00; -7.7860999E-01;  4.0000000E+04;  0.0000000E+00;  4.0004656E+04;  1.3056079E-02;  0.0000000E+00; -8.4609806E-04;  1.2472764E+03;
  4.1935574E-02;  9.9999998E-03;  2.1002030E-01;2741;  2.2202858E-03;  0.0000000E+00; -3.7413256E-04;  9.9915155E+02;  1.0000000E-01; -7.0294305E+02;3; -1.0591491E+01;  0.0000000E+00; -2.2085547E+00;0;  1.2009988E-02;  3.9928738E+04;  0.0000000E+00; -8.3008224E-01;  4.0000000E+04;  0.0000000E+00;  4.0008418E+04;  1.2659373E-02;  0.0000000E+00; -6.4938527E-04;  1.6292855E+03;
  4.1901387E-02;  9.9999998E-03;  2.2003177E-01;2742;  2.2795617E-03;  0.0000000E+00; -3.9258905E-04;  9.9900146E+02;  1.0000000E-01; -8.2728522E+02;3; -6.3762259E+00;  0.0000000E+00; -1.1278253E+00;0;  1.1851313E-02;  3.9910953E+04;  0.0000000E+00; -8.3607638E-01;  4.0000000E+04;  0.0000000E+00;  4.0014758E+04;  1.2217499E-02;  0.0000000E+00; -3.6618666E-04;  2.1171340E+03;
  4.1814234E-02;  9.9999998E-03;  2.3003469E-01;2743;  2.2927320E-03;  0.0000000E+00; -4.2064232E-04;  9.9887115E+02;  1.0000000E-01; -9.3523279E+02;3; -2.2085609E+00;  0.0000000E+00;  4.7857004E-01;0;  1.1716798E-02;  3.9894805E+04;  0.0000000E+00; -7.9678875E-01;  4.0000000E+04;  0.0000000E+00;  4.0019277E+04;  1.1714125E-02;  0.0000000E+00;  2.6733615E-06;  2.6060771E+03;
  5.1487852E-02;  9.9999998E-03;  7.0007399E-02;2788;  2.8603631E-03;  0.0000000E+00; -1.4207045E-04;  1.0022011E+03;  1.0000000E-01;  1.8235533E+03;3; -3.2600960E+01;  0.0000000E+00;  4.2460468E-03;0;  1.2740902E-02;  4.0192438E+04;  0.0000000E+00; -7.8167468E-03;  4.0000000E+04;  0.0000000E+00;  3.9998445E+04;  1.3849888E-02;  0.0000000E+00; -1.1089861E-03;  4.4153958E+02;
  5.1492646E-02;  9.9999998E-03;  8.0009006E-02;2789;  2.9182869E-03;  0.0000000E+00; -1.5412111E-04;  1.0022390E+03;  1.0000000E-01;  1.8549598E+03;3; -3.2752460E+01;  0.0000000E+00; -7.2175123E-02;0;  1.2741424E-02;  4.0195105E+04;  0.0000000E+00; -1.2334161E-02;  4.0000000E+04;  0.0000000E+00;  3.9998246E+04;  1.3767691E-02;  0.0000000E+00; -1.0262677E-03;  4.1175296E+02;
  5.1491190E-02;  9.9999998E-03;  9.0010688E-02;2790;  2.9475938E-03;  0.0000000E+00; -1.5875635E-04;  1.0022891E+03;  1.0000000E-01;  1.8964402E+03;3; -3.2781338E+01;  0.0000000E+00; -1.7355922E-01;0;  1.2748115E-02;  4.0198113E+04;  0.0000000E+00; -1.9439893E-02;  4.0000000E+04;  0.0000000E+00;  3.9999012E+04;  1.3678660E-02;  0.0000000E+00; -9.3054486E-04;  3.3566110E+02;
  5.1483262E-02;  9.9999998E-03;  1.0001186E-01;2791;  2.9364645E-03;  0.0000000E+00; -1.5668484E-04;  1.0023351E+03;  1.0000000E-01;  1.9345626E+03;3; -3.2645336E+01;  0.0000000E+00; -3.0051485E-01;0;  1.2747247E-02;  4.0201012E+04;  0.0000000E+00; -3.0281566E-02;  4.0000000E+04;  0.0000000E+00;  4.0000246E+04;  1.3583723E-02;  0.0000000E+00; -8.3647674E-04;  2.3049931E+02;
  5.1470447E-02;  9.9999998E-03;  1.1001172E-01;2792;  2.8728626E-03;  0.0000000E+00; -1.5074207E-04;  1.0023761E+03;  1.0000000E-01;  1.9685369E+03;3; -3.2382278E+01;  0.0000000E+00; -4.5358276E-01;0;  1.2722989E-02;  4.0203348E+04;  0.0000000E+00; -4.6355031E-02;  4.0000000E+04;  0.0000000E+00;  4.0000957E+04;  1.3483852E-02;  0.0000000E+00; -7.6086336E-04;  1.3208702E+02;
  5.1455099E-02;  9.9999998E-03;  1.2000959E-01;2793;  2.7527532E-03;  0.0000000E+00; -1.4052450E-04;  1.0024021E+03;  1.0000000E-01;  1.9900671E+03;3; -3.2013889E+01;  0.0000000E+00; -6.3436049E-01;0;  1.2660670E-02;  4.0204945E+04;  0.0000000E+00; -6.9517717E-02;  4.0000000E+04;  0.0000000E+00;  4.0001516E+04;  1.3379276E-02;  0.0000000E+00; -7.1860576E-04;  1.0410032E+02;
  5.1440995E-02;  9.9999998E-03;  1.3000539E-01;2794;  2.5867417E-03;  0.0000000E+00; -1.3089999E-04;  1.0024037E+03;  1.0000000E-01;  1.9914498E+03;3; -3.1558311E+01;  0.0000000E+00; -8.4386086E-01;0;  1.2550424E-02;  4.0204363E+04;  0.0000000E+00; -1.0175718E-01;  4.0000000E+04;  0.0000000E+00;  4.0001969E+04;  1.3268521E-02;  0.0000000E+00; -7.1809714E-04;  1.4582581E+02;
  5.1432949E-02;  9.9999998E-03;  1.3999927E-01;2795;  2.3926497E-03;  0.0000000E+00; -1.2856218E-04;  1.0023665E+03;  1.0000000E-01;  1.9606359E+03;3; -3.0984512E+01;  0.0000000E+00; -1.0849425E+00;0;  1.2391893E-02;  4.0201691E+04;  0.0000000E+00; -1.4460061E-01;  4.0000000E+04;  0.0000000E+00;  4.0001137E+04;  1.3149827E-02;  0.0000000E+00; -7.5793371E-04;  2.1131618E+02;
  5.1434964E-02;  9.9999998E-03;  1.4999218E-01;2796;  2.1927012E-03;  0.0000000E+00; -1.3677980E-04;  1.0022917E+03;  1.0000000E-01;  1.8987118E+03;3; -3.0273504E+01;  0.0000000E+00; -1.3546345E+00;0;  1.2194986E-02;  4.0195875E+04;  0.0000000E+00; -1.9802828E-01;  4.0000000E+04;  0.0000000E+00;  4.0001426E+04;  1.3021647E-02;  0.0000000E+00; -8.2666049E-04;  3.1634924E+02;
  5.1448990E-02;  9.9999998E-03;  1.5998465E-01;2797;  2.0103061E-03;  0.0000000E+00; -1.5737026E-04;  1.0021641E+03;  1.0000000E-01;  1.7929369E+03;3; -2.9302794E+01;  0.0000000E+00; -1.6091359E+00;0;  1.1976875E-02;  4.0186480E+04;  0.0000000E+00; -2.5964597E-01;  4.0000000E+04;  0.0000000E+00;  3.9999227E+04;  1.2882696E-02;  0.0000000E+00; -9.0582069E-04;  4.5546991E+02;
  5.1475354E-02;  9.9999998E-03;  1.6997816E-01;2798;  1.8666337E-03;  0.0000000E+00; -1.8925122E-04;  1.0019993E+03;  1.0000000E-01;  1.6563483E+03;3; -2.8010580E+01;  0.0000000E+00; -1.7664090E+00;0;  1.1757581E-02;  4.0173125E+04;  0.0000000E+00; -3.2516640E-01;  4.0000000E+04;  0.0000000E+00;  3.9997438E+04;  1.2731235E-02;  0.0000000E+00; -9.7365468E-04;  5.8613922E+02;
  5.1511887E-02;  9.9999998E-03;  1.7997557E-01;2799;  1.7799614E-03;  0.0000000E+00; -2.2621805E-04;  1.0017884E+03;  1.0000000E-01;  1.4816371E+03;3; -2.6229105E+01;  0.0000000E+00; -1.7347817E+00;0;  1.1556368E-02;  4.0155562E+04;  0.0000000E+00; -3.8908994E-01;  4.0000000E+04;  0.0000000E+00;  3.9998312E+04;  1.2563974E-02;  0.0000000E+00; -1.0076053E-03;  6.6089160E+02;
  5.1552814E-02;  9.9999998E-03;  1.8997799E-01;2800;  1.7576368E-03;  0.0000000E+00; -2.5812906E-04;  1.0015502E+03;  1.0000000E-01;  1.2843093E+03;3; -2.3889486E+01;  0.0000000E+00; -1.4222509E+00;0;  1.1389649E-02;  4.0134480E+04;  0.0000000E+00; -4.4541419E-01;  4.0000000E+04;  0.0000000E+00;  4.0000160E+04;  1.2376500E-02;  0.0000000E+00; -9.8685152E-04;  6.6770807E+02;
  5.1590290E-02;  9.9999998E-03;  1.9998658E-01;2801;  1.7972864E-03;  0.0000000E+00; -2.7759795E-04;  1.0012852E+03;  1.0000000E-01;  1.0647600E+03;3; -2.0904394E+01;  0.0000000E+00; -7.2701007E-01;0;  1.1267538E-02;  4.0109582E+04;  0.0000000E+00; -4.8808122E-01;  4.0000000E+04;  0.0000000E+00;  4.0001965E+04;  1.2161998E-02;  0.0000000E+00; -8.9445972E-04;  6.9859772E+02;
  5.1615290E-02;  9.9999998E-03;  2.1000153E-01;2802;  1.8780908E-03;  0.0000000E+00; -2.8163209E-04;  1.0010053E+03;  1.0000000E-01;  8.3286536E+02;3; -1.7296923E+01;  0.0000000E+00;  4.7407413E-01;0;  1.1193375E-02;  4.0081961E+04;  0.0000000E+00; -5.1173866E-01;  4.0000000E+04;  0.0000000E+00;  4.0006219E+04;  1.1911918E-02;  0.0000000E+00; -7.1854354E-04;  9.4642084E+02;
  5.1613301E-02;  9.9999998E-03;  2.2001950E-01;2803;  1.9690250E-03;  0.0000000E+00; -2.7940492E-04;  1.0007138E+03;  1.0000000E-01;  5.9139069E+02;3; -1.3178348E+01;  0.0000000E+00;  2.2905183E+00;0;  1.1161248E-02;  4.0052906E+04;  0.0000000E+00; -5.1412362E-01;  4.0000000E+04;  0.0000000E+00;  4.0011598E+04;  1.1614571E-02;  0.0000000E+00; -4.5332272E-04;  1.4355050E+03;
  5.1564880E-02;  9.9999998E-03;  2.3003265E-01;2804;  2.0190799E-03;  0.0000000E+00; -2.8425406E-04;  1.0004312E+03;  1.0000000E-01;  3.5722446E+02;3; -8.8451147E+00;  0.0000000E+00;  4.7268777E+00;0;  1.1155955E-02;  4.0023527E+04;  0.0000000E+00; -4.9866754E-01;  4.0000000E+04;  0.0000000E+00;  4.0016027E+04;  1.1256497E-02;  0.0000000E+00; -1.0054291E-04;  2.0110123E+03;
  6.1178174E-02;  9.9999998E-03;  7.0012771E-02;2849;  2.7796759E-03;  0.0000000E+00; -1.5451752E-04;  1.0033420E+03;  1.0000000E-01;  2.7688105E+03;3; -2.9211084E+01;  0.0000000E+00;  7.5954888E-03;0;  1.1140573E-02;  4.0287438E+04;  0.0000000E+00; -2.2585969E-03;  4.0000000E+04;  0.0000000E+00;  3.9998988E+04;  1.2108533E-02;  0.0000000E+00; -9.6795993E-04;  4.6111694E+02;
  6.1182521E-02;  9.9999998E-03;  8.0018230E-02;2850;  2.8309242E-03;  0.0000000E+00; -1.6286023E-04;  1.0033776E+03;  1.0000000E-01;  2.7982419E+03;3; -2.9302853E+01;  0.0000000E+00; -4.5947984E-02;0;  1.1173473E-02;  4.0290105E+04;  0.0000000E+00; -5.4350784E-03;  4.0000000E+04;  0.0000000E+00;  3.9999859E+04;  1.2040643E-02;  0.0000000E+00; -8.6717028E-04;  4.1846439E+02;
  6.1180912E-02;  9.9999998E-03;  9.0024635E-02;2851;  2.8530159E-03;  0.0000000E+00; -1.5809157E-04;  1.0034204E+03;  1.0000000E-01;  2.8336978E+03;3; -2.9258816E+01;  0.0000000E+00; -1.1741145E-01;0;  1.1235517E-02;  4.0293176E+04;  0.0000000E+00; -1.1339737E-02;  4.0000000E+04;  0.0000000E+00;  4.0000113E+04;  1.1990898E-02;  0.0000000E+00; -7.5538148E-04;  3.1325906E+02;
  6.1172888E-02;  9.9999998E-03;  1.0003144E-01;2852;  2.8347601E-03;  0.0000000E+00; -1.3642795E-04;  1.0034717E+03;  1.0000000E-01;  2.8762644E+03;3; -2.9097994E+01;  0.0000000E+00; -2.0742589E-01;0;  1.1311388E-02;  4.0295766E+04;  0.0000000E+00; -2.0914072E-02;  4.0000000E+04;  0.0000000E+00;  4.0001641E+04;  1.1961516E-02;  0.0000000E+00; -6.5012794E-04;  1.6619780E+02;
  6.1159708E-02;  9.9999998E-03;  1.1003647E-01;2853;  2.7678756E-03;  0.0000000E+00; -9.5426731E-05;  1.0035186E+03;  1.0000000E-01;  2.9150781E+03;3; -2.8829662E+01;  0.0000000E+00; -3.1660271E-01;0;  1.1380470E-02;  4.0298629E+04;  0.0000000E+00; -3.4856468E-02;  4.0000000E+04;  0.0000000E+00;  4.0002840E+04;  1.1951589E-02;  0.0000000E+00; -5.7111832E-04;  4.9918438E+01;
  6.1145019E-02;  9.9999998E-03;  1.2003621E-01;2854;  2.6509240E-03;  0.0000000E+00; -4.8114467E-05;  1.0035591E+03;  1.0000000E-01;  2.9486572E+03;3; -2.8510626E+01;  0.0000000E+00; -4.4344351E-01;0;  1.1422137E-02;  4.0300645E+04;  0.0000000E+00; -5.3390276E-02;  4.0000000E+04;  0.0000000E+00;  4.0003758E+04;  1.1957189E-02;  0.0000000E+00; -5.3505192E-04;  1.3973206E+02;
  6.1133280E-02;  9.9999998E-03;  1.3002989E-01;2855;  2.4907619E-03;  0.0000000E+00; -1.3894046E-05;  1.0035736E+03;  1.0000000E-01;  2.9607063E+03;3; -2.8146841E+01;  0.0000000E+00; -5.8844256E-01;0;  1.1421956E-02;  4.0301160E+04;  0.0000000E+00; -7.5924523E-02;  4.0000000E+04;  0.0000000E+00;  4.0003934E+04;  1.1972180E-02;  0.0000000E+00; -5.5022381E-04;  1.9704060E+02;
  6.1128654E-02;  9.9999998E-03;  1.4001925E-01;2856;  2.3026771E-03;  0.0000000E+00;  1.3146925E-07;  1.0035524E+03;  1.0000000E-01;  2.9430278E+03;3; -2.7742926E+01;  0.0000000E+00; -7.5495863E-01;0;  1.1375767E-02;  4.0299484E+04;  0.0000000E+00; -1.0063466E-01;  4.0000000E+04;  0.0000000E+00;  4.0004445E+04;  1.1989502E-02;  0.0000000E+00; -6.1373494E-04;  1.8397853E+02;
  6.1135139E-02;  9.9999998E-03;  1.5000629E-01;2857;  2.1065879E-03;  0.0000000E+00; -3.4480342E-06;  1.0034919E+03;  1.0000000E-01;  2.8929553E+03;3; -2.7276646E+01;  0.0000000E+00; -9.3879032E-01;0;  1.1290504E-02;  4.0295223E+04;  0.0000000E+00; -1.2404814E-01;  4.0000000E+04;  0.0000000E+00;  4.0001957E+04;  1.2002466E-02;  0.0000000E+00; -7.1196223E-04;  1.7853275E+02;
  6.1154827E-02;  9.9999998E-03;  1.5999214E-01;2858;  1.9250577E-03;  0.0000000E+00; -2.2253324E-05;  1.0033810E+03;  1.0000000E-01;  2.8011060E+03;3; -2.6657904E+01;  0.0000000E+00; -1.0867834E+00;0;  1.1181273E-02;  4.0287094E+04;  0.0000000E+00; -1.4086464E-01;  4.0000000E+04;  0.0000000E+00;  4.0000938E+04;  1.2005489E-02;  0.0000000E+00; -8.2421699E-04;  2.9573126E+02;
  6.1188124E-02;  9.9999998E-03;  1.6997874E-01;2859;  1.7793130E-03;  0.0000000E+00; -5.6007248E-05;  1.0032186E+03;  1.0000000E-01;  2.6665913E+03;3; -2.5784140E+01;  0.0000000E+00; -1.0977745E+00;0;  1.1067457E-02;  4.0274625E+04;  0.0000000E+00; -1.4607295E-01;  4.0000000E+04;  0.0000000E+00;  3.9998219E+04;  1.1993929E-02;  0.0000000E+00; -9.2647143E-04;  4.5102823E+02;
  6.1233073E-02;  9.9999998E-03;  1.7996942E-01;2860;  1.6869698E-03;  0.0000000E+00; -9.5123709E-05;  1.0030018E+03;  1.0000000E-01;  2.4869419E+03;3; -2.4525387E+01;  0.0000000E+00; -8.5799897E-01;0;  1.0969175E-02;  4.0257160E+04;  0.0000000E+00; -1.3742535E-01;  4.0000000E+04;  0.0000000E+00;  3.9998000E+04;  1.1963399E-02;  0.0000000E+00; -9.9422410E-04;  5.3921906E+02;
  6.1283890E-02;  9.9999998E-03;  1.8996747E-01;2861;  1.6561856E-03;  0.0000000E+00; -1.2989796E-04;  1.0027433E+03;  1.0000000E-01;  2.2727258E+03;3; -2.2788401E+01;  0.0000000E+00; -2.6071709E-01;0;  1.0903836E-02;  4.0234625E+04;  0.0000000E+00; -1.1661622E-01;  4.0000000E+04;  0.0000000E+00;  3.9998355E+04;  1.1909338E-02;  0.0000000E+00; -1.0055011E-03;  4.8598734E+02;
  6.1332785E-02;  9.9999998E-03;  1.9997419E-01;2862;  1.6844549E-03;  0.0000000E+00; -1.5262664E-04;  1.0024404E+03;  1.0000000E-01;  2.0218688E+03;3; -2.0458494E+01;  0.0000000E+00;  7.9931390E-01;0;  1.0882906E-02;  4.0207176E+04;  0.0000000E+00; -8.8592120E-02;  4.0000000E+04;  0.0000000E+00;  4.0000824E+04;  1.1825780E-02;  0.0000000E+00; -9.4287493E-04;  2.4838640E+02;
  6.1371382E-02;  9.9999998E-03;  2.0999019E-01;2863;  1.7549726E-03;  0.0000000E+00; -1.5551729E-04;  1.0021019E+03;  1.0000000E-01;  1.7413828E+03;3; -1.7499247E+01;  0.0000000E+00;  2.4396622E+00;0;  1.0910295E-02;  4.0174914E+04;  0.0000000E+00; -6.0300216E-02;  4.0000000E+04;  0.0000000E+00;  4.0004910E+04;  1.1704710E-02;  0.0000000E+00; -7.9441554E-04;  2.4381786E+02;
  6.1388664E-02;  9.9999998E-03;  2.2001384E-01;2864;  1.8381289E-03;  0.0000000E+00; -1.4305285E-04;  1.0017357E+03;  1.0000000E-01;  1.4379840E+03;3; -1.3959672E+01;  0.0000000E+00;  4.7662330E+00;0;  1.0980621E-02;  4.0139305E+04;  0.0000000E+00; -4.0308904E-02;  4.0000000E+04;  0.0000000E+00;  4.0008129E+04;  1.1535158E-02;  0.0000000E+00; -5.5453728E-04;  8.4356299E+02;
  6.1366305E-02;  9.9999998E-03;  2.3003687E-01;2865;  1.8898317E-03;  0.0000000E+00; -1.2969089E-04;  1.0013489E+03;  1.0000000E-01;  1.1174993E+03;3; -9.9969130E+00;  0.0000000E+00;  7.7564240E+00;0;  1.1077407E-02;  4.0101332E+04;  0.0000000E+00; -3.9442729E-02;  4.0000000E+04;  0.0000000E+00;  4.0013664E+04;  1.1302579E-02;  0.0000000E+00; -2.2517232E-04;  1.5170867E+03;
  7.0987217E-02;  9.9999998E-03;  7.0019096E-02;2910;  2.9240861E-03;  0.0000000E+00; -1.4734069E-04;  1.0035557E+03;  1.0000000E-01;  2.9457932E+03;3; -2.2219416E+01;  0.0000000E+00;  7.4718706E-03;0;  1.0048878E-02;  4.0306387E+04;  0.0000000E+00;  3.6352279E-03;  4.0000000E+04;  0.0000000E+00;  4.0000406E+04;  1.0864190E-02;  0.0000000E+00; -8.1531139E-04;  3.2217233E+02;
  7.0991956E-02;  9.9999998E-03;  8.0027811E-02;2911;  2.9738836E-03;  0.0000000E+00; -1.6233386E-04;  1.0035826E+03;  1.0000000E-01;  2.9681135E+03;3; -2.2265068E+01;  0.0000000E+00; -2.7392847E-02;0;  1.0105645E-02;  4.0308020E+04;  0.0000000E+00;  2.3209394E-03;  4.0000000E+04;  0.0000000E+00;  4.0000988E+04;  1.0807429E-02;  0.0000000E+00; -7.0178346E-04;  2.7227557E+02;
  7.0991144E-02;  9.9999998E-03;  9.0038583E-02;2912;  2.9946982E-03;  0.0000000E+00; -1.5953154E-04;  1.0036223E+03;  1.0000000E-01;  3.0010015E+03;3; -2.2202913E+01;  0.0000000E+00; -7.5343601E-02;0;  1.0215268E-02;  4.0310473E+04;  0.0000000E+00; -1.6622493E-03;  4.0000000E+04;  0.0000000E+00;  4.0002004E+04;  1.0794105E-02;  0.0000000E+00; -5.7883631E-04;  1.4404414E+02;
  7.0984535E-02;  9.9999998E-03;  1.0005084E-01;2913;  2.9743104E-03;  0.0000000E+00; -1.2865369E-04;  1.0036693E+03;  1.0000000E-01;  3.0399141E+03;3; -2.2036144E+01;  0.0000000E+00; -1.3652840E-01;0;  1.0361523E-02;  4.0313020E+04;  0.0000000E+00; -9.1646947E-03;  4.0000000E+04;  0.0000000E+00;  4.0003645E+04;  1.0827794E-02;  0.0000000E+00; -4.6627069E-04;  4.2507408E+01;
  7.0972972E-02;  9.9999998E-03;  1.1006071E-01;2914;  2.9038081E-03;  0.0000000E+00; -5.6415134E-05;  1.0037238E+03;  1.0000000E-01;  3.0850486E+03;3; -2.1804602E+01;  0.0000000E+00; -2.1320252E-01;0;  1.0520077E-02;  4.0315652E+04;  0.0000000E+00; -2.0298105E-02;  4.0000000E+04;  0.0000000E+00;  4.0004930E+04;  1.0906270E-02;  0.0000000E+00; -3.8619217E-04;  2.4068230E+02;
  7.0959508E-02;  9.9999998E-03;  1.2006284E-01;2915;  2.7841665E-03;  0.0000000E+00;  3.8616676E-05;  1.0037683E+03;  1.0000000E-01;  3.1219858E+03;3; -2.1532497E+01;  0.0000000E+00; -2.9896575E-01;0;  1.0664801E-02;  4.0318285E+04;  0.0000000E+00; -3.3877172E-02;  4.0000000E+04;  0.0000000E+00;  4.0006051E+04;  1.1021775E-02;  0.0000000E+00; -3.5697393E-04;  3.9930875E+02;
  7.0949093E-02;  9.9999998E-03;  1.3005532E-01;2916;  2.6247778E-03;  0.0000000E+00;  1.0061167E-04;  1.0038044E+03;  1.0000000E-01;  3.1518120E+03;3; -2.1277702E+01;  0.0000000E+00; -3.9205664E-01;0;  1.0775586E-02;  4.0320152E+04;  0.0000000E+00; -4.6863385E-02;  4.0000000E+04;  0.0000000E+00;  4.0005918E+04;  1.1162381E-02;  0.0000000E+00; -3.8679462E-04;  4.6589587E+02;
  7.0946090E-02;  9.9999998E-03;  1.4004061E-01;2917;  2.4377222E-03;  0.0000000E+00;  1.2779042E-04;  1.0038060E+03;  1.0000000E-01;  3.1531948E+03;3; -2.1022249E+01;  0.0000000E+00; -4.9944693E-01;0;  1.0842536E-02;  4.0320402E+04;  0.0000000E+00; -5.3935349E-02;  4.0000000E+04;  0.0000000E+00;  4.0006492E+04;  1.1314191E-02;  0.0000000E+00; -4.7165496E-04;  4.0993909E+02;
  7.0954241E-02;  9.9999998E-03;  1.5002276E-01;2918;  2.2419451E-03;  0.0000000E+00;  1.2987462E-04;  1.0037740E+03;  1.0000000E-01;  3.1267263E+03;3; -2.0761631E+01;  0.0000000E+00; -6.1731941E-01;0;  1.0867317E-02;  4.0318488E+04;  0.0000000E+00; -4.7593329E-02;  4.0000000E+04;  0.0000000E+00;  4.0004344E+04;  1.1463979E-02;  0.0000000E+00; -5.9666194E-04;  2.3483388E+02;
  7.0975900E-02;  9.9999998E-03;  1.6000389E-01;2919;  2.0588632E-03;  0.0000000E+00;  1.1315119E-04;  1.0036896E+03;  1.0000000E-01;  3.0567036E+03;3; -2.0409607E+01;  0.0000000E+00; -6.8677390E-01;0;  1.0861279E-02;  4.0313383E+04;  0.0000000E+00; -1.8910788E-02;  4.0000000E+04;  0.0000000E+00;  4.0002230E+04;  1.1601058E-02;  0.0000000E+00; -7.3977944E-04;  3.9735859E+01;
  7.1011409E-02;  9.9999998E-03;  1.6998562E-01;2920;  1.9101931E-03;  0.0000000E+00;  8.5150830E-05;  1.0035546E+03;  1.0000000E-01;  2.9449043E+03;3; -1.9890327E+01;  0.0000000E+00; -5.9921461E-01;0;  1.0842156E-02;  4.0303980E+04;  0.0000000E+00;  3.8940508E-02;  4.0000000E+04;  0.0000000E+00;  3.9999062E+04;  1.1717428E-02;  0.0000000E+00; -8.7527238E-04;  2.9857870E+02;
  7.1058713E-02;  9.9999998E-03;  1.7997164E-01;2921;  1.8113801E-03;  0.0000000E+00;  5.0976574E-05;  1.0033707E+03;  1.0000000E-01;  2.7925137E+03;3; -1.9106810E+01;  0.0000000E+00; -2.2948879E-01;0;  1.0829943E-02;  4.0289340E+04;  0.0000000E+00;  1.2609082E-01;  4.0000000E+04;  0.0000000E+00;  3.9998625E+04;  1.1807239E-02;  0.0000000E+00; -9.7729545E-04;  5.1875970E+02;
  7.1113482E-02;  9.9999998E-03;  1.8996719E-01;2922;  1.7698990E-03;  0.0000000E+00;  2.0469986E-05;  1.0031302E+03;  1.0000000E-01;  2.5933093E+03;3; -1.7934050E+01;  0.0000000E+00;  5.3768057E-01;0;  1.0842759E-02;  4.0268879E+04;  0.0000000E+00;  2.3421213E-01;  4.0000000E+04;  0.0000000E+00;  3.9998117E+04;  1.1865703E-02;  0.0000000E+00; -1.0229443E-03;  6.2833844E+02;
  7.1167484E-02;  9.9999998E-03;  1.9997461E-01;2923;  1.7823990E-03;  0.0000000E+00;  4.9114792E-06;  1.0028367E+03;  1.0000000E-01;  2.3501558E+03;3; -1.6269030E+01;  0.0000000E+00;  1.8128319E+00;0;  1.0893786E-02;  4.0242570E+04;  0.0000000E+00;  3.4782442E-01;  4.0000000E+04;  0.0000000E+00;  3.9999793E+04;  1.1887930E-02;  0.0000000E+00; -9.9414447E-04;  6.1951575E+02;
  7.1212895E-02;  9.9999998E-03;  2.0999552E-01;2924;  1.8353448E-03;  0.0000000E+00;  9.1033726E-06;  1.0024946E+03;  1.0000000E-01;  2.0667070E+03;3; -1.4040030E+01;  0.0000000E+00;  3.7162621E+00;0;  1.0989276E-02;  4.0210102E+04;  0.0000000E+00;  4.4669488E-01;  4.0000000E+04;  0.0000000E+00;  4.0002766E+04;  1.1867993E-02;  0.0000000E+00; -8.7871682E-04;  6.4172668E+02;
  7.1239851E-02;  9.9999998E-03;  2.2002776E-01;2925;  1.9007575E-03;  0.0000000E+00;  3.5653396E-05;  1.0021055E+03;  1.0000000E-01;  1.7443457E+03;3; -1.1228048E+01;  0.0000000E+00;  6.3543344E+00;0;  1.1126914E-02;  4.0172418E+04;  0.0000000E+00;  5.0782835E-01;  4.0000000E+04;  0.0000000E+00;  4.0007191E+04;  1.1797454E-02;  0.0000000E+00; -6.7053997E-04;  9.5699097E+02;
  7.1232006E-02;  9.9999998E-03;  2.3006257E-01;2926;  1.9300410E-03;  0.0000000E+00;  6.0972627E-05;  1.0016829E+03;  1.0000000E-01;  1.3942322E+03;3; -7.9288058E+00;  0.0000000E+00;  9.6979952E+00;0;  1.1292401E-02;  4.0131094E+04;  0.0000000E+00;  5.1074106E-01;  4.0000000E+04;  0.0000000E+00;  4.0010902E+04;  1.1663583E-02;  0.0000000E+00; -3.7118219E-04;  1.5005396E+03;
  8.0928855E-02;  9.9999998E-03;  7.0023961E-02;2971;  3.3400101E-03;  0.0000000E+00; -1.1037204E-04;  1.0030692E+03;  1.0000000E-01;  2.5427429E+03;3; -1.4810905E+01;  0.0000000E+00;  7.9203900E-03;0;  9.2386343E-03;  4.0265777E+04;  0.0000000E+00;  7.0256270E-03;  4.0000000E+04;  0.0000000E+00;  4.0001918E+04;  9.8979799E-03;  0.0000000E+00; -6.5934594E-04;  4.0356354E+01;
  8.0934562E-02;  9.9999998E-03;  8.0033652E-02;2972;  3.4015293E-03;  0.0000000E+00; -1.4174184E-04;  1.0030768E+03;  1.0000000E-01;  2.5490637E+03;3; -1.4817831E+01;  0.0000000E+00; -1.2982632E-02;0;  9.3101515E-03;  4.0266445E+04;  0.0000000E+00;  7.4701691E-03;  4.0000000E+04;  0.0000000E+00;  4.0003035E+04;  9.8503614E-03;  0.0000000E+00; -5.4020958E-04;  1.7915140E+01;
  8.0934934E-02;  9.9999998E-03;  9.0046510E-02;2973;  3.4300862E-03;  0.0000000E+00; -1.5399822E-04;  1.0031017E+03;  1.0000000E-01;  2.5697051E+03;3; -1.4745692E+01;  0.0000000E+00; -4.2396422E-02;0;  9.4569866E-03;  4.0267594E+04;  0.0000000E+00;  5.7056095E-03;  4.0000000E+04;  0.0000000E+00;  4.0004121E+04;  9.8701697E-03;  0.0000000E+00; -4.1318327E-04;  1.6007706E+02;
  8.0929033E-02;  9.9999998E-03;  1.0006314E-01;2974;  3.4122190E-03;  0.0000000E+00; -1.3246571E-04;  1.0031453E+03;  1.0000000E-01;  2.6058523E+03;3; -1.4607212E+01;  0.0000000E+00; -8.0475517E-02;0;  9.6632969E-03;  4.0269500E+04;  0.0000000E+00;  9.3277660E-04;  4.0000000E+04;  0.0000000E+00;  4.0005738E+04;  9.9626146E-03;  0.0000000E+00; -2.9931765E-04;  3.7258487E+02;
  8.0917194E-02;  9.9999998E-03;  1.1007912E-01;2975;  3.3344573E-03;  0.0000000E+00; -4.6775516E-05;  1.0031967E+03;  1.0000000E-01;  2.6484189E+03;3; -1.4419414E+01;  0.0000000E+00; -1.2908764E-01;0;  9.9020228E-03;  4.0271570E+04;  0.0000000E+00; -6.6295043E-03;  4.0000000E+04;  0.0000000E+00;  4.0007293E+04;  1.0123945E-02;  0.0000000E+00; -2.2192234E-04;  6.0347168E+02;
  8.0901623E-02;  9.9999998E-03;  1.2008558E-01;2976;  3.1962639E-03;  0.0000000E+00;  1.0884072E-04;  1.0032499E+03;  1.0000000E-01;  2.6924670E+03;3; -1.4219009E+01;  0.0000000E+00; -1.8309495E-01;0;  1.0142042E-02;  4.0274305E+04;  0.0000000E+00; -1.4893299E-02;  4.0000000E+04;  0.0000000E+00;  4.0008695E+04;  1.0342501E-02;  0.0000000E+00; -2.0045850E-04;  7.8789990E+02;
  8.0887057E-02;  9.9999998E-03;  1.3007852E-01;2977;  3.0109803E-03;  0.0000000E+00;  2.1887521E-04;  1.0032952E+03;  1.0000000E-01;  2.7299968E+03;3; -1.4041729E+01;  0.0000000E+00; -2.3516338E-01;0;  1.0357642E-02;  4.0277180E+04;  0.0000000E+00; -1.9048551E-02;  4.0000000E+04;  0.0000000E+00;  4.0010180E+04;  1.0600584E-02;  0.0000000E+00; -2.4294216E-04;  8.6387860E+02;
  8.0879472E-02;  9.9999998E-03;  1.4006098E-01;2978;  2.7986565E-03;  0.0000000E+00;  2.6301842E-04;  1.0033227E+03;  1.0000000E-01;  2.7528110E+03;3; -1.3899656E+01;  0.0000000E+00; -3.0084842E-01;0;  1.0532445E-02;  4.0279895E+04;  0.0000000E+00; -1.0942136E-02;  4.0000000E+04;  0.0000000E+00;  4.0010621E+04;  1.0877401E-02;  0.0000000E+00; -3.4495493E-04;  7.9398566E+02;
  8.0882922E-02;  9.9999998E-03;  1.5003897E-01;2979;  2.5834979E-03;  0.0000000E+00;  2.7564954E-04;  1.0033220E+03;  1.0000000E-01;  2.7522185E+03;3; -1.3775087E+01;  0.0000000E+00; -3.7143376E-01;0;  1.0661357E-02;  4.0281125E+04;  0.0000000E+00;  2.0652877E-02;  4.0000000E+04;  0.0000000E+00;  4.0007266E+04;  1.1153059E-02;  0.0000000E+00; -4.9170229E-04;  5.8221521E+02;
  8.0901124E-02;  9.9999998E-03;  1.6001700E-01;2980;  2.3847125E-03;  0.0000000E+00;  2.6500254E-04;  1.0032872E+03;  1.0000000E-01;  2.7233799E+03;3; -1.3620135E+01;  0.0000000E+00; -3.8843387E-01;0;  1.0750077E-02;  4.0279859E+04;  0.0000000E+00;  8.8152274E-02;  4.0000000E+04;  0.0000000E+00;  4.0004449E+04;  1.1411019E-02;  0.0000000E+00; -6.6094159E-04;  3.0037134E+02;
  8.0933899E-02;  9.9999998E-03;  1.6999654E-01;2981;  2.2215340E-03;  0.0000000E+00;  2.4184179E-04;  1.0032020E+03;  1.0000000E-01;  2.6527644E+03;3; -1.3354441E+01;  0.0000000E+00; -2.4386254E-01;0;  1.0813206E-02;  4.0274805E+04;  0.0000000E+00;  2.0065010E-01;  4.0000000E+04;  0.0000000E+00;  4.0001527E+04;  1.1639366E-02;  0.0000000E+00; -8.2616002E-04;  2.9248590E+02;
  8.0979906E-02;  9.9999998E-03;  1.7998147E-01;2982;  2.1092028E-03;  0.0000000E+00;  2.1410827E-04;  1.0030698E+03;  1.0000000E-01;  2.5433354E+03;3; -1.2903527E+01;  0.0000000E+00;  1.9064553E-01;0;  1.0869361E-02;  4.0264879E+04;  0.0000000E+00;  3.5776410E-01;  4.0000000E+04;  0.0000000E+00;  3.9999633E+04;  1.1830063E-02;  0.0000000E+00; -9.6070103E-04;  6.0453497E+02;
  8.1034347E-02;  9.9999998E-03;  1.8997779E-01;2983;  2.0575123E-03;  0.0000000E+00;  1.9370131E-04;  1.0028810E+03;  1.0000000E-01;  2.3868955E+03;3; -1.2162331E+01;  0.0000000E+00;  1.0373904E+00;0;  1.0937051E-02;  4.0249508E+04;  0.0000000E+00;  5.4738837E-01;  4.0000000E+04;  0.0000000E+00;  3.9998977E+04;  1.1978010E-02;  0.0000000E+00; -1.0409585E-03;  8.9504694E+02;
  8.1089497E-02;  9.9999998E-03;  1.9999033E-01;2984;  2.0596599E-03;  0.0000000E+00;  1.8980597E-04;  1.0026340E+03;  1.0000000E-01;  2.1821604E+03;3; -1.1033504E+01;  0.0000000E+00;  2.4142656E+00;0;  1.1031541E-02;  4.0227070E+04;  0.0000000E+00;  7.4638349E-01;  4.0000000E+04;  0.0000000E+00;  3.9999461E+04;  1.2079872E-02;  0.0000000E+00; -1.0483315E-03;  1.1149152E+03;
  8.1138276E-02;  9.9999998E-03;  2.1002173E-01;2985;  2.0970819E-03;  0.0000000E+00;  2.0726249E-04;  1.0023283E+03;  1.0000000E-01;  1.9289331E+03;3; -9.4301872E+00;  0.0000000E+00;  4.4520073E+00;0;  1.1163157E-02;  4.0198176E+04;  0.0000000E+00;  9.2217219E-01;  4.0000000E+04;  0.0000000E+00;  4.0002023E+04;  1.2133115E-02;  0.0000000E+00; -9.6995773E-04;  1.3167510E+03;
  8.1168912E-02;  9.9999998E-03;  2.2006792E-01;2986;  2.1347895E-03;  0.0000000E+00;  2.3459792E-04;  1.0019702E+03;  1.0000000E-01;  1.6322501E+03;3; -7.3139815E+00;  0.0000000E+00;  7.2621651E+00;0;  1.1334917E-02;  4.0162984E+04;  0.0000000E+00;  1.0411273E+00;  4.0000000E+04;  0.0000000E+00;  4.0006703E+04;  1.2134004E-02;  0.0000000E+00; -7.9908746E-04;  1.6059109E+03;
  8.1167556E-02;  9.9999998E-03;  2.3011610E-01;2987;  2.1384771E-03;  0.0000000E+00;  2.5308121E-04;  1.0015566E+03;  1.0000000E-01;  1.2896426E+03;3; -4.6940675E+00;  0.0000000E+00;  1.0795648E+01;0;  1.1539415E-02;  4.0121914E+04;  0.0000000E+00;  1.0792031E+00;  4.0000000E+04;  0.0000000E+00;  4.0011543E+04;  1.2075330E-02;  0.0000000E+00; -5.3591537E-04;  2.0184347E+03;
  9.1051310E-02;  9.9999998E-03;  7.0022874E-02;3032;  4.1127689E-03;  0.0000000E+00; -5.0740611E-05;  1.0021740E+03;  1.0000000E-01;  1.8010355E+03;3; -8.7466679E+00;  0.0000000E+00;  1.4711646E-02;0;  8.4457211E-03;  4.0190461E+04;  0.0000000E+00;  5.3376104E-03;  4.0000000E+04;  0.0000000E+00;  4.0004527E+04;  8.9494931E-03;  0.0000000E+00; -5.0377159E-04;  3.4998563E+02;
  9.1058113E-02;  9.9999998E-03;  8.0030657E-02;3033;  4.1476833E-03;  0.0000000E+00; -9.5620053E-05;  1.0021654E+03;  1.0000000E-01;  1.7940233E+03;3; -8.7432642E+00;  0.0000000E+00;  2.3744744E-03;0;  8.5182618E-03;  4.0189344E+04;  0.0000000E+00;  6.5882294E-03;  4.0000000E+04;  0.0000000E+00;  4.0004867E+04;  8.9050233E-03;  0.0000000E+00; -3.8676179E-04;  4.0648245E+02;
  9.1056645E-02;  9.9999998E-03;  9.0043172E-02;3034;  4.1623455E-03;  0.0000000E+00; -1.2166198E-04;  1.0021721E+03;  1.0000000E-01;  1.7995541E+03;3; -8.6822033E+00;  0.0000000E+00; -1.3962477E-02;0;  8.6873304E-03;  4.0188848E+04;  0.0000000E+00;  6.5755900E-03;  4.0000000E+04;  0.0000000E+00;  4.0006098E+04;  8.9511722E-03;  0.0000000E+00; -2.6384211E-04;  5.6628094E+02;
  9.1045082E-02;  9.9999998E-03;  1.0006153E-01;3035;  4.1509639E-03;  0.0000000E+00; -1.2138550E-04;  1.0021932E+03;  1.0000000E-01;  1.8170350E+03;3; -8.5780420E+00;  0.0000000E+00; -3.1483125E-02;0;  8.9397058E-03;  4.0188961E+04;  0.0000000E+00;  4.6741813E-03;  4.0000000E+04;  0.0000000E+00;  4.0008121E+04;  9.0958048E-03;  0.0000000E+00; -1.5609855E-04;  8.0105493E+02;
  9.1022693E-02;  9.9999998E-03;  1.1008366E-01;3036;  4.1064196E-03;  0.0000000E+00; -8.9465902E-05;  1.0022319E+03;  1.0000000E-01;  1.8490342E+03;3; -8.4543400E+00;  0.0000000E+00; -4.7442731E-02;0;  9.2490623E-03;  4.0190309E+04;  0.0000000E+00;  1.2753357E-03;  4.0000000E+04;  0.0000000E+00;  4.0009727E+04;  9.3352823E-03;  0.0000000E+00; -8.6219588E-05;  1.0550813E+03;
  9.0991430E-02;  9.9999998E-03;  1.2009756E-01;3037;  4.0134722E-03;  0.0000000E+00; -1.8034825E-05;  1.0022851E+03;  1.0000000E-01;  1.8931810E+03;3; -8.3345795E+00;  0.0000000E+00; -6.6345401E-02;0;  9.5797675E-03;  4.0192863E+04;  0.0000000E+00; -1.1557840E-03;  4.0000000E+04;  0.0000000E+00;  4.0012184E+04;  9.6528912E-03;  0.0000000E+00; -7.3124087E-05;  1.2555811E+03;
  9.0957880E-02;  9.9999998E-03;  1.3009597E-01;3038;  3.8567348E-03;  0.0000000E+00;  7.9373640E-05;  1.0023392E+03;  1.0000000E-01;  1.9379205E+03;3; -8.2369604E+00;  0.0000000E+00; -9.7387820E-02;0;  9.8962076E-03;  4.0196367E+04;  0.0000000E+00;  3.0342250E-03;  4.0000000E+04;  0.0000000E+00;  4.0012938E+04;  1.0021916E-02;  0.0000000E+00; -1.2570783E-04;  1.3334819E+03;
  9.0931885E-02;  9.9999998E-03;  1.4008017E-01;3039;  3.6100398E-03;  0.0000000E+00;  1.8957339E-04;  1.0023881E+03;  1.0000000E-01;  1.9785120E+03;3; -8.1608944E+00;  0.0000000E+00; -1.4142668E-01;0;  1.0168654E-02;  4.0200754E+04;  0.0000000E+00;  2.3593040E-02;  4.0000000E+04;  0.0000000E+00;  4.0012875E+04;  1.0409095E-02;  0.0000000E+00; -2.4044122E-04;  1.2483147E+03;
  9.0919346E-02;  9.9999998E-03;  1.5005700E-01;3040;  3.2788855E-03;  0.0000000E+00;  2.9332592E-04;  1.0024196E+03;  1.0000000E-01;  2.0045853E+03;3; -8.1105385E+00;  0.0000000E+00; -1.8403451E-01;0;  1.0382547E-02;  4.0205035E+04;  0.0000000E+00;  7.4237198E-02;  4.0000000E+04;  0.0000000E+00;  4.0010633E+04;  1.0785803E-02;  0.0000000E+00; -4.0325610E-04;  1.0081098E+03;
  9.0924136E-02;  9.9999998E-03;  1.6003411E-01;3041;  3.0005083E-03;  0.0000000E+00;  3.3480002E-04;  1.0024271E+03;  1.0000000E-01;  2.0108074E+03;3; -8.0510273E+00;  0.0000000E+00; -1.7225823E-01;0;  1.0550023E-02;  4.0208094E+04;  0.0000000E+00;  1.6996582E-01;  4.0000000E+04;  0.0000000E+00;  4.0007199E+04;  1.1142421E-02;  0.0000000E+00; -5.9239793E-04;  6.9176825E+02;
  9.0947911E-02;  9.9999998E-03;  1.7001438E-01;3042;  2.7858163E-03;  0.0000000E+00;  3.3663830E-04;  1.0024053E+03;  1.0000000E-01;  1.9927338E+03;3; -7.9301648E+00;  0.0000000E+00; -1.9733820E-03;0;  1.0679796E-02;  4.0208254E+04;  0.0000000E+00;  3.2157871E-01;  4.0000000E+04;  0.0000000E+00;  4.0003988E+04;  1.1461537E-02;  0.0000000E+00; -7.8174088E-04;  5.3010938E+02;
  9.0988606E-02;  9.9999998E-03;  1.8000157E-01;3043;  2.6388506E-03;  0.0000000E+00;  3.2368282E-04;  1.0023378E+03;  1.0000000E-01;  1.9368341E+03;3; -7.6766911E+00;  0.0000000E+00;  4.5164925E-01;0;  1.0786538E-02;  4.0204543E+04;  0.0000000E+00;  5.2976263E-01;  4.0000000E+04;  0.0000000E+00;  4.0002195E+04;  1.1731206E-02;  0.0000000E+00; -9.4466767E-04;  7.5693939E+02;
  9.1041222E-02;  9.9999998E-03;  1.9000295E-01;3044;  2.5577059E-03;  0.0000000E+00;  3.0781396E-04;  1.0022202E+03;  1.0000000E-01;  1.8394541E+03;3; -7.2144613E+00;  0.0000000E+00;  1.3121260E+00;0;  1.0887682E-02;  4.0194855E+04;  0.0000000E+00;  7.8204161E-01;  4.0000000E+04;  0.0000000E+00;  4.0000707E+04;  1.1945212E-02;  0.0000000E+00; -1.0575296E-03;  1.1325336E+03;
  9.1096662E-02;  9.9999998E-03;  2.0002382E-01;3045;  2.5422291E-03;  0.0000000E+00;  2.9590394E-04;  1.0020499E+03;  1.0000000E-01;  1.6983224E+03;3; -6.4616761E+00;  0.0000000E+00;  2.7101159E+00;0;  1.1001582E-02;  4.0179039E+04;  0.0000000E+00;  1.0512310E+00;  4.0000000E+04;  0.0000000E+00;  4.0000746E+04;  1.2103162E-02;  0.0000000E+00; -1.1015792E-03;  1.5032212E+03;
  9.1144718E-02;  9.9999998E-03;  2.1006639E-01;3046;  2.5814208E-03;  0.0000000E+00;  2.7947806E-04;  1.0018126E+03;  1.0000000E-01;  1.5016859E+03;3; -5.3330669E+00;  0.0000000E+00;  4.7766581E+00;0;  1.1144374E-02;  4.0155512E+04;  0.0000000E+00;  1.3016342E+00;  4.0000000E+04;  0.0000000E+00;  4.0002867E+04;  1.2208056E-02;  0.0000000E+00; -1.0636820E-03;  1.8711460E+03;
  9.1175616E-02;  9.9999998E-03;  2.2011960E-01;3047;  2.6598063E-03;  0.0000000E+00;  2.4570897E-04;  1.0015114E+03;  1.0000000E-01;  1.2521128E+03;3; -3.7717295E+00;  0.0000000E+00;  7.6192660E+00;0;  1.1327722E-02;  4.0124945E+04;  0.0000000E+00;  1.5012492E+00;  4.0000000E+04;  0.0000000E+00;  4.0007605E+04;  1.2264351E-02;  0.0000000E+00; -9.3662908E-04;  2.2920190E+03;
  9.1176689E-02;  9.9999998E-03;  2.3016989E-01;3048;  2.7346364E-03;  0.0000000E+00;  1.8933181E-04;  1.0011404E+03;  1.0000000E-01;  9.4476343E+02;3; -1.7472082E+00;  0.0000000E+00;  1.1177929E+01;0;  1.1553331E-02;  4.0087887E+04;  0.0000000E+00;  1.6313328E+00;  4.0000000E+04;  0.0000000E+00;  4.0013852E+04;  1.2272807E-02;  0.0000000E+00; -7.1947521E-04;  2.7805823E+03;
  1.0141010E-01;  9.9999998E-03;  6.9978595E-02;3093;  4.5035342E-03;  0.0000000E+00; -4.6851710E-05;  1.0011904E+03;  1.0000000E-01;  9.8624371E+02;3; -4.6127915E+00;  0.0000000E+00;  1.1570588E-02;0;  7.3730233E-03;  4.0105762E+04;  0.0000000E+00; -2.3435426E-03;  4.0000000E+04;  0.0000000E+00;  4.0007688E+04;  7.7229356E-03;  0.0000000E+00; -3.4991236E-04;  7.8607678E+02;
  1.0140750E-01;  9.9999998E-03;  7.9995230E-02;3094;  4.5099324E-03;  0.0000000E+00; -7.0418966E-05;  1.0011567E+03;  1.0000000E-01;  9.5829388E+02;3; -4.6064787E+00;  0.0000000E+00;  6.1237486E-03;0;  7.4379323E-03;  4.0102883E+04;  0.0000000E+00; -2.0568420E-03;  4.0000000E+04;  0.0000000E+00;  4.0007551E+04;  7.6797679E-03;  0.0000000E+00; -2.4183572E-04;  8.4824518E+02;
  1.0139659E-01;  9.9999998E-03;  9.0014294E-02;3095;  4.5100800E-03;  0.0000000E+00; -8.6542590E-05;  1.0011391E+03;  1.0000000E-01;  9.4367700E+02;3; -4.5684261E+00;  0.0000000E+00; -2.7805442E-04;0;  7.6155993E-03;  4.0100172E+04;  0.0000000E+00; -1.7694918E-03;  4.0000000E+04;  0.0000000E+00;  4.0008566E+04;  7.7457363E-03;  0.0000000E+00; -1.3013711E-04;  1.0224770E+03;
  1.0137546E-01;  9.9999998E-03;  1.0003232E-01;3096;  4.4993116E-03;  0.0000000E+00; -9.2535833E-05;  1.0011335E+03;  1.0000000E-01;  9.3913391E+02;3; -4.5020022E+00;  0.0000000E+00; -7.6875719E-03;0;  7.8952806E-03;  4.0098375E+04;  0.0000000E+00; -1.6253566E-03;  4.0000000E+04;  0.0000000E+00;  4.0010586E+04;  7.9302685E-03;  0.0000000E+00; -3.4988014E-05;  1.2757007E+03;
  1.0133981E-01;  9.9999998E-03;  1.1004761E-01;3097;  4.4730068E-03;  0.0000000E+00; -8.8261186E-05;  1.0011553E+03;  1.0000000E-01;  9.5720752E+02;3; -4.4290814E+00;  0.0000000E+00; -1.6481632E-02;0;  8.2526561E-03;  4.0097797E+04;  0.0000000E+00; -9.6482679E-04;  4.0000000E+04;  0.0000000E+00;  4.0013352E+04;  8.2300482E-03;  0.0000000E+00;  2.2607897E-05;  1.5445958E+03;
  1.0128721E-01;  9.9999998E-03;  1.2005895E-01;3098;  4.4260859E-03;  0.0000000E+00; -7.5904696E-05;  1.0011954E+03;  1.0000000E-01;  9.9039172E+02;3; -4.3666596E+00;  0.0000000E+00; -2.5981892E-02;0;  8.6536743E-03;  4.0099020E+04;  0.0000000E+00;  2.7298008E-03;  4.0000000E+04;  0.0000000E+00;  4.0015254E+04;  8.6281821E-03;  0.0000000E+00;  2.5491916E-05;  1.7500884E+03;
  1.0120761E-01;  9.9999998E-03;  1.3006502E-01;3099;  4.3544052E-03;  0.0000000E+00; -5.6493802E-05;  1.0012426E+03;  1.0000000E-01;  1.0294030E+03;3; -4.3284016E+00;  0.0000000E+00; -3.6244772E-02;0;  9.0620853E-03;  4.0102656E+04;  0.0000000E+00;  1.5117230E-02;  4.0000000E+04;  0.0000000E+00;  4.0016152E+04;  9.0971962E-03;  0.0000000E+00; -3.5110745E-05;  1.8197579E+03;
  1.0114062E-01;  9.9999998E-03;  1.4005813E-01;3100;  4.2641079E-03;  0.0000000E+00; -3.9829891E-05;  1.0013016E+03;  1.0000000E-01;  1.0783893E+03;3; -4.3187661E+00;  0.0000000E+00; -4.6839856E-02;0;  9.4408533E-03;  4.0108160E+04;  0.0000000E+00;  4.6167511E-02;  4.0000000E+04;  0.0000000E+00;  4.0015891E+04;  9.5975101E-03;  0.0000000E+00; -1.5665655E-04;  1.7131447E+03;
  1.0110301E-01;  9.9999998E-03;  1.5004121E-01;3101;  4.1514649E-03;  0.0000000E+00; -2.7519087E-05;  1.0013591E+03;  1.0000000E-01;  1.1259928E+03;3; -4.3237090E+00;  0.0000000E+00; -5.5707626E-02;0;  9.7645167E-03;  4.0114688E+04;  0.0000000E+00;  1.1026612E-01;  4.0000000E+04;  0.0000000E+00;  4.0013602E+04;  1.0091701E-02;  0.0000000E+00; -3.2718369E-04;  1.4426279E+03;
  1.0108369E-01;  9.9999998E-03;  1.6002668E-01;3102;  4.0284973E-03;  0.0000000E+00; -2.4484567E-05;  1.0014128E+03;  1.0000000E-01;  1.1705348E+03;3; -4.3267698E+00;  0.0000000E+00; -1.7682482E-02;0;  1.0024551E-02;  4.0121578E+04;  0.0000000E+00;  2.2336890E-01;  4.0000000E+04;  0.0000000E+00;  4.0010109E+04;  1.0552235E-02;  0.0000000E+00; -5.2768394E-04;  1.0897581E+03;
  1.0108685E-01;  9.9999998E-03;  1.7001686E-01;3103;  3.9024178E-03;  0.0000000E+00; -2.8217717E-05;  1.0014420E+03;  1.0000000E-01;  1.1947317E+03;3; -4.2826133E+00;  0.0000000E+00;  1.6157906E-01;0;  1.0222523E-02;  4.0127062E+04;  0.0000000E+00;  3.9682585E-01;  4.0000000E+04;  0.0000000E+00;  4.0006625E+04;  1.0956103E-02;  0.0000000E+00; -7.3358015E-04;  8.4394904E+02;
  1.0111304E-01;  9.9999998E-03;  1.8001036E-01;3104;  3.7871602E-03;  0.0000000E+00; -4.1412015E-05;  1.0014427E+03;  1.0000000E-01;  1.1952255E+03;3; -4.1420913E+00;  0.0000000E+00;  6.0182971E-01;0;  1.0370870E-02;  4.0129035E+04;  0.0000000E+00;  6.3324553E-01;  4.0000000E+04;  0.0000000E+00;  4.0004027E+04;  1.1289846E-02;  0.0000000E+00; -9.1897638E-04;  9.4922479E+02;
  1.0115799E-01;  9.9999998E-03;  1.9001254E-01;3105;  3.7086688E-03;  0.0000000E+00; -6.5646193E-05;  1.0014075E+03;  1.0000000E-01;  1.1660905E+03;3; -3.8490930E+00;  0.0000000E+00;  1.4285045E+00;0;  1.0489981E-02;  4.0126273E+04;  0.0000000E+00;  9.2205763E-01;  4.0000000E+04;  0.0000000E+00;  4.0002102E+04;  1.1550891E-02;  0.0000000E+00; -1.0609105E-03;  1.3222970E+03;
  1.0121183E-01;  9.9999998E-03;  2.0003082E-01;3106;  3.6783807E-03;  0.0000000E+00; -1.0100087E-04;  1.0013182E+03;  1.0000000E-01;  1.0921173E+03;3; -3.3396161E+00;  0.0000000E+00;  2.7824688E+00;0;  1.0603498E-02;  4.0117086E+04;  0.0000000E+00;  1.2409440E+00;  4.0000000E+04;  0.0000000E+00;  4.0003145E+04;  1.1744814E-02;  0.0000000E+00; -1.1413161E-03;  1.7861359E+03;
  1.0126184E-01;  9.9999998E-03;  2.1006341E-01;3107;  3.6781169E-03;  0.0000000E+00; -1.4228378E-04;  1.0011627E+03;  1.0000000E-01;  9.6323199E+02;3; -2.5409923E+00;  0.0000000E+00;  4.8136377E+00;0;  1.0735317E-02;  4.0100672E+04;  0.0000000E+00;  1.5654064E+00;  4.0000000E+04;  0.0000000E+00;  4.0005930E+04;  1.1882753E-02;  0.0000000E+00; -1.1474361E-03;  2.3180356E+03;
  1.0129342E-01;  9.9999998E-03;  2.2010389E-01;3108;  3.6748548E-03;  0.0000000E+00; -1.7927514E-04;  1.0009358E+03;  1.0000000E-01;  7.7528674E+02;3; -1.3821599E+00;  0.0000000E+00;  7.6510668E+00;0;  1.0908416E-02;  4.0076000E+04;  0.0000000E+00;  1.8797485E+00;  4.0000000E+04;  0.0000000E+00;  4.0010727E+04;  1.1979761E-02;  0.0000000E+00; -1.0713445E-03;  2.9544250E+03;
  1.0130287E-01;  9.9999998E-03;  2.3014443E-01;3109;  3.6430915E-03;  0.0000000E+00; -2.0829117E-04;  1.0006278E+03;  1.0000000E-01;  5.2008405E+02;3;  2.0542601E-01;  0.0000000E+00;  1.1250564E+01;0;  1.1139833E-02;  4.0043926E+04;  0.0000000E+00;  2.1813636E+00;  4.0000000E+04;  0.0000000E+00;  4.0015676E+04;  1.2049439E-02;  0.0000000E+00; -9.0960640E-04;  3.6828821E+03;
  1.1205584E-01;  9.9999998E-03;  6.9936156E-02;3154;  4.6240161E-03;  0.0000000E+00; -3.8289385E-05;  1.0003776E+03;  1.0000000E-01;  3.1288004E+02;3; -2.1825578E+00;  0.0000000E+00;  9.5562842E-03;0;  5.9660389E-03;  4.0034215E+04;  0.0000000E+00; -1.4466863E-02;  4.0000000E+04;  0.0000000E+00;  4.0010344E+04;  6.1636008E-03;  0.0000000E+00; -1.9756200E-04;  1.1945483E+03;
  1.1200779E-01;  9.9999998E-03;  7.9938583E-02;3155;  4.6245800E-03;  0.0000000E+00; -5.5298668E-05;  1.0003242E+03;  1.0000000E-01;  2.6863437E+02;3; -2.1842136E+00;  0.0000000E+00;  8.7973466E-03;0;  6.0241544E-03;  4.0029555E+04;  0.0000000E+00; -1.7247234E-02;  4.0000000E+04;  0.0000000E+00;  4.0010742E+04;  6.1280606E-03;  0.0000000E+00; -1.0390604E-04;  1.2688357E+03;
  1.1191572E-01;  9.9999998E-03;  8.9957707E-02;3156;  4.6215379E-03;  0.0000000E+00; -6.7138120E-05;  1.0002830E+03;  1.0000000E-01;  2.3446251E+02;3; -2.1743593E+00;  0.0000000E+00;  7.0460914E-03;0;  6.2094037E-03;  4.0025059E+04;  0.0000000E+00; -1.8874649E-02;  4.0000000E+04;  0.0000000E+00;  4.0011746E+04;  6.2182005E-03;  0.0000000E+00; -8.7967419E-06;  1.4598392E+03;
  1.1179692E-01;  9.9999998E-03;  9.9980183E-02;3157;  4.6114237E-03;  0.0000000E+00; -7.1096816E-05;  1.0002487E+03;  1.0000000E-01;  2.0601886E+02;3; -2.1517873E+00;  0.0000000E+00;  4.8410292E-03;0;  6.5111113E-03;  4.0021000E+04;  0.0000000E+00; -1.8644728E-02;  4.0000000E+04;  0.0000000E+00;  4.0013738E+04;  6.4416607E-03;  0.0000000E+00;  6.9450769E-05;  1.7299924E+03;
  1.1162376E-01;  9.9999998E-03;  1.1000287E-01;3158;  4.5906277E-03;  0.0000000E+00; -6.7896959E-05;  1.0002470E+03;  1.0000000E-01;  2.0463618E+02;3; -2.1328490E+00;  0.0000000E+00;  2.3277516E-03;0;  6.9103721E-03;  4.0018609E+04;  0.0000000E+00; -1.5296721E-02;  4.0000000E+04;  0.0000000E+00;  4.0016699E+04;  6.7986958E-03;  0.0000000E+00;  1.1167608E-04;  2.0085730E+03;
  1.1151924E-01;  9.9999998E-03;  1.2001323E-01;3159;  4.5567756E-03;  0.0000000E+00; -6.1101440E-05;  1.0002585E+03;  1.0000000E-01;  2.1421617E+02;3; -2.1065648E+00;  0.0000000E+00; -9.5363893E-04;0;  7.3552001E-03;  4.0018062E+04;  0.0000000E+00; -6.2277536E-03;  4.0000000E+04;  0.0000000E+00;  4.0018027E+04;  7.2517064E-03;  0.0000000E+00;  1.0349371E-04;  2.2116387E+03;
  1.1146461E-01;  9.9999998E-03;  1.3000438E-01;3160;  4.5083901E-03;  0.0000000E+00; -5.5779576E-05;  1.0002918E+03;  1.0000000E-01;  2.4177094E+02;3; -2.0868759E+00;  0.0000000E+00; -4.2661200E-03;0;  7.8099351E-03;  4.0019984E+04;  0.0000000E+00;  1.3873598E-02;  4.0000000E+04;  0.0000000E+00;  4.0019438E+04;  7.7731228E-03;  0.0000000E+00;  3.6812547E-05;  2.2640027E+03;
  1.1142521E-01;  9.9999998E-03;  1.3998349E-01;3161;  4.4468394E-03;  0.0000000E+00; -5.8227353E-05;  1.0003389E+03;  1.0000000E-01;  2.8078220E+02;3; -2.0809665E+00;  0.0000000E+00; -8.7603405E-03;0;  8.2439221E-03;  4.0025137E+04;  0.0000000E+00;  5.4059345E-02;  4.0000000E+04;  0.0000000E+00;  4.0018590E+04;  8.3310939E-03;  0.0000000E+00; -8.7171495E-05;  2.1278323E+03;
  1.1139841E-01;  9.9999998E-03;  1.4995822E-01;3162;  4.3758368E-03;  0.0000000E+00; -6.9444141E-05;  1.0004016E+03;  1.0000000E-01;  3.3273132E+02;3; -2.0875659E+00;  0.0000000E+00; -1.0538427E-02;0;  8.6296340E-03;  4.0032898E+04;  0.0000000E+00;  1.2751825E-01;  4.0000000E+04;  0.0000000E+00;  4.0015145E+04;  8.8885194E-03;  0.0000000E+00; -2.5888550E-04;  1.8227159E+03;
  1.1138383E-01;  9.9999998E-03;  1.5994060E-01;3163;  4.2997776E-03;  0.0000000E+00; -8.6531283E-05;  1.0004807E+03;  1.0000000E-01;  3.9821097E+02;3; -2.0940077E+00;  0.0000000E+00;  3.4340933E-02;0;  8.9506786E-03;  4.0042113E+04;  0.0000000E+00;  2.4894486E-01;  4.0000000E+04;  0.0000000E+00;  4.0012277E+04;  9.4125215E-03;  0.0000000E+00; -4.6184298E-04;  1.4340848E+03;
  1.1138073E-01;  9.9999998E-03;  1.6993588E-01;3164;  4.2235819E-03;  0.0000000E+00; -1.1048369E-04;  1.0005574E+03;  1.0000000E-01;  4.6181409E+02;3; -2.0724936E+00;  0.0000000E+00;  2.1218786E-01;0;  9.2024356E-03;  4.0051449E+04;  0.0000000E+00;  4.2935580E-01;  4.0000000E+04;  0.0000000E+00;  4.0008879E+04;  9.8766247E-03;  0.0000000E+00; -6.7418930E-04;  1.1334587E+03;
  1.1139009E-01;  9.9999998E-03;  1.7993487E-01;3165;  4.1547413E-03;  0.0000000E+00; -1.3813788E-04;  1.0006228E+03;  1.0000000E-01;  5.1593604E+02;3; -1.9858786E+00;  0.0000000E+00;  6.3897526E-01;0;  9.3913581E-03;  4.0058820E+04;  0.0000000E+00;  6.7261559E-01;  4.0000000E+04;  0.0000000E+00;  4.0005848E+04;  1.0263587E-02;  0.0000000E+00; -8.7222969E-04;  1.1447118E+03;
  1.1141665E-01;  9.9999998E-03;  1.8993795E-01;3166;  4.0964419E-03;  0.0000000E+00; -1.6990652E-04;  1.0006592E+03;  1.0000000E-01;  5.4615741E+02;3; -1.7877373E+00;  0.0000000E+00;  1.4466991E+00;0;  9.5337061E-03;  4.0061910E+04;  0.0000000E+00;  9.7461039E-01;  4.0000000E+04;  0.0000000E+00;  4.0004766E+04;  1.0568344E-02;  0.0000000E+00; -1.0346378E-03;  1.4791154E+03;
  1.1144816E-01;  9.9999998E-03;  1.9995119E-01;3167;  4.0490120E-03;  0.0000000E+00; -2.0337390E-04;  1.0006501E+03;  1.0000000E-01;  5.3865143E+02;3; -1.4292454E+00;  0.0000000E+00;  2.7909319E+00;0;  9.6563157E-03;  4.0059324E+04;  0.0000000E+00;  1.3285378E+00;  4.0000000E+04;  0.0000000E+00;  4.0005414E+04;  1.0801074E-02;  0.0000000E+00; -1.1447580E-03;  2.0085988E+03;
  1.1147641E-01;  9.9999998E-03;  2.0997261E-01;3168;  4.0083285E-03;  0.0000000E+00; -2.3317678E-04;  1.0005741E+03;  1.0000000E-01;  4.7564087E+02;3; -8.4958744E-01;  0.0000000E+00;  4.8536358E+00;0;  9.7913565E-03;  4.0048957E+04;  0.0000000E+00;  1.7348102E+00;  4.0000000E+04;  0.0000000E+00;  4.0009000E+04;  1.0981999E-02;  0.0000000E+00; -1.1906432E-03;  2.7170686E+03;
  1.1148772E-01;  9.9999998E-03;  2.2000530E-01;3169;  3.9626965E-03;  0.0000000E+00; -2.5804742E-04;  1.0004225E+03;  1.0000000E-01;  3.5001480E+02;3;  2.6024980E-02;  0.0000000E+00;  7.8012815E+00;0;  9.9736666E-03;  4.0029895E+04;  0.0000000E+00;  2.2081060E+00;  4.0000000E+04;  0.0000000E+00;  4.0015262E+04;  1.1138022E-02;  0.0000000E+00; -1.1643554E-03;  3.6346064E+03;
  1.1147085E-01;  9.9999998E-03;  2.3004541E-01;3170;  3.8986551E-03;  0.0000000E+00; -2.7937305E-04;  1.0001741E+03;  1.0000000E-01;  1.4419345E+02;3;  1.2954359E+00;  0.0000000E+00;  1.1582859E+01;0;  1.0233376E-02;  4.0002445E+04;  0.0000000E+00;  2.7722199E+00;  4.0000000E+04;  0.0000000E+00;  4.0021320E+04;  1.1294196E-02;  0.0000000E+00; -1.0608204E-03;  4.7318296E+03;
  1.2205439E-01;  9.9999998E-03;  6.9938615E-02;3215;  4.6078153E-03;  0.0000000E+00; -3.3470842E-05;  9.9990234E+02;  1.0000000E-01; -8.0886604E+01;3; -9.9532443E-01;  0.0000000E+00;  8.4036021E-03;0;  4.4709696E-03;  3.9990781E+04;  0.0000000E+00; -2.6091872E-02;  4.0000000E+04;  0.0000000E+00;  4.0012414E+04;  4.5308750E-03;  0.0000000E+00; -5.9905236E-05;  1.4997942E+03;
  1.2207407E-01;  9.9999998E-03;  7.9937324E-02;3216;  4.6025715E-03;  0.0000000E+00; -4.5421475E-05;  9.9983423E+02;  1.0000000E-01; -1.3732945E+02;3; -9.9177557E-01;  0.0000000E+00;  8.6738868E-03;0;  4.5026820E-03;  3.9984770E+04;  0.0000000E+00; -3.3184417E-02;  4.0000000E+04;  0.0000000E+00;  4.0013605E+04;  4.4828756E-03;  0.0000000E+00;  1.9806626E-05;  1.5926118E+03;
  1.2209500E-01;  9.9999998E-03;  8.9939222E-02;3217;  4.5963335E-03;  0.0000000E+00; -5.1607454E-05;  9.9976355E+02;  1.0000000E-01; -1.9589569E+02;3; -9.7951096E-01;  0.0000000E+00;  9.0256399E-03;0;  4.6578897E-03;  3.9977668E+04;  0.0000000E+00; -3.8953941E-02;  4.0000000E+04;  0.0000000E+00;  4.0014172E+04;  4.5580831E-03;  0.0000000E+00;  9.9806683E-05;  1.8029490E+03;
  1.2211152E-01;  9.9999998E-03;  9.9940568E-02;3218;  4.5867027E-03;  0.0000000E+00; -5.0328053E-05;  9.9970276E+02;  1.0000000E-01; -2.4626463E+02;3; -9.6146250E-01;  0.0000000E+00;  1.0126499E-02;0;  4.9317898E-03;  3.9971320E+04;  0.0000000E+00; -4.1605808E-02;  4.0000000E+04;  0.0000000E+00;  4.0016723E+04;  4.7685476E-03;  0.0000000E+00;  1.6324215E-04;  2.0886301E+03;
  1.2210781E-01;  9.9999998E-03;  1.0993819E-01;3219;  4.5709931E-03;  0.0000000E+00; -4.3244265E-05;  9.9966168E+02;  1.0000000E-01; -2.8028836E+02;3; -9.4308984E-01;  0.0000000E+00;  1.1056069E-02;0;  5.3066211E-03;  3.9965641E+04;  0.0000000E+00; -3.8743749E-02;  4.0000000E+04;  0.0000000E+00;  4.0019281E+04;  5.1134098E-03;  0.0000000E+00;  1.9321110E-04;  2.3745471E+03;
  1.2202085E-01;  9.9999998E-03;  1.1994426E-01;3220;  4.5475196E-03;  0.0000000E+00; -3.4527726E-05;  9.9964032E+02;  1.0000000E-01; -2.9796689E+02;3; -9.3235677E-01;  0.0000000E+00;  1.1896993E-02;0;  5.7613151E-03;  3.9962496E+04;  0.0000000E+00; -2.6962053E-02;  4.0000000E+04;  0.0000000E+00;  4.0021059E+04;  5.5853133E-03;  0.0000000E+00;  1.7600191E-04;  2.5731453E+03;
  1.2187876E-01;  9.9999998E-03;  1.2994367E-01;3221;  4.5142337E-03;  0.0000000E+00; -3.0444389E-05;  9.9964655E+02;  1.0000000E-01; -2.9283124E+02;3; -9.3182003E-01;  0.0000000E+00;  1.2291365E-02;0;  6.2528206E-03;  3.9962770E+04;  0.0000000E+00; -1.4154487E-03;  4.0000000E+04;  0.0000000E+00;  4.0021984E+04;  6.1478629E-03;  0.0000000E+00;  1.0495751E-04;  2.6067366E+03;
  1.2172656E-01;  9.9999998E-03;  1.3992999E-01;3222;  4.4705761E-03;  0.0000000E+00; -3.5553207E-05;  9.9967950E+02;  1.0000000E-01; -2.6552335E+02;3; -9.3963242E-01;  0.0000000E+00;  1.1807166E-02;0;  6.7357766E-03;  3.9967176E+04;  0.0000000E+00;  4.5533244E-02;  4.0000000E+04;  0.0000000E+00;  4.0019297E+04;  6.7546684E-03;  0.0000000E+00; -1.8891940E-05;  2.4397200E+03;
  1.2161493E-01;  9.9999998E-03;  1.4990811E-01;3223;  4.4177626E-03;  0.0000000E+00; -4.9459086E-05;  9.9974908E+02;  1.0000000E-01; -2.0789536E+02;3; -9.5122111E-01;  0.0000000E+00;  1.5074554E-02;0;  7.1708369E-03;  3.9975129E+04;  0.0000000E+00;  1.2471272E-01;  4.0000000E+04;  0.0000000E+00;  4.0017598E+04;  7.3585319E-03;  0.0000000E+00; -1.8769506E-04;  2.0995955E+03;
  1.2155241E-01;  9.9999998E-03;  1.5989062E-01;3224;  4.3594218E-03;  0.0000000E+00; -7.0613532E-05;  9.9983905E+02;  1.0000000E-01; -1.3332956E+02;3; -9.5823091E-01;  0.0000000E+00;  6.2732667E-02;0;  7.5366367E-03;  3.9985637E+04;  0.0000000E+00;  2.4780005E-01;  4.0000000E+04;  0.0000000E+00;  4.0014234E+04;  7.9236068E-03;  0.0000000E+00; -3.8697035E-04;  1.6775470E+03;
  1.2153723E-01;  9.9999998E-03;  1.6988584E-01;3225;  4.2994926E-03;  0.0000000E+00; -9.8812598E-05;  9.9994226E+02;  1.0000000E-01; -4.7850498E+01;3; -9.4210070E-01;  0.0000000E+00;  2.4198116E-01;0;  7.8249481E-03;  3.9997863E+04;  0.0000000E+00;  4.2416063E-01;  4.0000000E+04;  0.0000000E+00;  4.0010062E+04;  8.4224558E-03;  0.0000000E+00; -5.9750769E-04;  1.3372998E+03;
  1.2154984E-01;  9.9999998E-03;  1.7988372E-01;3226;  4.2414372E-03;  0.0000000E+00; -1.3283401E-04;  1.0000470E+03;  1.0000000E-01;  3.8912479E+01;3; -8.7880719E-01;  0.0000000E+00;  6.6705948E-01;0;  8.0416193E-03;  4.0008504E+04;  0.0000000E+00;  6.5970069E-01;  4.0000000E+04;  0.0000000E+00;  4.0007113E+04;  8.8404221E-03;  0.0000000E+00; -7.9880265E-04;  1.2884166E+03;
  1.2157382E-01;  9.9999998E-03;  1.8988295E-01;3227;  4.1885008E-03;  0.0000000E+00; -1.6862128E-04;  1.0001378E+03;  1.0000000E-01;  1.1416961E+02;3; -7.3807192E-01;  0.0000000E+00;  1.4754878E+00;0;  8.2047926E-03;  4.0016230E+04;  0.0000000E+00;  9.6146733E-01;  4.0000000E+04;  0.0000000E+00;  4.0006250E+04;  9.1774836E-03;  0.0000000E+00; -9.7269122E-04;  1.5944567E+03;
  1.2159115E-01;  9.9999998E-03;  1.9988714E-01;3228;  4.1398266E-03;  0.0000000E+00; -2.0336061E-04;  1.0001947E+03;  1.0000000E-01;  1.6127939E+02;3; -4.8301533E-01;  0.0000000E+00;  2.8481724E+00;0;  8.3440598E-03;  4.0018188E+04;  0.0000000E+00;  1.3464622E+00;  4.0000000E+04;  0.0000000E+00;  4.0008121E+04;  9.4492137E-03;  0.0000000E+00; -1.1051544E-03;  2.1933425E+03;
  1.2159263E-01;  9.9999998E-03;  2.0989907E-01;3229;  4.0914072E-03;  0.0000000E+00; -2.3422006E-04;  1.0001838E+03;  1.0000000E-01;  1.5229199E+02;3; -5.9071507E-02;  0.0000000E+00;  5.0058804E+00;0;  8.4965266E-03;  4.0012414E+04;  0.0000000E+00;  1.8500155E+00;  4.0000000E+04;  0.0000000E+00;  4.0012586E+04;  9.6827382E-03;  0.0000000E+00; -1.1862111E-03;  3.0976829E+03;
  1.2158243E-01;  9.9999998E-03;  2.1992329E-01;3230;  4.0346170E-03;  0.0000000E+00; -2.5896254E-04;  1.0000834E+03;  1.0000000E-01;  6.9133850E+01;3;  6.1944205E-01;  0.0000000E+00;  8.1436262E+00;0;  8.7022465E-03;  3.9997465E+04;  0.0000000E+00;  2.5269525E+00;  4.0000000E+04;  0.0000000E+00;  4.0020160E+04;  9.9108769E-03;  0.0000000E+00; -1.2086304E-03;  4.3444312E+03;
  1.2154746E-01;  9.9999998E-03;  2.2995590E-01;3231;  3.9581647E-03;  0.0000000E+00; -2.7922305E-04;  9.9987085E+02;  1.0000000E-01; -1.0700932E+02;3;  1.6785334E+00;  0.0000000E+00;  1.2215642E+01;0;  9.0014627E-03;  3.9972418E+04;  0.0000000E+00;  3.4363639E+00;  4.0000000E+04;  0.0000000E+00;  4.0026551E+04;  1.0167779E-02;  0.0000000E+00; -1.1663169E-03;  5.9132974E+03;
  1.3191986E-01;  9.9999998E-03;  6.9929563E-02;3276;  4.5037302E-03;  0.0000000E+00; -2.8827071E-05;  9.9970020E+02;  1.0000000E-01; -2.4838803E+02;3; -4.4146055E-01;  0.0000000E+00;  8.7233530E-03;0;  2.9783419E-03;  3.9970074E+04;  0.0000000E+00; -3.2434884E-02;  4.0000000E+04;  0.0000000E+00;  4.0013672E+04;  2.9085861E-03;  0.0000000E+00;  6.9755741E-05;  1.6540614E+03;
  1.3194723E-01;  9.9999998E-03;  7.9931013E-02;3277;  4.4926214E-03;  0.0000000E+00; -3.5080233E-05;  9.9963190E+02;  1.0000000E-01; -3.0497903E+02;3; -4.4126657E-01;  0.0000000E+00;  9.9812308E-03;0;  2.9898952E-03;  3.9963922E+04;  0.0000000E+00; -4.2932566E-02;  4.0000000E+04;  0.0000000E+00;  4.0014719E+04;  2.8553051E-03;  0.0000000E+00;  1.3459011E-04;  1.7665188E+03;
  1.3198031E-01;  9.9999998E-03;  8.9935012E-02;3278;  4.4821398E-03;  0.0000000E+00; -3.4977995E-05;  9.9955951E+02;  1.0000000E-01; -3.6492795E+02;3; -4.3805209E-01;  0.0000000E+00;  1.1389142E-02;0;  3.1244711E-03;  3.9956863E+04;  0.0000000E+00; -5.2878689E-02;  4.0000000E+04;  0.0000000E+00;  4.0016449E+04;  2.9251007E-03;  0.0000000E+00;  1.9937036E-04;  1.9941556E+03;
  1.3201424E-01;  9.9999998E-03;  9.9937834E-02;3279;  4.4710669E-03;  0.0000000E+00; -2.8029266E-05;  9.9949548E+02;  1.0000000E-01; -4.1796350E+02;3; -4.3312675E-01;  0.0000000E+00;  1.3385139E-02;0;  3.3792634E-03;  3.9949254E+04;  0.0000000E+00; -5.9926026E-02;  4.0000000E+04;  0.0000000E+00;  4.0018266E+04;  3.1303368E-03;  0.0000000E+00;  2.4892672E-04;  2.2912920E+03;
  1.3204411E-01;  9.9999998E-03;  1.0993358E-01;3280;  4.4579036E-03;  0.0000000E+00; -1.6924345E-05;  9.9943726E+02;  1.0000000E-01; -4.6620905E+02;3; -4.2723998E-01;  0.0000000E+00;  1.5238880E-02;0;  3.7368841E-03;  3.9943008E+04;  0.0000000E+00; -6.0878847E-02;  4.0000000E+04;  0.0000000E+00;  4.0020770E+04;  3.4685393E-03;  0.0000000E+00;  2.6834468E-04;  2.5796709E+03;
  1.3206562E-01;  9.9999998E-03;  1.1991855E-01;3281;  4.4412799E-03;  0.0000000E+00; -5.8816995E-06;  9.9940350E+02;  1.0000000E-01; -4.9420825E+02;3; -4.2244834E-01;  0.0000000E+00;  1.7309858E-02;0;  4.1682464E-03;  3.9938746E+04;  0.0000000E+00; -5.1563624E-02;  4.0000000E+04;  0.0000000E+00;  4.0022062E+04;  3.9220834E-03;  0.0000000E+00;  2.4616320E-04;  2.7680276E+03;
  1.3207147E-01;  9.9999998E-03;  1.2989128E-01;3282;  4.4195014E-03;  0.0000000E+00;  2.1889446E-07;  9.9938593E+02;  1.0000000E-01; -5.0872635E+02;3; -4.2020237E-01;  0.0000000E+00;  1.9574849E-02;0;  4.6381759E-03;  3.9937332E+04;  0.0000000E+00; -2.6510280E-02;  4.0000000E+04;  0.0000000E+00;  4.0022512E+04;  4.4616600E-03;  0.0000000E+00;  1.7651610E-04;  2.7799990E+03;
  1.3203859E-01;  9.9999998E-03;  1.3985816E-01;3283;  4.3910798E-03;  0.0000000E+00; -3.9226693E-06;  9.9940179E+02;  1.0000000E-01; -4.9559091E+02;3; -4.2209807E-01;  0.0000000E+00;  2.0532792E-02;0;  5.1132920E-03;  3.9940449E+04;  0.0000000E+00;  2.1409422E-02;  4.0000000E+04;  0.0000000E+00;  4.0020895E+04;  5.0539672E-03;  0.0000000E+00;  5.9324910E-05;  2.5847620E+03;
  1.3192987E-01;  9.9999998E-03;  1.4984198E-01;3284;  4.3566036E-03;  0.0000000E+00; -1.8441398E-05;  9.9944861E+02;  1.0000000E-01; -4.5682660E+02;3; -4.2823052E-01;  0.0000000E+00;  2.5229393E-02;0;  5.5671395E-03;  3.9947488E+04;  0.0000000E+00;  1.0054406E-01;  4.0000000E+04;  0.0000000E+00;  4.0017617E+04;  5.6676907E-03;  0.0000000E+00; -1.0055135E-04;  2.2174299E+03;
  1.3179725E-01;  9.9999998E-03;  1.5983908E-01;3285;  4.3160985E-03;  0.0000000E+00; -4.1121915E-05;  9.9953351E+02;  1.0000000E-01; -3.8645819E+02;3; -4.3253067E-01;  0.0000000E+00;  7.6243341E-02;0;  5.9677679E-03;  3.9958129E+04;  0.0000000E+00;  2.1867354E-01;  4.0000000E+04;  0.0000000E+00;  4.0014293E+04;  6.2582255E-03;  0.0000000E+00; -2.9045786E-04;  1.7702925E+03;
  1.3171797E-01;  9.9999998E-03;  1.6984704E-01;3286;  4.2705797E-03;  0.0000000E+00; -7.1152026E-05;  9.9964923E+02;  1.0000000E-01; -2.9060907E+02;3; -4.2119905E-01;  0.0000000E+00;  2.6223615E-01;0;  6.2912153E-03;  3.9971012E+04;  0.0000000E+00;  3.8293910E-01;  4.0000000E+04;  0.0000000E+00;  4.0010156E+04;  6.7841518E-03;  0.0000000E+00; -4.9293635E-04;  1.4020966E+03;
  1.3168451E-01;  9.9999998E-03;  1.7985426E-01;3287;  4.2221961E-03;  0.0000000E+00; -1.0697655E-04;  9.9978113E+02;  1.0000000E-01; -1.8132820E+02;3; -3.7885633E-01;  0.0000000E+00;  6.9907337E-01;0;  6.5392554E-03;  3.9983684E+04;  0.0000000E+00;  6.0366523E-01;  4.0000000E+04;  0.0000000E+00;  4.0008086E+04;  7.2298292E-03;  0.0000000E+00; -6.9057365E-04;  1.3207373E+03;
  1.3167419E-01;  9.9999998E-03;  1.8985757E-01;3288;  4.1733999E-03;  0.0000000E+00; -1.4490349E-04;  9.9990436E+02;  1.0000000E-01; -7.9257019E+01;3; -2.8714600E-01;  0.0000000E+00;  1.5315760E+00;0;  6.7299660E-03;  3.9993941E+04;  0.0000000E+00;  9.0272826E-01;  4.0000000E+04;  0.0000000E+00;  4.0007469E+04;  7.5988085E-03;  0.0000000E+00; -8.6884241E-04;  1.6266675E+03;
  1.3166788E-01;  9.9999998E-03;  1.9985951E-01;3289;  4.1236258E-03;  0.0000000E+00; -1.8147987E-04;  9.9999469E+02;  1.0000000E-01; -4.3949375E+00;3; -1.1793774E-01;  0.0000000E+00;  2.9615107E+00;0;  6.8939831E-03;  3.9998309E+04;  0.0000000E+00;  1.3242456E+00;  4.0000000E+04;  0.0000000E+00;  4.0010289E+04;  7.9112258E-03;  0.0000000E+00; -1.0172427E-03;  2.3139941E+03;
  1.3164932E-01;  9.9999998E-03;  2.0986180E-01;3290;  4.0680063E-03;  0.0000000E+00; -2.1309238E-04;  1.0000239E+03;  1.0000000E-01;  1.9851290E+01;3;  1.8141177E-01;  0.0000000E+00;  5.2530980E+00;0;  7.0720925E-03;  3.9994871E+04;  0.0000000E+00;  1.9419060E+00;  4.0000000E+04;  0.0000000E+00;  4.0015707E+04;  8.2008699E-03;  0.0000000E+00; -1.1287774E-03;  3.4328032E+03;
  1.3161036E-01;  9.9999998E-03;  2.1986930E-01;3291;  3.9993529E-03;  0.0000000E+00; -2.3771817E-04;  9.9994879E+02;  1.0000000E-01; -4.2418552E+01;3;  7.1288425E-01;  0.0000000E+00;  8.6345339E+00;0;  7.3106857E-03;  3.9981211E+04;  0.0000000E+00;  2.8539383E+00;  4.0000000E+04;  0.0000000E+00;  4.0024348E+04;  8.5085630E-03;  0.0000000E+00; -1.1978771E-03;  5.0452100E+03;
  1.3154255E-01;  9.9999998E-03;  2.2988132E-01;3292;  3.9087487E-03;  0.0000000E+00; -2.5742204E-04;  9.9975208E+02;  1.0000000E-01; -2.0537691E+02;3;  1.6405014E+00;  0.0000000E+00;  1.3100959E+01;0;  7.6559950E-03;  3.9957160E+04;  0.0000000E+00;  4.1605973E+00;  4.0000000E+04;  0.0000000E+00;  4.0031441E+04;  8.8739917E-03;  0.0000000E+00; -1.2179968E-03;  7.1712319E+03;
  1.4174619E-01;  9.9999998E-03;  6.9913849E-02;3337;  4.3589664E-03;  0.0000000E+00; -2.3321796E-05;  9.9971014E+02;  1.0000000E-01; -2.4014136E+02;3; -2.2591656E-01;  0.0000000E+00;  9.4355838E-03;0;  1.6300200E-03;  3.9967176E+04;  0.0000000E+00; -3.1743925E-02;  4.0000000E+04;  0.0000000E+00;  4.0013082E+04;  1.4384260E-03;  0.0000000E+00;  1.9159402E-04;  1.6264277E+03;
  1.4177883E-01;  9.9999998E-03;  7.9918087E-02;3338;  4.3422985E-03;  0.0000000E+00; -2.4833511E-05;  9.9965710E+02;  1.0000000E-01; -2.8409073E+02;3; -2.2820809E-01;  0.0000000E+00;  1.1067051E-02;0;  1.6202128E-03;  3.9962090E+04;  0.0000000E+00; -4.3162651E-02;  4.0000000E+04;  0.0000000E+00;  4.0014246E+04;  1.3783626E-03;  0.0000000E+00;  2.4185020E-04;  1.7564355E+03;
  1.4181834E-01;  9.9999998E-03;  8.9925796E-02;3339;  4.3279803E-03;  0.0000000E+00; -1.9080924E-05;  9.9959473E+02;  1.0000000E-01; -3.3574359E+02;3; -2.2921713E-01;  0.0000000E+00;  1.3266406E-02;0;  1.7314504E-03;  3.9955809E+04;  0.0000000E+00; -5.5441905E-02;  4.0000000E+04;  0.0000000E+00;  4.0016215E+04;  1.4386899E-03;  0.0000000E+00;  2.9276058E-04;  1.9962388E+03;
  1.4186151E-01;  9.9999998E-03;  9.9931963E-02;3340;  4.3158391E-03;  0.0000000E+00; -6.4457749E-06;  9.9953857E+02;  1.0000000E-01; -3.8226080E+02;3; -2.2966075E-01;  0.0000000E+00;  1.5486601E-02;0;  1.9626550E-03;  3.9948957E+04;  0.0000000E+00; -6.6481076E-02;  4.0000000E+04;  0.0000000E+00;  4.0018730E+04;  1.6318667E-03;  0.0000000E+00;  3.3078837E-04;  2.2981714E+03;
  1.4190336E-01;  9.9999998E-03;  1.0993095E-01;3341;  4.3049217E-03;  0.0000000E+00;  1.0421229E-05;  9.9948724E+02;  1.0000000E-01; -4.2482748E+02;3; -2.3011574E-01;  0.0000000E+00;  1.8427286E-02;0;  2.2988752E-03;  3.9943281E+04;  0.0000000E+00; -7.2978944E-02;  4.0000000E+04;  0.0000000E+00;  4.0020891E+04;  1.9560938E-03;  0.0000000E+00;  3.4278131E-04;  2.5839583E+03;
  1.4193942E-01;  9.9999998E-03;  1.1991829E-01;3342;  4.2936839E-03;  0.0000000E+00;  2.6072528E-05;  9.9945258E+02;  1.0000000E-01; -4.5351804E+02;3; -2.3125431E-01;  0.0000000E+00;  2.0459060E-02;0;  2.7136276E-03;  3.9939254E+04;  0.0000000E+00; -7.0318833E-02;  4.0000000E+04;  0.0000000E+00;  4.0021852E+04;  2.3948059E-03;  0.0000000E+00;  3.1882167E-04;  2.7624673E+03;
  1.4196648E-01;  9.9999998E-03;  1.2989259E-01;3343;  4.2806994E-03;  0.0000000E+00;  3.4633118E-05;  9.9943610E+02;  1.0000000E-01; -4.6719666E+02;3; -2.3257534E-01;  0.0000000E+00;  2.2199698E-02;0;  3.1732295E-03;  3.9938168E+04;  0.0000000E+00; -5.2549183E-02;  4.0000000E+04;  0.0000000E+00;  4.0022031E+04;  2.9194886E-03;  0.0000000E+00;  2.5374084E-04;  2.7577910E+03;
  1.4198108E-01;  9.9999998E-03;  1.3985592E-01;3344;  4.2640031E-03;  0.0000000E+00;  3.1940846E-05;  9.9944226E+02;  1.0000000E-01; -4.6206100E+02;3; -2.3398732E-01;  0.0000000E+00;  2.3677940E-02;0;  3.6418026E-03;  3.9940992E+04;  0.0000000E+00; -1.2638157E-02;  4.0000000E+04;  0.0000000E+00;  4.0020445E+04;  3.4947607E-03;  0.0000000E+00;  1.4704192E-04;  2.5405425E+03;
  1.4197841E-01;  9.9999998E-03;  1.4981544E-01;3345;  4.2420179E-03;  0.0000000E+00;  1.8552268E-05;  9.9948505E+02;  1.0000000E-01; -4.2660522E+02;3; -2.3589189E-01;  0.0000000E+00;  2.9874410E-02;0;  4.0866039E-03;  3.9947543E+04;  0.0000000E+00;  5.6440450E-02;  4.0000000E+04;  0.0000000E+00;  4.0015887E+04;  4.0839897E-03;  0.0000000E+00;  2.6142345E-06;  2.1477490E+03;
  1.4194699E-01;  9.9999998E-03;  1.5978637E-01;3346;  4.2139515E-03;  0.0000000E+00; -3.2894357E-06;  9.9956122E+02;  1.0000000E-01; -3.6354529E+02;3; -2.3562178E-01;  0.0000000E+00;  8.5107148E-02;0;  4.4853194E-03;  3.9957844E+04;  0.0000000E+00;  1.6026512E-01;  4.0000000E+04;  0.0000000E+00;  4.0013262E+04;  4.6550063E-03;  0.0000000E+00; -1.6968703E-04;  1.6770085E+03;
  1.4187813E-01;  9.9999998E-03;  1.6979329E-01;3347;  4.1794651E-03;  0.0000000E+00; -3.2259002E-05;  9.9967004E+02;  1.0000000E-01; -2.7337497E+02;3; -2.2771943E-01;  0.0000000E+00;  2.8136232E-01;0;  4.8262859E-03;  3.9970297E+04;  0.0000000E+00;  3.0556878E-01;  4.0000000E+04;  0.0000000E+00;  4.0009871E+04;  5.1831841E-03;  0.0000000E+00; -3.5689832E-04;  1.2889071E+03;
  1.4178631E-01;  9.9999998E-03;  1.7982627E-01;3348;  4.1392138E-03;  0.0000000E+00; -6.7085552E-05;  9.9980328E+02;  1.0000000E-01; -1.6295836E+02;3; -2.0579214E-01;  0.0000000E+00;  7.3814636E-01;0;  5.1060328E-03;  3.9983168E+04;  0.0000000E+00;  5.0901896E-01;  4.0000000E+04;  0.0000000E+00;  4.0006973E+04;  5.6511699E-03;  0.0000000E+00; -5.4513686E-04;  1.1943864E+03;
  1.4171684E-01;  9.9999998E-03;  1.8984810E-01;3349;  4.0928251E-03;  0.0000000E+00; -1.0409862E-04;  9.9993542E+02;  1.0000000E-01; -5.3479969E+01;3; -1.6131945E-01;  0.0000000E+00;  1.6060629E+00;0;  5.3308909E-03;  3.9993793E+04;  0.0000000E+00;  8.0894560E-01;  4.0000000E+04;  0.0000000E+00;  4.0007031E+04;  6.0529374E-03;  0.0000000E+00; -7.2204659E-04;  1.5247101E+03;
  1.4167517E-01;  9.9999998E-03;  1.9985415E-01;3350;  4.0396415E-03;  0.0000000E+00; -1.3923085E-04;  1.0000387E+03;  1.0000000E-01;  3.2097858E+01;3; -7.3843561E-02;  0.0000000E+00;  3.1040289E+00;0;  5.5276509E-03;  3.9998926E+04;  0.0000000E+00;  1.2759631E+00;  4.0000000E+04;  0.0000000E+00;  4.0010484E+04;  6.4080614E-03;  0.0000000E+00; -8.8041066E-04;  2.3157256E+03;
  1.4163625E-01;  9.9999998E-03;  2.0985031E-01;3351;  3.9751907E-03;  0.0000000E+00; -1.6880046E-04;  1.0000728E+03;  1.0000000E-01;  6.0343971E+01;3;  1.1469089E-01;  0.0000000E+00;  5.5246458E+00;0;  5.7390351E-03;  3.9995633E+04;  0.0000000E+00;  2.0174496E+00;  4.0000000E+04;  0.0000000E+00;  4.0017902E+04;  6.7558456E-03;  0.0000000E+00; -1.0168103E-03;  3.6562930E+03;
  1.4157696E-01;  9.9999998E-03;  2.1984515E-01;3352;  3.8915863E-03;  0.0000000E+00; -1.9003759E-04;  1.0000062E+03;  1.0000000E-01;  5.1356573E+00;3;  5.3136575E-01;  0.0000000E+00;  9.1565514E+00;0;  6.0153902E-03;  3.9981574E+04;  0.0000000E+00;  3.1703544E+00;  4.0000000E+04;  0.0000000E+00;  4.0027406E+04;  7.1433550E-03;  0.0000000E+00; -1.1279648E-03;  5.6465601E+03;
  1.4148976E-01;  9.9999998E-03;  2.2983940E-01;3353;  3.7813506E-03;  0.0000000E+00; -2.0557101E-04;  9.9980676E+02;  1.0000000E-01; -1.6009424E+02;3;  1.3955204E+00;  0.0000000E+00;  1.4050826E+01;0;  6.4060302E-03;  3.9956086E+04;  0.0000000E+00;  4.8766017E+00;  4.0000000E+04;  0.0000000E+00;  4.0035773E+04;  7.6134773E-03;  0.0000000E+00; -1.2074471E-03;  8.3655264E+03;
  1.5157093E-01;  9.9999998E-03;  6.9911554E-02;3398;  4.1897786E-03;  0.0000000E+00; -1.6682457E-05;  9.9984436E+02;  1.0000000E-01; -1.2893463E+02;3; -1.7317863E-01;  0.0000000E+00;  1.0516280E-02;0;  5.6677143E-04;  3.9976602E+04;  0.0000000E+00; -2.6592743E-02;  4.0000000E+04;  0.0000000E+00;  4.0011332E+04;  2.6288908E-04;  0.0000000E+00;  3.0388235E-04;  1.4134893E+03;
  1.5161069E-01;  9.9999998E-03;  7.9911083E-02;3399;  4.1672541E-03;  0.0000000E+00; -1.5481064E-05;  9.9981342E+02;  1.0000000E-01; -1.5456352E+02;3; -1.7582077E-01;  0.0000000E+00;  1.2153604E-02;0;  5.3469243E-04;  3.9973086E+04;  0.0000000E+00; -3.6017694E-02;  4.0000000E+04;  0.0000000E+00;  4.0013203E+04;  1.9464872E-04;  0.0000000E+00;  3.4004368E-04;  1.5558840E+03;
  1.5165554E-01;  9.9999998E-03;  8.9914300E-02;3400;  4.1488805E-03;  0.0000000E+00; -6.2195941E-06;  9.9977698E+02;  1.0000000E-01; -1.8478490E+02;3; -1.7827366E-01;  0.0000000E+00;  1.4180554E-02;0;  6.2029267E-04;  3.9968133E+04;  0.0000000E+00; -4.7712322E-02;  4.0000000E+04;  0.0000000E+00;  4.0015195E+04;  2.4177291E-04;  0.0000000E+00;  3.7851976E-04;  1.7986166E+03;
  1.5170480E-01;  9.9999998E-03;  9.9919617E-02;3401;  4.1356655E-03;  0.0000000E+00;  1.1617009E-05;  9.9974158E+02;  1.0000000E-01; -2.1411740E+02;3; -1.8033867E-01;  0.0000000E+00;  1.7419277E-02;0;  8.2438276E-04;  3.9963414E+04;  0.0000000E+00; -6.0654227E-02;  4.0000000E+04;  0.0000000E+00;  4.0017750E+04;  4.1695166E-04;  0.0000000E+00;  4.0743113E-04;  2.0953154E+03;
  1.5175270E-01;  9.9999998E-03;  1.0992233E-01;3402;  4.1275071E-03;  0.0000000E+00;  3.4358029E-05;  9.9970691E+02;  1.0000000E-01; -2.4280795E+02;3; -1.8214798E-01;  0.0000000E+00;  1.9944876E-02;0;  1.1349603E-03;  3.9959215E+04;  0.0000000E+00; -7.2390676E-02;  4.0000000E+04;  0.0000000E+00;  4.0019523E+04;  7.1970769E-04;  0.0000000E+00;  4.1525267E-04;  2.3711428E+03;
  1.5179464E-01;  9.9999998E-03;  1.1991502E-01;3403;  4.1234884E-03;  0.0000000E+00;  5.6078679E-05;  9.9968671E+02;  1.0000000E-01; -2.5954822E+02;3; -1.8389603E-01;  0.0000000E+00;  2.2354264E-02;0;  1.5287062E-03;  3.9956453E+04;  0.0000000E+00; -7.8799754E-02;  4.0000000E+04;  0.0000000E+00;  4.0020609E+04;  1.1353575E-03;  0.0000000E+00;  3.9334866E-04;  2.5383391E+03;
  1.5182921E-01;  9.9999998E-03;  1.2989442E-01;3404;  4.1205972E-03;  0.0000000E+00;  6.8928377E-05;  9.9967816E+02;  1.0000000E-01; -2.6665912E+02;3; -1.8560563E-01;  0.0000000E+00;  2.3949351E-02;0;  1.9744555E-03;  3.9956301E+04;  0.0000000E+00; -7.4068293E-02;  4.0000000E+04;  0.0000000E+00;  4.0020812E+04;  1.6374550E-03;  0.0000000E+00;  3.3700062E-04;  2.5228611E+03;
  1.5185389E-01;  9.9999998E-03;  1.3986327E-01;3405;  4.1156928E-03;  0.0000000E+00;  6.9345311E-05;  9.9968896E+02;  1.0000000E-01; -2.5767172E+02;3; -1.8707444E-01;  0.0000000E+00;  2.5325093E-02;0;  2.4375990E-03;  3.9959359E+04;  0.0000000E+00; -5.1205676E-02;  4.0000000E+04;  0.0000000E+00;  4.0017988E+04;  2.1925429E-03;  0.0000000E+00;  2.4505614E-04;  2.2960776E+03;
  1.5186870E-01;  9.9999998E-03;  1.4982729E-01;3406;  4.1062455E-03;  0.0000000E+00;  5.8829282E-05;  9.9972595E+02;  1.0000000E-01; -2.2705531E+02;3; -1.8869029E-01;  0.0000000E+00;  3.1929154E-02;0;  2.8843679E-03;  3.9966090E+04;  0.0000000E+00; -3.4614722E-03;  4.0000000E+04;  0.0000000E+00;  4.0014883E+04;  2.7645719E-03;  0.0000000E+00;  1.1979591E-04;  1.8938142E+03;
  1.5187378E-01;  9.9999998E-03;  1.5979789E-01;3407;  4.0901275E-03;  0.0000000E+00;  3.9723851E-05;  9.9979852E+02;  1.0000000E-01; -1.6690886E+02;3; -1.8911000E-01;  0.0000000E+00;  9.2710242E-02;0;  3.2897608E-03;  3.9976309E+04;  0.0000000E+00;  7.4635021E-02;  4.0000000E+04;  0.0000000E+00;  4.0011297E+04;  3.3207422E-03;  0.0000000E+00; -3.0981431E-05;  1.4097267E+03;
  1.5186298E-01;  9.9999998E-03;  1.6979475E-01;3408;  4.0655304E-03;  0.0000000E+00;  1.3776408E-05;  9.9990436E+02;  1.0000000E-01; -7.9257019E+01;3; -1.8824351E-01;  0.0000000E+00;  3.0120665E-01;0;  3.6408331E-03;  3.9988254E+04;  0.0000000E+00;  1.9278163E-01;  4.0000000E+04;  0.0000000E+00;  4.0008746E+04;  3.8376686E-03;  0.0000000E+00; -1.9683548E-04;  1.0004847E+03;
  1.5181762E-01;  9.9999998E-03;  1.7981702E-01;3409;  4.0312437E-03;  0.0000000E+00; -1.6828939E-05;  1.0000227E+03;  1.0000000E-01;  1.8764902E+01;3; -1.8977049E-01;  0.0000000E+00;  7.7555662E-01;0;  3.9377217E-03;  4.0000855E+04;  0.0000000E+00;  3.7688345E-01;  4.0000000E+04;  0.0000000E+00;  4.0006578E+04;  4.3055839E-03;  0.0000000E+00; -3.6786217E-04;  8.9588092E+02;
  1.5173723E-01;  9.9999998E-03;  1.8984680E-01;3410;  3.9863558E-03;  0.0000000E+00; -4.9099825E-05;  1.0001472E+03;  1.0000000E-01;  1.2197186E+02;3; -1.9644022E-01;  0.0000000E+00;  1.6713752E+00;0;  4.1921614E-03;  4.0010320E+04;  0.0000000E+00;  6.8183595E-01;  4.0000000E+04;  0.0000000E+00;  4.0006035E+04;  4.7288015E-03;  0.0000000E+00; -5.3664035E-04;  1.2638032E+03;
  1.5165396E-01;  9.9999998E-03;  1.9986860E-01;3411;  3.9273202E-03;  0.0000000E+00; -7.9193676E-05;  1.0002406E+03;  1.0000000E-01;  1.9930301E+02;3; -1.9330449E-01;  0.0000000E+00;  3.2131391E+00;0;  4.4270149E-03;  4.0014363E+04;  0.0000000E+00;  1.2000414E+00;  4.0000000E+04;  0.0000000E+00;  4.0009531E+04;  5.1259850E-03;  0.0000000E+00; -6.9896993E-04;  2.1548936E+03;
  1.5157455E-01;  9.9999998E-03;  2.0986916E-01;3412;  3.8494731E-03;  0.0000000E+00; -1.0224725E-04;  1.0002670E+03;  1.0000000E-01;  2.2112955E+02;3; -1.1375756E-01;  0.0000000E+00;  5.7121048E+00;0;  4.6799905E-03;  4.0009816E+04;  0.0000000E+00;  2.0632682E+00;  4.0000000E+04;  0.0000000E+00;  4.0017613E+04;  5.5335769E-03;  0.0000000E+00; -8.5358659E-04;  3.6966060E+03;
  1.5150133E-01;  9.9999998E-03;  2.1986106E-01;3413;  3.7446774E-03;  0.0000000E+00; -1.1531029E-04;  1.0001891E+03;  1.0000000E-01;  1.5663754E+02;3;  2.0237425E-01;  0.0000000E+00;  9.4957771E+00;0;  4.9983901E-03;  3.9993988E+04;  0.0000000E+00;  3.4330845E+00;  4.0000000E+04;  0.0000000E+00;  4.0027848E+04;  5.9970608E-03;  0.0000000E+00; -9.9867058E-04;  6.0301582E+03;
  1.5142272E-01;  9.9999998E-03;  2.2984409E-01;3414;  3.6068649E-03;  0.0000000E+00; -1.2059322E-04;  9.9997089E+02;  1.0000000E-01; -2.4098083E+01;3;  1.0483121E+00;  0.0000000E+00;  1.4693965E+01;0;  5.4318951E-03;  3.9966004E+04;  0.0000000E+00;  5.4842978E+00;  4.0000000E+04;  0.0000000E+00;  4.0038324E+04;  6.5599042E-03;  0.0000000E+00; -1.1280091E-03;  9.2975400E+03;
  1.6147546E-01;  9.9999998E-03;  6.9945626E-02;3459;  4.0180204E-03;  0.0000000E+00; -6.9922789E-06;  1.0000292E+03;  1.0000000E-01;  2.4196846E+01;3; -1.7010579E-01;  0.0000000E+00;  1.3277293E-02;0; -9.1231428E-05;  3.9991562E+04;  0.0000000E+00; -2.2336029E-02;  4.0000000E+04;  0.0000000E+00;  4.0008664E+04; -4.9527996E-04;  0.0000000E+00;  4.0404854E-04;  1.0401180E+03;
  1.6151750E-01;  9.9999998E-03;  7.9944395E-02;3460;  3.9907629E-03;  0.0000000E+00; -4.5707557E-06;  1.0000239E+03;  1.0000000E-01;  1.9752527E+01;3; -1.7295893E-01;  0.0000000E+00;  1.4721504E-02;0; -1.4525175E-04;  3.9990066E+04;  0.0000000E+00; -2.7628452E-02;  4.0000000E+04;  0.0000000E+00;  4.0010340E+04; -5.7175534E-04;  0.0000000E+00;  4.2650360E-04;  1.1910370E+03;
  1.6156459E-01;  9.9999998E-03;  8.9945585E-02;3461;  3.9686020E-03;  0.0000000E+00;  5.7653119E-06;  1.0000130E+03;  1.0000000E-01;  1.0765127E+01;3; -1.7555526E-01;  0.0000000E+00;  1.6479293E-02;0; -8.6353248E-05;  3.9987625E+04;  0.0000000E+00; -3.5938893E-02;  4.0000000E+04;  0.0000000E+00;  4.0012605E+04; -5.4005091E-04;  0.0000000E+00;  4.5369766E-04;  1.4299214E+03;
  1.6161332E-01;  9.9999998E-03;  9.9947520E-02;3462;  3.9536585E-03;  0.0000000E+00;  2.5193780E-05;  9.9999933E+02;  1.0000000E-01; -5.4319453E-01;3; -1.7763171E-01;  0.0000000E+00;  1.8607784E-02;0;  8.8499917E-05;  3.9984336E+04;  0.0000000E+00; -4.7930464E-02;  4.0000000E+04;  0.0000000E+00;  4.0014957E+04; -3.8684302E-04;  0.0000000E+00;  4.7534294E-04;  1.7120243E+03;
  1.6165926E-01;  9.9999998E-03;  1.0994653E-01;3463;  3.9468361E-03;  0.0000000E+00;  5.0068265E-05;  9.9999011E+02;  1.0000000E-01; -8.1972990E+00;3; -1.7953922E-01;  0.0000000E+00;  2.0891417E-02;0;  3.7022348E-04;  3.9982059E+04;  0.0000000E+00; -6.2942378E-02;  4.0000000E+04;  0.0000000E+00;  4.0017113E+04; -1.1129892E-04;  0.0000000E+00;  4.8152241E-04;  1.9681681E+03;
  1.6169809E-01;  9.9999998E-03;  1.1993704E-01;3464;  3.9483164E-03;  0.0000000E+00;  7.7001852E-05;  9.9998529E+02;  1.0000000E-01; -1.2197186E+01;3; -1.8136252E-01;  0.0000000E+00;  2.2651035E-02;0;  7.3916122E-04;  3.9981055E+04;  0.0000000E+00; -7.8468427E-02;  4.0000000E+04;  0.0000000E+00;  4.0018234E+04;  2.7443646E-04;  0.0000000E+00;  4.6472476E-04;  2.1183811E+03;
  1.6172765E-01;  9.9999998E-03;  1.2991558E-01;3465;  3.9548990E-03;  0.0000000E+00;  9.5786017E-05;  9.9999237E+02;  1.0000000E-01; -6.3208089E+00;3; -1.8318446E-01;  0.0000000E+00;  2.4335293E-02;0;  1.1675793E-03;  3.9982105E+04;  0.0000000E+00; -8.9917608E-02;  4.0000000E+04;  0.0000000E+00;  4.0017500E+04;  7.4705441E-04;  0.0000000E+00;  4.2052488E-04;  2.0946594E+03;
  1.6174756E-01;  9.9999998E-03;  1.3988492E-01;3466;  3.9623221E-03;  0.0000000E+00;  1.0268613E-04;  1.0000132E+03;  1.0000000E-01;  1.0962653E+01;3; -1.8445997E-01;  0.0000000E+00;  2.5899211E-02;0;  1.6227122E-03;  3.9986133E+04;  0.0000000E+00; -9.0933286E-02;  4.0000000E+04;  0.0000000E+00;  4.0014723E+04;  1.2755892E-03;  0.0000000E+00;  3.4712302E-04;  1.8696394E+03;
  1.6176273E-01;  9.9999998E-03;  1.4985183E-01;3467;  3.9668605E-03;  0.0000000E+00;  9.9063771E-05;  1.0000547E+03;  1.0000000E-01;  4.5332050E+01;3; -1.8590584E-01;  0.0000000E+00;  3.3304166E-02;0;  2.0708467E-03;  3.9993285E+04;  0.0000000E+00; -7.4530937E-02;  4.0000000E+04;  0.0000000E+00;  4.0012324E+04;  1.8257200E-03;  0.0000000E+00;  2.4512687E-04;  1.4758743E+03;
  1.6177537E-01;  9.9999998E-03;  1.5982705E-01;3468;  3.9633969E-03;  0.0000000E+00;  8.6141059E-05;  1.0001247E+03;  1.0000000E-01;  1.0330572E+02;3; -1.8803203E-01;  0.0000000E+00;  9.8675825E-02;0;  2.4860485E-03;  4.0003188E+04;  0.0000000E+00; -3.3182174E-02;  4.0000000E+04;  0.0000000E+00;  4.0008891E+04;  2.3662455E-03;  0.0000000E+00;  1.1980297E-04;  9.9830310E+02;
  1.6178049E-01;  9.9999998E-03;  1.6982844E-01;3469;  3.9485656E-03;  0.0000000E+00;  6.6084707E-05;  1.0002211E+03;  1.0000000E-01;  1.8320470E+02;3; -1.9675818E-01;  0.0000000E+00;  3.1516391E-01;0;  2.8543784E-03;  4.0014660E+04;  0.0000000E+00;  4.9050312E-02;  4.0000000E+04;  0.0000000E+00;  4.0005082E+04;  2.8754487E-03;  0.0000000E+00; -2.1070213E-05;  5.7284399E+02;
  1.6176282E-01;  9.9999998E-03;  1.7985195E-01;3470;  3.9192489E-03;  0.0000000E+00;  4.1716004E-05;  1.0003243E+03;  1.0000000E-01;  2.6873315E+02;3; -2.2610228E-01;  0.0000000E+00;  7.9828185E-01;0;  3.1744561E-03;  4.0026102E+04;  0.0000000E+00;  2.1008202E-01;  4.0000000E+04;  0.0000000E+00;  4.0003074E+04;  3.3448781E-03;  0.0000000E+00; -1.7042196E-04;  4.5089948E+02;
  1.6171221E-01;  9.9999998E-03;  1.8987790E-01;3471;  3.8727822E-03;  0.0000000E+00;  1.6217064E-05;  1.0004301E+03;  1.0000000E-01;  3.5633560E+02;3; -2.9038146E-01;  0.0000000E+00;  1.6973438E+00;0;  3.4578433E-03;  4.0034266E+04;  0.0000000E+00;  5.2116871E-01;  4.0000000E+04;  0.0000000E+00;  4.0004027E+04;  3.7820626E-03;  0.0000000E+00; -3.2421915E-04;  8.6595917E+02;
  1.6159649E-01;  9.9999998E-03;  1.9990045E-01;3472;  3.8055333E-03;  0.0000000E+00; -6.2166837E-06;  1.0005046E+03;  1.0000000E-01;  4.1806226E+02;3; -3.8018212E-01;  0.0000000E+00;  3.2306693E+00;0;  3.7308938E-03;  4.0036430E+04;  0.0000000E+00;  1.0910242E+00;  4.0000000E+04;  0.0000000E+00;  4.0007586E+04;  4.2139986E-03;  0.0000000E+00; -4.8310478E-04;  1.8360576E+03;
  1.6147673E-01;  9.9999998E-03;  2.0991628E-01;3473;  3.7103691E-03;  0.0000000E+00; -2.0069481E-05;  1.0005094E+03;  1.0000000E-01;  4.2201276E+02;3; -4.2016667E-01;  0.0000000E+00;  5.6982322E+00;0;  4.0272200E-03;  4.0029988E+04;  0.0000000E+00;  2.0628951E+00;  4.0000000E+04;  0.0000000E+00;  4.0015598E+04;  4.6745064E-03;  0.0000000E+00; -6.4728659E-04;  3.5240977E+03;
  1.6139774E-01;  9.9999998E-03;  2.1991532E-01;3474;  3.5814361E-03;  0.0000000E+00; -1.9891324E-05;  1.0004064E+03;  1.0000000E-01;  3.3668182E+02;3; -2.1329549E-01;  0.0000000E+00;  9.4288130E+00;0;  4.3906141E-03;  4.0012520E+04;  0.0000000E+00;  3.6045349E+00;  4.0000000E+04;  0.0000000E+00;  4.0026363E+04;  5.2047251E-03;  0.0000000E+00; -8.1411091E-04;  6.1124341E+03;
  1.6134475E-01;  9.9999998E-03;  2.2989915E-01;3475;  3.4075235E-03;  0.0000000E+00; -3.5567841E-06;  1.0001656E+03;  1.0000000E-01;  1.3718130E+02;3;  6.1049223E-01;  0.0000000E+00;  1.4612901E+01;0;  4.8696152E-03;  3.9981898E+04;  0.0000000E+00;  5.9001765E+00;  4.0000000E+04;  0.0000000E+00;  4.0037160E+04;  5.8439085E-03;  0.0000000E+00; -9.7429345E-04;  9.7820488E+03;
  1.7138936E-01;  9.9999998E-03;  7.0009567E-02;3520;  3.8602718E-03;  0.0000000E+00;  1.2269780E-05;  1.0001870E+03;  1.0000000E-01;  1.5495859E+02;3; -1.7063233E-01;  0.0000000E+00;  1.6116668E-02;0; -2.4763771E-04;  4.0005992E+04;  0.0000000E+00; -2.3546329E-02;  4.0000000E+04;  0.0000000E+00;  4.0004859E+04; -7.3447364E-04;  0.0000000E+00;  4.8683592E-04;  5.4508997E+02;
  1.7142981E-01;  9.9999998E-03;  8.0011480E-02;3521;  3.8280655E-03;  0.0000000E+00;  1.3257006E-05;  1.0002007E+03;  1.0000000E-01;  1.6631628E+02;3; -1.7302731E-01;  0.0000000E+00;  1.7243175E-02;0; -3.2309484E-04;  4.0006000E+04;  0.0000000E+00; -2.4177706E-02;  4.0000000E+04;  0.0000000E+00;  4.0006301E+04; -8.1919745E-04;  0.0000000E+00;  4.9610261E-04;  6.9925732E+02;
  1.7147978E-01;  9.9999998E-03;  9.0013079E-02;3522;  3.8017989E-03;  0.0000000E+00;  2.0941510E-05;  1.0002054E+03;  1.0000000E-01;  1.7016803E+02;3; -1.7529856E-01;  0.0000000E+00;  1.8515680E-02;0; -2.9166404E-04;  4.0005012E+04;  0.0000000E+00; -2.7504072E-02;  4.0000000E+04;  0.0000000E+00;  4.0008340E+04; -8.0458965E-04;  0.0000000E+00;  5.1292562E-04;  9.2740540E+02;
  1.7153633E-01;  9.9999998E-03;  1.0001402E-01;3523;  3.7843897E-03;  0.0000000E+00;  3.6912850E-05;  1.0002126E+03;  1.0000000E-01;  1.7609378E+02;3; -1.7758937E-01;  0.0000000E+00;  1.9931620E-02;0; -1.4836050E-04;  4.0003910E+04;  0.0000000E+00; -3.6003113E-02;  4.0000000E+04;  0.0000000E+00;  4.0010887E+04; -6.7699829E-04;  0.0000000E+00;  5.2863779E-04;  1.1879019E+03;
  1.7159431E-01;  9.9999998E-03;  1.1001222E-01;3524;  3.7782283E-03;  0.0000000E+00;  5.9560807E-05;  1.0002277E+03;  1.0000000E-01;  1.8863664E+02;3; -1.7960611E-01;  0.0000000E+00;  2.2498596E-02;0;  1.0090566E-04;  4.0003430E+04;  0.0000000E+00; -5.1359598E-02;  4.0000000E+04;  0.0000000E+00;  4.0012066E+04; -4.3394003E-04;  0.0000000E+00;  5.3484569E-04;  1.4193414E+03;
  1.7164548E-01;  9.9999998E-03;  1.2000335E-01;3525;  3.7836770E-03;  0.0000000E+00;  8.5336513E-05;  1.0002391E+03;  1.0000000E-01;  1.9811786E+02;3; -1.8160893E-01;  0.0000000E+00;  2.3721348E-02;0;  4.4042515E-04;  4.0003875E+04;  0.0000000E+00; -7.3689945E-02;  4.0000000E+04;  0.0000000E+00;  4.0012543E+04; -8.4614185E-05;  0.0000000E+00;  5.2503933E-04;  1.5518438E+03;
  1.7168163E-01;  9.9999998E-03;  1.2998448E-01;3526;  3.7986091E-03;  0.0000000E+00;  1.0781085E-04;  1.0002610E+03;  1.0000000E-01;  2.1619142E+02;3; -1.8331632E-01;  0.0000000E+00;  2.5322869E-02;0;  8.4628258E-04;  4.0006582E+04;  0.0000000E+00; -1.0090540E-01;  4.0000000E+04;  0.0000000E+00;  4.0012680E+04;  3.5122602E-04;  0.0000000E+00;  4.9505656E-04;  1.5262521E+03;
  1.7170344E-01;  9.9999998E-03;  1.3995638E-01;3527;  3.8174998E-03;  0.0000000E+00;  1.2264983E-04;  1.0002942E+03;  1.0000000E-01;  2.4374619E+02;3; -1.8502404E-01;  0.0000000E+00;  2.6515242E-02;0;  1.2883950E-03;  4.0011020E+04;  0.0000000E+00; -1.2838385E-01;  4.0000000E+04;  0.0000000E+00;  4.0010191E+04;  8.4582635E-04;  0.0000000E+00;  4.4256871E-04;  1.3188417E+03;
  1.7171593E-01;  9.9999998E-03;  1.4992361E-01;3528;  3.8348874E-03;  0.0000000E+00;  1.2886139E-04;  1.0003439E+03;  1.0000000E-01;  2.8493021E+02;3; -1.8695955E-01;  0.0000000E+00;  3.4648724E-02;0;  1.7342002E-03;  4.0018359E+04;  0.0000000E+00; -1.4921407E-01;  4.0000000E+04;  0.0000000E+00;  4.0007629E+04;  1.3675768E-03;  0.0000000E+00;  3.6662343E-04;  9.6051099E+02;
  1.7172371E-01;  9.9999998E-03;  1.5989634E-01;3529;  3.8451157E-03;  0.0000000E+00;  1.2669519E-04;  1.0004086E+03;  1.0000000E-01;  3.3845956E+02;3; -1.9109157E-01;  0.0000000E+00;  1.0167947E-01;0;  2.1571983E-03;  4.0027965E+04;  0.0000000E+00; -1.5254982E-01;  4.0000000E+04;  0.0000000E+00;  4.0005535E+04;  1.8873956E-03;  0.0000000E+00;  2.6980252E-04;  5.3555414E+02;
  1.7172650E-01;  9.9999998E-03;  1.6988800E-01;3530;  3.8416914E-03;  0.0000000E+00;  1.1801921E-04;  1.0004915E+03;  1.0000000E-01;  4.0719836E+02;3; -2.1090201E-01;  0.0000000E+00;  3.1722543E-01;0;  2.5425507E-03;  4.0038695E+04;  0.0000000E+00; -1.1378948E-01;  4.0000000E+04;  0.0000000E+00;  4.0001098E+04;  2.3852177E-03;  0.0000000E+00;  1.5733289E-04;  1.8145177E+02;
  1.7170505E-01;  9.9999998E-03;  1.7990410E-01;3531;  3.8187886E-03;  0.0000000E+00;  1.0395028E-04;  1.0005811E+03;  1.0000000E-01;  4.8146786E+02;3; -2.6988629E-01;  0.0000000E+00;  7.9140943E-01;0;  2.8881920E-03;  4.0048586E+04;  0.0000000E+00;  1.9475641E-02;  4.0000000E+04;  0.0000000E+00;  3.9999645E+04;  2.8546075E-03;  0.0000000E+00;  3.3584478E-05;  1.4200606E+02;
  1.7163008E-01;  9.9999998E-03;  1.8992218E-01;3532;  3.7715645E-03;  0.0000000E+00;  8.7982553E-05;  1.0006609E+03;  1.0000000E-01;  5.4754010E+02;3; -3.9429229E-01;  0.0000000E+00;  1.6587517E+00;0;  3.2042353E-03;  4.0055289E+04;  0.0000000E+00;  3.3487752E-01;  4.0000000E+04;  0.0000000E+00;  4.0000691E+04;  3.3046547E-03;  0.0000000E+00; -1.0041940E-04;  4.8680081E+02;
  1.7150390E-01;  9.9999998E-03;  1.9994883E-01;3533;  3.6953313E-03;  0.0000000E+00;  7.5721851E-05;  1.0007082E+03;  1.0000000E-01;  5.8674884E+02;3; -5.8200210E-01;  0.0000000E+00;  3.1128714E+00;0;  3.5140193E-03;  4.0055816E+04;  0.0000000E+00;  9.5263755E-01;  4.0000000E+04;  0.0000000E+00;  4.0003391E+04;  3.7612589E-03;  0.0000000E+00; -2.4723960E-04;  1.4438182E+03;
  1.7136359E-01;  9.9999998E-03;  2.0998317E-01;3534;  3.5830135E-03;  0.0000000E+00;  7.4989803E-05;  1.0006874E+03;  1.0000000E-01;  5.6956415E+02;3; -7.5493568E-01;  0.0000000E+00;  5.4087896E+00;0;  3.8523553E-03;  4.0048277E+04;  0.0000000E+00;  2.0170877E+00;  4.0000000E+04;  0.0000000E+00;  4.0010734E+04;  4.2613307E-03;  0.0000000E+00; -4.0897538E-04;  3.1974907E+03;
  1.7127565E-01;  9.9999998E-03;  2.2000183E-01;3535;  3.4199979E-03;  0.0000000E+00;  9.7229575E-05;  1.0005624E+03;  1.0000000E-01;  4.6596213E+02;3; -6.9269991E-01;  0.0000000E+00;  8.8141861E+00;0;  4.2636460E-03;  4.0029445E+04;  0.0000000E+00;  3.6837218E+00;  4.0000000E+04;  0.0000000E+00;  4.0019934E+04;  4.8426436E-03;  0.0000000E+00; -5.7899766E-04;  5.9097236E+03;
  1.7124227E-01;  9.9999998E-03;  2.3000382E-01;3536;  3.1873337E-03;  0.0000000E+00;  1.7291315E-04;  1.0002866E+03;  1.0000000E-01;  2.3742538E+02;3;  3.8254526E-02;  0.0000000E+00;  1.3452058E+01;0;  4.8071193E-03;  3.9997625E+04;  0.0000000E+00;  6.1112943E+00;  4.0000000E+04;  0.0000000E+00;  4.0029484E+04;  5.5304868E-03;  0.0000000E+00; -7.2336756E-04;  9.7495078E+03;
  1.8138923E-01;  9.9999998E-03;  7.0058823E-02;3581;  3.7290268E-03;  0.0000000E+00;  4.0262057E-05;  1.0002611E+03;  1.0000000E-01;  2.1629018E+02;3; -1.7020376E-01;  0.0000000E+00;  1.8806307E-02;0;  1.1889022E-04;  4.0015129E+04;  0.0000000E+00; -2.9127067E-02;  4.0000000E+04;  0.0000000E+00;  4.0000047E+04; -4.2887972E-04;  0.0000000E+00;  5.4776995E-04;  5.0248116E+01;
  1.8138552E-01;  9.9999998E-03;  8.0063373E-02;3582;  3.6927448E-03;  0.0000000E+00;  3.7908096E-05;  1.0002727E+03;  1.0000000E-01;  2.2596892E+02;3; -1.7245539E-01;  0.0000000E+00;  1.9696299E-02;0;  2.0323205E-05;  4.0015555E+04;  0.0000000E+00; -2.5775738E-02;  4.0000000E+04;  0.0000000E+00;  4.0001449E+04; -5.2390684E-04;  0.0000000E+00;  5.4423005E-04;  1.2650333E+02;
  1.8140292E-01;  9.9999998E-03;  9.0065658E-02;3583;  3.6632428E-03;  0.0000000E+00;  4.1020958E-05;  1.0002921E+03;  1.0000000E-01;  2.4196846E+02;3; -1.7473914E-01;  0.0000000E+00;  2.0735472E-02;0;  2.1722051E-05;  4.0015492E+04;  0.0000000E+00; -2.3825148E-02;  4.0000000E+04;  0.0000000E+00;  4.0003484E+04; -5.2935467E-04;  0.0000000E+00;  5.5107672E-04;  3.3109857E+02;
  1.8144099E-01;  9.9999998E-03;  1.0006664E-01;3584;  3.6443847E-03;  0.0000000E+00;  5.1347564E-05;  1.0003119E+03;  1.0000000E-01;  2.5836307E+02;3; -1.7714286E-01;  0.0000000E+00;  2.1775117E-02;0;  1.3021432E-04;  4.0015297E+04;  0.0000000E+00; -2.7252968E-02;  4.0000000E+04;  0.0000000E+00;  4.0005164E+04; -4.3103221E-04;  0.0000000E+00;  5.6124653E-04;  5.6185309E+02;
  1.8149100E-01;  9.9999998E-03;  1.1006545E-01;3585;  3.6393013E-03;  0.0000000E+00;  6.8717447E-05;  1.0003348E+03;  1.0000000E-01;  2.7732550E+02;3; -1.7898782E-01;  0.0000000E+00;  2.3351289E-02;0;  3.4297700E-04;  4.0015699E+04;  0.0000000E+00; -4.0052813E-02;  4.0000000E+04;  0.0000000E+00;  4.0006426E+04; -2.2480411E-04;  0.0000000E+00;  5.6778110E-04;  7.6469812E+02;
  1.8154265E-01;  9.9999998E-03;  1.2005965E-01;3586;  3.6485421E-03;  0.0000000E+00;  9.1040747E-05;  1.0003613E+03;  1.0000000E-01;  2.9934955E+02;3; -1.8082941E-01;  0.0000000E+00;  2.5581852E-02;0;  6.4811838E-04;  4.0017570E+04;  0.0000000E+00; -6.5418996E-02;  4.0000000E+04;  0.0000000E+00;  4.0007035E+04;  8.3008097E-05;  0.0000000E+00;  5.6511030E-04;  8.8204089E+02;
  1.8158846E-01;  9.9999998E-03;  1.3004613E-01;3587;  3.6711332E-03;  0.0000000E+00;  1.1367987E-04;  1.0003879E+03;  1.0000000E-01;  3.2137363E+02;3; -1.8262711E-01;  0.0000000E+00;  2.6913999E-02;0;  1.0255957E-03;  4.0020547E+04;  0.0000000E+00; -1.0472032E-01;  4.0000000E+04;  0.0000000E+00;  4.0006742E+04;  4.7618573E-04;  0.0000000E+00;  5.4941000E-04;  8.6635474E+02;
  1.8162443E-01;  9.9999998E-03;  1.4002320E-01;3588;  3.7004587E-03;  0.0000000E+00;  1.3376854E-04;  1.0004271E+03;  1.0000000E-01;  3.5386655E+02;3; -1.8454991E-01;  0.0000000E+00;  2.7800642E-02;0;  1.4485175E-03;  4.0025441E+04;  0.0000000E+00; -1.5627047E-01;  4.0000000E+04;  0.0000000E+00;  4.0004906E+04;  9.3046727E-04;  0.0000000E+00;  5.1805028E-04;  7.0434106E+02;
  1.8164602E-01;  9.9999998E-03;  1.4999390E-01;3589;  3.7309597E-03;  0.0000000E+00;  1.4990395E-04;  1.0004748E+03;  1.0000000E-01;  3.9337158E+02;3; -1.8652743E-01;  0.0000000E+00;  3.5943910E-02;0;  1.8860367E-03;  4.0032641E+04;  0.0000000E+00; -2.1429282E-01;  4.0000000E+04;  0.0000000E+00;  4.0002602E+04;  1.4171943E-03;  0.0000000E+00;  4.6884248E-04;  4.5950702E+02;
  1.8165176E-01;  9.9999998E-03;  1.5996566E-01;3590;  3.7532919E-03;  0.0000000E+00;  1.6164765E-04;  1.0005391E+03;  1.0000000E-01;  4.4660464E+02;3; -1.9341382E-01;  0.0000000E+00;  9.9989645E-02;0;  2.3114281E-03;  4.0041297E+04;  0.0000000E+00; -2.6473054E-01;  4.0000000E+04;  0.0000000E+00;  3.9999910E+04;  1.9096371E-03;  0.0000000E+00;  4.0179084E-04;  3.7897519E+02;
  1.8164058E-01;  9.9999998E-03;  1.6994926E-01;3591;  3.7602924E-03;  0.0000000E+00;  1.6782034E-04;  1.0006070E+03;  1.0000000E-01;  5.0289935E+02;3; -2.2328344E-01;  0.0000000E+00;  3.0338654E-01;0;  2.7092723E-03;  4.0051000E+04;  0.0000000E+00; -2.7323049E-01;  4.0000000E+04;  0.0000000E+00;  3.9997305E+04;  2.3896017E-03;  0.0000000E+00;  3.1967059E-04;  5.7019232E+02;
  1.8159778E-01;  9.9999998E-03;  1.7995092E-01;3592;  3.7438106E-03;  0.0000000E+00;  1.6886243E-04;  1.0006812E+03;  1.0000000E-01;  5.6432971E+02;3; -3.0998206E-01;  0.0000000E+00;  7.4643463E-01;0;  3.0765275E-03;  4.0059258E+04;  0.0000000E+00; -1.7174596E-01;  4.0000000E+04;  0.0000000E+00;  3.9995574E+04;  2.8515090E-03;  0.0000000E+00;  2.2501855E-04;  6.7594318E+02;
  1.8150780E-01;  9.9999998E-03;  1.8997155E-01;3593;  3.6976130E-03;  0.0000000E+00;  1.6804510E-04;  1.0007388E+03;  1.0000000E-01;  6.1213086E+02;3; -4.8936430E-01;  0.0000000E+00;  1.5464886E+00;0;  3.4226105E-03;  4.0064578E+04;  0.0000000E+00;  1.4406829E-01;  4.0000000E+04;  0.0000000E+00;  3.9995730E+04;  3.3052685E-03;  0.0000000E+00;  1.1734187E-04;  6.1519684E+02;
  1.8138687E-01;  9.9999998E-03;  2.0000745E-01;3594;  3.6121008E-03;  0.0000000E+00;  1.7370746E-04;  1.0007567E+03;  1.0000000E-01;  6.2694525E+02;3; -7.7079475E-01;  0.0000000E+00;  2.8557055E+00;0;  3.7700851E-03;  4.0064059E+04;  0.0000000E+00;  8.0388761E-01;  4.0000000E+04;  0.0000000E+00;  3.9998879E+04;  3.7763058E-03;  0.0000000E+00; -6.2207182E-06;  1.1882200E+03;
  1.8124451E-01;  9.9999998E-03;  2.1006000E-01;3595;  3.4737415E-03;  0.0000000E+00;  2.0782479E-04;  1.0007131E+03;  1.0000000E-01;  5.9079810E+02;3; -1.0833613E+00;  0.0000000E+00;  4.8513756E+00;0;  4.1562398E-03;  4.0055906E+04;  0.0000000E+00;  1.9484327E+00;  4.0000000E+04;  0.0000000E+00;  4.0003812E+04;  4.2995703E-03;  0.0000000E+00; -1.4333056E-04;  2.8840701E+03;
  1.8113756E-01;  9.9999998E-03;  2.2011144E-01;3596;  3.2648642E-03;  0.0000000E+00;  2.9271119E-04;  1.0005609E+03;  1.0000000E-01;  4.6467822E+02;3; -1.2122563E+00;  0.0000000E+00;  7.6370921E+00;0;  4.6383571E-03;  4.0038219E+04;  0.0000000E+00;  3.7122476E+00;  4.0000000E+04;  0.0000000E+00;  4.0010281E+04;  4.9069617E-03;  0.0000000E+00; -2.6860437E-04;  5.5985376E+03;
  1.8110581E-01;  9.9999998E-03;  2.3014227E-01;3597;  2.9893178E-03;  0.0000000E+00;  4.0156822E-04;  1.0002535E+03;  1.0000000E-01;  2.1006813E+02;3; -7.3147362E-01;  0.0000000E+00;  1.1090619E+01;0;  5.2633812E-03;  4.0007445E+04;  0.0000000E+00;  6.2014689E+00;  4.0000000E+04;  0.0000000E+00;  4.0017117E+04;  5.6142472E-03;  0.0000000E+00; -3.5086600E-04;  9.4148105E+03;
  1.9145431E-01;  9.9999998E-03;  7.0080817E-02;3642;  3.6356875E-03;  0.0000000E+00;  7.4994023E-05;  1.0002281E+03;  1.0000000E-01;  1.8893292E+02;3; -1.6929662E-01;  0.0000000E+00;  2.1249151E-02;0;  9.3330716E-04;  4.0016840E+04;  0.0000000E+00; -3.1737912E-02;  4.0000000E+04;  0.0000000E+00;  3.9995172E+04;  3.5189075E-04;  0.0000000E+00;  5.8141642E-04;  6.0495215E+02;
  1.9142243E-01;  9.9999998E-03;  8.0086075E-02;3643;  3.5946835E-03;  0.0000000E+00;  6.9811693E-05;  1.0002382E+03;  1.0000000E-01;  1.9732776E+02;3; -1.7165895E-01;  0.0000000E+00;  2.2134185E-02;0;  8.1324868E-04;  4.0016816E+04;  0.0000000E+00; -2.5549119E-02;  4.0000000E+04;  0.0000000E+00;  3.9996410E+04;  2.4707810E-04;  0.0000000E+00;  5.6617055E-04;  4.7651657E+02;
  1.9139940E-01;  9.9999998E-03;  9.0089776E-02;3644;  3.5624590E-03;  0.0000000E+00;  6.8740679E-05;  1.0002498E+03;  1.0000000E-01;  2.0690773E+02;3; -1.7406994E-01;  0.0000000E+00;  2.3178158E-02;0;  7.8189280E-04;  4.0016422E+04;  0.0000000E+00; -1.8866930E-02;  4.0000000E+04;  0.0000000E+00;  3.9998086E+04;  2.1846782E-04;  0.0000000E+00;  5.6342501E-04;  2.9826910E+02;
  1.9139315E-01;  9.9999998E-03;  1.0009280E-01;3645;  3.5434479E-03;  0.0000000E+00;  7.3521216E-05;  1.0002656E+03;  1.0000000E-01;  2.2004315E+02;3; -1.7611609E-01;  0.0000000E+00;  2.4390170E-02;0;  8.4943738E-04;  4.0016332E+04;  0.0000000E+00; -1.6356077E-02;  4.0000000E+04;  0.0000000E+00;  3.9999445E+04;  2.8162921E-04;  0.0000000E+00;  5.6780817E-04;  1.0432884E+02;
  1.9140758E-01;  9.9999998E-03;  1.1009470E-01;3646;  3.5401292E-03;  0.0000000E+00;  8.5057050E-05;  1.0002850E+03;  1.0000000E-01;  2.3614146E+02;3; -1.7836706E-01;  0.0000000E+00;  2.5552347E-02;0;  1.0176167E-03;  4.0016652E+04;  0.0000000E+00; -2.3820821E-02;  4.0000000E+04;  0.0000000E+00;  4.0000625E+04;  4.4376543E-04;  0.0000000E+00;  5.7385128E-04;  7.6690468E+01;
  1.9143912E-01;  9.9999998E-03;  1.2009370E-01;3647;  3.5553083E-03;  0.0000000E+00;  1.0378884E-04;  1.0003058E+03;  1.0000000E-01;  2.5332617E+02;3; -1.8016011E-01;  0.0000000E+00;  2.7546730E-02;0;  1.2792237E-03;  4.0018289E+04;  0.0000000E+00; -4.7426037E-02;  4.0000000E+04;  0.0000000E+00;  4.0001555E+04;  7.0227351E-04;  0.0000000E+00;  5.7695014E-04;  1.8150114E+02;
  1.9147721E-01;  9.9999998E-03;  1.3008736E-01;3648;  3.5876422E-03;  0.0000000E+00;  1.2725010E-04;  1.0003367E+03;  1.0000000E-01;  2.7890570E+02;3; -1.8177947E-01;  0.0000000E+00;  2.9501611E-02;0;  1.6183220E-03;  4.0020746E+04;  0.0000000E+00; -9.2336334E-02;  4.0000000E+04;  0.0000000E+00;  4.0001266E+04;  1.0446473E-03;  0.0000000E+00;  5.7367462E-04;  2.0540544E+02;
  1.9151105E-01;  9.9999998E-03;  1.4007340E-01;3649;  3.6306030E-03;  0.0000000E+00;  1.5371716E-04;  1.0003688E+03;  1.0000000E-01;  3.0557159E+02;3; -1.8351938E-01;  0.0000000E+00;  3.0378848E-02;0;  2.0116072E-03;  4.0025340E+04;  0.0000000E+00; -1.6073507E-01;  4.0000000E+04;  0.0000000E+00;  3.9999191E+04;  1.4502818E-03;  0.0000000E+00;  5.6132540E-04;  2.2868765E+02;
  1.9153200E-01;  9.9999998E-03;  1.5005241E-01;3650;  3.6763817E-03;  0.0000000E+00;  1.8298806E-04;  1.0004163E+03;  1.0000000E-01;  3.4487912E+02;3; -1.8536152E-01;  0.0000000E+00;  3.7991881E-02;0;  2.4308641E-03;  4.0031625E+04;  0.0000000E+00; -2.4943821E-01;  4.0000000E+04;  0.0000000E+00;  3.9998293E+04;  1.8938123E-03;  0.0000000E+00;  5.3705194E-04;  4.2693939E+02;
  1.9153513E-01;  9.9999998E-03;  1.6002852E-01;3651;  3.7132769E-03;  0.0000000E+00;  2.1126113E-04;  1.0004675E+03;  1.0000000E-01;  3.8734708E+02;3; -1.9398721E-01;  0.0000000E+00;  9.5116459E-02;0;  2.8499395E-03;  4.0038695E+04;  0.0000000E+00; -3.4262133E-01;  4.0000000E+04;  0.0000000E+00;  3.9995965E+04;  2.3508680E-03;  0.0000000E+00;  4.9907161E-04;  7.4359210E+02;
  1.9151463E-01;  9.9999998E-03;  1.7000856E-01;3652;  3.7296405E-03;  0.0000000E+00;  2.3512724E-04;  1.0005215E+03;  1.0000000E-01;  4.3208655E+02;3; -2.3139620E-01;  0.0000000E+00;  2.7665213E-01;0;  3.2530206E-03;  4.0046656E+04;  0.0000000E+00; -3.9711899E-01;  4.0000000E+04;  0.0000000E+00;  3.9993016E+04;  2.8046172E-03;  0.0000000E+00;  4.4840347E-04;  1.0401210E+03;
  1.9146417E-01;  9.9999998E-03;  1.8000238E-01;3653;  3.7152907E-03;  0.0000000E+00;  2.5321500E-04;  1.0005770E+03;  1.0000000E-01;  4.7801117E+02;3; -3.3803493E-01;  0.0000000E+00;  6.7064631E-01;0;  3.6374691E-03;  4.0053836E+04;  0.0000000E+00; -3.3000511E-01;  4.0000000E+04;  0.0000000E+00;  3.9991973E+04;  3.2506257E-03;  0.0000000E+00;  3.8684337E-04;  1.1685542E+03;
  1.9137646E-01;  9.9999998E-03;  1.9002193E-01;3654;  3.6619233E-03;  0.0000000E+00;  2.7340316E-04;  1.0006144E+03;  1.0000000E-01;  5.0902264E+02;3; -5.6010807E-01;  0.0000000E+00;  1.3732504E+00;0;  4.0131034E-03;  4.0057680E+04;  0.0000000E+00; -2.0246398E-02;  4.0000000E+04;  0.0000000E+00;  3.9991555E+04;  3.6987904E-03;  0.0000000E+00;  3.1431293E-04;  1.0629794E+03;
  1.9126149E-01;  9.9999998E-03;  2.0006722E-01;3655;  3.5579032E-03;  0.0000000E+00;  3.1740332E-04;  1.0006144E+03;  1.0000000E-01;  5.0902264E+02;3; -9.1812342E-01;  0.0000000E+00;  2.4913979E+00;0;  4.4049989E-03;  4.0056852E+04;  0.0000000E+00;  6.7237747E-01;  4.0000000E+04;  0.0000000E+00;  3.9993527E+04;  4.1723624E-03;  0.0000000E+00;  2.3263643E-04;  1.2876125E+03;
  1.9113117E-01;  9.9999998E-03;  2.1013133E-01;3656;  3.3942382E-03;  0.0000000E+00;  3.9144082E-04;  1.0005510E+03;  1.0000000E-01;  4.5648093E+02;3; -1.3622099E+00;  0.0000000E+00;  4.1083517E+00;0;  4.8536998E-03;  4.0049637E+04;  0.0000000E+00;  1.8866291E+00;  4.0000000E+04;  0.0000000E+00;  3.9996875E+04;  4.7015566E-03;  0.0000000E+00;  1.5214298E-04;  2.8012595E+03;
  1.9100341E-01;  9.9999998E-03;  2.2021268E-01;3657;  3.1672211E-03;  0.0000000E+00;  4.8245472E-04;  1.0003719E+03;  1.0000000E-01;  3.0813943E+02;3; -1.7267740E+00;  0.0000000E+00;  6.0815740E+00;0;  5.4057864E-03;  4.0034375E+04;  0.0000000E+00;  3.7448668E+00;  4.0000000E+04;  0.0000000E+00;  3.9999348E+04;  5.3138351E-03;  0.0000000E+00;  9.1951224E-05;  5.5153599E+03;
  1.9095086E-01;  9.9999998E-03;  2.3026629E-01;3658;  2.8858741E-03;  0.0000000E+00;  5.5851997E-04;  1.0000475E+03;  1.0000000E-01;  3.9406292E+01;3; -1.6541659E+00;  0.0000000E+00;  7.9799180E+00;0;  6.0849348E-03;  4.0007953E+04;  0.0000000E+00;  6.3105741E+00;  4.0000000E+04;  0.0000000E+00;  3.9999340E+04;  6.0219690E-03;  0.0000000E+00;  6.2965730E-05;  9.3539297E+03;
  2.0154847E-01;  9.9999998E-03;  7.0071295E-02;3703;  3.5941296E-03;  0.0000000E+00;  1.1603249E-04;  1.0001176E+03;  1.0000000E-01;  9.7478722E+01;3; -1.6763766E-01;  0.0000000E+00;  2.4622846E-02;0;  2.0280201E-03;  4.0011836E+04;  0.0000000E+00; -2.3341617E-02;  4.0000000E+04;  0.0000000E+00;  3.9991125E+04;  1.4450219E-03;  0.0000000E+00;  5.8299821E-04;  1.1040798E+03;
  2.0149723E-01;  9.9999998E-03;  8.0082737E-02;3704;  3.5473423E-03;  0.0000000E+00;  1.0880848E-04;  1.0001102E+03;  1.0000000E-01;  9.1256676E+01;3; -1.7005497E-01;  0.0000000E+00;  2.5339782E-02;0;  1.8941592E-03;  4.0010703E+04;  0.0000000E+00; -1.4431528E-02;  4.0000000E+04;  0.0000000E+00;  3.9992047E+04;  1.3365938E-03;  0.0000000E+00;  5.5756554E-04;  1.0067339E+03;
  2.0144866E-01;  9.9999998E-03;  9.0091482E-02;3705;  3.5113629E-03;  0.0000000E+00;  1.0503660E-04;  1.0001032E+03;  1.0000000E-01;  8.5528442E+01;3; -1.7240971E-01;  0.0000000E+00;  2.6182346E-02;0;  1.8341107E-03;  4.0009254E+04;  0.0000000E+00; -3.3354871E-03;  4.0000000E+04;  0.0000000E+00;  3.9993082E+04;  1.2884290E-03;  0.0000000E+00;  5.4568169E-04;  8.6849384E+02;
  2.0140961E-01;  9.9999998E-03;  1.0009912E-01;3706;  3.4914988E-03;  0.0000000E+00;  1.0624529E-04;  1.0000966E+03;  1.0000000E-01;  7.9997734E+01;3; -1.7479767E-01;  0.0000000E+00;  2.7293473E-02;0;  1.8598888E-03;  4.0007941E+04;  0.0000000E+00;  5.6013498E-03;  4.0000000E+04;  0.0000000E+00;  3.9994711E+04;  1.3162178E-03;  0.0000000E+00;  5.4367096E-04;  7.1640051E+02;
  2.0138668E-01;  9.9999998E-03;  1.1010593E-01;3707;  3.4918908E-03;  0.0000000E+00;  1.1325091E-04;  1.0000983E+03;  1.0000000E-01;  8.1479179E+01;3; -1.7694280E-01;  0.0000000E+00;  2.8745865E-02;0;  1.9773238E-03;  4.0007004E+04;  0.0000000E+00;  5.9347195E-03;  4.0000000E+04;  0.0000000E+00;  3.9995586E+04;  1.4296620E-03;  0.0000000E+00;  5.4766180E-04;  5.8181531E+02;
  2.0138147E-01;  9.9999998E-03;  1.2011188E-01;3708;  3.5139427E-03;  0.0000000E+00;  1.2961111E-04;  1.0001055E+03;  1.0000000E-01;  8.7404938E+01;3; -1.7878909E-01;  0.0000000E+00;  3.0889466E-02;0;  2.1844897E-03;  4.0006871E+04;  0.0000000E+00; -1.0515491E-02;  4.0000000E+04;  0.0000000E+00;  3.9996320E+04;  1.6303486E-03;  0.0000000E+00;  5.5414118E-04;  4.9687244E+02;
  2.0139167E-01;  9.9999998E-03;  1.3011460E-01;3709;  3.5575903E-03;  0.0000000E+00;  1.5645089E-04;  1.0001152E+03;  1.0000000E-01;  9.5503471E+01;3; -1.8037134E-01;  0.0000000E+00;  3.2903977E-02;0;  2.4713634E-03;  4.0008301E+04;  0.0000000E+00; -5.2382674E-02;  4.0000000E+04;  0.0000000E+00;  3.9996234E+04;  1.9111687E-03;  0.0000000E+00;  5.6019472E-04;  4.9472510E+02;
  2.0141076E-01;  9.9999998E-03;  1.4011201E-01;3710;  3.6168688E-03;  0.0000000E+00;  1.9397525E-04;  1.0001380E+03;  1.0000000E-01;  1.1436713E+02;3; -1.8209104E-01;  0.0000000E+00;  3.5083737E-02;0;  2.8201193E-03;  4.0010918E+04;  0.0000000E+00; -1.2619495E-01;  4.0000000E+04;  0.0000000E+00;  3.9994484E+04;  2.2568060E-03;  0.0000000E+00;  5.6331314E-04;  6.0208350E+02;
  2.0142518E-01;  9.9999998E-03;  1.5010247E-01;3711;  3.6807118E-03;  0.0000000E+00;  2.4099152E-04;  1.0001676E+03;  1.0000000E-01;  1.3886028E+02;3; -1.8355575E-01;  0.0000000E+00;  4.1654292E-02;0;  3.2065585E-03;  4.0015316E+04;  0.0000000E+00; -2.3286711E-01;  4.0000000E+04;  0.0000000E+00;  3.9993473E+04;  2.6458986E-03;  0.0000000E+00;  5.6065980E-04;  8.1815637E+02;
  2.0142274E-01;  9.9999998E-03;  1.6008680E-01;3712;  3.7340163E-03;  0.0000000E+00;  2.8961626E-04;  1.0002017E+03;  1.0000000E-01;  1.6710638E+02;3; -1.9266005E-01;  0.0000000E+00;  8.9687176E-02;0;  3.6066801E-03;  4.0021008E+04;  0.0000000E+00; -3.5740015E-01;  4.0000000E+04;  0.0000000E+00;  3.9992453E+04;  3.0568379E-03;  0.0000000E+00;  5.4984208E-04;  1.1048405E+03;
  2.0139450E-01;  9.9999998E-03;  1.7006898E-01;3713;  3.7589630E-03;  0.0000000E+00;  3.3076631E-04;  1.0002427E+03;  1.0000000E-01;  2.0108073E+02;3; -2.3337339E-01;  0.0000000E+00;  2.4217477E-01;0;  4.0057241E-03;  4.0026938E+04;  0.0000000E+00; -4.5107731E-01;  4.0000000E+04;  0.0000000E+00;  3.9990305E+04;  3.4744674E-03;  0.0000000E+00;  5.3125655E-04;  1.3806095E+03;
  2.0133902E-01;  9.9999998E-03;  1.8005751E-01;3714;  3.7436360E-03;  0.0000000E+00;  3.6044122E-04;  1.0002813E+03;  1.0000000E-01;  2.3307983E+02;3; -3.4837726E-01;  0.0000000E+00;  5.7538855E-01;0;  4.4021066E-03;  4.0031910E+04;  0.0000000E+00; -4.1919887E-01;  4.0000000E+04;  0.0000000E+00;  3.9988926E+04;  3.8951871E-03;  0.0000000E+00;  5.0691934E-04;  1.5189633E+03;
  2.0125364E-01;  9.9999998E-03;  1.9006799E-01;3715;  3.6831333E-03;  0.0000000E+00;  3.8582287E-04;  1.0003049E+03;  1.0000000E-01;  2.5263483E+02;3; -5.9233111E-01;  0.0000000E+00;  1.1651413E+00;0;  4.8054424E-03;  4.0034828E+04;  0.0000000E+00; -1.2566891E-01;  4.0000000E+04;  0.0000000E+00;  3.9989023E+04;  4.3280385E-03;  0.0000000E+00;  4.7740404E-04;  1.4446877E+03;
  2.0114093E-01;  9.9999998E-03;  2.0011276E-01;3716;  3.5662430E-03;  0.0000000E+00;  4.2190927E-04;  1.0002832E+03;  1.0000000E-01;  2.3466003E+02;3; -1.0005291E+00;  0.0000000E+00;  2.0726242E+00;0;  5.2363896E-03;  4.0034383E+04;  0.0000000E+00;  5.8259994E-01;  4.0000000E+04;  0.0000000E+00;  3.9988980E+04;  4.7927396E-03;  0.0000000E+00;  4.4364983E-04;  1.6001208E+03;
  2.0102572E-01;  9.9999998E-03;  2.1017414E-01;3717;  3.3896952E-03;  0.0000000E+00;  4.9291685E-04;  1.0002104E+03;  1.0000000E-01;  1.7431606E+02;3; -1.5454080E+00;  0.0000000E+00;  3.3051374E+00;0;  5.7362197E-03;  4.0028414E+04;  0.0000000E+00;  1.8485866E+00;  4.0000000E+04;  0.0000000E+00;  3.9990145E+04;  5.3146365E-03;  0.0000000E+00;  4.2158333E-04;  2.9817424E+03;
  2.0089698E-01;  9.9999998E-03;  2.2026008E-01;3718;  3.1635771E-03;  0.0000000E+00;  5.6536560E-04;  1.0000258E+03;  1.0000000E-01;  2.1431492E+01;3; -2.1224656E+00;  0.0000000E+00;  4.5464082E+00;0;  6.3387100E-03;  4.0016672E+04;  0.0000000E+00;  3.7969959E+00;  4.0000000E+04;  0.0000000E+00;  3.9988645E+04;  5.9170239E-03;  0.0000000E+00;  4.2168633E-04;  5.7710718E+03;
  2.0081790E-01;  9.9999998E-03;  2.3031698E-01;3719;  2.9013851E-03;  0.0000000E+00;  5.7603477E-04;  9.9971442E+02;  1.0000000E-01; -2.3658591E+02;3; -2.4596524E+00;  0.0000000E+00;  5.1721201E+00;0;  7.0107435E-03;  3.9996957E+04;  0.0000000E+00;  6.5045686E+00;  4.0000000E+04;  0.0000000E+00;  3.9984895E+04;  6.6136485E-03;  0.0000000E+00;  3.9709493E-04;  9.8236074E+03;
  2.1167839E-01;  9.9999998E-03;  7.0017807E-02;3764;  3.6139861E-03;  0.0000000E+00;  1.6342988E-04;  9.9994946E+02;  1.0000000E-01; -4.1875359E+01;3; -1.6536430E-01;  0.0000000E+00;  2.8482040E-02;0;  3.1875586E-03;  4.0002391E+04;  0.0000000E+00; -1.8142801E-03;  4.0000000E+04;  0.0000000E+00;  3.9988039E+04;  2.6384762E-03;  0.0000000E+00;  5.4908235E-04;  1.4666442E+03;
  2.1166386E-01;  9.9999998E-03;  8.0025785E-02;3765;  3.5596709E-03;  0.0000000E+00;  1.5472529E-04;  9.9992719E+02;  1.0000000E-01; -6.0343971E+01;3; -1.6793756E-01;  0.0000000E+00;  2.9204823E-02;0;  3.0588494E-03;  4.0000023E+04;  0.0000000E+00;  1.1152619E-02;  4.0000000E+04;  0.0000000E+00;  3.9988250E+04;  2.5436054E-03;  0.0000000E+00;  5.1524409E-04;  1.4126281E+03;
  2.1162499E-01;  9.9999998E-03;  9.0035975E-02;3766;  3.5182098E-03;  0.0000000E+00;  1.4853611E-04;  9.9989557E+02;  1.0000000E-01; -8.6516075E+01;3; -1.7050733E-01;  0.0000000E+00;  2.9824320E-02;0;  2.9823894E-03;  3.9996887E+04;  0.0000000E+00;  2.7473727E-02;  4.0000000E+04;  0.0000000E+00;  3.9988984E+04;  2.4876909E-03;  0.0000000E+00;  4.9469853E-04;  1.3228749E+03;
  2.1156059E-01;  9.9999998E-03;  1.0005283E-01;3767;  3.4953838E-03;  0.0000000E+00;  1.4711799E-04;  9.9986389E+02;  1.0000000E-01; -1.1278693E+02;3; -1.7304289E-01;  0.0000000E+00;  3.1173062E-02;0;  2.9703351E-03;  3.9993672E+04;  0.0000000E+00;  4.3852996E-02;  4.0000000E+04;  0.0000000E+00;  3.9989469E+04;  2.4847346E-03;  0.0000000E+00;  4.8560035E-04;  1.2182002E+03;
  2.1147801E-01;  9.9999998E-03;  1.1007903E-01;3768;  3.4963437E-03;  0.0000000E+00;  1.5252816E-04;  9.9983630E+02;  1.0000000E-01; -1.3560110E+02;3; -1.7504106E-01;  0.0000000E+00;  3.2758962E-02;0;  3.0323579E-03;  3.9990609E+04;  0.0000000E+00;  5.4456487E-02;  4.0000000E+04;  0.0000000E+00;  3.9991586E+04;  2.5464660E-03;  0.0000000E+00;  4.8589206E-04;  1.1192020E+03;
  2.1140666E-01;  9.9999998E-03;  1.2010739E-01;3769;  3.5251232E-03;  0.0000000E+00;  1.6972223E-04;  9.9981146E+02;  1.0000000E-01; -1.5619312E+02;3; -1.7657717E-01;  0.0000000E+00;  3.5662107E-02;0;  3.1747851E-03;  3.9988129E+04;  0.0000000E+00;  5.0565913E-02;  4.0000000E+04;  0.0000000E+00;  3.9991566E+04;  2.6815757E-03;  0.0000000E+00;  4.9320929E-04;  1.0464403E+03;
  2.1136817E-01;  9.9999998E-03;  1.3012989E-01;3770;  3.5820093E-03;  0.0000000E+00;  2.0597155E-04;  9.9979510E+02;  1.0000000E-01; -1.6977298E+02;3; -1.7793787E-01;  0.0000000E+00;  3.8600750E-02;0;  3.3956829E-03;  3.9986871E+04;  0.0000000E+00;  2.1353345E-02;  4.0000000E+04;  0.0000000E+00;  3.9991453E+04;  2.8904628E-03;  0.0000000E+00;  5.0522014E-04;  1.0173226E+03;
  2.1135195E-01;  9.9999998E-03;  1.4014652E-01;3771;  3.6611967E-03;  0.0000000E+00;  2.6162012E-04;  9.9978815E+02;  1.0000000E-01; -1.7550121E+02;3; -1.7897530E-01;  0.0000000E+00;  4.0992003E-02;0;  3.6830674E-03;  3.9987016E+04;  0.0000000E+00; -4.3733392E-02;  4.0000000E+04;  0.0000000E+00;  3.9991172E+04;  3.1631214E-03;  0.0000000E+00;  5.1994593E-04;  1.0464924E+03;
  2.1134390E-01;  9.9999998E-03;  1.5015186E-01;3772;  3.7463491E-03;  0.0000000E+00;  3.2489514E-04;  9.9979578E+02;  1.0000000E-01; -1.6918040E+02;3; -1.7975381E-01;  0.0000000E+00;  4.6841245E-02;0;  4.0188241E-03;  3.9988645E+04;  0.0000000E+00; -1.5074630E-01;  4.0000000E+04;  0.0000000E+00;  3.9990457E+04;  3.4836172E-03;  0.0000000E+00;  5.3520699E-04;  1.1491992E+03;
  2.1133067E-01;  9.9999998E-03;  1.6014397E-01;3773;  3.8162775E-03;  0.0000000E+00;  3.7269207E-04;  9.9980988E+02;  1.0000000E-01; -1.5752641E+02;3; -1.8642333E-01;  0.0000000E+00;  8.5556522E-02;0;  4.3840534E-03;  3.9991582E+04;  0.0000000E+00; -2.8883356E-01;  4.0000000E+04;  0.0000000E+00;  3.9989516E+04;  3.8348311E-03;  0.0000000E+00;  5.4922223E-04;  1.3285438E+03;
  2.1130008E-01;  9.9999998E-03;  1.7012586E-01;3774;  3.8597335E-03;  0.0000000E+00;  3.9769465E-04;  9.9983197E+02;  1.0000000E-01; -1.3920593E+02;3; -2.2374487E-01;  0.0000000E+00;  2.0808628E-01;0;  4.7670146E-03;  3.9994969E+04;  0.0000000E+00; -4.0913787E-01;  4.0000000E+04;  0.0000000E+00;  3.9988484E+04;  4.2047971E-03;  0.0000000E+00;  5.6221761E-04;  1.5412404E+03;
  2.1124548E-01;  9.9999998E-03;  1.8010592E-01;3775;  3.8636001E-03;  0.0000000E+00;  4.0234183E-04;  9.9984833E+02;  1.0000000E-01; -1.2567546E+02;3; -3.3650121E-01;  0.0000000E+00;  4.7662401E-01;0;  5.1656072E-03;  3.9998402E+04;  0.0000000E+00; -4.1129372E-01;  4.0000000E+04;  0.0000000E+00;  3.9987035E+04;  4.5909253E-03;  0.0000000E+00;  5.7468208E-04;  1.6772650E+03;
  2.1116643E-01;  9.9999998E-03;  1.9009887E-01;3776;  3.8096511E-03;  0.0000000E+00;  4.0626177E-04;  9.9985358E+02;  1.0000000E-01; -1.2132990E+02;3; -5.8317536E-01;  0.0000000E+00;  9.4868988E-01;0;  5.5863545E-03;  4.0000480E+04;  0.0000000E+00; -1.4915641E-01;  4.0000000E+04;  0.0000000E+00;  3.9986328E+04;  5.0008763E-03;  0.0000000E+00;  5.8547832E-04;  1.6502040E+03;
  2.1105799E-01;  9.9999998E-03;  2.0012443E-01;3777;  3.6807023E-03;  0.0000000E+00;  4.3274165E-04;  9.9983508E+02;  1.0000000E-01; -1.3663811E+02;3; -1.0018253E+00;  0.0000000E+00;  1.6705470E+00;0;  6.0458886E-03;  4.0000051E+04;  0.0000000E+00;  5.4302233E-01;  4.0000000E+04;  0.0000000E+00;  3.9986238E+04;  5.4490715E-03;  0.0000000E+00;  5.9681694E-04;  1.8273590E+03;
  2.1094947E-01;  9.9999998E-03;  2.1017101E-01;3778;  3.4891351E-03;  0.0000000E+00;  4.8026771E-04;  9.9976001E+02;  1.0000000E-01; -1.9880919E+02;3; -1.5935651E+00;  0.0000000E+00;  2.5922406E+00;0;  6.5727425E-03;  3.9996027E+04;  0.0000000E+00;  1.8191514E+00;  4.0000000E+04;  0.0000000E+00;  3.9986141E+04;  5.9548588E-03;  0.0000000E+00;  6.1788381E-04;  3.1611738E+03;
  2.1083821E-01;  9.9999998E-03;  2.2023448E-01;3779;  3.2675867E-03;  0.0000000E+00;  5.2135513E-04;  9.9960211E+02;  1.0000000E-01; -3.2962030E+02;3; -2.2872710E+00;  0.0000000E+00;  3.4213927E+00;0;  7.1875476E-03;  3.9987707E+04;  0.0000000E+00;  3.8114519E+00;  4.0000000E+04;  0.0000000E+00;  3.9983719E+04;  6.5390668E-03;  0.0000000E+00;  6.4848096E-04;  5.9688848E+03;
  2.1074052E-01;  9.9999998E-03;  2.3028389E-01;3780;  3.0414399E-03;  0.0000000E+00;  4.8718177E-04;  9.9934760E+02;  1.0000000E-01; -5.4052789E+02;3; -2.8974009E+00;  0.0000000E+00;  3.4857183E+00;0;  7.8205355E-03;  3.9974422E+04;  0.0000000E+00;  6.6582603E+00;  4.0000000E+04;  0.0000000E+00;  3.9977301E+04;  7.2221416E-03;  0.0000000E+00;  5.9839367E-04;  1.0226736E+04;
  2.2164796E-01;  9.9999998E-03;  7.0000254E-02;3825;  3.6987264E-03;  0.0000000E+00;  2.2031556E-04;  9.9976532E+02;  1.0000000E-01; -1.9441426E+02;3; -1.6044886E-01;  0.0000000E+00;  3.5480861E-02;0;  4.1701593E-03;  3.9989977E+04;  0.0000000E+00;  2.6770256E-02;  4.0000000E+04;  0.0000000E+00;  3.9986410E+04;  3.6910411E-03;  0.0000000E+00;  4.7911832E-04;  1.6408998E+03;
  2.2167490E-01;  9.9999998E-03;  8.0000848E-02;3826;  3.6282518E-03;  0.0000000E+00;  2.0711943E-04;  9.9973175E+02;  1.0000000E-01; -2.2221594E+02;3; -1.6356282E-01;  0.0000000E+00;  3.6551632E-02;0;  4.0615727E-03;  3.9987152E+04;  0.0000000E+00;  4.5200590E-02;  4.0000000E+04;  0.0000000E+00;  3.9986473E+04;  3.6221463E-03;  0.0000000E+00;  4.3942634E-04;  1.6278652E+03;
  2.2168767E-01;  9.9999998E-03;  9.0000652E-02;3827;  3.5761222E-03;  0.0000000E+00;  1.9803949E-04;  9.9968640E+02;  1.0000000E-01; -2.5979514E+02;3; -1.6720125E-01;  0.0000000E+00;  3.5528261E-02;0;  3.9853919E-03;  3.9983047E+04;  0.0000000E+00;  6.8077751E-02;  4.0000000E+04;  0.0000000E+00;  3.9986484E+04;  3.5740626E-03;  0.0000000E+00;  4.1132944E-04;  1.5860524E+03;
  2.2168069E-01;  9.9999998E-03;  1.0000504E-01;3828;  3.5485039E-03;  0.0000000E+00;  1.9457581E-04;  9.9963367E+02;  1.0000000E-01; -3.0349759E+02;3; -1.6981550E-01;  0.0000000E+00;  3.6277872E-02;0;  3.9526559E-03;  3.9978590E+04;  0.0000000E+00;  9.3473770E-02;  4.0000000E+04;  0.0000000E+00;  3.9987312E+04;  3.5580818E-03;  0.0000000E+00;  3.9457416E-04;  1.5323149E+03;
  2.2164564E-01;  9.9999998E-03;  1.1001956E-01;3829;  3.5501483E-03;  0.0000000E+00;  1.9975464E-04;  9.9957098E+02;  1.0000000E-01; -3.5544675E+02;3; -1.7206383E-01;  0.0000000E+00;  3.7513807E-02;0;  3.9732950E-03;  3.9972809E+04;  0.0000000E+00;  1.1700800E-01;  4.0000000E+04;  0.0000000E+00;  3.9988023E+04;  3.5842212E-03;  0.0000000E+00;  3.8907389E-04;  1.4784973E+03;
  2.2157697E-01;  9.9999998E-03;  1.2005018E-01;3830;  3.5869882E-03;  0.0000000E+00;  2.2309607E-04;  9.9951086E+02;  1.0000000E-01; -4.0522311E+02;3; -1.7375442E-01;  0.0000000E+00;  3.8815949E-02;0;  4.0548365E-03;  3.9967852E+04;  0.0000000E+00;  1.3079576E-01;  4.0000000E+04;  0.0000000E+00;  3.9988297E+04;  3.6603585E-03;  0.0000000E+00;  3.9447792E-04;  1.4293843E+03;
  2.2147588E-01;  9.9999998E-03;  1.3010135E-01;3831;  3.6592043E-03;  0.0000000E+00;  2.6661088E-04;  9.9946100E+02;  1.0000000E-01; -4.4655527E+02;3; -1.7577569E-01;  0.0000000E+00;  3.6495768E-02;0;  4.2009857E-03;  3.9963336E+04;  0.0000000E+00;  1.2330815E-01;  4.0000000E+04;  0.0000000E+00;  3.9988637E+04;  3.7910324E-03;  0.0000000E+00;  4.0995312E-04;  1.3855413E+03;
  2.2138496E-01;  9.9999998E-03;  1.4015518E-01;3832;  3.7583876E-03;  0.0000000E+00;  3.0900654E-04;  9.9941852E+02;  1.0000000E-01; -4.8176416E+02;3; -1.7523952E-01;  0.0000000E+00;  3.8153522E-02;0;  4.4121132E-03;  3.9960250E+04;  0.0000000E+00;  8.1288792E-02;  4.0000000E+04;  0.0000000E+00;  3.9988191E+04;  3.9782338E-03;  0.0000000E+00;  4.3387926E-04;  1.3533339E+03;
  2.2132944E-01;  9.9999998E-03;  1.5018116E-01;3833;  3.8790070E-03;  0.0000000E+00;  3.3026451E-04;  9.9939124E+02;  1.0000000E-01; -5.0433142E+02;3; -1.6956891E-01;  0.0000000E+00;  4.4930350E-02;0;  4.6808692E-03;  3.9958422E+04;  0.0000000E+00; -6.2552774E-03;  4.0000000E+04;  0.0000000E+00;  3.9988488E+04;  4.2162100E-03;  0.0000000E+00;  4.6465913E-04;  1.3493943E+03;
  2.2130896E-01;  9.9999998E-03;  1.6017728E-01;3834;  4.0230397E-03;  0.0000000E+00;  3.2086996E-04;  9.9937854E+02;  1.0000000E-01; -5.1484961E+02;3; -1.5756468E-01;  0.0000000E+00;  7.0354134E-02;0;  4.9964637E-03;  3.9957895E+04;  0.0000000E+00; -1.3573484E-01;  4.0000000E+04;  0.0000000E+00;  3.9988141E+04;  4.4956515E-03;  0.0000000E+00;  5.0081214E-04;  1.4031914E+03;
  2.2130825E-01;  9.9999998E-03;  1.7015153E-01;3835;  4.1677863E-03;  0.0000000E+00;  2.8688394E-04;  9.9936835E+02;  1.0000000E-01; -5.2329382E+02;3; -1.4745416E-01;  0.0000000E+00;  1.5211360E-01;0;  5.3495495E-03;  3.9958758E+04;  0.0000000E+00; -2.6488858E-01;  4.0000000E+04;  0.0000000E+00;  3.9987383E+04;  4.8092171E-03;  0.0000000E+00;  5.4033217E-04;  1.5207744E+03;
  2.2128500E-01;  9.9999998E-03;  1.8011810E-01;3836;  4.2649345E-03;  0.0000000E+00;  2.4639553E-04;  9.9936261E+02;  1.0000000E-01; -5.2808380E+02;3; -1.8907034E-01;  0.0000000E+00;  3.4321746E-01;0;  5.7341056E-03;  3.9959895E+04;  0.0000000E+00; -2.9694310E-01;  4.0000000E+04;  0.0000000E+00;  3.9986586E+04;  5.1555061E-03;  0.0000000E+00;  5.7859957E-04;  1.6253680E+03;
  2.2121046E-01;  9.9999998E-03;  1.9009320E-01;3837;  4.2606327E-03;  0.0000000E+00;  2.1624172E-04;  9.9935242E+02;  1.0000000E-01; -5.3652802E+02;3; -4.1246176E-01;  0.0000000E+00;  7.1502519E-01;0;  6.1494573E-03;  3.9960316E+04;  0.0000000E+00; -8.5694239E-02;  4.0000000E+04;  0.0000000E+00;  3.9986352E+04;  5.5417265E-03;  0.0000000E+00;  6.0773065E-04;  1.6248256E+03;
  2.2108231E-01;  9.9999998E-03;  2.0009655E-01;3838;  4.0866337E-03;  0.0000000E+00;  2.3958256E-04;  9.9933374E+02;  1.0000000E-01; -5.5198438E+02;3; -8.7656707E-01;  0.0000000E+00;  1.3112839E+00;0;  6.6065658E-03;  3.9960078E+04;  0.0000000E+00;  5.4078710E-01;  4.0000000E+04;  0.0000000E+00;  3.9985918E+04;  5.9745968E-03;  0.0000000E+00;  6.3196919E-04;  1.8121003E+03;
  2.2094262E-01;  9.9999998E-03;  2.1012548E-01;3839;  3.7869643E-03;  0.0000000E+00;  3.1459911E-04;  9.9928143E+02;  1.0000000E-01; -5.9534119E+02;3; -1.4998895E+00;  0.0000000E+00;  2.0642097E+00;0;  7.1347030E-03;  3.9957539E+04;  0.0000000E+00;  1.7523222E+00;  4.0000000E+04;  0.0000000E+00;  3.9985773E+04;  6.4588636E-03;  0.0000000E+00;  6.7583926E-04;  3.0795393E+03;
  2.2083284E-01;  9.9999998E-03;  2.2016300E-01;3840;  3.5044763E-03;  0.0000000E+00;  3.7244192E-04;  9.9917548E+02;  1.0000000E-01; -6.8309180E+02;3; -2.2200611E+00;  0.0000000E+00;  2.7614694E+00;0;  7.7437605E-03;  3.9952582E+04;  0.0000000E+00;  3.6905673E+00;  4.0000000E+04;  0.0000000E+00;  3.9984090E+04;  7.0160707E-03;  0.0000000E+00;  7.2768977E-04;  5.7621543E+03;
  2.2074905E-01;  9.9999998E-03;  2.3019500E-01;3841;  3.2833503E-03;  0.0000000E+00;  3.5864915E-04;  9.9900012E+02;  1.0000000E-01; -8.2837164E+02;3; -2.9093122E+00;  0.0000000E+00;  2.9269109E+00;0;  8.3699999E-03;  3.9944027E+04;  0.0000000E+00;  6.4896040E+00;  4.0000000E+04;  0.0000000E+00;  3.9980430E+04;  7.6772296E-03;  0.0000000E+00;  6.9277018E-04;  9.8851494E+03;
  2.3154110E-01;  9.9999998E-03;  7.0009306E-02;3886;  3.8882671E-03;  0.0000000E+00;  2.0840617E-04;  9.9958508E+02;  1.0000000E-01; -3.4374338E+02;3; -1.2942642E-01;  0.0000000E+00;  5.3805936E-02;0;  4.8145629E-03;  3.9976844E+04;  0.0000000E+00;  5.3159706E-02;  4.0000000E+04;  0.0000000E+00;  3.9986660E+04;  4.4405204E-03;  0.0000000E+00;  3.7404255E-04;  1.6422305E+03;
  2.3158923E-01;  9.9999998E-03;  8.0006480E-02;3887;  3.7803890E-03;  0.0000000E+00;  2.2269828E-04;  9.9955542E+02;  1.0000000E-01; -3.6833527E+02;3; -1.4878389E-01;  0.0000000E+00;  4.1050840E-02;0;  4.7378629E-03;  3.9974539E+04;  0.0000000E+00;  7.6731399E-02;  4.0000000E+04;  0.0000000E+00;  3.9986566E+04;  4.4061849E-03;  0.0000000E+00;  3.3167802E-04;  1.6609998E+03;
  2.3163198E-01;  9.9999998E-03;  9.0000063E-02;3888;  3.7003469E-03;  0.0000000E+00;  2.2445850E-04;  9.9951093E+02;  1.0000000E-01; -4.0517374E+02;3; -1.5802391E-01;  0.0000000E+00;  3.2827351E-02;0;  4.6721050E-03;  3.9970824E+04;  0.0000000E+00;  1.0585022E-01;  4.0000000E+04;  0.0000000E+00;  3.9986219E+04;  4.3736575E-03;  0.0000000E+00;  2.9844744E-04;  1.6549366E+03;
  2.3166740E-01;  9.9999998E-03;  9.9994831E-02;3889;  3.6559808E-03;  0.0000000E+00;  2.2042534E-04;  9.9944666E+02;  1.0000000E-01; -4.5845618E+02;3; -1.6297510E-01;  0.0000000E+00;  3.1509262E-02;0;  4.6267845E-03;  3.9965797E+04;  0.0000000E+00;  1.4019296E-01;  4.0000000E+04;  0.0000000E+00;  3.9986102E+04;  4.3513840E-03;  0.0000000E+00;  2.7540058E-04;  1.6387129E+03;
  2.3168705E-01;  9.9999998E-03;  1.0999724E-01;3890;  3.6532287E-03;  0.0000000E+00;  2.1937692E-04;  9.9937109E+02;  1.0000000E-01; -5.2102228E+02;3; -1.6640866E-01;  0.0000000E+00;  2.8687794E-02;0;  4.6126656E-03;  3.9959422E+04;  0.0000000E+00;  1.7740092E-01;  4.0000000E+04;  0.0000000E+00;  3.9986336E+04;  4.3484974E-03;  0.0000000E+00;  2.6416834E-04;  1.6200454E+03;
  2.3167978E-01;  9.9999998E-03;  1.2001357E-01;3891;  3.6957429E-03;  0.0000000E+00;  2.2332440E-04;  9.9928387E+02;  1.0000000E-01; -5.9331653E+02;3; -1.6845000E-01;  0.0000000E+00;  2.2566540E-02;0;  4.6400912E-03;  3.9952016E+04;  0.0000000E+00;  2.1168463E-01;  4.0000000E+04;  0.0000000E+00;  3.9986312E+04;  4.3738675E-03;  0.0000000E+00;  2.6622388E-04;  1.5968569E+03;
  2.3163503E-01;  9.9999998E-03;  1.3004784E-01;3892;  3.7961551E-03;  0.0000000E+00;  2.2950866E-04;  9.9919946E+02;  1.0000000E-01; -6.6324048E+02;3; -1.6527219E-01;  0.0000000E+00;  1.9116305E-02;0;  4.7179181E-03;  3.9944758E+04;  0.0000000E+00;  2.3282756E-01;  4.0000000E+04;  0.0000000E+00;  3.9986805E+04;  4.4353143E-03;  0.0000000E+00;  2.8260369E-04;  1.5600239E+03;
  2.3155482E-01;  9.9999998E-03;  1.4009622E-01;3893;  3.9730351E-03;  0.0000000E+00;  2.2093688E-04;  9.9912012E+02;  1.0000000E-01; -7.2896704E+02;3; -1.4037186E-01;  0.0000000E+00;  2.0703023E-02;0;  4.8529026E-03;  3.9937934E+04;  0.0000000E+00;  2.2640090E-01;  4.0000000E+04;  0.0000000E+00;  3.9987301E+04;  4.5393021E-03;  0.0000000E+00;  3.1360047E-04;  1.5009214E+03;
  2.3149128E-01;  9.9999998E-03;  1.5013844E-01;3894;  4.2186291E-03;  0.0000000E+00;  1.8309073E-04;  9.9905597E+02;  1.0000000E-01; -7.8210132E+02;3; -3.3372104E-02;  0.0000000E+00;  1.4837764E-02;0;  5.0485670E-03;  3.9932457E+04;  0.0000000E+00;  1.7682919E-01;  4.0000000E+04;  0.0000000E+00;  3.9987684E+04;  4.6905391E-03;  0.0000000E+00;  3.5802770E-04;  1.4257733E+03;
  2.3147820E-01;  9.9999998E-03;  1.6014795E-01;3895;  4.4085439E-03;  0.0000000E+00;  1.3271850E-04;  9.9900562E+02;  1.0000000E-01; -8.2382855E+02;3;  5.8598060E-02;  0.0000000E+00;  8.6975074E-04;0;  5.2998001E-03;  3.9928648E+04;  0.0000000E+00;  7.9016991E-02;  4.0000000E+04;  0.0000000E+00;  3.9987910E+04;  4.8867008E-03;  0.0000000E+00;  4.1309930E-04;  1.3678716E+03;
  2.3146628E-01;  9.9999998E-03;  1.7012486E-01;3896;  4.5204195E-03;  0.0000000E+00;  9.6396230E-05;  9.9896722E+02;  1.0000000E-01; -8.5563013E+02;3;  4.5129482E-02;  0.0000000E+00;  5.1378384E-02;0;  5.6004743E-03;  3.9926336E+04;  0.0000000E+00; -3.7708439E-02;  4.0000000E+04;  0.0000000E+00;  3.9988156E+04;  5.1263613E-03;  0.0000000E+00;  4.7411313E-04;  1.3673478E+03;
  2.3142524E-01;  9.9999998E-03;  1.8008770E-01;3897;  4.5804442E-03;  0.0000000E+00;  6.5111577E-05;  9.9893524E+02;  1.0000000E-01; -8.8214789E+02;3; -4.2348668E-02;  0.0000000E+00;  1.9984150E-01;0;  5.9486274E-03;  3.9924582E+04;  0.0000000E+00; -9.0332493E-02;  4.0000000E+04;  0.0000000E+00;  3.9987941E+04;  5.4155774E-03;  0.0000000E+00;  5.3305010E-04;  1.4004552E+03;
  2.3135498E-01;  9.9999998E-03;  1.9005078E-01;3898;  4.5924312E-03;  0.0000000E+00;  3.1219231E-05;  9.9891046E+02;  1.0000000E-01; -9.0264111E+02;3; -2.3790556E-01;  0.0000000E+00;  4.8792753E-01;0;  6.3421112E-03;  3.9923430E+04;  0.0000000E+00;  5.4658260E-02;  4.0000000E+04;  0.0000000E+00;  3.9987566E+04;  5.7658413E-03;  0.0000000E+00;  5.7626958E-04;  1.3849043E+03;
  2.3125149E-01;  9.9999998E-03;  2.0002873E-01;3899;  4.5430716E-03;  0.0000000E+00; -7.8777121E-06;  9.9888898E+02;  1.0000000E-01; -9.2046777E+02;3; -5.9208465E-01;  0.0000000E+00;  9.5590115E-01;0;  6.7723300E-03;  3.9921547E+04;  0.0000000E+00;  5.5612856E-01;  4.0000000E+04;  0.0000000E+00;  3.9988582E+04;  6.1913095E-03;  0.0000000E+00;  5.8102026E-04;  1.5098589E+03;
  2.3110962E-01;  9.9999998E-03;  2.1003753E-01;3900;  4.4000642E-03;  0.0000000E+00; -2.8342158E-05;  9.9885822E+02;  1.0000000E-01; -9.4594855E+02;3; -1.1329746E+00;  0.0000000E+00;  1.6090074E+00;0;  7.2317440E-03;  3.9919410E+04;  0.0000000E+00;  1.5744431E+00;  4.0000000E+04;  0.0000000E+00;  3.9989797E+04;  6.7011844E-03;  0.0000000E+00;  5.3055945E-04;  2.5842236E+03;
  2.3094553E-01;  9.9999998E-03;  2.2006766E-01;3901;  4.0127235E-03;  0.0000000E+00;  6.0311508E-05;  9.9880627E+02;  1.0000000E-01; -9.8895966E+02;3; -1.9143968E+00;  0.0000000E+00;  2.3600407E+00;0;  7.7815279E-03;  3.9916859E+04;  0.0000000E+00;  3.2888896E+00;  4.0000000E+04;  0.0000000E+00;  3.9989957E+04;  7.2548441E-03;  0.0000000E+00;  5.2668399E-04;  4.9880479E+03;
  2.3082681E-01;  9.9999998E-03;  2.3009391E-01;3902;  3.5906436E-03;  0.0000000E+00;  2.0008707E-04;  9.9871832E+02;  1.0000000E-01; -1.0618466E+03;3; -2.6291738E+00;  0.0000000E+00;  2.8297861E+00;0;  8.5015465E-03;  3.9913012E+04;  0.0000000E+00;  5.8488007E+00;  4.0000000E+04;  0.0000000E+00;  3.9989148E+04;  7.8468192E-03;  0.0000000E+00;  6.5472705E-04;  8.7422080E+03;
  2.4145685E-01;  9.9999998E-03;  7.0017859E-02;3947;  4.3621291E-03;  0.0000000E+00; -9.3084227E-06;  9.9943085E+02;  1.0000000E-01; -4.7154221E+02;3;  8.4360175E-02;  0.0000000E+00; -1.1079691E-03;0;  5.0272485E-03;  3.9964941E+04;  0.0000000E+00;  6.8963021E-02;  4.0000000E+04;  0.0000000E+00;  3.9987680E+04;  4.7904640E-03;  0.0000000E+00;  2.3678470E-04;  1.5043792E+03;
  2.4148802E-01;  9.9999998E-03;  8.0015384E-02;3948;  4.1501471E-03;  0.0000000E+00;  7.1075461E-05;  9.9942200E+02;  1.0000000E-01; -4.7885065E+02;3; -3.2352027E-02;  0.0000000E+00;  3.7011962E-02;0;  4.9918974E-03;  3.9964320E+04;  0.0000000E+00;  9.5428415E-02;  4.0000000E+04;  0.0000000E+00;  3.9987082E+04;  4.7969646E-03;  0.0000000E+00;  1.9493281E-04;  1.5467137E+03;
  2.4153981E-01;  9.9999998E-03;  9.0007231E-02;3949;  3.9795167E-03;  0.0000000E+00;  1.2860494E-04;  9.9939319E+02;  1.0000000E-01; -5.0275122E+02;3; -9.0375625E-02;  0.0000000E+00;  3.8161226E-02;0;  4.9473098E-03;  3.9961887E+04;  0.0000000E+00;  1.2844315E-01;  4.0000000E+04;  0.0000000E+00;  3.9987043E+04;  4.7875675E-03;  0.0000000E+00;  1.5974211E-04;  1.5653639E+03;
  2.4159513E-01;  9.9999998E-03;  9.9997908E-02;3950;  3.8849888E-03;  0.0000000E+00;  1.4731396E-04;  9.9934607E+02;  1.0000000E-01; -5.4176245E+02;3; -1.1804189E-01;  0.0000000E+00;  2.0915754E-02;0;  4.8996727E-03;  3.9958020E+04;  0.0000000E+00;  1.6924371E-01;  4.0000000E+04;  0.0000000E+00;  3.9987426E+04;  4.7662728E-03;  0.0000000E+00;  1.3340003E-04;  1.5726448E+03;
  2.4165091E-01;  9.9999998E-03;  1.0999212E-01;3951;  3.8628117E-03;  0.0000000E+00;  1.4381844E-04;  9.9927393E+02;  1.0000000E-01; -6.0156323E+02;3; -1.2816490E-01;  0.0000000E+00;  1.3252355E-02;0;  4.8592072E-03;  3.9952301E+04;  0.0000000E+00;  2.1771379E-01;  4.0000000E+04;  0.0000000E+00;  3.9987117E+04;  4.7404198E-03;  0.0000000E+00;  1.1878730E-04;  1.5749479E+03;
  2.4170750E-01;  9.9999998E-03;  1.1999349E-01;3952;  3.9306376E-03;  0.0000000E+00;  1.3029002E-04;  9.9918268E+02;  1.0000000E-01; -6.7711664E+02;3; -1.1965496E-01;  0.0000000E+00;  6.9542187E-03;0;  4.8388224E-03;  3.9944656E+04;  0.0000000E+00;  2.7083740E-01;  4.0000000E+04;  0.0000000E+00;  3.9986902E+04;  4.7199144E-03;  0.0000000E+00;  1.1890820E-04;  1.5692633E+03;
  2.4176432E-01;  9.9999998E-03;  1.3000597E-01;3953;  4.1104900E-03;  0.0000000E+00;  1.0552876E-04;  9.9908160E+02;  1.0000000E-01; -7.6086737E+02;3; -4.4407859E-02;  0.0000000E+00;  3.3804229E-03;0;  4.8521282E-03;  3.9935895E+04;  0.0000000E+00;  3.2117745E-01;  4.0000000E+04;  0.0000000E+00;  3.9987184E+04;  4.7158245E-03;  0.0000000E+00;  1.3630372E-04;  1.5448652E+03;
  2.4180000E-01;  9.9999998E-03;  1.4002562E-01;3954;  4.3042013E-03;  0.0000000E+00;  6.1834828E-05;  9.9897815E+02;  1.0000000E-01; -8.4659332E+02;3;  6.9083691E-02;  0.0000000E+00; -1.3909614E-02;0;  4.9124230E-03;  3.9926746E+04;  0.0000000E+00;  3.5592464E-01;  4.0000000E+04;  0.0000000E+00;  3.9987961E+04;  4.7395867E-03;  0.0000000E+00;  1.7283637E-04;  1.4898964E+03;
  2.4178553E-01;  9.9999998E-03;  1.5005305E-01;3955;  4.4297082E-03;  0.0000000E+00;  3.2032822E-05;  9.9887933E+02;  1.0000000E-01; -9.2846759E+02;3;  9.5140740E-02;  0.0000000E+00; -2.7197814E-02;0;  5.0313463E-03;  3.9918410E+04;  0.0000000E+00;  3.5763809E-01;  4.0000000E+04;  0.0000000E+00;  3.9988473E+04;  4.8024789E-03;  0.0000000E+00;  2.2886744E-04;  1.3987628E+03;
  2.4171478E-01;  9.9999998E-03;  1.6007692E-01;3956;  4.5234216E-03;  0.0000000E+00;  1.8623341E-05;  9.9879553E+02;  1.0000000E-01; -9.9789771E+02;3;  9.2701323E-02;  0.0000000E+00; -2.5113909E-02;0;  5.2156989E-03;  3.9910809E+04;  0.0000000E+00;  3.1167093E-01;  4.0000000E+04;  0.0000000E+00;  3.9989301E+04;  4.9146605E-03;  0.0000000E+00;  3.0103844E-04;  1.2843018E+03;
  2.4162176E-01;  9.9999998E-03;  1.7007668E-01;3957;  4.5992560E-03;  0.0000000E+00;  6.2619074E-06;  9.9871967E+02;  1.0000000E-01; -1.0607107E+03;3;  6.8880647E-02;  0.0000000E+00;  9.6094012E-03;0;  5.4664211E-03;  3.9904922E+04;  0.0000000E+00;  2.2973856E-01;  4.0000000E+04;  0.0000000E+00;  3.9989949E+04;  5.0841551E-03;  0.0000000E+00;  3.8226618E-04;  1.1867760E+03;
  2.4152510E-01;  9.9999998E-03;  1.8005310E-01;3958;  4.6511134E-03;  0.0000000E+00; -1.3993863E-05;  9.9865796E+02;  1.0000000E-01; -1.1118698E+03;3; -9.4481438E-05;  0.0000000E+00;  1.1732040E-01;0;  5.7816445E-03;  3.9900367E+04;  0.0000000E+00;  1.7283329E-01;  4.0000000E+04;  0.0000000E+00;  3.9990773E+04;  5.3188973E-03;  0.0000000E+00;  4.6274698E-04;  1.1370143E+03;
  2.4143168E-01;  9.9999998E-03;  1.9001710E-01;3959;  4.6680146E-03;  0.0000000E+00; -4.7016325E-05;  9.9860400E+02;  1.0000000E-01; -1.1565599E+03;3; -1.5561229E-01;  0.0000000E+00;  3.3562389E-01;0;  6.1547821E-03;  3.9896535E+04;  0.0000000E+00;  2.5234005E-01;  4.0000000E+04;  0.0000000E+00;  3.9990363E+04;  5.6282715E-03;  0.0000000E+00;  5.2651059E-04;  1.1095787E+03;
  2.4133532E-01;  9.9999998E-03;  1.9998236E-01;3960;  4.6415566E-03;  0.0000000E+00; -8.8179971E-05;  9.9857758E+02;  1.0000000E-01; -1.1784358E+03;3; -4.4242576E-01;  0.0000000E+00;  7.0571619E-01;0;  6.5712198E-03;  3.9893340E+04;  0.0000000E+00;  6.0805666E-01;  4.0000000E+04;  0.0000000E+00;  3.9992324E+04;  6.0229115E-03;  0.0000000E+00;  5.4830831E-04;  1.2301716E+03;
  2.4123135E-01;  9.9999998E-03;  2.0996299E-01;3961;  4.5557139E-03;  0.0000000E+00; -1.2780342E-04;  9.9856323E+02;  1.0000000E-01; -1.1903367E+03;3; -8.8011211E-01;  0.0000000E+00;  1.2651235E+00;0;  7.0068724E-03;  3.9890414E+04;  0.0000000E+00;  1.3764802E+00;  4.0000000E+04;  0.0000000E+00;  3.9995582E+04;  6.5111849E-03;  0.0000000E+00;  4.9568759E-04;  2.0877900E+03;
  2.4109976E-01;  9.9999998E-03;  2.1997750E-01;3962;  4.3821521E-03;  0.0000000E+00; -1.4097043E-04;  9.9855396E+02;  1.0000000E-01; -1.1980402E+03;3; -1.4562848E+00;  0.0000000E+00;  1.9814976E+00;0;  7.4511222E-03;  3.9888258E+04;  0.0000000E+00;  2.6981416E+00;  4.0000000E+04;  0.0000000E+00;  3.9998934E+04;  7.0921551E-03;  0.0000000E+00;  3.5896711E-04;  4.0076941E+03;
  2.4098837E-01;  9.9999998E-03;  2.3001157E-01;3963;  3.9968463E-03;  0.0000000E+00; -3.3878860E-05;  9.9850970E+02;  1.0000000E-01; -1.2346812E+03;3; -2.1814702E+00;  0.0000000E+00;  2.6416001E+00;0;  8.0549605E-03;  3.9886156E+04;  0.0000000E+00;  4.6891418E+00;  4.0000000E+04;  0.0000000E+00;  3.9999520E+04;  7.7041085E-03;  0.0000000E+00;  3.5085177E-04;  6.9651396E+03;
  2.5150961E-01;  9.9999998E-03;  7.0004903E-02;4008;  4.5292014E-03;  0.0000000E+00; -7.5436670E-05;  9.9933405E+02;  1.0000000E-01; -5.5173749E+02;3;  1.6684814E-01;  0.0000000E+00; -2.4206484E-02;0;  4.7880951E-03;  3.9956496E+04;  0.0000000E+00;  6.9245987E-02;  4.0000000E+04;  0.0000000E+00;  3.9989504E+04;  4.7134054E-03;  0.0000000E+00;  7.4689575E-05;  1.2674197E+03;
  2.5152862E-01;  9.9999998E-03;  8.0007546E-02;4009;  4.4543617E-03;  0.0000000E+00; -7.6131226E-05;  9.9935083E+02;  1.0000000E-01; -5.3781195E+02;3;  1.5241107E-01;  0.0000000E+00; -2.6017550E-02;0;  4.8017041E-03;  3.9958375E+04;  0.0000000E+00;  9.4888613E-02;  4.0000000E+04;  0.0000000E+00;  3.9988973E+04;  4.7665299E-03;  0.0000000E+00;  3.5174264E-05;  1.3278855E+03;
  2.5155097E-01;  9.9999998E-03;  9.0003513E-02;4010;  4.3673934E-03;  0.0000000E+00; -6.0595001E-05;  9.9935236E+02;  1.0000000E-01; -5.3657739E+02;3;  1.2459412E-01;  0.0000000E+00; -2.0842453E-02;0;  4.7885785E-03;  3.9958559E+04;  0.0000000E+00;  1.2779550E-01;  4.0000000E+04;  0.0000000E+00;  3.9988809E+04;  4.7872914E-03;  0.0000000E+00;  1.2869261E-06;  1.3646190E+03;
  2.5159258E-01;  9.9999998E-03;  9.9993832E-02;4011;  4.2521083E-03;  0.0000000E+00; -1.7373161E-05;  9.9933783E+02;  1.0000000E-01; -5.4857709E+02;3;  7.1027666E-02;  0.0000000E+00; -3.6449526E-03;0;  4.7508772E-03;  3.9957238E+04;  0.0000000E+00;  1.7060913E-01;  4.0000000E+04;  0.0000000E+00;  3.9989066E+04;  4.7754822E-03;  0.0000000E+00; -2.4605064E-05;  1.3865104E+03;
  2.5166562E-01;  9.9999998E-03;  1.0998386E-01;4012;  4.2013577E-03;  0.0000000E+00;  1.7461438E-06;  9.9929193E+02;  1.0000000E-01; -5.8660071E+02;3;  6.0560942E-02;  0.0000000E+00; -5.9615695E-03;0;  4.6972120E-03;  3.9953027E+04;  0.0000000E+00;  2.2529437E-01;  4.0000000E+04;  0.0000000E+00;  3.9989074E+04;  4.7361758E-03;  0.0000000E+00; -3.8963666E-05;  1.3992321E+03;
  2.5176233E-01;  9.9999998E-03;  1.1997706E-01;4013;  4.2364113E-03;  0.0000000E+00; -7.2246494E-06;  9.9922040E+02;  1.0000000E-01; -6.4590765E+02;3;  7.8616321E-02;  0.0000000E+00; -1.4022063E-02;0;  4.6419217E-03;  3.9947238E+04;  0.0000000E+00;  2.9165563E-01;  4.0000000E+04;  0.0000000E+00;  3.9989027E+04;  4.6794065E-03;  0.0000000E+00; -3.7484973E-05;  1.4023357E+03;
  2.5187245E-01;  9.9999998E-03;  1.2997653E-01;4014;  4.3125544E-03;  0.0000000E+00; -2.7412179E-05;  9.9912708E+02;  1.0000000E-01; -7.2318945E+02;3;  1.0002372E-01;  0.0000000E+00; -2.2782804E-02;0;  4.6037650E-03;  3.9939047E+04;  0.0000000E+00;  3.6570156E-01;  4.0000000E+04;  0.0000000E+00;  3.9989402E+04;  4.6200547E-03;  0.0000000E+00; -1.6289816E-05;  1.3902629E+03;
  2.5195223E-01;  9.9999998E-03;  1.3998236E-01;4015;  4.3871407E-03;  0.0000000E+00; -4.2720807E-05;  9.9901855E+02;  1.0000000E-01; -8.1311279E+02;3;  1.0811948E-01;  0.0000000E+00; -2.9634722E-02;0;  4.6048136E-03;  3.9929340E+04;  0.0000000E+00;  4.3789229E-01;  4.0000000E+04;  0.0000000E+00;  3.9990012E+04;  4.5773988E-03;  0.0000000E+00;  2.7415057E-05;  1.3559591E+03;
  2.5196770E-01;  9.9999998E-03;  1.4999498E-01;4016;  4.4600936E-03;  0.0000000E+00; -4.7776295E-05;  9.9890350E+02;  1.0000000E-01; -9.0841876E+02;3;  1.0519949E-01;  0.0000000E+00; -3.2613482E-02;0;  4.6648192E-03;  3.9918945E+04;  0.0000000E+00;  4.9230680E-01;  4.0000000E+04;  0.0000000E+00;  3.9990812E+04;  4.5711966E-03;  0.0000000E+00;  9.3622475E-05;  1.2940259E+03;
  2.5189862E-01;  9.9999998E-03;  1.6001074E-01;4017;  4.5355987E-03;  0.0000000E+00; -5.0517454E-05;  9.9877966E+02;  1.0000000E-01; -1.0110331E+03;3;  9.8920420E-02;  0.0000000E+00; -3.1332780E-02;0;  4.7979415E-03;  3.9908438E+04;  0.0000000E+00;  5.0909948E-01;  4.0000000E+04;  0.0000000E+00;  3.9992043E+04;  4.6191420E-03;  0.0000000E+00;  1.7879970E-04;  1.2005618E+03;
  2.5176939E-01;  9.9999998E-03;  1.7001997E-01;4018;  4.6033883E-03;  0.0000000E+00; -5.6749563E-05;  9.9866760E+02;  1.0000000E-01; -1.1038700E+03;3;  8.2101271E-02;  0.0000000E+00; -1.0186571E-02;0;  5.0101983E-03;  3.9898656E+04;  0.0000000E+00;  4.8112312E-01;  4.0000000E+04;  0.0000000E+00;  3.9992426E+04;  4.7345785E-03;  0.0000000E+00;  2.7561971E-04;  1.0856738E+03;
  2.5162646E-01;  9.9999998E-03;  1.8001252E-01;4019;  4.6521062E-03;  0.0000000E+00; -7.1691014E-05;  9.9856335E+02;  1.0000000E-01; -1.1902379E+03;3;  3.2889344E-02;  0.0000000E+00;  6.0565721E-02;0;  5.3001512E-03;  3.9890020E+04;  0.0000000E+00;  4.4105726E-01;  4.0000000E+04;  0.0000000E+00;  3.9993102E+04;  4.9268100E-03;  0.0000000E+00;  3.7334117E-04;  9.8544904E+02;
  2.5149205E-01;  9.9999998E-03;  1.8998797E-01;4020;  4.6732607E-03;  0.0000000E+00; -9.9178702E-05;  9.9847729E+02;  1.0000000E-01; -1.2615446E+03;3; -8.2287841E-02;  0.0000000E+00;  2.1735677E-01;0;  5.6592724E-03;  3.9882973E+04;  0.0000000E+00;  4.7009072E-01;  4.0000000E+04;  0.0000000E+00;  3.9993414E+04;  5.2037071E-03;  0.0000000E+00;  4.5556517E-04;  9.4496667E+02;
  2.5137255E-01;  9.9999998E-03;  1.9995391E-01;4021;  4.6568122E-03;  0.0000000E+00; -1.3857520E-04;  9.9842169E+02;  1.0000000E-01; -1.3076173E+03;3; -3.0374667E-01;  0.0000000E+00;  4.9900135E-01;0;  6.0668816E-03;  3.9877723E+04;  0.0000000E+00;  6.8332273E-01;  4.0000000E+04;  0.0000000E+00;  3.9995500E+04;  5.5717025E-03;  0.0000000E+00;  4.9517909E-04;  1.0864381E+03;
  2.5126868E-01;  9.9999998E-03;  2.0992507E-01;4022;  4.5927647E-03;  0.0000000E+00; -1.7427713E-04;  9.9841138E+02;  1.0000000E-01; -1.3161603E+03;3; -6.5521502E-01;  0.0000000E+00;  9.5112598E-01;0;  6.4958548E-03;  3.9873867E+04;  0.0000000E+00;  1.2013183E+00;  4.0000000E+04;  0.0000000E+00;  3.9999527E+04;  6.0345372E-03;  0.0000000E+00;  4.6131766E-04;  1.7978074E+03;
  2.5118247E-01;  9.9999998E-03;  2.1992093E-01;4023;  4.4598444E-03;  0.0000000E+00; -1.7657060E-04;  9.9843878E+02;  1.0000000E-01; -1.2934449E+03;3; -1.1238351E+00;  0.0000000E+00;  1.6059924E+00;0;  6.9456417E-03;  3.9871555E+04;  0.0000000E+00;  2.1191983E+00;  4.0000000E+04;  0.0000000E+00;  4.0005961E+04;  6.5889843E-03;  0.0000000E+00;  3.5665720E-04;  3.2857053E+03;
  2.5108144E-01;  9.9999998E-03;  2.2995824E-01;4024;  4.2220023E-03;  0.0000000E+00; -1.3857258E-04;  9.9843091E+02;  1.0000000E-01; -1.2999633E+03;3; -1.7356299E+00;  0.0000000E+00;  2.2753024E+00;0;  7.4396324E-03;  3.9871414E+04;  0.0000000E+00;  3.5587416E+00;  4.0000000E+04;  0.0000000E+00;  4.0007727E+04;  7.2162477E-03;  0.0000000E+00;  2.2338476E-04;  5.4231504E+03;
  2.6153579E-01;  9.9999998E-03;  6.9997825E-02;4069;  4.5656250E-03;  0.0000000E+00; -7.9757410E-05;  9.9931262E+02;  1.0000000E-01; -5.6946539E+02;3;  1.7602625E-01;  0.0000000E+00; -1.9364808E-02;0;  4.1878535E-03;  3.9953402E+04;  0.0000000E+00;  5.4086104E-02;  4.0000000E+04;  0.0000000E+00;  3.9991672E+04;  4.2848787E-03;  0.0000000E+00; -9.7025237E-05;  9.7543591E+02;
  2.6154014E-01;  9.9999998E-03;  7.9998106E-02;4070;  4.5050131E-03;  0.0000000E+00; -8.9896217E-05;  9.9936200E+02;  1.0000000E-01; -5.2857764E+02;3;  1.6688211E-01;  0.0000000E+00; -2.2617517E-02;0;  4.2463993E-03;  3.9957840E+04;  0.0000000E+00;  7.4564084E-02;  4.0000000E+04;  0.0000000E+00;  3.9991301E+04;  4.3795519E-03;  0.0000000E+00; -1.3315273E-04;  1.0512200E+03;
  2.6156414E-01;  9.9999998E-03;  8.9994177E-02;4071;  4.4425717E-03;  0.0000000E+00; -9.5414071E-05;  9.9939813E+02;  1.0000000E-01; -4.9865256E+02;3;  1.5459339E-01;  0.0000000E+00; -2.5153134E-02;0;  4.2665424E-03;  3.9961117E+04;  0.0000000E+00;  1.0250994E-01;  4.0000000E+04;  0.0000000E+00;  3.9990914E+04;  4.4307355E-03;  0.0000000E+00; -1.6419330E-04;  1.1035907E+03;
  2.6161361E-01;  9.9999998E-03;  9.9987812E-02;4072;  4.3823612E-03;  0.0000000E+00; -9.4293806E-05;  9.9941357E+02;  1.0000000E-01; -4.8586279E+02;3;  1.4057425E-01;  0.0000000E+00; -2.5265716E-02;0;  4.2472938E-03;  3.9962773E+04;  0.0000000E+00;  1.4173734E-01;  4.0000000E+04;  0.0000000E+00;  3.9990828E+04;  4.4345809E-03;  0.0000000E+00; -1.8728696E-04;  1.1365607E+03;
  2.6168862E-01;  9.9999998E-03;  1.0997844E-01;4073;  4.3326919E-03;  0.0000000E+00; -8.7459601E-05;  9.9941382E+02;  1.0000000E-01; -4.8561591E+02;3;  1.2346360E-01;  0.0000000E+00; -2.2326551E-02;0;  4.1962136E-03;  3.9962359E+04;  0.0000000E+00;  1.9597653E-01;  4.0000000E+04;  0.0000000E+00;  3.9991066E+04;  4.3944111E-03;  0.0000000E+00; -1.9819767E-04;  1.1545525E+03;
  2.6178926E-01;  9.9999998E-03;  1.1996953E-01;4074;  4.3189372E-03;  0.0000000E+00; -8.6674663E-05;  9.9938165E+02;  1.0000000E-01; -5.1228180E+02;3;  1.1746188E-01;  0.0000000E+00; -2.3118719E-02;0;  4.1283504E-03;  3.9959078E+04;  0.0000000E+00;  2.6756415E-01;  4.0000000E+04;  0.0000000E+00;  3.9991113E+04;  4.3204823E-03;  0.0000000E+00; -1.9213205E-04;  1.1603069E+03;
  2.6190004E-01;  9.9999998E-03;  1.2996392E-01;4075;  4.3416866E-03;  0.0000000E+00; -9.3071656E-05;  9.9931732E+02;  1.0000000E-01; -5.6556427E+02;3;  1.1655767E-01;  0.0000000E+00; -2.5968555E-02;0;  4.0656729E-03;  3.9953082E+04;  0.0000000E+00;  3.5582140E-01;  4.0000000E+04;  0.0000000E+00;  3.9991629E+04;  4.2304480E-03;  0.0000000E+00; -1.6477531E-04;  1.1561521E+03;
  2.6199245E-01;  9.9999998E-03;  1.3996392E-01;4076;  4.3829004E-03;  0.0000000E+00; -9.6995172E-05;  9.9921973E+02;  1.0000000E-01; -6.4645087E+02;3;  1.1274733E-01;  0.0000000E+00; -2.7230239E-02;0;  4.0340032E-03;  3.9944352E+04;  0.0000000E+00;  4.5506057E-01;  4.0000000E+04;  0.0000000E+00;  3.9992012E+04;  4.1476027E-03;  0.0000000E+00; -1.1359938E-04;  1.1467053E+03;
  2.6202500E-01;  9.9999998E-03;  1.4996780E-01;4077;  4.4394657E-03;  0.0000000E+00; -9.7677446E-05;  9.9909845E+02;  1.0000000E-01; -7.4694183E+02;3;  1.0727030E-01;  0.0000000E+00; -2.7875394E-02;0;  4.0585534E-03;  3.9933172E+04;  0.0000000E+00;  5.5265456E-01;  4.0000000E+04;  0.0000000E+00;  3.9992875E+04;  4.0973206E-03;  0.0000000E+00; -3.8767175E-05;  1.1359417E+03;
  2.6197967E-01;  9.9999998E-03;  1.5997419E-01;4078;  4.5037288E-03;  0.0000000E+00; -9.8345939E-05;  9.9895502E+02;  1.0000000E-01; -8.6575330E+02;3;  1.0132700E-01;  0.0000000E+00; -2.7636809E-02;0;  4.1584191E-03;  3.9920289E+04;  0.0000000E+00;  6.2887585E-01;  4.0000000E+04;  0.0000000E+00;  3.9993789E+04;  4.1024005E-03;  0.0000000E+00;  5.6018791E-05;  1.1193333E+03;
  2.6187143E-01;  9.9999998E-03;  1.6998126E-01;4079;  4.5642685E-03;  0.0000000E+00; -1.0229121E-04;  9.9880060E+02;  1.0000000E-01; -9.9370032E+02;3;  9.0294011E-02;  0.0000000E+00; -1.8692348E-02;0;  4.3441453E-03;  3.9907125E+04;  0.0000000E+00;  6.6352880E-01;  4.0000000E+04;  0.0000000E+00;  3.9994773E+04;  4.1805301E-03;  0.0000000E+00;  1.6361510E-04;  1.0820710E+03;
  2.6172799E-01;  9.9999998E-03;  1.7998067E-01;4080;  4.6102554E-03;  0.0000000E+00; -1.1258810E-04;  9.9864911E+02;  1.0000000E-01; -1.1191782E+03;3;  5.8952875E-02;  0.0000000E+00;  2.2479495E-02;0;  4.6178349E-03;  3.9894434E+04;  0.0000000E+00;  6.6073126E-01;  4.0000000E+04;  0.0000000E+00;  3.9995895E+04;  4.3441625E-03;  0.0000000E+00;  2.7367219E-04;  1.0261311E+03;
  2.6157445E-01;  9.9999998E-03;  1.8996611E-01;4081;  4.6331538E-03;  0.0000000E+00; -1.3428854E-04;  9.9851678E+02;  1.0000000E-01; -1.2288048E+03;3; -2.0242881E-02;  0.0000000E+00;  1.2655284E-01;0;  4.9710986E-03;  3.9883406E+04;  0.0000000E+00;  6.6598493E-01;  4.0000000E+04;  0.0000000E+00;  3.9996734E+04;  4.6008555E-03;  0.0000000E+00;  3.7024301E-04;  9.9778534E+02;
  2.6142812E-01;  9.9999998E-03;  1.9993879E-01;4082;  4.6257293E-03;  0.0000000E+00; -1.6752190E-04;  9.9842487E+02;  1.0000000E-01; -1.3049508E+03;3; -1.8146455E-01;  0.0000000E+00;  3.2784745E-01;0;  5.3809732E-03;  3.9874340E+04;  0.0000000E+00;  7.6189423E-01;  4.0000000E+04;  0.0000000E+00;  3.9998766E+04;  4.9538729E-03;  0.0000000E+00;  4.2710049E-04;  1.1212151E+03;
  2.6130038E-01;  9.9999998E-03;  2.0990889E-01;4083;  4.5754439E-03;  0.0000000E+00; -1.9864757E-04;  9.9839246E+02;  1.0000000E-01; -1.3318142E+03;3; -4.5282599E-01;  0.0000000E+00;  6.6842967E-01;0;  5.8159023E-03;  3.9868758E+04;  0.0000000E+00;  1.0497500E+00;  4.0000000E+04;  0.0000000E+00;  4.0003516E+04;  5.4021878E-03;  0.0000000E+00;  4.1371453E-04;  1.6724099E+03;
  2.6120126E-01;  9.9999998E-03;  2.1989894E-01;4084;  4.4670613E-03;  0.0000000E+00; -1.9328226E-04;  9.9841876E+02;  1.0000000E-01; -1.3100370E+03;3; -8.3313996E-01;  0.0000000E+00;  1.1934240E+00;0;  6.2818634E-03;  3.9866195E+04;  0.0000000E+00;  1.6231508E+00;  4.0000000E+04;  0.0000000E+00;  4.0010434E+04;  5.9391884E-03;  0.0000000E+00;  3.4267505E-04;  2.8159824E+03;
  2.6112387E-01;  9.9999998E-03;  2.2992864E-01;4085;  4.2738253E-03;  0.0000000E+00; -1.4497800E-04;  9.9844104E+02;  1.0000000E-01; -1.2915684E+03;3; -1.3478314E+00;  0.0000000E+00;  1.8074538E+00;0;  6.8206582E-03;  3.9866566E+04;  0.0000000E+00;  2.5532780E+00;  4.0000000E+04;  0.0000000E+00;  4.0013586E+04;  6.5480401E-03;  0.0000000E+00;  2.7261791E-04;  4.2392734E+03;
  2.7158132E-01;  9.9999998E-03;  6.9988325E-02;4130;  4.5584021E-03;  0.0000000E+00; -7.6154400E-05;  9.9936304E+02;  1.0000000E-01; -5.2768878E+02;3;  1.7983326E-01;  0.0000000E+00; -1.4852293E-02;0;  3.3661099E-03;  3.9955652E+04;  0.0000000E+00;  2.8389324E-02;  4.0000000E+04;  0.0000000E+00;  3.9994242E+04;  3.6316046E-03;  0.0000000E+00; -2.6549477E-04;  6.7152454E+02;
  2.7158284E-01;  9.9999998E-03;  7.9991125E-02;4131;  4.5064893E-03;  0.0000000E+00; -8.8794135E-05;  9.9944189E+02;  1.0000000E-01; -4.6235730E+02;3;  1.7217067E-01;  0.0000000E+00; -1.6991416E-02;0;  3.4625388E-03;  3.9962605E+04;  0.0000000E+00;  3.9784070E-02;  4.0000000E+04;  0.0000000E+00;  3.9993328E+04;  3.7608414E-03;  0.0000000E+00; -2.9830259E-04;  7.6023169E+02;
  2.7159217E-01;  9.9999998E-03;  8.9990526E-02;4132;  4.4507599E-03;  0.0000000E+00; -9.9310448E-05;  9.9951685E+02;  1.0000000E-01; -4.0028497E+02;3;  1.6071606E-01;  0.0000000E+00; -1.9069793E-02;0;  3.5158969E-03;  3.9969066E+04;  0.0000000E+00;  5.8116991E-02;  4.0000000E+04;  0.0000000E+00;  3.9992887E+04;  3.8415408E-03;  0.0000000E+00; -3.2564401E-04;  8.2857812E+02;
  2.7162486E-01;  9.9999998E-03;  9.9986807E-02;4133;  4.3947850E-03;  0.0000000E+00; -1.0603867E-04;  9.9958081E+02;  1.0000000E-01; -3.4729883E+02;3;  1.4864169E-01;  0.0000000E+00; -2.0102728E-02;0;  3.5223011E-03;  3.9974125E+04;  0.0000000E+00;  8.8108495E-02;  4.0000000E+04;  0.0000000E+00;  3.9992457E+04;  3.8666797E-03;  0.0000000E+00; -3.4437855E-04;  8.7371710E+02;
  2.7168289E-01;  9.9999998E-03;  1.0998037E-01;4134;  4.3458748E-03;  0.0000000E+00; -1.0981625E-04;  9.9961963E+02;  1.0000000E-01; -3.1515158E+02;3;  1.3577378E-01;  0.0000000E+00; -1.9942747E-02;0;  3.4879583E-03;  3.9977223E+04;  0.0000000E+00;  1.3489315E-01;  4.0000000E+04;  0.0000000E+00;  3.9992484E+04;  3.8380397E-03;  0.0000000E+00; -3.5008136E-04;  8.9616461E+02;
  2.7176759E-01;  9.9999998E-03;  1.1997263E-01;4135;  4.3190676E-03;  0.0000000E+00; -1.1484903E-04;  9.9962854E+02;  1.0000000E-01; -3.0774438E+02;3;  1.2423450E-01;  0.0000000E+00; -1.9711224E-02;0;  3.4276748E-03;  3.9977578E+04;  0.0000000E+00;  2.0287083E-01;  4.0000000E+04;  0.0000000E+00;  3.9992801E+04;  3.7656443E-03;  0.0000000E+00; -3.3796948E-04;  9.0001172E+02;
  2.7186587E-01;  9.9999998E-03;  1.2996618E-01;4136;  4.3244692E-03;  0.0000000E+00; -1.2319126E-04;  9.9959558E+02;  1.0000000E-01; -3.3505225E+02;3;  1.1869165E-01;  0.0000000E+00; -2.0973343E-02;0;  3.3641171E-03;  3.9974395E+04;  0.0000000E+00;  2.9418695E-01;  4.0000000E+04;  0.0000000E+00;  3.9993344E+04;  3.6680200E-03;  0.0000000E+00; -3.0390293E-04;  8.9549286E+02;
  2.7195042E-01;  9.9999998E-03;  1.3996261E-01;4137;  4.3528606E-03;  0.0000000E+00; -1.2790170E-04;  9.9952515E+02;  1.0000000E-01; -3.9342096E+02;3;  1.1220580E-01;  0.0000000E+00; -2.1434458E-02;0;  3.3248742E-03;  3.9967676E+04;  0.0000000E+00;  4.0667465E-01;  4.0000000E+04;  0.0000000E+00;  3.9994195E+04;  3.5705080E-03;  0.0000000E+00; -2.4563368E-04;  9.0162817E+02;
  2.7199349E-01;  9.9999998E-03;  1.4996114E-01;4138;  4.3987050E-03;  0.0000000E+00; -1.3044107E-04;  9.9941010E+02;  1.0000000E-01; -4.8872693E+02;3;  1.0670953E-01;  0.0000000E+00; -2.1331407E-02;0;  3.3370873E-03;  3.9956672E+04;  0.0000000E+00;  5.3150648E-01;  4.0000000E+04;  0.0000000E+00;  3.9994969E+04;  3.5008446E-03;  0.0000000E+00; -1.6375723E-04;  9.3918164E+02;
  2.7197826E-01;  9.9999998E-03;  1.5996170E-01;4139;  4.4531869E-03;  0.0000000E+00; -1.3209748E-04;  9.9925488E+02;  1.0000000E-01; -6.1731586E+02;3;  1.0096259E-01;  0.0000000E+00; -2.1590510E-02;0;  3.4232065E-03;  3.9942848E+04;  0.0000000E+00;  6.5228337E-01;  4.0000000E+04;  0.0000000E+00;  3.9995977E+04;  3.4853644E-03;  0.0000000E+00; -6.2157887E-05;  1.0114003E+03;
  2.7191007E-01;  9.9999998E-03;  1.6996518E-01;4140;  4.5058574E-03;  0.0000000E+00; -1.3424997E-04;  9.9907617E+02;  1.0000000E-01; -7.6536108E+02;3;  9.2983559E-02;  0.0000000E+00; -1.8884046E-02;0;  3.5977371E-03;  3.9926973E+04;  0.0000000E+00;  7.4462211E-01;  4.0000000E+04;  0.0000000E+00;  3.9997629E+04;  3.5454943E-03;  0.0000000E+00;  5.2242824E-05;  1.0896471E+03;
  2.7179804E-01;  9.9999998E-03;  1.7996621E-01;4141;  4.5472858E-03;  0.0000000E+00; -1.4026654E-04;  9.9888739E+02;  1.0000000E-01; -9.2175171E+02;3;  7.4798316E-02;  0.0000000E+00;  1.3793866E-03;0;  3.8667114E-03;  3.9910855E+04;  0.0000000E+00;  7.9146588E-01;  4.0000000E+04;  0.0000000E+00;  3.9998676E+04;  3.6968864E-03;  0.0000000E+00;  1.6982503E-04;  1.1394613E+03;
  2.7165854E-01;  9.9999998E-03;  1.8995769E-01;4142;  4.5699263E-03;  0.0000000E+00; -1.5451557E-04;  9.9870221E+02;  1.0000000E-01; -1.0751794E+03;3;  2.4797816E-02;  0.0000000E+00;  6.2210113E-02;0;  4.2243032E-03;  3.9895633E+04;  0.0000000E+00;  8.0403697E-01;  4.0000000E+04;  0.0000000E+00;  3.9999602E+04;  3.9479206E-03;  0.0000000E+00;  2.7638237E-04;  1.1672205E+03;
  2.7150846E-01;  9.9999998E-03;  1.9993764E-01;4143;  4.5660203E-03;  0.0000000E+00; -1.7966253E-04;  9.9855927E+02;  1.0000000E-01; -1.1936453E+03;3; -8.3640330E-02;  0.0000000E+00;  1.9368286E-01;0;  4.6483288E-03;  3.9882863E+04;  0.0000000E+00;  8.2759303E-01;  4.0000000E+04;  0.0000000E+00;  4.0001527E+04;  4.3002022E-03;  0.0000000E+00;  3.4812669E-04;  1.2613010E+03;
  2.7136469E-01;  9.9999998E-03;  2.0991126E-01;4144;  4.5272061E-03;  0.0000000E+00; -2.0482803E-04;  9.9848291E+02;  1.0000000E-01; -1.2569027E+03;3; -2.7975559E-01;  0.0000000E+00;  4.2918497E-01;0;  5.1054894E-03;  3.9874051E+04;  0.0000000E+00;  9.3343604E-01;  4.0000000E+04;  0.0000000E+00;  4.0006039E+04;  4.7491947E-03;  0.0000000E+00;  3.5629477E-04;  1.6418677E+03;
  2.7124077E-01;  9.9999998E-03;  2.1989803E-01;4145;  4.4371700E-03;  0.0000000E+00; -1.9504689E-04;  9.9848547E+02;  1.0000000E-01; -1.2547793E+03;3; -5.7526994E-01;  0.0000000E+00;  8.1146055E-01;0;  5.6034648E-03;  3.9869176E+04;  0.0000000E+00;  1.2065846E+00;  4.0000000E+04;  0.0000000E+00;  4.0012129E+04;  5.2848733E-03;  0.0000000E+00;  3.1859137E-04;  2.4746428E+03;
  2.7114493E-01;  9.9999998E-03;  2.2991979E-01;4146;  4.2711725E-03;  0.0000000E+00; -1.4050279E-04;  9.9850281E+02;  1.0000000E-01; -1.2404094E+03;3; -9.9725974E-01;  0.0000000E+00;  1.3004292E+00;0;  6.1992342E-03;  3.9869059E+04;  0.0000000E+00;  1.7264154E+00;  4.0000000E+04;  0.0000000E+00;  4.0016148E+04;  5.8890125E-03;  0.0000000E+00;  3.1022145E-04;  3.3777754E+03;
  2.8155309E-01;  9.9999998E-03;  6.9990121E-02;4191;  4.5295539E-03;  0.0000000E+00; -6.9592650E-05;  9.9946558E+02;  1.0000000E-01; -4.4275290E+02;3;  1.8220843E-01;  0.0000000E+00; -9.9836504E-03;0;  2.4778936E-03;  3.9962297E+04;  0.0000000E+00;  9.8895598E-06;  4.0000000E+04;  0.0000000E+00;  3.9996297E+04;  2.8966721E-03;  0.0000000E+00; -4.1877842E-04;  3.9234378E+02;
  2.8156778E-01;  9.9999998E-03;  7.9987660E-02;4192;  4.4867699E-03;  0.0000000E+00; -8.3118517E-05;  9.9956671E+02;  1.0000000E-01; -3.5895282E+02;3;  1.7433025E-01;  0.0000000E+00; -1.1758251E-02;0;  2.6026848E-03;  3.9971348E+04;  0.0000000E+00; -1.3355022E-04;  4.0000000E+04;  0.0000000E+00;  3.9995676E+04;  3.0512791E-03;  0.0000000E+00; -4.4859442E-04;  4.9319305E+02;
  2.8158504E-01;  9.9999998E-03;  8.9986868E-02;4193;  4.4367970E-03;  0.0000000E+00; -9.5913041E-05;  9.9967230E+02;  1.0000000E-01; -2.7149850E+02;3;  1.6282026E-01;  0.0000000E+00; -1.3029928E-02;0;  2.6841462E-03;  3.9980090E+04;  0.0000000E+00;  5.1929750E-03;  4.0000000E+04;  0.0000000E+00;  3.9994996E+04;  3.1568208E-03;  0.0000000E+00; -4.7267467E-04;  5.7909528E+02;
  2.8160951E-01;  9.9999998E-03;  9.9987246E-02;4194;  4.3832022E-03;  0.0000000E+00; -1.0695865E-04;  9.9976923E+02;  1.0000000E-01; -1.9120447E+02;3;  1.5016203E-01;  0.0000000E+00; -1.4074742E-02;0;  2.7179988E-03;  3.9988273E+04;  0.0000000E+00;  2.1353671E-02;  4.0000000E+04;  0.0000000E+00;  3.9995016E+04;  3.2053210E-03;  0.0000000E+00; -4.8732210E-04;  6.3980359E+02;
  2.8164929E-01;  9.9999998E-03;  1.0998519E-01;4195;  4.3325857E-03;  0.0000000E+00; -1.1656618E-04;  9.9985168E+02;  1.0000000E-01; -1.2286073E+02;3;  1.3722089E-01;  0.0000000E+00; -1.3134300E-02;0;  2.7087859E-03;  3.9994750E+04;  0.0000000E+00;  5.4534264E-02;  4.0000000E+04;  0.0000000E+00;  3.9994371E+04;  3.1968113E-03;  0.0000000E+00; -4.8802537E-04;  6.6943805E+02;
  2.8171158E-01;  9.9999998E-03;  1.1998025E-01;4196;  4.3011964E-03;  0.0000000E+00; -1.2773498E-04;  9.9990259E+02;  1.0000000E-01; -8.0689079E+01;3;  1.2531057E-01;  0.0000000E+00; -1.3217731E-02;0;  2.6699393E-03;  3.9998531E+04;  0.0000000E+00;  1.1070237E-01;  4.0000000E+04;  0.0000000E+00;  3.9994594E+04;  3.1401513E-03;  0.0000000E+00; -4.7021187E-04;  6.6873553E+02;
  2.8178698E-01;  9.9999998E-03;  1.2997493E-01;4197;  4.2983084E-03;  0.0000000E+00; -1.3939811E-04;  9.9990973E+02;  1.0000000E-01; -7.4763321E+01;3;  1.1881290E-01;  0.0000000E+00; -1.4319710E-02;0;  2.6233844E-03;  3.9998652E+04;  0.0000000E+00;  1.9417168E-01;  4.0000000E+04;  0.0000000E+00;  3.9995117E+04;  3.0535455E-03;  0.0000000E+00; -4.3016108E-04;  6.5153888E+02;
  2.8185982E-01;  9.9999998E-03;  1.3997103E-01;4198;  4.3180748E-03;  0.0000000E+00; -1.4772339E-04;  9.9986859E+02;  1.0000000E-01; -1.0888581E+02;3;  1.1221217E-01;  0.0000000E+00; -1.4649470E-02;0;  2.5960337E-03;  3.9994180E+04;  0.0000000E+00;  3.0565661E-01;  4.0000000E+04;  0.0000000E+00;  3.9996117E+04;  2.9621935E-03;  0.0000000E+00; -3.6615974E-04;  6.5193170E+02;
  2.8190607E-01;  9.9999998E-03;  1.4996751E-01;4199;  4.3542790E-03;  0.0000000E+00; -1.5265481E-04;  9.9976520E+02;  1.0000000E-01; -1.9451302E+02;3;  1.0609613E-01;  0.0000000E+00; -1.4286959E-02;0;  2.6159978E-03;  3.9984688E+04;  0.0000000E+00;  4.3990171E-01;  4.0000000E+04;  0.0000000E+00;  3.9997152E+04;  2.8951631E-03;  0.0000000E+00; -2.7916534E-04;  7.1431152E+02;
  2.8191558E-01;  9.9999998E-03;  1.5996520E-01;4200;  4.3987744E-03;  0.0000000E+00; -1.5473246E-04;  9.9961627E+02;  1.0000000E-01; -3.1791693E+02;3;  1.0016961E-01;  0.0000000E+00; -1.4301349E-02;0;  2.7073899E-03;  3.9970734E+04;  0.0000000E+00;  5.8455026E-01;  4.0000000E+04;  0.0000000E+00;  3.9998355E+04;  2.8807847E-03;  0.0000000E+00; -1.7339483E-04;  8.5268939E+02;
  2.8188771E-01;  9.9999998E-03;  1.6996622E-01;4201;  4.4433479E-03;  0.0000000E+00; -1.5538248E-04;  9.9942206E+02;  1.0000000E-01; -4.7880127E+02;3;  9.3763545E-02;  0.0000000E+00; -1.4200844E-02;0;  2.8875831E-03;  3.9953781E+04;  0.0000000E+00;  7.1848649E-01;  4.0000000E+04;  0.0000000E+00;  3.9999773E+04;  2.9433335E-03;  0.0000000E+00; -5.5750326E-05;  1.0299404E+03;
  2.8182095E-01;  9.9999998E-03;  1.7996760E-01;4202;  4.4788877E-03;  0.0000000E+00; -1.5689174E-04;  9.9920410E+02;  1.0000000E-01; -6.5938873E+02;3;  8.2541972E-02;  0.0000000E+00; -6.5694451E-03;0;  3.1657896E-03;  3.9934805E+04;  0.0000000E+00;  8.1496543E-01;  4.0000000E+04;  0.0000000E+00;  4.0000715E+04;  3.1008304E-03;  0.0000000E+00;  6.4959306E-05;  1.1875032E+03;
  2.8171337E-01;  9.9999998E-03;  1.8996301E-01;4203;  4.4982187E-03;  0.0000000E+00; -1.6341245E-04;  9.9898083E+02;  1.0000000E-01; -8.4437115E+02;3;  5.3543869E-02;  0.0000000E+00;  2.3954550E-02;0;  3.5400861E-03;  3.9916156E+04;  0.0000000E+00;  8.5973114E-01;  4.0000000E+04;  0.0000000E+00;  4.0001781E+04;  3.3632040E-03;  0.0000000E+00;  1.7688212E-04;  1.2942205E+03;
  2.8158286E-01;  9.9999998E-03;  1.9994766E-01;4204;  4.4954326E-03;  0.0000000E+00; -1.7842579E-04;  9.9878448E+02;  1.0000000E-01; -1.0070333E+03;3; -1.3315520E-02;  0.0000000E+00;  9.9856675E-02;0;  3.9915829E-03;  3.9899730E+04;  0.0000000E+00;  8.6341077E-01;  4.0000000E+04;  0.0000000E+00;  4.0003379E+04;  3.7309150E-03;  0.0000000E+00;  2.6066785E-04;  1.3925876E+03;
  2.8144383E-01;  9.9999998E-03;  2.0992553E-01;4205;  4.4625858E-03;  0.0000000E+00; -1.9559603E-04;  9.9865546E+02;  1.0000000E-01; -1.1139438E+03;3; -1.4435680E-01;  0.0000000E+00;  2.4683991E-01;0;  4.4886312E-03;  3.9886629E+04;  0.0000000E+00;  8.6251789E-01;  4.0000000E+04;  0.0000000E+00;  4.0007105E+04;  4.1972832E-03;  0.0000000E+00;  2.9134785E-04;  1.6457812E+03;
  2.8131226E-01;  9.9999998E-03;  2.1991085E-01;4206;  4.3896348E-03;  0.0000000E+00; -1.8654324E-04;  9.9860443E+02;  1.0000000E-01; -1.1562142E+03;3; -3.5505980E-01;  0.0000000E+00;  4.9700409E-01;0;  5.0310874E-03;  3.9878406E+04;  0.0000000E+00;  9.1486293E-01;  4.0000000E+04;  0.0000000E+00;  4.0013016E+04;  4.7494709E-03;  0.0000000E+00;  2.8161678E-04;  2.2242759E+03;
  2.8120258E-01;  9.9999998E-03;  2.2992425E-01;4207;  4.2398442E-03;  0.0000000E+00; -1.2469279E-04;  9.9859528E+02;  1.0000000E-01; -1.1637695E+03;3; -6.7593801E-01;  0.0000000E+00;  8.4409910E-01;0;  5.7098432E-03;  3.9875922E+04;  0.0000000E+00;  1.0896169E+00;  4.0000000E+04;  0.0000000E+00;  4.0016621E+04;  5.3670197E-03;  0.0000000E+00;  3.4282348E-04;  2.7695989E+03;
  2.9155198E-01;  9.9999998E-03;  6.9994725E-02;4252;  4.4935448E-03;  0.0000000E+00; -6.2655046E-05;  9.9960132E+02;  1.0000000E-01; -3.3031165E+02;3;  1.8384264E-01;  0.0000000E+00; -4.5198356E-03;0;  1.6397071E-03;  3.9971273E+04;  0.0000000E+00; -2.3216870E-02;  4.0000000E+04;  0.0000000E+00;  3.9998668E+04;  2.1917901E-03;  0.0000000E+00; -5.5208302E-04;  1.6336385E+02;
  2.9153946E-01;  9.9999998E-03;  7.9993777E-02;4253;  4.4586384E-03;  0.0000000E+00; -7.5912467E-05;  9.9971167E+02;  1.0000000E-01; -2.3885744E+02;3;  1.7404009E-01;  0.0000000E+00; -6.2075937E-03;0;  1.7878923E-03;  3.9981277E+04;  0.0000000E+00; -3.5075251E-02;  4.0000000E+04;  0.0000000E+00;  3.9997590E+04;  2.3664373E-03;  0.0000000E+00; -5.7854498E-04;  2.7513474E+02;
  2.9154330E-01;  9.9999998E-03;  8.9991696E-02;4254;  4.4152639E-03;  0.0000000E+00; -9.0070418E-05;  9.9983130E+02;  1.0000000E-01; -1.3974913E+02;3;  1.6345574E-01;  0.0000000E+00; -6.4778472E-03;0;  1.8943555E-03;  3.9991969E+04;  0.0000000E+00; -4.3957688E-02;  4.0000000E+04;  0.0000000E+00;  3.9996844E+04;  2.4938078E-03;  0.0000000E+00; -5.9945229E-04;  3.8169641E+02;
  2.9155812E-01;  9.9999998E-03;  9.9991024E-02;4255;  4.3655261E-03;  0.0000000E+00; -1.0384461E-04;  9.9995325E+02;  1.0000000E-01; -3.8714954E+01;3;  1.5096043E-01;  0.0000000E+00; -6.9437101E-03;0;  1.9551027E-03;  4.0002242E+04;  0.0000000E+00; -4.4180810E-02;  4.0000000E+04;  0.0000000E+00;  3.9996215E+04;  2.5658261E-03;  0.0000000E+00; -6.1072333E-04;  4.6474820E+02;
  2.9158491E-01;  9.9999998E-03;  1.0999158E-01;4256;  4.3150070E-03;  0.0000000E+00; -1.1733676E-04;  1.0000672E+03;  1.0000000E-01;  5.5702129E+01;3;  1.3765140E-01;  0.0000000E+00; -5.6215427E-03;0;  1.9742830E-03;  4.0011309E+04;  0.0000000E+00; -2.8887670E-02;  4.0000000E+04;  0.0000000E+00;  3.9996082E+04;  2.5819163E-03;  0.0000000E+00; -6.0763321E-04;  5.0960858E+02;
  2.9162717E-01;  9.9999998E-03;  1.1999071E-01;4257;  4.2825481E-03;  0.0000000E+00; -1.3266562E-04;  1.0001501E+03;  1.0000000E-01;  1.2444093E+02;3;  1.2571840E-01;  0.0000000E+00; -6.2540867E-03;0;  1.9643693E-03;  4.0018004E+04;  0.0000000E+00;  9.0105552E-03;  4.0000000E+04;  0.0000000E+00;  3.9995926E+04;  2.5500401E-03;  0.0000000E+00; -5.8567093E-04;  5.0884204E+02;
  2.9168269E-01;  9.9999998E-03;  1.2998769E-01;4258;  4.2733150E-03;  0.0000000E+00; -1.4743907E-04;  1.0001940E+03;  1.0000000E-01;  1.6068681E+02;3;  1.1778756E-01;  0.0000000E+00; -7.0797098E-03;0;  1.9456183E-03;  4.0020723E+04;  0.0000000E+00;  7.5432651E-02;  4.0000000E+04;  0.0000000E+00;  3.9996094E+04;  2.4871726E-03;  0.0000000E+00; -5.4155430E-04;  4.6950818E+02;
  2.9174188E-01;  9.9999998E-03;  1.3998416E-01;4259;  4.2855432E-03;  0.0000000E+00; -1.5905431E-04;  1.0001777E+03;  1.0000000E-01;  1.4725510E+02;3;  1.1125033E-01;  0.0000000E+00; -7.2495188E-03;0;  1.9437182E-03;  4.0018891E+04;  0.0000000E+00;  1.7336378E-01;  4.0000000E+04;  0.0000000E+00;  3.9997152E+04;  2.4177474E-03;  0.0000000E+00; -4.7402916E-04;  4.3111111E+02;
  2.9178920E-01;  9.9999998E-03;  1.4998025E-01;4260;  4.3125632E-03;  0.0000000E+00; -1.6588836E-04;  1.0001072E+03;  1.0000000E-01;  8.8886375E+01;3;  1.0582720E-01;  0.0000000E+00; -7.1397182E-03;0;  1.9863490E-03;  4.0011453E+04;  0.0000000E+00;  3.0069336E-01;  4.0000000E+04;  0.0000000E+00;  3.9998137E+04;  2.3708313E-03;  0.0000000E+00; -3.8448235E-04;  4.7514264E+02;
  2.9181495E-01;  9.9999998E-03;  1.5997742E-01;4261;  4.3476219E-03;  0.0000000E+00; -1.6805793E-04;  9.9997034E+02;  1.0000000E-01; -2.4591898E+01;3;  1.0053185E-01;  0.0000000E+00; -6.7276238E-03;0;  2.0986076E-03;  3.9998496E+04;  0.0000000E+00;  4.4887769E-01;  4.0000000E+04;  0.0000000E+00;  3.9999605E+04;  2.3760563E-03;  0.0000000E+00; -2.7744871E-04;  6.4205444E+02;
  2.9181808E-01;  9.9999998E-03;  1.6997719E-01;4262;  4.3832203E-03;  0.0000000E+00; -1.6670836E-04;  9.9977551E+02;  1.0000000E-01; -1.8597005E+02;3;  9.4362535E-02;  0.0000000E+00; -6.7240475E-03;0;  2.2996119E-03;  3.9981465E+04;  0.0000000E+00;  6.0274792E-01;  4.0000000E+04;  0.0000000E+00;  4.0001332E+04;  2.4595507E-03;  0.0000000E+00; -1.5993875E-04;  8.8123413E+02;
  2.9179293E-01;  9.9999998E-03;  1.7997882E-01;4263;  4.4120350E-03;  0.0000000E+00; -1.6427426E-04;  9.9954297E+02;  1.0000000E-01; -3.7865594E+02;3;  8.6133741E-02;  0.0000000E+00; -5.4308465E-03;0;  2.6007036E-03;  3.9961445E+04;  0.0000000E+00;  7.3698169E-01;  4.0000000E+04;  0.0000000E+00;  4.0002793E+04;  2.6408175E-03;  0.0000000E+00; -4.0113897E-05;  1.1209493E+03;
  2.9172641E-01;  9.9999998E-03;  1.8997577E-01;4264;  4.4272332E-03;  0.0000000E+00; -1.6379602E-04;  9.9929346E+02;  1.0000000E-01; -5.8536615E+02;3;  6.9341019E-02;  0.0000000E+00;  5.9365700E-03;0;  3.0033330E-03;  3.9940352E+04;  0.0000000E+00;  8.2441670E-01;  4.0000000E+04;  0.0000000E+00;  4.0004137E+04;  2.9306936E-03;  0.0000000E+00;  7.2639436E-05;  1.3089083E+03;
  2.9162213E-01;  9.9999998E-03;  1.9996500E-01;4265;  4.4233943E-03;  0.0000000E+00; -1.6918268E-04;  9.9905450E+02;  1.0000000E-01; -7.8333588E+02;3;  3.2281507E-02;  0.0000000E+00;  4.3472659E-02;0;  3.4940972E-03;  3.9920359E+04;  0.0000000E+00;  8.5080671E-01;  4.0000000E+04;  0.0000000E+00;  4.0005508E+04;  3.3298787E-03;  0.0000000E+00;  1.6421842E-04;  1.4453976E+03;
  2.9150429E-01;  9.9999998E-03;  2.0994590E-01;4266;  4.3959036E-03;  0.0000000E+00; -1.7727700E-04;  9.9887158E+02;  1.0000000E-01; -9.3488715E+02;3; -4.6484910E-02;  0.0000000E+00;  1.2389489E-01;0;  4.0456415E-03;  3.9903609E+04;  0.0000000E+00;  8.2163614E-01;  4.0000000E+04;  0.0000000E+00;  4.0008422E+04;  3.8298061E-03;  0.0000000E+00;  2.1583526E-04;  1.6405894E+03;
  2.9138362E-01;  9.9999998E-03;  2.1993080E-01;4267;  4.3352861E-03;  0.0000000E+00; -1.6796574E-04;  9.9876019E+02;  1.0000000E-01; -1.0271808E+03;3; -1.8374573E-01;  0.0000000E+00;  2.7030727E-01;0;  4.6515581E-03;  3.9891602E+04;  0.0000000E+00;  7.6339769E-01;  4.0000000E+04;  0.0000000E+00;  4.0012605E+04;  4.4158334E-03;  0.0000000E+00;  2.3572455E-04;  2.0414797E+03;
  2.9127237E-01;  9.9999998E-03;  2.2993720E-01;4268;  4.1925656E-03;  0.0000000E+00; -9.7802294E-05;  9.9869971E+02;  1.0000000E-01; -1.0772535E+03;3; -4.0609378E-01;  0.0000000E+00;  4.8839012E-01;0;  5.4405578E-03;  3.9885199E+04;  0.0000000E+00;  7.2122145E-01;  4.0000000E+04;  0.0000000E+00;  4.0015777E+04;  5.0658812E-03;  0.0000000E+00;  3.7467678E-04;  2.3824368E+03;
  3.0157492E-01;  9.9999998E-03;  6.9991894E-02;4313;  4.4583571E-03;  0.0000000E+00; -5.5736182E-05;  9.9973944E+02;  1.0000000E-01; -2.1584575E+02;3;  1.8297687E-01;  0.0000000E+00;  9.5996942E-04;0;  9.4269874E-04;  3.9981703E+04;  0.0000000E+00; -3.6320582E-02;  4.0000000E+04;  0.0000000E+00;  4.0000355E+04;  1.6055711E-03;  0.0000000E+00; -6.6287239E-04;  5.2666309E+01;
  3.0155462E-01;  9.9999998E-03;  7.9990789E-02;4314;  4.4304780E-03;  0.0000000E+00; -6.8374218E-05;  9.9985095E+02;  1.0000000E-01; -1.2350268E+02;3;  1.7296897E-01;  0.0000000E+00; -8.3621329E-05;0;  1.1034575E-03;  3.9991438E+04;  0.0000000E+00; -5.7619926E-02;  4.0000000E+04;  0.0000000E+00;  3.9999281E+04;  1.7898533E-03;  0.0000000E+00; -6.8639574E-04;  1.3038113E+02;
  3.0153355E-01;  9.9999998E-03;  8.9992896E-02;4315;  4.3932232E-03;  0.0000000E+00; -8.2603568E-05;  9.9997565E+02;  1.0000000E-01; -2.0196960E+01;3;  1.6306591E-01;  0.0000000E+00;  8.0032296E-05;0;  1.2293819E-03;  4.0002094E+04;  0.0000000E+00; -7.9236872E-02;  4.0000000E+04;  0.0000000E+00;  3.9998277E+04;  1.9338968E-03;  0.0000000E+00; -7.0451485E-04;  2.5024605E+02;
  3.0151904E-01;  9.9999998E-03;  9.9996291E-02;4316;  4.3485928E-03;  0.0000000E+00; -9.7805700E-05;  1.0001063E+03;  1.0000000E-01;  8.7997513E+01;3;  1.5084729E-01;  0.0000000E+00;  2.4831505E-04;0;  1.3151923E-03;  4.0013547E+04;  0.0000000E+00; -9.5651664E-02;  4.0000000E+04;  0.0000000E+00;  3.9997316E+04;  2.0283423E-03;  0.0000000E+00; -7.1315002E-04;  3.5839548E+02;
  3.0152044E-01;  9.9999998E-03;  1.0999875E-01;4317;  4.3022470E-03;  0.0000000E+00; -1.1377977E-04;  1.0002319E+03;  1.0000000E-01;  1.9209334E+02;3;  1.3838063E-01;  0.0000000E+00;  1.3706440E-03;0;  1.3635699E-03;  4.0024066E+04;  0.0000000E+00; -9.9822275E-02;  4.0000000E+04;  0.0000000E+00;  3.9997137E+04;  2.0711864E-03;  0.0000000E+00; -7.0761662E-04;  4.2948422E+02;
  3.0153835E-01;  9.9999998E-03;  1.2000059E-01;4318;  4.2690062E-03;  0.0000000E+00; -1.3115910E-04;  1.0003361E+03;  1.0000000E-01;  2.7841187E+02;3;  1.2664466E-01;  0.0000000E+00;  8.2834263E-04;0;  1.3858827E-03;  4.0033121E+04;  0.0000000E+00; -8.4006846E-02;  4.0000000E+04;  0.0000000E+00;  3.9996875E+04;  2.0693715E-03;  0.0000000E+00; -6.8348873E-04;  4.4538220E+02;
  3.0157295E-01;  9.9999998E-03;  1.3000007E-01;4319;  4.2549088E-03;  0.0000000E+00; -1.4818722E-04;  1.0004070E+03;  1.0000000E-01;  3.3717566E+02;3;  1.1731790E-01;  0.0000000E+00;  4.1771316E-04;0;  1.4007023E-03;  4.0038023E+04;  0.0000000E+00; -4.1069712E-02;  4.0000000E+04;  0.0000000E+00;  3.9996902E+04;  2.0384484E-03;  0.0000000E+00; -6.3774607E-04;  3.9826340E+02;
  3.0161712E-01;  9.9999998E-03;  1.3999806E-01;4320;  4.2590890E-03;  0.0000000E+00; -1.6237181E-04;  1.0004234E+03;  1.0000000E-01;  3.5080490E+02;3;  1.1140244E-01;  0.0000000E+00; -8.6083361E-05;0;  1.4322298E-03;  4.0038410E+04;  0.0000000E+00;  3.3883609E-02;  4.0000000E+04;  0.0000000E+00;  3.9997824E+04;  2.0016974E-03;  0.0000000E+00; -5.6946767E-04;  3.0271130E+02;
  3.0166134E-01;  9.9999998E-03;  1.4999501E-01;4321;  4.2775045E-03;  0.0000000E+00; -1.7122421E-04;  1.0003780E+03;  1.0000000E-01;  3.1317633E+02;3;  1.0563744E-01;  0.0000000E+00; -1.4322884E-04;0;  1.5071256E-03;  4.0033426E+04;  0.0000000E+00;  1.4157480E-01;  4.0000000E+04;  0.0000000E+00;  3.9998875E+04;  1.9875271E-03;  0.0000000E+00; -4.8040150E-04;  2.5146130E+02;
  3.0169705E-01;  9.9999998E-03;  1.5999225E-01;4322;  4.3033580E-03;  0.0000000E+00; -1.7420162E-04;  1.0002601E+03;  1.0000000E-01;  2.1550008E+02;3;  1.0002382E-01;  0.0000000E+00;  4.8733968E-04;0;  1.6505620E-03;  4.0022301E+04;  0.0000000E+00;  2.7715141E-01;  4.0000000E+04;  0.0000000E+00;  4.0000512E+04;  2.0259353E-03;  0.0000000E+00; -3.7537332E-04;  3.9743481E+02;
  3.0172071E-01;  9.9999998E-03;  1.6999248E-01;4323;  4.3303827E-03;  0.0000000E+00; -1.7172923E-04;  1.0000795E+03;  1.0000000E-01;  6.5874680E+01;3;  9.4089471E-02;  0.0000000E+00;  9.4913621E-04;0;  1.8825834E-03;  4.0006141E+04;  0.0000000E+00;  4.3016246E-01;  4.0000000E+04;  0.0000000E+00;  4.0001621E+04;  2.1440506E-03;  0.0000000E+00; -2.6146712E-04;  6.6372217E+02;
  3.0172431E-01;  9.9999998E-03;  1.7999436E-01;4324;  4.3523456E-03;  0.0000000E+00; -1.6479021E-04;  9.9985083E+02;  1.0000000E-01; -1.2360144E+02;3;  8.6682454E-02;  0.0000000E+00;  1.3471749E-03;0;  2.2162267E-03;  3.9985840E+04;  0.0000000E+00;  5.8290458E-01;  4.0000000E+04;  0.0000000E+00;  4.0003234E+04;  2.3623449E-03;  0.0000000E+00; -1.4611825E-04;  9.5248419E+02;
  3.0169398E-01;  9.9999998E-03;  1.8999259E-01;4325;  4.3630255E-03;  0.0000000E+00; -1.5698273E-04;  9.9958698E+02;  1.0000000E-01; -3.4216318E+02;3;  7.6586246E-02;  0.0000000E+00;  4.5983489E-03;0;  2.6558018E-03;  3.9963664E+04;  0.0000000E+00;  7.0761722E-01;  4.0000000E+04;  0.0000000E+00;  4.0004730E+04;  2.6919732E-03;  0.0000000E+00; -3.6171437E-05;  1.2052323E+03;
  3.0162600E-01;  9.9999998E-03;  1.9998521E-01;4326;  4.3579973E-03;  0.0000000E+00; -1.5342703E-04;  9.9932007E+02;  1.0000000E-01; -5.6329272E+02;3;  5.6472227E-02;  0.0000000E+00;  1.8154042E-02;0;  3.1933486E-03;  3.9941441E+04;  0.0000000E+00;  7.7709675E-01;  4.0000000E+04;  0.0000000E+00;  4.0006508E+04;  3.1338704E-03;  0.0000000E+00;  5.9478156E-05;  1.3949857E+03;
  3.0153307E-01;  9.9999998E-03;  2.0996989E-01;4327;  4.3336046E-03;  0.0000000E+00; -1.5490568E-04;  9.9908777E+02;  1.0000000E-01; -7.5578107E+02;3;  1.3004096E-02;  0.0000000E+00;  5.3782459E-02;0;  3.8063815E-03;  3.9921637E+04;  0.0000000E+00;  7.7580279E-01;  4.0000000E+04;  0.0000000E+00;  4.0008355E+04;  3.6792781E-03;  0.0000000E+00;  1.2710338E-04;  1.5782031E+03;
  3.0143139E-01;  9.9999998E-03;  2.1995436E-01;4328;  4.2787874E-03;  0.0000000E+00; -1.4119905E-04;  9.9891888E+02;  1.0000000E-01; -8.9567834E+02;3; -6.4772926E-02;  0.0000000E+00;  1.2748243E-01;0;  4.4942284E-03;  3.9905684E+04;  0.0000000E+00;  7.0508742E-01;  4.0000000E+04;  0.0000000E+00;  4.0012008E+04;  4.3121544E-03;  0.0000000E+00;  1.8207396E-04;  1.8729333E+03;
  3.0133006E-01;  9.9999998E-03;  2.2995445E-01;4329;  4.1344031E-03;  0.0000000E+00; -5.9425471E-05;  9.9879974E+02;  1.0000000E-01; -9.9439160E+02;3; -2.0138276E-01;  0.0000000E+00;  2.4701232E-01;0;  5.4223854E-03;  3.9895012E+04;  0.0000000E+00;  5.8380055E-01;  4.0000000E+04;  0.0000000E+00;  4.0014340E+04;  5.0094784E-03;  0.0000000E+00;  4.1290716E-04;  2.1076733E+03;
  3.1164038E-01;  9.9999998E-03;  6.9989741E-02;4374;  4.4273371E-03;  0.0000000E+00; -4.9153357E-05;  9.9988293E+02;  1.0000000E-01; -9.6984909E+01;3;  1.8075073E-01;  0.0000000E+00;  6.3358201E-03;0;  4.3780426E-04;  3.9991965E+04;  0.0000000E+00; -3.7814852E-02;  4.0000000E+04;  0.0000000E+00;  4.0001168E+04;  1.1902520E-03;  0.0000000E+00; -7.5244776E-04;  1.3713637E+02;
  3.1159928E-01;  9.9999998E-03;  7.9987347E-02;4375;  4.4057481E-03;  0.0000000E+00; -6.0191622E-05;  9.9997534E+02;  1.0000000E-01; -2.0443867E+01;3;  1.7222373E-01;  0.0000000E+00;  6.1669946E-03;0;  6.0217921E-04;  4.0000320E+04;  0.0000000E+00; -6.4707436E-02;  4.0000000E+04;  0.0000000E+00;  4.0000570E+04;  1.3751269E-03;  0.0000000E+00; -7.7294768E-04;  9.2781403E+01;
  3.1155398E-01;  9.9999998E-03;  8.9988150E-02;4376;  4.3756287E-03;  0.0000000E+00; -7.3691146E-05;  1.0000820E+03;  1.0000000E-01;  6.7948692E+01;3;  1.6252933E-01;  0.0000000E+00;  6.5139951E-03;0;  7.3949603E-04;  4.0010309E+04;  0.0000000E+00; -9.5379278E-02;  4.0000000E+04;  0.0000000E+00;  3.9999734E+04;  1.5281627E-03;  0.0000000E+00; -7.8866672E-04;  1.7974991E+02;
  3.1151345E-01;  9.9999998E-03;  9.9991612E-02;4377;  4.3371026E-03;  0.0000000E+00; -8.8960580E-05;  1.0002060E+03;  1.0000000E-01;  1.7066183E+02;3;  1.5033770E-01;  0.0000000E+00;  7.4367695E-03;0;  8.4454165E-04;  4.0021082E+04;  0.0000000E+00; -1.2507896E-01;  4.0000000E+04;  0.0000000E+00;  3.9998371E+04;  1.6401163E-03;  0.0000000E+00; -7.9557468E-04;  3.0409024E+02;
  3.1148201E-01;  9.9999998E-03;  1.0999885E-01;4378;  4.2969575E-03;  0.0000000E+00; -1.0573934E-04;  1.0003301E+03;  1.0000000E-01;  2.7347375E+02;3;  1.3924189E-01;  0.0000000E+00;  8.2914783E-03;0;  9.1936596E-04;  4.0031871E+04;  0.0000000E+00; -1.4723298E-01;  4.0000000E+04;  0.0000000E+00;  3.9997406E+04;  1.7083692E-03;  0.0000000E+00; -7.8900327E-04;  4.0520203E+02;
  3.1146574E-01;  9.9999998E-03;  1.2000597E-01;4379;  4.2653885E-03;  0.0000000E+00; -1.2399002E-04;  1.0004436E+03;  1.0000000E-01;  3.6749579E+02;3;  1.2788619E-01;  0.0000000E+00;  8.0134608E-03;0;  9.7350456E-04;  4.0041203E+04;  0.0000000E+00; -1.5400527E-01;  4.0000000E+04;  0.0000000E+00;  3.9997348E+04;  1.7381830E-03;  0.0000000E+00; -7.6467841E-04;  4.5442108E+02;
  3.1147462E-01;  9.9999998E-03;  1.3000911E-01;4380;  4.2472705E-03;  0.0000000E+00; -1.4198983E-04;  1.0005250E+03;  1.0000000E-01;  4.3495065E+02;3;  1.1882579E-01;  0.0000000E+00;  7.5767236E-03;0;  1.0233794E-03;  4.0047777E+04;  0.0000000E+00; -1.3741167E-01;  4.0000000E+04;  0.0000000E+00;  3.9997383E+04;  1.7432043E-03;  0.0000000E+00; -7.1982486E-04;  4.3332858E+02;
  3.1150153E-01;  9.9999998E-03;  1.4000992E-01;4381;  4.2430661E-03;  0.0000000E+00; -1.5795190E-04;  1.0005623E+03;  1.0000000E-01;  4.6586337E+02;3;  1.1220331E-01;  0.0000000E+00;  7.3889117E-03;0;  1.0913825E-03;  4.0050039E+04;  0.0000000E+00; -9.0850495E-02;  4.0000000E+04;  0.0000000E+00;  3.9998137E+04;  1.7451075E-03;  0.0000000E+00; -6.5372494E-04;  3.3427295E+02;
  3.1153792E-01;  9.9999998E-03;  1.5000875E-01;4382;  4.2517516E-03;  0.0000000E+00; -1.6885738E-04;  1.0005387E+03;  1.0000000E-01;  4.4630838E+02;3;  1.0587432E-01;  0.0000000E+00;  7.2920448E-03;0;  1.2028014E-03;  4.0047055E+04;  0.0000000E+00; -1.0924382E-02;  4.0000000E+04;  0.0000000E+00;  3.9998949E+04;  1.7711471E-03;  0.0000000E+00; -5.6834577E-04;  1.6780914E+02;
  3.1157744E-01;  9.9999998E-03;  1.6000684E-01;4383;  4.2692735E-03;  0.0000000E+00; -1.7262538E-04;  1.0004542E+03;  1.0000000E-01;  3.7628564E+02;3;  9.9391192E-02;  0.0000000E+00;  7.5501166E-03;0;  1.3820591E-03;  4.0038066E+04;  0.0000000E+00;  1.0108574E-01;  4.0000000E+04;  0.0000000E+00;  4.0000398E+04;  1.8507227E-03;  0.0000000E+00; -4.6866367E-04;  1.4535091E+02;
  3.1161192E-01;  9.9999998E-03;  1.7000748E-01;4384;  4.2886403E-03;  0.0000000E+00; -1.6984518E-04;  1.0002952E+03;  1.0000000E-01;  2.4453630E+02;3;  9.2995532E-02;  0.0000000E+00;  8.3223972E-03;0;  1.6493140E-03;  4.0023715E+04;  0.0000000E+00;  2.3870338E-01;  4.0000000E+04;  0.0000000E+00;  4.0002047E+04;  2.0109867E-03;  0.0000000E+00; -3.6167269E-04;  4.1815811E+02;
  3.1163171E-01;  9.9999998E-03;  1.8001033E-01;4385;  4.3035951E-03;  0.0000000E+00; -1.6072100E-04;  1.0000767E+03;  1.0000000E-01;  6.3603138E+01;3;  8.6252399E-02;  0.0000000E+00;  8.6247446E-03;0;  2.0186023E-03;  4.0004750E+04;  0.0000000E+00;  3.9024448E-01;  4.0000000E+04;  0.0000000E+00;  4.0003641E+04;  2.2727582E-03;  0.0000000E+00; -2.5415584E-04;  7.2610321E+02;
  3.1162772E-01;  9.9999998E-03;  1.9001074E-01;4386;  4.3095439E-03;  0.0000000E+00; -1.4718216E-04;  9.9981860E+02;  1.0000000E-01; -1.5026735E+02;3;  7.7901937E-02;  0.0000000E+00;  9.1431960E-03;0;  2.4969340E-03;  3.9982855E+04;  0.0000000E+00;  5.3564924E-01;  4.0000000E+04;  0.0000000E+00;  4.0005121E+04;  2.6474542E-03;  0.0000000E+00; -1.5052018E-04;  1.0139254E+03;
  3.1159717E-01;  9.9999998E-03;  2.0000635E-01;4387;  4.3015433E-03;  0.0000000E+00; -1.3488726E-04;  9.9954047E+02;  1.0000000E-01; -3.8072998E+02;3;  6.5828420E-02;  0.0000000E+00;  1.2862208E-02;0;  3.0822495E-03;  3.9959844E+04;  0.0000000E+00;  6.4647388E-01;  4.0000000E+04;  0.0000000E+00;  4.0006273E+04;  3.1363126E-03;  0.0000000E+00; -5.4063123E-05;  1.2453329E+03;
  3.1154016E-01;  9.9999998E-03;  2.0999484E-01;4388;  4.2769699E-03;  0.0000000E+00; -1.2879987E-04;  9.9927533E+02;  1.0000000E-01; -6.0037805E+02;3;  4.4651281E-02;  0.0000000E+00;  2.5402177E-02;0;  3.7588626E-03;  3.9937793E+04;  0.0000000E+00;  6.9631892E-01;  4.0000000E+04;  0.0000000E+00;  4.0007652E+04;  3.7308896E-03;  0.0000000E+00;  2.7972921E-05;  1.4360417E+03;
  3.1146726E-01;  9.9999998E-03;  2.1997957E-01;4389;  4.2239460E-03;  0.0000000E+00; -1.1135016E-04;  9.9905847E+02;  1.0000000E-01; -7.8002734E+02;3;  2.9284526E-03;  0.0000000E+00;  5.6947041E-02;0;  4.5306874E-03;  3.9918820E+04;  0.0000000E+00;  6.6938013E-01;  4.0000000E+04;  0.0000000E+00;  4.0010309E+04;  4.4148113E-03;  0.0000000E+00;  1.1587610E-04;  1.6689141E+03;
  3.1138647E-01;  9.9999998E-03;  2.2997327E-01;4390;  4.0994370E-03;  0.0000000E+00; -4.7456255E-05;  9.9888672E+02;  1.0000000E-01; -9.2234430E+02;3; -6.8290085E-02;  0.0000000E+00;  1.1141039E-01;0;  5.5151428E-03;  3.9903891E+04;  0.0000000E+00;  5.6386697E-01;  4.0000000E+04;  0.0000000E+00;  4.0012715E+04;  5.1650745E-03;  0.0000000E+00;  3.5006832E-04;  1.8678898E+03;
  3.2168373E-01;  9.9999998E-03;  6.9993645E-02;4435;  4.4026822E-03;  0.0000000E+00; -4.2651147E-05;  1.0000079E+03;  1.0000000E-01;  6.5183344E+00;3;  1.7969993E-01;  0.0000000E+00;  1.1740200E-02;0;  1.4012912E-04;  4.0001637E+04;  0.0000000E+00; -2.9417057E-02;  4.0000000E+04;  0.0000000E+00;  4.0001770E+04;  9.6436869E-04;  0.0000000E+00; -8.2423957E-04;  1.9241948E+02;
  3.2165876E-01;  9.9999998E-03;  7.9987630E-02;4436;  4.3876655E-03;  0.0000000E+00; -5.1514562E-05;  1.0000757E+03;  1.0000000E-01;  6.2714275E+01;3;  1.7178759E-01;  0.0000000E+00;  1.2470789E-02;0;  2.9755244E-04;  4.0007895E+04;  0.0000000E+00; -5.7514116E-02;  4.0000000E+04;  0.0000000E+00;  4.0001027E+04;  1.1393975E-03;  0.0000000E+00; -8.4184506E-04;  1.1708723E+02;
  3.2162482E-01;  9.9999998E-03;  8.9984663E-02;4437;  4.3645878E-03;  0.0000000E+00; -6.3221116E-05;  1.0001592E+03;  1.0000000E-01;  1.3194688E+02;3;  1.6156740E-01;  0.0000000E+00;  1.3187016E-02;0;  4.3687131E-04;  4.0015855E+04;  0.0000000E+00; -9.2377119E-02;  4.0000000E+04;  0.0000000E+00;  4.0000270E+04;  1.2923772E-03;  0.0000000E+00; -8.5550593E-04;  1.4081113E+02;
  3.2157871E-01;  9.9999998E-03;  9.9986151E-02;4438;  4.3345192E-03;  0.0000000E+00; -7.7472410E-05;  1.0002584E+03;  1.0000000E-01;  2.1411740E+02;3;  1.5092257E-01;  0.0000000E+00;  1.4330125E-02;0;  5.5371615E-04;  4.0024973E+04;  0.0000000E+00; -1.3055065E-01;  4.0000000E+04;  0.0000000E+00;  3.9999109E+04;  1.4150356E-03;  0.0000000E+00; -8.6131942E-04;  2.6784799E+02;
  3.2151857E-01;  9.9999998E-03;  1.0999312E-01;4439;  4.3022493E-03;  0.0000000E+00; -9.3789618E-05;  1.0003604E+03;  1.0000000E-01;  2.9855945E+02;3;  1.4042650E-01;  0.0000000E+00;  1.5100490E-02;0;  6.4947916E-04;  4.0034457E+04;  0.0000000E+00; -1.6654798E-01;  4.0000000E+04;  0.0000000E+00;  3.9998043E+04;  1.5042888E-03;  0.0000000E+00; -8.5480959E-04;  3.9504822E+02;
  3.2145774E-01;  9.9999998E-03;  1.2000478E-01;4440;  4.2739594E-03;  0.0000000E+00; -1.1172843E-04;  1.0004630E+03;  1.0000000E-01;  3.8359409E+02;3;  1.3029297E-01;  0.0000000E+00;  1.5382048E-02;0;  7.3185953E-04;  4.0043121E+04;  0.0000000E+00; -1.9305356E-01;  4.0000000E+04;  0.0000000E+00;  3.9997508E+04;  1.5637791E-03;  0.0000000E+00; -8.3191955E-04;  4.8138638E+02;
  3.2142144E-01;  9.9999998E-03;  1.3001490E-01;4441;  4.2538927E-03;  0.0000000E+00; -1.2965087E-04;  1.0005489E+03;  1.0000000E-01;  4.5470319E+02;3;  1.2070449E-01;  0.0000000E+00;  1.4997911E-02;0;  8.1491511E-04;  4.0050102E+04;  0.0000000E+00; -2.0171687E-01;  4.0000000E+04;  0.0000000E+00;  3.9997734E+04;  1.6049749E-03;  0.0000000E+00; -7.9005974E-04;  5.0237997E+02;
  3.2141769E-01;  9.9999998E-03;  1.4001969E-01;4442;  4.2433296E-03;  0.0000000E+00; -1.4603991E-04;  1.0006002E+03;  1.0000000E-01;  4.9726990E+02;3;  1.1339821E-01;  0.0000000E+00;  1.4722238E-02;0;  9.1848226E-04;  4.0053336E+04;  0.0000000E+00; -1.8454905E-01;  4.0000000E+04;  0.0000000E+00;  3.9997816E+04;  1.6472219E-03;  0.0000000E+00; -7.2873960E-04;  4.4374762E+02;
  3.2143587E-01;  9.9999998E-03;  1.5002094E-01;4443;  4.2420770E-03;  0.0000000E+00; -1.5863928E-04;  1.0005963E+03;  1.0000000E-01;  4.9401071E+02;3;  1.0661670E-01;  0.0000000E+00;  1.4817568E-02;0;  1.0659336E-03;  4.0052117E+04;  0.0000000E+00; -1.3566703E-01;  4.0000000E+04;  0.0000000E+00;  3.9998844E+04;  1.7159217E-03;  0.0000000E+00; -6.4998801E-04;  3.0222812E+02;
  3.2146710E-01;  9.9999998E-03;  1.6002013E-01;4444;  4.2488249E-03;  0.0000000E+00; -1.6474894E-04;  1.0005319E+03;  1.0000000E-01;  4.4067889E+02;3;  9.9608101E-02;  0.0000000E+00;  1.4963813E-02;0;  1.2803392E-03;  4.0045453E+04;  0.0000000E+00; -5.2891061E-02;  4.0000000E+04;  0.0000000E+00;  4.0000371E+04;  1.8390373E-03;  0.0000000E+00; -5.5869814E-04;  8.9912346E+01;
  3.2150242E-01;  9.9999998E-03;  1.7002016E-01;4445;  4.2593163E-03;  0.0000000E+00; -1.6289385E-04;  1.0004016E+03;  1.0000000E-01;  3.3273132E+02;3;  9.3045048E-02;  0.0000000E+00;  1.5332949E-02;0;  1.5811399E-03;  4.0033523E+04;  0.0000000E+00;  6.1081547E-02;  4.0000000E+04;  0.0000000E+00;  4.0002004E+04;  2.0427129E-03;  0.0000000E+00; -4.6157301E-04;  1.9660056E+02;
  3.2153165E-01;  9.9999998E-03;  1.8002291E-01;4446;  4.2675217E-03;  0.0000000E+00; -1.5276184E-04;  1.0002128E+03;  1.0000000E-01;  1.7629131E+02;3;  8.5541539E-02;  0.0000000E+00;  1.6420646E-02;0;  1.9827557E-03;  4.0016473E+04;  0.0000000E+00;  1.9817995E-01;  4.0000000E+04;  0.0000000E+00;  4.0003410E+04;  2.3473215E-03;  0.0000000E+00; -3.6456581E-04;  4.9808841E+02;
  3.2154939E-01;  9.9999998E-03;  1.9002604E-01;4447;  4.2677037E-03;  0.0000000E+00; -1.3577648E-04;  9.9996777E+02;  1.0000000E-01; -2.6715294E+01;3;  7.7552795E-02;  0.0000000E+00;  1.8065793E-02;0;  2.4946488E-03;  3.9995934E+04;  0.0000000E+00;  3.4518030E-01;  4.0000000E+04;  0.0000000E+00;  4.0004594E+04;  2.7646150E-03;  0.0000000E+00; -2.6996629E-04;  7.8985468E+02;
  3.2155266E-01;  9.9999998E-03;  2.0002580E-01;4448;  4.2543015E-03;  0.0000000E+00; -1.1315423E-04;  9.9969098E+02;  1.0000000E-01; -2.5604214E+02;3;  6.8048313E-02;  0.0000000E+00;  2.0611081E-02;0;  3.1227891E-03;  3.9973039E+04;  0.0000000E+00;  4.8070869E-01;  4.0000000E+04;  0.0000000E+00;  4.0006008E+04;  3.2963341E-03;  0.0000000E+00; -1.7354499E-04;  1.0317703E+03;
  3.2154393E-01;  9.9999998E-03;  2.1001853E-01;4449;  4.2266101E-03;  0.0000000E+00; -9.7781733E-05;  9.9941638E+02;  1.0000000E-01; -4.8349249E+02;3;  5.5018224E-02;  0.0000000E+00;  2.3687655E-02;0;  3.8589807E-03;  3.9950188E+04;  0.0000000E+00;  5.7705986E-01;  4.0000000E+04;  0.0000000E+00;  4.0006594E+04;  3.9346050E-03;  0.0000000E+00; -7.5624288E-05;  1.2187013E+03;
  3.2151484E-01;  9.9999998E-03;  2.2000296E-01;4450;  4.1830074E-03;  0.0000000E+00; -9.4816845E-05;  9.9916492E+02;  1.0000000E-01; -6.9183228E+02;3;  3.6054201E-02;  0.0000000E+00;  3.0287908E-02;0;  4.6755932E-03;  3.9929195E+04;  0.0000000E+00;  6.0962778E-01;  4.0000000E+04;  0.0000000E+00;  4.0008559E+04;  4.6628909E-03;  0.0000000E+00;  1.2702111E-05;  1.4318381E+03;
  3.2146186E-01;  9.9999998E-03;  2.2999065E-01;4451;  4.1069794E-03;  0.0000000E+00; -8.0075210E-05;  9.9895551E+02;  1.0000000E-01; -8.6535822E+02;3;  4.6053110E-03;  0.0000000E+00;  4.7869571E-02;0;  5.5968263E-03;  3.9911570E+04;  0.0000000E+00;  5.6376892E-01;  4.0000000E+04;  0.0000000E+00;  4.0010867E+04;  5.4585962E-03;  0.0000000E+00;  1.3823037E-04;  1.6556189E+03;
  3.3172944E-01;  9.9999998E-03;  6.9996864E-02;4496;  4.3863175E-03;  0.0000000E+00; -3.6452242E-05;  1.0001112E+03;  1.0000000E-01;  9.2145538E+01;3;  1.7893453E-01;  0.0000000E+00;  1.7746998E-02;0;  2.6621798E-05;  4.0010199E+04;  0.0000000E+00; -1.4387853E-02;  4.0000000E+04;  0.0000000E+00;  4.0002059E+04;  9.1082481E-04;  0.0000000E+00; -8.8420301E-04;  2.0882475E+02;
  3.3171731E-01;  9.9999998E-03;  7.9991505E-02;4497;  4.3770266E-03;  0.0000000E+00; -4.2730779E-05;  1.0001483E+03;  1.0000000E-01;  1.2286073E+02;3;  1.7087913E-01;  0.0000000E+00;  1.9041505E-02;0;  1.6968063E-04;  4.0013750E+04;  0.0000000E+00; -3.9842948E-02;  4.0000000E+04;  0.0000000E+00;  4.0001312E+04;  1.0682184E-03;  0.0000000E+00; -8.9853775E-04;  1.3146359E+02;
  3.3169246E-01;  9.9999998E-03;  8.9987472E-02;4498;  4.3623522E-03;  0.0000000E+00; -5.2080068E-05;  1.0002022E+03;  1.0000000E-01;  1.6750143E+02;3;  1.6196342E-01;  0.0000000E+00;  1.9892875E-02;0;  3.0369993E-04;  4.0018914E+04;  0.0000000E+00; -7.4187957E-02;  4.0000000E+04;  0.0000000E+00;  4.0000039E+04;  1.2135983E-03;  0.0000000E+00; -9.0989837E-04;  1.0598871E+02;
  3.3165219E-01;  9.9999998E-03;  9.9986278E-02;4499;  4.3429313E-03;  0.0000000E+00; -6.4626773E-05;  1.0002675E+03;  1.0000000E-01;  2.2162337E+02;3;  1.5245551E-01;  0.0000000E+00;  2.0572828E-02;0;  4.2513851E-04;  4.0025816E+04;  0.0000000E+00; -1.1540607E-01;  4.0000000E+04;  0.0000000E+00;  3.9999062E+04;  1.3398220E-03;  0.0000000E+00; -9.1468345E-04;  2.2747899E+02;
  3.3159667E-01;  9.9999998E-03;  1.0998924E-01;4500;  4.3198518E-03;  0.0000000E+00; -7.9726662E-05;  1.0003470E+03;  1.0000000E-01;  2.8749805E+02;3;  1.4245071E-01;  0.0000000E+00;  2.1326894E-02;0;  5.3483731E-04;  4.0032852E+04;  0.0000000E+00; -1.5944920E-01;  4.0000000E+04;  0.0000000E+00;  3.9997812E+04;  1.4436767E-03;  0.0000000E+00; -9.0883934E-04;  3.7314658E+02;
  3.3152717E-01;  9.9999998E-03;  1.1999915E-01;4501;  4.2956788E-03;  0.0000000E+00; -9.6542120E-05;  1.0004258E+03;  1.0000000E-01;  3.5278015E+02;3;  1.3258573E-01;  0.0000000E+00;  2.2078902E-02;0;  6.3915679E-04;  4.0039945E+04;  0.0000000E+00; -2.0010826E-01;  4.0000000E+04;  0.0000000E+00;  3.9997016E+04;  1.5277342E-03;  0.0000000E+00; -8.8857743E-04;  4.9069049E+02;
  3.3145416E-01;  9.9999998E-03;  1.3001597E-01;4502;  4.2746030E-03;  0.0000000E+00; -1.1374037E-04;  1.0004944E+03;  1.0000000E-01;  4.0956866E+02;3;  1.2331992E-01;  0.0000000E+00;  2.2238297E-02;0;  7.5016596E-04;  4.0046012E+04;  0.0000000E+00; -2.2936039E-01;  4.0000000E+04;  0.0000000E+00;  3.9996969E+04;  1.6015058E-03;  0.0000000E+00; -8.5133984E-04;  5.5205042E+02;
  3.3140004E-01;  9.9999998E-03;  1.4002703E-01;4503;  4.2594587E-03;  0.0000000E+00; -1.2963805E-04;  1.0005431E+03;  1.0000000E-01;  4.4996259E+02;3;  1.1492679E-01;  0.0000000E+00;  2.1977423E-02;0;  8.8489742E-04;  4.0049516E+04;  0.0000000E+00; -2.3839025E-01;  4.0000000E+04;  0.0000000E+00;  3.9997348E+04;  1.6816276E-03;  0.0000000E+00; -7.9673016E-04;  5.3922644E+02;
  3.3137828E-01;  9.9999998E-03;  1.5003072E-01;4504;  4.2503523E-03;  0.0000000E+00; -1.4279093E-04;  1.0005512E+03;  1.0000000E-01;  4.5667844E+02;3;  1.0765053E-01;  0.0000000E+00;  2.1739969E-02;0;  1.0639643E-03;  4.0049430E+04;  0.0000000E+00; -2.1923527E-01;  4.0000000E+04;  0.0000000E+00;  3.9998070E+04;  1.7908172E-03;  0.0000000E+00; -7.2685292E-04;  4.4490878E+02;
  3.3138543E-01;  9.9999998E-03;  1.6003014E-01;4505;  4.2469762E-03;  0.0000000E+00; -1.5123298E-04;  1.0005056E+03;  1.0000000E-01;  4.1885236E+02;3;  1.0055561E-01;  0.0000000E+00;  2.1837432E-02;0;  1.3083996E-03;  4.0044465E+04;  0.0000000E+00; -1.6660950E-01;  4.0000000E+04;  0.0000000E+00;  3.9999355E+04;  1.9547145E-03;  0.0000000E+00; -6.4631493E-04;  2.7969736E+02;
  3.3141294E-01;  9.9999998E-03;  1.7002915E-01;4506;  4.2471741E-03;  0.0000000E+00; -1.5218678E-04;  1.0004078E+03;  1.0000000E-01;  3.3786697E+02;3;  9.3468904E-02;  0.0000000E+00;  2.2435967E-02;0;  1.6363750E-03;  4.0034641E+04;  0.0000000E+00; -7.9637878E-02;  4.0000000E+04;  0.0000000E+00;  4.0001129E+04;  2.1976538E-03;  0.0000000E+00; -5.6127884E-04;  1.3862538E+02;
  3.3145159E-01;  9.9999998E-03;  1.8003082E-01;4507;  4.2470256E-03;  0.0000000E+00; -1.4422106E-04;  1.0002415E+03;  1.0000000E-01;  2.0009311E+02;3;  8.5711129E-02;  0.0000000E+00;  2.3699805E-02;0;  2.0620157E-03;  4.0020180E+04;  0.0000000E+00;  3.6953326E-02;  4.0000000E+04;  0.0000000E+00;  4.0002805E+04;  2.5389353E-03;  0.0000000E+00; -4.7691949E-04;  3.2177158E+02;
  3.3149606E-01;  9.9999998E-03;  1.9003519E-01;4508;  4.2408397E-03;  0.0000000E+00; -1.2597952E-04;  1.0000255E+03;  1.0000000E-01;  2.1135204E+01;3;  7.7443711E-02;  0.0000000E+00;  2.5800038E-02;0;  2.5966794E-03;  4.0001660E+04;  0.0000000E+00;  1.7292035E-01;  4.0000000E+04;  0.0000000E+00;  4.0004359E+04;  2.9901138E-03;  0.0000000E+00; -3.9343451E-04;  5.9078271E+02;
  3.3153057E-01;  9.9999998E-03;  2.0003867E-01;4509;  4.2245835E-03;  0.0000000E+00; -1.0240414E-04;  9.9977509E+02;  1.0000000E-01; -1.8631572E+02;3;  6.8724945E-02;  0.0000000E+00;  2.7899085E-02;0;  3.2489905E-03;  3.9980520E+04;  0.0000000E+00;  3.1309772E-01;  4.0000000E+04;  0.0000000E+00;  4.0005316E+04;  3.5530566E-03;  0.0000000E+00; -3.0406605E-04;  8.1929218E+02;
  3.3154127E-01;  9.9999998E-03;  2.1003479E-01;4510;  4.2025372E-03;  0.0000000E+00; -9.6134791E-05;  9.9950049E+02;  1.0000000E-01; -4.1381546E+02;3;  5.9713427E-02;  0.0000000E+00;  2.8091216E-02;0;  4.0036924E-03;  3.9958273E+04;  0.0000000E+00;  4.3637699E-01;  4.0000000E+04;  0.0000000E+00;  4.0005617E+04;  4.2198547E-03;  0.0000000E+00; -2.1616211E-04;  9.9731659E+02;
  3.3152866E-01;  9.9999998E-03;  2.2002091E-01;4511;  4.1831266E-03;  0.0000000E+00; -1.1868367E-04;  9.9923938E+02;  1.0000000E-01; -6.3015503E+02;3;  4.9772669E-02;  0.0000000E+00;  2.6380215E-02;0;  4.8043537E-03;  3.9936324E+04;  0.0000000E+00;  5.1947683E-01;  4.0000000E+04;  0.0000000E+00;  4.0006594E+04;  4.9746661E-03;  0.0000000E+00; -1.7031256E-04;  1.1991755E+03;
  3.3149475E-01;  9.9999998E-03;  2.3000474E-01;4512;  4.1580531E-03;  0.0000000E+00; -1.4153241E-04;  9.9900940E+02;  1.0000000E-01; -8.2071753E+02;3;  3.7275467E-02;  0.0000000E+00;  2.8776903E-02;0;  5.6311428E-03;  3.9916559E+04;  0.0000000E+00;  5.4399347E-01;  4.0000000E+04;  0.0000000E+00;  4.0009227E+04;  5.7958728E-03;  0.0000000E+00; -1.6472994E-04;  1.4723702E+03;
  3.4168416E-01;  9.9999998E-03;  7.0004448E-02;4557;  4.3789400E-03;  0.0000000E+00; -3.1432581E-05;  1.0001809E+03;  1.0000000E-01;  1.4992169E+02;3;  1.7825133E-01;  0.0000000E+00;  2.3769680E-02;0;  5.2558782E-05;  4.0015316E+04;  0.0000000E+00;  3.4942513E-03;  4.0000000E+04;  0.0000000E+00;  4.0001812E+04;  9.9071674E-04;  0.0000000E+00; -9.3815796E-04;  1.9927008E+02;
  3.4168538E-01;  9.9999998E-03;  7.9999447E-02;4558;  4.3751206E-03;  0.0000000E+00; -3.5490048E-05;  1.0001888E+03;  1.0000000E-01;  1.5644002E+02;3;  1.7155446E-01;  0.0000000E+00;  2.5692353E-02;0;  1.7545896E-04;  4.0016844E+04;  0.0000000E+00; -1.6493451E-02;  4.0000000E+04;  0.0000000E+00;  4.0001219E+04;  1.1242288E-03;  0.0000000E+00; -9.4876986E-04;  1.2933629E+02;
  3.4168383E-01;  9.9999998E-03;  8.9994423E-02;4559;  4.3698908E-03;  0.0000000E+00; -4.2972260E-05;  1.0002125E+03;  1.0000000E-01;  1.7599503E+02;3;  1.6455013E-01;  0.0000000E+00;  2.6726000E-02;0;  2.9761641E-04;  4.0019551E+04;  0.0000000E+00; -4.6440311E-02;  4.0000000E+04;  0.0000000E+00;  4.0000180E+04;  1.2550658E-03;  0.0000000E+00; -9.5744937E-04;  6.6918747E+01;
  3.4167737E-01;  9.9999998E-03;  9.9990442E-02;4560;  4.3627792E-03;  0.0000000E+00; -5.3573942E-05;  1.0002458E+03;  1.0000000E-01;  2.0364856E+02;3;  1.5640000E-01;  0.0000000E+00;  2.7872853E-02;0;  4.1675445E-04;  4.0023672E+04;  0.0000000E+00; -8.5682057E-02;  4.0000000E+04;  0.0000000E+00;  3.9999238E+04;  1.3776870E-03;  0.0000000E+00; -9.6093252E-04;  1.7902611E+02;
  3.4166148E-01;  9.9999998E-03;  1.0998911E-01;4561;  4.3517090E-03;  0.0000000E+00; -6.6425280E-05;  1.0002946E+03;  1.0000000E-01;  2.4404248E+02;3;  1.4762780E-01;  0.0000000E+00;  2.8249737E-02;0;  5.3363922E-04;  4.0028539E+04;  0.0000000E+00; -1.3166955E-01;  4.0000000E+04;  0.0000000E+00;  3.9998066E+04;  1.4892976E-03;  0.0000000E+00; -9.5565838E-04;  3.3275592E+02;
  3.4162942E-01;  9.9999998E-03;  1.1999274E-01;4562;  4.3345159E-03;  0.0000000E+00; -8.1256294E-05;  1.0003454E+03;  1.0000000E-01;  2.8611536E+02;3;  1.3683523E-01;  0.0000000E+00;  2.8375881E-02;0;  6.5331947E-04;  4.0033750E+04;  0.0000000E+00; -1.7959508E-01;  4.0000000E+04;  0.0000000E+00;  3.9996980E+04;  1.5916419E-03;  0.0000000E+00; -9.3832245E-04;  4.6957779E+02;
  3.4157518E-01;  9.9999998E-03;  1.3000415E-01;4563;  4.3141106E-03;  0.0000000E+00; -9.7024888E-05;  1.0003933E+03;  1.0000000E-01;  3.2581793E+02;3;  1.2710099E-01;  0.0000000E+00;  2.8655892E-02;0;  7.8568200E-04;  4.0038066E+04;  0.0000000E+00; -2.2235858E-01;  4.0000000E+04;  0.0000000E+00;  3.9996523E+04;  1.6922926E-03;  0.0000000E+00; -9.0661063E-04;  5.6125714E+02;
  3.4150246E-01;  9.9999998E-03;  1.4001887E-01;4564;  4.2937882E-03;  0.0000000E+00; -1.1253038E-04;  1.0004263E+03;  1.0000000E-01;  3.5317520E+02;3;  1.1774974E-01;  0.0000000E+00;  2.8696571E-02;0;  9.4496401E-04;  4.0040836E+04;  0.0000000E+00; -2.5111106E-01;  4.0000000E+04;  0.0000000E+00;  3.9996379E+04;  1.8049703E-03;  0.0000000E+00; -8.6000632E-04;  5.8733899E+02;
  3.4143719E-01;  9.9999998E-03;  1.5002997E-01;4565;  4.2768321E-03;  0.0000000E+00; -1.2615777E-04;  1.0004344E+03;  1.0000000E-01;  3.5989105E+02;3;  1.0950630E-01;  0.0000000E+00;  2.8448805E-02;0;  1.1487897E-03;  4.0040863E+04;  0.0000000E+00; -2.5656557E-01;  4.0000000E+04;  0.0000000E+00;  3.9997195E+04;  1.9491860E-03;  0.0000000E+00; -8.0039632E-04;  5.3604144E+02;
  3.4140381E-01;  9.9999998E-03;  1.6003443E-01;4566;  4.2643901E-03;  0.0000000E+00; -1.3649522E-04;  1.0004026E+03;  1.0000000E-01;  3.3352142E+02;3;  1.0180170E-01;  0.0000000E+00;  2.8634455E-02;0;  1.4156385E-03;  4.0037312E+04;  0.0000000E+00; -2.3097873E-01;  4.0000000E+04;  0.0000000E+00;  3.9998582E+04;  2.1476236E-03;  0.0000000E+00; -7.3198503E-04;  4.1042227E+02;
  3.4140551E-01;  9.9999998E-03;  1.7003551E-01;4567;  4.2554308E-03;  0.0000000E+00; -1.4170766E-04;  1.0003251E+03;  1.0000000E-01;  2.6932571E+02;3;  9.4564021E-02;  0.0000000E+00;  2.8740555E-02;0;  1.7618777E-03;  4.0029324E+04;  0.0000000E+00; -1.7041749E-01;  4.0000000E+04;  0.0000000E+00;  3.9999793E+04;  2.4220929E-03;  0.0000000E+00; -6.6021533E-04;  2.4844398E+02;
  3.4143198E-01;  9.9999998E-03;  1.8003704E-01;4568;  4.2475685E-03;  0.0000000E+00; -1.3948530E-04;  1.0001904E+03;  1.0000000E-01;  1.5772394E+02;3;  8.7003738E-02;  0.0000000E+00;  2.9767456E-02;0;  2.2003963E-03;  4.0017355E+04;  0.0000000E+00; -7.6575845E-02;  4.0000000E+04;  0.0000000E+00;  4.0001488E+04;  2.7899763E-03;  0.0000000E+00; -5.8957998E-04;  2.3374617E+02;
  3.4146467E-01;  9.9999998E-03;  1.9004065E-01;4569;  4.2378050E-03;  0.0000000E+00; -1.2826966E-04;  1.0000108E+03;  1.0000000E-01;  8.9874001E+00;3;  7.8981847E-02;  0.0000000E+00;  3.0669160E-02;0;  2.7415061E-03;  4.0001016E+04;  0.0000000E+00;  4.2750929E-02;  4.0000000E+04;  0.0000000E+00;  4.0003188E+04;  3.2615098E-03;  0.0000000E+00; -5.2000378E-04;  4.3902112E+02;
  3.4148914E-01;  9.9999998E-03;  2.0004521E-01;4570;  4.2240927E-03;  0.0000000E+00; -1.1454017E-04;  9.9978723E+02;  1.0000000E-01; -1.7629131E+02;3;  7.1372882E-02;  0.0000000E+00;  3.1740386E-02;0;  3.3917911E-03;  3.9982242E+04;  0.0000000E+00;  1.7451215E-01;  4.0000000E+04;  0.0000000E+00;  4.0004340E+04;  3.8384702E-03;  0.0000000E+00; -4.4667895E-04;  6.4702765E+02;
  3.4150371E-01;  9.9999998E-03;  2.1004555E-01;4571;  4.2137369E-03;  0.0000000E+00; -1.2393401E-04;  9.9952820E+02;  1.0000000E-01; -3.9090253E+02;3;  6.3387275E-02;  0.0000000E+00;  3.1322915E-02;0;  4.1282037E-03;  3.9961250E+04;  0.0000000E+00;  3.0286407E-01;  4.0000000E+04;  0.0000000E+00;  4.0004668E+04;  4.5138821E-03;  0.0000000E+00; -3.8567820E-04;  7.9190057E+02;
  3.4150946E-01;  9.9999998E-03;  2.2003379E-01;4572;  4.2210552E-03;  0.0000000E+00; -1.6419412E-04;  9.9926825E+02;  1.0000000E-01; -6.0625446E+02;3;  5.7641227E-02;  0.0000000E+00;  2.9370986E-02;0;  4.8841126E-03;  3.9940098E+04;  0.0000000E+00;  4.1069800E-01;  4.0000000E+04;  0.0000000E+00;  4.0005473E+04;  5.2723032E-03;  0.0000000E+00; -3.8819059E-04;  9.7183630E+02;
  3.4150130E-01;  9.9999998E-03;  2.3001458E-01;4573;  4.2305305E-03;  0.0000000E+00; -1.9872776E-04;  9.9903955E+02;  1.0000000E-01; -7.9573059E+02;3;  5.3567532E-02;  0.0000000E+00;  2.5528518E-02;0;  5.6452388E-03;  3.9919648E+04;  0.0000000E+00;  4.8055381E-01;  4.0000000E+04;  0.0000000E+00;  4.0008379E+04;  6.0927696E-03;  0.0000000E+00; -4.4753079E-04;  1.3062350E+03;
  3.5162371E-01;  9.9999998E-03;  7.0010237E-02;4618;  4.3809824E-03;  0.0000000E+00; -3.0304478E-05;  1.0002058E+03;  1.0000000E-01;  1.7046431E+02;3;  1.7891467E-01;  0.0000000E+00;  2.8289616E-02;0;  1.6270368E-04;  4.0017496E+04;  0.0000000E+00;  2.1197908E-02;  4.0000000E+04;  0.0000000E+00;  4.0001141E+04;  1.1550101E-03;  0.0000000E+00; -9.9230639E-04;  1.7629828E+02;
  3.5162318E-01;  9.9999998E-03;  8.0007397E-02;4619;  4.3823337E-03;  0.0000000E+00; -3.3818233E-05;  1.0001927E+03;  1.0000000E-01;  1.5960042E+02;3;  1.7479174E-01;  0.0000000E+00;  3.0473437E-02;0;  2.6206858E-04;  4.0017336E+04;  0.0000000E+00;  8.4087458E-03;  4.0000000E+04;  0.0000000E+00;  4.0000660E+04;  1.2606228E-03;  0.0000000E+00; -9.9855417E-04;  1.1943869E+02;
  3.5162243E-01;  9.9999998E-03;  9.0003774E-02;4620;  4.3865344E-03;  0.0000000E+00; -4.0417832E-05;  1.0001945E+03;  1.0000000E-01;  1.6108186E+02;3;  1.7053187E-01;  0.0000000E+00;  3.2466426E-02;0;  3.6740920E-04;  4.0017801E+04;  0.0000000E+00; -1.4419568E-02;  4.0000000E+04;  0.0000000E+00;  3.9999805E+04;  1.3712157E-03;  0.0000000E+00; -1.0038065E-03;  2.8512205E+01;
  3.5162041E-01;  9.9999998E-03;  1.0000015E-01;4621;  4.3925950E-03;  0.0000000E+00; -4.9548558E-05;  1.0002014E+03;  1.0000000E-01;  1.6690886E+02;3;  1.6564594E-01;  0.0000000E+00;  3.3779349E-02;0;  4.7798990E-04;  4.0019668E+04;  0.0000000E+00; -4.7767337E-02;  4.0000000E+04;  0.0000000E+00;  3.9998840E+04;  1.4831575E-03;  0.0000000E+00; -1.0051676E-03;  1.2851283E+02;
  3.5161439E-01;  9.9999998E-03;  1.0999745E-01;4622;  4.3970300E-03;  0.0000000E+00; -6.0396847E-05;  1.0002210E+03;  1.0000000E-01;  1.8310593E+02;3;  1.6098113E-01;  0.0000000E+00;  3.4810971E-02;0;  5.9494213E-04;  4.0022469E+04;  0.0000000E+00; -9.0447105E-02;  4.0000000E+04;  0.0000000E+00;  3.9997867E+04;  1.5945268E-03;  0.0000000E+00; -9.9958468E-04;  2.7965131E+02;
  3.5160002E-01;  9.9999998E-03;  1.1999663E-01;4623;  4.3943692E-03;  0.0000000E+00; -7.2195136E-05;  1.0002466E+03;  1.0000000E-01;  2.0433990E+02;3;  1.5404819E-01;  0.0000000E+00;  3.5158150E-02;0;  7.2241377E-04;  4.0025496E+04;  0.0000000E+00; -1.3906524E-01;  4.0000000E+04;  0.0000000E+00;  3.9996922E+04;  1.7067739E-03;  0.0000000E+00; -9.8436011E-04;  4.2259036E+02;
  3.5157311E-01;  9.9999998E-03;  1.2999870E-01;4624;  4.3811109E-03;  0.0000000E+00; -8.4974614E-05;  1.0002694E+03;  1.0000000E-01;  2.2320357E+02;3;  1.4128423E-01;  0.0000000E+00;  3.4728900E-02;0;  8.6833292E-04;  4.0028246E+04;  0.0000000E+00; -1.8770547E-01;  4.0000000E+04;  0.0000000E+00;  3.9996543E+04;  1.8259942E-03;  0.0000000E+00; -9.5766131E-04;  5.3189087E+02;
  3.5153130E-01;  9.9999998E-03;  1.4000539E-01;4625;  4.3583908E-03;  0.0000000E+00; -9.9839635E-05;  1.0002872E+03;  1.0000000E-01;  2.3791919E+02;3;  1.2775764E-01;  0.0000000E+00;  3.3309061E-02;0;  1.0443636E-03;  4.0029895E+04;  0.0000000E+00; -2.2810872E-01;  4.0000000E+04;  0.0000000E+00;  3.9996141E+04;  1.9634522E-03;  0.0000000E+00; -9.1908860E-04;  5.8551843E+02;
  3.5147774E-01;  9.9999998E-03;  1.5001690E-01;4626;  4.3325233E-03;  0.0000000E+00; -1.1488940E-04;  1.0002870E+03;  1.0000000E-01;  2.3772166E+02;3;  1.1667258E-01;  0.0000000E+00;  3.3429217E-02;0;  1.2650748E-03;  4.0029469E+04;  0.0000000E+00; -2.5062767E-01;  4.0000000E+04;  0.0000000E+00;  3.9996598E+04;  2.1351874E-03;  0.0000000E+00; -8.7011256E-04;  5.6767255E+02;
  3.5142916E-01;  9.9999998E-03;  1.6002747E-01;4627;  4.3094200E-03;  0.0000000E+00; -1.2874999E-04;  1.0002576E+03;  1.0000000E-01;  2.1342606E+02;3;  1.0710265E-01;  0.0000000E+00;  3.2798000E-02;0;  1.5459980E-03;  4.0026223E+04;  0.0000000E+00; -2.4614818E-01;  4.0000000E+04;  0.0000000E+00;  3.9997707E+04;  2.3601234E-03;  0.0000000E+00; -8.1412541E-04;  4.7487219E+02;
  3.5140017E-01;  9.9999998E-03;  1.7003357E-01;4628;  4.2909752E-03;  0.0000000E+00; -1.3865647E-04;  1.0001969E+03;  1.0000000E-01;  1.6315588E+02;3;  9.8770961E-02;  0.0000000E+00;  3.2647062E-02;0;  1.9011006E-03;  4.0019781E+04;  0.0000000E+00; -2.0866378E-01;  4.0000000E+04;  0.0000000E+00;  3.9999016E+04;  2.6567497E-03;  0.0000000E+00; -7.5564906E-04;  3.2752603E+02;
  3.5139507E-01;  9.9999998E-03;  1.8003707E-01;4629;  4.2762044E-03;  0.0000000E+00; -1.4397567E-04;  1.0000865E+03;  1.0000000E-01;  7.1701675E+01;3;  9.1084175E-02;  0.0000000E+00;  3.2405362E-02;0;  2.3413722E-03;  4.0009500E+04;  0.0000000E+00; -1.3752678E-01;  4.0000000E+04;  0.0000000E+00;  4.0000590E+04;  3.0400509E-03;  0.0000000E+00; -6.9867860E-04;  2.2406837E+02;
  3.5140923E-01;  9.9999998E-03;  1.9004130E-01;4630;  4.2641931E-03;  0.0000000E+00; -1.4577921E-04;  9.9993243E+02;  1.0000000E-01; -5.5998417E+01;3;  8.2936428E-02;  0.0000000E+00;  3.2362502E-02;0;  2.8740969E-03;  3.9995801E+04;  0.0000000E+00; -3.8257282E-02;  4.0000000E+04;  0.0000000E+00;  4.0002652E+04;  3.5190056E-03;  0.0000000E+00; -6.4490875E-04;  3.3965152E+02;
  3.5143271E-01;  9.9999998E-03;  2.0004719E-01;4631;  4.2562997E-03;  0.0000000E+00; -1.4833754E-04;  9.9974139E+02;  1.0000000E-01; -2.1426555E+02;3;  7.6871000E-02;  0.0000000E+00;  3.1793706E-02;0;  3.5005510E-03;  3.9979090E+04;  0.0000000E+00;  7.8310750E-02;  4.0000000E+04;  0.0000000E+00;  4.0004070E+04;  4.0947590E-03;  0.0000000E+00; -5.9420790E-04;  5.1968951E+02;
  3.5145646E-01;  9.9999998E-03;  2.1004972E-01;4632;  4.2617675E-03;  0.0000000E+00; -1.6797164E-04;  9.9950934E+02;  1.0000000E-01; -4.0650702E+02;3;  7.2347932E-02;  0.0000000E+00;  3.0007139E-02;0;  4.1976944E-03;  3.9960133E+04;  0.0000000E+00;  1.9817469E-01;  4.0000000E+04;  0.0000000E+00;  4.0004594E+04;  4.7598714E-03;  0.0000000E+00; -5.6217710E-04;  6.4201251E+02;
  3.5147488E-01;  9.9999998E-03;  2.2003932E-01;4633;  4.2904145E-03;  0.0000000E+00; -2.1738988E-04;  9.9926538E+02;  1.0000000E-01; -6.0862476E+02;3;  7.4235961E-02;  0.0000000E+00;  2.3484958E-02;0;  4.8926128E-03;  3.9940391E+04;  0.0000000E+00;  3.0668265E-01;  4.0000000E+04;  0.0000000E+00;  4.0005090E+04;  5.4990454E-03;  0.0000000E+00; -6.0643273E-04;  8.1217157E+02;
  3.5148180E-01;  9.9999998E-03;  2.3001865E-01;4634;  4.3262383E-03;  0.0000000E+00; -2.5175136E-04;  9.9905243E+02;  1.0000000E-01; -7.8506421E+02;3;  7.7214107E-02;  0.0000000E+00;  1.7868700E-02;0;  5.5900626E-03;  3.9920570E+04;  0.0000000E+00;  3.9047849E-01;  4.0000000E+04;  0.0000000E+00;  4.0007793E+04;  6.2922030E-03;  0.0000000E+00; -7.0214027E-04;  1.2064697E+03;
  3.6156976E-01;  9.9999998E-03;  7.0014261E-02;4679;  4.3954267E-03;  0.0000000E+00; -3.8294096E-05;  1.0001852E+03;  1.0000000E-01;  1.5347714E+02;3;  1.8465365E-01;  0.0000000E+00;  2.7865481E-02;0;  3.0623632E-04;  4.0015906E+04;  0.0000000E+00;  3.6614187E-02;  4.0000000E+04;  0.0000000E+00;  4.0001266E+04;  1.3575128E-03;  0.0000000E+00; -1.0512765E-03;  1.4964804E+02;
  3.6156812E-01;  9.9999998E-03;  8.0013551E-02;4680;  4.4005914E-03;  0.0000000E+00; -4.2574931E-05;  1.0001622E+03;  1.0000000E-01;  1.3441595E+02;3;  1.8226884E-01;  0.0000000E+00;  3.1072145E-02;0;  3.8234226E-04;  4.0014539E+04;  0.0000000E+00;  3.1606115E-02;  4.0000000E+04;  0.0000000E+00;  4.0000840E+04;  1.4348920E-03;  0.0000000E+00; -1.0525497E-03;  1.0933309E+02;
  3.6157072E-01;  9.9999998E-03;  9.0011403E-02;4681;  4.4115782E-03;  0.0000000E+00; -4.9383925E-05;  1.0001467E+03;  1.0000000E-01;  1.2147804E+02;3;  1.8294568E-01;  0.0000000E+00;  3.3443328E-02;0;  4.6863919E-04;  4.0013754E+04;  0.0000000E+00;  1.7421009E-02;  4.0000000E+04;  0.0000000E+00;  4.0000066E+04;  1.5222500E-03;  0.0000000E+00; -1.0536108E-03;  3.1785259E+01;
  3.6157715E-01;  9.9999998E-03;  1.0000840E-01;4682;  4.4279029E-03;  0.0000000E+00; -5.8678153E-05;  1.0001399E+03;  1.0000000E-01;  1.1594733E+02;3;  1.8608494E-01;  0.0000000E+00;  3.3842944E-02;0;  5.6597672E-04;  4.0014156E+04;  0.0000000E+00; -7.3285182E-03;  4.0000000E+04;  0.0000000E+00;  3.9999031E+04;  1.6179519E-03;  0.0000000E+00; -1.0519752E-03;  9.1658226E+01;
  3.6158103E-01;  9.9999998E-03;  1.1000489E-01;4683;  4.4470527E-03;  0.0000000E+00; -7.0018279E-05;  1.0001429E+03;  1.0000000E-01;  1.1841640E+02;3;  1.9333118E-01;  0.0000000E+00;  3.3073775E-02;0;  6.7628629E-04;  4.0015309E+04;  0.0000000E+00; -4.2607684E-02;  4.0000000E+04;  0.0000000E+00;  3.9997938E+04;  1.7213592E-03;  0.0000000E+00; -1.0450729E-03;  2.2487677E+02;
  3.6157501E-01;  9.9999998E-03;  1.2000150E-01;4684;  4.4661211E-03;  0.0000000E+00; -8.3920633E-05;  1.0001473E+03;  1.0000000E-01;  1.2207063E+02;3;  2.0173047E-01;  0.0000000E+00;  3.1839106E-02;0;  8.0351264E-04;  4.0016902E+04;  0.0000000E+00; -8.6349100E-02;  4.0000000E+04;  0.0000000E+00;  3.9997188E+04;  1.8342723E-03;  0.0000000E+00; -1.0307597E-03;  3.5875677E+02;
  3.6155599E-01;  9.9999998E-03;  1.2999929E-01;4685;  4.4773780E-03;  0.0000000E+00; -9.7721459E-05;  1.0001522E+03;  1.0000000E-01;  1.2611989E+02;3;  2.0275092E-01;  0.0000000E+00;  3.0706903E-02;0;  9.5431635E-04;  4.0018258E+04;  0.0000000E+00; -1.3395905E-01;  4.0000000E+04;  0.0000000E+00;  3.9996363E+04;  1.9620347E-03;  0.0000000E+00; -1.0077184E-03;  4.7084705E+02;
  3.6152473E-01;  9.9999998E-03;  1.3999988E-01;4686;  4.4753021E-03;  0.0000000E+00; -1.1031485E-04;  1.0001518E+03;  1.0000000E-01;  1.2572484E+02;3;  1.9413678E-01;  0.0000000E+00;  3.1931642E-02;0;  1.1382438E-03;  4.0018586E+04;  0.0000000E+00; -1.7820893E-01;  4.0000000E+04;  0.0000000E+00;  3.9996355E+04;  2.1140408E-03;  0.0000000E+00; -9.7579695E-04;  5.3907471E+02;
  3.6148325E-01;  9.9999998E-03;  1.5000498E-01;4687;  4.4568609E-03;  0.0000000E+00; -1.2227353E-04;  1.0001388E+03;  1.0000000E-01;  1.1495971E+02;3;  1.7170042E-01;  0.0000000E+00;  3.1708095E-02;0;  1.3671551E-03;  4.0017523E+04;  0.0000000E+00; -2.0987198E-01;  4.0000000E+04;  0.0000000E+00;  3.9996488E+04;  2.3033919E-03;  0.0000000E+00; -9.3623681E-04;  5.4430994E+02;
  3.6143395E-01;  9.9999998E-03;  1.6001485E-01;4688;  4.4212355E-03;  0.0000000E+00; -1.3535972E-04;  1.0001082E+03;  1.0000000E-01;  8.9676476E+01;3;  1.4017068E-01;  0.0000000E+00;  3.0757191E-02;0;  1.6537624E-03;  4.0014117E+04;  0.0000000E+00; -2.1956550E-01;  4.0000000E+04;  0.0000000E+00;  3.9997270E+04;  2.5453572E-03;  0.0000000E+00; -8.9159480E-04;  4.7664505E+02;
  3.6139193E-01;  9.9999998E-03;  1.7002474E-01;4689;  4.3837721E-03;  0.0000000E+00; -1.4807291E-04;  1.0000436E+03;  1.0000000E-01;  3.6147125E+01;3;  1.2104779E-01;  0.0000000E+00;  3.1064719E-02;0;  2.0097480E-03;  4.0008348E+04;  0.0000000E+00; -2.0034453E-01;  4.0000000E+04;  0.0000000E+00;  3.9998785E+04;  2.8551375E-03;  0.0000000E+00; -8.4538956E-04;  3.4675388E+02;
  3.6136991E-01;  9.9999998E-03;  1.8003179E-01;4690;  4.3550762E-03;  0.0000000E+00; -1.6015630E-04;  9.9995947E+02;  1.0000000E-01; -3.3579296E+01;3;  1.0691108E-01;  0.0000000E+00;  2.9713640E-02;0;  2.4437730E-03;  3.9999406E+04;  0.0000000E+00; -1.5010878E-01;  4.0000000E+04;  0.0000000E+00;  4.0000336E+04;  3.2449742E-03;  0.0000000E+00; -8.0120127E-04;  2.1952777E+02;
  3.6136812E-01;  9.9999998E-03;  1.9003744E-01;4691;  4.3385453E-03;  0.0000000E+00; -1.7048817E-04;  9.9982678E+02;  1.0000000E-01; -1.4350212E+02;3;  9.9542946E-02;  0.0000000E+00;  2.9079648E-02;0;  2.9602021E-03;  3.9987434E+04;  0.0000000E+00; -7.2571523E-02;  4.0000000E+04;  0.0000000E+00;  4.0001855E+04;  3.7216088E-03;  0.0000000E+00; -7.6140679E-04;  2.7639938E+02;
  3.6138240E-01;  9.9999998E-03;  2.0004287E-01;4692;  4.3344721E-03;  0.0000000E+00; -1.8390401E-04;  9.9965790E+02;  1.0000000E-01; -2.8344876E+02;3;  9.4877794E-02;  0.0000000E+00;  2.5841799E-02;0;  3.5554210E-03;  3.9972863E+04;  0.0000000E+00;  2.3507334E-02;  4.0000000E+04;  0.0000000E+00;  4.0003348E+04;  4.2845760E-03;  0.0000000E+00; -7.2915503E-04;  4.4836700E+02;
  3.6140618E-01;  9.9999998E-03;  2.1004517E-01;4693;  4.3475907E-03;  0.0000000E+00; -2.1424957E-04;  9.9946002E+02;  1.0000000E-01; -4.4734537E+02;3;  9.6216321E-02;  0.0000000E+00;  1.9945070E-02;0;  4.2010709E-03;  3.9956102E+04;  0.0000000E+00;  1.2621281E-01;  4.0000000E+04;  0.0000000E+00;  4.0003926E+04;  4.9256189E-03;  0.0000000E+00; -7.2454789E-04;  5.8661206E+02;
  3.6143056E-01;  9.9999998E-03;  2.2003564E-01;4694;  4.3854197E-03;  0.0000000E+00; -2.6060495E-04;  9.9924719E+02;  1.0000000E-01; -6.2368604E+02;3;  1.0445860E-01;  0.0000000E+00;  1.2321357E-02;0;  4.8423531E-03;  3.9937930E+04;  0.0000000E+00;  2.2248332E-01;  4.0000000E+04;  0.0000000E+00;  4.0005047E+04;  5.6293947E-03;  0.0000000E+00; -7.8704179E-04;  7.8453333E+02;
  3.6144826E-01;  9.9999998E-03;  2.3001659E-01;4695;  4.4413595E-03;  0.0000000E+00; -2.8281848E-04;  9.9905402E+02;  1.0000000E-01; -7.8373090E+02;3;  1.1980832E-01;  0.0000000E+00;  6.3431668E-03;0;  5.5051893E-03;  3.9919168E+04;  0.0000000E+00;  2.9980439E-01;  4.0000000E+04;  0.0000000E+00;  4.0008508E+04;  6.3765822E-03;  0.0000000E+00; -8.7139301E-04;  1.2211790E+03;
  3.7153265E-01;  9.9999998E-03;  7.0013218E-02;4740;  4.4286018E-03;  0.0000000E+00; -5.9252601E-05;  1.0001332E+03;  1.0000000E-01;  1.1031787E+02;3;  2.0038597E-01;  0.0000000E+00;  1.9954359E-02;0;  4.4559373E-04;  4.0011688E+04;  0.0000000E+00;  4.8925020E-02;  4.0000000E+04;  0.0000000E+00;  4.0000527E+04;  1.5636418E-03;  0.0000000E+00; -1.1180481E-03;  1.2484254E+02;
  3.7154046E-01;  9.9999998E-03;  8.0014259E-02;4741;  4.4311984E-03;  0.0000000E+00; -6.4061031E-05;  1.0001080E+03;  1.0000000E-01;  8.9478951E+01;3;  2.0096882E-01;  0.0000000E+00;  2.2877689E-02;0;  5.0285412E-04;  4.0009773E+04;  0.0000000E+00;  5.1194206E-02;  4.0000000E+04;  0.0000000E+00;  4.0000254E+04;  1.6167265E-03;  0.0000000E+00; -1.1138724E-03;  1.0274571E+02;
  3.7155837E-01;  9.9999998E-03;  9.0013899E-02;4742;  4.4425447E-03;  0.0000000E+00; -7.1668415E-05;  1.0000881E+03;  1.0000000E-01;  7.2985588E+01;3;  2.0483527E-01;  0.0000000E+00;  2.3612980E-02;0;  5.7155394E-04;  4.0008965E+04;  0.0000000E+00;  4.5893654E-02;  4.0000000E+04;  0.0000000E+00;  3.9999934E+04;  1.6815737E-03;  0.0000000E+00; -1.1100197E-03;  6.6502098E+01;
  3.7158215E-01;  9.9999998E-03;  1.0001105E-01;4743;  4.4628014E-03;  0.0000000E+00; -8.2938299E-05;  1.0000748E+03;  1.0000000E-01;  6.2022938E+01;3;  2.1612903E-01;  0.0000000E+00;  2.2453275E-02;0;  6.5390812E-04;  4.0008691E+04;  0.0000000E+00;  3.1029938E-02;  4.0000000E+04;  0.0000000E+00;  3.9999383E+04;  1.7583534E-03;  0.0000000E+00; -1.1044453E-03;  9.2685463E+01;
  3.7160173E-01;  9.9999998E-03;  1.1000601E-01;4744;  4.4862484E-03;  0.0000000E+00; -9.5805604E-05;  1.0000706E+03;  1.0000000E-01;  5.8467484E+01;3;  2.2822629E-01;  0.0000000E+00;  1.9957023E-02;0;  7.5283484E-04;  4.0009129E+04;  0.0000000E+00;  5.7354830E-03;  4.0000000E+04;  0.0000000E+00;  3.9998586E+04;  1.8479277E-03;  0.0000000E+00; -1.0950929E-03;  1.8731293E+02;
  3.7160826E-01;  9.9999998E-03;  1.2000002E-01;4745;  4.5079226E-03;  0.0000000E+00; -1.0906574E-04;  1.0000644E+03;  1.0000000E-01;  5.3331825E+01;3;  2.3827362E-01;  0.0000000E+00;  1.8409079E-02;0;  8.7264075E-04;  4.0009547E+04;  0.0000000E+00; -2.9099701E-02;  4.0000000E+04;  0.0000000E+00;  3.9997457E+04;  1.9530127E-03;  0.0000000E+00; -1.0803719E-03;  2.9685382E+02;
  3.7159806E-01;  9.9999998E-03;  1.2999448E-01;4746;  4.5242496E-03;  0.0000000E+00; -1.2124850E-04;  1.0000574E+03;  1.0000000E-01;  4.7504829E+01;3;  2.4614435E-01;  0.0000000E+00;  1.6362190E-02;0;  1.0195784E-03;  4.0009988E+04;  0.0000000E+00; -7.0256092E-02;  4.0000000E+04;  0.0000000E+00;  3.9996855E+04;  2.0790037E-03;  0.0000000E+00; -1.0594253E-03;  3.9617752E+02;
  3.7157309E-01;  9.9999998E-03;  1.3999084E-01;4747;  4.5363014E-03;  0.0000000E+00; -1.3286264E-04;  1.0000457E+03;  1.0000000E-01;  3.7826092E+01;3;  2.4985152E-01;  0.0000000E+00;  1.6280713E-02;0;  1.2020384E-03;  4.0009352E+04;  0.0000000E+00; -1.1188725E-01;  4.0000000E+04;  0.0000000E+00;  3.9996730E+04;  2.2343369E-03;  0.0000000E+00; -1.0322985E-03;  4.6362689E+02;
  3.7153581E-01;  9.9999998E-03;  1.4999035E-01;4748;  4.5445948E-03;  0.0000000E+00; -1.4411086E-04;  1.0000243E+03;  1.0000000E-01;  2.0147579E+01;3;  2.5067163E-01;  0.0000000E+00;  1.7413115E-02;0;  1.4302010E-03;  4.0007691E+04;  0.0000000E+00; -1.4587721E-01;  4.0000000E+04;  0.0000000E+00;  3.9996941E+04;  2.4302180E-03;  0.0000000E+00; -1.0000170E-03;  4.7871564E+02;
  3.7149122E-01;  9.9999998E-03;  1.5999414E-01;4749;  4.5487373E-03;  0.0000000E+00; -1.5511176E-04;  9.9998157E+02;  1.0000000E-01; -1.5258828E+01;3;  2.4802186E-01;  0.0000000E+00;  1.9184245E-02;0;  1.7149511E-03;  4.0004012E+04;  0.0000000E+00; -1.6343224E-01;  4.0000000E+04;  0.0000000E+00;  3.9997414E+04;  2.6794979E-03;  0.0000000E+00; -9.6454675E-04;  4.2652985E+02;
  3.7144604E-01;  9.9999998E-03;  1.7000259E-01;4750;  4.5449054E-03;  0.0000000E+00; -1.6543685E-04;  9.9991864E+02;  1.0000000E-01; -6.7405502E+01;3;  2.3452373E-01;  0.0000000E+00;  2.0909727E-02;0;  2.0660697E-03;  3.9998098E+04;  0.0000000E+00; -1.5769026E-01;  4.0000000E+04;  0.0000000E+00;  3.9998602E+04;  2.9944149E-03;  0.0000000E+00; -9.2834525E-04;  3.0864664E+02;
  3.7140933E-01;  9.9999998E-03;  1.8001258E-01;4751;  4.5240996E-03;  0.0000000E+00; -1.7885317E-04;  9.9983905E+02;  1.0000000E-01; -1.3332956E+02;3;  2.0017554E-01;  0.0000000E+00;  1.8157782E-02;0;  2.4900418E-03;  3.9989461E+04;  0.0000000E+00; -1.2599216E-01;  4.0000000E+04;  0.0000000E+00;  4.0000250E+04;  3.3841336E-03;  0.0000000E+00; -8.9409179E-04;  1.8371753E+02;
  3.7138838E-01;  9.9999998E-03;  1.9002138E-01;4752;  4.5003998E-03;  0.0000000E+00; -1.9373801E-04;  9.9972540E+02;  1.0000000E-01; -2.2749974E+02;3;  1.7543846E-01;  0.0000000E+00;  1.8070791E-02;0;  2.9883813E-03;  3.9978703E+04;  0.0000000E+00; -7.0724085E-02;  4.0000000E+04;  0.0000000E+00;  4.0001973E+04;  3.8528377E-03;  0.0000000E+00; -8.6445629E-04;  2.5758899E+02;
  3.7138429E-01;  9.9999998E-03;  2.0002879E-01;4753;  4.4923583E-03;  0.0000000E+00; -2.1122713E-04;  9.9957983E+02;  1.0000000E-01; -3.4808893E+02;3;  1.6316865E-01;  0.0000000E+00;  1.4065535E-02;0;  3.5550704E-03;  3.9965332E+04;  0.0000000E+00;  1.3015975E-03;  4.0000000E+04;  0.0000000E+00;  4.0003594E+04;  4.3980828E-03;  0.0000000E+00; -8.4301247E-04;  4.5471149E+02;
  3.7139434E-01;  9.9999998E-03;  2.1003221E-01;4754;  4.5042485E-03;  0.0000000E+00; -2.3831216E-04;  9.9940405E+02;  1.0000000E-01; -4.9371442E+02;3;  1.6618793E-01;  0.0000000E+00;  1.1380184E-02;0;  4.1665989E-03;  3.9950512E+04;  0.0000000E+00;  8.0438785E-02;  4.0000000E+04;  0.0000000E+00;  4.0004953E+04;  5.0102412E-03;  0.0000000E+00; -8.4364240E-04;  6.3419427E+02;
  3.7141165E-01;  9.9999998E-03;  2.2002548E-01;4755;  4.5362855E-03;  0.0000000E+00; -2.7218481E-04;  9.9922040E+02;  1.0000000E-01; -6.4590765E+02;3;  1.8255703E-01;  0.0000000E+00;  5.4293908E-03;0;  4.7853114E-03;  3.9933516E+04;  0.0000000E+00;  1.5579566E-01;  4.0000000E+04;  0.0000000E+00;  4.0006176E+04;  5.6736581E-03;  0.0000000E+00; -8.8834681E-04;  8.7054364E+02;
  3.7143064E-01;  9.9999998E-03;  2.3001164E-01;4756;  4.6101646E-03;  0.0000000E+00; -2.7607800E-04;  9.9904260E+02;  1.0000000E-01; -7.9316278E+02;3;  2.1566541E-01;  0.0000000E+00;  6.5751034E-03;0;  5.4610157E-03;  3.9916453E+04;  0.0000000E+00;  2.1674365E-01;  4.0000000E+04;  0.0000000E+00;  4.0009316E+04;  6.3695628E-03;  0.0000000E+00; -9.0854691E-04;  1.2889102E+03;
  3.8155058E-01;  9.9999998E-03;  7.0005998E-02;4801;  4.4766567E-03;  0.0000000E+00; -8.9349727E-05;  1.0000641E+03;  1.0000000E-01;  5.3134300E+01;3;  2.3225123E-01;  0.0000000E+00;  4.2785564E-03;0;  5.6551339E-04;  4.0006125E+04;  0.0000000E+00;  5.8405977E-02;  4.0000000E+04;  0.0000000E+00;  4.0000609E+04;  1.7597452E-03;  0.0000000E+00; -1.1942318E-03;  1.0489026E+02;
  3.8157392E-01;  9.9999998E-03;  8.0006942E-02;4802;  4.4675516E-03;  0.0000000E+00; -9.3844341E-05;  1.0000441E+03;  1.0000000E-01;  3.6542175E+01;3;  2.2970866E-01;  0.0000000E+00;  7.8742532E-03;0;  6.1132153E-04;  4.0005090E+04;  0.0000000E+00;  6.6687874E-02;  4.0000000E+04;  0.0000000E+00;  4.0000223E+04;  1.7956600E-03;  0.0000000E+00; -1.1843385E-03;  1.0192339E+02;
  3.8160372E-01;  9.9999998E-03;  9.0006419E-02;4803;  4.4707311E-03;  0.0000000E+00; -1.0111110E-04;  1.0000343E+03;  1.0000000E-01;  2.8443640E+01;3;  2.2888759E-01;  0.0000000E+00;  1.0558774E-02;0;  6.6689961E-04;  4.0004594E+04;  0.0000000E+00;  6.9401599E-02;  4.0000000E+04;  0.0000000E+00;  3.9999742E+04;  1.8418111E-03;  0.0000000E+00; -1.1749115E-03;  1.0082512E+02;
  3.8163272E-01;  9.9999998E-03;  1.0000345E-01;4804;  4.4840076E-03;  0.0000000E+00; -1.1102406E-04;  1.0000291E+03;  1.0000000E-01;  2.4098083E+01;3;  2.3509240E-01;  0.0000000E+00;  1.0779320E-02;0;  7.3553668E-04;  4.0004594E+04;  0.0000000E+00;  6.4314798E-02;  4.0000000E+04;  0.0000000E+00;  3.9999254E+04;  1.8999408E-03;  0.0000000E+00; -1.1644041E-03;  1.2587041E+02;
  3.8165167E-01;  9.9999998E-03;  1.0999803E-01;4805;  4.5015053E-03;  0.0000000E+00; -1.2212252E-04;  1.0000257E+03;  1.0000000E-01;  2.1332729E+01;3;  2.4322198E-01;  0.0000000E+00;  8.5458336E-03;0;  8.2124944E-04;  4.0004840E+04;  0.0000000E+00;  4.9939394E-02;  4.0000000E+04;  0.0000000E+00;  3.9998422E+04;  1.9725987E-03;  0.0000000E+00; -1.1513493E-03;  1.8374780E+02;
  3.8165888E-01;  9.9999998E-03;  1.1999097E-01;4806;  4.5185774E-03;  0.0000000E+00; -1.3251418E-04;  1.0000201E+03;  1.0000000E-01;  1.6690886E+01;3;  2.4922046E-01;  0.0000000E+00;  8.6032879E-03;0;  9.2918379E-04;  4.0004859E+04;  0.0000000E+00;  2.6158119E-02;  4.0000000E+04;  0.0000000E+00;  3.9997617E+04;  2.0639289E-03;  0.0000000E+00; -1.1347451E-03;  2.5868881E+02;
  3.8165596E-01;  9.9999998E-03;  1.2998375E-01;4807;  4.5344532E-03;  0.0000000E+00; -1.4238142E-04;  1.0000093E+03;  1.0000000E-01;  7.7034860E+00;3;  2.5271133E-01;  0.0000000E+00;  9.4560031E-03;0;  1.0658986E-03;  4.0004695E+04;  0.0000000E+00; -5.1854625E-03;  4.0000000E+04;  0.0000000E+00;  3.9996930E+04;  2.1800543E-03;  0.0000000E+00; -1.1141557E-03;  3.3158618E+02;
  3.8164341E-01;  9.9999998E-03;  1.3997759E-01;4808;  4.5489902E-03;  0.0000000E+00; -1.5240889E-04;  9.9998706E+02;  1.0000000E-01; -1.0715746E+01;3;  2.5406429E-01;  0.0000000E+00;  1.2096579E-02;0;  1.2395002E-03;  4.0003824E+04;  0.0000000E+00; -3.9887026E-02;  4.0000000E+04;  0.0000000E+00;  3.9996840E+04;  2.3292291E-03;  0.0000000E+00; -1.0897289E-03;  3.8308066E+02;
  3.8162220E-01;  9.9999998E-03;  1.4997369E-01;4809;  4.5622680E-03;  0.0000000E+00; -1.6299110E-04;  9.9995404E+02;  1.0000000E-01; -3.8072998E+01;3;  2.5528163E-01;  0.0000000E+00;  1.4722933E-02;0;  1.4594150E-03;  4.0001078E+04;  0.0000000E+00; -7.1456246E-02;  4.0000000E+04;  0.0000000E+00;  3.9996656E+04;  2.5216697E-03;  0.0000000E+00; -1.0622548E-03;  3.9353906E+02;
  3.8159266E-01;  9.9999998E-03;  1.5997355E-01;4810;  4.5743291E-03;  0.0000000E+00; -1.7388949E-04;  9.9990619E+02;  1.0000000E-01; -7.7726196E+01;3;  2.5618139E-01;  0.0000000E+00;  1.6733183E-02;0;  1.7356974E-03;  3.9997016E+04;  0.0000000E+00; -9.2426926E-02;  4.0000000E+04;  0.0000000E+00;  3.9997383E+04;  2.7688271E-03;  0.0000000E+00; -1.0331298E-03;  3.4510074E+02;
  3.8155431E-01;  9.9999998E-03;  1.6997781E-01;4811;  4.5855739E-03;  0.0000000E+00; -1.8463840E-04;  9.9984259E+02;  1.0000000E-01; -1.3041606E+02;3;  2.5721562E-01;  0.0000000E+00;  1.8529672E-02;0;  2.0773849E-03;  3.9990551E+04;  0.0000000E+00; -9.6752927E-02;  4.0000000E+04;  0.0000000E+00;  3.9998367E+04;  3.0813802E-03;  0.0000000E+00; -1.0039952E-03;  2.3085373E+02;
  3.8151228E-01;  9.9999998E-03;  1.7998584E-01;4812;  4.5980066E-03;  0.0000000E+00; -1.9501598E-04;  9.9975037E+02;  1.0000000E-01; -2.0680896E+02;3;  2.5912946E-01;  0.0000000E+00;  2.0871537E-02;0;  2.4904490E-03;  3.9982145E+04;  0.0000000E+00; -8.1747614E-02;  4.0000000E+04;  0.0000000E+00;  4.0000078E+04;  3.4667060E-03;  0.0000000E+00; -9.7625703E-04;  1.2254096E+02;
  3.8147715E-01;  9.9999998E-03;  1.8999580E-01;4813;  4.6120281E-03;  0.0000000E+00; -2.0505204E-04;  9.9964508E+02;  1.0000000E-01; -2.9406577E+02;3;  2.5953576E-01;  0.0000000E+00;  2.0195007E-02;0;  2.9760292E-03;  3.9971516E+04;  0.0000000E+00; -4.8710071E-02;  4.0000000E+04;  0.0000000E+00;  4.0001984E+04;  3.9266390E-03;  0.0000000E+00; -9.5060986E-04;  2.8792722E+02;
  3.8145494E-01;  9.9999998E-03;  2.0000595E-01;4814;  4.6253279E-03;  0.0000000E+00; -2.1753948E-04;  9.9951538E+02;  1.0000000E-01; -4.0151950E+02;3;  2.5628105E-01;  0.0000000E+00;  1.9737100E-02;0;  3.5279584E-03;  3.9959023E+04;  0.0000000E+00; -2.5239054E-03;  4.0000000E+04;  0.0000000E+00;  4.0004031E+04;  4.4563520E-03;  0.0000000E+00; -9.2839351E-04;  5.3871545E+02;
  3.8144439E-01;  9.9999998E-03;  2.1001334E-01;4815;  4.6391664E-03;  0.0000000E+00; -2.3456482E-04;  9.9936249E+02;  1.0000000E-01; -5.2818262E+02;3;  2.5351128E-01;  0.0000000E+00;  1.7558815E-02;0;  4.1300287E-03;  3.9944922E+04;  0.0000000E+00;  4.9504261E-02;  4.0000000E+04;  0.0000000E+00;  4.0005848E+04;  5.0445977E-03;  0.0000000E+00; -9.1456913E-04;  7.6571106E+02;
  3.8144055E-01;  9.9999998E-03;  2.2001272E-01;4816;  4.6598297E-03;  0.0000000E+00; -2.5482042E-04;  9.9919373E+02;  1.0000000E-01; -6.6798108E+02;3;  2.5441918E-01;  0.0000000E+00;  1.6882669E-02;0;  4.7569596E-03;  3.9929426E+04;  0.0000000E+00;  9.9006847E-02;  4.0000000E+04;  0.0000000E+00;  4.0007477E+04;  5.6750616E-03;  0.0000000E+00; -9.1810216E-04;  1.0134727E+03;
  3.8143966E-01;  9.9999998E-03;  2.3000644E-01;4817;  4.7098319E-03;  0.0000000E+00; -2.5687431E-04;  9.9902686E+02;  1.0000000E-01; -8.0624878E+02;3;  2.6552057E-01;  0.0000000E+00;  1.9518042E-02;0;  5.4363548E-03;  3.9913406E+04;  0.0000000E+00;  1.3787097E-01;  4.0000000E+04;  0.0000000E+00;  4.0010309E+04;  6.3290740E-03;  0.0000000E+00; -8.9271943E-04;  1.3511033E+03;
  3.9160743E-01;  9.9999998E-03;  6.9995545E-02;4862;  4.5148856E-03;  0.0000000E+00; -1.1234857E-04;  9.9999780E+02;  1.0000000E-01; -1.8271089E+00;3;  2.6005411E-01;  0.0000000E+00; -4.4161612E-03;0;  6.7709654E-04;  4.0000859E+04;  0.0000000E+00;  6.5654643E-02;  4.0000000E+04;  0.0000000E+00;  4.0000195E+04;  1.9568880E-03;  0.0000000E+00; -1.2797915E-03;  9.5619881E+01;
  3.9162987E-01;  9.9999998E-03;  7.9996057E-02;4863;  4.4917907E-03;  0.0000000E+00; -1.1775638E-04;  9.9999786E+02;  1.0000000E-01; -1.7777275E+00;3;  2.4672137E-01;  0.0000000E+00;  3.6841113E-05;0;  7.1958045E-04;  4.0001332E+04;  0.0000000E+00;  7.8457959E-02;  4.0000000E+04;  0.0000000E+00;  3.9999801E+04;  1.9837106E-03;  0.0000000E+00; -1.2641301E-03;  1.1354079E+02;
  3.9165109E-01;  9.9999998E-03;  8.9995883E-02;4864;  4.4844747E-03;  0.0000000E+00; -1.2519346E-04;  1.0000021E+03;  1.0000000E-01;  1.6789649E+00;3;  2.4334404E-01;  0.0000000E+00;  1.7062954E-03;0;  7.6785474E-04;  4.0002027E+04;  0.0000000E+00;  8.7661751E-02;  4.0000000E+04;  0.0000000E+00;  3.9999758E+04;  2.0165252E-03;  0.0000000E+00; -1.2486705E-03;  1.3769722E+02;
  3.9166647E-01;  9.9999998E-03;  9.9994116E-02;4865;  4.4892575E-03;  0.0000000E+00; -1.3466997E-04;  1.0000151E+03;  1.0000000E-01;  1.2444093E+01;3;  2.4459578E-01;  0.0000000E+00;  2.8812299E-03;0;  8.2591316E-04;  4.0002945E+04;  0.0000000E+00;  9.1126062E-02;  4.0000000E+04;  0.0000000E+00;  3.9999246E+04;  2.0583475E-03;  0.0000000E+00; -1.2324343E-03;  1.7018124E+02;
  3.9167428E-01;  9.9999998E-03;  1.0999029E-01;4866;  4.5012347E-03;  0.0000000E+00; -1.4454575E-04;  1.0000182E+03;  1.0000000E-01;  1.5110683E+01;3;  2.4774584E-01;  0.0000000E+00;  3.6003878E-03;0;  8.9889625E-04;  4.0003531E+04;  0.0000000E+00;  8.7044150E-02;  4.0000000E+04;  0.0000000E+00;  3.9998812E+04;  2.1134806E-03;  0.0000000E+00; -1.2145843E-03;  2.1089838E+02;
  3.9167500E-01;  9.9999998E-03;  1.1998479E-01;4867;  4.5159305E-03;  0.0000000E+00; -1.5379942E-04;  1.0000141E+03;  1.0000000E-01;  1.1653992E+01;3;  2.5096625E-01;  0.0000000E+00;  4.6404735E-03;0;  9.9305855E-04;  4.0004180E+04;  0.0000000E+00;  7.4487105E-02;  4.0000000E+04;  0.0000000E+00;  3.9997863E+04;  2.1877282E-03;  0.0000000E+00; -1.1946696E-03;  2.5594740E+02;
  3.9166966E-01;  9.9999998E-03;  1.2997833E-01;4868;  4.5319414E-03;  0.0000000E+00; -1.6288705E-04;  1.0000024E+03;  1.0000000E-01;  1.9752527E+00;3;  2.5285780E-01;  0.0000000E+00;  6.8222960E-03;0;  1.1159388E-03;  4.0003594E+04;  0.0000000E+00;  5.3975582E-02;  4.0000000E+04;  0.0000000E+00;  3.9997445E+04;  2.2885436E-03;  0.0000000E+00; -1.1726049E-03;  2.9707739E+02;
  3.9165995E-01;  9.9999998E-03;  1.3997208E-01;4869;  4.5485138E-03;  0.0000000E+00; -1.7272877E-04;  9.9997955E+02;  1.0000000E-01; -1.6937792E+01;3;  2.5412327E-01;  0.0000000E+00;  9.5974738E-03;0;  1.2764100E-03;  4.0002070E+04;  0.0000000E+00;  2.7981918E-02;  4.0000000E+04;  0.0000000E+00;  3.9997297E+04;  2.4250369E-03;  0.0000000E+00; -1.1486269E-03;  3.2184091E+02;
  3.9164823E-01;  9.9999998E-03;  1.4996703E-01;4870;  4.5645554E-03;  0.0000000E+00; -1.8322135E-04;  9.9994147E+02;  1.0000000E-01; -4.8492455E+01;3;  2.5542235E-01;  0.0000000E+00;  1.2360216E-02;0;  1.4843411E-03;  3.9999012E+04;  0.0000000E+00;  1.0683523E-03;  4.0000000E+04;  0.0000000E+00;  3.9997227E+04;  2.6076627E-03;  0.0000000E+00; -1.1233216E-03;  3.1456912E+02;
  3.9163327E-01;  9.9999998E-03;  1.5996425E-01;4871;  4.5797345E-03;  0.0000000E+00; -1.9410254E-04;  9.9988678E+02;  1.0000000E-01; -9.3824509E+01;3;  2.5717676E-01;  0.0000000E+00;  1.4706727E-02;0;  1.7499151E-03;  3.9994180E+04;  0.0000000E+00; -2.1115072E-02;  4.0000000E+04;  0.0000000E+00;  3.9997562E+04;  2.8475604E-03;  0.0000000E+00; -1.0976454E-03;  2.5805450E+02;
  3.9161184E-01;  9.9999998E-03;  1.6996469E-01;4872;  4.5938836E-03;  0.0000000E+00; -2.0490201E-04;  9.9981049E+02;  1.0000000E-01; -1.5703259E+02;3;  2.5857961E-01;  0.0000000E+00;  1.6864417E-02;0;  2.0821542E-03;  3.9986977E+04;  0.0000000E+00; -3.3755302E-02;  4.0000000E+04;  0.0000000E+00;  3.9998871E+04;  3.1547945E-03;  0.0000000E+00; -1.0726403E-03;  1.3864621E+02;
  3.9158496E-01;  9.9999998E-03;  1.7996885E-01;4873;  4.6079759E-03;  0.0000000E+00; -2.1561600E-04;  9.9971832E+02;  1.0000000E-01; -2.3337611E+02;3;  2.6041430E-01;  0.0000000E+00;  1.8229982E-02;0;  2.4864045E-03;  3.9978379E+04;  0.0000000E+00; -3.4305640E-02;  4.0000000E+04;  0.0000000E+00;  4.0000180E+04;  3.5355666E-03;  0.0000000E+00; -1.0491622E-03;  8.9984909E+01;
  3.9155400E-01;  9.9999998E-03;  1.8997617E-01;4874;  4.6238643E-03;  0.0000000E+00; -2.2539553E-04;  9.9961121E+02;  1.0000000E-01; -3.2211435E+02;3;  2.6284438E-01;  0.0000000E+00;  2.0274110E-02;0;  2.9627397E-03;  3.9967504E+04;  0.0000000E+00; -2.3038512E-02;  4.0000000E+04;  0.0000000E+00;  4.0002285E+04;  3.9900881E-03;  0.0000000E+00; -1.0273486E-03;  3.4309814E+02;
  3.9152372E-01;  9.9999998E-03;  1.9998553E-01;4875;  4.6431352E-03;  0.0000000E+00; -2.3448303E-04;  9.9948163E+02;  1.0000000E-01; -4.2946933E+02;3;  2.6394898E-01;  0.0000000E+00;  2.0462029E-02;0;  3.5055133E-03;  3.9955020E+04;  0.0000000E+00; -2.8281091E-03;  4.0000000E+04;  0.0000000E+00;  4.0004609E+04;  4.5118872E-03;  0.0000000E+00; -1.0063739E-03;  6.4042505E+02;
  3.9149925E-01;  9.9999998E-03;  2.0999487E-01;4876;  4.6665603E-03;  0.0000000E+00; -2.4326651E-04;  9.9933838E+02;  1.0000000E-01; -5.4813263E+02;3;  2.6640934E-01;  0.0000000E+00;  2.0852936E-02;0;  4.1036550E-03;  3.9941211E+04;  0.0000000E+00;  2.1631368E-02;  4.0000000E+04;  0.0000000E+00;  4.0006727E+04;  5.0883391E-03;  0.0000000E+00; -9.8468433E-04;  9.2076276E+02;
  3.9148107E-01;  9.9999998E-03;  2.2000033E-01;4877;  4.6976446E-03;  0.0000000E+00; -2.5208035E-04;  9.9918408E+02;  1.0000000E-01; -6.7598090E+02;3;  2.7008459E-01;  0.0000000E+00;  2.1747585E-02;0;  4.7415462E-03;  3.9926535E+04;  0.0000000E+00;  4.4788912E-02;  4.0000000E+04;  0.0000000E+00;  4.0008605E+04;  5.7021664E-03;  0.0000000E+00; -9.6062012E-04;  1.1709967E+03;
  3.9146677E-01;  9.9999998E-03;  2.3000112E-01;4878;  4.7428482E-03;  0.0000000E+00; -2.5814396E-04;  9.9901691E+02;  1.0000000E-01; -8.1449548E+02;3;  2.7696374E-01;  0.0000000E+00;  2.2452420E-02;0;  5.4099802E-03;  3.9910930E+04;  0.0000000E+00;  6.1258439E-02;  4.0000000E+04;  0.0000000E+00;  4.0010816E+04;  6.3340599E-03;  0.0000000E+00; -9.2407945E-04;  1.4230239E+03;
  4.0163422E-01;  9.9999998E-03;  6.9989383E-02;4923;  4.5357915E-03;  0.0000000E+00; -1.2469938E-04;  9.9994495E+02;  1.0000000E-01; -4.5628338E+01;3;  2.7909350E-01;  0.0000000E+00; -5.8792634E-03;0;  8.1656931E-04;  3.9996938E+04;  0.0000000E+00;  7.0828207E-02;  4.0000000E+04;  0.0000000E+00;  3.9999555E+04;  2.1898882E-03;  0.0000000E+00; -1.3733188E-03;  1.0986773E+02;
  4.0164939E-01;  9.9999998E-03;  7.9990081E-02;4924;  4.5025875E-03;  0.0000000E+00; -1.3304460E-04;  9.9996765E+02;  1.0000000E-01; -2.6814056E+01;3;  2.5970352E-01;  0.0000000E+00; -2.2235312E-03;0;  8.6171285E-04;  3.9999258E+04;  0.0000000E+00;  8.6815231E-02;  4.0000000E+04;  0.0000000E+00;  3.9999688E+04;  2.2140185E-03;  0.0000000E+00; -1.3523056E-03;  1.4618341E+02;
  4.0166128E-01;  9.9999998E-03;  8.9990780E-02;4925;  4.4862865E-03;  0.0000000E+00; -1.4245691E-04;  9.9999963E+02;  1.0000000E-01; -2.9628792E-01;3;  2.5047487E-01;  0.0000000E+00; -2.4590842E-04;0;  9.0717059E-04;  4.0001516E+04;  0.0000000E+00;  1.0080852E-01;  4.0000000E+04;  0.0000000E+00;  3.9999484E+04;  2.2380406E-03;  0.0000000E+00; -1.3308700E-03;  1.8377058E+02;
  4.0166777E-01;  9.9999998E-03;  9.9990711E-02;4926;  4.4853175E-03;  0.0000000E+00; -1.5320224E-04;  1.0000207E+03;  1.0000000E-01;  1.7184700E+01;3;  2.4740696E-01;  0.0000000E+00;  1.0133362E-03;0;  9.5720438E-04;  4.0003570E+04;  0.0000000E+00;  1.1091472E-01;  4.0000000E+04;  0.0000000E+00;  3.9999078E+04;  2.2657875E-03;  0.0000000E+00; -1.3085831E-03;  2.2009702E+02;
  4.0166849E-01;  9.9999998E-03;  1.0998925E-01;4927;  4.4938829E-03;  0.0000000E+00; -1.6374554E-04;  1.0000376E+03;  1.0000000E-01;  3.1110231E+01;3;  2.4839768E-01;  0.0000000E+00;  1.9674348E-03;0;  1.0179457E-03;  4.0005211E+04;  0.0000000E+00;  1.1524871E-01;  4.0000000E+04;  0.0000000E+00;  3.9998801E+04;  2.3031477E-03;  0.0000000E+00; -1.2852020E-03;  2.5298885E+02;
  4.0166396E-01;  9.9999998E-03;  1.1998621E-01;4928;  4.5073107E-03;  0.0000000E+00; -1.7348038E-04;  1.0000445E+03;  1.0000000E-01;  3.6838463E+01;3;  2.4960877E-01;  0.0000000E+00;  3.7927949E-03;0;  1.0971659E-03;  4.0006168E+04;  0.0000000E+00;  1.1230949E-01;  4.0000000E+04;  0.0000000E+00;  3.9998328E+04;  2.3579537E-03;  0.0000000E+00; -1.2607878E-03;  2.7956769E+02;
  4.0165496E-01;  9.9999998E-03;  1.2998198E-01;4929;  4.5233746E-03;  0.0000000E+00; -1.8302264E-04;  1.0000414E+03;  1.0000000E-01;  3.4369400E+01;3;  2.5139567E-01;  0.0000000E+00;  6.0121766E-03;0;  1.2041423E-03;  4.0005652E+04;  0.0000000E+00;  1.0148165E-01;  4.0000000E+04;  0.0000000E+00;  3.9997984E+04;  2.4397480E-03;  0.0000000E+00; -1.2356057E-03;  2.9528156E+02;
  4.0164441E-01;  9.9999998E-03;  1.3997705E-01;4930;  4.5413221E-03;  0.0000000E+00; -1.9325863E-04;  1.0000151E+03;  1.0000000E-01;  1.2444093E+01;3;  2.5380132E-01;  0.0000000E+00;  7.8303581E-03;0;  1.3495188E-03;  4.0003762E+04;  0.0000000E+00;  8.3598636E-02;  4.0000000E+04;  0.0000000E+00;  3.9997961E+04;  2.5595340E-03;  0.0000000E+00; -1.2100153E-03;  2.9298819E+02;
  4.0163219E-01;  9.9999998E-03;  1.4997230E-01;4931;  4.5587826E-03;  0.0000000E+00; -2.0367268E-04;  9.9997614E+02;  1.0000000E-01; -1.9752527E+01;3;  2.5492656E-01;  0.0000000E+00;  1.0778545E-02;0;  1.5446544E-03;  4.0000133E+04;  0.0000000E+00;  6.1246861E-02;  4.0000000E+04;  0.0000000E+00;  3.9997758E+04;  2.7291081E-03;  0.0000000E+00; -1.1844537E-03;  2.6241730E+02;
  4.0161720E-01;  9.9999998E-03;  1.5996872E-01;4932;  4.5754821E-03;  0.0000000E+00; -2.1429779E-04;  9.9991541E+02;  1.0000000E-01; -7.0072090E+01;3;  2.5649208E-01;  0.0000000E+00;  1.2966769E-02;0;  1.8008300E-03;  3.9994848E+04;  0.0000000E+00;  3.8156223E-02;  4.0000000E+04;  0.0000000E+00;  3.9998242E+04;  2.9603955E-03;  0.0000000E+00; -1.1595655E-03;  1.9077112E+02;
  4.0160114E-01;  9.9999998E-03;  1.6996722E-01;4933;  4.5910915E-03;  0.0000000E+00; -2.2502802E-04;  9.9982812E+02;  1.0000000E-01; -1.4241573E+02;3;  2.5854725E-01;  0.0000000E+00;  1.4849137E-02;0;  2.1276078E-03;  3.9987594E+04;  0.0000000E+00;  1.7897710E-02;  4.0000000E+04;  0.0000000E+00;  3.9999145E+04;  3.2636540E-03;  0.0000000E+00; -1.1360461E-03;  6.4565384E+01;
  4.0158251E-01;  9.9999998E-03;  1.7996821E-01;4934;  4.6057650E-03;  0.0000000E+00; -2.3581710E-04;  9.9972760E+02;  1.0000000E-01; -2.2567262E+02;3;  2.6013032E-01;  0.0000000E+00;  1.6702518E-02;0;  2.5301350E-03;  3.9978047E+04;  0.0000000E+00;  2.8904965E-03;  4.0000000E+04;  0.0000000E+00;  4.0000449E+04;  3.6445325E-03;  0.0000000E+00; -1.1143975E-03;  1.3191357E+02;
  4.0156049E-01;  9.9999998E-03;  1.8997189E-01;4935;  4.6220501E-03;  0.0000000E+00; -2.4616369E-04;  9.9961505E+02;  1.0000000E-01; -3.1890457E+02;3;  2.6215422E-01;  0.0000000E+00;  1.8094210E-02;0;  3.0074280E-03;  3.9966379E+04;  0.0000000E+00; -6.0706725E-03;  4.0000000E+04;  0.0000000E+00;  4.0002531E+04;  4.1021081E-03;  0.0000000E+00; -1.0946800E-03;  3.9214862E+02;
  4.0153581E-01;  9.9999998E-03;  1.9997774E-01;4936;  4.6411371E-03;  0.0000000E+00; -2.5532121E-04;  9.9948425E+02;  1.0000000E-01; -4.2729657E+02;3;  2.6523709E-01;  0.0000000E+00;  1.9441897E-02;0;  3.5524836E-03;  3.9953492E+04;  0.0000000E+00; -9.7992402E-03;  4.0000000E+04;  0.0000000E+00;  4.0004863E+04;  4.6284208E-03;  0.0000000E+00; -1.0759372E-03;  7.0085626E+02;
  4.0151146E-01;  9.9999998E-03;  2.0998478E-01;4937;  4.6659778E-03;  0.0000000E+00; -2.6208450E-04;  9.9933942E+02;  1.0000000E-01; -5.4729315E+02;3;  2.6810190E-01;  0.0000000E+00;  1.9344427E-02;0;  4.1549159E-03;  3.9939355E+04;  0.0000000E+00; -1.0346854E-02;  4.0000000E+04;  0.0000000E+00;  4.0007469E+04;  5.2094273E-03;  0.0000000E+00; -1.0545115E-03;  1.0176608E+03;
  4.0148959E-01;  9.9999998E-03;  2.1999131E-01;4938;  4.7009741E-03;  0.0000000E+00; -2.6516616E-04;  9.9918439E+02;  1.0000000E-01; -6.7573395E+02;3;  2.7270165E-01;  0.0000000E+00;  2.0613551E-02;0;  4.8057344E-03;  3.9924484E+04;  0.0000000E+00; -1.0428535E-02;  4.0000000E+04;  0.0000000E+00;  4.0009477E+04;  5.8268155E-03;  0.0000000E+00; -1.0210813E-03;  1.2985009E+03;
  4.0146890E-01;  9.9999998E-03;  2.2999626E-01;4939;  4.7473256E-03;  0.0000000E+00; -2.7062194E-04;  9.9901508E+02;  1.0000000E-01; -8.1597693E+02;3;  2.8107294E-01;  0.0000000E+00;  2.2373581E-02;0;  5.4831714E-03;  3.9909180E+04;  0.0000000E+00; -1.2722875E-02;  4.0000000E+04;  0.0000000E+00;  4.0011156E+04;  6.4605088E-03;  0.0000000E+00; -9.7733736E-04;  1.5066287E+03;
  4.1163430E-01;  9.9999998E-03;  6.9987759E-02;4984;  4.5449426E-03;  0.0000000E+00; -1.3037854E-04;  9.9991571E+02;  1.0000000E-01; -6.9825188E+01;3;  2.9069319E-01;  0.0000000E+00; -2.7891763E-03;0;  1.0364512E-03;  3.9994781E+04;  0.0000000E+00;  7.3619299E-02;  4.0000000E+04;  0.0000000E+00;  3.9999504E+04;  2.5099204E-03;  0.0000000E+00; -1.4734692E-03;  1.5075710E+02;
  4.1164455E-01;  9.9999998E-03;  7.9989083E-02;4985;  4.5067412E-03;  0.0000000E+00; -1.4241756E-04;  9.9996533E+02;  1.0000000E-01; -2.8739927E+01;3;  2.6997915E-01;  0.0000000E+00; -3.5360485E-04;0;  1.0857877E-03;  3.9998973E+04;  0.0000000E+00;  9.1577239E-02;  4.0000000E+04;  0.0000000E+00;  3.9998918E+04;  2.5336470E-03;  0.0000000E+00; -1.4478593E-03;  1.9845248E+02;
  4.1165006E-01;  9.9999998E-03;  8.9990780E-02;4986;  4.4848393E-03;  0.0000000E+00; -1.5511809E-04;  1.0000139E+03;  1.0000000E-01;  1.1555229E+01;3;  2.5455979E-01;  0.0000000E+00;  1.0813719E-03;0;  1.1291597E-03;  4.0002953E+04;  0.0000000E+00;  1.0864575E-01;  4.0000000E+04;  0.0000000E+00;  3.9998742E+04;  2.5500045E-03;  0.0000000E+00; -1.4208448E-03;  2.4028807E+02;
  4.1165134E-01;  9.9999998E-03;  9.9992290E-02;4987;  4.4801314E-03;  0.0000000E+00; -1.6831486E-04;  1.0000568E+03;  1.0000000E-01;  4.7011017E+01;3;  2.4873027E-01;  0.0000000E+00;  1.7606004E-03;0;  1.1708008E-03;  4.0006230E+04;  0.0000000E+00;  1.2315805E-01;  4.0000000E+04;  0.0000000E+00;  3.9998477E+04;  2.5633341E-03;  0.0000000E+00; -1.3925333E-03;  2.7441632E+02;
  4.1164708E-01;  9.9999998E-03;  1.0999306E-01;4988;  4.4860728E-03;  0.0000000E+00; -1.8063986E-04;  1.0000825E+03;  1.0000000E-01;  6.8343742E+01;3;  2.4743389E-01;  0.0000000E+00;  2.5007033E-03;0;  1.2178103E-03;  4.0008832E+04;  0.0000000E+00;  1.3324980E-01;  4.0000000E+04;  0.0000000E+00;  3.9998625E+04;  2.5810369E-03;  0.0000000E+00; -1.3632266E-03;  2.9914798E+02;
  4.1163844E-01;  9.9999998E-03;  1.1999252E-01;4989;  4.4982899E-03;  0.0000000E+00; -1.9186408E-04;  1.0001029E+03;  1.0000000E-01;  8.5232155E+01;3;  2.4865676E-01;  0.0000000E+00;  3.8227327E-03;0;  1.2798746E-03;  4.0010125E+04;  0.0000000E+00;  1.3707437E-01;  4.0000000E+04;  0.0000000E+00;  3.9998500E+04;  2.6133524E-03;  0.0000000E+00; -1.3334778E-03;  3.1221558E+02;
  4.1162771E-01;  9.9999998E-03;  1.2999068E-01;4990;  4.5139659E-03;  0.0000000E+00; -2.0246154E-04;  1.0000980E+03;  1.0000000E-01;  8.1182892E+01;3;  2.5064170E-01;  0.0000000E+00;  5.3924243E-03;0;  1.3687519E-03;  4.0009965E+04;  0.0000000E+00;  1.3319965E-01;  4.0000000E+04;  0.0000000E+00;  3.9998391E+04;  2.6726497E-03;  0.0000000E+00; -1.3038978E-03;  3.1010498E+02;
  4.1161427E-01;  9.9999998E-03;  1.3998792E-01;4991;  4.5319805E-03;  0.0000000E+00; -2.1301240E-04;  1.0000773E+03;  1.0000000E-01;  6.3998192E+01;3;  2.5240198E-01;  0.0000000E+00;  7.4955826E-03;0;  1.4976545E-03;  4.0007871E+04;  0.0000000E+00;  1.2110655E-01;  4.0000000E+04;  0.0000000E+00;  3.9998273E+04;  2.7726337E-03;  0.0000000E+00; -1.2749792E-03;  2.8754526E+02;
  4.1159877E-01;  9.9999998E-03;  1.4998476E-01;4992;  4.5499303E-03;  0.0000000E+00; -2.2337215E-04;  1.0000335E+03;  1.0000000E-01;  2.7752302E+01;3;  2.5396708E-01;  0.0000000E+00;  9.4670504E-03;0;  1.6803868E-03;  4.0004082E+04;  0.0000000E+00;  1.0167791E-01;  4.0000000E+04;  0.0000000E+00;  3.9998305E+04;  2.9275317E-03;  0.0000000E+00; -1.2471449E-03;  2.3807353E+02;
  4.1158280E-01;  9.9999998E-03;  1.5998188E-01;4993;  4.5670047E-03;  0.0000000E+00; -2.3390019E-04;  9.9996222E+02;  1.0000000E-01; -3.1307756E+01;3;  2.5524718E-01;  0.0000000E+00;  1.1674030E-02;0;  1.9300656E-03;  3.9997824E+04;  0.0000000E+00;  7.6970853E-02;  4.0000000E+04;  0.0000000E+00;  3.9999031E+04;  3.1509602E-03;  0.0000000E+00; -1.2208946E-03;  1.5625507E+02;
  4.1156602E-01;  9.9999998E-03;  1.6997994E-01;4994;  4.5830668E-03;  0.0000000E+00; -2.4438294E-04;  9.9987286E+02;  1.0000000E-01; -1.0533035E+02;3;  2.5778234E-01;  0.0000000E+00;  1.3362677E-02;0;  2.2570980E-03;  3.9989727E+04;  0.0000000E+00;  4.9526539E-02;  4.0000000E+04;  0.0000000E+00;  3.9999930E+04;  3.4538046E-03;  0.0000000E+00; -1.1967067E-03;  7.0073776E+01;
  4.1154870E-01;  9.9999998E-03;  1.7997938E-01;4995;  4.5983880E-03;  0.0000000E+00; -2.5512365E-04;  9.9976605E+02;  1.0000000E-01; -1.9382169E+02;3;  2.5926402E-01;  0.0000000E+00;  1.4814171E-02;0;  2.6666648E-03;  3.9979348E+04;  0.0000000E+00;  2.1793546E-02;  4.0000000E+04;  0.0000000E+00;  4.0001309E+04;  3.8415692E-03;  0.0000000E+00; -1.1749045E-03;  1.9332162E+02;
  4.1153005E-01;  9.9999998E-03;  1.8998025E-01;4996;  4.6145208E-03;  0.0000000E+00; -2.6607752E-04;  9.9963788E+02;  1.0000000E-01; -2.9999152E+02;3;  2.6145455E-01;  0.0000000E+00;  1.6249262E-02;0;  3.1568645E-03;  3.9967461E+04;  0.0000000E+00; -4.3327380E-03;  4.0000000E+04;  0.0000000E+00;  4.0003035E+04;  4.3124682E-03;  0.0000000E+00; -1.1556037E-03;  4.2805820E+02;
  4.1151032E-01;  9.9999998E-03;  1.9998240E-01;4997;  4.6333852E-03;  0.0000000E+00; -2.7645598E-04;  9.9949927E+02;  1.0000000E-01; -4.1485248E+02;3;  2.6486069E-01;  0.0000000E+00;  1.6738571E-02;0;  3.7188493E-03;  3.9953816E+04;  0.0000000E+00; -2.7788987E-02;  4.0000000E+04;  0.0000000E+00;  4.0005117E+04;  4.8571927E-03;  0.0000000E+00; -1.1383436E-03;  7.1515082E+02;
  4.1148984E-01;  9.9999998E-03;  2.0998524E-01;4998;  4.6578348E-03;  0.0000000E+00; -2.8434477E-04;  9.9934894E+02;  1.0000000E-01; -5.3939215E+02;3;  2.6791137E-01;  0.0000000E+00;  1.7456606E-02;0;  4.3401294E-03;  3.9939211E+04;  0.0000000E+00; -4.8297085E-02;  4.0000000E+04;  0.0000000E+00;  4.0007520E+04;  5.4601347E-03;  0.0000000E+00; -1.1200053E-03;  1.0324069E+03;
  4.1147023E-01;  9.9999998E-03;  2.1998838E-01;4999;  4.6928334E-03;  0.0000000E+00; -2.8660844E-04;  9.9919061E+02;  1.0000000E-01; -6.7054895E+02;3;  2.7337220E-01;  0.0000000E+00;  1.8582338E-02;0;  5.0133052E-03;  3.9923988E+04;  0.0000000E+00; -6.6213191E-02;  4.0000000E+04;  0.0000000E+00;  4.0010051E+04;  6.1016981E-03;  0.0000000E+00; -1.0883930E-03;  1.3483817E+03;
  4.1145205E-01;  9.9999998E-03;  2.2999330E-01;5000;  4.7404561E-03;  0.0000000E+00; -2.9008658E-04;  9.9901788E+02;  1.0000000E-01; -8.1365601E+02;3;  2.8247732E-01;  0.0000000E+00;  2.0632314E-02;0;  5.7190740E-03;  3.9908461E+04;  0.0000000E+00; -8.2060665E-02;  4.0000000E+04;  0.0000000E+00;  4.0011695E+04;  6.7609707E-03;  0.0000000E+00; -1.0418964E-03;  1.5680186E+03;
  4.2163503E-01;  9.9999998E-03;  6.9989607E-02;5045;  4.5495355E-03;  0.0000000E+00; -1.3241143E-04;  9.9991193E+02;  1.0000000E-01; -7.2985588E+01;3;  2.9929861E-01;  0.0000000E+00;  1.5121902E-03;0;  1.3928885E-03;  3.9994543E+04;  0.0000000E+00;  7.3581785E-02;  4.0000000E+04;  0.0000000E+00;  3.9998652E+04;  2.9719686E-03;  0.0000000E+00; -1.5790801E-03;  2.0546941E+02;
  4.2163906E-01;  9.9999998E-03;  7.9991624E-02;5046;  4.5114076E-03;  0.0000000E+00; -1.4841733E-04;  9.9997797E+02;  1.0000000E-01; -1.8271088E+01;3;  2.7937746E-01;  0.0000000E+00;  3.3374990E-03;0;  1.4427964E-03;  4.0000227E+04;  0.0000000E+00;  9.2254892E-02;  4.0000000E+04;  0.0000000E+00;  3.9998410E+04;  2.9924917E-03;  0.0000000E+00; -1.5496953E-03;  2.5957507E+02;
  4.2163926E-01;  9.9999998E-03;  8.9994133E-02;5047;  4.4864961E-03;  0.0000000E+00; -1.6448103E-04;  1.0000437E+03;  1.0000000E-01;  3.6245888E+01;3;  2.6124352E-01;  0.0000000E+00;  4.3726019E-03;0;  1.4802358E-03;  4.0005645E+04;  0.0000000E+00;  1.1060487E-01;  4.0000000E+04;  0.0000000E+00;  3.9998203E+04;  2.9979381E-03;  0.0000000E+00; -1.5177022E-03;  3.0103091E+02;
  4.2163384E-01;  9.9999998E-03;  9.9996798E-02;5048;  4.4786348E-03;  0.0000000E+00; -1.8052178E-04;  1.0001024E+03;  1.0000000E-01;  8.4837105E+01;3;  2.5161883E-01;  0.0000000E+00;  4.2441711E-03;0;  1.5091874E-03;  4.0010082E+04;  0.0000000E+00;  1.2710740E-01;  4.0000000E+04;  0.0000000E+00;  3.9998059E+04;  2.9928463E-03;  0.0000000E+00; -1.4836589E-03;  3.2881888E+02;
  4.2162398E-01;  9.9999998E-03;  1.0999912E-01;5049;  4.4819391E-03;  0.0000000E+00; -1.9517045E-04;  1.0001463E+03;  1.0000000E-01;  1.2118176E+02;3;  2.4885219E-01;  0.0000000E+00;  4.2467788E-03;0;  1.5379493E-03;  4.0013504E+04;  0.0000000E+00;  1.3994856E-01;  4.0000000E+04;  0.0000000E+00;  3.9998023E+04;  2.9863522E-03;  0.0000000E+00; -1.4484029E-03;  3.4266772E+02;
  4.2161182E-01;  9.9999998E-03;  1.2000062E-01;5050;  4.4921730E-03;  0.0000000E+00; -2.0822416E-04;  1.0001707E+03;  1.0000000E-01;  1.4142810E+02;3;  2.4888535E-01;  0.0000000E+00;  4.8491829E-03;0;  1.5784664E-03;  4.0015539E+04;  0.0000000E+00;  1.4713611E-01;  4.0000000E+04;  0.0000000E+00;  3.9998309E+04;  2.9913869E-03;  0.0000000E+00; -1.4129205E-03;  3.4185568E+02;
  4.2159748E-01;  9.9999998E-03;  1.3000101E-01;5051;  4.5066699E-03;  0.0000000E+00; -2.2017548E-04;  1.0001723E+03;  1.0000000E-01;  1.4271201E+02;3;  2.4999000E-01;  0.0000000E+00;  6.1164550E-03;0;  1.6454735E-03;  4.0015258E+04;  0.0000000E+00;  1.4676791E-01;  4.0000000E+04;  0.0000000E+00;  3.9998617E+04;  3.0235867E-03;  0.0000000E+00; -1.3781132E-03;  3.2410159E+02;
  4.2158175E-01;  9.9999998E-03;  1.4000039E-01;5052;  4.5237211E-03;  0.0000000E+00; -2.3125600E-04;  1.0001515E+03;  1.0000000E-01;  1.2552731E+02;3;  2.5177777E-01;  0.0000000E+00;  7.7175945E-03;0;  1.7555044E-03;  4.0013121E+04;  0.0000000E+00;  1.3745551E-01;  4.0000000E+04;  0.0000000E+00;  3.9998523E+04;  3.1001624E-03;  0.0000000E+00; -1.3446580E-03;  2.8579623E+02;
  4.2156583E-01;  9.9999998E-03;  1.4999907E-01;5053;  4.5415596E-03;  0.0000000E+00; -2.4178212E-04;  1.0001028E+03;  1.0000000E-01;  8.5133392E+01;3;  2.5339729E-01;  0.0000000E+00;  9.1956835E-03;0;  1.9255147E-03;  4.0008996E+04;  0.0000000E+00;  1.1884844E-01;  4.0000000E+04;  0.0000000E+00;  3.9999227E+04;  3.2385476E-03;  0.0000000E+00; -1.3130329E-03;  2.2319336E+02;
  4.2154971E-01;  9.9999998E-03;  1.5999749E-01;5054;  4.5585469E-03;  0.0000000E+00; -2.5225326E-04;  1.0000273E+03;  1.0000000E-01;  2.2616644E+01;3;  2.5470406E-01;  0.0000000E+00;  1.0730952E-02;0;  2.1708691E-03;  4.0002113E+04;  0.0000000E+00;  9.1776758E-02;  4.0000000E+04;  0.0000000E+00;  3.9999738E+04;  3.4545711E-03;  0.0000000E+00; -1.2837020E-03;  1.4067427E+02;
  4.2153329E-01;  9.9999998E-03;  1.6999619E-01;5055;  4.5747245E-03;  0.0000000E+00; -2.6265279E-04;  9.9993176E+02;  1.0000000E-01; -5.6541611E+01;3;  2.5732589E-01;  0.0000000E+00;  1.2159502E-02;0;  2.5030675E-03;  3.9993281E+04;  0.0000000E+00;  5.8120433E-02;  4.0000000E+04;  0.0000000E+00;  4.0000703E+04;  3.7601490E-03;  0.0000000E+00; -1.2570815E-03;  1.1145046E+02;
  4.2151678E-01;  9.9999998E-03;  1.7999528E-01;5056;  4.5904885E-03;  0.0000000E+00; -2.7336457E-04;  9.9981097E+02;  1.0000000E-01; -1.5658817E+02;3;  2.5879988E-01;  0.0000000E+00;  1.3389109E-02;0;  2.9273275E-03;  3.9982367E+04;  0.0000000E+00;  2.0489816E-02;  4.0000000E+04;  0.0000000E+00;  4.0002020E+04;  4.1607548E-03;  0.0000000E+00; -1.2334272E-03;  2.4555582E+02;
  4.2150036E-01;  9.9999998E-03;  1.8999471E-01;5057;  4.6070605E-03;  0.0000000E+00; -2.8464233E-04;  9.9967365E+02;  1.0000000E-01; -2.7036273E+02;3;  2.6128161E-01;  0.0000000E+00;  1.4307206E-02;0;  3.4409808E-03;  3.9969273E+04;  0.0000000E+00; -1.8265137E-02;  4.0000000E+04;  0.0000000E+00;  4.0003488E+04;  4.6538394E-03;  0.0000000E+00; -1.2128587E-03;  4.5330713E+02;
  4.2148399E-01;  9.9999998E-03;  1.9999388E-01;5058;  4.6261675E-03;  0.0000000E+00; -2.9631343E-04;  9.9952271E+02;  1.0000000E-01; -3.9544562E+02;3;  2.6482624E-01;  0.0000000E+00;  1.4813819E-02;0;  4.0332433E-03;  3.9955113E+04;  0.0000000E+00; -5.5581845E-02;  4.0000000E+04;  0.0000000E+00;  4.0005023E+04;  5.2287471E-03;  0.0000000E+00; -1.1955040E-03;  7.0446448E+02;
  4.2146829E-01;  9.9999998E-03;  2.0999217E-01;5059;  4.6508918E-03;  0.0000000E+00; -3.0660740E-04;  9.9936200E+02;  1.0000000E-01; -5.2857764E+02;3;  2.6832375E-01;  0.0000000E+00;  1.5273987E-02;0;  4.6884464E-03;  3.9939766E+04;  0.0000000E+00; -8.9502133E-02;  4.0000000E+04;  0.0000000E+00;  4.0007430E+04;  5.8683073E-03;  0.0000000E+00; -1.1798608E-03;  9.9909955E+02;
  4.2145473E-01;  9.9999998E-03;  2.1999013E-01;5060;  4.6860599E-03;  0.0000000E+00; -3.1058540E-04;  9.9919434E+02;  1.0000000E-01; -6.6748730E+02;3;  2.7415752E-01;  0.0000000E+00;  1.5919235E-02;0;  5.3978926E-03;  3.9923949E+04;  0.0000000E+00; -1.1881051E-01;  4.0000000E+04;  0.0000000E+00;  4.0009688E+04;  6.5514930E-03;  0.0000000E+00; -1.1536003E-03;  1.3389231E+03;
  4.2144501E-01;  9.9999998E-03;  2.2999267E-01;5061;  4.7339401E-03;  0.0000000E+00; -3.1302797E-04;  9.9902203E+02;  1.0000000E-01; -8.1024872E+02;3;  2.8365493E-01;  0.0000000E+00;  1.8192567E-02;0;  6.1477916E-03;  3.9908203E+04;  0.0000000E+00; -1.4284994E-01;  4.0000000E+04;  0.0000000E+00;  4.0011918E+04;  7.2564925E-03;  0.0000000E+00; -1.1087009E-03;  1.5893842E+03;
  4.3164358E-01;  9.9999998E-03;  6.9993749E-02;5106;  4.5551653E-03;  0.0000000E+00; -1.3213555E-04;  9.9992065E+02;  1.0000000E-01; -6.5726540E+01;3;  3.0846256E-01;  0.0000000E+00;  6.4894394E-03;0;  1.9332983E-03;  3.9995797E+04;  0.0000000E+00;  7.0377260E-02;  4.0000000E+04;  0.0000000E+00;  3.9997898E+04;  3.6224436E-03;  0.0000000E+00; -1.6891453E-03;  2.5904211E+02;
  4.3164089E-01;  9.9999998E-03;  7.9996444E-02;5107;  4.5212605E-03;  0.0000000E+00; -1.5145233E-04;  1.0000071E+03;  1.0000000E-01;  5.8269958E+00;3;  2.8902426E-01;  0.0000000E+00;  6.9429572E-03;0;  1.9757221E-03;  4.0002977E+04;  0.0000000E+00;  8.8358842E-02;  4.0000000E+04;  0.0000000E+00;  3.9997562E+04;  3.6324533E-03;  0.0000000E+00; -1.6567310E-03;  3.1625699E+02;
  4.3163419E-01;  9.9999998E-03;  8.9999691E-02;5108;  4.4958103E-03;  0.0000000E+00; -1.7064023E-04;  1.0000850E+03;  1.0000000E-01;  7.0417763E+01;3;  2.7214542E-01;  0.0000000E+00;  7.5403862E-03;0;  1.9991642E-03;  4.0009242E+04;  0.0000000E+00;  1.0607240E-01;  4.0000000E+04;  0.0000000E+00;  3.9997492E+04;  3.6195859E-03;  0.0000000E+00; -1.6204217E-03;  3.5530374E+02;
  4.3162408E-01;  9.9999998E-03;  1.0000312E-01;5109;  4.4842516E-03;  0.0000000E+00; -1.8938283E-04;  1.0001532E+03;  1.0000000E-01;  1.2690999E+02;3;  2.5803950E-01;  0.0000000E+00;  7.3840432E-03;0;  2.0077289E-03;  4.0014715E+04;  0.0000000E+00;  1.2209123E-01;  4.0000000E+04;  0.0000000E+00;  3.9997469E+04;  3.5889277E-03;  0.0000000E+00; -1.5811987E-03;  3.7551984E+02;
  4.3161055E-01;  9.9999998E-03;  1.1000638E-01;5110;  4.4846144E-03;  0.0000000E+00; -2.0658069E-04;  1.0002054E+03;  1.0000000E-01;  1.7016803E+02;3;  2.5221077E-01;  0.0000000E+00;  7.2119255E-03;0;  2.0108880E-03;  4.0018598E+04;  0.0000000E+00;  1.3470301E-01;  4.0000000E+04;  0.0000000E+00;  3.9997609E+04;  3.5512222E-03;  0.0000000E+00; -1.5403341E-03;  3.7759479E+02;
  4.3159401E-01;  9.9999998E-03;  1.2000901E-01;5111;  4.4922293E-03;  0.0000000E+00; -2.2169801E-04;  1.0002398E+03;  1.0000000E-01;  1.9871043E+02;3;  2.5126752E-01;  0.0000000E+00;  6.7884289E-03;0;  2.0230394E-03;  4.0020645E+04;  0.0000000E+00;  1.4195347E-01;  4.0000000E+04;  0.0000000E+00;  3.9997637E+04;  3.5221991E-03;  0.0000000E+00; -1.4991597E-03;  3.6221497E+02;
  4.3157628E-01;  9.9999998E-03;  1.3001078E-01;5112;  4.5045237E-03;  0.0000000E+00; -2.3523800E-04;  1.0002419E+03;  1.0000000E-01;  2.0048816E+02;3;  2.5101471E-01;  0.0000000E+00;  7.1764523E-03;0;  2.0623845E-03;  4.0020574E+04;  0.0000000E+00;  1.4184609E-01;  4.0000000E+04;  0.0000000E+00;  3.9998281E+04;  3.5212084E-03;  0.0000000E+00; -1.4588239E-03;  3.2888959E+02;
  4.3155879E-01;  9.9999998E-03;  1.4001174E-01;5113;  4.5196037E-03;  0.0000000E+00; -2.4733072E-04;  1.0002199E+03;  1.0000000E-01;  1.8221707E+02;3;  2.5210810E-01;  0.0000000E+00;  8.2320562E-03;0;  2.1492166E-03;  4.0018293E+04;  0.0000000E+00;  1.3263616E-01;  4.0000000E+04;  0.0000000E+00;  3.9998867E+04;  3.5693746E-03;  0.0000000E+00; -1.4201580E-03;  2.7557858E+02;
  4.3154216E-01;  9.9999998E-03;  1.5001196E-01;5114;  4.5362115E-03;  0.0000000E+00; -2.5829562E-04;  1.0001729E+03;  1.0000000E-01;  1.4320583E+02;3;  2.5357249E-01;  0.0000000E+00;  9.5571764E-03;0;  2.3039607E-03;  4.0013660E+04;  0.0000000E+00;  1.1331142E-01;  4.0000000E+04;  0.0000000E+00;  3.9999312E+04;  3.6876693E-03;  0.0000000E+00; -1.3837086E-03;  2.0101485E+02;
  4.3152696E-01;  9.9999998E-03;  1.6001168E-01;5115;  4.5527453E-03;  0.0000000E+00; -2.6881250E-04;  1.0000970E+03;  1.0000000E-01;  8.0392792E+01;3;  2.5482327E-01;  0.0000000E+00;  1.0119571E-02;0;  2.5446264E-03;  4.0006746E+04;  0.0000000E+00;  8.3962962E-02;  4.0000000E+04;  0.0000000E+00;  4.0000168E+04;  3.8946064E-03;  0.0000000E+00; -1.3499800E-03;  1.2033534E+02;
  4.3151289E-01;  9.9999998E-03;  1.7001119E-01;5116;  4.5688641E-03;  0.0000000E+00; -2.7927256E-04;  9.9999310E+02;  1.0000000E-01; -5.7282329E+00;3;  2.5696573E-01;  0.0000000E+00;  1.1062897E-02;0;  2.8839039E-03;  3.9997273E+04;  0.0000000E+00;  4.6124328E-02;  4.0000000E+04;  0.0000000E+00;  4.0000992E+04;  4.2033228E-03;  0.0000000E+00; -1.3194189E-03;  1.3800136E+02;
  4.3149993E-01;  9.9999998E-03;  1.8001044E-01;5117;  4.5853513E-03;  0.0000000E+00; -2.9006376E-04;  9.9986700E+02;  1.0000000E-01; -1.1016972E+02;3;  2.5924420E-01;  0.0000000E+00;  1.2235101E-02;0;  3.3270177E-03;  3.9985895E+04;  0.0000000E+00;  2.5865568E-03;  4.0000000E+04;  0.0000000E+00;  4.0002406E+04;  4.6192934E-03;  0.0000000E+00; -1.2922758E-03;  2.8228531E+02;
  4.3148801E-01;  9.9999998E-03;  1.9000892E-01;5118;  4.6029920E-03;  0.0000000E+00; -3.0184336E-04;  9.9971350E+02;  1.0000000E-01; -2.3737601E+02;3;  2.6213589E-01;  0.0000000E+00;  1.2597431E-02;0;  3.8704243E-03;  3.9972309E+04;  0.0000000E+00; -4.3152764E-02;  4.0000000E+04;  0.0000000E+00;  4.0003863E+04;  5.1391670E-03;  0.0000000E+00; -1.2687426E-03;  4.7099966E+02;
  4.3147689E-01;  9.9999998E-03;  2.0000593E-01;5119;  4.6239295E-03;  0.0000000E+00; -3.1438668E-04;  9.9954828E+02;  1.0000000E-01; -3.7426102E+02;3;  2.6555914E-01;  0.0000000E+00;  1.3222721E-02;0;  4.5017870E-03;  3.9957562E+04;  0.0000000E+00; -8.7618098E-02;  4.0000000E+04;  0.0000000E+00;  4.0005012E+04;  5.7509365E-03;  0.0000000E+00; -1.2491492E-03;  6.8907422E+02;
  4.3146762E-01;  9.9999998E-03;  2.1000060E-01;5120;  4.6504564E-03;  0.0000000E+00; -3.2705214E-04;  9.9937970E+02;  1.0000000E-01; -5.1391138E+02;3;  2.6975721E-01;  0.0000000E+00;  1.3462245E-02;0;  5.2021313E-03;  3.9941520E+04;  0.0000000E+00; -1.2791564E-01;  4.0000000E+04;  0.0000000E+00;  4.0006984E+04;  6.4359028E-03;  0.0000000E+00; -1.2337713E-03;  9.5500781E+02;
  4.3146142E-01;  9.9999998E-03;  2.1999444E-01;5121;  4.6867151E-03;  0.0000000E+00; -3.3320065E-04;  9.9920825E+02;  1.0000000E-01; -6.5593207E+02;3;  2.7568492E-01;  0.0000000E+00;  1.3968306E-02;0;  5.9609613E-03;  3.9925426E+04;  0.0000000E+00; -1.6204216E-01;  4.0000000E+04;  0.0000000E+00;  4.0009492E+04;  7.1716290E-03;  0.0000000E+00; -1.2106678E-03;  1.2938562E+03;
  4.3145913E-01;  9.9999998E-03;  2.2999422E-01;5122;  4.7360552E-03;  0.0000000E+00; -3.3664767E-04;  9.9903485E+02;  1.0000000E-01; -7.9963171E+02;3;  2.8549770E-01;  0.0000000E+00;  1.5956698E-02;0;  6.7650750E-03;  3.9909074E+04;  0.0000000E+00; -1.8881509E-01;  4.0000000E+04;  0.0000000E+00;  4.0011355E+04;  7.9351580E-03;  0.0000000E+00; -1.1700832E-03;  1.5624561E+03;
  4.4164869E-01;  9.9999998E-03;  6.9998361E-02;5167;  4.5654252E-03;  0.0000000E+00; -1.3028028E-04;  9.9995422E+02;  1.0000000E-01; -3.7924854E+01;3;  3.1672826E-01;  0.0000000E+00;  1.1572330E-02;0;  2.6861131E-03;  3.9998641E+04;  0.0000000E+00;  6.3795134E-02;  4.0000000E+04;  0.0000000E+00;  3.9997488E+04;  4.4891271E-03;  0.0000000E+00; -1.8030141E-03;  2.9742834E+02;
  4.4164172E-01;  9.9999998E-03;  8.0001764E-02;5168;  4.5397906E-03;  0.0000000E+00; -1.5188649E-04;  1.0000430E+03;  1.0000000E-01;  3.5653313E+01;3;  3.0151293E-01;  0.0000000E+00;  1.1924622E-02;0;  2.7101208E-03;  4.0006035E+04;  0.0000000E+00;  7.9557903E-02;  4.0000000E+04;  0.0000000E+00;  3.9997051E+04;  4.4782641E-03;  0.0000000E+00; -1.7681435E-03;  3.5519226E+02;
  4.4163132E-01;  9.9999998E-03;  9.0005822E-02;5169;  4.5167427E-03;  0.0000000E+00; -1.7332337E-04;  1.0001241E+03;  1.0000000E-01;  1.0281190E+02;3;  2.8586179E-01;  0.0000000E+00;  1.1711477E-02;0;  2.7089284E-03;  4.0012750E+04;  0.0000000E+00;  9.4718851E-02;  4.0000000E+04;  0.0000000E+00;  3.9996832E+04;  4.4371011E-03;  0.0000000E+00; -1.7281726E-03;  3.9145596E+02;
  4.4161782E-01;  9.9999998E-03;  1.0000997E-01;5170;  4.5016799E-03;  0.0000000E+00; -1.9434938E-04;  1.0001987E+03;  1.0000000E-01;  1.6463731E+02;3;  2.7088240E-01;  0.0000000E+00;  1.1654964E-02;0;  2.6870165E-03;  4.0018547E+04;  0.0000000E+00;  1.0795937E-01;  4.0000000E+04;  0.0000000E+00;  3.9997152E+04;  4.3714303E-03;  0.0000000E+00; -1.6844136E-03;  4.0533798E+02;
  4.4160175E-01;  9.9999998E-03;  1.1001357E-01;5171;  4.4970317E-03;  0.0000000E+00; -2.1385365E-04;  1.0002562E+03;  1.0000000E-01;  2.1224091E+02;3;  2.5945392E-01;  0.0000000E+00;  1.0480520E-02;0;  2.6553678E-03;  4.0022734E+04;  0.0000000E+00;  1.1776385E-01;  4.0000000E+04;  0.0000000E+00;  3.9997254E+04;  4.2938767E-03;  0.0000000E+00; -1.6385090E-03;  3.9789682E+02;
  4.4158402E-01;  9.9999998E-03;  1.2001648E-01;5172;  4.5009670E-03;  0.0000000E+00; -2.3139972E-04;  1.0002899E+03;  1.0000000E-01;  2.4009198E+02;3;  2.5509360E-01;  0.0000000E+00;  9.6947970E-03;0;  2.6310086E-03;  4.0024887E+04;  0.0000000E+00;  1.2245144E-01;  4.0000000E+04;  0.0000000E+00;  3.9997457E+04;  4.2230752E-03;  0.0000000E+00; -1.5920667E-03;  3.7058926E+02;
  4.4156498E-01;  9.9999998E-03;  1.3001877E-01;5173;  4.5103030E-03;  0.0000000E+00; -2.4662164E-04;  1.0002966E+03;  1.0000000E-01;  2.4572145E+02;3;  2.5400355E-01;  0.0000000E+00;  9.4058989E-03;0;  2.6355276E-03;  4.0025211E+04;  0.0000000E+00;  1.2025895E-01;  4.0000000E+04;  0.0000000E+00;  3.9998090E+04;  4.1819080E-03;  0.0000000E+00; -1.5463803E-03;  3.2394922E+02;
  4.4154686E-01;  9.9999998E-03;  1.4002049E-01;5174;  4.5226025E-03;  0.0000000E+00; -2.6018126E-04;  1.0002768E+03;  1.0000000E-01;  2.2932684E+02;3;  2.5357988E-01;  0.0000000E+00;  9.2103956E-03;0;  2.6931018E-03;  4.0022766E+04;  0.0000000E+00;  1.0955479E-01;  4.0000000E+04;  0.0000000E+00;  3.9998391E+04;  4.1954406E-03;  0.0000000E+00; -1.5023387E-03;  2.5704321E+02;
  4.4153038E-01;  9.9999998E-03;  1.5002155E-01;5175;  4.5367107E-03;  0.0000000E+00; -2.7225303E-04;  1.0002328E+03;  1.0000000E-01;  1.9288344E+02;3;  2.5452378E-01;  0.0000000E+00;  9.7377617E-03;0;  2.8277175E-03;  4.0017984E+04;  0.0000000E+00;  8.9178815E-02;  4.0000000E+04;  0.0000000E+00;  3.9999359E+04;  4.2882450E-03;  0.0000000E+00; -1.4605275E-03;  1.6944197E+02;
  4.4151643E-01;  9.9999998E-03;  1.6002195E-01;5176;  4.5520770E-03;  0.0000000E+00; -2.8324180E-04;  1.0001498E+03;  1.0000000E-01;  1.2414464E+02;3;  2.5640371E-01;  0.0000000E+00;  1.0560368E-02;0;  3.0599972E-03;  4.0010688E+04;  0.0000000E+00;  5.8914497E-02;  4.0000000E+04;  0.0000000E+00;  4.0000332E+04;  4.4814721E-03;  0.0000000E+00; -1.4214750E-03;  8.4550980E+01;
  4.4150519E-01;  9.9999998E-03;  1.7002185E-01;5177;  4.5681996E-03;  0.0000000E+00; -2.9403085E-04;  1.0000422E+03;  1.0000000E-01;  3.4961975E+01;3;  2.5797263E-01;  0.0000000E+00;  1.0757006E-02;0;  3.4039170E-03;  4.0000945E+04;  0.0000000E+00;  2.0076029E-02;  4.0000000E+04;  0.0000000E+00;  4.0001012E+04;  4.7895955E-03;  0.0000000E+00; -1.3856787E-03;  1.4581032E+02;
  4.4149667E-01;  9.9999998E-03;  1.8002108E-01;5178;  4.5856452E-03;  0.0000000E+00; -3.0506970E-04;  9.9991296E+02;  1.0000000E-01; -7.2096725E+01;3;  2.6040751E-01;  0.0000000E+00;  1.1338504E-02;0;  3.8647314E-03;  3.9989238E+04;  0.0000000E+00; -2.4531074E-02;  4.0000000E+04;  0.0000000E+00;  4.0002074E+04;  5.2181478E-03;  0.0000000E+00; -1.3534164E-03;  3.0119653E+02;
  4.4149074E-01;  9.9999998E-03;  1.9001903E-01;5179;  4.6054306E-03;  0.0000000E+00; -3.1693268E-04;  9.9975482E+02;  1.0000000E-01; -2.0310536E+02;3;  2.6332745E-01;  0.0000000E+00;  1.1276601E-02;0;  4.4381851E-03;  3.9975430E+04;  0.0000000E+00; -7.1231782E-02;  4.0000000E+04;  0.0000000E+00;  4.0003723E+04;  5.7630069E-03;  0.0000000E+00; -1.3248215E-03;  4.7905347E+02;
  4.4148687E-01;  9.9999998E-03;  2.0001480E-01;5180;  4.6290513E-03;  0.0000000E+00; -3.3061323E-04;  9.9958734E+02;  1.0000000E-01; -3.4186688E+02;3;  2.6722261E-01;  0.0000000E+00;  1.1401772E-02;0;  5.1102708E-03;  3.9960039E+04;  0.0000000E+00; -1.1628633E-01;  4.0000000E+04;  0.0000000E+00;  4.0005051E+04;  6.4109815E-03;  0.0000000E+00; -1.3007108E-03;  6.7413135E+02;
  4.4148481E-01;  9.9999998E-03;  2.1000744E-01;5181;  4.6589356E-03;  0.0000000E+00; -3.4523435E-04;  9.9940607E+02;  1.0000000E-01; -4.9208484E+02;3;  2.7288082E-01;  0.0000000E+00;  1.1740842E-02;0;  5.8596293E-03;  3.9944098E+04;  0.0000000E+00; -1.5654135E-01;  4.0000000E+04;  0.0000000E+00;  4.0006844E+04;  7.1419156E-03;  0.0000000E+00; -1.2822862E-03;  9.1423938E+02;
  4.4148493E-01;  9.9999998E-03;  2.1999958E-01;5182;  4.6998616E-03;  0.0000000E+00; -3.5437854E-04;  9.9923242E+02;  1.0000000E-01; -6.3593262E+02;3;  2.8079981E-01;  0.0000000E+00;  1.2605310E-02;0;  6.6718459E-03;  3.9927805E+04;  0.0000000E+00; -1.8977341E-01;  4.0000000E+04;  0.0000000E+00;  4.0009297E+04;  7.9319701E-03;  0.0000000E+00; -1.2601243E-03;  1.2250966E+03;
  4.4148707E-01;  9.9999998E-03;  2.2999734E-01;5183;  4.7531989E-03;  0.0000000E+00; -3.6204050E-04;  9.9905127E+02;  1.0000000E-01; -7.8600244E+02;3;  2.9010504E-01;  0.0000000E+00;  1.4339070E-02;0;  7.5270031E-03;  3.9911406E+04;  0.0000000E+00; -2.1453796E-01;  4.0000000E+04;  0.0000000E+00;  4.0010809E+04;  8.7566338E-03;  0.0000000E+00; -1.2296310E-03;  1.4876754E+03;
  4.5164099E-01;  9.9999998E-03;  7.0001945E-02;5228;  4.5820842E-03;  0.0000000E+00; -1.2793692E-04;  9.9999176E+02;  1.0000000E-01; -6.8146219E+00;3;  3.2365540E-01;  0.0000000E+00;  1.5327857E-02;0;  3.6553005E-03;  4.0001613E+04;  0.0000000E+00;  5.3563848E-02;  4.0000000E+04;  0.0000000E+00;  3.9997777E+04;  5.5758967E-03;  0.0000000E+00; -1.9205963E-03;  3.0876788E+02;
  4.5162934E-01;  9.9999998E-03;  8.0005720E-02;5229;  4.5679351E-03;  0.0000000E+00; -1.5063200E-04;  1.0000767E+03;  1.0000000E-01;  6.3603138E+01;3;  3.1504408E-01;  0.0000000E+00;  1.6581640E-02;0;  3.6485395E-03;  4.0008648E+04;  0.0000000E+00;  6.5659896E-02;  4.0000000E+04;  0.0000000E+00;  3.9997129E+04;  5.5320850E-03;  0.0000000E+00; -1.8835453E-03;  3.6481042E+02;
  4.5161575E-01;  9.9999998E-03;  9.0010084E-02;5230;  4.5539453E-03;  0.0000000E+00; -1.7324901E-04;  1.0001582E+03;  1.0000000E-01;  1.3105803E+02;3;  3.0465227E-01;  0.0000000E+00;  1.5800409E-02;0;  3.6109237E-03;  4.0015531E+04;  0.0000000E+00;  7.6588862E-02;  4.0000000E+04;  0.0000000E+00;  3.9997094E+04;  5.4513025E-03;  0.0000000E+00; -1.8403789E-03;  3.9892477E+02;
  4.5160028E-01;  9.9999998E-03;  1.0001443E-01;5231;  4.5403866E-03;  0.0000000E+00; -1.9556690E-04;  1.0002307E+03;  1.0000000E-01;  1.9110571E+02;3;  2.9223722E-01;  0.0000000E+00;  1.5921911E-02;0;  3.5478559E-03;  4.0020965E+04;  0.0000000E+00;  8.5257046E-02;  4.0000000E+04;  0.0000000E+00;  3.9997070E+04;  5.3405394E-03;  0.0000000E+00; -1.7926835E-03;  4.0991891E+02;
  4.5158353E-01;  9.9999998E-03;  1.1001825E-01;5232;  4.5296275E-03;  0.0000000E+00; -2.1659832E-04;  1.0002867E+03;  1.0000000E-01;  2.3752414E+02;3;  2.8039908E-01;  0.0000000E+00;  1.4839398E-02;0;  3.4720670E-03;  4.0025125E+04;  0.0000000E+00;  9.0491556E-02;  4.0000000E+04;  0.0000000E+00;  3.9997141E+04;  5.2144527E-03;  0.0000000E+00; -1.7423859E-03;  3.9849414E+02;
  4.5156649E-01;  9.9999998E-03;  1.2002135E-01;5233;  4.5244372E-03;  0.0000000E+00; -2.3617281E-04;  1.0003210E+03;  1.0000000E-01;  2.6596777E+02;3;  2.6847196E-01;  0.0000000E+00;  1.3763051E-02;0;  3.4031584E-03;  4.0027754E+04;  0.0000000E+00;  9.1088764E-02;  4.0000000E+04;  0.0000000E+00;  3.9997621E+04;  5.0944528E-03;  0.0000000E+00; -1.6912943E-03;  3.6614905E+02;
  4.5154995E-01;  9.9999998E-03;  1.3002355E-01;5234;  4.5265877E-03;  0.0000000E+00; -2.5386878E-04;  1.0003295E+03;  1.0000000E-01;  2.7297992E+02;3;  2.6065132E-01;  0.0000000E+00;  1.2216548E-02;0;  3.3658892E-03;  4.0027820E+04;  0.0000000E+00;  8.5806355E-02;  4.0000000E+04;  0.0000000E+00;  3.9998055E+04;  5.0066588E-03;  0.0000000E+00; -1.6407697E-03;  3.1351602E+02;
  4.5153424E-01;  9.9999998E-03;  1.4002511E-01;5235;  4.5340583E-03;  0.0000000E+00; -2.6901934E-04;  1.0003113E+03;  1.0000000E-01;  2.5786926E+02;3;  2.5825104E-01;  0.0000000E+00;  1.2235370E-02;0;  3.3876854E-03;  4.0025531E+04;  0.0000000E+00;  7.3447950E-02;  4.0000000E+04;  0.0000000E+00;  3.9998738E+04;  4.9793194E-03;  0.0000000E+00; -1.5916339E-03;  2.3969667E+02;
  4.5152083E-01;  9.9999998E-03;  1.5002614E-01;5236;  4.5449310E-03;  0.0000000E+00; -2.8253064E-04;  1.0002645E+03;  1.0000000E-01;  2.1915430E+02;3;  2.5705338E-01;  0.0000000E+00;  1.1112781E-02;0;  3.4957670E-03;  4.0020789E+04;  0.0000000E+00;  5.3067595E-02;  4.0000000E+04;  0.0000000E+00;  3.9999230E+04;  5.0401445E-03;  0.0000000E+00; -1.5443775E-03;  1.4249995E+02;
  4.5151079E-01;  9.9999998E-03;  1.6002664E-01;5237;  4.5582210E-03;  0.0000000E+00; -2.9519032E-04;  1.0001863E+03;  1.0000000E-01;  1.5436600E+02;3;  2.5799081E-01;  0.0000000E+00;  1.0545838E-02;0;  3.7131300E-03;  4.0013633E+04;  0.0000000E+00;  2.4405293E-02;  4.0000000E+04;  0.0000000E+00;  4.0000266E+04;  5.2126027E-03;  0.0000000E+00; -1.4994725E-03;  3.5732117E+01;
  4.5150438E-01;  9.9999998E-03;  1.7002650E-01;5238;  4.5740693E-03;  0.0000000E+00; -3.0709707E-04;  1.0000803E+03;  1.0000000E-01;  6.6566017E+01;3;  2.5995225E-01;  0.0000000E+00;  1.0781277E-02;0;  4.0549524E-03;  4.0003797E+04;  0.0000000E+00; -1.1472051E-02;  4.0000000E+04;  0.0000000E+00;  4.0001043E+04;  5.5123623E-03;  0.0000000E+00; -1.4574100E-03;  1.3777774E+02;
  4.5150155E-01;  9.9999998E-03;  1.8002535E-01;5239;  4.5927828E-03;  0.0000000E+00; -3.1880982E-04;  9.9994141E+02;  1.0000000E-01; -4.8541836E+01;3;  2.6259375E-01;  0.0000000E+00;  1.0762342E-02;0;  4.5266668E-03;  3.9991988E+04;  0.0000000E+00; -5.2114982E-02;  4.0000000E+04;  0.0000000E+00;  4.0002453E+04;  5.9451708E-03;  0.0000000E+00; -1.4185040E-03;  3.0026321E+02;
  4.5150205E-01;  9.9999998E-03;  1.9002287E-01;5240;  4.6157306E-03;  0.0000000E+00; -3.3143477E-04;  9.9978717E+02;  1.0000000E-01; -1.7634070E+02;3;  2.6638213E-01;  0.0000000E+00;  1.0969017E-02;0;  5.1233405E-03;  3.9978164E+04;  0.0000000E+00; -9.4227947E-02;  4.0000000E+04;  0.0000000E+00;  4.0003469E+04;  6.5063671E-03;  0.0000000E+00; -1.3830267E-03;  4.7399170E+02;
  4.5150563E-01;  9.9999998E-03;  2.0001836E-01;5241;  4.6453844E-03;  0.0000000E+00; -3.4520397E-04;  9.9961646E+02;  1.0000000E-01; -3.1776880E+02;3;  2.7257866E-01;  0.0000000E+00;  1.1249441E-02;0;  5.8304141E-03;  3.9963223E+04;  0.0000000E+00; -1.3443872E-01;  4.0000000E+04;  0.0000000E+00;  4.0004816E+04;  7.1818926E-03;  0.0000000E+00; -1.3514785E-03;  6.5859253E+02;
  4.5151201E-01;  9.9999998E-03;  2.1001147E-01;5242;  4.6853977E-03;  0.0000000E+00; -3.5947730E-04;  9.9943958E+02;  1.0000000E-01; -4.6428317E+02;3;  2.8116572E-01;  0.0000000E+00;  1.1448775E-02;0;  6.6260593E-03;  3.9947262E+04;  0.0000000E+00; -1.6989775E-01;  4.0000000E+04;  0.0000000E+00;  4.0006355E+04;  7.9503814E-03;  0.0000000E+00; -1.3243220E-03;  8.7513403E+02;
  4.5152053E-01;  9.9999998E-03;  2.2000438E-01;5243;  4.7380258E-03;  0.0000000E+00; -3.7118606E-04;  9.9925781E+02;  1.0000000E-01; -6.1489618E+02;3;  2.8979456E-01;  0.0000000E+00;  1.2299876E-02;0;  7.4895965E-03;  3.9930691E+04;  0.0000000E+00; -1.9852090E-01;  4.0000000E+04;  0.0000000E+00;  4.0008418E+04;  8.7863803E-03;  0.0000000E+00; -1.2967838E-03;  1.1402976E+03;
  4.5152900E-01;  9.9999998E-03;  2.3000173E-01;5244;  4.7982582E-03;  0.0000000E+00; -3.8611100E-04;  9.9908112E+02;  1.0000000E-01; -7.6126239E+02;3;  3.0061680E-01;  0.0000000E+00;  1.4369635E-02;0;  8.3853509E-03;  3.9914387E+04;  0.0000000E+00; -2.1873596E-01;  4.0000000E+04;  0.0000000E+00;  4.0010320E+04;  9.6635334E-03;  0.0000000E+00; -1.2781828E-03;  1.3612004E+03;
  4.6161824E-01;  9.9999998E-03;  7.0004635E-02;5289;  4.6076197E-03;  0.0000000E+00; -1.2673218E-04;  1.0000238E+03;  1.0000000E-01;  1.9752527E+01;3;  3.3316302E-01;  0.0000000E+00;  1.8171998E-02;0;  4.8184623E-03;  4.0003961E+04;  0.0000000E+00;  3.9165147E-02;  4.0000000E+04;  0.0000000E+00;  3.9997707E+04;  6.8606515E-03;  0.0000000E+00; -2.0421892E-03;  2.8550668E+02;
  4.6160206E-01;  9.9999998E-03;  8.0008075E-02;5290;  4.6079620E-03;  0.0000000E+00; -1.5011859E-04;  1.0001042E+03;  1.0000000E-01;  8.6318550E+01;3;  3.3007053E-01;  0.0000000E+00;  1.9326057E-02;0;  4.7696028E-03;  4.0010699E+04;  0.0000000E+00;  4.6412531E-02;  4.0000000E+04;  0.0000000E+00;  3.9997664E+04;  6.7725861E-03;  0.0000000E+00; -2.0029831E-03;  3.3849875E+02;
  4.6158454E-01;  9.9999998E-03;  9.0011954E-02;5291;  4.6079624E-03;  0.0000000E+00; -1.7309797E-04;  1.0001712E+03;  1.0000000E-01;  1.4182315E+02;3;  3.2796359E-01;  0.0000000E+00;  1.9586740E-02;0;  4.6848683E-03;  4.0016520E+04;  0.0000000E+00;  5.1968541E-02;  4.0000000E+04;  0.0000000E+00;  3.9997367E+04;  6.6417460E-03;  0.0000000E+00; -1.9568778E-03;  3.7226599E+02;
  4.6156657E-01;  9.9999998E-03;  1.0001583E-01;5292;  4.6048807E-03;  0.0000000E+00; -1.9512611E-04;  1.0002379E+03;  1.0000000E-01;  1.9703146E+02;3;  3.2188401E-01;  0.0000000E+00;  2.0250715E-02;0;  4.5713033E-03;  4.0021641E+04;  0.0000000E+00;  5.5086926E-02;  4.0000000E+04;  0.0000000E+00;  3.9997250E+04;  6.4769909E-03;  0.0000000E+00; -1.9056877E-03;  3.8536615E+02;
  4.6154913E-01;  9.9999998E-03;  1.1001925E-01;5293;  4.5969547E-03;  0.0000000E+00; -2.1624134E-04;  1.0002884E+03;  1.0000000E-01;  2.3890683E+02;3;  3.1178027E-01;  0.0000000E+00;  1.9523285E-02;0;  4.4437069E-03;  4.0025523E+04;  0.0000000E+00;  5.5113431E-02;  4.0000000E+04;  0.0000000E+00;  3.9997223E+04;  6.2952777E-03;  0.0000000E+00; -1.8515706E-03;  3.7786896E+02;
  4.6153241E-01;  9.9999998E-03;  1.2002185E-01;5294;  4.5840186E-03;  0.0000000E+00; -2.3627475E-04;  1.0003219E+03;  1.0000000E-01;  2.6665912E+02;3;  2.9837304E-01;  0.0000000E+00;  1.9139390E-02;0;  4.3239505E-03;  4.0027832E+04;  0.0000000E+00;  5.1475596E-02;  4.0000000E+04;  0.0000000E+00;  3.9997586E+04;  6.1204219E-03;  0.0000000E+00; -1.7964715E-03;  3.5058121E+02;
  4.6151790E-01;  9.9999998E-03;  1.3002360E-01;5295;  4.5706453E-03;  0.0000000E+00; -2.5512613E-04;  1.0003320E+03;  1.0000000E-01;  2.7505396E+02;3;  2.8549471E-01;  0.0000000E+00;  1.8354185E-02;0;  4.2393720E-03;  4.0028148E+04;  0.0000000E+00;  4.3595441E-02;  4.0000000E+04;  0.0000000E+00;  3.9997703E+04;  5.9811124E-03;  0.0000000E+00; -1.7417405E-03;  3.0373358E+02;
  4.6150604E-01;  9.9999998E-03;  1.4002456E-01;5296;  4.5632622E-03;  0.0000000E+00; -2.7293133E-04;  1.0003107E+03;  1.0000000E-01;  2.5747421E+02;3;  2.7319700E-01;  0.0000000E+00;  1.5543241E-02;0;  4.2198789E-03;  4.0025902E+04;  0.0000000E+00;  3.0867767E-02;  4.0000000E+04;  0.0000000E+00;  3.9998547E+04;  5.9079216E-03;  0.0000000E+00; -1.6880425E-03;  2.3596481E+02;
  4.6149784E-01;  9.9999998E-03;  1.5002488E-01;5297;  4.5642597E-03;  0.0000000E+00; -2.8930255E-04;  1.0002650E+03;  1.0000000E-01;  2.1954935E+02;3;  2.6561424E-01;  0.0000000E+00;  1.4702295E-02;0;  4.2949417E-03;  4.0021457E+04;  0.0000000E+00;  1.2697963E-02;  4.0000000E+04;  0.0000000E+00;  3.9999156E+04;  5.9305471E-03;  0.0000000E+00; -1.6356056E-03;  1.4461978E+02;
  4.6149448E-01;  9.9999998E-03;  1.6002466E-01;5298;  4.5738323E-03;  0.0000000E+00; -3.0383214E-04;  1.0001895E+03;  1.0000000E-01;  1.5703259E+02;3;  2.6435336E-01;  0.0000000E+00;  1.3486080E-02;0;  4.4893324E-03;  4.0014551E+04;  0.0000000E+00; -1.1161946E-02;  4.0000000E+04;  0.0000000E+00;  3.9999699E+04;  6.0739922E-03;  0.0000000E+00; -1.5846600E-03;  3.3752544E+01;
  4.6149635E-01;  9.9999998E-03;  1.7002386E-01;5299;  4.5889663E-03;  0.0000000E+00; -3.1763333E-04;  1.0000869E+03;  1.0000000E-01;  7.1997963E+01;3;  2.6469985E-01;  0.0000000E+00;  1.2109099E-02;0;  4.8193941E-03;  4.0005500E+04;  0.0000000E+00; -4.0049259E-02;  4.0000000E+04;  0.0000000E+00;  4.0001230E+04;  6.3549480E-03;  0.0000000E+00; -1.5355537E-03;  1.1935438E+02;
  4.6150333E-01;  9.9999998E-03;  1.8002242E-01;5300;  4.6108142E-03;  0.0000000E+00; -3.3115264E-04;  9.9996191E+02;  1.0000000E-01; -3.1554663E+01;3;  2.6881611E-01;  0.0000000E+00;  1.1693689E-02;0;  5.2909581E-03;  3.9993883E+04;  0.0000000E+00; -7.2291255E-02;  4.0000000E+04;  0.0000000E+00;  4.0002207E+04;  6.7796097E-03;  0.0000000E+00; -1.4886514E-03;  2.7919104E+02;
  4.6151438E-01;  9.9999998E-03;  1.9002032E-01;5301;  4.6428554E-03;  0.0000000E+00; -3.4440795E-04;  9.9981293E+02;  1.0000000E-01; -1.5500797E+02;3;  2.7582747E-01;  0.0000000E+00;  1.1174602E-02;0;  5.8990554E-03;  3.9980656E+04;  0.0000000E+00; -1.0552923E-01;  4.0000000E+04;  0.0000000E+00;  4.0003359E+04;  7.3432117E-03;  0.0000000E+00; -1.4441564E-03;  4.5240189E+02;
  4.6152857E-01;  9.9999998E-03;  2.0001714E-01;5302;  4.6882667E-03;  0.0000000E+00; -3.5763386E-04;  9.9964246E+02;  1.0000000E-01; -2.9623853E+02;3;  2.8623185E-01;  0.0000000E+00;  1.1731597E-02;0;  6.6288644E-03;  3.9965797E+04;  0.0000000E+00; -1.3726962E-01;  4.0000000E+04;  0.0000000E+00;  4.0004883E+04;  8.0309194E-03;  0.0000000E+00; -1.4020547E-03;  6.3491016E+02;
  4.6154505E-01;  9.9999998E-03;  2.1001320E-01;5303;  4.7490252E-03;  0.0000000E+00; -3.6994656E-04;  9.9947003E+02;  1.0000000E-01; -4.3904932E+02;3;  2.9921210E-01;  0.0000000E+00;  1.4527327E-02;0;  7.4593136E-03;  3.9950113E+04;  0.0000000E+00; -1.6531149E-01;  4.0000000E+04;  0.0000000E+00;  4.0006012E+04;  8.8201333E-03;  0.0000000E+00; -1.3608198E-03;  8.2741895E+02;
  4.6156153E-01;  9.9999998E-03;  2.2000918E-01;5304;  4.8206695E-03;  0.0000000E+00; -3.8450566E-04;  9.9928223E+02;  1.0000000E-01; -5.9464984E+02;3;  3.1494197E-01;  0.0000000E+00;  1.7106930E-02;0;  8.3605014E-03;  3.9933879E+04;  0.0000000E+00; -1.8783657E-01;  4.0000000E+04;  0.0000000E+00;  4.0007641E+04;  9.6835159E-03;  0.0000000E+00; -1.3230148E-03;  1.0290249E+03;
  4.6157619E-01;  9.9999998E-03;  2.3000607E-01;5305;  4.8915511E-03;  0.0000000E+00; -4.0905760E-04;  9.9909973E+02;  1.0000000E-01; -7.4585547E+02;3;  3.2537633E-01;  0.0000000E+00;  1.7823609E-02;0;  9.2758378E-03;  3.9918012E+04;  0.0000000E+00; -2.0289525E-01;  4.0000000E+04;  0.0000000E+00;  4.0008824E+04;  1.0592593E-02;  0.0000000E+00; -1.3167550E-03;  1.2179081E+03;
  4.7157544E-01;  9.9999998E-03;  7.0008561E-02;5350;  4.6469253E-03;  0.0000000E+00; -1.2891972E-04;  1.0000419E+03;  1.0000000E-01;  3.4764450E+01;3;  3.4256884E-01;  0.0000000E+00;  1.8772611E-02;0;  6.1257766E-03;  4.0005621E+04;  0.0000000E+00;  2.0006429E-02;  4.0000000E+04;  0.0000000E+00;  3.9998203E+04;  8.2937628E-03;  0.0000000E+00; -2.1679862E-03;  2.2685492E+02;
  4.7155687E-01;  9.9999998E-03;  8.0011241E-02;5351;  4.6654916E-03;  0.0000000E+00; -1.5341019E-04;  1.0001046E+03;  1.0000000E-01;  8.6614838E+01;3;  3.4703052E-01;  0.0000000E+00;  2.0279948E-02;0;  6.0274783E-03;  4.0010605E+04;  0.0000000E+00;  2.1652948E-02;  4.0000000E+04;  0.0000000E+00;  3.9997609E+04;  8.1539750E-03;  0.0000000E+00; -2.1264968E-03;  2.7701932E+02;
  4.7153792E-01;  9.9999998E-03;  9.0014108E-02;5352;  4.6812417E-03;  0.0000000E+00; -1.7740129E-04;  1.0001622E+03;  1.0000000E-01;  1.3441595E+02;3;  3.5369423E-01;  0.0000000E+00;  2.0411523E-02;0;  5.8894446E-03;  4.0015367E+04;  0.0000000E+00;  2.1394685E-02;  4.0000000E+04;  0.0000000E+00;  3.9997340E+04;  7.9670157E-03;  0.0000000E+00; -2.0775709E-03;  3.1369870E+02;
  4.7151870E-01;  9.9999998E-03;  1.0001684E-01;5353;  4.6899286E-03;  0.0000000E+00; -1.9991933E-04;  1.0002158E+03;  1.0000000E-01;  1.7876038E+02;3;  3.5834321E-01;  0.0000000E+00;  2.0908553E-02;0;  5.7205455E-03;  4.0019754E+04;  0.0000000E+00;  1.8983854E-02;  4.0000000E+04;  0.0000000E+00;  3.9997156E+04;  7.7437446E-03;  0.0000000E+00; -2.0231993E-03;  3.3523636E+02;
  4.7150052E-01;  9.9999998E-03;  1.1001907E-01;5354;  4.6902914E-03;  0.0000000E+00; -2.2020264E-04;  1.0002579E+03;  1.0000000E-01;  2.1372235E+02;3;  3.5780087E-01;  0.0000000E+00;  2.1837942E-02;0;  5.5376911E-03;  4.0023039E+04;  0.0000000E+00;  1.4386210E-02;  4.0000000E+04;  0.0000000E+00;  3.9997516E+04;  7.5034336E-03;  0.0000000E+00; -1.9657426E-03;  3.4071332E+02;
  4.7148460E-01;  9.9999998E-03;  1.2002046E-01;5355;  4.6807961E-03;  0.0000000E+00; -2.3796021E-04;  1.0002865E+03;  1.0000000E-01;  2.3732661E+02;3;  3.4868324E-01;  0.0000000E+00;  2.1909654E-02;0;  5.3648055E-03;  4.0025211E+04;  0.0000000E+00;  7.7125747E-03;  4.0000000E+04;  0.0000000E+00;  3.9997789E+04;  7.2720516E-03;  0.0000000E+00; -1.9072464E-03;  3.2972684E+02;
  4.7147211E-01;  9.9999998E-03;  1.3002099E-01;5356;  4.6607777E-03;  0.0000000E+00; -2.5526888E-04;  1.0002947E+03;  1.0000000E-01;  2.4414125E+02;3;  3.3084917E-01;  0.0000000E+00;  2.2048879E-02;0;  5.2308920E-03;  4.0025508E+04;  0.0000000E+00; -9.3263882E-04;  4.0000000E+04;  0.0000000E+00;  3.9997633E+04;  7.0798784E-03;  0.0000000E+00; -1.8489863E-03;  3.0108273E+02;
  4.7146374E-01;  9.9999998E-03;  1.4002064E-01;5357;  4.6352595E-03;  0.0000000E+00; -2.7281162E-04;  1.0002777E+03;  1.0000000E-01;  2.3011694E+02;3;  3.1170565E-01;  0.0000000E+00;  2.1609746E-02;0;  5.1672654E-03;  4.0023828E+04;  0.0000000E+00; -1.1614888E-02;  4.0000000E+04;  0.0000000E+00;  3.9998109E+04;  6.9586230E-03;  0.0000000E+00; -1.7913575E-03;  2.5245232E+02;
  4.7146025E-01;  9.9999998E-03;  1.5001972E-01;5358;  4.6176407E-03;  0.0000000E+00; -2.9093193E-04;  1.0002359E+03;  1.0000000E-01;  1.9545126E+02;3;  2.9776290E-01;  0.0000000E+00;  2.1726223E-02;0;  5.2044792E-03;  4.0019871E+04;  0.0000000E+00; -2.4652664E-02;  4.0000000E+04;  0.0000000E+00;  3.9998738E+04;  6.9386493E-03;  0.0000000E+00; -1.7341702E-03;  1.8126598E+02;
  4.7146231E-01;  9.9999998E-03;  1.6001856E-01;5359;  4.6151425E-03;  0.0000000E+00; -3.0889161E-04;  1.0001680E+03;  1.0000000E-01;  1.3915656E+02;3;  2.8813666E-01;  0.0000000E+00;  1.8376675E-02;0;  5.3682826E-03;  4.0013688E+04;  0.0000000E+00; -4.0435672E-02;  4.0000000E+04;  0.0000000E+00;  3.9999734E+04;  7.0454958E-03;  0.0000000E+00; -1.6772132E-03;  9.4732880E+01;
  4.7147033E-01;  9.9999998E-03;  1.7001741E-01;5360;  4.6276366E-03;  0.0000000E+00; -3.2649402E-04;  1.0000704E+03;  1.0000000E-01;  5.8269958E+01;3;  2.8579417E-01;  0.0000000E+00;  1.5934665E-02;0;  5.6759231E-03;  4.0004875E+04;  0.0000000E+00; -5.8969781E-02;  4.0000000E+04;  0.0000000E+00;  4.0000277E+04;  7.2964653E-03;  0.0000000E+00; -1.6205421E-03;  9.8083984E+01;
  4.7148407E-01;  9.9999998E-03;  1.8001637E-01;5361;  4.6571679E-03;  0.0000000E+00; -3.4236870E-04;  9.9995551E+02;  1.0000000E-01; -3.6838463E+01;3;  2.9123747E-01;  0.0000000E+00;  1.5235944E-02;0;  6.1338991E-03;  3.9994352E+04;  0.0000000E+00; -7.9703189E-02;  4.0000000E+04;  0.0000000E+00;  4.0001379E+04;  7.6983413E-03;  0.0000000E+00; -1.5644424E-03;  2.3606250E+02;
  4.7150278E-01;  9.9999998E-03;  1.9001557E-01;5362;  4.7083716E-03;  0.0000000E+00; -3.5540931E-04;  9.9980951E+02;  1.0000000E-01; -1.5782269E+02;3;  3.0552959E-01;  0.0000000E+00;  1.6612055E-02;0;  6.7378171E-03;  3.9981289E+04;  0.0000000E+00; -1.0160177E-01;  4.0000000E+04;  0.0000000E+00;  4.0002754E+04;  8.2466006E-03;  0.0000000E+00; -1.5087833E-03;  4.0669461E+02;
  4.7152424E-01;  9.9999998E-03;  2.0001510E-01;5363;  4.7867885E-03;  0.0000000E+00; -3.6419521E-04;  9.9965039E+02;  1.0000000E-01; -2.8962143E+02;3;  3.2748753E-01;  0.0000000E+00;  1.9686213E-02;0;  7.4749100E-03;  3.9967145E+04;  0.0000000E+00; -1.2332102E-01;  4.0000000E+04;  0.0000000E+00;  4.0004074E+04;  8.9258663E-03;  0.0000000E+00; -1.4509562E-03;  5.8621863E+02;
  4.7154638E-01;  9.9999998E-03;  2.1001479E-01;5364;  4.8877033E-03;  0.0000000E+00; -3.7096237E-04;  9.9947449E+02;  1.0000000E-01; -4.3539508E+02;3;  3.5206553E-01;  0.0000000E+00;  2.4118429E-02;0;  8.3261216E-03;  3.9952012E+04;  0.0000000E+00; -1.4335041E-01;  4.0000000E+04;  0.0000000E+00;  4.0005633E+04;  9.7122751E-03;  0.0000000E+00; -1.3861533E-03;  7.5454309E+02;
  4.7156644E-01;  9.9999998E-03;  2.2001365E-01;5365;  4.9897884E-03;  0.0000000E+00; -3.8825694E-04;  9.9929071E+02;  1.0000000E-01; -5.8763770E+02;3;  3.7520462E-01;  0.0000000E+00;  2.5525687E-02;0;  9.2487782E-03;  3.9936336E+04;  0.0000000E+00; -1.5990859E-01;  4.0000000E+04;  0.0000000E+00;  4.0006598E+04;  1.0576689E-02;  0.0000000E+00; -1.3279100E-03;  9.0187421E+02;
  4.7158334E-01;  9.9999998E-03;  2.3000957E-01;5366;  5.0907978E-03;  0.0000000E+00; -4.2082267E-04;  9.9911090E+02;  1.0000000E-01; -7.3662115E+02;3;  3.9887002E-01;  0.0000000E+00;  2.4699312E-02;0;  1.0172296E-02;  3.9920559E+04;  0.0000000E+00; -1.7040098E-01;  4.0000000E+04;  0.0000000E+00;  4.0008113E+04;  1.1488218E-02;  0.0000000E+00; -1.3159213E-03;  1.0817571E+03;
  4.8148492E-01;  9.9999998E-03;  1.1001918E-01;5415;  4.7886255E-03;  0.0000000E+00; -2.3492593E-04;  1.0002170E+03;  1.0000146E-01;  1.7984677E+02;3;  3.9719933E-01;  0.0000000E+00;  1.7775716E-02;0;  6.7145443E-03;  4.0018406E+04;  0.0000000E+00; -2.8670363E-02;  4.0000000E+04;  0.0000000E+00;  3.9997641E+04;  8.7995799E-03;  0.0000000E+00; -2.0850354E-03;  2.9839380E+02;
  4.8146880E-01;  9.9999998E-03;  1.2001950E-01;5416;  4.7758818E-03;  0.0000000E+00; -2.5097706E-04;  1.0002377E+03;  1.0000150E-01;  1.9693271E+02;3;  3.9328831E-01;  0.0000000E+00;  2.0064594E-02;0;  6.4923330E-03;  4.0020328E+04;  0.0000000E+00; -3.6134135E-02;  4.0000000E+04;  0.0000000E+00;  3.9997266E+04;  8.5160313E-03;  0.0000000E+00; -2.0236983E-03;  3.1222662E+02;
  4.8150459E-01;  9.9999998E-03;  1.0001809E-01;5414;  4.7912244E-03;  0.0000000E+00; -2.1478573E-04;  1.0001844E+03;  1.0000148E-01;  1.5278580E+02;3;  3.9508322E-01;  0.0000000E+00;  1.7470026E-02;0;  6.9492385E-03;  4.0015684E+04;  0.0000000E+00; -2.1075005E-02;  4.0000000E+04;  0.0000000E+00;  3.9997828E+04;  9.0946639E-03;  0.0000000E+00; -2.1454252E-03;  2.7167923E+02;
  4.8145702E-01;  9.9999998E-03;  1.3001893E-01;5417;  4.7573824E-03;  0.0000000E+00; -2.6435693E-04;  1.0002458E+03;  1.0000146E-01;  2.0364856E+02;3;  3.8133013E-01;  0.0000000E+00;  2.2366233E-02;0;  6.3123005E-03;  4.0020391E+04;  0.0000000E+00; -4.2842012E-02;  4.0000000E+04;  0.0000000E+00;  3.9997457E+04;  8.2748365E-03;  0.0000000E+00; -1.9625358E-03;  3.0934238E+02;
  4.8152629E-01;  9.9999998E-03;  9.0016544E-02;5413;  4.7785137E-03;  0.0000000E+00; -1.9078393E-04;  1.0001453E+03;  1.0000148E-01;  1.2039165E+02;3;  3.8977680E-01;  0.0000000E+00;  1.6786290E-02;0;  7.1712984E-03;  4.0012336E+04;  0.0000000E+00; -1.4083726E-02;  4.0000000E+04;  0.0000000E+00;  3.9998277E+04;  9.3740635E-03;  0.0000000E+00; -2.2027651E-03;  2.3494386E+02;
  4.8154894E-01;  9.9999998E-03;  8.0014713E-02;5412;  4.7509689E-03;  0.0000000E+00; -1.6454954E-04;  1.0001059E+03;  1.0000142E-01;  8.7701225E+01;3;  3.7447828E-01;  0.0000000E+00;  1.6559428E-02;0;  7.3622707E-03;  4.0008879E+04;  0.0000000E+00; -8.3069252E-03;  4.0000000E+04;  0.0000000E+00;  3.9998652E+04;  9.6168099E-03;  0.0000000E+00; -2.2545392E-03;  1.9074631E+02;
  4.8144963E-01;  9.9999998E-03;  1.4001757E-01;5418;  4.7337054E-03;  0.0000000E+00; -2.7819409E-04;  1.0002270E+03;  1.0000150E-01;  1.8804407E+02;3;  3.6156803E-01;  0.0000000E+00;  2.3762502E-02;0;  6.2060370E-03;  4.0019438E+04;  0.0000000E+00; -4.8530173E-02;  4.0000000E+04;  0.0000000E+00;  3.9997633E+04;  8.1075951E-03;  0.0000000E+00; -1.9015580E-03;  2.8498135E+02;
  4.8157161E-01;  9.9999998E-03;  7.0012748E-02;5411;  4.7129858E-03;  0.0000000E+00; -1.3828115E-04;  1.0000664E+03;  1.0000142E-01;  5.5010788E+01;3;  3.6004201E-01;  0.0000000E+00;  1.5858157E-02;0;  7.5112823E-03;  4.0005762E+04;  0.0000000E+00; -4.0666983E-03;  4.0000000E+04;  0.0000000E+00;  3.9998895E+04;  9.8098526E-03;  0.0000000E+00; -2.2985700E-03;  1.4133206E+02;
  4.8144659E-01;  9.9999998E-03;  1.5001577E-01;5419;  4.7067157E-03;  0.0000000E+00; -2.9467483E-04;  1.0001890E+03;  1.0000141E-01;  1.5653879E+02;3;  3.4096506E-01;  0.0000000E+00;  2.4935259E-02;0;  6.2040784E-03;  4.0015996E+04;  0.0000000E+00; -5.3487830E-02;  4.0000000E+04;  0.0000000E+00;  3.9998332E+04;  8.0441050E-03;  0.0000000E+00; -1.8400267E-03;  2.3425044E+02;
  4.8144749E-01;  9.9999998E-03;  1.6001394E-01;5420;  4.6948418E-03;  0.0000000E+00; -3.1388877E-04;  1.0001329E+03;  1.0000144E-01;  1.1012035E+02;3;  3.2838720E-01;  0.0000000E+00;  2.2269370E-02;0;  6.3323569E-03;  4.0010379E+04;  0.0000000E+00; -5.8526024E-02;  4.0000000E+04;  0.0000000E+00;  3.9999152E+04;  8.1094848E-03;  0.0000000E+00; -1.7771279E-03;  1.5741125E+02;
  4.8145258E-01;  9.9999998E-03;  1.7001255E-01;5421;  4.7056535E-03;  0.0000000E+00; -3.3505293E-04;  1.0000446E+03;  1.0000145E-01;  3.6937225E+01;3;  3.2526681E-01;  0.0000000E+00;  2.1382337E-02;0;  6.6086189E-03;  4.0002305E+04;  0.0000000E+00; -6.4614750E-02;  4.0000000E+04;  0.0000000E+00;  4.0000039E+04;  8.3210999E-03;  0.0000000E+00; -1.7124809E-03;  9.1015846E+01;
  4.8146144E-01;  9.9999998E-03;  1.8001208E-01;5422;  4.7475537E-03;  0.0000000E+00; -3.5310080E-04;  9.9993250E+02;  1.0000140E-01; -5.5949036E+01;3;  3.3465010E-01;  0.0000000E+00;  2.1567771E-02;0;  7.0400094E-03;  3.9992461E+04;  0.0000000E+00; -7.2560154E-02;  4.0000000E+04;  0.0000000E+00;  4.0001039E+04;  8.6862184E-03;  0.0000000E+00; -1.6462090E-03;  1.7329178E+02;
  4.8147386E-01;  9.9999998E-03;  1.9001283E-01;5423;  4.8256582E-03;  0.0000000E+00; -3.6499850E-04;  9.9979877E+02;  1.0000148E-01; -1.6671133E+02;3;  3.5502991E-01;  0.0000000E+00;  2.3338009E-02;0;  7.6232227E-03;  3.9980320E+04;  0.0000000E+00; -8.2744636E-02;  4.0000000E+04;  0.0000000E+00;  4.0002320E+04;  9.2007509E-03;  0.0000000E+00; -1.5775281E-03;  3.3739340E+02;
  4.8148933E-01;  9.9999998E-03;  2.0001507E-01;5424;  4.9425727E-03;  0.0000000E+00; -3.6993349E-04;  9.9964142E+02;  1.0000140E-01; -2.9707800E+02;3;  3.8925993E-01;  0.0000000E+00;  2.5634674E-02;0;  8.3475355E-03;  3.9966348E+04;  0.0000000E+00; -9.4910659E-02;  4.0000000E+04;  0.0000000E+00;  4.0003629E+04;  9.8494459E-03;  0.0000000E+00; -1.5019099E-03;  5.1115826E+02;
  4.8150542E-01;  9.9999998E-03;  2.1001765E-01;5425;  5.0833593E-03;  0.0000000E+00; -3.7500085E-04;  9.9946790E+02;  1.0000147E-01; -4.4082703E+02;3;  4.3069330E-01;  0.0000000E+00;  2.9070253E-02;0;  9.1926027E-03;  3.9951590E+04;  0.0000000E+00; -1.0804905E-01;  4.0000000E+04;  0.0000000E+00;  4.0004766E+04;  1.0607734E-02;  0.0000000E+00; -1.4151315E-03;  6.5688269E+02;
  4.8152161E-01;  9.9999998E-03;  2.2001728E-01;5426;  5.2232090E-03;  0.0000000E+00; -3.9707313E-04;  9.9928802E+02;  1.0000146E-01; -5.8985986E+02;3;  4.7106963E-01;  0.0000000E+00;  2.9226625E-02;0;  1.0104803E-02;  3.9936270E+04;  0.0000000E+00; -1.2026903E-01;  4.0000000E+04;  0.0000000E+00;  4.0005562E+04;  1.1445103E-02;  0.0000000E+00; -1.3403002E-03;  7.8109644E+02;
  4.8153967E-01;  9.9999998E-03;  2.3001149E-01;5427;  5.3835707E-03;  0.0000000E+00; -4.2750686E-04;  9.9911456E+02;  1.0000141E-01; -7.3355951E+02;3;  5.1120317E-01;  0.0000000E+00;  2.9740505E-02;0;  1.1032933E-02;  3.9920816E+04;  0.0000000E+00; -1.2861536E-01;  4.0000000E+04;  0.0000000E+00;  4.0007141E+04;  1.2328598E-02;  0.0000000E+00; -1.2956648E-03;  9.8547437E+02;
  4.9164945E-01;  9.9999998E-03;  7.0003487E-02;5472;  4.8290826E-03;  0.0000000E+00; -1.5773006E-04;  1.0000668E+03;  1.0000208E-01;  5.5307079E+01;3;  4.0084693E-01;  0.0000000E+00;  9.3890205E-03;0;  8.8858204E-03;  4.0003996E+04;  0.0000000E+00; -3.2198399E-02;  4.0000000E+04;  0.0000000E+00;  3.9999578E+04;  1.1319519E-02;  0.0000000E+00; -2.4336989E-03;  6.1254433E+01;
  4.9162522E-01;  9.9999998E-03;  8.0003761E-02;5473;  4.8803519E-03;  0.0000000E+00; -1.8703695E-04;  1.0000834E+03;  1.0000209E-01;  6.9133850E+01;3;  4.2444929E-01;  0.0000000E+00;  1.0264062E-02;0;  8.6953854E-03;  4.0005840E+04;  0.0000000E+00; -4.2115625E-02;  4.0000000E+04;  0.0000000E+00;  3.9999117E+04;  1.1082372E-02;  0.0000000E+00; -2.3869865E-03;  1.0798106E+02;
  4.9159798E-01;  9.9999998E-03;  9.0004161E-02;5474;  4.9063601E-03;  0.0000000E+00; -2.1550845E-04;  1.0001071E+03;  1.0000204E-01;  8.8688850E+01;3;  4.3565103E-01;  0.0000000E+00;  8.7431911E-03;0;  8.4627736E-03;  4.0008137E+04;  0.0000000E+00; -5.2513480E-02;  4.0000000E+04;  0.0000000E+00;  3.9998949E+04;  1.0795182E-02;  0.0000000E+00; -2.3324082E-03;  1.6098315E+02;
  4.9156967E-01;  9.9999998E-03;  1.0000464E-01;5475;  4.9065622E-03;  0.0000000E+00; -2.4075682E-04;  1.0001309E+03;  1.0000208E-01;  1.0844138E+02;3;  4.3693113E-01;  0.0000000E+00;  8.5582081E-03;0;  8.2001258E-03;  4.0010129E+04;  0.0000000E+00; -6.2454816E-02;  4.0000000E+04;  0.0000000E+00;  3.9998621E+04;  1.0472451E-02;  0.0000000E+00; -2.2723256E-03;  2.1498764E+02;
  4.9154273E-01;  9.9999998E-03;  1.1000504E-01;5476;  4.8866430E-03;  0.0000000E+00; -2.6007957E-04;  1.0001472E+03;  1.0000202E-01;  1.2187309E+02;3;  4.3221191E-01;  0.0000000E+00;  1.0150897E-02;0;  7.9265302E-03;  4.0012293E+04;  0.0000000E+00; -7.0790604E-02;  4.0000000E+04;  0.0000000E+00;  3.9997875E+04;  1.0135934E-02;  0.0000000E+00; -2.2094036E-03;  2.6476996E+02;
  4.9151984E-01;  9.9999998E-03;  1.2000498E-01;5477;  4.8562954E-03;  0.0000000E+00; -2.7419179E-04;  1.0001617E+03;  1.0000196E-01;  1.3392213E+02;3;  4.2254582E-01;  0.0000000E+00;  1.4149834E-02;0;  7.6671485E-03;  4.0014020E+04;  0.0000000E+00; -7.6344468E-02;  4.0000000E+04;  0.0000000E+00;  3.9997734E+04;  9.8128822E-03;  0.0000000E+00; -2.1457335E-03;  3.0421982E+02;
  4.9150291E-01;  9.9999998E-03;  1.3000421E-01;5478;  4.8258370E-03;  0.0000000E+00; -2.8550366E-04;  1.0001663E+03;  1.0000198E-01;  1.3777388E+02;3;  4.0989009E-01;  0.0000000E+00;  1.8469701E-02;0;  7.4514057E-03;  4.0014199E+04;  0.0000000E+00; -7.8245535E-02;  4.0000000E+04;  0.0000000E+00;  3.9997457E+04;  9.5335925E-03;  0.0000000E+00; -2.0821870E-03;  3.2635550E+02;
  4.9149269E-01;  9.9999998E-03;  1.4000270E-01;5479;  4.8021935E-03;  0.0000000E+00; -2.9674373E-04;  1.0001559E+03;  1.0000201E-01;  1.2918153E+02;3;  3.9589497E-01;  0.0000000E+00;  2.2187155E-02;0;  7.3104189E-03;  4.0013113E+04;  0.0000000E+00; -7.6226018E-02;  4.0000000E+04;  0.0000000E+00;  3.9997309E+04;  9.3287267E-03;  0.0000000E+00; -2.0183078E-03;  3.2363776E+02;
  4.9148926E-01;  9.9999998E-03;  1.5000080E-01;5480;  4.7869044E-03;  0.0000000E+00; -3.1085461E-04;  1.0001197E+03;  1.0000207E-01;  9.9157692E+01;3;  3.8014314E-01;  0.0000000E+00;  2.3525465E-02;0;  7.2742254E-03;  4.0010402E+04;  0.0000000E+00; -7.0861466E-02;  4.0000000E+04;  0.0000000E+00;  3.9997711E+04;  9.2269732E-03;  0.0000000E+00; -1.9527478E-03;  2.8837488E+02;
  4.9149224E-01;  9.9999998E-03;  1.5999903E-01;5481;  4.7810143E-03;  0.0000000E+00; -3.2997542E-04;  1.0000671E+03;  1.0000201E-01;  5.5603367E+01;3;  3.6919284E-01;  0.0000000E+00;  2.3053933E-02;0;  7.3683844E-03;  4.0005242E+04;  0.0000000E+00; -6.3692294E-02;  4.0000000E+04;  0.0000000E+00;  3.9998246E+04;  9.2524923E-03;  0.0000000E+00; -1.8841079E-03;  2.1538603E+02;
  4.9150068E-01;  9.9999998E-03;  1.6999818E-01;5482;  4.7982247E-03;  0.0000000E+00; -3.5308013E-04;  9.9998468E+02;  1.0000210E-01; -1.2690999E+01;3;  3.6693326E-01;  0.0000000E+00;  2.0494172E-02;0;  7.6106582E-03;  3.9998363E+04;  0.0000000E+00; -5.6887016E-02;  4.0000000E+04;  0.0000000E+00;  3.9999672E+04;  9.4222939E-03;  0.0000000E+00; -1.8116354E-03;  1.1055834E+02;
  4.9151340E-01;  9.9999998E-03;  1.7999873E-01;5483;  4.8516667E-03;  0.0000000E+00; -3.7442474E-04;  9.9988409E+02;  1.0000210E-01; -9.6046669E+01;3;  3.8013414E-01;  0.0000000E+00;  1.9972948E-02;0;  8.0080768E-03;  3.9988527E+04;  0.0000000E+00; -5.2737333E-02;  4.0000000E+04;  0.0000000E+00;  4.0000566E+04;  9.7437277E-03;  0.0000000E+00; -1.7356506E-03;  1.1245415E+02;
  4.9152809E-01;  9.9999998E-03;  1.9000122E-01;5484;  4.9498985E-03;  0.0000000E+00; -3.8822374E-04;  9.9975500E+02;  1.0000215E-01; -2.0295723E+02;3;  4.0887815E-01;  0.0000000E+00;  2.0638077E-02;0;  8.5571557E-03;  3.9976859E+04;  0.0000000E+00; -5.3026680E-02;  4.0000000E+04;  0.0000000E+00;  4.0002141E+04;  1.0212929E-02;  0.0000000E+00; -1.6557733E-03;  2.9327634E+02;
  4.9154264E-01;  9.9999998E-03;  2.0000574E-01;5485;  5.0908388E-03;  0.0000000E+00; -3.9230159E-04;  9.9960559E+02;  1.0000195E-01; -3.2675620E+02;3;  4.5144010E-01;  0.0000000E+00;  2.1697205E-02;0;  9.2479857E-03;  3.9963227E+04;  0.0000000E+00; -5.8473513E-02;  4.0000000E+04;  0.0000000E+00;  4.0003594E+04;  1.0814942E-02;  0.0000000E+00; -1.5669568E-03;  4.9787027E+02;
  4.9155879E-01;  9.9999998E-03;  2.1001168E-01;5486;  5.2595646E-03;  0.0000000E+00; -3.9446709E-04;  9.9943549E+02;  1.0000203E-01; -4.6769049E+02;3;  4.9536899E-01;  0.0000000E+00;  2.5040243E-02;0;  1.0062446E-02;  3.9948680E+04;  0.0000000E+00; -6.8476751E-02;  4.0000000E+04;  0.0000000E+00;  4.0004895E+04;  1.1525746E-02;  0.0000000E+00; -1.4632999E-03;  6.6482526E+02;
  4.9157426E-01;  9.9999998E-03;  2.2001456E-01;5487;  5.4315357E-03;  0.0000000E+00; -4.1370213E-04;  9.9925690E+02;  1.0000205E-01; -6.1563690E+02;3;  5.3445315E-01;  0.0000000E+00;  2.7222419E-02;0;  1.0946702E-02;  3.9933270E+04;  0.0000000E+00; -8.1069425E-02;  4.0000000E+04;  0.0000000E+00;  4.0005465E+04;  1.2313998E-02;  0.0000000E+00; -1.3672966E-03;  7.8744470E+02;
  4.9158800E-01;  9.9999998E-03;  2.3000968E-01;5488;  5.6250598E-03;  0.0000000E+00; -4.3709201E-04;  9.9907935E+02;  1.0000207E-01; -7.6274384E+02;3;  5.6946498E-01;  0.0000000E+00;  2.8557738E-02;0;  1.1863102E-02;  3.9917570E+04;  0.0000000E+00; -9.2934825E-02;  4.0000000E+04;  0.0000000E+00;  4.0007402E+04;  1.3145122E-02;  0.0000000E+00; -1.2820192E-03;  1.0090245E+03;
  5.0166309E-01;  9.9999998E-03;  6.9993809E-02;5533;  5.0221290E-03;  0.0000000E+00; -1.8801686E-04;  1.0000579E+03;  1.0000388E-01;  4.7899879E+01;3;  4.7970071E-01;  0.0000000E+00;  1.6488724E-04;0;  1.0123292E-02;  4.0001430E+04;  0.0000000E+00; -6.1816964E-02;  4.0000000E+04;  0.0000000E+00;  4.0000711E+04;  1.2692953E-02;  0.0000000E+00; -2.5696608E-03;  1.0656150E+02;
  5.0164610E-01;  9.9999998E-03;  7.9991691E-02;5534;  5.0572944E-03;  0.0000000E+00; -2.2098563E-04;  1.0000636E+03;  1.0000373E-01;  5.2739250E+01;3;  4.8991078E-01;  0.0000000E+00; -2.5266327E-03;0;  9.9144857E-03;  4.0001539E+04;  0.0000000E+00; -7.6651469E-02;  4.0000000E+04;  0.0000000E+00;  4.0000211E+04;  1.2434915E-02;  0.0000000E+00; -2.5204292E-03;  1.0999358E+02;
  5.0162327E-01;  9.9999998E-03;  8.9990012E-02;5535;  5.0598071E-03;  0.0000000E+00; -2.5083695E-04;  1.0000656E+03;  1.0000387E-01;  5.4319450E+01;3;  4.9351451E-01;  0.0000000E+00; -4.5336438E-03;0;  9.6659893E-03;  4.0002805E+04;  0.0000000E+00; -9.0315200E-02;  4.0000000E+04;  0.0000000E+00;  3.9999637E+04;  1.2129406E-02;  0.0000000E+00; -2.4634171E-03;  1.4012202E+02;
  5.0159639E-01;  9.9999998E-03;  9.9989101E-02;5536;  5.0294031E-03;  0.0000000E+00; -2.7464688E-04;  1.0000746E+03;  1.0000372E-01;  6.1825413E+01;3;  4.7976920E-01;  0.0000000E+00; -2.6106176E-03;0;  9.3896091E-03;  4.0004258E+04;  0.0000000E+00; -1.0130807E-01;  4.0000000E+04;  0.0000000E+00;  3.9998973E+04;  1.1790763E-02;  0.0000000E+00; -2.4011533E-03;  1.9177844E+02;
  5.0156856E-01;  9.9999998E-03;  1.0998877E-01;5537;  4.9826247E-03;  0.0000000E+00; -2.9165755E-04;  1.0000873E+03;  1.0000384E-01;  7.2294250E+01;3;  4.6424603E-01;  0.0000000E+00;  1.1390965E-03;0;  9.1033373E-03;  4.0005457E+04;  0.0000000E+00; -1.0808219E-01;  4.0000000E+04;  0.0000000E+00;  3.9998363E+04;  1.1439702E-02;  0.0000000E+00; -2.3363642E-03;  2.5174092E+02;
  5.0154269E-01;  9.9999998E-03;  1.1998854E-01;5538;  4.9295649E-03;  0.0000000E+00; -3.0374742E-04;  1.0000911E+03;  1.0000389E-01;  7.5454659E+01;3;  4.4517291E-01;  0.0000000E+00;  5.3272988E-03;0;  8.8309096E-03;  4.0006867E+04;  0.0000000E+00; -1.0929382E-01;  4.0000000E+04;  0.0000000E+00;  3.9997949E+04;  1.1101915E-02;  0.0000000E+00; -2.2710052E-03;  3.0746170E+02;
  5.0152129E-01;  9.9999998E-03;  1.2998797E-01;5539;  4.8832656E-03;  0.0000000E+00; -3.1380923E-04;  1.0000937E+03;  1.0000384E-01;  7.7627434E+01;3;  4.2888317E-01;  0.0000000E+00;  1.0889607E-02;0;  8.6002499E-03;  4.0007215E+04;  0.0000000E+00; -1.0415150E-01;  4.0000000E+04;  0.0000000E+00;  3.9997539E+04;  1.0805837E-02;  0.0000000E+00; -2.2055872E-03;  3.4721539E+02;
  5.0150597E-01;  9.9999998E-03;  1.3998705E-01;5540;  4.8502358E-03;  0.0000000E+00; -3.2546182E-04;  1.0000839E+03;  1.0000389E-01;  6.9430138E+01;3;  4.1485348E-01;  0.0000000E+00;  1.5816702E-02;0;  8.4414529E-03;  4.0006348E+04;  0.0000000E+00; -9.2718758E-02;  4.0000000E+04;  0.0000000E+00;  3.9997242E+04;  1.0580544E-02;  0.0000000E+00; -2.1390917E-03;  3.5986298E+02;
  5.0149763E-01;  9.9999998E-03;  1.4998603E-01;5541;  4.8357891E-03;  0.0000000E+00; -3.4065571E-04;  1.0000527E+03;  1.0000379E-01;  4.3653088E+01;3;  4.0438211E-01;  0.0000000E+00;  1.7817026E-02;0;  8.3837630E-03;  4.0003883E+04;  0.0000000E+00; -7.6158896E-02;  4.0000000E+04;  0.0000000E+00;  3.9997160E+04;  1.0453353E-02;  0.0000000E+00; -2.0695899E-03;  3.3481345E+02;
  5.0149643E-01;  9.9999998E-03;  1.5998536E-01;5542;  4.8416629E-03;  0.0000000E+00; -3.6129911E-04;  9.9999689E+02;  1.0000366E-01; -2.5678287E+00;3;  3.9852259E-01;  0.0000000E+00;  1.6629646E-02;0;  8.4524369E-03;  3.9999242E+04;  0.0000000E+00; -5.6939378E-02;  4.0000000E+04;  0.0000000E+00;  3.9998113E+04;  1.0447708E-02;  0.0000000E+00; -1.9952713E-03;  2.6337381E+02;
  5.0150186E-01;  9.9999998E-03;  1.6998562E-01;5543;  4.8700399E-03;  0.0000000E+00; -3.8608699E-04;  9.9992426E+02;  1.0000373E-01; -6.2763657E+01;3;  4.0154162E-01;  0.0000000E+00;  1.3339492E-02;0;  8.6650997E-03;  3.9992406E+04;  0.0000000E+00; -3.8474914E-02;  4.0000000E+04;  0.0000000E+00;  3.9998602E+04;  1.0580462E-02;  0.0000000E+00; -1.9153631E-03;  1.4086128E+02;
  5.0151259E-01;  9.9999998E-03;  1.7998736E-01;5544;  4.9304496E-03;  0.0000000E+00; -4.1216693E-04;  9.9982660E+02;  1.0000380E-01; -1.4365025E+02;3;  4.1662306E-01;  0.0000000E+00;  1.1083761E-02;0;  9.0281330E-03;  3.9983223E+04;  0.0000000E+00; -2.4368804E-02;  4.0000000E+04;  0.0000000E+00;  4.0000234E+04;  1.0859165E-02;  0.0000000E+00; -1.8310321E-03;  5.6045498E+01;
  5.0152719E-01;  9.9999998E-03;  1.8999079E-01;5545;  5.0354395E-03;  0.0000000E+00; -4.3054484E-04;  9.9970111E+02;  1.0000368E-01; -2.4764732E+02;3;  4.4686103E-01;  0.0000000E+00;  1.0185923E-02;0;  9.5369117E-03;  3.9971504E+04;  0.0000000E+00; -1.7475760E-02;  4.0000000E+04;  0.0000000E+00;  4.0001902E+04;  1.1280403E-02;  0.0000000E+00; -1.7434908E-03;  2.7055200E+02;
  5.0154638E-01;  9.9999998E-03;  1.9999635E-01;5546;  5.1861266E-03;  0.0000000E+00; -4.3855380E-04;  9.9955359E+02;  1.0000372E-01; -3.6986609E+02;3;  4.8856145E-01;  0.0000000E+00;  1.2223313E-02;0;  1.0180053E-02;  3.9957820E+04;  0.0000000E+00; -1.9203587E-02;  4.0000000E+04;  0.0000000E+00;  4.0003895E+04;  1.1830185E-02;  0.0000000E+00; -1.6501312E-03;  5.1456250E+02;
  5.0156915E-01;  9.9999998E-03;  2.1000361E-01;5547;  5.3710593E-03;  0.0000000E+00; -4.3991767E-04;  9.9938544E+02;  1.0000365E-01; -5.0917078E+02;3;  5.2969295E-01;  0.0000000E+00;  1.6678678E-02;0;  1.0941250E-02;  3.9943176E+04;  0.0000000E+00; -2.9286943E-02;  4.0000000E+04;  0.0000000E+00;  4.0005566E+04;  1.2484860E-02;  0.0000000E+00; -1.5436094E-03;  7.2592834E+02;
  5.0159228E-01;  9.9999998E-03;  2.2000812E-01;5548;  5.5706077E-03;  0.0000000E+00; -4.5097584E-04;  9.9920178E+02;  1.0000384E-01; -6.6131464E+02;3;  5.6684136E-01;  0.0000000E+00;  1.9532932E-02;0;  1.1777628E-02;  3.9927363E+04;  0.0000000E+00; -4.5860905E-02;  4.0000000E+04;  0.0000000E+00;  4.0006664E+04;  1.3213423E-02;  0.0000000E+00; -1.4357951E-03;  8.8982959E+02;
  5.0161391E-01;  9.9999998E-03;  2.3000565E-01;5549;  5.7941508E-03;  0.0000000E+00; -4.6294869E-04;  9.9902716E+02;  1.0000373E-01; -8.0600189E+02;3;  6.0323167E-01;  0.0000000E+00;  2.2476353E-02;0;  1.2661966E-02;  3.9911551E+04;  0.0000000E+00; -6.5627337E-02;  4.0000000E+04;  0.0000000E+00;  4.0008598E+04;  1.3981457E-02;  0.0000000E+00; -1.3194908E-03;  1.1194945E+03;
  5.1166147E-01;  9.9999998E-03;  6.9987036E-02;5594;  5.2731293E-03;  0.0000000E+00; -2.2736273E-04;  1.0000343E+03;  1.0000610E-01;  2.8443640E+01;3;  5.7642418E-01;  0.0000000E+00; -1.3548036E-02;0;  1.1136812E-02;  3.9996660E+04;  0.0000000E+00; -8.8669121E-02;  4.0000000E+04;  0.0000000E+00;  4.0001316E+04;  1.3841656E-02;  0.0000000E+00; -2.7048436E-03;  1.8861136E+02;
  5.1164931E-01;  9.9999998E-03;  7.9983376E-02;5595;  5.2678580E-03;  0.0000000E+00; -2.6174280E-04;  1.0000235E+03;  1.0000617E-01;  1.9456240E+01;3;  5.6810135E-01;  0.0000000E+00; -1.6701238E-02;0;  1.0942235E-02;  3.9996223E+04;  0.0000000E+00; -1.0697153E-01;  4.0000000E+04;  0.0000000E+00;  4.0001016E+04;  1.3595608E-02;  0.0000000E+00; -2.6533736E-03;  1.7581937E+02;
  5.1163149E-01;  9.9999998E-03;  8.9979932E-02;5596;  5.2280556E-03;  0.0000000E+00; -2.8938142E-04;  1.0000226E+03;  1.0000612E-01;  1.8666140E+01;3;  5.5452293E-01;  0.0000000E+00; -1.6873328E-02;0;  1.0712967E-02;  3.9996484E+04;  0.0000000E+00; -1.2217896E-01;  4.0000000E+04;  0.0000000E+00;  4.0000188E+04;  1.3307372E-02;  0.0000000E+00; -2.5944051E-03;  1.7517207E+02;
  5.1160890E-01;  9.9999998E-03;  9.9977195E-02;5597;  5.1580346E-03;  0.0000000E+00; -3.1017605E-04;  1.0000239E+03;  1.0000619E-01;  1.9752527E+01;3;  5.2623612E-01;  0.0000000E+00; -1.3100186E-02;0;  1.0458553E-02;  3.9997449E+04;  0.0000000E+00; -1.3234732E-01;  4.0000000E+04;  0.0000000E+00;  3.9999871E+04;  1.2989120E-02;  0.0000000E+00; -2.5305669E-03;  2.0283218E+02;
  5.1158315E-01;  9.9999998E-03;  1.0997535E-01;5598;  5.0778519E-03;  0.0000000E+00; -3.2468190E-04;  1.0000258E+03;  1.0000629E-01;  2.1332729E+01;3;  4.9521089E-01;  0.0000000E+00; -8.8843945E-03;0;  1.0194008E-02;  3.9998320E+04;  0.0000000E+00; -1.3574433E-01;  4.0000000E+04;  0.0000000E+00;  3.9998891E+04;  1.2658524E-02;  0.0000000E+00; -2.4645161E-03;  2.5597231E+02;
  5.1155692E-01;  9.9999998E-03;  1.1997419E-01;5599;  5.0024991E-03;  0.0000000E+00; -3.3519143E-04;  1.0000269E+03;  1.0000619E-01;  2.2221594E+01;3;  4.6905324E-01;  0.0000000E+00; -1.9294258E-03;0;  9.9402526E-03;  3.9999402E+04;  0.0000000E+00; -1.3112506E-01;  4.0000000E+04;  0.0000000E+00;  3.9998348E+04;  1.2338187E-02;  0.0000000E+00; -2.3979342E-03;  3.1668921E+02;
  5.1153296E-01;  9.9999998E-03;  1.2997343E-01;5600;  4.9392087E-03;  0.0000000E+00; -3.4602813E-04;  1.0000263E+03;  1.0000630E-01;  2.1826544E+01;3;  4.4773301E-01;  0.0000000E+00;  4.3255948E-03;0;  9.7231222E-03;  3.9999820E+04;  0.0000000E+00; -1.1805296E-01;  4.0000000E+04;  0.0000000E+00;  3.9997320E+04;  1.2054003E-02;  0.0000000E+00; -2.3308804E-03;  3.6612271E+02;
  5.1151353E-01;  9.9999998E-03;  1.3997288E-01;5601;  4.8967740E-03;  0.0000000E+00; -3.6005041E-04;  1.0000140E+03;  1.0000619E-01;  1.1555229E+01;3;  4.3243662E-01;  0.0000000E+00;  7.2123539E-03;0;  9.5711965E-03;  3.9999137E+04;  0.0000000E+00; -9.7173050E-02;  4.0000000E+04;  0.0000000E+00;  3.9996914E+04;  1.1832978E-02;  0.0000000E+00; -2.2617811E-03;  3.8787271E+02;
  5.1150048E-01;  9.9999998E-03;  1.4997275E-01;5602;  4.8781531E-03;  0.0000000E+00; -3.7879474E-04;  9.9998395E+02;  1.0000607E-01; -1.3283575E+01;3;  4.2509139E-01;  0.0000000E+00;  9.9854153E-03;0;  9.5129907E-03;  3.9996949E+04;  0.0000000E+00; -7.0378378E-02;  4.0000000E+04;  0.0000000E+00;  3.9997121E+04;  1.1701181E-02;  0.0000000E+00; -2.1881904E-03;  3.6799075E+02;
  5.1149446E-01;  9.9999998E-03;  1.5997334E-01;5603;  4.8858640E-03;  0.0000000E+00; -4.0345226E-04;  9.9993506E+02;  1.0000635E-01; -5.3825638E+01;3;  4.2297485E-01;  0.0000000E+00;  8.1851361E-03;0;  9.5734783E-03;  3.9992387E+04;  0.0000000E+00; -4.1060772E-02;  4.0000000E+04;  0.0000000E+00;  3.9997727E+04;  1.1681595E-02;  0.0000000E+00; -2.1081171E-03;  2.9502917E+02;
  5.1149511E-01;  9.9999998E-03;  1.6997497E-01;5604;  4.9170717E-03;  0.0000000E+00; -4.3155259E-04;  9.9985950E+02;  1.0000616E-01; -1.1639177E+02;3;  4.2750719E-01;  0.0000000E+00;  3.9771046E-03;0;  9.7701177E-03;  3.9985562E+04;  0.0000000E+00; -1.3731027E-02;  4.0000000E+04;  0.0000000E+00;  3.9998914E+04;  1.1791309E-02;  0.0000000E+00; -2.0211914E-03;  1.6147597E+02;
  5.1150143E-01;  9.9999998E-03;  1.7997798E-01;5605;  4.9852435E-03;  0.0000000E+00; -4.6227811E-04;  9.9976257E+02;  1.0000625E-01; -1.9668579E+02;3;  4.4427872E-01;  0.0000000E+00; -1.9396476E-04;0;  1.0108376E-02;  3.9976176E+04;  0.0000000E+00;  7.0377295E-03;  4.0000000E+04;  0.0000000E+00;  4.0000109E+04;  1.2038202E-02;  0.0000000E+00; -1.9298265E-03;  3.5996593E+01;
  5.1151371E-01;  9.9999998E-03;  1.8998243E-01;5606;  5.0904974E-03;  0.0000000E+00; -4.8753619E-04;  9.9963727E+02;  1.0000610E-01; -3.0053470E+02;3;  4.7357449E-01;  0.0000000E+00; -8.6600782E-04;0;  1.0581687E-02;  3.9964379E+04;  0.0000000E+00;  1.7738923E-02;  4.0000000E+04;  0.0000000E+00;  4.0002086E+04;  1.2419744E-02;  0.0000000E+00; -1.8380578E-03;  2.8636176E+02;
  5.1153147E-01;  9.9999998E-03;  1.9998850E-01;5607;  5.2419798E-03;  0.0000000E+00; -5.0214492E-04;  9.9948602E+02;  1.0000618E-01; -4.2581512E+02;3;  5.1115066E-01;  0.0000000E+00;  1.1332738E-03;0;  1.1175337E-02;  3.9950516E+04;  0.0000000E+00;  1.6659454E-02;  4.0000000E+04;  0.0000000E+00;  4.0004047E+04;  1.2922409E-02;  0.0000000E+00; -1.7470717E-03;  5.6692719E+02;
  5.1155293E-01;  9.9999998E-03;  2.0999588E-01;5608;  5.4361275E-03;  0.0000000E+00; -5.0512969E-04;  9.9932172E+02;  1.0000617E-01; -5.6195941E+02;3;  5.4943115E-01;  0.0000000E+00;  5.0651385E-03;0;  1.1873554E-02;  3.9935066E+04;  0.0000000E+00;  4.0069520E-03;  4.0000000E+04;  0.0000000E+00;  4.0006129E+04;  1.3523489E-02;  0.0000000E+00; -1.6499356E-03;  8.2686194E+02;
  5.1157469E-01;  9.9999998E-03;  2.2000071E-01;5609;  5.6545311E-03;  0.0000000E+00; -5.0868694E-04;  9.9913458E+02;  1.0000622E-01; -7.1696741E+02;3;  5.8704239E-01;  0.0000000E+00;  8.6567868E-03;0;  1.2645816E-02;  3.9918699E+04;  0.0000000E+00; -1.8317575E-02;  4.0000000E+04;  0.0000000E+00;  4.0007676E+04;  1.4193543E-02;  0.0000000E+00; -1.5477268E-03;  1.0495303E+03;
  5.1159537E-01;  9.9999998E-03;  2.3000012E-01;5610;  5.9027392E-03;  0.0000000E+00; -5.0821295E-04;  9.9895294E+02;  1.0000625E-01; -8.6748163E+02;3;  6.2468034E-01;  0.0000000E+00;  1.2349183E-02;0;  1.3478695E-02;  3.9902133E+04;  0.0000000E+00; -4.7021396E-02;  4.0000000E+04;  0.0000000E+00;  4.0009691E+04;  1.4899783E-02;  0.0000000E+00; -1.4210873E-03;  1.3056173E+03;
  5.2164716E-01;  9.9999998E-03;  6.9984272E-02;5655;  5.5420785E-03;  0.0000000E+00; -2.6201244E-04;  9.9999689E+02;  1.0001037E-01; -2.5678287E+00;3;  6.7468941E-01;  0.0000000E+00; -2.5624674E-02;0;  1.1868690E-02;  3.9988863E+04;  0.0000000E+00; -1.0738419E-01;  4.0000000E+04;  0.0000000E+00;  4.0001250E+04;  1.4705652E-02;  0.0000000E+00; -2.8369622E-03;  2.4168141E+02;
  5.2163786E-01;  9.9999998E-03;  7.9980366E-02;5656;  5.4880050E-03;  0.0000000E+00; -2.9484535E-04;  9.9998285E+02;  1.0001046E-01; -1.4221820E+01;3;  6.4929390E-01;  0.0000000E+00; -2.6690247E-02;0;  1.1727093E-02;  3.9988629E+04;  0.0000000E+00; -1.2697844E-01;  4.0000000E+04;  0.0000000E+00;  4.0000816E+04;  1.4510922E-02;  0.0000000E+00; -2.7838291E-03;  2.2426756E+02;
  5.2162373E-01;  9.9999998E-03;  8.9976490E-02;5657;  5.4035494E-03;  0.0000000E+00; -3.2084787E-04;  9.9997986E+02;  1.0001046E-01; -1.6690886E+01;3;  6.1788899E-01;  0.0000000E+00; -2.6402345E-02;0;  1.1556460E-02;  3.9988891E+04;  0.0000000E+00; -1.4167954E-01;  4.0000000E+04;  0.0000000E+00;  4.0000441E+04;  1.4280006E-02;  0.0000000E+00; -2.7235472E-03;  2.0895937E+02;
  5.2160519E-01;  9.9999998E-03;  9.9972971E-02;5658;  5.2941665E-03;  0.0000000E+00; -3.3949656E-04;  9.9998315E+02;  1.0001040E-01; -1.3974914E+01;3;  5.7661963E-01;  0.0000000E+00; -2.1193637E-02;0;  1.1362828E-02;  3.9989512E+04;  0.0000000E+00; -1.4936291E-01;  4.0000000E+04;  0.0000000E+00;  3.9999734E+04;  1.4021540E-02;  0.0000000E+00; -2.6587122E-03;  2.1850014E+02;
  5.2158284E-01;  9.9999998E-03;  1.0997014E-01;5659;  5.1835412E-03;  0.0000000E+00; -3.5329847E-04;  9.9998169E+02;  1.0001045E-01; -1.5160065E+01;3;  5.3390563E-01;  0.0000000E+00; -1.4622293E-02;0;  1.1157123E-02;  3.9990828E+04;  0.0000000E+00; -1.4836261E-01;  4.0000000E+04;  0.0000000E+00;  3.9999023E+04;  1.3748899E-02;  0.0000000E+00; -2.5917757E-03;  2.6248495E+02;
  5.2155882E-01;  9.9999998E-03;  1.1996818E-01;5660;  5.0830427E-03;  0.0000000E+00; -3.6492868E-04;  9.9998969E+02;  1.0001054E-01; -8.5429678E+00;3;  4.9829191E-01;  0.0000000E+00; -8.1100296E-03;0;  1.0956768E-02;  3.9991977E+04;  0.0000000E+00; -1.3775489E-01;  4.0000000E+04;  0.0000000E+00;  3.9998297E+04;  1.3480844E-02;  0.0000000E+00; -2.5240760E-03;  3.2395987E+02;
  5.2153558E-01;  9.9999998E-03;  1.2996708E-01;5661;  5.0048488E-03;  0.0000000E+00; -3.7834761E-04;  9.9998761E+02;  1.0001041E-01; -1.0271315E+01;3;  4.7163510E-01;  0.0000000E+00; -3.5260462E-03;0;  1.0784898E-02;  3.9992676E+04;  0.0000000E+00; -1.1763182E-01;  4.0000000E+04;  0.0000000E+00;  3.9997613E+04;  1.3240097E-02;  0.0000000E+00; -2.4551989E-03;  3.7814377E+02;
  5.2151531E-01;  9.9999998E-03;  1.3996685E-01;5662;  4.9504125E-03;  0.0000000E+00; -3.9676399E-04;  9.9997253E+02;  1.0001052E-01; -2.2764788E+01;3;  4.5337287E-01;  0.0000000E+00; -2.1471120E-05;0;  1.0668788E-02;  3.9992051E+04;  0.0000000E+00; -8.9277849E-02;  4.0000000E+04;  0.0000000E+00;  3.9997094E+04;  1.3051884E-02;  0.0000000E+00; -2.3830966E-03;  4.0369809E+02;
  5.2149993E-01;  9.9999998E-03;  1.4996752E-01;5663;  4.9258261E-03;  0.0000000E+00; -4.2048216E-04;  9.9994287E+02;  1.0001054E-01; -4.7307304E+01;3;  4.4445366E-01;  0.0000000E+00; -1.2834781E-04;0;  1.0636214E-02;  3.9989918E+04;  0.0000000E+00; -5.5228736E-02;  4.0000000E+04;  0.0000000E+00;  3.9996531E+04;  1.2941183E-02;  0.0000000E+00; -2.3049687E-03;  3.8360107E+02;
  5.2149051E-01;  9.9999998E-03;  1.5996914E-01;5664;  4.9302191E-03;  0.0000000E+00; -4.4991766E-04;  9.9989240E+02;  1.0001034E-01; -8.9133278E+01;3;  4.4761312E-01;  0.0000000E+00; -2.6254766E-03;0;  1.0712183E-02;  3.9985363E+04;  0.0000000E+00; -1.9534193E-02;  4.0000000E+04;  0.0000000E+00;  3.9997223E+04;  1.2931055E-02;  0.0000000E+00; -2.2188721E-03;  3.0519312E+02;
  5.2148700E-01;  9.9999998E-03;  1.6997169E-01;5665;  4.9622506E-03;  0.0000000E+00; -4.8264337E-04;  9.9981531E+02;  1.0001042E-01; -1.5303271E+02;3;  4.4920763E-01;  0.0000000E+00; -6.1810939E-03;0;  1.0913910E-02;  3.9978348E+04;  0.0000000E+00;  1.2596420E-02;  4.0000000E+04;  0.0000000E+00;  3.9998734E+04;  1.3039110E-02;  0.0000000E+00; -2.1252001E-03;  1.6260646E+02;
  5.2148944E-01;  9.9999998E-03;  1.7997535E-01;5666;  5.0294138E-03;  0.0000000E+00; -5.1783031E-04;  9.9971265E+02;  1.0001040E-01; -2.3806734E+02;3;  4.7003749E-01;  0.0000000E+00; -1.1359436E-02;0;  1.1246070E-02;  3.9968590E+04;  0.0000000E+00;  3.6086205E-02;  4.0000000E+04;  0.0000000E+00;  4.0000355E+04;  1.3273974E-02;  0.0000000E+00; -2.0279039E-03;  7.3923637E+01;
  5.2149832E-01;  9.9999998E-03;  1.8998007E-01;5667;  5.1318239E-03;  0.0000000E+00; -5.4913538E-04;  9.9958539E+02;  1.0001057E-01; -3.4349646E+02;3;  4.9050796E-01;  0.0000000E+00; -1.1915131E-02;0;  1.1699970E-02;  3.9956051E+04;  0.0000000E+00;  4.7218267E-02;  4.0000000E+04;  0.0000000E+00;  4.0002402E+04;  1.3633852E-02;  0.0000000E+00; -1.9338824E-03;  3.3188016E+02;
  5.2151275E-01;  9.9999998E-03;  1.9998559E-01;5668;  5.2814991E-03;  0.0000000E+00; -5.7106180E-04;  9.9943146E+02;  1.0001054E-01; -4.7104840E+02;3;  5.2345920E-01;  0.0000000E+00; -1.2252141E-02;0;  1.2256811E-02;  3.9941410E+04;  0.0000000E+00;  4.4248790E-02;  4.0000000E+04;  0.0000000E+00;  4.0004531E+04;  1.4105774E-02;  0.0000000E+00; -1.8489625E-03;  6.3579785E+02;
  5.2153128E-01;  9.9999998E-03;  2.0999123E-01;5669;  5.4743686E-03;  0.0000000E+00; -5.8178807E-04;  9.9925568E+02;  1.0001054E-01; -6.1667389E+02;3;  5.6147444E-01;  0.0000000E+00; -9.3689524E-03;0;  1.2895327E-02;  3.9925074E+04;  0.0000000E+00;  2.7404455E-02;  4.0000000E+04;  0.0000000E+00;  4.0006891E+04;  1.4668345E-02;  0.0000000E+00; -1.7730173E-03;  9.3810187E+02;
  5.2155119E-01;  9.9999998E-03;  2.1999474E-01;5670;  5.7068393E-03;  0.0000000E+00; -5.8140844E-04;  9.9906268E+02;  1.0001040E-01; -7.7657062E+02;3;  6.0035783E-01;  0.0000000E+00; -4.1510370E-03;0;  1.3599686E-02;  3.9907863E+04;  0.0000000E+00; -1.4928858E-03;  4.0000000E+04;  0.0000000E+00;  4.0008816E+04;  1.5294021E-02;  0.0000000E+00; -1.6943346E-03;  1.2219602E+03;
  5.2157027E-01;  9.9999998E-03;  2.2999501E-01;5671;  5.9725665E-03;  0.0000000E+00; -5.6809274E-04;  9.9887262E+02;  1.0001051E-01; -9.3399829E+02;3;  6.4250129E-01;  0.0000000E+00;  2.2449768E-03;0;  1.4377787E-02;  3.9890176E+04;  0.0000000E+00; -3.9295852E-02;  4.0000000E+04;  0.0000000E+00;  4.0011262E+04;  1.5953004E-02;  0.0000000E+00; -1.5752176E-03;  1.5105237E+03;
  5.3161728E-01;  9.9999998E-03;  6.9987766E-02;5716;  5.7971152E-03;  0.0000000E+00; -2.7594878E-04;  9.9994238E+02;  1.0001725E-01; -4.7751736E+01;3;  7.7058989E-01;  0.0000000E+00; -2.9155653E-02;0;  1.2312625E-02;  3.9978270E+04;  0.0000000E+00; -1.1249310E-01;  4.0000000E+04;  0.0000000E+00;  4.0001387E+04;  1.5276811E-02;  0.0000000E+00; -2.9641867E-03;  2.5189586E+02;
  5.3161132E-01;  9.9999998E-03;  7.9984307E-02;5717;  5.7053957E-03;  0.0000000E+00; -3.0905433E-04;  9.9993768E+02;  1.0001741E-01; -5.1652859E+01;3;  7.3231053E-01;  0.0000000E+00; -2.8923906E-02;0;  1.2259191E-02;  3.9978766E+04;  0.0000000E+00; -1.3055246E-01;  4.0000000E+04;  0.0000000E+00;  4.0000711E+04;  1.5169317E-02;  0.0000000E+00; -2.9101258E-03;  2.3186655E+02;
  5.3160113E-01;  9.9999998E-03;  8.9980602E-02;5718;  5.5858786E-03;  0.0000000E+00; -3.3708662E-04;  9.9994312E+02;  1.0001743E-01; -4.7109779E+01;3;  6.8418294E-01;  0.0000000E+00; -2.8330443E-02;0;  1.2182251E-02;  3.9979617E+04;  0.0000000E+00; -1.4249730E-01;  4.0000000E+04;  0.0000000E+00;  4.0000035E+04;  1.5031443E-02;  0.0000000E+00; -2.8491928E-03;  2.1059645E+02;
  5.3158683E-01;  9.9999998E-03;  9.9976927E-02;5719;  5.4488806E-03;  0.0000000E+00; -3.5795185E-04;  9.9995056E+02;  1.0001730E-01; -4.0937115E+01;3;  6.3104600E-01;  0.0000000E+00; -2.2949552E-02;0;  1.2083394E-02;  3.9981148E+04;  0.0000000E+00; -1.4635022E-01;  4.0000000E+04;  0.0000000E+00;  3.9999348E+04;  1.4867156E-02;  0.0000000E+00; -2.7837618E-03;  2.1494499E+02;
  5.3156847E-01;  9.9999998E-03;  1.0997386E-01;5720;  5.3107468E-03;  0.0000000E+00; -3.7429729E-04;  9.9996210E+02;  1.0001743E-01; -3.1406519E+01;3;  5.7836407E-01;  0.0000000E+00; -1.6464598E-02;0;  1.1969280E-02;  3.9983070E+04;  0.0000000E+00; -1.4080667E-01;  4.0000000E+04;  0.0000000E+00;  3.9998547E+04;  1.4685257E-02;  0.0000000E+00; -2.7159767E-03;  2.5903955E+02;
  5.3154749E-01;  9.9999998E-03;  1.1997174E-01;5721;  5.1889401E-03;  0.0000000E+00; -3.8994759E-04;  9.9997284E+02;  1.0001743E-01; -2.2517881E+01;3;  5.3341419E-01;  0.0000000E+00; -1.1638638E-02;0;  1.1853365E-02;  3.9984723E+04;  0.0000000E+00; -1.2545031E-01;  4.0000000E+04;  0.0000000E+00;  3.9997863E+04;  1.4500135E-02;  0.0000000E+00; -2.6467696E-03;  3.2389294E+02;
  5.3152579E-01;  9.9999998E-03;  1.2997070E-01;5722;  5.0906939E-03;  0.0000000E+00; -4.0812770E-04;  9.9997479E+02;  1.0001732E-01; -2.0888298E+01;3;  5.0087851E-01;  0.0000000E+00; -7.4304598E-03;0;  1.1756317E-02;  3.9985516E+04;  0.0000000E+00; -1.0091837E-01;  4.0000000E+04;  0.0000000E+00;  3.9997125E+04;  1.4331659E-02;  0.0000000E+00; -2.5753428E-03;  3.8066501E+02;
  5.3150535E-01;  9.9999998E-03;  1.3997075E-01;5723;  5.0249421E-03;  0.0000000E+00; -4.3151705E-04;  9.9996539E+02;  1.0001726E-01; -2.8690546E+01;3;  4.7824380E-01;  0.0000000E+00; -5.6585753E-03;0;  1.1703677E-02;  3.9985289E+04;  0.0000000E+00; -6.8990350E-02;  4.0000000E+04;  0.0000000E+00;  3.9996969E+04;  1.4203022E-02;  0.0000000E+00; -2.4993457E-03;  4.0534515E+02;
  5.3148788E-01;  9.9999998E-03;  1.4997205E-01;5724;  4.9888645E-03;  0.0000000E+00; -4.6097525E-04;  9.9993860E+02;  1.0001729E-01; -5.0862759E+01;3;  4.6688965E-01;  0.0000000E+00; -6.0748025E-03;0;  1.1723263E-02;  3.9983105E+04;  0.0000000E+00; -3.2517001E-02;  4.0000000E+04;  0.0000000E+00;  3.9996723E+04;  1.4139123E-02;  0.0000000E+00; -2.4158598E-03;  3.7957294E+02;
  5.3147483E-01;  9.9999998E-03;  1.5997458E-01;5725;  4.9864068E-03;  0.0000000E+00; -4.9539399E-04;  9.9988635E+02;  1.0001763E-01; -9.4170174E+01;3;  4.6742857E-01;  0.0000000E+00; -1.1508325E-02;0;  1.1839978E-02;  3.9978500E+04;  0.0000000E+00;  4.3315380E-03;  4.0000000E+04;  0.0000000E+00;  3.9997258E+04;  1.4163225E-02;  0.0000000E+00; -2.3232468E-03;  2.9149857E+02;
  5.3146726E-01;  9.9999998E-03;  1.6997801E-01;5726;  5.0141397E-03;  0.0000000E+00; -5.3292135E-04;  9.9980902E+02;  1.0001736E-01; -1.5821774E+02;3;  4.7485366E-01;  0.0000000E+00; -1.4682767E-02;0;  1.2071124E-02;  3.9971164E+04;  0.0000000E+00;  3.6310419E-02;  4.0000000E+04;  0.0000000E+00;  3.9998672E+04;  1.4294025E-02;  0.0000000E+00; -2.2229014E-03;  1.4253300E+02;
  5.3146583E-01;  9.9999998E-03;  1.7998211E-01;5727;  5.0794710E-03;  0.0000000E+00; -5.7256478E-04;  9.9969928E+02;  1.0001744E-01; -2.4912875E+02;3;  4.8821899E-01;  0.0000000E+00; -1.9083219E-02;0;  1.2420383E-02;  3.9960660E+04;  0.0000000E+00;  5.8412004E-02;  4.0000000E+04;  0.0000000E+00;  4.0000734E+04;  1.4540897E-02;  0.0000000E+00; -2.1205137E-03;  1.2669300E+02;
  5.3147107E-01;  9.9999998E-03;  1.8998659E-01;5728;  5.1799780E-03;  0.0000000E+00; -6.0926273E-04;  9.9956079E+02;  1.0001754E-01; -3.6389093E+02;3;  5.1104587E-01;  0.0000000E+00; -2.1685397E-02;0;  1.2877211E-02;  3.9947496E+04;  0.0000000E+00;  6.7076638E-02;  4.0000000E+04;  0.0000000E+00;  4.0002551E+04;  1.4902940E-02;  0.0000000E+00; -2.0257288E-03;  3.8850287E+02;
  5.3148264E-01;  9.9999998E-03;  1.9999081E-01;5729;  5.3232075E-03;  0.0000000E+00; -6.3910242E-04;  9.9939325E+02;  1.0001753E-01; -5.0270184E+02;3;  5.4245341E-01;  0.0000000E+00; -2.2869702E-02;0;  1.3418498E-02;  3.9932184E+04;  0.0000000E+00;  6.0647745E-02;  4.0000000E+04;  0.0000000E+00;  4.0004992E+04;  1.5368119E-02;  0.0000000E+00; -1.9496201E-03;  6.9230444E+02;
  5.3149951E-01;  9.9999998E-03;  2.0999342E-01;5730;  5.5098403E-03;  0.0000000E+00; -6.5803778E-04;  9.9920502E+02;  1.0001735E-01; -6.5864801E+02;3;  5.7454348E-01;  0.0000000E+00; -1.9935669E-02;0;  1.4017703E-02;  3.9914605E+04;  0.0000000E+00;  3.9246138E-02;  4.0000000E+04;  0.0000000E+00;  4.0007137E+04;  1.5916197E-02;  0.0000000E+00; -1.8984932E-03;  1.0068405E+03;
  5.3152013E-01;  9.9999998E-03;  2.1999322E-01;5731;  5.7395073E-03;  0.0000000E+00; -6.6176982E-04;  9.9900488E+02;  1.0001730E-01; -8.2442114E+02;3;  6.1603671E-01;  0.0000000E+00; -1.5479634E-02;0;  1.4659909E-02;  3.9896477E+04;  0.0000000E+00;  4.3628672E-03;  4.0000000E+04;  0.0000000E+00;  4.0009941E+04;  1.6521895E-02;  0.0000000E+00; -1.8619871E-03;  1.3378198E+03;
  5.3154242E-01;  9.9999998E-03;  2.2999179E-01;5732;  6.0147340E-03;  0.0000000E+00; -6.4232724E-04;  9.9880292E+02;  1.0001736E-01; -9.9177441E+02;3;  6.5756011E-01;  0.0000000E+00; -8.5789524E-03;0;  1.5375992E-02;  3.9877508E+04;  0.0000000E+00; -4.1321505E-02;  4.0000000E+04;  0.0000000E+00;  4.0012398E+04;  1.7158473E-02;  0.0000000E+00; -1.7824806E-03;  1.6774116E+03;
  5.4157996E-01;  9.9999998E-03;  6.9996111E-02;5777;  6.0208486E-03;  0.0000000E+00; -2.6748370E-04;  9.9990790E+02;  1.0002947E-01; -7.6294136E+01;3;  8.5631740E-01;  0.0000000E+00; -2.4097759E-02;0;  1.2516541E-02;  3.9965461E+04;  0.0000000E+00; -9.9622257E-02;  4.0000000E+04;  0.0000000E+00;  4.0001008E+04;  1.5602360E-02;  0.0000000E+00; -3.0858193E-03;  2.1663068E+02;
  5.4157817E-01;  9.9999998E-03;  7.9993598E-02;5778;  5.9175724E-03;  0.0000000E+00; -3.0433730E-04;  9.9992102E+02;  1.0002926E-01; -6.5430244E+01;3;  8.1377721E-01;  0.0000000E+00; -2.5063310E-02;0;  1.2572054E-02;  3.9966734E+04;  0.0000000E+00; -1.1294648E-01;  4.0000000E+04;  0.0000000E+00;  4.0000559E+04;  1.5603469E-02;  0.0000000E+00; -3.0314147E-03;  1.9342352E+02;
  5.4157251E-01;  9.9999998E-03;  8.9990661E-02;5779;  5.7874685E-03;  0.0000000E+00; -3.3621269E-04;  9.9993726E+02;  1.0002936E-01; -5.1998528E+01;3;  7.6085389E-01;  0.0000000E+00; -2.2787299E-02;0;  1.2609184E-02;  3.9969133E+04;  0.0000000E+00; -1.1987190E-01;  4.0000000E+04;  0.0000000E+00;  4.0000012E+04;  1.5579402E-02;  0.0000000E+00; -2.9702173E-03;  1.7271486E+02;
  5.4156286E-01;  9.9999998E-03;  9.9987634E-02;5780;  5.6367009E-03;  0.0000000E+00; -3.6326531E-04;  9.9995898E+02;  1.0002934E-01; -3.3974346E+01;3;  7.0125538E-01;  0.0000000E+00; -1.9671796E-02;0;  1.2625597E-02;  3.9971559E+04;  0.0000000E+00; -1.1896443E-01;  4.0000000E+04;  0.0000000E+00;  3.9998848E+04;  1.5529850E-02;  0.0000000E+00; -2.9042531E-03;  1.8750848E+02;
  5.4154903E-01;  9.9999998E-03;  1.0998492E-01;5781;  5.4781865E-03;  0.0000000E+00; -3.8634508E-04;  9.9998517E+02;  1.0002936E-01; -1.2295949E+01;3;  6.3588929E-01;  0.0000000E+00; -1.4587167E-02;0;  1.2624217E-02;  3.9974555E+04;  0.0000000E+00; -1.0956676E-01;  4.0000000E+04;  0.0000000E+00;  3.9998191E+04;  1.5459443E-02;  0.0000000E+00; -2.8352251E-03;  2.4544452E+02;
  5.4153138E-01;  9.9999998E-03;  1.1998288E-01;5782;  5.3342762E-03;  0.0000000E+00; -4.0759839E-04;  1.0000042E+03;  1.0002952E-01;  3.4566925E+00;3;  5.8297163E-01;  0.0000000E+00; -9.4124442E-03;0;  1.2614419E-02;  3.9977344E+04;  0.0000000E+00; -9.1878131E-02;  4.0000000E+04;  0.0000000E+00;  3.9997453E+04;  1.5378093E-02;  0.0000000E+00; -2.7636746E-03;  3.1793564E+02;
  5.4151142E-01;  9.9999998E-03;  1.2998192E-01;5783;  5.2171238E-03;  0.0000000E+00; -4.3164185E-04;  1.0000154E+03;  1.0002955E-01;  1.2839143E+01;3;  5.4085201E-01;  0.0000000E+00; -8.2866261E-03;0;  1.2613855E-02;  3.9978668E+04;  0.0000000E+00; -6.6993527E-02;  4.0000000E+04;  0.0000000E+00;  3.9997051E+04;  1.5302393E-02;  0.0000000E+00; -2.6885371E-03;  3.7517612E+02;
  5.4149073E-01;  9.9999998E-03;  1.3998225E-01;5784;  5.1306556E-03;  0.0000000E+00; -4.6106777E-04;  1.0000152E+03;  1.0002943E-01;  1.2542855E+01;3;  5.1301819E-01;  0.0000000E+00; -7.6644504E-03;0;  1.2647059E-02;  3.9978773E+04;  0.0000000E+00; -3.6833126E-02;  4.0000000E+04;  0.0000000E+00;  3.9996891E+04;  1.5254447E-02;  0.0000000E+00; -2.6073882E-03;  3.9410544E+02;
  5.4147124E-01;  9.9999998E-03;  1.4998409E-01;5785;  5.0817044E-03;  0.0000000E+00; -4.9503584E-04;  9.9998572E+02;  1.0002962E-01; -1.1851517E+01;3;  4.9865085E-01;  0.0000000E+00; -9.9275894E-03;0;  1.2741008E-02;  3.9976547E+04;  0.0000000E+00; -4.0054033E-03;  4.0000000E+04;  0.0000000E+00;  3.9996910E+04;  1.5258486E-02;  0.0000000E+00; -2.5174785E-03;  3.5747375E+02;
  5.4145461E-01;  9.9999998E-03;  1.5998733E-01;5786;  5.0672605E-03;  0.0000000E+00; -5.3590571E-04;  9.9993457E+02;  1.0002933E-01; -5.4220688E+01;3;  4.9498343E-01;  0.0000000E+00; -1.5266589E-02;0;  1.2921164E-02;  3.9971770E+04;  0.0000000E+00;  2.7925070E-02;  4.0000000E+04;  0.0000000E+00;  3.9997547E+04;  1.5338860E-02;  0.0000000E+00; -2.4176955E-03;  2.5651721E+02;
  5.4144287E-01;  9.9999998E-03;  1.6999145E-01;5787;  5.0885384E-03;  0.0000000E+00; -5.7688431E-04;  9.9985211E+02;  1.0002951E-01; -1.2251505E+02;3;  5.0054252E-01;  0.0000000E+00; -1.9211469E-02;0;  1.3204420E-02;  3.9964055E+04;  0.0000000E+00;  5.4499101E-02;  4.0000000E+04;  0.0000000E+00;  3.9998801E+04;  1.5514937E-02;  0.0000000E+00; -2.3105168E-03;  1.0988875E+02;
  5.4143745E-01;  9.9999998E-03;  1.7999603E-01;5788;  5.1488667E-03;  0.0000000E+00; -6.2043598E-04;  9.9973895E+02;  1.0002954E-01; -2.1629018E+02;3;  5.1345873E-01;  0.0000000E+00; -2.4599310E-02;0;  1.3593867E-02;  3.9953113E+04;  0.0000000E+00;  7.1385473E-02;  4.0000000E+04;  0.0000000E+00;  4.0000930E+04;  1.5797237E-02;  0.0000000E+00; -2.2033700E-03;  1.8723456E+02;
  5.4144001E-01;  9.9999998E-03;  1.9000036E-01;5789;  5.2469713E-03;  0.0000000E+00; -6.6152128E-04;  9.9958966E+02;  1.0002946E-01; -3.3994101E+02;3;  5.3328145E-01;  0.0000000E+00; -2.8393563E-02;0;  1.4077554E-02;  3.9939383E+04;  0.0000000E+00;  7.5396135E-02;  4.0000000E+04;  0.0000000E+00;  4.0003105E+04;  1.6185889E-02;  0.0000000E+00; -2.1083343E-03;  4.4439850E+02;
  5.4145110E-01;  9.9999998E-03;  2.0000327E-01;5790;  5.3882520E-03;  0.0000000E+00; -6.9479737E-04;  9.9941144E+02;  1.0002949E-01; -4.8759116E+02;3;  5.6263047E-01;  0.0000000E+00; -2.8125180E-02;0;  1.4630967E-02;  3.9922977E+04;  0.0000000E+00;  6.4819567E-02;  4.0000000E+04;  0.0000000E+00;  4.0005098E+04;  1.6669963E-02;  0.0000000E+00; -2.0389960E-03;  7.2206934E+02;
  5.4147023E-01;  9.9999998E-03;  2.1000257E-01;5791;  5.5682012E-03;  0.0000000E+00; -7.2087720E-04;  9.9920935E+02;  1.0002949E-01; -6.5504321E+02;3;  5.9586823E-01;  0.0000000E+00; -2.7308747E-02;0;  1.5221807E-02;  3.9904812E+04;  0.0000000E+00;  3.9340936E-02;  4.0000000E+04;  0.0000000E+00;  4.0006984E+04;  1.7231172E-02;  0.0000000E+00; -2.0093645E-03;  1.0090464E+03;
  5.4149616E-01;  9.9999998E-03;  2.1999721E-01;5792;  5.7917791E-03;  0.0000000E+00; -7.3179381E-04;  9.9899707E+02;  1.0002942E-01; -8.3089008E+02;3;  6.3253528E-01;  0.0000000E+00; -2.2587709E-02;0;  1.5830956E-02;  3.9885430E+04;  0.0000000E+00; -1.7381946E-04;  4.0000000E+04;  0.0000000E+00;  4.0009605E+04;  1.7846145E-02;  0.0000000E+00; -2.0151879E-03;  1.3523282E+03;
  5.4152697E-01;  9.9999998E-03;  2.2999209E-01;5793;  6.0636280E-03;  0.0000000E+00; -7.1256666E-04;  9.9878571E+02;  1.0002951E-01; -1.0059962E+03;3;  6.7309284E-01;  0.0000000E+00; -1.5912557E-02;0;  1.6503887E-02;  3.9865676E+04;  0.0000000E+00; -5.1737640E-02;  4.0000000E+04;  0.0000000E+00;  4.0012516E+04;  1.8491082E-02;  0.0000000E+00; -1.9871942E-03;  1.7315203E+03;
  5.5155277E-01;  9.9999998E-03;  7.0005536E-02;5838;  6.2056412E-03;  0.0000000E+00; -2.4663878E-04;  9.9989691E+02;  1.0004856E-01; -8.5429680E+01;3;  9.2730874E-01;  0.0000000E+00; -1.2320207E-02;0;  1.2571391E-02;  3.9949250E+04;  0.0000000E+00; -6.6858627E-02;  4.0000000E+04;  0.0000000E+00;  4.0000391E+04;  1.5773872E-02;  0.0000000E+00; -3.2024814E-03;  1.4140457E+02;
  5.5155557E-01;  9.9999998E-03;  8.0004364E-02;5839;  6.1237877E-03;  0.0000000E+00; -2.8614330E-04;  9.9993158E+02;  1.0004842E-01; -5.6689754E+01;3;  8.9016211E-01;  0.0000000E+00; -1.4486509E-02;0;  1.2734295E-02;  3.9952246E+04;  0.0000000E+00; -7.2332218E-02;  4.0000000E+04;  0.0000000E+00;  3.9999914E+04;  1.5882159E-02;  0.0000000E+00; -3.1478638E-03;  1.1389836E+02;
  5.5155379E-01;  9.9999998E-03;  9.0002641E-02;5840;  6.0116942E-03;  0.0000000E+00; -3.2406798E-04;  9.9996753E+02;  1.0004833E-01; -2.6912819E+01;3;  8.4193856E-01;  0.0000000E+00; -1.4845522E-02;0;  1.2883612E-02;  3.9956156E+04;  0.0000000E+00; -7.2303042E-02;  4.0000000E+04;  0.0000000E+00;  3.9999105E+04;  1.5969926E-02;  0.0000000E+00; -3.0863145E-03;  1.0774483E+02;
  5.5154741E-01;  9.9999998E-03;  1.0000055E-01;5841;  5.8715343E-03;  0.0000000E+00; -3.5831757E-04;  1.0000120E+03;  1.0004845E-01;  9.9750261E+00;3;  7.8470427E-01;  0.0000000E+00; -1.2949982E-02;0;  1.3014673E-02;  3.9960109E+04;  0.0000000E+00; -6.6272691E-02;  4.0000000E+04;  0.0000000E+00;  3.9998629E+04;  1.6034069E-02;  0.0000000E+00; -3.0193953E-03;  1.5822141E+02;
  5.5153614E-01;  9.9999998E-03;  1.0999831E-01;5842;  5.7134209E-03;  0.0000000E+00; -3.8811270E-04;  1.0000558E+03;  1.0004858E-01;  4.6220917E+01;3;  7.2372311E-01;  0.0000000E+00; -9.3236398E-03;0;  1.3127756E-02;  3.9964406E+04;  0.0000000E+00; -5.4455731E-02;  4.0000000E+04;  0.0000000E+00;  3.9997977E+04;  1.6076069E-02;  0.0000000E+00; -2.9483133E-03;  2.3862328E+02;
  5.5152023E-01;  9.9999998E-03;  1.1999656E-01;5843;  5.5515431E-03;  0.0000000E+00; -4.1732940E-04;  1.0000840E+03;  1.0004846E-01;  6.9627663E+01;3;  6.5783256E-01;  0.0000000E+00; -6.2887641E-03;0;  1.3230064E-02;  3.9967852E+04;  0.0000000E+00; -3.7677277E-02;  4.0000000E+04;  0.0000000E+00;  3.9996773E+04;  1.6103309E-02;  0.0000000E+00; -2.8732449E-03;  3.1625162E+02;
  5.5150104E-01;  9.9999998E-03;  1.2999581E-01;5844;  5.4058917E-03;  0.0000000E+00; -4.4738050E-04;  1.0001045E+03;  1.0004845E-01;  8.6614838E+01;3;  6.0478526E-01;  0.0000000E+00; -4.0358859E-03;0;  1.3336165E-02;  3.9970359E+04;  0.0000000E+00; -1.7237676E-02;  4.0000000E+04;  0.0000000E+00;  3.9996820E+04;  1.6129196E-02;  0.0000000E+00; -2.7930308E-03;  3.6812921E+02;
  5.5147970E-01;  9.9999998E-03;  1.3999651E-01;5845;  5.2968943E-03;  0.0000000E+00; -4.8025811E-04;  1.0001181E+03;  1.0004857E-01;  9.7873772E+01;3;  5.6717420E-01;  0.0000000E+00; -4.9190023E-03;0;  1.3467171E-02;  3.9970949E+04;  0.0000000E+00;  5.2957274E-03;  4.0000000E+04;  0.0000000E+00;  3.9996926E+04;  1.6172547E-02;  0.0000000E+00; -2.7053759E-03;  3.7525607E+02;
  5.5145866E-01;  9.9999998E-03;  1.4999887E-01;5846;  5.2232784E-03;  0.0000000E+00; -5.2072637E-04;  1.0000946E+03;  1.0004828E-01;  7.8417534E+01;3;  5.4323572E-01;  0.0000000E+00; -9.4453450E-03;0;  1.3650362E-02;  3.9969125E+04;  0.0000000E+00;  2.8237285E-02;  4.0000000E+04;  0.0000000E+00;  3.9997305E+04;  1.6258288E-02;  0.0000000E+00; -2.6079258E-03;  3.2303821E+02;
  5.5143970E-01;  9.9999998E-03;  1.6000278E-01;5847;  5.1935716E-03;  0.0000000E+00; -5.6454819E-04;  1.0000447E+03;  1.0004862E-01;  3.7035988E+01;3;  5.3503913E-01;  0.0000000E+00; -1.4687366E-02;0;  1.3909771E-02;  3.9964289E+04;  0.0000000E+00;  4.9408752E-02;  4.0000000E+04;  0.0000000E+00;  3.9997961E+04;  1.6410010E-02;  0.0000000E+00; -2.5002391E-03;  2.0834718E+02;
  5.5142522E-01;  9.9999998E-03;  1.7000769E-01;5848;  5.2052918E-03;  0.0000000E+00; -6.0928898E-04;  9.9996161E+02;  1.0004863E-01; -3.1801569E+01;3;  5.3726774E-01;  0.0000000E+00; -2.0624561E-02;0;  1.4262260E-02;  3.9956129E+04;  0.0000000E+00;  6.5914094E-02;  4.0000000E+04;  0.0000000E+00;  3.9999207E+04;  1.6648099E-02;  0.0000000E+00; -2.3858391E-03;  9.2823677E+01;
  5.5141813E-01;  9.9999998E-03;  1.8001297E-01;5849;  5.2555758E-03;  0.0000000E+00; -6.5574341E-04;  9.9984113E+02;  1.0004853E-01; -1.3160121E+02;3;  5.4522592E-01;  0.0000000E+00; -2.5914643E-02;0;  1.4711082E-02;  3.9944984E+04;  0.0000000E+00;  7.4598730E-02;  4.0000000E+04;  0.0000000E+00;  4.0001469E+04;  1.6984662E-02;  0.0000000E+00; -2.2735803E-03;  2.5143204E+02;
  5.5142087E-01;  9.9999998E-03;  1.9001763E-01;5850;  5.3519285E-03;  0.0000000E+00; -6.9805764E-04;  9.9968970E+02;  1.0004846E-01; -2.5707916E+02;3;  5.6604600E-01;  0.0000000E+00; -2.8318690E-02;0;  1.5243194E-02;  3.9930883E+04;  0.0000000E+00;  7.2686851E-02;  4.0000000E+04;  0.0000000E+00;  4.0003359E+04;  1.7420085E-02;  0.0000000E+00; -2.1768913E-03;  4.9037747E+02;
  5.5143487E-01;  9.9999998E-03;  2.0001985E-01;5851;  5.4913256E-03;  0.0000000E+00; -7.3214673E-04;  9.9949792E+02;  1.0004871E-01; -4.1593884E+02;3;  5.9334987E-01;  0.0000000E+00; -2.8997444E-02;0;  1.5835019E-02;  3.9913898E+04;  0.0000000E+00;  5.8105804E-02;  4.0000000E+04;  0.0000000E+00;  4.0004898E+04;  1.7945657E-02;  0.0000000E+00; -2.1106382E-03;  7.1801788E+02;
  5.5146027E-01;  9.9999998E-03;  2.1001624E-01;5852;  5.6690187E-03;  0.0000000E+00; -7.6073088E-04;  9.9928552E+02;  1.0004868E-01; -5.9193390E+02;3;  6.2206829E-01;  0.0000000E+00; -2.8117828E-02;0;  1.6453112E-02;  3.9895176E+04;  0.0000000E+00;  2.9715087E-02;  4.0000000E+04;  0.0000000E+00;  4.0006664E+04;  1.8545086E-02;  0.0000000E+00; -2.0919747E-03;  9.4095795E+02;
  5.5149567E-01;  9.9999998E-03;  2.2000578E-01;5853;  5.8841608E-03;  0.0000000E+00; -7.7817438E-04;  9.9906360E+02;  1.0004873E-01; -7.7578052E+02;3;  6.5601468E-01;  0.0000000E+00; -2.5893442E-02;0;  1.7071774E-02;  3.9875246E+04;  0.0000000E+00; -1.2604178E-02;  4.0000000E+04;  0.0000000E+00;  4.0008988E+04;  1.9197447E-02;  0.0000000E+00; -2.1256732E-03;  1.2493014E+03;
  5.5153924E-01;  9.9999998E-03;  2.2999598E-01;5854;  6.1408454E-03;  0.0000000E+00; -7.6784077E-04;  9.9884283E+02;  1.0004845E-01; -9.5868896E+02;3;  6.9175005E-01;  0.0000000E+00; -2.0785876E-02;0;  1.7728133E-02;  3.9854805E+04;  0.0000000E+00; -6.7827344E-02;  4.0000000E+04;  0.0000000E+00;  4.0011746E+04;  1.9881645E-02;  0.0000000E+00; -2.1535116E-03;  1.6363118E+03;
  5.6155962E-01;  9.9999998E-03;  7.0010386E-02;5899;  6.3404785E-03;  0.0000000E+00; -2.2694240E-04;  9.9992975E+02;  1.0007960E-01; -5.8220577E+01;3;  9.7802770E-01;  0.0000000E+00;  4.5908280E-03;0;  1.2595441E-02;  3.9927156E+04;  0.0000000E+00; -1.6043117E-02;  4.0000000E+04;  0.0000000E+00;  3.9999785E+04;  1.5911484E-02;  0.0000000E+00; -3.3160429E-03;  3.9057621E+01;
  5.6156445E-01;  9.9999998E-03;  8.0010399E-02;5900;  6.3054794E-03;  0.0000000E+00; -2.6366874E-04;  9.9998566E+02;  1.0007960E-01; -1.1900898E+01;3;  9.5936131E-01;  0.0000000E+00;  1.3904492E-03;0;  1.2840962E-02;  3.9932059E+04;  0.0000000E+00; -1.1299291E-02;  4.0000000E+04;  0.0000000E+00;  3.9999500E+04;  1.6101757E-02;  0.0000000E+00; -3.2607955E-03;  2.7556894E+01;
  5.6156373E-01;  9.9999998E-03;  9.0009861E-02;5901;  6.2419870E-03;  0.0000000E+00; -3.0359684E-04;  1.0000444E+03;  1.0007951E-01;  3.6739700E+01;3;  9.2166418E-01;  0.0000000E+00; -2.5661690E-03;0;  1.3075773E-02;  3.9937336E+04;  0.0000000E+00; -3.2125986E-03;  4.0000000E+04;  0.0000000E+00;  3.9998809E+04;  1.6274067E-02;  0.0000000E+00; -3.1982940E-03;  9.6215302E+01;
  5.6155747E-01;  9.9999998E-03;  1.0000883E-01;5902;  6.1431983E-03;  0.0000000E+00; -3.4361822E-04;  1.0001065E+03;  1.0007958E-01;  8.8195038E+01;3;  8.7716115E-01;  0.0000000E+00; -2.3732996E-03;0;  1.3295768E-02;  3.9942914E+04;  0.0000000E+00;  7.5143119E-03;  4.0000000E+04;  0.0000000E+00;  3.9998102E+04;  1.6425334E-02;  0.0000000E+00; -3.1295656E-03;  1.8068813E+02;
  5.6154585E-01;  9.9999998E-03;  1.1000746E-01;5903;  6.0115969E-03;  0.0000000E+00; -3.8208833E-04;  1.0001662E+03;  1.0007960E-01;  1.3767513E+02;3;  8.2271081E-01;  0.0000000E+00; -9.3738636E-04;0;  1.3501471E-02;  3.9948465E+04;  0.0000000E+00;  1.9706760E-02;  4.0000000E+04;  0.0000000E+00;  3.9997148E+04;  1.6556805E-02;  0.0000000E+00; -3.0553343E-03;  2.6470230E+02;
  5.6152934E-01;  9.9999998E-03;  1.2000632E-01;5904;  5.8575361E-03;  0.0000000E+00; -4.1699345E-04;  1.0002163E+03;  1.0007966E-01;  1.7925420E+02;3;  7.6062375E-01;  0.0000000E+00;  2.7319582E-04;0;  1.3699645E-02;  3.9953070E+04;  0.0000000E+00;  3.2038890E-02;  4.0000000E+04;  0.0000000E+00;  3.9996934E+04;  1.6675161E-02;  0.0000000E+00; -2.9755160E-03;  3.3292462E+02;
  5.6150877E-01;  9.9999998E-03;  1.3000602E-01;5905;  5.7014260E-03;  0.0000000E+00; -4.5114840E-04;  1.0002541E+03;  1.0007964E-01;  2.1046318E+02;3;  7.0053637E-01;  0.0000000E+00;  2.6264389E-03;0;  1.3902839E-02;  3.9956102E+04;  0.0000000E+00;  4.3380991E-02;  4.0000000E+04;  0.0000000E+00;  3.9996852E+04;  1.6791770E-02;  0.0000000E+00; -2.8889310E-03;  3.6868521E+02;
  5.6148541E-01;  9.9999998E-03;  1.4000724E-01;5906;  5.5575655E-03;  0.0000000E+00; -4.8880157E-04;  1.0002665E+03;  1.0007980E-01;  2.2073450E+02;3;  6.4764333E-01;  0.0000000E+00;  1.6957551E-03;0;  1.4131265E-02;  3.9957262E+04;  0.0000000E+00;  5.3100396E-02;  4.0000000E+04;  0.0000000E+00;  3.9996422E+04;  1.6924867E-02;  0.0000000E+00; -2.7936024E-03;  3.5634998E+02;
  5.6146181E-01;  9.9999998E-03;  1.5001045E-01;5907;  5.4525929E-03;  0.0000000E+00; -5.3021219E-04;  1.0002508E+03;  1.0007989E-01;  2.0779659E+02;3;  6.1184376E-01;  0.0000000E+00; -2.0393918E-03;0;  1.4406664E-02;  3.9955730E+04;  0.0000000E+00;  6.1099757E-02;  4.0000000E+04;  0.0000000E+00;  3.9997484E+04;  1.7094377E-02;  0.0000000E+00; -2.6877129E-03;  2.8490448E+02;
  5.6144112E-01;  9.9999998E-03;  1.6001545E-01;5908;  5.3951116E-03;  0.0000000E+00; -5.7471811E-04;  1.0002081E+03;  1.0007964E-01;  1.7243956E+02;3;  5.9093517E-01;  0.0000000E+00; -8.2806200E-03;0;  1.4752009E-02;  3.9950922E+04;  0.0000000E+00;  6.7205906E-02;  4.0000000E+04;  0.0000000E+00;  3.9998715E+04;  1.7323472E-02;  0.0000000E+00; -2.5714627E-03;  1.5999400E+02;
  5.6142735E-01;  9.9999998E-03;  1.7002155E-01;5909;  5.3867181E-03;  0.0000000E+00; -6.2488054E-04;  1.0001255E+03;  1.0007987E-01;  1.0399706E+02;3;  5.8426291E-01;  0.0000000E+00; -1.5621550E-02;0;  1.5182995E-02;  3.9943141E+04;  0.0000000E+00;  7.0561327E-02;  4.0000000E+04;  0.0000000E+00;  3.9999828E+04;  1.7632239E-02;  0.0000000E+00; -2.4492433E-03;  1.1994880E+02;
  5.6142318E-01;  9.9999998E-03;  1.8002795E-01;5910;  5.4263887E-03;  0.0000000E+00; -6.7047466E-04;  1.0000098E+03;  1.0007997E-01;  8.0985365E+00;3;  5.9166169E-01;  0.0000000E+00; -1.9858794E-02;0;  1.5702765E-02;  3.9932109E+04;  0.0000000E+00;  6.9467075E-02;  4.0000000E+04;  0.0000000E+00;  4.0001754E+04;  1.8033128E-02;  0.0000000E+00; -2.3303619E-03;  3.1168399E+02;
  5.6143153E-01;  9.9999998E-03;  1.9003356E-01;5911;  5.5219396E-03;  0.0000000E+00; -7.0870761E-04;  9.9985199E+02;  1.0007988E-01; -1.2261382E+02;3;  6.0813332E-01;  0.0000000E+00; -2.3021324E-02;0;  1.6299635E-02;  3.9917883E+04;  0.0000000E+00;  6.1493188E-02;  4.0000000E+04;  0.0000000E+00;  4.0003719E+04;  1.8527403E-02;  0.0000000E+00; -2.2277690E-03;  5.2010657E+02;
  5.6145346E-01;  9.9999998E-03;  2.0003591E-01;5912;  5.6654331E-03;  0.0000000E+00; -7.3884067E-04;  9.9965778E+02;  1.0007979E-01; -2.8354755E+02;3;  6.3258713E-01;  0.0000000E+00; -2.4213538E-02;0;  1.6953571E-02;  3.9901289E+04;  0.0000000E+00;  4.3901313E-02;  4.0000000E+04;  0.0000000E+00;  4.0004555E+04;  1.9108951E-02;  0.0000000E+00; -2.1553801E-03;  6.8167542E+02;
  5.6148922E-01;  9.9999998E-03;  2.1003060E-01;5913;  5.8436967E-03;  0.0000000E+00; -7.6544035E-04;  9.9943597E+02;  1.0007975E-01; -4.6729544E+02;3;  6.6131538E-01;  0.0000000E+00; -2.2856666E-02;0;  1.7634727E-02;  3.9882719E+04;  0.0000000E+00;  1.4319931E-02;  4.0000000E+04;  0.0000000E+00;  4.0005324E+04;  1.9764580E-02;  0.0000000E+00; -2.1298525E-03;  8.1336115E+02;
  5.6153738E-01;  9.9999998E-03;  2.2001638E-01;5914;  6.0459464E-03;  0.0000000E+00; -7.8901165E-04;  9.9920068E+02;  1.0008001E-01; -6.6220349E+02;3;  6.9136268E-01;  0.0000000E+00; -2.1779414E-02;0;  1.8309528E-02;  3.9862727E+04;  0.0000000E+00; -2.8913405E-02;  4.0000000E+04;  0.0000000E+00;  4.0006941E+04;  2.0476786E-02;  0.0000000E+00; -2.1672586E-03;  1.0417295E+03;
  5.6159490E-01;  9.9999998E-03;  2.3000233E-01;5915;  6.2748916E-03;  0.0000000E+00; -7.9557305E-04;  9.9896973E+02;  1.0007983E-01; -8.5355609E+02;3;  7.1995527E-01;  0.0000000E+00; -2.0524509E-02;0;  1.8986830E-02;  3.9842016E+04;  0.0000000E+00; -8.6661041E-02;  4.0000000E+04;  0.0000000E+00;  4.0009410E+04;  2.1226032E-02;  0.0000000E+00; -2.2392015E-03;  1.3906051E+03;
  5.7162428E-01;  9.9999998E-03;  7.0006542E-02;5960;  6.4386474E-03;  0.0000000E+00; -2.2118544E-04;  1.0000035E+03;  1.0013084E-01;  2.9628792E+00;3;  1.0004930E+00;  0.0000000E+00;  1.3795483E-02;0;  1.2712067E-02;  3.9893227E+04;  0.0000000E+00;  4.6112712E-02;  4.0000000E+04;  0.0000000E+00;  3.9998531E+04;  1.6141348E-02;  0.0000000E+00; -3.4292804E-03;  7.6380981E+01;
  5.7162505E-01;  9.9999998E-03;  8.0007404E-02;5961;  6.4360718E-03;  0.0000000E+00; -2.5441719E-04;  1.0000754E+03;  1.0013099E-01;  6.2516750E+01;3;  9.9505520E-01;  0.0000000E+00;  1.4958818E-02;0;  1.3003702E-02;  3.9899090E+04;  0.0000000E+00;  6.1827216E-02;  4.0000000E+04;  0.0000000E+00;  3.9998539E+04;  1.6376307E-02;  0.0000000E+00; -3.3726052E-03;  1.2606892E+02;
  5.7161999E-01;  9.9999998E-03;  9.0007909E-02;5962;  6.4292396E-03;  0.0000000E+00; -2.8921184E-04;  1.0001514E+03;  1.0013097E-01;  1.2542855E+02;3;  9.8808855E-01;  0.0000000E+00;  1.4759535E-02;0;  1.3280528E-02;  3.9905375E+04;  0.0000000E+00;  7.7677116E-02;  4.0000000E+04;  0.0000000E+00;  3.9997984E+04;  1.6588710E-02;  0.0000000E+00; -3.3081821E-03;  1.9084970E+02;
  5.7160866E-01;  9.9999998E-03;  1.0000801E-01;5963;  6.4065494E-03;  0.0000000E+00; -3.2569040E-04;  1.0002282E+03;  1.0013086E-01;  1.8903169E+02;3;  9.6742904E-01;  0.0000000E+00;  1.2304251E-02;0;  1.3540698E-02;  3.9912355E+04;  0.0000000E+00;  9.1673717E-02;  4.0000000E+04;  0.0000000E+00;  3.9997609E+04;  1.6777275E-02;  0.0000000E+00; -3.2365774E-03;  2.6137946E+02;
  5.7159120E-01;  9.9999998E-03;  1.1000790E-01;5964;  6.3430872E-03;  0.0000000E+00; -3.6653149E-04;  1.0002975E+03;  1.0013118E-01;  2.4651155E+02;3;  9.2506915E-01;  0.0000000E+00;  1.0259355E-02;0;  1.3792051E-02;  3.9918633E+04;  0.0000000E+00;  1.0177665E-01;  4.0000000E+04;  0.0000000E+00;  3.9997262E+04;  1.6950138E-02;  0.0000000E+00; -3.1580867E-03;  3.2583551E+02;
  5.7156891E-01;  9.9999998E-03;  1.2000784E-01;5965;  6.2327324E-03;  0.0000000E+00; -4.0620231E-04;  1.0003625E+03;  1.0013115E-01;  3.0033719E+02;3;  8.7809873E-01;  0.0000000E+00;  9.3332333E-03;0;  1.4045774E-02;  3.9923871E+04;  0.0000000E+00;  1.0646857E-01;  4.0000000E+04;  0.0000000E+00;  3.9996398E+04;  1.7118227E-02;  0.0000000E+00; -3.0724527E-03;  3.7027832E+02;
  5.7154340E-01;  9.9999998E-03;  1.3000834E-01;5966;  6.0864282E-03;  0.0000000E+00; -4.4449512E-04;  1.0004080E+03;  1.0013101E-01;  3.3796576E+02;3;  8.1623733E-01;  0.0000000E+00;  1.1909735E-02;0;  1.4316111E-02;  3.9927711E+04;  0.0000000E+00;  1.0524322E-01;  4.0000000E+04;  0.0000000E+00;  3.9996246E+04;  1.7294731E-02;  0.0000000E+00; -2.9786201E-03;  3.8028906E+02;
  5.7151634E-01;  9.9999998E-03;  1.4001039E-01;5967;  5.9294421E-03;  0.0000000E+00; -4.8101772E-04;  1.0004363E+03;  1.0013114E-01;  3.6147125E+02;3;  7.5911087E-01;  0.0000000E+00;  1.2396713E-02;0;  1.4619797E-02;  3.9929367E+04;  0.0000000E+00;  9.8928332E-02;  4.0000000E+04;  0.0000000E+00;  3.9996629E+04;  1.7494800E-02;  0.0000000E+00; -2.8750028E-03;  3.4285983E+02;
  5.7149148E-01;  9.9999998E-03;  1.5001439E-01;5968;  5.7963291E-03;  0.0000000E+00; -5.1980728E-04;  1.0004332E+03;  1.0013122E-01;  3.5890344E+02;3;  7.0935690E-01;  0.0000000E+00;  9.8241083E-03;0;  1.4974487E-02;  3.9928020E+04;  0.0000000E+00;  8.9435868E-02;  4.0000000E+04;  0.0000000E+00;  3.9997805E+04;  1.7734800E-02;  0.0000000E+00; -2.7603123E-03;  2.5137413E+02;
  5.7147205E-01;  9.9999998E-03;  1.6002028E-01;5969;  5.7022404E-03;  0.0000000E+00; -5.6567561E-04;  1.0003907E+03;  1.0013103E-01;  3.2374393E+02;3;  6.7489761E-01;  0.0000000E+00;  5.0113918E-03;0;  1.5399914E-02;  3.9924039E+04;  0.0000000E+00;  7.8827858E-02;  4.0000000E+04;  0.0000000E+00;  3.9999172E+04;  1.8035108E-02;  0.0000000E+00; -2.6351942E-03;  1.2689910E+02;
  5.7146198E-01;  9.9999998E-03;  1.7002748E-01;5970;  5.6678178E-03;  0.0000000E+00; -6.1217073E-04;  1.0003206E+03;  1.0013123E-01;  2.6557272E+02;3;  6.5610254E-01;  0.0000000E+00; -8.7462505E-04;0;  1.5906999E-02;  3.9916734E+04;  0.0000000E+00;  6.8391837E-02;  4.0000000E+04;  0.0000000E+00;  4.0000348E+04;  1.8411085E-02;  0.0000000E+00; -2.5040857E-03;  1.6726120E+02;
  5.7146478E-01;  9.9999998E-03;  1.8003497E-01;5971;  5.7038115E-03;  0.0000000E+00; -6.5333047E-04;  1.0002052E+03;  1.0013138E-01;  1.6997050E+02;3;  6.6232634E-01;  0.0000000E+00; -5.7717031E-03;0;  1.6497606E-02;  3.9906293E+04;  0.0000000E+00;  5.7852145E-02;  4.0000000E+04;  0.0000000E+00;  4.0001949E+04;  1.8873271E-02;  0.0000000E+00; -2.3756649E-03;  3.6050397E+02;
  5.7148278E-01;  9.9999998E-03;  1.9004166E-01;5972;  5.8018882E-03;  0.0000000E+00; -6.8218919E-04;  1.0000543E+03;  1.0013139E-01;  4.5035763E+01;3;  6.7489558E-01;  0.0000000E+00; -9.0664728E-03;0;  1.7166894E-02;  3.9892906E+04;  0.0000000E+00;  4.4992018E-02;  4.0000000E+04;  0.0000000E+00;  4.0003562E+04;  1.9426808E-02;  0.0000000E+00; -2.2599148E-03;  5.3527356E+02;
  5.7151747E-01;  9.9999998E-03;  2.0004478E-01;5973;  5.9554740E-03;  0.0000000E+00; -6.9967395E-04;  9.9985681E+02;  1.0013146E-01; -1.1861393E+02;3;  6.9417804E-01;  0.0000000E+00; -1.0240282E-02;0;  1.7902821E-02;  3.9876812E+04;  0.0000000E+00;  2.6197154E-02;  4.0000000E+04;  0.0000000E+00;  4.0004160E+04;  2.0067340E-02;  0.0000000E+00; -2.1645194E-03;  6.3304285E+02;
  5.7156760E-01;  9.9999998E-03;  2.1003951E-01;5974;  6.1373031E-03;  0.0000000E+00; -7.1882037E-04;  9.9962946E+02;  1.0013153E-01; -3.0700366E+02;3;  7.1847504E-01;  0.0000000E+00; -1.0250266E-02;0;  1.8683292E-02;  3.9858488E+04;  0.0000000E+00; -2.5659683E-03;  4.0000000E+04;  0.0000000E+00;  4.0003746E+04;  2.0786602E-02;  0.0000000E+00; -2.1033110E-03;  6.7196124E+02;
  5.7163095E-01;  9.9999998E-03;  2.2002459E-01;5975;  6.3220114E-03;  0.0000000E+00; -7.4581691E-04;  9.9939282E+02;  1.0013144E-01; -5.0304752E+02;3;  7.4192464E-01;  0.0000000E+00; -1.1664642E-02;0;  1.9470572E-02;  3.9838855E+04;  0.0000000E+00; -4.5364700E-02;  4.0000000E+04;  0.0000000E+00;  4.0004699E+04;  2.1571554E-02;  0.0000000E+00; -2.1009822E-03;  7.8888031E+02;
  5.7170320E-01;  9.9999998E-03;  2.3000894E-01;5976;  6.5098731E-03;  0.0000000E+00; -7.7409833E-04;  9.9915973E+02;  1.0013144E-01; -6.9612848E+02;3;  7.6631004E-01;  0.0000000E+00; -1.5143287E-02;0;  2.0229658E-02;  3.9818699E+04;  0.0000000E+00; -1.0690012E-01;  4.0000000E+04;  0.0000000E+00;  4.0006523E+04;  2.2402916E-02;  0.0000000E+00; -2.1732582E-03;  1.0390548E+03;
  5.8172971E-01;  9.9999998E-03;  6.9998033E-02;6021;  6.5246699E-03;  0.0000000E+00; -2.2667540E-04;  1.0000718E+03;  1.0021388E-01;  5.9455109E+01;3;  1.0139481E+00;  0.0000000E+00;  1.7987803E-02;0;  1.3027125E-02;  3.9834297E+04;  0.0000000E+00;  1.0810677E-01;  4.0000000E+04;  0.0000000E+00;  3.9997805E+04;  1.6572008E-02;  0.0000000E+00; -3.5448826E-03;  1.7863469E+02;
  5.8172083E-01;  9.9999998E-03;  7.9999782E-02;6022;  6.5471372E-03;  0.0000000E+00; -2.6133860E-04;  1.0001479E+03;  1.0021397E-01;  1.2256444E+02;3;  1.0145996E+00;  0.0000000E+00;  1.9923512E-02;0;  1.3320480E-02;  3.9840375E+04;  0.0000000E+00;  1.3325015E-01;  4.0000000E+04;  0.0000000E+00;  3.9997715E+04;  1.6806424E-02;  0.0000000E+00; -3.4859437E-03;  2.3457175E+02;
  5.8170277E-01;  9.9999998E-03;  9.0001754E-02;6023;  6.5626195E-03;  0.0000000E+00; -2.9564608E-04;  1.0002314E+03;  1.0021431E-01;  1.9169829E+02;3;  1.0114135E+00;  0.0000000E+00;  2.2077592E-02;0;  1.3596271E-02;  3.9847305E+04;  0.0000000E+00;  1.5473580E-01;  4.0000000E+04;  0.0000000E+00;  3.9997090E+04;  1.7014852E-02;  0.0000000E+00; -3.4185806E-03;  2.9387946E+02;
  5.8167702E-01;  9.9999998E-03;  1.0000359E-01;6024;  6.5744212E-03;  0.0000000E+00; -3.2987297E-04;  1.0003138E+03;  1.0021400E-01;  2.6004202E+02;3;  1.0098220E+00;  0.0000000E+00;  2.2882447E-02;0;  1.3852608E-02;  3.9854445E+04;  0.0000000E+00;  1.6950129E-01;  4.0000000E+04;  0.0000000E+00;  3.9996727E+04;  1.7195664E-02;  0.0000000E+00; -3.3430557E-03;  3.4949969E+02;
  5.8164686E-01;  9.9999998E-03;  1.1000512E-01;6025;  6.5772766E-03;  0.0000000E+00; -3.6186466E-04;  1.0003931E+03;  1.0021417E-01;  3.2571918E+02;3;  1.0042871E+00;  0.0000000E+00;  2.4329029E-02;0;  1.4097206E-02;  3.9860996E+04;  0.0000000E+00;  1.7501836E-01;  4.0000000E+04;  0.0000000E+00;  3.9996539E+04;  1.7356724E-02;  0.0000000E+00; -3.2595173E-03;  3.9215692E+02;
  5.8161545E-01;  9.9999998E-03;  1.2000656E-01;6026;  6.5722596E-03;  0.0000000E+00; -3.9234778E-04;  1.0004581E+03;  1.0021426E-01;  3.7954483E+02;3;  9.9295533E-01;  0.0000000E+00;  2.5664223E-02;0;  1.4343074E-02;  3.9866527E+04;  0.0000000E+00;  1.6999668E-01;  4.0000000E+04;  0.0000000E+00;  3.9996277E+04;  1.7510729E-02;  0.0000000E+00; -3.1676558E-03;  4.1071475E+02;
  5.8158469E-01;  9.9999998E-03;  1.3000837E-01;6027;  6.5151528E-03;  0.0000000E+00; -4.2664522E-04;  1.0005132E+03;  1.0021437E-01;  4.2517316E+02;3;  9.4591779E-01;  0.0000000E+00;  2.2306822E-02;0;  1.4619531E-02;  3.9870590E+04;  0.0000000E+00;  1.5496175E-01;  4.0000000E+04;  0.0000000E+00;  3.9996422E+04;  1.7686022E-02;  0.0000000E+00; -3.0664918E-03;  3.9382797E+02;
  5.8155721E-01;  9.9999998E-03;  1.4001112E-01;6028;  6.3873865E-03;  0.0000000E+00; -4.6059946E-04;  1.0005442E+03;  1.0021447E-01;  4.5085144E+02;3;  8.8922912E-01;  0.0000000E+00;  2.4630204E-02;0;  1.4953581E-02;  3.9872484E+04;  0.0000000E+00;  1.3241272E-01;  4.0000000E+04;  0.0000000E+00;  3.9996566E+04;  1.7908394E-02;  0.0000000E+00; -2.9548139E-03;  3.3225854E+02;
  5.8153462E-01;  9.9999998E-03;  1.5001543E-01;6029;  6.2416568E-03;  0.0000000E+00; -4.9636734E-04;  1.0005482E+03;  1.0021443E-01;  4.5411063E+02;3;  8.3067393E-01;  0.0000000E+00;  2.3791900E-02;0;  1.5356136E-02;  3.9871984E+04;  0.0000000E+00;  1.0625139E-01;  4.0000000E+04;  0.0000000E+00;  3.9997539E+04;  1.8187875E-02;  0.0000000E+00; -2.8317396E-03;  2.2458409E+02;
  5.8151966E-01;  9.9999998E-03;  1.6002135E-01;6030;  6.1240699E-03;  0.0000000E+00; -5.3426216E-04;  1.0005235E+03;  1.0021445E-01;  4.3366675E+02;3;  7.8706127E-01;  0.0000000E+00;  2.1660333E-02;0;  1.5837071E-02;  3.9868453E+04;  0.0000000E+00;  8.0599196E-02;  4.0000000E+04;  0.0000000E+00;  3.9999086E+04;  1.8535111E-02;  0.0000000E+00; -2.6980394E-03;  1.1348914E+02;
  5.8151662E-01;  9.9999998E-03;  1.7002828E-01;6031;  6.0760640E-03;  0.0000000E+00; -5.7097309E-04;  1.0004605E+03;  1.0021455E-01;  3.8152008E+02;3;  7.6327926E-01;  0.0000000E+00;  1.8425087E-02;0;  1.6401019E-02;  3.9861996E+04;  0.0000000E+00;  5.8557048E-02;  4.0000000E+04;  0.0000000E+00;  4.0000410E+04;  1.8958287E-02;  0.0000000E+00; -2.5572674E-03;  2.0258734E+02;
  5.8152896E-01;  9.9999998E-03;  1.8003540E-01;6032;  6.1080446E-03;  0.0000000E+00; -5.9982156E-04;  1.0003615E+03;  1.0021462E-01;  2.9954709E+02;3;  7.5601012E-01;  0.0000000E+00;  1.4028613E-02;0;  1.7051600E-02;  3.9852445E+04;  0.0000000E+00;  4.0882375E-02;  4.0000000E+04;  0.0000000E+00;  4.0001680E+04;  1.9467115E-02;  0.0000000E+00; -2.4155152E-03;  3.8297424E+02;
  5.8155954E-01;  9.9999998E-03;  1.9004165E-01;6033;  6.2289033E-03;  0.0000000E+00; -6.1382109E-04;  1.0002157E+03;  1.0021471E-01;  1.7866162E+02;3;  7.6889139E-01;  0.0000000E+00;  1.1902762E-02;0;  1.7786317E-02;  3.9839945E+04;  0.0000000E+00;  2.5336310E-02;  4.0000000E+04;  0.0000000E+00;  4.0002934E+04;  2.0063808E-02;  0.0000000E+00; -2.2774918E-03;  5.2433618E+02;
  5.8160895E-01;  9.9999998E-03;  2.0004441E-01;6034;  6.4106947E-03;  0.0000000E+00; -6.1199156E-04;  1.0000300E+03;  1.0021479E-01;  2.4789423E+01;3;  7.9130888E-01;  0.0000000E+00;  1.1464421E-02;0;  1.8610451E-02;  3.9824941E+04;  0.0000000E+00;  7.3804138E-03;  4.0000000E+04;  0.0000000E+00;  4.0003133E+04;  2.0750560E-02;  0.0000000E+00; -2.1401076E-03;  5.7336108E+02;
  5.8167589E-01;  9.9999998E-03;  2.1003918E-01;6035;  6.6031334E-03;  0.0000000E+00; -6.1530998E-04;  9.9981073E+02;  1.0021475E-01; -1.5678569E+02;3;  8.2015663E-01;  0.0000000E+00;  9.1132503E-03;0;  1.9520195E-02;  3.9808188E+04;  0.0000000E+00; -1.8811742E-02;  4.0000000E+04;  0.0000000E+00;  4.0002539E+04;  2.1527210E-02;  0.0000000E+00; -2.0070157E-03;  5.4927008E+02;
  5.8175695E-01;  9.9999998E-03;  2.2002579E-01;6036;  6.7643845E-03;  0.0000000E+00; -6.3953240E-04;  9.9957617E+02;  1.0021487E-01; -3.5115057E+02;3;  8.4266406E-01;  0.0000000E+00;  4.0986403E-03;0;  2.0477962E-02;  3.9789570E+04;  0.0000000E+00; -6.0484491E-02;  4.0000000E+04;  0.0000000E+00;  4.0002699E+04;  2.2385452E-02;  0.0000000E+00; -1.9074903E-03;  5.7158368E+02;
  5.8184606E-01;  9.9999998E-03;  2.3001182E-01;6037;  6.8927342E-03;  0.0000000E+00; -6.9355301E-04;  9.9933917E+02;  1.0021494E-01; -5.4749066E+02;3;  8.4817803E-01;  0.0000000E+00; -3.3210355E-03;0;  2.1382948E-02;  3.9770352E+04;  0.0000000E+00; -1.2802356E-01;  4.0000000E+04;  0.0000000E+00;  4.0003609E+04;  2.3304004E-02;  0.0000000E+00; -1.9210563E-03;  7.0380469E+02;
  5.9181774E-01;  9.9999998E-03;  6.9993995E-02;6082;  6.6129975E-03;  0.0000000E+00; -2.3946335E-04;  1.0000674E+03;  1.0034806E-01;  5.5899654E+01;3;  1.0257679E+00;  0.0000000E+00;  1.9916886E-02;0;  1.3609022E-02;  3.9729926E+04;  0.0000000E+00;  1.5549326E-01;  4.0000000E+04;  0.0000000E+00;  3.9996777E+04;  1.7273627E-02;  0.0000000E+00; -3.6646053E-03;  2.4767682E+02;
  5.9179753E-01;  9.9999998E-03;  7.9995744E-02;6083;  6.6546751E-03;  0.0000000E+00; -2.7755229E-04;  1.0001431E+03;  1.0034810E-01;  1.1861393E+02;3;  1.0290661E+00;  0.0000000E+00;  2.0872651E-02;0;  1.3861829E-02;  3.9736211E+04;  0.0000000E+00;  1.8594909E-01;  4.0000000E+04;  0.0000000E+00;  3.9996582E+04;  1.7464761E-02;  0.0000000E+00; -3.6029310E-03;  3.0595184E+02;
  5.9176803E-01;  9.9999998E-03;  8.9997575E-02;6084;  6.6833636E-03;  0.0000000E+00; -3.1571259E-04;  1.0002231E+03;  1.0034801E-01;  1.8488367E+02;3;  1.0278603E+00;  0.0000000E+00;  2.2723624E-02;0;  1.4093598E-02;  3.9742684E+04;  0.0000000E+00;  2.0914693E-01;  4.0000000E+04;  0.0000000E+00;  3.9995898E+04;  1.7625747E-02;  0.0000000E+00; -3.5321484E-03;  3.6010358E+02;
  5.9173095E-01;  9.9999998E-03;  9.9999748E-02;6085;  6.7039770E-03;  0.0000000E+00; -3.5242463E-04;  1.0002968E+03;  1.0034835E-01;  2.4591898E+02;3;  1.0274596E+00;  0.0000000E+00;  2.4952918E-02;0;  1.4305516E-02;  3.9749098E+04;  0.0000000E+00;  2.2146106E-01;  4.0000000E+04;  0.0000000E+00;  3.9995828E+04;  1.7757865E-02;  0.0000000E+00; -3.4523483E-03;  4.0364450E+02;
  5.9168875E-01;  9.9999998E-03;  1.1000257E-01;6086;  6.7080450E-03;  0.0000000E+00; -3.8430281E-04;  1.0003727E+03;  1.0034828E-01;  3.0883078E+02;3;  1.0201322E+00;  0.0000000E+00;  2.7056016E-02;0;  1.4510361E-02;  3.9755090E+04;  0.0000000E+00;  2.2036879E-01;  4.0000000E+04;  0.0000000E+00;  3.9995629E+04;  1.7874002E-02;  0.0000000E+00; -3.3636405E-03;  4.2887881E+02;
  5.9164590E-01;  9.9999998E-03;  1.2000611E-01;6087;  6.7079486E-03;  0.0000000E+00; -4.1216527E-04;  1.0004390E+03;  1.0034828E-01;  3.6374280E+02;3;  1.0157754E+00;  0.0000000E+00;  2.9865554E-02;0;  1.4722547E-02;  3.9760316E+04;  0.0000000E+00;  2.0521204E-01;  4.0000000E+04;  0.0000000E+00;  3.9995613E+04;  1.7988347E-02;  0.0000000E+00; -3.2658004E-03;  4.2725601E+02;
  5.9160703E-01;  9.9999998E-03;  1.3001035E-01;6088;  6.7007975E-03;  0.0000000E+00; -4.3383561E-04;  1.0004941E+03;  1.0034844E-01;  4.0937112E+02;3;  1.0079882E+00;  0.0000000E+00;  3.2354921E-02;0;  1.4965177E-02;  3.9764141E+04;  0.0000000E+00;  1.7771730E-01;  4.0000000E+04;  0.0000000E+00;  3.9995762E+04;  1.8123310E-02;  0.0000000E+00; -3.1581330E-03;  3.9025867E+02;
  5.9157646E-01;  9.9999998E-03;  1.4001520E-01;6089;  6.6990755E-03;  0.0000000E+00; -4.5137701E-04;  1.0005251E+03;  1.0034855E-01;  4.3504944E+02;3;  1.0007640E+00;  0.0000000E+00;  3.6819980E-02;0;  1.5259226E-02;  3.9766059E+04;  0.0000000E+00;  1.4189096E-01;  4.0000000E+04;  0.0000000E+00;  3.9996059E+04;  1.8298849E-02;  0.0000000E+00; -3.0396234E-03;  3.1190704E+02;
  5.9155571E-01;  9.9999998E-03;  1.5002078E-01;6090;  6.6784769E-03;  0.0000000E+00; -4.7141314E-04;  1.0005341E+03;  1.0034860E-01;  4.4245663E+02;3;  9.6664876E-01;  0.0000000E+00;  3.6040518E-02;0;  1.5634278E-02;  3.9765984E+04;  0.0000000E+00;  1.0320657E-01;  4.0000000E+04;  0.0000000E+00;  3.9996902E+04;  1.8543812E-02;  0.0000000E+00; -2.9095339E-03;  1.9494356E+02;
  5.9154624E-01;  9.9999998E-03;  1.6002697E-01;6091;  6.5838709E-03;  0.0000000E+00; -4.9844128E-04;  1.0005150E+03;  1.0034893E-01;  4.2665460E+02;3;  9.1329485E-01;  0.0000000E+00;  3.6265183E-02;0;  1.6124822E-02;  3.9763035E+04;  0.0000000E+00;  6.7198336E-02;  4.0000000E+04;  0.0000000E+00;  3.9998070E+04;  1.8893193E-02;  0.0000000E+00; -2.7683703E-03;  9.8037971E+01;
  5.9155047E-01;  9.9999998E-03;  1.7003326E-01;6092;  6.5370449E-03;  0.0000000E+00; -5.2372250E-04;  1.0004634E+03;  1.0034908E-01;  3.8389038E+02;3;  8.8301098E-01;  0.0000000E+00;  3.3975609E-02;0;  1.6713481E-02;  3.9757473E+04;  0.0000000E+00;  3.8010877E-02;  4.0000000E+04;  0.0000000E+00;  3.9999660E+04;  1.9331817E-02;  0.0000000E+00; -2.6183354E-03;  2.0560695E+02;
  5.9157181E-01;  9.9999998E-03;  1.8003872E-01;6093;  6.5794960E-03;  0.0000000E+00; -5.4159440E-04;  1.0003752E+03;  1.0034906E-01;  3.1090479E+02;3;  8.8105917E-01;  0.0000000E+00;  3.2999836E-02;0;  1.7397249E-02;  3.9748902E+04;  0.0000000E+00;  1.6812282E-02;  4.0000000E+04;  0.0000000E+00;  4.0000840E+04;  1.9859852E-02;  0.0000000E+00; -2.4626036E-03;  3.5855927E+02;
  5.9161288E-01;  9.9999998E-03;  1.9004233E-01;6094;  6.7077982E-03;  0.0000000E+00; -5.4293009E-04;  1.0002472E+03;  1.0034942E-01;  2.0483371E+02;3;  9.0200323E-01;  0.0000000E+00;  3.2070220E-02;0;  1.8181818E-02;  3.9737863E+04;  0.0000000E+00;  1.2152262E-03;  4.0000000E+04;  0.0000000E+00;  4.0001465E+04;  2.0482311E-02;  0.0000000E+00; -2.3004927E-03;  4.5580954E+02;
  5.9167367E-01;  9.9999998E-03;  2.0004161E-01;6095;  6.8803122E-03;  0.0000000E+00; -5.2760314E-04;  1.0000745E+03;  1.0034940E-01;  6.1726650E+01;3;  9.3967128E-01;  0.0000000E+00;  2.9947190E-02;0;  1.9085759E-02;  3.9724246E+04;  0.0000000E+00; -1.3820082E-02;  4.0000000E+04;  0.0000000E+00;  4.0001297E+04;  2.1206498E-02;  0.0000000E+00; -2.1207395E-03;  4.6095642E+02;
  5.9175283E-01;  9.9999998E-03;  2.1003275E-01;6096;  7.0607848E-03;  0.0000000E+00; -5.1638705E-04;  9.9987097E+02;  1.0034940E-01; -1.0691055E+02;3;  9.5894867E-01;  0.0000000E+00;  2.8615093E-02;0;  2.0114688E-02;  3.9708504E+04;  0.0000000E+00; -3.5174243E-02;  4.0000000E+04;  0.0000000E+00;  4.0000617E+04;  2.2029324E-02;  0.0000000E+00; -1.9146347E-03;  4.1741736E+02;
  5.9184813E-01;  9.9999998E-03;  2.2001822E-01;6097;  7.2442619E-03;  0.0000000E+00; -5.2938872E-04;  9.9964813E+02;  1.0034967E-01; -2.9149792E+02;3;  9.7155476E-01;  0.0000000E+00;  2.4150079E-02;0;  2.1230998E-02;  3.9691391E+04;  0.0000000E+00; -7.2465852E-02;  4.0000000E+04;  0.0000000E+00;  4.0000734E+04;  2.2932058E-02;  0.0000000E+00; -1.7010604E-03;  4.3748477E+02;
  5.9195203E-01;  9.9999998E-03;  2.3000723E-01;6098;  7.4009905E-03;  0.0000000E+00; -5.9124030E-04;  9.9942120E+02;  1.0034961E-01; -4.7954199E+02;3;  9.7850806E-01;  0.0000000E+00;  1.7826980E-02;0;  2.2302253E-02;  3.9673352E+04;  0.0000000E+00; -1.4083834E-01;  4.0000000E+04;  0.0000000E+00;  4.0001164E+04;  2.3896588E-02;  0.0000000E+00; -1.5943355E-03;  5.1743231E+02;
  6.0183126E-01;  9.9999998E-03;  7.0000939E-02;6143;  6.7129475E-03;  0.0000000E+00; -2.5746008E-04;  9.9993005E+02;  1.0056140E-01; -5.7973667E+01;3;  1.0410159E+00;  0.0000000E+00;  1.8679079E-02;0;  1.4472787E-02;  3.9554219E+04;  0.0000000E+00;  1.7520949E-01;  4.0000000E+04;  0.0000000E+00;  3.9995633E+04;  1.8261878E-02;  0.0000000E+00; -3.7890908E-03;  2.6681412E+02;
  6.0181046E-01;  9.9999998E-03;  8.0001116E-02;6144;  6.7678019E-03;  0.0000000E+00; -2.9924687E-04;  9.9999768E+02;  1.0056169E-01; -1.9258715E+00;3;  1.0421063E+00;  0.0000000E+00;  2.1126639E-02;0;  1.4654899E-02;  3.9559633E+04;  0.0000000E+00;  2.0467257E-01;  4.0000000E+04;  0.0000000E+00;  3.9995375E+04;  1.8379671E-02;  0.0000000E+00; -3.7247727E-03;  3.2028543E+02;
  6.0178077E-01;  9.9999998E-03;  9.0000786E-02;6145;  6.8009933E-03;  0.0000000E+00; -3.4036674E-04;  1.0000679E+03;  1.0056166E-01;  5.6195942E+01;3;  1.0436413E+00;  0.0000000E+00;  2.1803094E-02;0;  1.4812799E-02;  3.9565043E+04;  0.0000000E+00;  2.2415170E-01;  4.0000000E+04;  0.0000000E+00;  3.9994727E+04;  1.8463653E-02;  0.0000000E+00; -3.6508532E-03;  3.6546173E+02;
  6.0174310E-01;  9.9999998E-03;  1.0000072E-01;6146;  6.8188850E-03;  0.0000000E+00; -3.8085537E-04;  1.0001356E+03;  1.0056184E-01;  1.1239188E+02;3;  1.0432591E+00;  0.0000000E+00;  2.2776527E-02;0;  1.4950858E-02;  3.9570707E+04;  0.0000000E+00;  2.3018661E-01;  4.0000000E+04;  0.0000000E+00;  3.9994641E+04;  1.8518180E-02;  0.0000000E+00; -3.5673210E-03;  3.9721335E+02;
  6.0169917E-01;  9.9999998E-03;  1.1000168E-01;6147;  6.8117585E-03;  0.0000000E+00; -4.1498250E-04;  1.0001998E+03;  1.0056213E-01;  1.6552618E+02;3;  1.0331404E+00;  0.0000000E+00;  2.5469884E-02;0;  1.5086159E-02;  3.9575859E+04;  0.0000000E+00;  2.2088827E-01;  4.0000000E+04;  0.0000000E+00;  3.9994383E+04;  1.8560540E-02;  0.0000000E+00; -3.4743811E-03;  4.0978580E+02;
  6.0165232E-01;  9.9999998E-03;  1.2000429E-01;6148;  6.7963125E-03;  0.0000000E+00; -4.4223113E-04;  1.0002519E+03;  1.0056242E-01;  2.0868546E+02;3;  1.0252973E+00;  0.0000000E+00;  2.8961934E-02;0;  1.5235603E-02;  3.9579699E+04;  0.0000000E+00;  1.9661607E-01;  4.0000000E+04;  0.0000000E+00;  3.9994062E+04;  1.8607577E-02;  0.0000000E+00; -3.3719745E-03;  3.9654813E+02;
  6.0160679E-01;  9.9999998E-03;  1.3000891E-01;6149;  6.7728879E-03;  0.0000000E+00; -4.6177721E-04;  1.0002981E+03;  1.0056223E-01;  2.4700536E+02;3;  1.0160923E+00;  0.0000000E+00;  3.2748733E-02;0;  1.5424602E-02;  3.9582891E+04;  0.0000000E+00;  1.6023266E-01;  4.0000000E+04;  0.0000000E+00;  3.9994523E+04;  1.8684141E-02;  0.0000000E+00; -3.2595394E-03;  3.5070480E+02;
  6.0156786E-01;  9.9999998E-03;  1.4001544E-01;6150;  6.7579830E-03;  0.0000000E+00; -4.7593849E-04;  1.0003278E+03;  1.0056274E-01;  2.7149850E+02;3;  1.0072123E+00;  0.0000000E+00;  3.7381891E-02;0;  1.5675331E-02;  3.9584277E+04;  0.0000000E+00;  1.1676288E-01;  4.0000000E+04;  0.0000000E+00;  3.9994828E+04;  1.8811427E-02;  0.0000000E+00; -3.1360958E-03;  2.6740884E+02;
  6.0154068E-01;  9.9999998E-03;  1.5002316E-01;6151;  6.7591495E-03;  0.0000000E+00; -4.8636232E-04;  1.0003358E+03;  1.0056295E-01;  2.7821436E+02;3;  1.0048009E+00;  0.0000000E+00;  4.0088501E-02;0;  1.6010653E-02;  3.9584082E+04;  0.0000000E+00;  7.2369486E-02;  4.0000000E+04;  0.0000000E+00;  3.9995465E+04;  1.9011589E-02;  0.0000000E+00; -3.0009362E-03;  1.4897714E+02;
  6.0152942E-01;  9.9999998E-03;  1.6003087E-01;6152;  6.7798784E-03;  0.0000000E+00; -4.9777335E-04;  1.0003207E+03;  1.0056322E-01;  2.6577026E+02;3;  1.0003290E+00;  0.0000000E+00;  4.2902451E-02;0;  1.6450072E-02;  3.9581512E+04;  0.0000000E+00;  3.2880899E-02;  4.0000000E+04;  0.0000000E+00;  3.9996941E+04;  1.9304328E-02;  0.0000000E+00; -2.8542557E-03;  5.5977837E+01;
  6.0153568E-01;  9.9999998E-03;  1.7003712E-01;6153;  6.8055033E-03;  0.0000000E+00; -5.1265681E-04;  1.0002784E+03;  1.0056351E-01;  2.3061076E+02;3;  9.9729103E-01;  0.0000000E+00;  4.0489204E-02;0;  1.7011903E-02;  3.9576645E+04;  0.0000000E+00;  2.4412337E-03;  4.0000000E+04;  0.0000000E+00;  3.9998031E+04;  1.9709056E-02;  0.0000000E+00; -2.6971532E-03;  1.7678033E+02;
  6.0156119E-01;  9.9999998E-03;  1.8004069E-01;6154;  6.8458631E-03;  0.0000000E+00; -5.2649411E-04;  1.0001953E+03;  1.0056404E-01;  1.6177321E+02;3;  9.9343508E-01;  0.0000000E+00;  3.9308526E-02;0;  1.7701603E-02;  3.9569180E+04;  0.0000000E+00; -1.7951800E-02;  4.0000000E+04;  0.0000000E+00;  3.9998504E+04;  2.0232908E-02;  0.0000000E+00; -2.5313052E-03;  2.9597800E+02;
  6.0160691E-01;  9.9999998E-03;  1.9004022E-01;6155;  6.9421888E-03;  0.0000000E+00; -5.2831019E-04;  1.0000742E+03;  1.0056406E-01;  6.1430363E+01;3;  1.0005897E+00;  0.0000000E+00;  3.8625605E-02;0;  1.8513002E-02;  3.9559152E+04;  0.0000000E+00; -3.0576980E-02;  4.0000000E+04;  0.0000000E+00;  3.9999062E+04;  2.0867987E-02;  0.0000000E+00; -2.3549844E-03;  3.4934030E+02;
  6.0167223E-01;  9.9999998E-03;  2.0003296E-01;6156;  7.0997132E-03;  0.0000000E+00; -5.2025460E-04;  9.9990906E+02;  1.0056403E-01; -7.5355896E+01;3;  1.0124613E+00;  0.0000000E+00;  3.8565919E-02;0;  1.9448202E-02;  3.9546344E+04;  0.0000000E+00; -3.9899204E-02;  4.0000000E+04;  0.0000000E+00;  3.9998816E+04;  2.1607945E-02;  0.0000000E+00; -2.1597431E-03;  3.3400336E+02;
  6.0175627E-01;  9.9999998E-03;  2.1001656E-01;6157;  7.3131025E-03;  0.0000000E+00; -5.1059644E-04;  9.9972723E+02;  1.0056417E-01; -2.2596892E+02;3;  1.0358634E+00;  0.0000000E+00;  3.8433548E-02;0;  2.0507483E-02;  3.9531879E+04;  0.0000000E+00; -5.2273326E-02;  4.0000000E+04;  0.0000000E+00;  3.9998609E+04;  2.2439951E-02;  0.0000000E+00; -1.9324676E-03;  3.4339575E+02;
  6.0185850E-01;  9.9999998E-03;  2.1999848E-01;6158;  7.5977887E-03;  0.0000000E+00; -4.9434300E-04;  9.9953656E+02;  1.0056438E-01; -3.8393976E+02;3;  1.0682462E+00;  0.0000000E+00;  3.6150686E-02;0;  2.1700200E-02;  3.9515766E+04;  0.0000000E+00; -7.7115700E-02;  4.0000000E+04;  0.0000000E+00;  3.9999660E+04;  2.3336530E-02;  0.0000000E+00; -1.6363307E-03;  4.8306949E+02;
  6.0197204E-01;  9.9999998E-03;  2.2999206E-01;6159;  7.8756390E-03;  0.0000000E+00; -5.3384894E-04;  9.9933075E+02;  1.0056425E-01; -5.5445343E+02;3;  1.1050166E+00;  0.0000000E+00;  2.9775785E-02;0;  2.2891980E-02;  3.9499199E+04;  0.0000000E+00; -1.3037539E-01;  4.0000000E+04;  0.0000000E+00;  4.0000414E+04;  2.4288284E-02;  0.0000000E+00; -1.3963048E-03;  5.9935901E+02;
  6.1176997E-01;  9.9999998E-03;  7.0015028E-02;6204;  6.8210866E-03;  0.0000000E+00; -2.7714722E-04;  9.9967346E+02;  1.0089495E-01; -2.7051086E+02;3;  1.0567355E+00;  0.0000000E+00;  1.8292900E-02;0;  1.5585400E-02;  3.9278348E+04;  0.0000000E+00;  1.5895185E-01;  4.0000000E+04;  0.0000000E+00;  3.9993469E+04;  1.9503921E-02;  0.0000000E+00; -3.9185211E-03;  2.3277460E+02;
  6.1175400E-01;  9.9999998E-03;  8.0015168E-02;6205;  6.8853558E-03;  0.0000000E+00; -3.2211229E-04;  9.9972241E+02;  1.0089531E-01; -2.2996881E+02;3;  1.0620747E+00;  0.0000000E+00;  1.9454803E-02;0;  1.5681967E-02;  3.9281992E+04;  0.0000000E+00;  1.7979717E-01;  4.0000000E+04;  0.0000000E+00;  3.9993520E+04;  1.9533943E-02;  0.0000000E+00; -3.8519767E-03;  2.6957047E+02;
  6.1172837E-01;  9.9999998E-03;  9.0014137E-02;6206;  6.9161067E-03;  0.0000000E+00; -3.6692366E-04;  9.9977887E+02;  1.0089567E-01; -1.8320470E+02;3;  1.0614269E+00;  0.0000000E+00;  1.8591905E-02;0;  1.5752779E-02;  3.9286043E+04;  0.0000000E+00;  1.8933298E-01;  4.0000000E+04;  0.0000000E+00;  3.9993020E+04;  1.9528361E-02;  0.0000000E+00; -3.7755815E-03;  2.9807489E+02;
  6.1169350E-01;  9.9999998E-03;  1.0001252E-01;6207;  6.9161146E-03;  0.0000000E+00; -4.0874741E-04;  9.9983075E+02;  1.0089583E-01; -1.4024295E+02;3;  1.0570213E+00;  0.0000000E+00;  1.9847656E-02;0;  1.5806314E-02;  3.9289965E+04;  0.0000000E+00;  1.8513678E-01;  4.0000000E+04;  0.0000000E+00;  3.9992465E+04;  1.9495701E-02;  0.0000000E+00; -3.6893871E-03;  3.1665402E+02;
  6.1165196E-01;  9.9999998E-03;  1.1001105E-01;6208;  6.8948064E-03;  0.0000000E+00; -4.4393179E-04;  9.9987579E+02;  1.0089607E-01; -1.0291067E+02;3;  1.0495872E+00;  0.0000000E+00;  2.1521330E-02;0;  1.5857821E-02;  3.9293465E+04;  0.0000000E+00;  1.6660255E-01;  4.0000000E+04;  0.0000000E+00;  3.9992109E+04;  1.9451637E-02;  0.0000000E+00; -3.5938148E-03;  3.2254053E+02;
  6.1160719E-01;  9.9999998E-03;  1.2001038E-01;6209;  6.8549658E-03;  0.0000000E+00; -4.7019974E-04;  9.9992255E+02;  1.0089671E-01; -6.4146332E+01;3;  1.0351173E+00;  0.0000000E+00;  2.5306107E-02;0;  1.5930574E-02;  3.9296422E+04;  0.0000000E+00;  1.3533475E-01;  4.0000000E+04;  0.0000000E+00;  3.9991852E+04;  1.9419560E-02;  0.0000000E+00; -3.4889861E-03;  3.1053741E+02;
  6.1156380E-01;  9.9999998E-03;  1.3001114E-01;6210;  6.8160770E-03;  0.0000000E+00; -4.8911525E-04;  9.9995593E+02;  1.0089687E-01; -3.6492794E+01;3;  1.0244244E+00;  0.0000000E+00;  3.0143367E-02;0;  1.6047604E-02;  3.9298555E+04;  0.0000000E+00;  9.5086932E-02;  4.0000000E+04;  0.0000000E+00;  3.9992141E+04;  1.9421946E-02;  0.0000000E+00; -3.3743409E-03;  2.7343506E+02;
  6.1152607E-01;  9.9999998E-03;  1.4001389E-01;6211;  6.7850454E-03;  0.0000000E+00; -5.0288398E-04;  9.9997632E+02;  1.0089706E-01; -1.9604383E+01;3;  1.0138553E+00;  0.0000000E+00;  3.5063773E-02;0;  1.6235448E-02;  3.9299203E+04;  0.0000000E+00;  5.1151004E-02;  4.0000000E+04;  0.0000000E+00;  3.9992762E+04;  1.9484138E-02;  0.0000000E+00; -3.2486892E-03;  2.0518198E+02;
  6.1149883E-01;  9.9999998E-03;  1.5001841E-01;6212;  6.7709014E-03;  0.0000000E+00; -5.1583245E-04;  9.9997803E+02;  1.0089783E-01; -1.8221706E+01;3;  1.0067416E+00;  0.0000000E+00;  3.8032599E-02;0;  1.6518205E-02;  3.9298430E+04;  0.0000000E+00;  9.2087677E-03;  4.0000000E+04;  0.0000000E+00;  3.9992906E+04;  1.9629093E-02;  0.0000000E+00; -3.1108870E-03;  1.0638839E+02;
  6.1148679E-01;  9.9999998E-03;  1.6002351E-01;6213;  6.7864838E-03;  0.0000000E+00; -5.2965386E-04;  9.9996362E+02;  1.0089833E-01; -3.0122604E+01;3;  1.0074058E+00;  0.0000000E+00;  3.9219122E-02;0;  1.6914256E-02;  3.9295906E+04;  0.0000000E+00; -2.5922138E-02;  4.0000000E+04;  0.0000000E+00;  3.9993816E+04;  1.9875074E-02;  0.0000000E+00; -2.9608177E-03;  3.7454277E+01;
  6.1149311E-01;  9.9999998E-03;  1.7002733E-01;6214;  6.8268501E-03;  0.0000000E+00; -5.4370821E-04;  9.9991937E+02;  1.0089871E-01; -6.6812927E+01;3;  1.0088686E+00;  0.0000000E+00;  3.9251346E-02;0;  1.7439790E-02;  3.9291227E+04;  0.0000000E+00; -5.1175613E-02;  4.0000000E+04;  0.0000000E+00;  3.9994898E+04;  2.0239070E-02;  0.0000000E+00; -2.7992791E-03;  1.4631781E+02;
  6.1151928E-01;  9.9999998E-03;  1.8002757E-01;6215;  6.8978276E-03;  0.0000000E+00; -5.6027644E-04;  9.9984387E+02;  1.0089894E-01; -1.2932968E+02;3;  1.0116010E+00;  0.0000000E+00;  3.6208231E-02;0;  1.8100420E-02;  3.9284059E+04;  0.0000000E+00; -6.6057235E-02;  4.0000000E+04;  0.0000000E+00;  3.9995664E+04;  2.0728346E-02;  0.0000000E+00; -2.6279252E-03;  2.3422794E+02;
  6.1156559E-01;  9.9999998E-03;  1.9002172E-01;6216;  7.0106867E-03;  0.0000000E+00; -5.7639816E-04;  9.9972437E+02;  1.0089947E-01; -2.2833922E+02;3;  1.0180638E+00;  0.0000000E+00;  3.4532562E-02;0;  1.8892126E-02;  3.9274336E+04;  0.0000000E+00; -7.2039925E-02;  4.0000000E+04;  0.0000000E+00;  3.9995766E+04;  2.1341041E-02;  0.0000000E+00; -2.4489139E-03;  2.7153128E+02;
  6.1163050E-01;  9.9999998E-03;  2.0000699E-01;6217;  7.1876640E-03;  0.0000000E+00; -5.8849808E-04;  9.9957587E+02;  1.0089987E-01; -3.5139746E+02;3;  1.0388088E+00;  0.0000000E+00;  3.4163885E-02;0;  1.9801350E-02;  3.9262609E+04;  0.0000000E+00; -7.1815550E-02;  4.0000000E+04;  0.0000000E+00;  3.9995879E+04;  2.2063864E-02;  0.0000000E+00; -2.2625136E-03;  2.9391217E+02;
  6.1171323E-01;  9.9999998E-03;  2.0998278E-01;6218;  7.4476860E-03;  0.0000000E+00; -5.8585044E-04;  9.9941742E+02;  1.0089972E-01; -4.8265302E+02;3;  1.0755572E+00;  0.0000000E+00;  3.3519533E-02;0;  2.0821590E-02;  3.9248410E+04;  0.0000000E+00; -6.9484957E-02;  4.0000000E+04;  0.0000000E+00;  3.9996852E+04;  2.2874868E-02;  0.0000000E+00; -2.0532785E-03;  4.5073489E+02;
  6.1181593E-01;  9.9999998E-03;  2.1996354E-01;6219;  7.8420192E-03;  0.0000000E+00; -5.3072214E-04;  9.9925433E+02;  1.0089993E-01; -6.1776031E+02;3;  1.1372381E+00;  0.0000000E+00;  3.5849459E-02;0;  2.2023221E-02;  3.9233199E+04;  0.0000000E+00; -7.2145328E-02;  4.0000000E+04;  0.0000000E+00;  3.9999883E+04;  2.3735823E-02;  0.0000000E+00; -1.7126021E-03;  8.2169489E+02;
  6.1193281E-01;  9.9999998E-03;  2.2996759E-01;6220;  8.2661808E-03;  0.0000000E+00; -5.1236717E-04;  9.9908069E+02;  1.0090013E-01; -7.6160809E+02;3;  1.2024843E+00;  0.0000000E+00;  3.7136629E-02;0;  2.3333654E-02;  3.9217844E+04;  0.0000000E+00; -9.3326278E-02;  4.0000000E+04;  0.0000000E+00;  4.0001324E+04;  2.4639584E-02;  0.0000000E+00; -1.3059299E-03;  1.0046813E+03;
  6.2166291E-01;  9.9999998E-03;  7.0027366E-02;6265;  6.9353464E-03;  0.0000000E+00; -2.9784816E-04;  9.9942688E+02;  1.0140128E-01; -4.7480139E+02;3;  1.0797557E+00;  0.0000000E+00;  1.6507687E-02;0;  1.6871409E-02;  3.8872855E+04;  0.0000000E+00;  1.0385495E-01;  4.0000000E+04;  0.0000000E+00;  3.9990609E+04;  2.0924080E-02;  0.0000000E+00; -4.0526702E-03;  1.6371623E+02;
  6.2164921E-01;  9.9999998E-03;  8.0028132E-02;6266;  6.9965147E-03;  0.0000000E+00; -3.4385960E-04;  9.9945691E+02;  1.0140149E-01; -4.4996259E+02;3;  1.0838648E+00;  0.0000000E+00;  1.5884928E-02;0;  1.6885288E-02;  3.8874891E+04;  0.0000000E+00;  1.0860591E-01;  4.0000000E+04;  0.0000000E+00;  3.9990461E+04;  2.0869778E-02;  0.0000000E+00; -3.9844899E-03;  1.6054196E+02;
  6.2162578E-01;  9.9999998E-03;  9.0027347E-02;6267;  7.0116138E-03;  0.0000000E+00; -3.9074608E-04;  9.9948871E+02;  1.0140219E-01; -4.2359296E+02;3;  1.0835416E+00;  0.0000000E+00;  1.4457288E-02;0;  1.6874239E-02;  3.8877105E+04;  0.0000000E+00;  1.0255755E-01;  4.0000000E+04;  0.0000000E+00;  3.9990012E+04;  2.0780737E-02;  0.0000000E+00; -3.9064982E-03;  1.5632379E+02;
  6.2159359E-01;  9.9999998E-03;  1.0002538E-01;6268;  6.9940886E-03;  0.0000000E+00; -4.3225399E-04;  9.9951697E+02;  1.0140278E-01; -4.0018622E+02;3;  1.0743027E+00;  0.0000000E+00;  1.5593364E-02;0;  1.6846478E-02;  3.8878992E+04;  0.0000000E+00;  8.5031949E-02;  4.0000000E+04;  0.0000000E+00;  3.9989492E+04;  2.0665439E-02;  0.0000000E+00; -3.8189609E-03;  1.6302536E+02;
  6.2155497E-01;  9.9999998E-03;  1.1002295E-01;6269;  6.9465679E-03;  0.0000000E+00; -4.6584240E-04;  9.9954303E+02;  1.0140337E-01; -3.7860657E+02;3;  1.0597929E+00;  0.0000000E+00;  1.9400712E-02;0;  1.6820528E-02;  3.8880727E+04;  0.0000000E+00;  5.7127785E-02;  4.0000000E+04;  0.0000000E+00;  3.9989121E+04;  2.0543061E-02;  0.0000000E+00; -3.7225327E-03;  1.8422806E+02;
  6.2151355E-01;  9.9999998E-03;  1.2002054E-01;6270;  6.8897521E-03;  0.0000000E+00; -4.9099489E-04;  9.9956824E+02;  1.0140344E-01; -3.5771829E+02;3;  1.0446788E+00;  0.0000000E+00;  2.2483407E-02;0;  1.6817305E-02;  3.8882168E+04;  0.0000000E+00;  2.1785608E-02;  4.0000000E+04;  0.0000000E+00;  3.9988516E+04;  2.0434793E-02;  0.0000000E+00; -3.6174881E-03;  2.0805226E+02;
  6.2147391E-01;  9.9999998E-03;  1.3001847E-01;6271;  6.8281181E-03;  0.0000000E+00; -5.1007950E-04;  9.9958789E+02;  1.0140459E-01; -3.4142245E+02;3;  1.0278908E+00;  0.0000000E+00;  2.7926574E-02;0;  1.6864596E-02;  3.8882941E+04;  0.0000000E+00; -1.6722163E-02;  4.0000000E+04;  0.0000000E+00;  3.9988336E+04;  2.0367714E-02;  0.0000000E+00; -3.5031182E-03;  2.1799487E+02;
  6.2144101E-01;  9.9999998E-03;  1.4001690E-01;6272;  6.7828931E-03;  0.0000000E+00; -5.2704202E-04;  9.9959558E+02;  1.0140541E-01; -3.3505225E+02;3;  1.0176203E+00;  0.0000000E+00;  3.2693263E-02;0;  1.6987538E-02;  3.8882629E+04;  0.0000000E+00; -5.3665314E-02;  4.0000000E+04;  0.0000000E+00;  3.9988730E+04;  2.0365303E-02;  0.0000000E+00; -3.3777647E-03;  2.0490497E+02;
  6.2141943E-01;  9.9999998E-03;  1.5001583E-01;6273;  6.7627295E-03;  0.0000000E+00; -5.4676959E-04;  9.9959235E+02;  1.0140602E-01; -3.3771884E+02;3;  1.0092369E+00;  0.0000000E+00;  3.4620188E-02;0;  1.7211558E-02;  3.8880973E+04;  0.0000000E+00; -8.4958114E-02;  4.0000000E+04;  0.0000000E+00;  3.9989363E+04;  2.0451192E-02;  0.0000000E+00; -3.2396335E-03;  1.7573427E+02;
  6.2141275E-01;  9.9999998E-03;  1.6001484E-01;6274;  6.7734579E-03;  0.0000000E+00; -5.6950183E-04;  9.9956805E+02;  1.0140680E-01; -3.5786642E+02;3;  1.0075626E+00;  0.0000000E+00;  3.5304092E-02;0;  1.7557837E-02;  3.8877898E+04;  0.0000000E+00; -1.0804979E-01;  4.0000000E+04;  0.0000000E+00;  3.9989902E+04;  2.0645931E-02;  0.0000000E+00; -3.0880945E-03;  1.6021046E+02;
  6.2142330E-01;  9.9999998E-03;  1.7001219E-01;6275;  6.8126419E-03;  0.0000000E+00; -5.9588731E-04;  9.9951874E+02;  1.0140770E-01; -3.9870477E+02;3;  1.0101629E+00;  0.0000000E+00;  3.3463631E-02;0;  1.8041523E-02;  3.8872746E+04;  0.0000000E+00; -1.2194651E-01;  4.0000000E+04;  0.0000000E+00;  3.9990301E+04;  2.0965712E-02;  0.0000000E+00; -2.9241890E-03;  1.8246762E+02;
  6.2145233E-01;  9.9999998E-03;  1.8000551E-01;6276;  6.8932003E-03;  0.0000000E+00; -6.2794460E-04;  9.9944073E+02;  1.0140860E-01; -4.6334491E+02;3;  1.0172049E+00;  0.0000000E+00;  3.0121477E-02;0;  1.8664273E-02;  3.8865508E+04;  0.0000000E+00; -1.2659788E-01;  4.0000000E+04;  0.0000000E+00;  3.9991473E+04;  2.1415697E-02;  0.0000000E+00; -2.7514256E-03;  2.1771964E+02;
  6.2149954E-01;  9.9999998E-03;  1.8999195E-01;6277;  7.0197829E-03;  0.0000000E+00; -6.6539162E-04;  9.9932513E+02;  1.0140942E-01; -5.5909528E+02;3;  1.0306100E+00;  0.0000000E+00;  2.5853442E-02;0;  1.9415695E-02;  3.8855535E+04;  0.0000000E+00; -1.2181016E-01;  4.0000000E+04;  0.0000000E+00;  3.9991543E+04;  2.1993309E-02;  0.0000000E+00; -2.5776150E-03;  2.4723894E+02;
  6.2156218E-01;  9.9999998E-03;  1.9996892E-01;6278;  7.2067925E-03;  0.0000000E+00; -7.0512522E-04;  9.9919434E+02;  1.0140961E-01; -6.6748730E+02;3;  1.0607699E+00;  0.0000000E+00;  2.3107741E-02;0;  2.0268267E-02;  3.8843777E+04;  0.0000000E+00; -1.0727040E-01;  4.0000000E+04;  0.0000000E+00;  3.9992586E+04;  2.2684293E-02;  0.0000000E+00; -2.4160251E-03;  3.3806027E+02;
  6.2164068E-01;  9.9999998E-03;  2.0993887E-01;6279;  7.5005451E-03;  0.0000000E+00; -7.1963167E-04;  9.9905396E+02;  1.0141014E-01; -7.8378027E+02;3;  1.1128026E+00;  0.0000000E+00;  2.1633008E-02;0;  2.1201961E-02;  3.8830047E+04;  0.0000000E+00; -8.3761275E-02;  4.0000000E+04;  0.0000000E+00;  3.9995668E+04;  2.3459550E-02;  0.0000000E+00; -2.2575890E-03;  7.0448114E+02;
  6.2173867E-01;  9.9999998E-03;  2.1992318E-01;6280;  8.0086933E-03;  0.0000000E+00; -6.1724079E-04;  9.9892932E+02;  1.0141039E-01; -8.8703662E+02;3;  1.1877846E+00;  0.0000000E+00;  3.0274786E-02;0;  2.2374516E-02;  3.8815219E+04;  0.0000000E+00; -5.5419318E-02;  4.0000000E+04;  0.0000000E+00;  4.0000473E+04;  2.4271613E-02;  0.0000000E+00; -1.8970961E-03;  1.3472471E+03;
  6.2185287E-01;  9.9999998E-03;  2.2994111E-01;6281;  8.5337805E-03;  0.0000000E+00; -5.3886551E-04;  9.9875793E+02;  1.0141005E-01; -1.0290079E+03;3;  1.2571385E+00;  0.0000000E+00;  3.0336881E-02;0;  2.3760477E-02;  3.8800070E+04;  0.0000000E+00; -3.2313183E-02;  4.0000000E+04;  0.0000000E+00;  4.0002566E+04;  2.5127629E-02;  0.0000000E+00; -1.3671512E-03;  1.6287291E+03;
  6.3165027E-01;  9.9999998E-03;  7.0025548E-02;6326;  7.0473962E-03;  0.0000000E+00; -3.1740122E-04;  9.9938818E+02;  1.0213829E-01; -5.0689923E+02;3;  1.1044339E+00;  0.0000000E+00;  1.3478163E-02;0;  1.8238517E-02;  3.8315562E+04;  0.0000000E+00;  1.5408529E-02;  4.0000000E+04;  0.0000000E+00;  3.9986531E+04;  2.2431036E-02;  0.0000000E+00; -4.1925204E-03;  1.5913689E+02;
  6.3162047E-01;  9.9999998E-03;  8.0028176E-02;6327;  7.0970333E-03;  0.0000000E+00; -3.6379369E-04;  9.9938226E+02;  1.0213865E-01; -5.1178799E+02;3;  1.1144996E+00;  0.0000000E+00;  1.2014695E-02;0;  1.8183339E-02;  3.8314996E+04;  0.0000000E+00; -1.2136587E-03;  4.0000000E+04;  0.0000000E+00;  3.9986277E+04;  2.2306474E-02;  0.0000000E+00; -4.1231350E-03;  1.0721340E+02;
  6.3157779E-01;  9.9999998E-03;  9.0029947E-02;6328;  7.0968196E-03;  0.0000000E+00; -4.0989372E-04;  9.9938251E+02;  1.0213952E-01; -5.1159045E+02;3;  1.1097170E+00;  0.0000000E+00;  1.1030350E-02;0;  1.8105071E-02;  3.8314137E+04;  0.0000000E+00; -2.6401957E-02;  4.0000000E+04;  0.0000000E+00;  3.9985559E+04;  2.2149293E-02;  0.0000000E+00; -4.0442217E-03;  5.4975418E+01;
  6.3152534E-01;  9.9999998E-03;  1.0003103E-01;6329;  7.0473938E-03;  0.0000000E+00; -4.4982295E-04;  9.9938580E+02;  1.0214072E-01; -5.0887451E+02;3;  1.0909390E+00;  0.0000000E+00;  1.1683201E-02;0;  1.8015346E-02;  3.8314023E+04;  0.0000000E+00; -5.8662929E-02;  4.0000000E+04;  0.0000000E+00;  3.9985039E+04;  2.1971609E-02;  0.0000000E+00; -3.9562644E-03;  9.6154564E+01;
  6.3146913E-01;  9.9999998E-03;  1.1003119E-01;6330;  6.9754347E-03;  0.0000000E+00; -4.8127273E-04;  9.9938812E+02;  1.0214174E-01; -5.0694864E+02;3;  1.0694965E+00;  0.0000000E+00;  1.5414848E-02;0;  1.7929174E-02;  3.8313629E+04;  0.0000000E+00; -9.4965391E-02;  4.0000000E+04;  0.0000000E+00;  3.9984340E+04;  2.1789402E-02;  0.0000000E+00; -3.8602285E-03;  1.8390958E+02;
  6.3141596E-01;  9.9999998E-03;  1.2002984E-01;6331;  6.8959892E-03;  0.0000000E+00; -5.0511007E-04;  9.9938928E+02;  1.0214268E-01; -5.0596100E+02;3;  1.0492556E+00;  0.0000000E+00;  2.1710310E-02;0;  1.7869079E-02;  3.8313059E+04;  0.0000000E+00; -1.3115071E-01;  4.0000000E+04;  0.0000000E+00;  3.9984059E+04;  2.1625580E-02;  0.0000000E+00; -3.7565012E-03;  2.6432037E+02;
  6.3137132E-01;  9.9999998E-03;  1.3002701E-01;6332;  6.8237958E-03;  0.0000000E+00; -5.2753405E-04;  9.9939130E+02;  1.0214432E-01; -5.0428204E+02;3;  1.0316266E+00;  0.0000000E+00;  2.6071848E-02;0;  1.7861299E-02;  3.8312215E+04;  0.0000000E+00; -1.6284707E-01;  4.0000000E+04;  0.0000000E+00;  3.9983430E+04;  2.1505406E-02;  0.0000000E+00; -3.6441069E-03;  3.2007990E+02;
  6.3133872E-01;  9.9999998E-03;  1.4002299E-01;6333;  6.7717838E-03;  0.0000000E+00; -5.5233709E-04;  9.9938361E+02;  1.0214541E-01; -5.1065222E+02;3;  1.0201494E+00;  0.0000000E+00;  2.9127285E-02;0;  1.7933238E-02;  3.8310457E+04;  0.0000000E+00; -1.8656221E-01;  4.0000000E+04;  0.0000000E+00;  3.9983410E+04;  2.1453964E-02;  0.0000000E+00; -3.5207258E-03;  3.4389966E+02;
  6.3132018E-01;  9.9999998E-03;  1.5001804E-01;6334;  6.7513767E-03;  0.0000000E+00; -5.8193417E-04;  9.9937109E+02;  1.0214674E-01; -5.2102228E+02;3;  1.0123458E+00;  0.0000000E+00;  2.9948393E-02;0;  1.8110707E-02;  3.8307555E+04;  0.0000000E+00; -2.0067336E-01;  4.0000000E+04;  0.0000000E+00;  3.9984020E+04;  2.1494471E-02;  0.0000000E+00; -3.3837638E-03;  3.3951407E+02;
  6.3131744E-01;  9.9999998E-03;  1.6001177E-01;6335;  6.7593111E-03;  0.0000000E+00; -6.1724323E-04;  9.9933679E+02;  1.0214814E-01; -5.4946594E+02;3;  1.0104266E+00;  0.0000000E+00;  2.8475845E-02;0;  1.8416470E-02;  3.8303480E+04;  0.0000000E+00; -2.0575008E-01;  4.0000000E+04;  0.0000000E+00;  3.9984344E+04;  2.1648588E-02;  0.0000000E+00; -3.2321177E-03;  3.2063928E+02;
  6.3133150E-01;  9.9999998E-03;  1.7000298E-01;6336;  6.8025505E-03;  0.0000000E+00; -6.5862713E-04;  9.9928003E+02;  1.0214947E-01; -5.9647693E+02;3;  1.0165091E+00;  0.0000000E+00;  2.4586363E-02;0;  1.8863223E-02;  3.8297664E+04;  0.0000000E+00; -2.0329532E-01;  4.0000000E+04;  0.0000000E+00;  3.9984547E+04;  2.1930592E-02;  0.0000000E+00; -3.0673689E-03;  3.0083151E+02;
  6.3136244E-01;  9.9999998E-03;  1.7998959E-01;6337;  6.8831621E-03;  0.0000000E+00; -7.0766342E-04;  9.9919128E+02;  1.0215106E-01; -6.7000574E+02;3;  1.0248122E+00;  0.0000000E+00;  1.9579208E-02;0;  1.9451160E-02;  3.8289809E+04;  0.0000000E+00; -1.9332241E-01;  4.0000000E+04;  0.0000000E+00;  3.9985086E+04;  2.2346588E-02;  0.0000000E+00; -2.8954276E-03;  2.8191412E+02;
  6.3140833E-01;  9.9999998E-03;  1.8996912E-01;6338;  7.0173363E-03;  0.0000000E+00; -7.6702383E-04;  9.9907916E+02;  1.0215215E-01; -7.6289203E+02;3;  1.0458635E+00;  0.0000000E+00;  1.2577509E-02;0;  2.0159602E-02;  3.8279395E+04;  0.0000000E+00; -1.7325611E-01;  4.0000000E+04;  0.0000000E+00;  3.9985820E+04;  2.2889933E-02;  0.0000000E+00; -2.7303295E-03;  2.6722665E+02;
  6.3146687E-01;  9.9999998E-03;  1.9993967E-01;6339;  7.2129383E-03;  0.0000000E+00; -8.3223480E-04;  9.9893915E+02;  1.0215345E-01; -8.7888873E+02;3;  1.0812157E+00;  0.0000000E+00;  6.4003472E-03;0;  2.0948200E-02;  3.8266633E+04;  0.0000000E+00; -1.3928011E-01;  4.0000000E+04;  0.0000000E+00;  3.9987180E+04;  2.3545418E-02;  0.0000000E+00; -2.5972184E-03;  3.7642123E+02;
  6.3153714E-01;  9.9999998E-03;  2.0990698E-01;6340;  7.5131804E-03;  0.0000000E+00; -8.6965715E-04;  9.9881696E+02;  1.0215411E-01; -9.8012042E+02;3;  1.1383302E+00;  0.0000000E+00;  4.0698373E-03;0;  2.1784276E-02;  3.8252461E+04;  0.0000000E+00; -8.9088447E-02;  4.0000000E+04;  0.0000000E+00;  3.9992094E+04;  2.4285806E-02;  0.0000000E+00; -2.5015308E-03;  9.1825519E+02;
  6.3162363E-01;  9.9999998E-03;  2.1989599E-01;6341;  8.0451891E-03;  0.0000000E+00; -7.6952716E-04;  9.9870508E+02;  1.0215443E-01; -1.0728092E+03;3;  1.2241361E+00;  0.0000000E+00;  1.5627015E-02;0;  2.2844991E-02;  3.8237203E+04;  0.0000000E+00; -2.4970664E-02;  4.0000000E+04;  0.0000000E+00;  3.9999117E+04;  2.5070876E-02;  0.0000000E+00; -2.2258849E-03;  1.7892543E+03;
  6.3172680E-01;  9.9999998E-03;  2.2992547E-01;6342;  8.6559337E-03;  0.0000000E+00; -6.3179119E-04;  9.9853638E+02;  1.0215427E-01; -1.2126077E+03;3;  1.3015779E+00;  0.0000000E+00;  1.7417077E-02;0;  2.4247486E-02;  3.8221410E+04;  0.0000000E+00;  4.4425625E-02;  4.0000000E+04;  0.0000000E+00;  4.0002125E+04;  2.5892075E-02;  0.0000000E+00; -1.6445884E-03;  2.1802168E+03;
  6.4170915E-01;  9.9999998E-03;  7.0007980E-02;6387;  7.2367019E-03;  0.0000000E+00; -3.3376989E-04;  9.9965051E+02;  1.0315657E-01; -2.8952267E+02;3;  1.1654446E+00;  0.0000000E+00;  8.8442937E-03;0;  1.9540057E-02;  3.7584980E+04;  0.0000000E+00; -9.1688834E-02;  4.0000000E+04;  0.0000000E+00;  3.9980707E+04;  2.3876673E-02;  0.0000000E+00; -4.3366156E-03;  2.9282410E+02;
  6.4167899E-01;  9.9999998E-03;  8.0008395E-02;6388;  7.2622597E-03;  0.0000000E+00; -3.8403837E-04;  9.9962830E+02;  1.0315756E-01; -3.0794189E+02;3;  1.1701508E+00;  0.0000000E+00;  3.9008441E-03;0;  1.9446138E-02;  3.7582402E+04;  0.0000000E+00; -1.3163510E-01;  4.0000000E+04;  0.0000000E+00;  3.9980258E+04;  2.3713117E-02;  0.0000000E+00; -4.2669796E-03;  2.8222263E+02;
  6.4163691E-01;  9.9999998E-03;  9.0008557E-02;6389;  7.2213463E-03;  0.0000000E+00; -4.3153125E-04;  9.9960669E+02;  1.0315905E-01; -3.2586734E+02;3;  1.1551459E+00;  0.0000000E+00;  3.9354353E-03;0;  1.9337028E-02;  3.7579980E+04;  0.0000000E+00; -1.7665465E-01;  4.0000000E+04;  0.0000000E+00;  3.9979578E+04;  2.3525398E-02;  0.0000000E+00; -4.1883704E-03;  2.9307703E+02;
  6.4158469E-01;  9.9999998E-03;  1.0000873E-01;6390;  7.1326909E-03;  0.0000000E+00; -4.6912621E-04;  9.9958545E+02;  1.0316058E-01; -3.4344708E+02;3;  1.1216289E+00;  0.0000000E+00;  5.3736707E-03;0;  1.9221408E-02;  3.7577625E+04;  0.0000000E+00; -2.2289419E-01;  4.0000000E+04;  0.0000000E+00;  3.9978793E+04;  2.3322746E-02;  0.0000000E+00; -4.1013374E-03;  3.4012360E+02;
  6.4152640E-01;  9.9999998E-03;  1.1000905E-01;6391;  7.0236456E-03;  0.0000000E+00; -4.9787300E-04;  9.9957068E+02;  1.0316254E-01; -3.5569363E+02;3;  1.0864987E+00;  0.0000000E+00;  1.1902826E-02;0;  1.9112952E-02;  3.7575711E+04;  0.0000000E+00; -2.6538301E-01;  4.0000000E+04;  0.0000000E+00;  3.9978262E+04;  2.3119941E-02;  0.0000000E+00; -4.0069902E-03;  4.1190295E+02;
  6.4146727E-01;  9.9999998E-03;  1.2000941E-01;6392;  6.9200955E-03;  0.0000000E+00; -5.2343472E-04;  9.9955896E+02;  1.0316449E-01; -3.6537238E+02;3;  1.0613343E+00;  0.0000000E+00;  1.7923078E-02;0;  1.9031305E-02;  3.7573137E+04;  0.0000000E+00; -2.9893091E-01;  4.0000000E+04;  0.0000000E+00;  3.9977527E+04;  2.2936964E-02;  0.0000000E+00; -3.9056598E-03;  4.8287650E+02;
  6.4141196E-01;  9.9999998E-03;  1.3000937E-01;6393;  6.8378658E-03;  0.0000000E+00; -5.5040192E-04;  9.9954059E+02;  1.0316669E-01; -3.8063120E+02;3;  1.0441154E+00;  0.0000000E+00;  2.1439241E-02;0;  1.9001342E-02;  3.7570824E+04;  0.0000000E+00; -3.1950378E-01;  4.0000000E+04;  0.0000000E+00;  3.9976906E+04;  2.2797331E-02;  0.0000000E+00; -3.7959889E-03;  5.3131750E+02;
  6.4136416E-01;  9.9999998E-03;  1.4000872E-01;6394;  6.7808689E-03;  0.0000000E+00; -5.8476976E-04;  9.9952228E+02;  1.0316910E-01; -3.9579129E+02;3;  1.0279112E+00;  0.0000000E+00;  2.3345368E-02;0;  1.9050907E-02;  3.7567594E+04;  0.0000000E+00; -3.2547164E-01;  4.0000000E+04;  0.0000000E+00;  3.9976660E+04;  2.2725936E-02;  0.0000000E+00; -3.6750280E-03;  5.4619067E+02;
  6.4132583E-01;  9.9999998E-03;  1.5000750E-01;6395;  6.7554163E-03;  0.0000000E+00; -6.2645861E-04;  9.9949451E+02;  1.0317156E-01; -4.1880298E+02;3;  1.0204846E+00;  0.0000000E+00;  2.2285765E-02;0;  1.9206829E-02;  3.7563672E+04;  0.0000000E+00; -3.1825402E-01;  4.0000000E+04;  0.0000000E+00;  3.9976758E+04;  2.2746293E-02;  0.0000000E+00; -3.5394628E-03;  5.2875409E+02;
  6.4129794E-01;  9.9999998E-03;  1.6000551E-01;6396;  6.7658639E-03;  0.0000000E+00; -6.7305804E-04;  9.9944788E+02;  1.0317384E-01; -4.5741916E+02;3;  1.0203582E+00;  0.0000000E+00;  1.7788982E-02;0;  1.9491037E-02;  3.7558059E+04;  0.0000000E+00; -3.0187902E-01;  4.0000000E+04;  0.0000000E+00;  3.9977238E+04;  2.2878977E-02;  0.0000000E+00; -3.3879394E-03;  4.9039075E+02;
  6.4128399E-01;  9.9999998E-03;  1.7000057E-01;6397;  6.8099899E-03;  0.0000000E+00; -7.2921580E-04;  9.9937610E+02;  1.0317647E-01; -5.1687427E+02;3;  1.0262057E+00;  0.0000000E+00;  1.2409694E-02;0;  1.9916141E-02;  3.7550750E+04;  0.0000000E+00; -2.8002694E-01;  4.0000000E+04;  0.0000000E+00;  3.9977289E+04;  2.3139155E-02;  0.0000000E+00; -3.2230129E-03;  4.4379968E+02;
  6.4129239E-01;  9.9999998E-03;  1.7998786E-01;6398;  6.8997764E-03;  0.0000000E+00; -7.9426280E-04;  9.9927722E+02;  1.0317879E-01; -5.9879785E+02;3;  1.0429741E+00;  0.0000000E+00;  4.1332105E-03;0;  2.0478785E-02;  3.7541629E+04;  0.0000000E+00; -2.5219825E-01;  4.0000000E+04;  0.0000000E+00;  3.9977441E+04;  2.3532435E-02;  0.0000000E+00; -3.0536505E-03;  3.8987497E+02;
  6.4132482E-01;  9.9999998E-03;  1.8996549E-01;6399;  7.0393481E-03;  0.0000000E+00; -8.6891168E-04;  9.9915002E+02;  1.0318115E-01; -7.0417761E+02;3;  1.0683590E+00;  0.0000000E+00; -4.6396004E-03;0;  2.1153893E-02;  3.7529902E+04;  0.0000000E+00; -2.1329762E-01;  4.0000000E+04;  0.0000000E+00;  3.9977941E+04;  2.4052773E-02;  0.0000000E+00; -2.8988793E-03;  3.1709467E+02;
  6.4137232E-01;  9.9999998E-03;  1.9993544E-01;6400;  7.2468738E-03;  0.0000000E+00; -9.4929797E-04;  9.9900635E+02;  1.0318273E-01; -8.2323596E+02;3;  1.1127878E+00;  0.0000000E+00; -1.1712165E-02;0;  2.1891210E-02;  3.7516434E+04;  0.0000000E+00; -1.5665478E-01;  4.0000000E+04;  0.0000000E+00;  3.9980199E+04;  2.4682727E-02;  0.0000000E+00; -2.7915165E-03;  3.5609024E+02;
  6.4142936E-01;  9.9999998E-03;  2.0990624E-01;6401;  7.5518419E-03;  0.0000000E+00; -1.0018995E-03;  9.9887671E+02;  1.0318427E-01; -9.3064032E+02;3;  1.1689085E+00;  0.0000000E+00; -1.4111105E-02;0;  2.2650516E-02;  3.7501051E+04;  0.0000000E+00; -7.8988433E-02;  4.0000000E+04;  0.0000000E+00;  3.9985141E+04;  2.5399178E-02;  0.0000000E+00; -2.7486631E-03;  9.3734314E+02;
  6.4149761E-01;  9.9999998E-03;  2.1990062E-01;6402;  8.0431709E-03;  0.0000000E+00; -9.3276630E-04;  9.9875543E+02;  1.0318518E-01; -1.0310819E+03;3;  1.2476265E+00;  0.0000000E+00; -9.0062199E-03;0;  2.3577293E-02;  3.7484664E+04;  0.0000000E+00;  1.6154556E-02;  4.0000000E+04;  0.0000000E+00;  3.9992543E+04;  2.6177045E-02;  0.0000000E+00; -2.5997511E-03;  1.8700061E+03;
  6.4157915E-01;  9.9999998E-03;  2.2993368E-01;6403;  8.6721173E-03;  0.0000000E+00; -7.7629212E-04;  9.9857208E+02;  1.0318498E-01; -1.1829789E+03;3;  1.3288287E+00;  0.0000000E+00; -1.5542507E-03;0;  2.4896659E-02;  3.7467895E+04;  0.0000000E+00;  1.1528416E-01;  4.0000000E+04;  0.0000000E+00;  3.9996641E+04;  2.6996776E-02;  0.0000000E+00; -2.1001168E-03;  2.3540334E+03;
  6.5172726E-01;  9.9999998E-03;  6.9994107E-02;6448;  7.7406806E-03;  0.0000000E+00; -3.5946985E-04;  1.0001442E+03;  1.0447907E-01;  1.1940403E+02;3;  1.3634913E+00;  0.0000000E+00; -1.0024068E-02;0;  2.0666702E-02;  3.6673910E+04;  0.0000000E+00; -1.9523323E-01;  4.0000000E+04;  0.0000000E+00;  3.9973180E+04;  2.5148815E-02;  0.0000000E+00; -4.4821124E-03;  4.6159085E+02;
  6.5168709E-01;  9.9999998E-03;  7.9993531E-02;6449;  7.7301892E-03;  0.0000000E+00; -4.1734910E-04;  1.0001031E+03;  1.0448135E-01;  8.5429680E+01;3;  1.3556710E+00;  0.0000000E+00; -1.4982220E-02;0;  2.0565581E-02;  3.6669598E+04;  0.0000000E+00; -2.5608024E-01;  4.0000000E+04;  0.0000000E+00;  3.9972477E+04;  2.4978250E-02;  0.0000000E+00; -4.4126702E-03;  4.8947491E+02;
  6.5163690E-01;  9.9999998E-03;  8.9993097E-02;6450;  7.6120333E-03;  0.0000000E+00; -4.6951696E-04;  1.0000729E+03;  1.0448404E-01;  6.0442734E+01;3;  1.3047953E+00;  0.0000000E+00; -1.4483945E-02;0;  2.0458657E-02;  3.6665496E+04;  0.0000000E+00; -3.1793898E-01;  4.0000000E+04;  0.0000000E+00;  3.9971809E+04;  2.4793606E-02;  0.0000000E+00; -4.3349490E-03;  5.3203406E+02;
  6.5157878E-01;  9.9999998E-03;  9.9993080E-02;6451;  7.4172029E-03;  0.0000000E+00; -5.0900906E-04;  1.0000407E+03;  1.0448698E-01;  3.3776821E+01;3;  1.2212548E+00;  0.0000000E+00; -1.1620026E-02;0;  2.0353436E-02;  3.6661926E+04;  0.0000000E+00; -3.7466356E-01;  4.0000000E+04;  0.0000000E+00;  3.9970484E+04;  2.4602877E-02;  0.0000000E+00; -4.2494405E-03;  5.9227960E+02;
  6.5151685E-01;  9.9999998E-03;  1.0999379E-01;6452;  7.2082668E-03;  0.0000000E+00; -5.3500116E-04;  1.0000195E+03;  1.0449031E-01;  1.6098310E+01;3;  1.1448530E+00;  0.0000000E+00; -7.3977379E-04;0;  2.0262424E-02;  3.6658574E+04;  0.0000000E+00; -4.1951284E-01;  4.0000000E+04;  0.0000000E+00;  3.9969754E+04;  2.4419559E-02;  0.0000000E+00; -4.1571348E-03;  6.5976025E+02;
  6.5145707E-01;  9.9999998E-03;  1.1999476E-01;6453;  7.0461687E-03;  0.0000000E+00; -5.5856048E-04;  9.9999677E+02;  1.0449348E-01; -2.6665912E+00;3;  1.0955448E+00;  0.0000000E+00;  6.9379238E-03;0;  2.0203460E-02;  3.6655016E+04;  0.0000000E+00; -4.4661903E-01;  4.0000000E+04;  0.0000000E+00;  3.9968930E+04;  2.4261730E-02;  0.0000000E+00; -4.0582702E-03;  7.1578082E+02;
  6.5140539E-01;  9.9999998E-03;  1.2999532E-01;6454;  6.9278032E-03;  0.0000000E+00; -5.8920053E-04;  9.9997876E+02;  1.0449734E-01; -1.7579750E+01;3;  1.0679795E+00;  0.0000000E+00;  1.1640402E-02;0;  2.0197017E-02;  3.6651836E+04;  0.0000000E+00; -4.5273176E-01;  4.0000000E+04;  0.0000000E+00;  3.9968523E+04;  2.4148243E-02;  0.0000000E+00; -3.9512250E-03;  7.4324585E+02;
  6.5136528E-01;  9.9999998E-03;  1.3999519E-01;6455;  6.8521160E-03;  0.0000000E+00; -6.2791794E-04;  9.9995612E+02;  1.0450092E-01; -3.6344650E+01;3;  1.0511990E+00;  0.0000000E+00;  1.3351314E-02;0;  2.0267904E-02;  3.6647430E+04;  0.0000000E+00; -4.3847364E-01;  4.0000000E+04;  0.0000000E+00;  3.9968262E+04;  2.4100516E-02;  0.0000000E+00; -3.8326113E-03;  7.3388428E+02;
  6.5133911E-01;  9.9999998E-03;  1.4999411E-01;6456;  6.8161055E-03;  0.0000000E+00; -6.7843252E-04;  9.9992236E+02;  1.0450477E-01; -6.4343857E+01;3;  1.0434198E+00;  0.0000000E+00;  9.9171251E-03;0;  2.0441871E-02;  3.6642375E+04;  0.0000000E+00; -4.0845838E-01;  4.0000000E+04;  0.0000000E+00;  3.9967863E+04;  2.4140598E-02;  0.0000000E+00; -3.6987276E-03;  6.9090912E+02;
  6.5132862E-01;  9.9999998E-03;  1.5999168E-01;6457;  6.8193716E-03;  0.0000000E+00; -7.3958584E-04;  9.9986737E+02;  1.0450928E-01; -1.0987344E+02;3;  1.0427504E+00;  0.0000000E+00;  4.5612268E-03;0;  2.0740302E-02;  3.6635781E+04;  0.0000000E+00; -3.6990082E-01;  4.0000000E+04;  0.0000000E+00;  3.9967773E+04;  2.4288615E-02;  0.0000000E+00; -3.5483136E-03;  6.2633179E+02;
  6.5133333E-01;  9.9999998E-03;  1.6998751E-01;6458;  6.8684774E-03;  0.0000000E+00; -8.0507487E-04;  9.9979028E+02;  1.0451332E-01; -1.7372348E+02;3;  1.0554202E+00;  0.0000000E+00; -4.3143174E-03;0;  2.1174282E-02;  3.6627480E+04;  0.0000000E+00; -3.2789946E-01;  4.0000000E+04;  0.0000000E+00;  3.9968258E+04;  2.4559340E-02;  0.0000000E+00; -3.3850572E-03;  5.5067242E+02;
  6.5135121E-01;  9.9999998E-03;  1.7998044E-01;6459;  6.9662570E-03;  0.0000000E+00; -8.7986595E-04;  9.9968225E+02;  1.0451718E-01; -2.6325180E+02;3;  1.0716387E+00;  0.0000000E+00; -1.3439049E-02;0;  2.1737393E-02;  3.6617035E+04;  0.0000000E+00; -2.8108728E-01;  4.0000000E+04;  0.0000000E+00;  3.9968641E+04;  2.4957789E-02;  0.0000000E+00; -3.2203959E-03;  4.6153366E+02;
  6.5137827E-01;  9.9999998E-03;  1.8996951E-01;6460;  7.1248156E-03;  0.0000000E+00; -9.6304476E-04;  9.9954724E+02;  1.0452078E-01; -3.7510049E+02;3;  1.1034226E+00;  0.0000000E+00; -2.3312854E-02;0;  2.2401271E-02;  3.6604383E+04;  0.0000000E+00; -2.2232778E-01;  4.0000000E+04;  0.0000000E+00;  3.9969320E+04;  2.5478490E-02;  0.0000000E+00; -3.0772188E-03;  3.4475790E+02;
  6.5140647E-01;  9.9999998E-03;  1.9995552E-01;6461;  7.3511438E-03;  0.0000000E+00; -1.0421207E-03;  9.9939014E+02;  1.0452393E-01; -5.0526965E+02;3;  1.1459845E+00;  0.0000000E+00; -2.9629553E-02;0;  2.3118049E-02;  3.6589242E+04;  0.0000000E+00; -1.4396119E-01;  4.0000000E+04;  0.0000000E+00;  3.9971395E+04;  2.6106048E-02;  0.0000000E+00; -2.9879997E-03;  3.0298074E+02;
  6.5142578E-01;  9.9999998E-03;  2.0994446E-01;6462;  7.6639084E-03;  0.0000000E+00; -1.0987738E-03;  9.9922601E+02;  1.0452615E-01; -6.4121643E+02;3;  1.2063922E+00;  0.0000000E+00; -3.3741388E-02;0;  2.3841472E-02;  3.6572758E+04;  0.0000000E+00; -4.3915384E-02;  4.0000000E+04;  0.0000000E+00;  3.9975176E+04;  2.6820621E-02;  0.0000000E+00; -2.9791484E-03;  7.2480316E+02;
  6.5147805E-01;  9.9999998E-03;  2.2997184E-01;6464;  8.6812964E-03;  0.0000000E+00; -9.3292631E-04;  9.9886737E+02;  1.0452833E-01; -9.3834381E+02;3;  1.3487115E+00;  0.0000000E+00; -2.0650065E-02;0;  2.5832476E-02;  3.6536641E+04;  0.0000000E+00;  1.6129789E-01;  4.0000000E+04;  0.0000000E+00;  3.9985207E+04;  2.8452888E-02;  0.0000000E+00; -2.6204125E-03;  2.0246062E+03;
  6.5144122E-01;  9.9999998E-03;  2.1994653E-01;6463;  8.1017874E-03;  0.0000000E+00; -1.0696335E-03;  9.9906592E+02;  1.0452796E-01; -7.7385468E+02;3;  1.2794297E+00;  0.0000000E+00; -2.7884068E-02;0;  2.4654714E-02;  3.6554852E+04;  0.0000000E+00;  6.7131981E-02;  4.0000000E+04;  0.0000000E+00;  3.9981117E+04;  2.7606443E-02;  0.0000000E+00; -2.9517277E-03;  1.4705449E+03;
  6.6178250E-01;  9.9999998E-03;  6.9975637E-02;6509;  8.6311037E-03;  0.0000000E+00; -3.7720113E-04;  1.0005795E+03;  1.0609844E-01;  4.8008517E+02;3;  1.7070471E+00;  0.0000000E+00; -3.3018388E-02;0;  2.1682406E-02;  3.5589309E+04;  0.0000000E+00; -2.7038902E-01;  4.0000000E+04;  0.0000000E+00;  3.9963340E+04;  2.6312137E-02;  0.0000000E+00; -4.6297316E-03;  5.9960797E+02;
  6.6174752E-01;  9.9999998E-03;  7.9973385E-02;6510;  8.5712224E-03;  0.0000000E+00; -4.4164972E-04;  1.0005396E+03;  1.0610209E-01;  4.4709848E+02;3;  1.6703800E+00;  0.0000000E+00; -3.7769120E-02;0;  2.1600900E-02;  3.5583859E+04;  0.0000000E+00; -3.4529632E-01;  4.0000000E+04;  0.0000000E+00;  3.9962602E+04;  2.6161939E-02;  0.0000000E+00; -4.5610392E-03;  6.5686200E+02;
  6.6170311E-01;  9.9999998E-03;  8.9971848E-02;6511;  8.4102722E-03;  0.0000000E+00; -5.0208607E-04;  1.0005070E+03;  1.0610646E-01;  4.2003751E+02;3;  1.5934340E+00;  0.0000000E+00; -3.7462443E-02;0;  2.1526711E-02;  3.5579191E+04;  0.0000000E+00; -4.1732076E-01;  4.0000000E+04;  0.0000000E+00;  3.9961824E+04;  2.6011672E-02;  0.0000000E+00; -4.4849613E-03;  7.2033984E+02;
  6.6164994E-01;  9.9999998E-03;  9.9971369E-02;6512;  8.1389928E-03;  0.0000000E+00; -5.5308937E-04;  1.0004827E+03;  1.0611106E-01;  3.9988992E+02;3;  1.4824737E+00;  0.0000000E+00; -3.0959107E-02;0;  2.1459794E-02;  3.5575004E+04;  0.0000000E+00; -4.7826862E-01;  4.0000000E+04;  0.0000000E+00;  3.9960773E+04;  2.5861368E-02;  0.0000000E+00; -4.4015744E-03;  7.8759869E+02;
  6.6158980E-01;  9.9999998E-03;  1.0997218E-01;6513;  7.7925855E-03;  0.0000000E+00; -5.8840308E-04;  1.0004680E+03;  1.0611635E-01;  3.8774213E+02;3;  1.3466160E+00;  0.0000000E+00; -2.1982905E-02;0;  2.1407314E-02;  3.5571414E+04;  0.0000000E+00; -5.1994491E-01;  4.0000000E+04;  0.0000000E+00;  3.9959602E+04;  2.5718689E-02;  0.0000000E+00; -4.3113744E-03;  8.4712750E+02;
  6.6152751E-01;  9.9999998E-03;  1.1997452E-01;6514;  7.4448492E-03;  0.0000000E+00; -6.1462756E-04;  1.0004572E+03;  1.0612210E-01;  3.7875473E+02;3;  1.2150902E+00;  0.0000000E+00; -1.0275539E-02;0;  2.1386925E-02;  3.5567770E+04;  0.0000000E+00; -5.3623182E-01;  4.0000000E+04;  0.0000000E+00;  3.9958707E+04;  2.5601186E-02;  0.0000000E+00; -4.2142617E-03;  8.8311206E+02;
  6.6146934E-01;  9.9999998E-03;  1.2997806E-01;6515;  7.2006602E-03;  0.0000000E+00; -6.4202741E-04;  1.0004533E+03;  1.0612793E-01;  3.7559433E+02;3;  1.1410964E+00;  0.0000000E+00; -2.9142720E-03;0;  2.1428706E-02;  3.5563820E+04;  0.0000000E+00; -5.2516568E-01;  4.0000000E+04;  0.0000000E+00;  3.9957941E+04;  2.5537210E-02;  0.0000000E+00; -4.1085035E-03;  8.8286188E+02;
  6.6142136E-01;  9.9999998E-03;  1.3998212E-01;6516;  7.0576528E-03;  0.0000000E+00; -6.8393920E-04;  1.0004456E+03;  1.0613424E-01;  3.6917474E+02;3;  1.1041605E+00;  0.0000000E+00; -3.1094500E-03;0;  2.1551713E-02;  3.5559465E+04;  0.0000000E+00; -4.8990440E-01;  4.0000000E+04;  0.0000000E+00;  3.9957914E+04;  2.5542362E-02;  0.0000000E+00; -3.9906492E-03;  8.4251312E+02;
  6.6138703E-01;  9.9999998E-03;  1.4998627E-01;6517;  6.9867712E-03;  0.0000000E+00; -7.3736097E-04;  1.0004193E+03;  1.0614111E-01;  3.4734821E+02;3;  1.0913663E+00;  0.0000000E+00; -4.6837088E-03;0;  2.1773862E-02;  3.5553930E+04;  0.0000000E+00; -4.3812126E-01;  4.0000000E+04;  0.0000000E+00;  3.9957410E+04;  2.5630893E-02;  0.0000000E+00; -3.8570308E-03;  7.6860010E+02;
  6.6136765E-01;  9.9999998E-03;  1.5999030E-01;6518;  6.9808811E-03;  0.0000000E+00; -8.0155110E-04;  1.0003687E+03;  1.0614753E-01;  3.0537408E+02;3;  1.0916870E+00;  0.0000000E+00; -1.0231771E-02;0;  2.2114331E-02;  3.5546898E+04;  0.0000000E+00; -3.7928927E-01;  4.0000000E+04;  0.0000000E+00;  3.9957070E+04;  2.5821157E-02;  0.0000000E+00; -3.7068264E-03;  6.7392712E+02;
  6.6136390E-01;  9.9999998E-03;  1.6999398E-01;6519;  7.0294207E-03;  0.0000000E+00; -8.7859755E-04;  1.0002940E+03;  1.0615346E-01;  2.4354866E+02;3;  1.1020367E+00;  0.0000000E+00; -2.1057077E-02;0;  2.2581223E-02;  3.5537676E+04;  0.0000000E+00; -3.1885162E-01;  4.0000000E+04;  0.0000000E+00;  3.9957520E+04;  2.6126551E-02;  0.0000000E+00; -3.5453262E-03;  5.6671863E+02;
  6.6137528E-01;  9.9999998E-03;  1.7999680E-01;6520;  7.1360744E-03;  0.0000000E+00; -9.5427659E-04;  1.0001883E+03;  1.0615946E-01;  1.5604497E+02;3;  1.1243168E+00;  0.0000000E+00; -2.9988201E-02;0;  2.3168847E-02;  3.5526301E+04;  0.0000000E+00; -2.5450152E-01;  4.0000000E+04;  0.0000000E+00;  3.9958035E+04;  2.6554676E-02;  0.0000000E+00; -3.3858288E-03;  4.4292783E+02;
  6.6139972E-01;  9.9999998E-03;  1.8999946E-01;6521;  7.3178126E-03;  0.0000000E+00; -1.0296900E-03;  1.0000464E+03;  1.0616504E-01;  3.8418667E+01;3;  1.1578543E+00;  0.0000000E+00; -3.6228277E-02;0;  2.3854490E-02;  3.5512520E+04;  0.0000000E+00; -1.7856596E-01;  4.0000000E+04;  0.0000000E+00;  3.9958918E+04;  2.7105832E-02;  0.0000000E+00; -3.2513419E-03;  2.9414813E+02;
  6.6143298E-01;  9.9999998E-03;  2.0000306E-01;6522;  7.5749592E-03;  0.0000000E+00; -1.0936561E-03;  9.9986945E+02;  1.0617018E-01; -1.0814509E+02;3;  1.2107881E+00;  0.0000000E+00; -4.1591845E-02;0;  2.4599161E-02;  3.5496645E+04;  0.0000000E+00; -8.4049970E-02;  4.0000000E+04;  0.0000000E+00;  3.9960414E+04;  2.7768759E-02;  0.0000000E+00; -3.1695983E-03;  2.0511043E+02;
  6.6147041E-01;  9.9999998E-03;  2.1000898E-01;6523;  7.8979013E-03;  0.0000000E+00; -1.1381176E-03;  9.9966687E+02;  1.0617392E-01; -2.7599219E+02;3;  1.2612009E+00;  0.0000000E+00; -4.4183280E-02;0;  2.5361598E-02;  3.5478391E+04;  0.0000000E+00;  2.7308442E-02;  4.0000000E+04;  0.0000000E+00;  3.9962719E+04;  2.8525535E-02;  0.0000000E+00; -3.1639372E-03;  4.5568576E+02;
  6.6150796E-01;  9.9999998E-03;  2.2001806E-01;6524;  8.3077727E-03;  0.0000000E+00; -1.1336177E-03;  9.9944904E+02;  1.0617704E-01; -4.5648093E+02;3;  1.3222511E+00;  0.0000000E+00; -3.8673650E-02;0;  2.6171770E-02;  3.5458789E+04;  0.0000000E+00;  1.3618259E-01;  4.0000000E+04;  0.0000000E+00;  3.9965906E+04;  2.9364198E-02;  0.0000000E+00; -3.1924294E-03;  9.1833893E+02;
  6.6154373E-01;  9.9999998E-03;  2.3003249E-01;6525;  8.7859714E-03;  0.0000000E+00; -1.0537890E-03;  9.9921472E+02;  1.0617924E-01; -6.5059888E+02;3;  1.3785863E+00;  0.0000000E+00; -3.3207480E-02;0;  2.7206872E-02;  3.5438613E+04;  0.0000000E+00;  1.9518524E-01;  4.0000000E+04;  0.0000000E+00;  3.9970172E+04;  3.0269980E-02;  0.0000000E+00; -3.0631085E-03;  1.4359852E+03;
  6.7177027E-01;  9.9999998E-03;  6.9965139E-02;6570;  9.2247957E-03;  0.0000000E+00; -3.4866933E-04;  1.0006500E+03;  1.0798641E-01;  5.3845392E+02;3;  1.9397608E+00;  0.0000000E+00; -1.5437486E-02;0;  2.2557007E-02;  3.4355441E+04;  0.0000000E+00; -2.9509515E-01;  4.0000000E+04;  0.0000000E+00;  3.9951395E+04;  2.7336109E-02;  0.0000000E+00; -4.7791018E-03;  6.5938812E+02;
  6.7175645E-01;  9.9999998E-03;  7.9961069E-02;6571;  9.1952067E-03;  0.0000000E+00; -4.1169731E-04;  1.0006241E+03;  1.0799275E-01;  5.1702240E+02;3;  1.8993464E+00;  0.0000000E+00; -2.3227628E-02;0;  2.2530792E-02;  3.4349789E+04;  0.0000000E+00; -3.7265834E-01;  4.0000000E+04;  0.0000000E+00;  3.9950789E+04;  2.7242109E-02;  0.0000000E+00; -4.7113169E-03;  7.3288251E+02;
  6.7173773E-01;  9.9999998E-03;  8.9957640E-02;6572;  9.1016339E-03;  0.0000000E+00; -4.7793225E-04;  1.0006059E+03;  1.0799950E-01;  5.0201050E+02;3;  1.8422371E+00;  0.0000000E+00; -2.7747588E-02;0;  2.2535793E-02;  3.4344695E+04;  0.0000000E+00; -4.4417912E-01;  4.0000000E+04;  0.0000000E+00;  3.9949883E+04;  2.7173005E-02;  0.0000000E+00; -4.6372120E-03;  8.0355737E+02;
  6.7171305E-01;  9.9999998E-03;  9.9955305E-02;6573;  8.9186430E-03;  0.0000000E+00; -5.4166262E-04;  1.0006003E+03;  1.0800669E-01;  4.9736865E+02;3;  1.7600324E+00;  0.0000000E+00; -2.8508538E-02;0;  2.2564283E-02;  3.4340465E+04;  0.0000000E+00; -5.0016457E-01;  4.0000000E+04;  0.0000000E+00;  3.9948656E+04;  2.7120590E-02;  0.0000000E+00; -4.5563076E-03;  8.6618579E+02;
  6.7168164E-01;  9.9999998E-03;  1.0995442E-01;6574;  8.6373417E-03;  0.0000000E+00; -5.9694069E-04;  1.0006138E+03;  1.0801467E-01;  5.0852884E+02;3;  1.6421328E+00;  0.0000000E+00; -2.4676576E-02;0;  2.2609403E-02;  3.4337098E+04;  0.0000000E+00; -5.3178102E-01;  4.0000000E+04;  0.0000000E+00;  3.9947855E+04;  2.7077701E-02;  0.0000000E+00; -4.4682971E-03;  9.0916437E+02;
  6.7164457E-01;  9.9999998E-03;  1.1995602E-01;6575;  8.2532736E-03;  0.0000000E+00; -6.3991908E-04;  1.0006328E+03;  1.0802379E-01;  5.2423212E+02;3;  1.4891129E+00;  0.0000000E+00; -1.4942496E-02;0;  2.2666130E-02;  3.4333770E+04;  0.0000000E+00; -5.3331971E-01;  4.0000000E+04;  0.0000000E+00;  3.9946762E+04;  2.7038604E-02;  0.0000000E+00; -4.3724743E-03;  9.1942657E+02;
  6.7160463E-01;  9.9999998E-03;  1.2996051E-01;6576;  7.8559462E-03;  0.0000000E+00; -6.7528896E-04;  1.0006508E+03;  1.0803253E-01;  5.3914526E+02;3;  1.3417561E+00;  0.0000000E+00; -7.8333719E-03;0;  2.2760896E-02;  3.4330266E+04;  0.0000000E+00; -5.0433457E-01;  4.0000000E+04;  0.0000000E+00;  3.9945930E+04;  2.7027836E-02;  0.0000000E+00; -4.2669405E-03;  8.8851727E+02;
  6.7156756E-01;  9.9999998E-03;  1.3996741E-01;6577;  7.5389687E-03;  0.0000000E+00; -7.2173221E-04;  1.0006697E+03;  1.0804205E-01;  5.5484851E+02;3;  1.2329390E+00;  0.0000000E+00; -7.5487187E-03;0;  2.2929749E-02;  3.4326160E+04;  0.0000000E+00; -4.5013630E-01;  4.0000000E+04;  0.0000000E+00;  3.9945398E+04;  2.7078219E-02;  0.0000000E+00; -4.1484702E-03;  8.1641547E+02;
  6.7153788E-01;  9.9999998E-03;  1.4997612E-01;6578;  7.3708878E-03;  0.0000000E+00; -7.7694497E-04;  1.0006650E+03;  1.0805163E-01;  5.5099677E+02;3;  1.1867455E+00;  0.0000000E+00; -1.2073767E-02;0;  2.3208600E-02;  3.4321027E+04;  0.0000000E+00; -3.8042367E-01;  4.0000000E+04;  0.0000000E+00;  3.9945797E+04;  2.7222496E-02;  0.0000000E+00; -4.0138955E-03;  7.1159784E+02;
  6.7151916E-01;  9.9999998E-03;  1.5998626E-01;6579;  7.3116245E-03;  0.0000000E+00; -8.4529992E-04;  1.0006415E+03;  1.0806111E-01;  5.3154053E+02;3;  1.1685228E+00;  0.0000000E+00; -2.1241993E-02;0;  2.3604944E-02;  3.4313938E+04;  0.0000000E+00; -3.0570883E-01;  4.0000000E+04;  0.0000000E+00;  3.9945637E+04;  2.7468136E-02;  0.0000000E+00; -3.8631903E-03;  5.8528601E+02;
  6.7151219E-01;  9.9999998E-03;  1.6999818E-01;6580;  7.3433309E-03;  0.0000000E+00; -9.2218944E-04;  1.0005755E+03;  1.0807063E-01;  4.7682602E+02;3;  1.1799252E+00;  0.0000000E+00; -2.8433045E-02;0;  2.4124358E-02;  3.4304582E+04;  0.0000000E+00; -2.3121363E-01;  4.0000000E+04;  0.0000000E+00;  3.9945875E+04;  2.7827138E-02;  0.0000000E+00; -3.7027812E-03;  4.4203442E+02;
  6.7151606E-01;  9.9999998E-03;  1.8001288E-01;6581;  7.4592791E-03;  0.0000000E+00; -9.9080754E-04;  1.0004783E+03;  1.0807890E-01;  3.9623572E+02;3;  1.2081522E+00;  0.0000000E+00; -3.7012082E-02;0;  2.4762716E-02;  3.4292574E+04;  0.0000000E+00; -1.5464312E-01;  4.0000000E+04;  0.0000000E+00;  3.9946684E+04;  2.8309233E-02;  0.0000000E+00; -3.5465178E-03;  2.8424045E+02;
  6.7152739E-01;  9.9999998E-03;  1.9003181E-01;6582;  7.6612686E-03;  0.0000000E+00; -1.0463406E-03;  1.0003365E+03;  1.0808765E-01;  2.7880692E+02;3;  1.2436230E+00;  0.0000000E+00; -3.9940592E-02;0;  2.5504794E-02;  3.4278152E+04;  0.0000000E+00; -6.9316968E-02;  4.0000000E+04;  0.0000000E+00;  3.9947910E+04;  2.8918233E-02;  0.0000000E+00; -3.4134381E-03;  1.6512915E+02;
  6.7154300E-01;  9.9999998E-03;  2.0005582E-01;6583;  7.9436107E-03;  0.0000000E+00; -1.0815519E-03;  1.0001545E+03;  1.0809516E-01;  1.2799638E+02;3;  1.2885394E+00;  0.0000000E+00; -4.1488599E-02;0;  2.6328498E-02;  3.4260992E+04;  0.0000000E+00;  2.9190104E-02;  4.0000000E+04;  0.0000000E+00;  3.9949000E+04;  2.9648047E-02;  0.0000000E+00; -3.3195480E-03;  2.4144667E+02;
  6.7155874E-01;  9.9999998E-03;  2.1008193E-01;6584;  8.2908003E-03;  0.0000000E+00; -1.1031660E-03;  9.9992175E+02;  1.0810217E-01; -6.4837669E+01;3;  1.3365575E+00;  0.0000000E+00; -3.9837401E-02;0;  2.7206292E-02;  3.4241609E+04;  0.0000000E+00;  1.3325150E-01;  4.0000000E+04;  0.0000000E+00;  3.9949641E+04;  3.0484399E-02;  0.0000000E+00; -3.2781062E-03;  3.7063666E+02;
  6.7157173E-01;  9.9999998E-03;  2.2009853E-01;6585;  8.6235153E-03;  0.0000000E+00; -1.1357128E-03;  9.9966101E+02;  1.0810784E-01; -2.8083157E+02;3;  1.3856678E+00;  0.0000000E+00; -3.7142146E-02;0;  2.8058929E-02;  3.4221164E+04;  0.0000000E+00;  2.1001868E-01;  4.0000000E+04;  0.0000000E+00;  3.9950512E+04;  3.1393122E-02;  0.0000000E+00; -3.3341928E-03;  5.2846472E+02;
  6.7158216E-01;  9.9999998E-03;  2.3010193E-01;6586;  9.0088304E-03;  0.0000000E+00; -1.1144511E-03;  9.9940912E+02;  1.0811196E-01; -4.8951703E+02;3;  1.4234536E+00;  0.0000000E+00; -3.7293382E-02;0;  2.9037127E-02;  3.4199863E+04;  0.0000000E+00;  1.8442868E-01;  4.0000000E+04;  0.0000000E+00;  3.9953680E+04;  3.2384306E-02;  0.0000000E+00; -3.3471787E-03;  9.3014874E+02;
  6.8173552E-01;  9.9999998E-03;  6.9964334E-02;6631;  9.4014825E-03;  0.0000000E+00; -3.3871029E-04;  1.0002731E+03;  1.1012562E-01;  2.2626521E+02;3;  2.0038729E+00;  0.0000000E+00;  9.4665978E-03;0;  2.3310971E-02;  3.3008523E+04;  0.0000000E+00; -2.5768763E-01;  4.0000000E+04;  0.0000000E+00;  3.9937492E+04;  2.8246252E-02;  0.0000000E+00; -4.9352804E-03;  6.1167767E+02;
  6.8174022E-01;  9.9999998E-03;  7.9960547E-02;6632;  9.4015878E-03;  0.0000000E+00; -3.8750048E-04;  1.0002696E+03;  1.1013468E-01;  2.2340109E+02;3;  1.9891156E+00;  0.0000000E+00;  4.1219415E-03;0;  2.3351347E-02;  3.3002879E+04;  0.0000000E+00; -3.2314318E-01;  4.0000000E+04;  0.0000000E+00;  3.9936871E+04;  2.8219206E-02;  0.0000000E+00; -4.8678587E-03;  6.8107739E+02;
  6.8174332E-01;  9.9999998E-03;  8.9957476E-02;6633;  9.3815280E-03;  0.0000000E+00; -4.4138150E-04;  1.0002836E+03;  1.1014516E-01;  2.3495631E+02;3;  1.9615600E+00;  0.0000000E+00;  5.5563811E-04;0;  2.3450827E-02;  3.2998305E+04;  0.0000000E+00; -3.8043392E-01;  4.0000000E+04;  0.0000000E+00;  3.9936371E+04;  2.8245885E-02;  0.0000000E+00; -4.7950582E-03;  7.3825146E+02;
  6.8174386E-01;  9.9999998E-03;  9.9955410E-02;6634;  9.3106395E-03;  0.0000000E+00; -5.0113379E-04;  1.0003171E+03;  1.1015628E-01;  2.6270862E+02;3;  1.9038721E+00;  0.0000000E+00; -6.5924525E-03;0;  2.3597458E-02;  3.2993961E+04;  0.0000000E+00; -4.2025471E-01;  4.0000000E+04;  0.0000000E+00;  3.9935312E+04;  2.8313376E-02;  0.0000000E+00; -4.7159181E-03;  7.7899969E+02;
  6.8174088E-01;  9.9999998E-03;  1.0995535E-01;6635;  9.1651641E-03;  0.0000000E+00; -5.6069653E-04;  1.0003672E+03;  1.1016810E-01;  3.0428769E+02;3;  1.8316160E+00;  0.0000000E+00; -8.3454354E-03;0;  2.3775918E-02;  3.2991234E+04;  0.0000000E+00; -4.3443638E-01;  4.0000000E+04;  0.0000000E+00;  3.9934441E+04;  2.8405230E-02;  0.0000000E+00; -4.6293116E-03;  7.9446344E+02;
  6.8173367E-01;  9.9999998E-03;  1.1995833E-01;6636;  8.9262389E-03;  0.0000000E+00; -6.1323738E-04;  1.0004271E+03;  1.1018109E-01;  3.5386655E+02;3;  1.7336681E+00;  0.0000000E+00; -5.0252094E-03;0;  2.3971099E-02;  3.2988711E+04;  0.0000000E+00; -4.1847768E-01;  4.0000000E+04;  0.0000000E+00;  3.9933473E+04;  2.8504916E-02;  0.0000000E+00; -4.5338157E-03;  7.7540430E+02;
  6.8172228E-01;  9.9999998E-03;  1.2996480E-01;6637;  8.6126002E-03;  0.0000000E+00; -6.5877032E-04;  1.0004914E+03;  1.1019445E-01;  4.0709961E+02;3;  1.6034751E+00;  0.0000000E+00;  9.0934621E-04;0;  2.4184490E-02;  3.2985871E+04;  0.0000000E+00; -3.7327471E-01;  4.0000000E+04;  0.0000000E+00;  3.9932539E+04;  2.8611753E-02;  0.0000000E+00; -4.4272630E-03;  7.1676398E+02;
  6.8170953E-01;  9.9999998E-03;  1.3997477E-01;6638;  8.2643395E-03;  0.0000000E+00; -7.0533477E-04;  1.0005419E+03;  1.1020771E-01;  4.4897495E+02;3;  1.4726259E+00;  0.0000000E+00;  6.7613875E-03;0;  2.4432011E-02;  3.2982363E+04;  0.0000000E+00; -3.0519959E-01;  4.0000000E+04;  0.0000000E+00;  3.9931938E+04;  2.8738769E-02;  0.0000000E+00; -4.3067588E-03;  6.1997382E+02;
  6.8169957E-01;  9.9999998E-03;  1.4998777E-01;6639;  8.0001457E-03;  0.0000000E+00; -7.6124776E-04;  1.0005756E+03;  1.1022161E-01;  4.7682602E+02;3;  1.3752152E+00;  0.0000000E+00;  3.4657985E-03;0;  2.4764996E-02;  3.2977227E+04;  0.0000000E+00; -2.2441202E-01;  4.0000000E+04;  0.0000000E+00;  3.9932141E+04;  2.8934889E-02;  0.0000000E+00; -4.1698935E-03;  4.9204370E+02;
  6.8169612E-01;  9.9999998E-03;  1.6000305E-01;6640;  7.8514731E-03;  0.0000000E+00; -8.3169795E-04;  1.0005735E+03;  1.1023516E-01;  4.7514706E+02;3;  1.3233802E+00;  0.0000000E+00; -4.4337027E-03;0;  2.5209369E-02;  3.2970215E+04;  0.0000000E+00; -1.4096680E-01;  4.0000000E+04;  0.0000000E+00;  3.9932367E+04;  2.9226763E-02;  0.0000000E+00; -4.0173936E-03;  3.3909396E+02;
  6.8170244E-01;  9.9999998E-03;  1.7002094E-01;6641;  7.8392969E-03;  0.0000000E+00; -9.0227195E-04;  1.0005305E+03;  1.1024840E-01;  4.3949374E+02;3;  1.3090278E+00;  0.0000000E+00; -1.3693466E-02;0;  2.5785355E-02;  3.2959930E+04;  0.0000000E+00; -5.9815202E-02;  4.0000000E+04;  0.0000000E+00;  3.9933598E+04;  2.9641306E-02;  0.0000000E+00; -3.8559507E-03;  1.6483365E+02;
  6.8171924E-01;  9.9999998E-03;  1.8004367E-01;6642;  7.9397568E-03;  0.0000000E+00; -9.6413598E-04;  1.0004445E+03;  1.1026175E-01;  3.6828589E+02;3;  1.3239567E+00;  0.0000000E+00; -2.2170845E-02;0;  2.6489485E-02;  3.2947242E+04;  0.0000000E+00;  2.0082898E-02;  4.0000000E+04;  0.0000000E+00;  3.9934836E+04;  3.0188169E-02;  0.0000000E+00; -3.6986843E-03;  1.2575692E+02;
  6.8174481E-01;  9.9999998E-03;  1.9007276E-01;6643;  8.1429565E-03;  0.0000000E+00; -1.0028048E-03;  1.0003099E+03;  1.1027423E-01;  2.5668411E+02;3;  1.3563682E+00;  0.0000000E+00; -2.3934143E-02;0;  2.7316775E-02;  3.2931234E+04;  0.0000000E+00;  1.0270342E-01;  4.0000000E+04;  0.0000000E+00;  3.9936172E+04;  3.0875856E-02;  0.0000000E+00; -3.5590802E-03;  3.5310349E+02;
  6.8177766E-01;  9.9999998E-03;  2.0010926E-01;6644;  8.4324367E-03;  0.0000000E+00; -1.0172108E-03;  1.0001201E+03;  1.1028607E-01;  9.9453979E+01;3;  1.3890250E+00;  0.0000000E+00; -2.6898040E-02;0;  2.8261188E-02;  3.2912391E+04;  0.0000000E+00;  1.8885981E-01;  4.0000000E+04;  0.0000000E+00;  3.9937492E+04;  3.1703316E-02;  0.0000000E+00; -3.4421268E-03;  5.5500635E+02;
  6.8181384E-01;  9.9999998E-03;  2.1014939E-01;6645;  8.7630302E-03;  0.0000000E+00; -1.0313034E-03;  9.9986481E+02;  1.1029655E-01; -1.1199683E+02;3;  1.4314097E+00;  0.0000000E+00; -2.5936833E-02;0;  2.9292811E-02;  3.2891383E+04;  0.0000000E+00;  2.6611394E-01;  4.0000000E+04;  0.0000000E+00;  3.9936746E+04;  3.2651592E-02;  0.0000000E+00; -3.3587813E-03;  5.8340497E+02;
  6.8184584E-01;  9.9999998E-03;  2.2017285E-01;6646;  9.0351542E-03;  0.0000000E+00; -1.0959732E-03;  9.9956860E+02;  1.1030682E-01; -3.5742200E+02;3;  1.4653955E+00;  0.0000000E+00; -2.9393489E-02;0;  3.0268801E-02;  3.2869039E+04;  0.0000000E+00;  2.9212561E-01;  4.0000000E+04;  0.0000000E+00;  3.9936016E+04;  3.3676445E-02;  0.0000000E+00; -3.4076434E-03;  5.0696924E+02;
  6.8186349E-01;  9.9999998E-03;  2.3016892E-01;6647;  9.3170069E-03;  0.0000000E+00; -1.1321220E-03;  9.9930450E+02;  1.1031567E-01; -5.7618121E+02;3;  1.4811333E+00;  0.0000000E+00; -3.4735244E-02;0;  3.1273719E-02;  3.2846020E+04;  0.0000000E+00;  1.7153749E-01;  4.0000000E+04;  0.0000000E+00;  3.9938812E+04;  3.4789201E-02;  0.0000000E+00; -3.5154824E-03;  7.7739130E+02;
  6.9220871E-01;  9.9999998E-03;  6.9995053E-02;6692;  9.4334530E-03;  0.0000000E+00; -3.4637260E-04;  9.9954425E+02;  1.1259435E-01; -3.7756958E+02;3;  2.0170300E+00;  0.0000000E+00;  1.9234665E-02;0;  2.4250893E-02;  3.1540305E+04;  0.0000000E+00; -1.5562080E-01;  4.0000000E+04;  0.0000000E+00;  3.9921180E+04;  2.9364880E-02;  0.0000000E+00; -5.1139868E-03;  4.5344949E+02;
  6.9225085E-01;  9.9999998E-03;  7.9996035E-02;6693;  9.4421702E-03;  0.0000000E+00; -3.9049512E-04;  9.9957245E+02;  1.1261085E-01; -3.5421222E+02;3;  2.0075746E+00;  0.0000000E+00;  2.2063980E-02;0;  2.4349693E-02;  3.1532863E+04;  0.0000000E+00; -1.9247343E-01;  4.0000000E+04;  0.0000000E+00;  3.9921023E+04;  2.9396513E-02;  0.0000000E+00; -5.0468193E-03;  4.8871826E+02;
  6.9228780E-01;  9.9999998E-03;  8.9996815E-02;6694;  9.4394786E-03;  0.0000000E+00; -4.3264136E-04;  9.9962994E+02;  1.1262813E-01; -3.0660861E+02;3;  1.9895253E+00;  0.0000000E+00;  2.4393929E-02;0;  2.4516955E-02;  3.1526965E+04;  0.0000000E+00; -2.2056787E-01;  4.0000000E+04;  0.0000000E+00;  3.9920344E+04;  2.9491665E-02;  0.0000000E+00; -4.9747103E-03;  5.0119348E+02;
  6.9231755E-01;  9.9999998E-03;  9.9998571E-02;6695;  9.4235223E-03;  0.0000000E+00; -4.7805262E-04;  9.9971167E+02;  1.1264545E-01; -2.3885744E+02;3;  1.9716107E+00;  0.0000000E+00;  2.0543022E-02;0;  2.4750212E-02;  3.1523049E+04;  0.0000000E+00; -2.3263034E-01;  4.0000000E+04;  0.0000000E+00;  3.9919582E+04;  2.9646590E-02;  0.0000000E+00; -4.8963781E-03;  4.9407907E+02;
  6.9234002E-01;  9.9999998E-03;  1.1000256E-01;6696;  9.3696574E-03;  0.0000000E+00; -5.2737218E-04;  9.9982172E+02;  1.1266281E-01; -1.4769952E+02;3;  1.9211338E+00;  0.0000000E+00;  1.7119883E-02;0;  2.5033267E-02;  3.1520719E+04;  0.0000000E+00; -2.2266440E-01;  4.0000000E+04;  0.0000000E+00;  3.9918797E+04;  2.9843345E-02;  0.0000000E+00; -4.8100781E-03;  4.6773608E+02;
  6.9235432E-01;  9.9999998E-03;  1.2000935E-01;6697;  9.2465142E-03;  0.0000000E+00; -5.7768932E-04;  9.9993018E+02;  1.1267979E-01; -5.7825523E+01;3;  1.8545237E+00;  0.0000000E+00;  1.8809400E-02;0;  2.5344348E-02;  3.1519316E+04;  0.0000000E+00; -1.8802097E-01;  4.0000000E+04;  0.0000000E+00;  3.9917734E+04;  3.0057983E-02;  0.0000000E+00; -4.7136354E-03;  4.2045490E+02;
  6.9236219E-01;  9.9999998E-03;  1.3001907E-01;6698;  9.0520149E-03;  0.0000000E+00; -6.2522705E-04;  1.0000462E+03;  1.1269707E-01;  3.8319904E+01;3;  1.7678154E+00;  0.0000000E+00;  2.2393467E-02;0;  2.5675012E-02;  3.1518170E+04;  0.0000000E+00; -1.3054435E-01;  4.0000000E+04;  0.0000000E+00;  3.9917324E+04;  3.0279588E-02;  0.0000000E+00; -4.6045766E-03;  3.5079135E+02;
  6.9236559E-01;  9.9999998E-03;  1.4003180E-01;6699;  8.8248448E-03;  0.0000000E+00; -6.6730153E-04;  1.0001472E+03;  1.1271384E-01;  1.2187309E+02;3;  1.6761684E+00;  0.0000000E+00;  2.9918730E-02;0;  2.6037885E-02;  3.1515932E+04;  0.0000000E+00; -5.6383550E-02;  4.0000000E+04;  0.0000000E+00;  3.9917109E+04;  3.0518258E-02;  0.0000000E+00; -4.4803726E-03;  2.5958380E+02;
  6.9236887E-01;  9.9999998E-03;  1.5004712E-01;6700;  8.6057447E-03;  0.0000000E+00; -7.1867078E-04;  1.0002194E+03;  1.1273111E-01;  1.8182202E+02;3;  1.5790373E+00;  0.0000000E+00;  3.0098917E-02;0;  2.6455298E-02;  3.1512135E+04;  0.0000000E+00;  2.5674395E-02;  4.0000000E+04;  0.0000000E+00;  3.9917129E+04;  3.0794740E-02;  0.0000000E+00; -4.3394426E-03;  1.5466196E+02;
  6.9237739E-01;  9.9999998E-03;  1.6006483E-01;6701;  8.4502278E-03;  0.0000000E+00; -7.8146433E-04;  1.0002480E+03;  1.1274821E-01;  2.0552505E+02;3;  1.5090489E+00;  0.0000000E+00;  2.4953447E-02;0;  2.6962027E-02;  3.1505562E+04;  0.0000000E+00;  1.0750156E-01;  4.0000000E+04;  0.0000000E+00;  3.9917910E+04;  3.1145329E-02;  0.0000000E+00; -4.1833026E-03;  1.0402174E+02;
  6.9239515E-01;  9.9999998E-03;  1.7008570E-01;6702;  8.4141176E-03;  0.0000000E+00; -8.4469654E-04;  1.0002338E+03;  1.1276562E-01;  1.9367354E+02;3;  1.4816167E+00;  0.0000000E+00;  1.7362548E-02;0;  2.7595488E-02;  3.1495359E+04;  0.0000000E+00;  1.8460844E-01;  4.0000000E+04;  0.0000000E+00;  3.9919145E+04;  3.1613912E-02;  0.0000000E+00; -4.0184245E-03;  2.4377402E+02;
  6.9242382E-01;  9.9999998E-03;  1.8011150E-01;6703;  8.5027413E-03;  0.0000000E+00; -8.9852605E-04;  1.0001671E+03;  1.1278380E-01;  1.3846523E+02;3;  1.4778132E+00;  0.0000000E+00;  8.7050702E-03;0;  2.8371809E-02;  3.1481605E+04;  0.0000000E+00;  2.5612894E-01;  4.0000000E+04;  0.0000000E+00;  3.9920781E+04;  3.2227818E-02;  0.0000000E+00; -3.8560096E-03;  4.7031128E+02;
  6.9246507E-01;  9.9999998E-03;  1.9014405E-01;6704;  8.6927786E-03;  0.0000000E+00; -9.3054870E-04;  1.0000358E+03;  1.1280183E-01;  2.9727554E+01;3;  1.4930567E+00;  0.0000000E+00;  3.3425861E-03;0;  2.9294400E-02;  3.1464051E+04;  0.0000000E+00;  3.2327464E-01;  4.0000000E+04;  0.0000000E+00;  3.9922559E+04;  3.2999970E-02;  0.0000000E+00; -3.7055702E-03;  7.2245013E+02;
  6.9252247E-01;  9.9999998E-03;  2.0018537E-01;6705;  8.9727351E-03;  0.0000000E+00; -9.4104325E-04;  9.9984235E+02;  1.1282057E-01; -1.3061359E+02;3;  1.5225110E+00;  0.0000000E+00; -2.2024645E-03;0;  3.0373732E-02;  3.1442631E+04;  0.0000000E+00;  3.8497445E-01;  4.0000000E+04;  0.0000000E+00;  3.9923574E+04;  3.3939894E-02;  0.0000000E+00; -3.5661620E-03;  8.9161383E+02;
  6.9259948E-01;  9.9999998E-03;  2.1022834E-01;6706;  9.2767943E-03;  0.0000000E+00; -9.6518337E-04;  9.9957178E+02;  1.1284044E-01; -3.5475540E+02;3;  1.5483512E+00;  0.0000000E+00; -5.5293823E-03;0;  3.1573780E-02;  3.1417592E+04;  0.0000000E+00;  4.2817742E-01;  4.0000000E+04;  0.0000000E+00;  3.9922371E+04;  3.5027031E-02;  0.0000000E+00; -3.4532524E-03;  8.2358063E+02;
  6.9269288E-01;  9.9999998E-03;  2.2024632E-01;6707;  9.4867377E-03;  0.0000000E+00; -1.0620438E-03;  9.9926764E+02;  1.1286342E-01; -6.0674829E+02;3;  1.5659872E+00;  0.0000000E+00; -1.3997033E-02;0;  3.2712035E-02;  3.1389514E+04;  0.0000000E+00;  4.1269845E-01;  4.0000000E+04;  0.0000000E+00;  3.9920605E+04;  3.6210012E-02;  0.0000000E+00; -3.4979763E-03;  6.5225244E+02;
  6.9279635E-01;  9.9999998E-03;  2.3023269E-01;6708;  9.7024711E-03;  0.0000000E+00; -1.1259653E-03;  9.9900806E+02;  1.1288901E-01; -8.2180389E+02;3;  1.5676352E+00;  0.0000000E+00; -2.4193751E-02;0;  3.3895168E-02;  3.1359264E+04;  0.0000000E+00;  2.5495809E-01;  4.0000000E+04;  0.0000000E+00;  3.9924055E+04;  3.7511338E-02;  0.0000000E+00; -3.6161679E-03;  9.3845087E+02;
  7.0437300E-01;  9.9999998E-03;  7.0131175E-02;6753;  9.4251269E-03;  0.0000000E+00; -3.6105071E-04;  9.9887262E+02;  1.1568473E-01; -9.3399829E+02;3;  2.0163128E+00;  0.0000000E+00;  3.2307290E-02;0;  2.5923172E-02;  2.9859797E+04;  0.0000000E+00;  1.5770731E-02;  4.0000000E+04;  0.0000000E+00;  3.9901906E+04;  3.1273756E-02;  0.0000000E+00; -5.3505842E-03;  2.5390727E+02;
  7.0440137E-01;  9.9999998E-03;  8.0140889E-02;6754;  9.4344243E-03;  0.0000000E+00; -4.0415672E-04;  9.9894849E+02;  1.1569861E-01; -8.7113586E+02;3;  2.0126629E+00;  0.0000000E+00;  3.2825734E-02;0;  2.6056934E-02;  2.9856568E+04;  0.0000000E+00;  2.3953686E-02;  4.0000000E+04;  0.0000000E+00;  3.9901805E+04;  3.1339716E-02;  0.0000000E+00; -5.2827820E-03;  2.3770697E+02;
  7.0441782E-01;  9.9999998E-03;  9.0150356E-02;6755;  9.4430577E-03;  0.0000000E+00; -4.4548267E-04;  9.9905658E+02;  1.1571141E-01; -7.8160754E+02;3;  2.0013578E+00;  0.0000000E+00;  3.7881102E-02;0;  2.6255459E-02;  2.9856201E+04;  0.0000000E+00;  3.8694829E-02;  4.0000000E+04;  0.0000000E+00;  3.9901371E+04;  3.1465095E-02;  0.0000000E+00; -5.2096369E-03;  1.8156425E+02;
  7.0442110E-01;  9.9999998E-03;  1.0016044E-01;6756;  9.4439089E-03;  0.0000000E+00; -4.8364181E-04;  9.9919574E+02;  1.1572305E-01; -6.6630212E+02;3;  1.9866916E+00;  0.0000000E+00;  3.9959189E-02;0;  2.6513427E-02;  2.9858502E+04;  0.0000000E+00;  6.3110635E-02;  4.0000000E+04;  0.0000000E+00;  3.9900559E+04;  3.1643294E-02;  0.0000000E+00; -5.1298668E-03;  1.0763741E+02;
  7.0441282E-01;  9.9999998E-03;  1.1017141E-01;6757;  9.4388407E-03;  0.0000000E+00; -5.2253995E-04;  9.9936218E+02;  1.1573505E-01; -5.2842950E+02;3;  1.9679750E+00;  0.0000000E+00;  3.9516952E-02;0;  2.6825275E-02;  2.9862801E+04;  0.0000000E+00;  9.9477179E-02;  4.0000000E+04;  0.0000000E+00;  3.9899801E+04;  3.1866651E-02;  0.0000000E+00; -5.0413762E-03;  1.0451593E+02;
  7.0439523E-01;  9.9999998E-03;  1.2018329E-01;6758;  9.4037680E-03;  0.0000000E+00; -5.6341942E-04;  9.9953857E+02;  1.1574621E-01; -3.8226080E+02;3;  1.9275135E+00;  0.0000000E+00;  4.1812710E-02;0;  2.7175764E-02;  2.9868131E+04;  0.0000000E+00;  1.4819954E-01;  4.0000000E+04;  0.0000000E+00;  3.9899430E+04;  3.2117289E-02;  0.0000000E+00; -4.9415249E-03;  2.0086864E+02;
  7.0437318E-01;  9.9999998E-03;  1.3019589E-01;6759;  9.3177790E-03;  0.0000000E+00; -6.0415891E-04;  9.9970886E+02;  1.1575768E-01; -2.4117836E+02;3;  1.8752273E+00;  0.0000000E+00;  4.4714611E-02;0;  2.7553279E-02;  2.9873158E+04;  0.0000000E+00;  2.0745181E-01;  4.0000000E+04;  0.0000000E+00;  3.9899000E+04;  3.2380830E-02;  0.0000000E+00; -4.8275506E-03;  3.1005356E+02;
  7.0435286E-01;  9.9999998E-03;  1.4020912E-01;6760;  9.2038717E-03;  0.0000000E+00; -6.4617750E-04;  9.9985590E+02;  1.1577031E-01; -1.1940403E+02;3;  1.8080432E+00;  0.0000000E+00;  4.8194345E-02;0;  2.7967319E-02;  2.9876477E+04;  0.0000000E+00;  2.7338350E-01;  4.0000000E+04;  0.0000000E+00;  3.9899031E+04;  3.2664482E-02;  0.0000000E+00; -4.6971627E-03;  4.0827722E+02;
  7.0434004E-01;  9.9999998E-03;  1.5022336E-01;6761;  9.0722386E-03;  0.0000000E+00; -6.9373677E-04;  9.9997101E+02;  1.1578479E-01; -2.3999321E+01;3;  1.7383435E+00;  0.0000000E+00;  4.8151221E-02;0;  2.8431550E-02;  2.9876451E+04;  0.0000000E+00;  3.4101808E-01;  4.0000000E+04;  0.0000000E+00;  3.9899250E+04;  3.2981224E-02;  0.0000000E+00; -4.5496747E-03;  4.9507260E+02;
  7.0434171E-01;  9.9999998E-03;  1.6023910E-01;6762;  8.9898380E-03;  0.0000000E+00; -7.4442127E-04;  1.0000300E+03;  1.1580241E-01;  2.4789423E+01;3;  1.6897975E+00;  0.0000000E+00;  4.8438441E-02;0;  2.8987551E-02;  2.9872049E+04;  0.0000000E+00;  4.0613565E-01;  4.0000000E+04;  0.0000000E+00;  3.9900355E+04;  3.3374973E-02;  0.0000000E+00; -4.3874211E-03;  5.8589551E+02;
  7.0436156E-01;  9.9999998E-03;  1.7025802E-01;6763;  9.0048844E-03;  0.0000000E+00; -7.9261966E-04;  1.0000340E+03;  1.1582272E-01;  2.8147352E+01;3;  1.6602119E+00;  0.0000000E+00;  4.2969018E-02;0;  2.9676478E-02;  2.9862447E+04;  0.0000000E+00;  4.6562526E-01;  4.0000000E+04;  0.0000000E+00;  3.9901520E+04;  3.3892822E-02;  0.0000000E+00; -4.2163436E-03;  6.9916943E+02;
  7.0440316E-01;  9.9999998E-03;  1.8028219E-01;6764;  9.1265691E-03;  0.0000000E+00; -8.2882866E-04;  9.9996240E+02;  1.1584578E-01; -3.1159613E+01;3;  1.6535411E+00;  0.0000000E+00;  3.6903273E-02;0;  3.0527836E-02;  2.9847582E+04;  0.0000000E+00;  5.1802760E-01;  4.0000000E+04;  0.0000000E+00;  3.9902859E+04;  3.4572266E-02;  0.0000000E+00; -4.0444299E-03;  8.3135748E+02;
  7.0447123E-01;  9.9999998E-03;  1.9031197E-01;6765;  9.3657719E-03;  0.0000000E+00; -8.4409938E-04;  9.9982190E+02;  1.1587207E-01; -1.4755138E+02;3;  1.6657910E+00;  0.0000000E+00;  3.2927081E-02;0;  3.1573217E-02;  2.9827041E+04;  0.0000000E+00;  5.6453121E-01;  4.0000000E+04;  0.0000000E+00;  3.9903547E+04;  3.5447761E-02;  0.0000000E+00; -3.8745457E-03;  9.3448383E+02;
  7.0456469E-01;  9.9999998E-03;  2.0034435E-01;6766;  9.6838912E-03;  0.0000000E+00; -8.5011550E-04;  9.9961914E+02;  1.1590143E-01; -3.1554663E+02;3;  1.7001592E+00;  0.0000000E+00;  2.7092390E-02;0;  3.2823667E-02;  2.9801934E+04;  0.0000000E+00;  6.0594064E-01;  4.0000000E+04;  0.0000000E+00;  3.9902891E+04;  3.6525037E-02;  0.0000000E+00; -3.7013693E-03;  9.2225757E+02;
  7.0469183E-01;  9.9999998E-03;  2.1036111E-01;6767;  9.9617867E-03;  0.0000000E+00; -9.0190797E-04;  9.9933514E+02;  1.1593702E-01; -5.5079926E+02;3;  1.7343062E+00;  0.0000000E+00;  2.0273779E-02;0;  3.4206115E-02;  2.9771568E+04;  0.0000000E+00;  6.3469350E-01;  4.0000000E+04;  0.0000000E+00;  3.9900395E+04;  3.7769362E-02;  0.0000000E+00; -3.5632472E-03;  8.2123572E+02;
  7.0484704E-01;  9.9999998E-03;  2.2033909E-01;6768;  1.0142390E-02;  0.0000000E+00; -1.0097616E-03;  9.9907153E+02;  1.1598000E-01; -7.6921283E+02;3;  1.7498440E+00;  0.0000000E+00;  9.9633066E-03;0;  3.5594065E-02;  2.9736486E+04;  0.0000000E+00;  6.2305498E-01;  4.0000000E+04;  0.0000000E+00;  3.9900188E+04;  3.9150298E-02;  0.0000000E+00; -3.5562338E-03;  7.4579449E+02;
  7.0501447E-01;  9.9999998E-03;  2.3030645E-01;6769;  1.0399230E-02;  0.0000000E+00; -1.0504674E-03;  9.9887189E+02;  1.1602523E-01; -9.3464026E+02;3;  1.7679827E+00;  0.0000000E+00; -1.2559390E-03;0;  3.7205104E-02;  2.9700234E+04;  0.0000000E+00;  5.1092231E-01;  4.0000000E+04;  0.0000000E+00;  3.9905137E+04;  4.0704247E-02;  0.0000000E+00; -3.4991440E-03;  9.7807361E+02;
  7.1735412E-01;  9.9999998E-03;  7.0229195E-02;6814;  9.4365561E-03;  0.0000000E+00; -3.8374131E-04;  9.9894928E+02;  1.1930912E-01; -8.7049390E+02;3;  2.0230060E+00;  0.0000000E+00;  3.6186177E-02;0;  2.8693490E-02;  2.8102949E+04;  0.0000000E+00;  2.0772797E-01;  4.0000000E+04;  0.0000000E+00;  3.9880773E+04;  3.4343999E-02;  0.0000000E+00; -5.6505091E-03;  4.5068579E+02;
  7.1734029E-01;  9.9999998E-03;  8.0249943E-02;6815;  9.4493832E-03;  0.0000000E+00; -4.2879872E-04;  9.9904199E+02;  1.1931010E-01; -7.9370593E+02;3;  2.0150256E+00;  0.0000000E+00;  4.3110799E-02;0;  2.8823560E-02;  2.8106479E+04;  0.0000000E+00;  2.6413721E-01;  4.0000000E+04;  0.0000000E+00;  3.9880859E+04;  3.4405973E-02;  0.0000000E+00; -5.5824127E-03;  5.4132495E+02;
  7.1731186E-01;  9.9999998E-03;  9.0268463E-02;6816;  9.4638979E-03;  0.0000000E+00; -4.7369613E-04;  9.9916663E+02;  1.1931022E-01; -6.9044958E+02;3;  2.0137742E+00;  0.0000000E+00;  4.3645594E-02;0;  2.8997239E-02;  2.8113086E+04;  0.0000000E+00;  3.2201719E-01;  4.0000000E+04;  0.0000000E+00;  3.9880711E+04;  3.4505066E-02;  0.0000000E+00; -5.5078259E-03;  6.2418756E+02;
  7.1726817E-01;  9.9999998E-03;  1.0028537E-01;6817;  9.4797034E-03;  0.0000000E+00; -5.1572599E-04;  9.9932880E+02;  1.1931024E-01; -5.5608301E+02;3;  2.0010033E+00;  0.0000000E+00;  4.8459552E-02;0;  2.9209701E-02;  2.8122395E+04;  0.0000000E+00;  3.7893972E-01;  4.0000000E+04;  0.0000000E+00;  3.9880199E+04;  3.4635257E-02;  0.0000000E+00; -5.4255561E-03;  7.0588568E+02;
  7.1721065E-01;  9.9999998E-03;  1.1030116E-01;6818;  9.4934991E-03;  0.0000000E+00; -5.5439380E-04;  9.9952063E+02;  1.1930890E-01; -3.9712457E+02;3;  1.9910816E+00;  0.0000000E+00;  5.1501114E-02;0;  2.9454859E-02;  2.8133809E+04;  0.0000000E+00;  4.3275222E-01;  4.0000000E+04;  0.0000000E+00;  3.9879297E+04;  3.4788400E-02;  0.0000000E+00; -5.3335405E-03;  7.8759406E+02;
  7.1714199E-01;  9.9999998E-03;  1.2031621E-01;6819;  9.5060151E-03;  0.0000000E+00; -5.8978895E-04;  9.9972015E+02;  1.1930835E-01; -2.3184529E+02;3;  1.9798510E+00;  0.0000000E+00;  5.3141005E-02;0;  2.9730776E-02;  2.8146096E+04;  0.0000000E+00;  4.8203835E-01;  4.0000000E+04;  0.0000000E+00;  3.9878895E+04;  3.4959748E-02;  0.0000000E+00; -5.2289725E-03;  8.6356042E+02;
  7.1706855E-01;  9.9999998E-03;  1.3033058E-01;6820;  9.5152380E-03;  0.0000000E+00; -6.2175986E-04;  9.9990790E+02;  1.1930798E-01; -7.6294136E+01;3;  1.9555186E+00;  0.0000000E+00;  5.8486242E-02;0;  3.0040991E-02;  2.8157525E+04;  0.0000000E+00;  5.2653152E-01;  4.0000000E+04;  0.0000000E+00;  3.9878715E+04;  3.5149932E-02;  0.0000000E+00; -5.1089413E-03;  9.2493280E+02;
  7.1699911E-01;  9.9999998E-03;  1.4034472E-01;6821;  9.4971173E-03;  0.0000000E+00; -6.5810868E-04;  1.0000762E+03;  1.1931024E-01;  6.3109325E+01;3;  1.9096348E+00;  0.0000000E+00;  5.8907807E-02;0;  3.0391457E-02;  2.8166639E+04;  0.0000000E+00;  5.6693375E-01;  4.0000000E+04;  0.0000000E+00;  3.9878820E+04;  3.5362702E-02;  0.0000000E+00; -4.9712448E-03;  9.6564441E+02;
  7.1694332E-01;  9.9999998E-03;  1.5035929E-01;6822;  9.4607426E-03;  0.0000000E+00; -6.9796789E-04;  1.0002039E+03;  1.1931631E-01;  1.6898288E+02;3;  1.8692690E+00;  0.0000000E+00;  6.2304102E-02;0;  3.0805483E-02;  2.8171539E+04;  0.0000000E+00;  6.0439903E-01;  4.0000000E+04;  0.0000000E+00;  3.9879711E+04;  3.5621170E-02;  0.0000000E+00; -4.8156860E-03;  9.8898328E+02;
  7.1690935E-01;  9.9999998E-03;  1.6037658E-01;6823;  9.4682015E-03;  0.0000000E+00; -7.3659077E-04;  1.0002686E+03;  1.1932792E-01;  2.2251222E+02;3;  1.8401936E+00;  0.0000000E+00;  6.2017798E-02;0;  3.1329326E-02;  2.8170635E+04;  0.0000000E+00;  6.3984919E-01;  4.0000000E+04;  0.0000000E+00;  3.9880492E+04;  3.5974275E-02;  0.0000000E+00; -4.6449499E-03;  1.0116083E+03;
  7.1690327E-01;  9.9999998E-03;  1.7039923E-01;6824;  9.5537519E-03;  0.0000000E+00; -7.6743186E-04;  1.0002626E+03;  1.1934406E-01;  2.1757410E+02;3;  1.8226253E+00;  0.0000000E+00;  5.9039611E-02;0;  3.2008931E-02;  2.8163367E+04;  0.0000000E+00;  6.7244136E-01;  4.0000000E+04;  0.0000000E+00;  3.9881777E+04;  3.6472917E-02;  0.0000000E+00; -4.4639846E-03;  1.0501193E+03;
  7.1693140E-01;  9.9999998E-03;  1.8042696E-01;6825;  9.7576650E-03;  0.0000000E+00; -7.8217185E-04;  1.0001799E+03;  1.1936616E-01;  1.4903282E+02;3;  1.8376414E+00;  0.0000000E+00;  5.7836805E-02;0;  3.2894872E-02;  2.8149293E+04;  0.0000000E+00;  7.0094025E-01;  4.0000000E+04;  0.0000000E+00;  3.9882930E+04;  3.7171815E-02;  0.0000000E+00; -4.2769434E-03;  1.0930111E+03;
  7.1699876E-01;  9.9999998E-03;  1.9045675E-01;6826;  1.0082225E-02;  0.0000000E+00; -7.6866610E-04;  1.0000219E+03;  1.1939484E-01;  1.8172325E+01;3;  1.8845310E+00;  0.0000000E+00;  5.5084091E-02;0;  3.4031890E-02;  2.8128619E+04;  0.0000000E+00;  7.2543377E-01;  4.0000000E+04;  0.0000000E+00;  3.9882699E+04;  3.8108677E-02;  0.0000000E+00; -4.0767882E-03;  1.0853900E+03;
  7.1710390E-01;  9.9999998E-03;  2.0047747E-01;6827;  1.0455998E-02;  0.0000000E+00; -7.5467944E-04;  9.9978400E+02;  1.1942969E-01; -1.7895790E+02;3;  1.9574790E+00;  0.0000000E+00;  5.3309508E-02;0;  3.5436351E-02;  2.8102383E+04;  0.0000000E+00;  7.4475223E-01;  4.0000000E+04;  0.0000000E+00;  3.9880371E+04;  3.9285406E-02;  0.0000000E+00; -3.8490561E-03;  1.0002701E+03;
  7.1723068E-01;  9.9999998E-03;  2.1046798E-01;6828;  1.0763593E-02;  0.0000000E+00; -8.0406689E-04;  9.9949878E+02;  1.1946791E-01; -4.1524753E+02;3;  2.0103405E+00;  0.0000000E+00;  5.1194780E-02;0;  3.7036911E-02;  2.8072686E+04;  0.0000000E+00;  7.4906433E-01;  4.0000000E+04;  0.0000000E+00;  3.9877059E+04;  4.0669464E-02;  0.0000000E+00; -3.6325511E-03;  9.4494946E+02;
  7.1736568E-01;  9.9999998E-03;  2.2042148E-01;6829;  1.1037893E-02;  0.0000000E+00; -8.8011334E-04;  9.9926111E+02;  1.1950751E-01; -6.1218024E+02;3;  2.0603433E+00;  0.0000000E+00;  3.4640238E-02;0;  3.8799886E-02;  2.8041639E+04;  0.0000000E+00;  7.0957553E-01;  4.0000000E+04;  0.0000000E+00;  3.9878316E+04;  4.2247672E-02;  0.0000000E+00; -3.4477857E-03;  7.7285736E+02;
  7.1751624E-01;  9.9999998E-03;  2.3038520E-01;6830;  1.1401321E-02;  0.0000000E+00; -9.1429800E-04;  9.9906274E+02;  1.1954949E-01; -7.7652124E+02;3;  2.1139092E+00;  0.0000000E+00;  2.5192128E-02;0;  4.0861242E-02;  2.8009848E+04;  0.0000000E+00;  5.6915516E-01;  4.0000000E+04;  0.0000000E+00;  3.9882449E+04;  4.4025067E-02;  0.0000000E+00; -3.1638255E-03;  6.9022150E+02;
  7.2938949E-01;  9.9999998E-03;  7.0223056E-02;6875;  9.4691459E-03;  0.0000000E+00; -4.0695583E-04;  9.9926642E+02;  1.2296462E-01; -6.0773590E+02;3;  2.0283740E+00;  0.0000000E+00;  3.8433451E-02;0;  3.2166455E-02;  2.6494238E+04;  0.0000000E+00;  3.3882871E-01;  4.0000000E+04;  0.0000000E+00;  3.9860668E+04;  3.8146660E-02;  0.0000000E+00; -5.9802039E-03;  7.7571259E+02;
  7.2938102E-01;  9.9999998E-03;  8.0250442E-02;6876;  9.4896741E-03;  0.0000000E+00; -4.5964596E-04;  9.9934357E+02;  1.2296737E-01; -5.4383649E+02;3;  2.0313962E+00;  0.0000000E+00;  4.1598085E-02;0;  3.2281023E-02;  2.6497029E+04;  0.0000000E+00;  4.2837134E-01;  4.0000000E+04;  0.0000000E+00;  3.9861016E+04;  3.8195528E-02;  0.0000000E+00; -5.9145051E-03;  9.5206976E+02;
  7.2935498E-01;  9.9999998E-03;  9.0276502E-02;6877;  9.5129767E-03;  0.0000000E+00; -5.1080802E-04;  9.9945599E+02;  1.2296882E-01; -4.5070331E+02;3;  2.0291131E+00;  0.0000000E+00;  4.4756275E-02;0;  3.2410860E-02;  2.6502709E+04;  0.0000000E+00;  5.1372170E-01;  4.0000000E+04;  0.0000000E+00;  3.9860574E+04;  3.8251676E-02;  0.0000000E+00; -5.8408165E-03;  1.1094971E+03;
  7.2931153E-01;  9.9999998E-03;  1.0030112E-01;6878;  9.5407050E-03;  0.0000000E+00; -5.6128402E-04;  9.9960925E+02;  1.2296780E-01; -3.2374393E+02;3;  2.0270925E+00;  0.0000000E+00;  4.6561964E-02;0;  3.2548252E-02;  2.6510965E+04;  0.0000000E+00;  5.8711511E-01;  4.0000000E+04;  0.0000000E+00;  3.9859898E+04;  3.8306382E-02;  0.0000000E+00; -5.7581305E-03;  1.2363550E+03;
  7.2925007E-01;  9.9999998E-03;  1.1032406E-01;6879;  9.5683830E-03;  0.0000000E+00; -6.0717470E-04;  9.9978418E+02;  1.2296822E-01; -1.7880975E+02;3;  2.0226934E+00;  0.0000000E+00;  5.0663102E-02;0;  3.2687511E-02;  2.6521105E+04;  0.0000000E+00;  6.4245284E-01;  4.0000000E+04;  0.0000000E+00;  3.9859121E+04;  3.8351983E-02;  0.0000000E+00; -5.6644706E-03;  1.3218719E+03;
  7.2917485E-01;  9.9999998E-03;  1.2034573E-01;6880;  9.5915608E-03;  0.0000000E+00; -6.4808648E-04;  9.9996759E+02;  1.2296754E-01; -2.6863438E+01;3;  2.0084651E+00;  0.0000000E+00;  5.4466657E-02;0;  3.2830909E-02;  2.6532082E+04;  0.0000000E+00;  6.7741638E-01;  4.0000000E+04;  0.0000000E+00;  3.9858734E+04;  3.8388073E-02;  0.0000000E+00; -5.5571632E-03;  1.3596630E+03;
  7.2909558E-01;  9.9999998E-03;  1.3036674E-01;6881;  9.6154055E-03;  0.0000000E+00; -6.8443984E-04;  1.0001496E+03;  1.2296849E-01;  1.2394711E+02;3;  2.0004933E+00;  0.0000000E+00;  5.7713062E-02;0;  3.2993585E-02;  2.6542148E+04;  0.0000000E+00;  6.9437438E-01;  4.0000000E+04;  0.0000000E+00;  3.9858539E+04;  3.8426932E-02;  0.0000000E+00; -5.4333457E-03;  1.3502585E+03;
  7.2902387E-01;  9.9999998E-03;  1.4038737E-01;6882;  9.6498858E-03;  0.0000000E+00; -7.1723555E-04;  1.0002996E+03;  1.2297396E-01;  2.4819051E+02;3;  1.9792761E+00;  0.0000000E+00;  6.1154552E-02;0;  3.3202551E-02;  2.6549111E+04;  0.0000000E+00;  6.9959062E-01;  4.0000000E+04;  0.0000000E+00;  3.9858352E+04;  3.8493365E-02;  0.0000000E+00; -5.2908156E-03;  1.3017845E+03;
  7.2897381E-01;  9.9999998E-03;  1.5040968E-01;6883;  9.6969409E-03;  0.0000000E+00; -7.4936694E-04;  1.0004094E+03;  1.2298562E-01;  3.3915091E+02;3;  1.9646916E+00;  0.0000000E+00;  6.0734663E-02;0;  3.3494987E-02;  2.6550758E+04;  0.0000000E+00;  7.0088595E-01;  4.0000000E+04;  0.0000000E+00;  3.9858934E+04;  3.8624380E-02;  0.0000000E+00; -5.1293927E-03;  1.2306469E+03;
  7.2895843E-01;  9.9999998E-03;  1.6043474E-01;6884;  9.7592017E-03;  0.0000000E+00; -7.8671583E-04;  1.0004518E+03;  1.2300484E-01;  3.7431039E+02;3;  1.9382175E+00;  0.0000000E+00;  6.1410084E-02;0;  3.3917218E-02;  2.6545354E+04;  0.0000000E+00;  7.0421213E-01;  4.0000000E+04;  0.0000000E+00;  3.9859801E+04;  3.8868956E-02;  0.0000000E+00; -4.9517383E-03;  1.1618396E+03;
  7.2898877E-01;  9.9999998E-03;  1.7046332E-01;6885;  9.8859910E-03;  0.0000000E+00; -8.2018442E-04;  1.0004251E+03;  1.2303593E-01;  3.5218756E+02;3;  1.9427830E+00;  0.0000000E+00;  5.6957904E-02;0;  3.4527626E-02;  2.6531578E+04;  0.0000000E+00;  7.1105832E-01;  4.0000000E+04;  0.0000000E+00;  3.9861121E+04;  3.9290354E-02;  0.0000000E+00; -4.7627292E-03;  1.1180616E+03;
  7.2906870E-01;  9.9999998E-03;  1.8049151E-01;6886;  1.0114208E-02;  0.0000000E+00; -8.3765254E-04;  1.0003265E+03;  1.2307723E-01;  2.7051086E+02;3;  1.9698166E+00;  0.0000000E+00;  5.2352261E-02;0;  3.5381302E-02;  2.6509375E+04;  0.0000000E+00;  7.1968734E-01;  4.0000000E+04;  0.0000000E+00;  3.9861785E+04;  3.9947335E-02;  0.0000000E+00; -4.5660334E-03;  1.0919393E+03;
  7.2918677E-01;  9.9999998E-03;  1.9051367E-01;6887;  1.0441408E-02;  0.0000000E+00; -8.3243556E-04;  1.0001360E+03;  1.2312204E-01;  1.1268817E+02;3;  2.0321932E+00;  0.0000000E+00;  4.6221636E-02;0;  3.6521263E-02;  2.6481086E+04;  0.0000000E+00;  7.2637802E-01;  4.0000000E+04;  0.0000000E+00;  3.9861355E+04;  4.0877018E-02;  0.0000000E+00; -4.3557552E-03;  1.0331028E+03;
  7.2932136E-01;  9.9999998E-03;  2.0052131E-01;6888;  1.0816498E-02;  0.0000000E+00; -8.2989305E-04;  9.9987891E+02;  1.2316830E-01; -1.0034284E+02;3;  2.1168354E+00;  0.0000000E+00;  4.7988940E-02;0;  3.7965875E-02;  2.6450092E+04;  0.0000000E+00;  7.2327936E-01;  4.0000000E+04;  0.0000000E+00;  3.9859598E+04;  4.2087518E-02;  0.0000000E+00; -4.1216440E-03;  9.1014740E+02;
  7.2943485E-01;  9.9999998E-03;  2.1049689E-01;6889;  1.1180738E-02;  0.0000000E+00; -8.5537403E-04;  9.9959454E+02;  1.2320623E-01; -3.3589172E+02;3;  2.1840191E+00;  0.0000000E+00;  3.6984164E-02;0;  3.9687835E-02;  2.6421623E+04;  0.0000000E+00;  6.9308347E-01;  4.0000000E+04;  0.0000000E+00;  3.9858727E+04;  4.3556526E-02;  0.0000000E+00; -3.8686914E-03;  7.6178497E+02;
  7.2952467E-01;  9.9999998E-03;  2.2045588E-01;6890;  1.1593617E-02;  0.0000000E+00; -8.7858399E-04;  9.9932971E+02;  1.2323198E-01; -5.5534235E+02;3;  2.2601235E+00;  0.0000000E+00;  3.5035804E-02;0;  4.1707408E-02;  2.6396469E+04;  0.0000000E+00;  6.0123122E-01;  4.0000000E+04;  0.0000000E+00;  3.9860648E+04;  4.5268081E-02;  0.0000000E+00; -3.5606744E-03;  6.2790137E+02;
  7.2959870E-01;  9.9999998E-03;  2.3043677E-01;6891;  1.2071769E-02;  0.0000000E+00; -8.9460524E-04;  9.9908673E+02;  1.2324912E-01; -7.5662061E+02;3;  2.3165009E+00;  0.0000000E+00;  1.9927645E-02;0;  4.4050213E-02;  2.6375092E+04;  0.0000000E+00;  3.8916165E-01;  4.0000000E+04;  0.0000000E+00;  3.9863629E+04;  4.7186255E-02;  0.0000000E+00; -3.1360418E-03;  7.7968933E+02;
  7.4149090E-01;  9.9999998E-03;  7.0211031E-02;6936;  9.5880004E-03;  0.0000000E+00; -4.3909086E-04;  9.9947284E+02;  1.2682469E-01; -4.3672839E+02;3;  2.0693014E+00;  0.0000000E+00;  3.4072150E-02;0;  3.6278229E-02;  2.4932359E+04;  0.0000000E+00;  3.9043230E-01;  4.0000000E+04;  0.0000000E+00;  3.9841070E+04;  4.2642437E-02;  0.0000000E+00; -6.3642086E-03;  1.0252399E+03;
  7.4146247E-01;  9.9999998E-03;  8.0245368E-02;6937;  9.6193338E-03;  0.0000000E+00; -5.0119427E-04;  9.9949915E+02;  1.2682205E-01; -4.1495123E+02;3;  2.0772204E+00;  0.0000000E+00;  3.4089841E-02;0;  3.6365479E-02;  2.4935408E+04;  0.0000000E+00;  4.9256292E-01;  4.0000000E+04;  0.0000000E+00;  3.9841102E+04;  4.2666808E-02;  0.0000000E+00; -6.3013304E-03;  1.2419998E+03;
  7.4141914E-01;  9.9999998E-03;  9.0279102E-02;6938;  9.6538560E-03;  0.0000000E+00; -5.6236627E-04;  9.9955725E+02;  1.2681964E-01; -3.6680444E+02;3;  2.0789213E+00;  0.0000000E+00;  3.5199080E-02;0;  3.6440030E-02;  2.4940674E+04;  0.0000000E+00;  5.8475864E-01;  4.0000000E+04;  0.0000000E+00;  3.9840516E+04;  4.2669207E-02;  0.0000000E+00; -6.2291790E-03;  1.4252958E+03;
  7.4135947E-01;  9.9999998E-03;  1.0031162E-01;6939;  9.6869543E-03;  0.0000000E+00; -6.2200951E-04;  9.9964746E+02;  1.2681700E-01; -2.9209052E+02;3;  2.0786226E+00;  0.0000000E+00;  3.7382048E-02;0;  3.6489293E-02;  2.4947848E+04;  0.0000000E+00;  6.5500420E-01;  4.0000000E+04;  0.0000000E+00;  3.9839703E+04;  4.2636186E-02;  0.0000000E+00; -6.1468924E-03;  1.5509146E+03;
  7.4128711E-01;  9.9999998E-03;  1.1034187E-01;6940;  9.7155450E-03;  0.0000000E+00; -6.7762588E-04;  9.9977539E+02;  1.2681632E-01; -1.8606882E+02;3;  2.0780847E+00;  0.0000000E+00;  4.1110888E-02;0;  3.6509011E-02;  2.4956061E+04;  0.0000000E+00;  6.9451129E-01;  4.0000000E+04;  0.0000000E+00;  3.9838910E+04;  4.2561892E-02;  0.0000000E+00; -6.0528829E-03;  1.6002712E+03;
  7.4121016E-01;  9.9999998E-03;  1.2037051E-01;6941;  9.7368872E-03;  0.0000000E+00; -7.2913285E-04;  9.9990283E+02;  1.2681842E-01; -8.0491554E+01;3;  2.0685954E+00;  0.0000000E+00;  4.3080866E-02;0;  3.6507439E-02;  2.4963346E+04;  0.0000000E+00;  7.0114249E-01;  4.0000000E+04;  0.0000000E+00;  3.9838070E+04;  4.2452183E-02;  0.0000000E+00; -5.9447433E-03;  1.5677312E+03;
  7.4113840E-01;  9.9999998E-03;  1.3039790E-01;6942;  9.7598247E-03;  0.0000000E+00; -7.7600183E-04;  1.0000365E+03;  1.2682627E-01;  3.0221367E+01;3;  2.0547392E+00;  0.0000000E+00;  4.4903047E-02;0;  3.6507845E-02;  2.4968611E+04;  0.0000000E+00;  6.8075669E-01;  4.0000000E+04;  0.0000000E+00;  3.9837348E+04;  4.2327423E-02;  0.0000000E+00; -5.8195768E-03;  1.4632677E+03;
  7.4108195E-01;  9.9999998E-03;  1.4042264E-01;6943;  9.7845392E-03;  0.0000000E+00; -8.2002743E-04;  1.0001381E+03;  1.2684135E-01;  1.1446590E+02;3;  2.0382469E+00;  0.0000000E+00;  4.5420907E-02;0;  3.6547847E-02;  2.4969764E+04;  0.0000000E+00;  6.4564484E-01;  4.0000000E+04;  0.0000000E+00;  3.9837016E+04;  4.2222761E-02;  0.0000000E+00; -5.6749154E-03;  1.3092786E+03;
  7.4105090E-01;  9.9999998E-03;  1.5044259E-01;6944;  9.8309033E-03;  0.0000000E+00; -8.6234196E-04;  1.0002006E+03;  1.2686396E-01;  1.6611876E+02;3;  2.0281141E+00;  0.0000000E+00;  4.6879467E-02;0;  3.6680184E-02;  2.4965389E+04;  0.0000000E+00;  6.1038643E-01;  4.0000000E+04;  0.0000000E+00;  3.9837348E+04;  4.2190257E-02;  0.0000000E+00; -5.5100718E-03;  1.1345917E+03;
  7.4105066E-01;  9.9999998E-03;  1.6045870E-01;6945;  9.9132257E-03;  0.0000000E+00; -9.0784620E-04;  1.0002020E+03;  1.2689367E-01;  1.6730391E+02;3;  2.0183601E+00;  0.0000000E+00;  4.6596296E-02;0;  3.6965072E-02;  2.4954793E+04;  0.0000000E+00;  5.8598864E-01;  4.0000000E+04;  0.0000000E+00;  3.9837793E+04;  4.2292248E-02;  0.0000000E+00; -5.3271763E-03;  9.7059283E+02;
  7.4108100E-01;  9.9999998E-03;  1.7047167E-01;6946;  1.0044347E-02;  0.0000000E+00; -9.5498783E-04;  1.0001364E+03;  1.2692891E-01;  1.1298446E+02;3;  2.0308328E+00;  0.0000000E+00;  3.7702098E-02;0;  3.7463084E-02;  2.4938270E+04;  0.0000000E+00;  5.7638490E-01;  4.0000000E+04;  0.0000000E+00;  3.9838758E+04;  4.2594265E-02;  0.0000000E+00; -5.1311809E-03;  8.4938043E+02;
  7.4114221E-01;  9.9999998E-03;  1.8048067E-01;6947;  1.0247058E-02;  0.0000000E+00; -1.0001297E-03;  9.9998370E+02;  1.2696859E-01; -1.3481100E+01;3;  2.0489869E+00;  0.0000000E+00;  3.1175327E-02;0;  3.8227513E-02;  2.4916008E+04;  0.0000000E+00;  5.7769811E-01;  4.0000000E+04;  0.0000000E+00;  3.9839383E+04;  4.3156870E-02;  0.0000000E+00; -4.9293553E-03;  7.8533307E+02;
  7.4123609E-01;  9.9999998E-03;  1.9048440E-01;6948;  1.0531970E-02;  0.0000000E+00; -1.0390080E-03;  9.9976984E+02;  1.2701222E-01; -1.9071066E+02;3;  2.1082480E+00;  0.0000000E+00;  2.4406305E-02;0;  3.9296493E-02;  2.4888857E+04;  0.0000000E+00;  5.7941067E-01;  4.0000000E+04;  0.0000000E+00;  3.9840465E+04;  4.4025216E-02;  0.0000000E+00; -4.7287219E-03;  7.5595770E+02;
  7.4132305E-01;  9.9999998E-03;  2.0046960E-01;6949;  1.0879061E-02;  0.0000000E+00; -1.0628396E-03;  9.9951031E+02;  1.2704656E-01; -4.0571692E+02;3;  2.1770556E+00;  0.0000000E+00;  1.4286951E-02;0;  4.0680267E-02;  2.4862305E+04;  0.0000000E+00;  5.6593496E-01;  4.0000000E+04;  0.0000000E+00;  3.9841668E+04;  4.5206886E-02;  0.0000000E+00; -4.5266179E-03;  7.8520117E+02;
  7.4139190E-01;  9.9999998E-03;  2.1044384E-01;6950;  1.1318761E-02;  0.0000000E+00; -1.0639201E-03;  9.9923499E+02;  1.2706946E-01; -6.3380927E+02;3;  2.2637358E+00;  0.0000000E+00;  1.6728507E-02;0;  4.2398162E-02;  2.4838139E+04;  0.0000000E+00;  5.1607019E-01;  4.0000000E+04;  0.0000000E+00;  3.9844488E+04;  4.6695862E-02;  0.0000000E+00; -4.2977002E-03;  1.0635894E+03;
  7.4145573E-01;  9.9999998E-03;  2.2043459E-01;6951;  1.1884963E-02;  0.0000000E+00; -1.0017486E-03;  9.9896692E+02;  1.2708716E-01; -8.5587701E+02;3;  2.3518391E+00;  0.0000000E+00;  7.8118346E-03;0;  4.4568386E-02;  2.4815686E+04;  0.0000000E+00;  4.0397584E-01;  4.0000000E+04;  0.0000000E+00;  3.9849191E+04;  4.8470814E-02;  0.0000000E+00; -3.9024279E-03;  1.5867507E+03;
  7.4150020E-01;  9.9999998E-03;  2.3045400E-01;6952;  1.2471227E-02;  0.0000000E+00; -9.8843698E-04;  9.9866241E+02;  1.2709424E-01; -1.1081661E+03;3;  2.4211657E+00;  0.0000000E+00;  4.0973853E-03;0;  4.7051203E-02;  2.4796842E+04;  0.0000000E+00;  1.9871353E-01;  4.0000000E+04;  0.0000000E+00;  3.9851086E+04;  5.0469380E-02;  0.0000000E+00; -3.4181771E-03;  1.8743795E+03;
  7.5441474E-01;  9.9999998E-03;  7.0225075E-02;6997;  1.0016598E-02;  0.0000000E+00; -4.9409596E-04;  9.9965277E+02;  1.3109747E-01; -2.8769556E+02;3;  2.2416468E+00;  0.0000000E+00;  1.5097586E-02;0;  4.0876888E-02;  2.3353637E+04;  0.0000000E+00;  3.4625116E-01;  4.0000000E+04;  0.0000000E+00;  3.9819777E+04;  4.7709897E-02;  0.0000000E+00; -6.8330108E-03;  1.1222794E+03;
  7.5439531E-01;  9.9999998E-03;  8.0262735E-02;6998;  1.0055664E-02;  0.0000000E+00; -5.6741451E-04;  9.9962262E+02;  1.3109778E-01; -3.1263315E+02;3;  2.2500765E+00;  0.0000000E+00;  1.2833000E-02;0;  4.0963493E-02;  2.3354209E+04;  0.0000000E+00;  4.3676546E-01;  4.0000000E+04;  0.0000000E+00;  3.9819672E+04;  4.7737338E-02;  0.0000000E+00; -6.7738434E-03;  1.3204288E+03;
  7.5433838E-01;  9.9999998E-03;  9.0302609E-02;6999;  1.0088505E-02;  0.0000000E+00; -6.3846982E-04;  9.9960638E+02;  1.3109300E-01; -3.2611423E+02;3;  2.2580500E+00;  0.0000000E+00;  1.2911986E-02;0;  4.1003950E-02;  2.3358064E+04;  0.0000000E+00;  5.1323396E-01;  4.0000000E+04;  0.0000000E+00;  3.9819090E+04;  4.7707468E-02;  0.0000000E+00; -6.7035202E-03;  1.4711050E+03;
  7.5424922E-01;  9.9999998E-03;  1.0034075E-01;7000;  1.0104254E-02;  0.0000000E+00; -7.0828677E-04;  9.9961469E+02;  1.3108547E-01; -3.1925024E+02;3;  2.2509322E+00;  0.0000000E+00;  1.3938243E-02;0;  4.0984415E-02;  2.3364400E+04;  0.0000000E+00;  5.6131506E-01;  4.0000000E+04;  0.0000000E+00;  3.9817953E+04;  4.7606092E-02;  0.0000000E+00; -6.6216760E-03;  1.5433914E+03;
  7.5413930E-01;  9.9999998E-03;  1.1037093E-01;7001;  1.0101097E-02;  0.0000000E+00; -7.7456143E-04;  9.9964453E+02;  1.3107891E-01; -2.9451019E+02;3;  2.2312756E+00;  0.0000000E+00;  1.6537566E-02;0;  4.0902875E-02;  2.3371734E+04;  0.0000000E+00;  5.7109267E-01;  4.0000000E+04;  0.0000000E+00;  3.9816910E+04;  4.7430210E-02;  0.0000000E+00; -6.5273326E-03;  1.5162623E+03;
  7.5401604E-01;  9.9999998E-03;  1.2039142E-01;7002;  1.0079462E-02;  0.0000000E+00; -8.3776616E-04;  9.9968811E+02;  1.3107409E-01; -2.5841245E+02;3;  2.1952939E+00;  0.0000000E+00;  1.8463938E-02;0;  4.0770236E-02;  2.3378891E+04;  0.0000000E+00;  5.4188573E-01;  4.0000000E+04;  0.0000000E+00;  3.9815598E+04;  4.7188513E-02;  0.0000000E+00; -6.4182761E-03;  1.3890654E+03;
  7.5389129E-01;  9.9999998E-03;  1.3040721E-01;7003;  1.0051075E-02;  0.0000000E+00; -8.9430873E-04;  9.9973468E+02;  1.3107230E-01; -2.1979625E+02;3;  2.1673553E+00;  0.0000000E+00;  1.8558361E-02;0;  4.0617280E-02;  2.3384842E+04;  0.0000000E+00;  4.8374274E-01;  4.0000000E+04;  0.0000000E+00;  3.9814809E+04;  4.6908848E-02;  0.0000000E+00; -6.2915678E-03;  1.1852666E+03;
  7.5378007E-01;  9.9999998E-03;  1.4042038E-01;7004;  1.0033715E-02;  0.0000000E+00; -9.4877055E-04;  9.9976270E+02;  1.3107625E-01; -1.9658704E+02;3;  2.1430578E+00;  0.0000000E+00;  2.2237556E-02;0;  4.0494453E-02;  2.3387594E+04;  0.0000000E+00;  4.1489014E-01;  4.0000000E+04;  0.0000000E+00;  3.9813938E+04;  4.6638917E-02;  0.0000000E+00; -6.1444626E-03;  9.4495404E+02;
  7.5369561E-01;  9.9999998E-03;  1.5043019E-01;7005;  1.0045396E-02;  0.0000000E+00; -1.0057793E-03;  9.9975671E+02;  1.3108575E-01; -2.0157454E+02;3;  2.1198864E+00;  0.0000000E+00;  2.0675600E-02;0;  4.0468134E-02;  2.3385711E+04;  0.0000000E+00;  3.5594350E-01;  4.0000000E+04;  0.0000000E+00;  3.9813797E+04;  4.6443667E-02;  0.0000000E+00; -5.9755323E-03;  7.0745746E+02;
  7.5368077E-01;  9.9999998E-03;  1.6043510E-01;7006;  1.0092233E-02;  0.0000000E+00; -1.0693498E-03;  9.9971326E+02;  1.3111444E-01; -2.3757353E+02;3;  2.1051044E+00;  0.0000000E+00;  1.9723568E-02;0;  4.0622577E-02;  2.3375193E+04;  0.0000000E+00;  3.2151192E-01;  4.0000000E+04;  0.0000000E+00;  3.9814176E+04;  4.6410266E-02;  0.0000000E+00; -5.7876897E-03;  4.9369403E+02;
  7.5375295E-01;  9.9999998E-03;  1.7043261E-01;7007;  1.0200240E-02;  0.0000000E+00; -1.1388212E-03;  9.9962073E+02;  1.3116385E-01; -3.1421335E+02;3;  2.1195896E+00;  0.0000000E+00;  9.2984615E-03;0;  4.1030835E-02;  2.3354338E+04;  0.0000000E+00;  3.1644711E-01;  4.0000000E+04;  0.0000000E+00;  3.9814664E+04;  4.6617936E-02;  0.0000000E+00; -5.5871019E-03;  3.1643420E+02;
  7.5387383E-01;  9.9999998E-03;  1.8042488E-01;7008;  1.0366573E-02;  0.0000000E+00; -1.2150045E-03;  9.9946851E+02;  1.3122156E-01; -4.4033322E+02;3;  2.1379485E+00;  0.0000000E+00; -3.2993085E-03;0;  4.1734219E-02;  2.3326910E+04;  0.0000000E+00;  3.3404270E-01;  4.0000000E+04;  0.0000000E+00;  3.9815785E+04;  4.7117677E-02;  0.0000000E+00; -5.3834594E-03;  2.4155688E+02;
  7.5402516E-01;  9.9999998E-03;  1.9041327E-01;7009;  1.0602185E-02;  0.0000000E+00; -1.2908579E-03;  9.9926672E+02;  1.3128249E-01; -6.0748901E+02;3;  2.1740842E+00;  0.0000000E+00; -1.1451605E-02;0;  4.2755127E-02;  2.3294838E+04;  0.0000000E+00;  3.5607687E-01;  4.0000000E+04;  0.0000000E+00;  3.9817617E+04;  4.7948688E-02;  0.0000000E+00; -5.1935632E-03;  4.3957739E+02;
  7.5418216E-01;  9.9999998E-03;  2.0039693E-01;7010;  1.0931763E-02;  0.0000000E+00; -1.3585465E-03;  9.9902911E+02;  1.3133937E-01; -8.0437231E+02;3;  2.2391472E+00;  0.0000000E+00; -1.6190019E-02;0;  4.4085167E-02;  2.3261412E+04;  0.0000000E+00;  3.5846308E-01;  4.0000000E+04;  0.0000000E+00;  3.9821688E+04;  4.9122479E-02;  0.0000000E+00; -5.0373101E-03;  9.5661249E+02;
  7.5432932E-01;  9.9999998E-03;  2.1039282E-01;7011;  1.1378288E-02;  0.0000000E+00; -1.3696880E-03;  9.9878357E+02;  1.3138728E-01; -1.0077740E+03;3;  2.3216588E+00;  0.0000000E+00; -2.4781941E-02;0;  4.5743816E-02;  2.3228652E+04;  0.0000000E+00;  3.1846631E-01;  4.0000000E+04;  0.0000000E+00;  3.9827852E+04;  5.0626673E-02;  0.0000000E+00; -4.8828591E-03;  1.7932166E+03;
  7.5446928E-01;  9.9999998E-03;  2.2042088E-01;7012;  1.2050964E-02;  0.0000000E+00; -1.2651738E-03;  9.9851556E+02;  1.3142803E-01; -1.2298418E+03;3;  2.4119408E+00;  0.0000000E+00; -1.8590314E-02;0;  4.7898915E-02;  2.3197715E+04;  0.0000000E+00;  2.2339980E-01;  4.0000000E+04;  0.0000000E+00;  3.9833754E+04;  5.2427217E-02;  0.0000000E+00; -4.5283027E-03;  2.6169846E+03;
  7.5458902E-01;  9.9999998E-03;  2.3047444E-01;7013;  1.2717759E-02;  0.0000000E+00; -1.2185620E-03;  9.9817841E+02;  1.3145682E-01; -1.5091425E+03;3;  2.5001755E+00;  0.0000000E+00; -2.1346709E-02;0;  5.0383095E-02;  2.3170445E+04;  0.0000000E+00;  8.1899881E-02;  4.0000000E+04;  0.0000000E+00;  3.9835637E+04;  5.4469749E-02;  0.0000000E+00; -4.0866551E-03;  2.9065564E+03;
  7.6853210E-01;  9.9999998E-03;  7.0080966E-02;7058;  1.1256316E-02;  0.0000000E+00; -5.5457768E-04;  1.0000355E+03;  1.3597657E-01;  2.9431267E+01;3;  2.7568223E+00;  0.0000000E+00; -8.9285765E-03;0;  4.5440078E-02;  2.1732496E+04;  0.0000000E+00;  1.9097824E-01;  4.0000000E+04;  0.0000000E+00;  3.9796438E+04;  5.2857660E-02;  0.0000000E+00; -7.4175834E-03;  1.0196264E+03;
  7.6844239E-01;  9.9999998E-03;  8.0105737E-02;7059;  1.1273379E-02;  0.0000000E+00; -6.3640217E-04;  9.9994330E+02;  1.3596080E-01; -4.6961636E+01;3;  2.7506983E+00;  0.0000000E+00; -1.3053535E-02;0;  4.5541804E-02;  2.1737635E+04;  0.0000000E+00;  2.4360506E-01;  4.0000000E+04;  0.0000000E+00;  3.9796457E+04;  5.2897211E-02;  0.0000000E+00; -7.3554069E-03;  1.1267056E+03;
  7.6830941E-01;  9.9999998E-03;  9.0135112E-02;7060;  1.1259417E-02;  0.0000000E+00; -7.1688020E-04;  9.9985382E+02;  1.3593656E-01; -1.2108299E+02;3;  2.7318375E+00;  0.0000000E+00; -1.2171116E-02;0;  4.5584150E-02;  2.1745822E+04;  0.0000000E+00;  2.8302461E-01;  4.0000000E+04;  0.0000000E+00;  3.9795762E+04;  5.2865576E-02;  0.0000000E+00; -7.2814263E-03;  1.1703289E+03;
  7.6813036E-01;  9.9999998E-03;  1.0016763E-01;7061;  1.1191626E-02;  0.0000000E+00; -7.9901499E-04;  9.9977435E+02;  1.3590516E-01; -1.8695767E+02;3;  2.6800010E+00;  0.0000000E+00; -1.6151713E-02;0;  4.5550205E-02;  2.1757203E+04;  0.0000000E+00;  2.9633474E-01;  4.0000000E+04;  0.0000000E+00;  3.9794855E+04;  5.2745480E-02;  0.0000000E+00; -7.1952739E-03;  1.1249991E+03;
  7.6791728E-01;  9.9999998E-03;  1.1020458E-01;7062;  1.1062869E-02;  0.0000000E+00; -8.7424117E-04;  9.9971381E+02;  1.3587196E-01; -2.3712909E+02;3;  2.6132183E+00;  0.0000000E+00; -1.5219123E-02;0;  4.5436408E-02;  2.1770828E+04;  0.0000000E+00;  2.7459565E-01;  4.0000000E+04;  0.0000000E+00;  3.9793297E+04;  5.2532472E-02;  0.0000000E+00; -7.0960633E-03;  9.8032373E+02;
  7.6769847E-01;  9.9999998E-03;  1.2024060E-01;7063;  1.0884672E-02;  0.0000000E+00; -9.4616512E-04;  9.9967053E+02;  1.3584073E-01; -2.7297992E+02;3;  2.5186388E+00;  0.0000000E+00; -8.7498901E-03;0;  4.5258794E-02;  2.1783781E+04;  0.0000000E+00;  2.1788961E-01;  4.0000000E+04;  0.0000000E+00;  3.9791777E+04;  5.2241467E-02;  0.0000000E+00; -6.9826716E-03;  7.5208966E+02;
  7.6753092E-01;  9.9999998E-03;  1.3027109E-01;7064;  1.0705748E-02;  0.0000000E+00; -1.0122673E-03;  9.9964648E+02;  1.3582994E-01; -2.9288062E+02;3;  2.4283257E+00;  0.0000000E+00; -7.6594381E-03;0;  4.5061015E-02;  2.1791004E+04;  0.0000000E+00;  1.3776228E-01;  4.0000000E+04;  0.0000000E+00;  3.9790027E+04;  5.1915038E-02;  0.0000000E+00; -6.8540243E-03;  4.9711279E+02;
  7.6747549E-01;  9.9999998E-03;  1.4029630E-01;7065;  1.0550095E-02;  0.0000000E+00; -1.0810681E-03;  9.9965698E+02;  1.3585638E-01; -2.8418948E+02;3;  2.3370662E+00;  0.0000000E+00; -8.3741844E-03;0;  4.4912197E-02;  2.1786771E+04;  0.0000000E+00;  5.5535138E-02;  4.0000000E+04;  0.0000000E+00;  3.9788738E+04;  5.1621083E-02;  0.0000000E+00; -6.7088874E-03;  3.5561191E+02;
  7.6745045E-01;  9.9999998E-03;  1.5031776E-01;7066;  1.0438063E-02;  0.0000000E+00; -1.1541186E-03;  9.9964990E+02;  1.3588943E-01; -2.9006586E+02;3;  2.2656431E+00;  0.0000000E+00; -5.4323655E-03;0;  4.4855144E-02;  2.1778648E+04;  0.0000000E+00; -1.8799187E-03;  4.0000000E+04;  0.0000000E+00;  3.9787969E+04;  5.1395733E-02;  0.0000000E+00; -6.5405904E-03;  4.2740067E+02;
  7.6743990E-01;  9.9999998E-03;  1.6033544E-01;7067;  1.0408440E-02;  0.0000000E+00; -1.2330918E-03;  9.9960645E+02;  1.3592249E-01; -3.2606485E+02;3;  2.2394066E+00;  0.0000000E+00; -7.5684036E-03;0;  4.4961885E-02;  2.1767809E+04;  0.0000000E+00; -1.6240053E-02;  4.0000000E+04;  0.0000000E+00;  3.9787871E+04;  5.1310282E-02;  0.0000000E+00; -6.3483990E-03;  5.1505627E+02;
  7.6744932E-01;  9.9999998E-03;  1.7035100E-01;7068;  1.0459157E-02;  0.0000000E+00; -1.3273201E-03;  9.9950861E+02;  1.3595586E-01; -4.0709961E+02;3;  2.2243171E+00;  0.0000000E+00; -1.8134579E-02;0;  4.5309279E-02;  2.1753564E+04;  0.0000000E+00;  1.6251206E-02;  4.0000000E+04;  0.0000000E+00;  3.9788191E+04;  5.1447246E-02;  0.0000000E+00; -6.1379662E-03;  4.9313065E+02;
  7.6753896E-01;  9.9999998E-03;  1.8035711E-01;7069;  1.0574349E-02;  0.0000000E+00; -1.4345333E-03;  9.9937946E+02;  1.3600737E-01; -5.1410889E+02;3;  2.2350390E+00;  0.0000000E+00; -3.0407790E-02;0;  4.5971833E-02;  2.1730580E+04;  0.0000000E+00;  8.2370967E-02;  4.0000000E+04;  0.0000000E+00;  3.9789953E+04;  5.1898275E-02;  0.0000000E+00; -5.9264409E-03;  3.6673929E+02;
  7.6768214E-01;  9.9999998E-03;  1.9036046E-01;7070;  1.0779345E-02;  0.0000000E+00; -1.5340517E-03;  9.9921521E+02;  1.3606787E-01; -6.5020386E+02;3;  2.2705204E+00;  0.0000000E+00; -4.6066277E-02;0;  4.6961620E-02;  2.1701812E+04;  0.0000000E+00;  1.5520757E-01;  4.0000000E+04;  0.0000000E+00;  3.9793023E+04;  5.2697398E-02;  0.0000000E+00; -5.7357773E-03;  4.6711557E+02;
  7.6785243E-01;  9.9999998E-03;  2.0036809E-01;7071;  1.1094007E-02;  0.0000000E+00; -1.6138433E-03;  9.9902704E+02;  1.3612954E-01; -8.0610065E+02;3;  2.3205812E+00;  0.0000000E+00; -5.0360009E-02;0;  4.8258610E-02;  2.1670039E+04;  0.0000000E+00;  2.0006117E-01;  4.0000000E+04;  0.0000000E+00;  3.9798414E+04;  5.3849954E-02;  0.0000000E+00; -5.5913446E-03;  1.1388665E+03;
  7.6804143E-01;  9.9999998E-03;  2.1040213E-01;7072;  1.1582638E-02;  0.0000000E+00; -1.6344247E-03;  9.9882300E+02;  1.3618739E-01; -9.7513293E+02;3;  2.3993573E+00;  0.0000000E+00; -4.5518115E-02;0;  4.9860656E-02;  2.1636768E+04;  0.0000000E+00;  1.8711402E-01;  4.0000000E+04;  0.0000000E+00;  3.9805555E+04;  5.5335306E-02;  0.0000000E+00; -5.4746484E-03;  2.0688953E+03;
  7.6824462E-01;  9.9999998E-03;  2.2046794E-01;7073;  1.2240973E-02;  0.0000000E+00; -1.5594311E-03;  9.9856726E+02;  1.3624454E-01; -1.1869788E+03;3;  2.4941742E+00;  0.0000000E+00; -4.8615444E-02;0;  5.1874544E-02;  2.1603066E+04;  0.0000000E+00;  1.0358145E-01;  4.0000000E+04;  0.0000000E+00;  3.9810496E+04;  5.7112761E-02;  0.0000000E+00; -5.2382173E-03;  2.7628008E+03;
  7.6840097E-01;  9.9999998E-03;  2.3054029E-01;7074;  1.2903575E-02;  0.0000000E+00; -1.5215513E-03;  9.9823883E+02;  1.3628069E-01; -1.4591193E+03;3;  2.5645204E+00;  0.0000000E+00; -5.0134618E-02;0;  5.4160293E-02;  2.1574758E+04;  0.0000000E+00; -2.8288288E-02;  4.0000000E+04;  0.0000000E+00;  3.9811211E+04;  5.9120536E-02;  0.0000000E+00; -4.9602413E-03;  2.9457759E+03;
  7.8226310E-01;  9.9999998E-03;  7.0050918E-02;7119;  1.3189386E-02;  0.0000000E+00; -5.3590740E-04;  1.0003185E+03;  1.4106424E-01;  2.6389374E+02;3;  3.5257053E+00;  0.0000000E+00; -1.3371901E-02;0;  4.9092773E-02;  2.0211479E+04;  0.0000000E+00; -1.8636137E-02;  4.0000000E+04;  0.0000000E+00;  3.9771797E+04;  5.7158686E-02;  0.0000000E+00; -8.0659138E-03;  7.9843188E+02;
  7.8224552E-01;  9.9999998E-03;  8.0045640E-02;7120;  1.3193888E-02;  0.0000000E+00; -6.2146224E-04;  1.0002535E+03;  1.4106974E-01;  2.0996936E+02;3;  3.4978709E+00;  0.0000000E+00; -1.5804324E-02;0;  4.9262431E-02;  2.0211762E+04;  0.0000000E+00; -1.9918224E-02;  4.0000000E+04;  0.0000000E+00;  3.9772211E+04;  5.7260174E-02;  0.0000000E+00; -7.9977429E-03;  8.4463214E+02;
  7.8230035E-01;  9.9999998E-03;  9.0048246E-02;7121;  1.3185443E-02;  0.0000000E+00; -7.0908741E-04;  1.0002140E+03;  1.4110643E-01;  1.7727893E+02;3;  3.4575558E+00;  0.0000000E+00; -2.1131041E-02;0;  4.9402259E-02;  2.0204600E+04;  0.0000000E+00; -3.2741021E-02;  4.0000000E+04;  0.0000000E+00;  3.9771570E+04;  5.7325572E-02;  0.0000000E+00; -7.9233125E-03;  7.9652039E+02;
  7.8233951E-01;  9.9999998E-03;  1.0006553E-01;7122;  1.3102936E-02;  0.0000000E+00; -7.9809857E-04;  1.0001874E+03;  1.4114805E-01;  1.5525485E+02;3;  3.3898516E+00;  0.0000000E+00; -2.0110356E-02;0;  4.9482390E-02;  2.0197834E+04;  0.0000000E+00; -6.3565202E-02;  4.0000000E+04;  0.0000000E+00;  3.9770281E+04;  5.7320740E-02;  0.0000000E+00; -7.8383498E-03;  6.3473346E+02;
  7.8231555E-01;  9.9999998E-03;  1.1009887E-01;7123;  1.2910259E-02;  0.0000000E+00; -8.9059706E-04;  1.0001624E+03;  1.4117557E-01;  1.3451471E+02;3;  3.2792280E+00;  0.0000000E+00; -2.1751108E-02;0;  4.9490288E-02;  2.0195000E+04;  0.0000000E+00; -1.1575270E-01;  4.0000000E+04;  0.0000000E+00;  3.9768219E+04;  5.7230007E-02;  0.0000000E+00; -7.7397209E-03;  3.8797375E+02;
  7.8224486E-01;  9.9999998E-03;  1.2014249E-01;7124;  1.2600442E-02;  0.0000000E+00; -9.7568525E-04;  1.0001428E+03;  1.4119343E-01;  1.1831763E+02;3;  3.1340308E+00;  0.0000000E+00; -1.6750069E-02;0;  4.9440991E-02;  2.0195451E+04;  0.0000000E+00; -1.8633133E-01;  4.0000000E+04;  0.0000000E+00;  3.9766223E+04;  5.7066839E-02;  0.0000000E+00; -7.6258495E-03;  2.7889682E+02;
  7.8215104E-01;  9.9999998E-03;  1.3018648E-01;7125;  1.2182736E-02;  0.0000000E+00; -1.0615534E-03;  1.0001374E+03;  1.4120543E-01;  1.1387331E+02;3;  2.9497685E+00;  0.0000000E+00; -1.3526768E-02;0;  4.9367145E-02;  2.0196900E+04;  0.0000000E+00; -2.6238677E-01;  4.0000000E+04;  0.0000000E+00;  3.9763965E+04;  5.6861818E-02;  0.0000000E+00; -7.4946713E-03;  5.5913513E+02;
  7.8205562E-01;  9.9999998E-03;  1.4022799E-01;7126;  1.1712200E-02;  0.0000000E+00; -1.1469208E-03;  1.0001395E+03;  1.4121808E-01;  1.1555228E+02;3;  2.7500346E+00;  0.0000000E+00; -5.8813738E-03;0;  4.9316272E-02;  2.0197547E+04;  0.0000000E+00; -3.2273185E-01;  4.0000000E+04;  0.0000000E+00;  3.9761711E+04;  5.6659240E-02;  0.0000000E+00; -7.3429677E-03;  8.9347003E+02;
  7.8196955E-01;  9.9999998E-03;  1.5026356E-01;7127;  1.1322921E-02;  0.0000000E+00; -1.2331472E-03;  1.0001271E+03;  1.4123148E-01;  1.0528097E+02;3;  2.6000173E+00;  0.0000000E+00; -2.5385371E-03;0;  4.9342431E-02;  2.0196289E+04;  0.0000000E+00; -3.4405255E-01;  4.0000000E+04;  0.0000000E+00;  3.9760547E+04;  5.6509826E-02;  0.0000000E+00; -7.1673933E-03;  1.1342732E+03;
  7.8190541E-01;  9.9999998E-03;  1.6029327E-01;7128;  1.1080652E-02;  0.0000000E+00; -1.3314283E-03;  1.0000942E+03;  1.4124838E-01;  7.8121239E+01;3;  2.4891756E+00;  0.0000000E+00; -6.6032871E-03;0;  4.9516853E-02;  2.0191754E+04;  0.0000000E+00; -3.0967560E-01;  4.0000000E+04;  0.0000000E+00;  3.9759660E+04;  5.6483649E-02;  0.0000000E+00; -6.9667948E-03;  1.2121732E+03;
  7.8188181E-01;  9.9999998E-03;  1.7032568E-01;7129;  1.0960469E-02;  0.0000000E+00; -1.4558978E-03;  1.0000352E+03;  1.4127026E-01;  2.9134975E+01;3;  2.4113550E+00;  0.0000000E+00; -2.2824023E-02;0;  4.9920563E-02;  2.0182459E+04;  0.0000000E+00; -2.1759352E-01;  4.0000000E+04;  0.0000000E+00;  3.9760484E+04;  5.6665994E-02;  0.0000000E+00; -6.7454320E-03;  1.0908685E+03;
  7.8192019E-01;  9.9999998E-03;  1.8036219E-01;7130;  1.0991700E-02;  0.0000000E+00; -1.5849654E-03;  9.9994232E+02;  1.4130592E-01; -4.7801113E+01;3;  2.3918431E+00;  0.0000000E+00; -3.5571460E-02;0;  5.0608184E-02;  2.0166775E+04;  0.0000000E+00; -8.4677599E-02;  4.0000000E+04;  0.0000000E+00;  3.9762457E+04;  5.7126313E-02;  0.0000000E+00; -6.5181293E-03;  7.8600458E+02;
  7.8204519E-01;  9.9999998E-03;  1.9039926E-01;7131;  1.1167276E-02;  0.0000000E+00; -1.7033373E-03;  9.9983038E+02;  1.4135993E-01; -1.4053923E+02;3;  2.4123254E+00;  0.0000000E+00; -4.9434677E-02;0;  5.1604692E-02;  2.0142787E+04;  0.0000000E+00;  5.5267047E-02;  4.0000000E+04;  0.0000000E+00;  3.9765773E+04;  5.7916015E-02;  0.0000000E+00; -6.3113226E-03;  4.9981787E+02;
  7.8224784E-01;  9.9999998E-03;  2.0044138E-01;7132;  1.1491106E-02;  0.0000000E+00; -1.7885754E-03;  9.9970343E+02;  1.4143266E-01; -2.4572142E+02;3;  2.4549153E+00;  0.0000000E+00; -6.2798202E-02;0;  5.2893624E-02;  2.0111631E+04;  0.0000000E+00;  1.5949576E-01;  4.0000000E+04;  0.0000000E+00;  3.9770949E+04;  5.9042361E-02;  0.0000000E+00; -6.1487388E-03;  9.0897876E+02;
  7.8251255E-01;  9.9999998E-03;  2.1051154E-01;7133;  1.1982687E-02;  0.0000000E+00; -1.8019454E-03;  9.9954114E+02;  1.4151636E-01; -3.8013736E+02;3;  2.5248315E+00;  0.0000000E+00; -5.8535170E-02;0;  5.4476991E-02;  2.0075219E+04;  0.0000000E+00;  1.8800557E-01;  4.0000000E+04;  0.0000000E+00;  3.9775422E+04;  6.0478866E-02;  0.0000000E+00; -6.0018748E-03;  1.5406958E+03;
  7.8279215E-01;  9.9999998E-03;  2.2060011E-01;7134;  1.2588891E-02;  0.0000000E+00; -1.7894413E-03;  9.9930310E+02;  1.4160019E-01; -5.7736633E+02;3;  2.5850337E+00;  0.0000000E+00; -5.6161374E-02;0;  5.6324106E-02;  2.0037994E+04;  0.0000000E+00;  1.1681203E-01;  4.0000000E+04;  0.0000000E+00;  3.9775945E+04;  6.2174186E-02;  0.0000000E+00; -5.8500799E-03;  1.7213242E+03;
  7.8301418E-01;  9.9999998E-03;  2.3066467E-01;7135;  1.3238083E-02;  0.0000000E+00; -1.8203630E-03;  9.9900537E+02;  1.4166120E-01; -8.2402600E+02;3;  2.6508424E+00;  0.0000000E+00; -6.2086575E-02;0;  5.8243945E-02;  2.0005963E+04;  0.0000000E+00; -4.6502914E-02;  4.0000000E+04;  0.0000000E+00;  3.9775488E+04;  6.4052403E-02;  0.0000000E+00; -5.8084568E-03;  1.7509541E+03;
  7.9648721E-01;  9.9999998E-03;  7.0149690E-02;7180;  1.4567125E-02;  0.0000000E+00; -5.0733989E-04;  1.0002091E+03;  1.4666586E-01;  1.7322966E+02;3;  3.9762373E+00;  0.0000000E+00;  7.1298587E-03;0;  5.2751690E-02;  1.8703945E+04;  0.0000000E+00; -2.3772569E-01;  4.0000000E+04;  0.0000000E+00;  3.9743723E+04;  6.1599709E-02;  0.0000000E+00; -8.8480199E-03;  8.0769403E+02;
  7.9651779E-01;  9.9999998E-03;  8.0141656E-02;7181;  1.4616600E-02;  0.0000000E+00; -5.8610516E-04;  1.0002187E+03;  1.4669745E-01;  1.8113066E+02;3;  3.9565122E+00;  0.0000000E+00;  3.5972861E-03;0;  5.2919682E-02;  1.8700668E+04;  0.0000000E+00; -2.9360306E-01;  4.0000000E+04;  0.0000000E+00;  3.9744391E+04;  6.1676424E-02;  0.0000000E+00; -8.7567419E-03;  9.7912518E+02;
  7.9654706E-01;  9.9999998E-03;  9.0134986E-02;7182;  1.4676847E-02;  0.0000000E+00; -6.6672108E-04;  1.0002438E+03;  1.4673124E-01;  2.0196957E+02;3;  3.9357672E+00;  0.0000000E+00;  4.4794637E-03;0;  5.3036943E-02;  1.8697545E+04;  0.0000000E+00; -3.5219315E-01;  4.0000000E+04;  0.0000000E+00;  3.9744660E+04;  6.1692104E-02;  0.0000000E+00; -8.6551625E-03;  1.0978354E+03;
  7.9656696E-01;  9.9999998E-03;  1.0014271E-01;7183;  1.4721054E-02;  0.0000000E+00; -7.4863248E-04;  1.0002784E+03;  1.4676543E-01;  2.3061075E+02;3;  3.9067757E+00;  0.0000000E+00;  5.2592317E-03;0;  5.3099714E-02;  1.8695121E+04;  0.0000000E+00; -4.1447291E-01;  4.0000000E+04;  0.0000000E+00;  3.9744156E+04;  6.1643835E-02;  0.0000000E+00; -8.5441228E-03;  1.1573185E+03;
  7.9657954E-01;  9.9999998E-03;  1.1017243E-01;7184;  1.4722246E-02;  0.0000000E+00; -8.3135616E-04;  1.0003241E+03;  1.4680076E-01;  2.6853558E+02;3;  3.8598239E+00;  0.0000000E+00;  7.9760002E-03;0;  5.3117126E-02;  1.8693092E+04;  0.0000000E+00; -4.7984740E-01;  4.0000000E+04;  0.0000000E+00;  3.9742113E+04;  6.1540812E-02;  0.0000000E+00; -8.4236860E-03;  1.2073408E+03;
  7.9656261E-01;  9.9999998E-03;  1.2022182E-01;7185;  1.4638397E-02;  0.0000000E+00; -9.1607118E-04;  1.0003793E+03;  1.4682902E-01;  3.1426270E+02;3;  3.7852886E+00;  0.0000000E+00;  1.0093682E-02;0;  5.3103775E-02;  1.8693168E+04;  0.0000000E+00; -5.4280585E-01;  4.0000000E+04;  0.0000000E+00;  3.9739594E+04;  6.1395109E-02;  0.0000000E+00; -8.2913358E-03;  1.3156749E+03;
  7.9649490E-01;  9.9999998E-03;  1.3027605E-01;7186;  1.4375040E-02;  0.0000000E+00; -1.0075767E-03;  1.0004348E+03;  1.4684072E-01;  3.6018732E+02;3;  3.6425958E+00;  0.0000000E+00;  1.2222427E-02;0;  5.3090416E-02;  1.8696627E+04;  0.0000000E+00; -5.9186703E-01;  4.0000000E+04;  0.0000000E+00;  3.9737238E+04;  6.1233751E-02;  0.0000000E+00; -8.1433365E-03;  1.4883735E+03;
  7.9639024E-01;  9.9999998E-03;  1.4031933E-01;7187;  1.3867041E-02;  0.0000000E+00; -1.1037183E-03;  1.0004810E+03;  1.4684093E-01;  3.9850723E+02;3;  3.4250190E+00;  0.0000000E+00;  1.8846150E-02;0;  5.3128086E-02;  1.8701818E+04;  0.0000000E+00; -6.1123866E-01;  4.0000000E+04;  0.0000000E+00;  3.9735016E+04;  6.1104715E-02;  0.0000000E+00; -7.9766298E-03;  1.6565131E+03;
  7.9628485E-01;  9.9999998E-03;  1.5036188E-01;7188;  1.3237648E-02;  0.0000000E+00; -1.1920378E-03;  1.0005133E+03;  1.4684150E-01;  4.2527188E+02;3;  3.1949012E+00;  0.0000000E+00;  3.1194951E-02;0;  5.3270977E-02;  1.8704750E+04;  0.0000000E+00; -5.8466625E-01;  4.0000000E+04;  0.0000000E+00;  3.9733379E+04;  6.1059576E-02;  0.0000000E+00; -7.7885981E-03;  1.7341327E+03;
  7.9622269E-01;  9.9999998E-03;  1.6041242E-01;7189;  1.2647246E-02;  0.0000000E+00; -1.2970234E-03;  1.0005355E+03;  1.4685549E-01;  4.4364175E+02;3;  2.9652593E+00;  0.0000000E+00;  2.8750891E-02;0;  5.3577911E-02;  1.8702463E+04;  0.0000000E+00; -5.0078064E-01;  4.0000000E+04;  0.0000000E+00;  3.9732457E+04;  6.1154556E-02;  0.0000000E+00; -7.5766444E-03;  1.6505126E+03;
  7.9624426E-01;  9.9999998E-03;  1.7047112E-01;7190;  1.2190869E-02;  0.0000000E+00; -1.4352436E-03;  1.0005394E+03;  1.4689325E-01;  4.4690091E+02;3;  2.7909603E+00;  0.0000000E+00;  2.2059551E-02;0;  5.4110110E-02;  1.8691057E+04;  0.0000000E+00; -3.6055037E-01;  4.0000000E+04;  0.0000000E+00;  3.9732887E+04;  6.1450858E-02;  0.0000000E+00; -7.3407483E-03;  1.3733546E+03;
  7.9637814E-01;  9.9999998E-03;  1.8053661E-01;7191;  1.2005653E-02;  0.0000000E+00; -1.5782047E-03;  1.0005165E+03;  1.4696315E-01;  4.2793848E+02;3;  2.7052121E+00;  0.0000000E+00;  8.1315516E-03;0;  5.4898273E-02;  1.8669189E+04;  0.0000000E+00; -1.8194258E-01;  4.0000000E+04;  0.0000000E+00;  3.9733844E+04;  6.1988793E-02;  0.0000000E+00; -7.0905215E-03;  9.3037830E+02;
  7.9663092E-01;  9.9999998E-03;  1.9060823E-01;7192;  1.2074716E-02;  0.0000000E+00; -1.7059227E-03;  1.0004626E+03;  1.4706431E-01;  3.8329776E+02;3;  2.6756935E+00;  0.0000000E+00; -4.4857250E-03;0;  5.5950046E-02;  1.8636822E+04;  0.0000000E+00;  2.0607812E-03;  4.0000000E+04;  0.0000000E+00;  3.9735695E+04;  6.2794730E-02;  0.0000000E+00; -6.8446845E-03;  4.1763763E+02;
  7.9697907E-01;  9.9999998E-03;  2.0067985E-01;7193;  1.2357328E-02;  0.0000000E+00; -1.8110572E-03;  1.0003680E+03;  1.4718816E-01;  3.0488025E+02;3;  2.6976118E+00;  0.0000000E+00; -1.6450014E-02;0;  5.7235762E-02;  1.8596969E+04;  0.0000000E+00;  1.5159622E-01;  4.0000000E+04;  0.0000000E+00;  3.9737012E+04;  6.3861035E-02;  0.0000000E+00; -6.6252733E-03;  3.9469105E+01;
  7.9738051E-01;  9.9999998E-03;  2.1075402E-01;7194;  1.2784895E-02;  0.0000000E+00; -1.8998433E-03;  1.0002103E+03;  1.4732112E-01;  1.7421729E+02;3;  2.7482324E+00;  0.0000000E+00; -2.6668373E-02;0;  5.8696911E-02;  1.8553039E+04;  0.0000000E+00;  2.2940178E-01;  4.0000000E+04;  0.0000000E+00;  3.9735969E+04;  6.5154821E-02;  0.0000000E+00; -6.4579090E-03;  2.1862929E+02;
  7.9775614E-01;  9.9999998E-03;  2.2080176E-01;7195;  1.3300305E-02;  0.0000000E+00; -1.9972867E-03;  9.9998865E+02;  1.4744078E-01; -9.3824501E+00;3;  2.7987797E+00;  0.0000000E+00; -3.2893840E-02;0;  6.0202606E-02;  1.8511203E+04;  0.0000000E+00;  2.0670836E-01;  4.0000000E+04;  0.0000000E+00;  3.9733832E+04;  6.6612110E-02;  0.0000000E+00; -6.4095021E-03;  2.7103113E+02;
  7.9805291E-01;  9.9999998E-03;  2.3081408E-01;7196;  1.4076542E-02;  0.0000000E+00; -1.9992408E-03;  9.9976831E+02;  1.4752544E-01; -1.9194518E+02;3;  2.8826344E+00;  0.0000000E+00; -3.7376687E-02;0;  6.1854608E-02;  1.8476836E+04;  0.0000000E+00;  7.6224223E-02;  4.0000000E+04;  0.0000000E+00;  3.9735844E+04;  6.8118416E-02;  0.0000000E+00; -6.2638060E-03;  1.7180008E+02;
  8.1075186E-01;  9.9999998E-03;  7.0320584E-02;7241;  1.5049980E-02;  0.0000000E+00; -5.9140538E-04;  9.9952911E+02;  1.5259784E-01; -3.9011240E+02;3;  4.0310640E+00;  0.0000000E+00;  1.5680561E-02;0;  5.7221774E-02;  1.7272861E+04;  0.0000000E+00; -4.1443020E-01;  4.0000000E+04;  0.0000000E+00;  3.9713926E+04;  6.7008361E-02;  0.0000000E+00; -9.7865863E-03;  1.1972073E+03;
  8.1074977E-01;  9.9999998E-03;  8.0314144E-02;7242;  1.5128377E-02;  0.0000000E+00; -6.7573664E-04;  9.9959503E+02;  1.5260272E-01; -3.3549667E+02;3;  4.0016241E+00;  0.0000000E+00;  2.0246891E-02;0;  5.7270855E-02;  1.7276320E+04;  0.0000000E+00; -5.1016390E-01;  4.0000000E+04;  0.0000000E+00;  3.9715367E+04;  6.6917442E-02;  0.0000000E+00; -9.6465880E-03;  1.5059858E+03;
  8.1076032E-01;  9.9999998E-03;  9.0307318E-02;7243;  1.5206389E-02;  0.0000000E+00; -7.5739523E-04;  9.9968024E+02;  1.5261720E-01; -2.6493076E+02;3;  3.9720304E+00;  0.0000000E+00;  1.7594071E-02;0;  5.7270262E-02;  1.7278535E+04;  0.0000000E+00; -6.0012168E-01;  4.0000000E+04;  0.0000000E+00;  3.9716559E+04;  6.6765822E-02;  0.0000000E+00; -9.4955591E-03;  1.7763947E+03;
  8.1078863E-01;  9.9999998E-03;  1.0029536E-01;7244;  1.5294844E-02;  0.0000000E+00; -8.4312132E-04;  9.9977618E+02;  1.5264413E-01; -1.8542683E+02;3;  3.9532814E+00;  0.0000000E+00;  1.5603653E-02;0;  5.7228494E-02;  1.7278650E+04;  0.0000000E+00; -6.7921203E-01;  4.0000000E+04;  0.0000000E+00;  3.9716840E+04;  6.6565834E-02;  0.0000000E+00; -9.3373386E-03;  1.9708977E+03;
  8.1074518E-01;  9.9999998E-03;  1.1029714E-01;7245;  1.5368276E-02;  0.0000000E+00; -9.2458760E-04;  9.9987097E+02;  1.5265442E-01; -1.0691055E+02;3;  3.9227955E+00;  0.0000000E+00;  1.7802399E-02;0;  5.7132985E-02;  1.7282764E+04;  0.0000000E+00; -7.4259704E-01;  4.0000000E+04;  0.0000000E+00;  3.9715844E+04;  6.6301145E-02;  0.0000000E+00; -9.1681601E-03;  2.0782827E+03;
  8.1064421E-01;  9.9999998E-03;  1.2033111E-01;7246;  1.5414279E-02;  0.0000000E+00; -9.9992473E-04;  9.9995526E+02;  1.5264933E-01; -3.7085369E+01;3;  3.8888803E+00;  0.0000000E+00;  2.4758108E-02;0;  5.7016511E-02;  1.7290033E+04;  0.0000000E+00; -7.8427112E-01;  4.0000000E+04;  0.0000000E+00;  3.9713805E+04;  6.6005960E-02;  0.0000000E+00; -8.9894487E-03;  2.1178792E+03;
  8.1054002E-01;  9.9999998E-03;  1.3038383E-01;7247;  1.5410298E-02;  0.0000000E+00; -1.0706895E-03;  1.0000461E+03;  1.5264326E-01;  3.8221138E+01;3;  3.8560491E+00;  0.0000000E+00;  2.7108168E-02;0;  5.6929477E-02;  1.7297213E+04;  0.0000000E+00; -7.9669911E-01;  4.0000000E+04;  0.0000000E+00;  3.9711523E+04;  6.5732487E-02;  0.0000000E+00; -8.8030118E-03;  2.1107368E+03;
  8.1042212E-01;  9.9999998E-03;  1.4044559E-01;7248;  1.5362810E-02;  0.0000000E+00; -1.1310723E-03;  1.0001344E+03;  1.5262903E-01;  1.1130549E+02;3;  3.8031976E+00;  0.0000000E+00;  3.7139196E-02;0;  5.6905568E-02;  1.7305143E+04;  0.0000000E+00; -7.7282286E-01;  4.0000000E+04;  0.0000000E+00;  3.9709438E+04;  6.5511182E-02;  0.0000000E+00; -8.6056134E-03;  2.0509917E+03;
  8.1033987E-01;  9.9999998E-03;  1.5051675E-01;7249;  1.5231403E-02;  0.0000000E+00; -1.1884538E-03;  1.0002177E+03;  1.5262471E-01;  1.8034056E+02;3;  3.7313223E+00;  0.0000000E+00;  4.4697519E-02;0;  5.6995861E-02;  1.7309324E+04;  0.0000000E+00; -7.0718092E-01;  4.0000000E+04;  0.0000000E+00;  3.9708070E+04;  6.5390877E-02;  0.0000000E+00; -8.3950181E-03;  1.9065796E+03;
  8.1036305E-01;  9.9999998E-03;  1.6059849E-01;7250;  1.4876997E-02;  0.0000000E+00; -1.2529416E-03;  1.0002977E+03;  1.5265697E-01;  2.4661029E+02;3;  3.5803840E+00;  0.0000000E+00;  5.7644453E-02;0;  5.7261273E-02;  1.7303275E+04;  0.0000000E+00; -5.9739327E-01;  4.0000000E+04;  0.0000000E+00;  3.9707422E+04;  6.5428339E-02;  0.0000000E+00; -8.1670675E-03;  1.6387732E+03;
  8.1051898E-01;  9.9999998E-03;  1.7068847E-01;7251;  1.4346004E-02;  0.0000000E+00; -1.3510643E-03;  1.0003570E+03;  1.5273334E-01;  2.9579407E+02;3;  3.3656826E+00;  0.0000000E+00;  6.4212032E-02;0;  5.7751562E-02;  1.7284932E+04;  0.0000000E+00; -4.4807699E-01;  4.0000000E+04;  0.0000000E+00;  3.9707602E+04;  6.5664642E-02;  0.0000000E+00; -7.9130800E-03;  1.2390988E+03;
  8.1079996E-01;  9.9999998E-03;  1.8077677E-01;7252;  1.3978251E-02;  0.0000000E+00; -1.4609768E-03;  1.0003872E+03;  1.5284823E-01;  3.2078104E+02;3;  3.2221115E+00;  0.0000000E+00;  5.7883937E-02;0;  5.8476642E-02;  1.7255564E+04;  0.0000000E+00; -2.7296332E-01;  4.0000000E+04;  0.0000000E+00;  3.9707961E+04;  6.6105202E-02;  0.0000000E+00; -7.6285582E-03;  7.5965955E+02;
  8.1117105E-01;  9.9999998E-03;  1.9085561E-01;7253;  1.3928555E-02;  0.0000000E+00; -1.5745952E-03;  1.0003581E+03;  1.5298550E-01;  2.9668295E+02;3;  3.1560280E+00;  0.0000000E+00;  5.0755784E-02;0;  5.9409827E-02;  1.7218957E+04;  0.0000000E+00; -9.1251209E-02;  4.0000000E+04;  0.0000000E+00;  3.9707262E+04;  6.6725247E-02;  0.0000000E+00; -7.3154196E-03;  3.5286136E+02;
  8.1160730E-01;  9.9999998E-03;  2.0090793E-01;7254;  1.4149523E-02;  0.0000000E+00; -1.6837226E-03;  1.0002603E+03;  1.5313484E-01;  2.1569759E+02;3;  3.1437085E+00;  0.0000000E+00;  4.2022023E-02;0;  6.0507905E-02;  1.7177514E+04;  0.0000000E+00;  7.7708781E-02;  4.0000000E+04;  0.0000000E+00;  3.9705727E+04;  6.7491241E-02;  0.0000000E+00; -6.9833347E-03;  4.8096698E+02;
  8.1205195E-01;  9.9999998E-03;  2.1093954E-01;7255;  1.4584694E-02;  0.0000000E+00; -1.8095450E-03;  1.0000916E+03;  1.5327872E-01;  7.5948463E+01;3;  3.1970139E+00;  0.0000000E+00;  2.3863260E-02;0;  6.1682142E-02;  1.7135461E+04;  0.0000000E+00;  2.1802281E-01;  4.0000000E+04;  0.0000000E+00;  3.9702750E+04;  6.8352386E-02;  0.0000000E+00; -6.6702436E-03;  9.2763971E+02;
  8.1245983E-01;  9.9999998E-03;  2.2094117E-01;7256;  1.5173095E-02;  0.0000000E+00; -1.9473713E-03;  9.9988489E+02;  1.5340507E-01; -9.5355324E+01;3;  3.2834971E+00;  0.0000000E+00;  3.6475190E-03;0;  6.2812380E-02;  1.7096057E+04;  0.0000000E+00;  3.1683668E-01;  4.0000000E+04;  0.0000000E+00;  3.9701422E+04;  6.9254972E-02;  0.0000000E+00; -6.4425920E-03;  1.1851471E+03;
  8.1280768E-01;  9.9999998E-03;  2.3092586E-01;7257;  1.6152546E-02;  0.0000000E+00; -1.9481006E-03;  9.9969043E+02;  1.5350166E-01; -2.5648654E+02;3;  3.4425569E+00;  0.0000000E+00; -4.4073099E-03;0;  6.4134173E-02;  1.7062482E+04;  0.0000000E+00;  3.6857578E-01;  4.0000000E+04;  0.0000000E+00;  3.9704824E+04;  7.0112057E-02;  0.0000000E+00; -5.9778816E-03;  1.1030513E+03;
  8.2525617E-01;  9.9999998E-03;  7.0395716E-02;7302;  1.5231105E-02;  0.0000000E+00; -7.1002572E-04;  9.9878204E+02;  1.5876471E-01; -1.0090578E+03;3;  4.0376301E+00;  0.0000000E+00;  2.6450969E-02;0;  6.3360922E-02;  1.5958088E+04;  0.0000000E+00; -5.0779480E-01;  4.0000000E+04;  0.0000000E+00;  3.9684891E+04;  7.4297428E-02;  0.0000000E+00; -1.0936504E-02;  1.5210085E+03;
  8.2531559E-01;  9.9999998E-03;  1.3040115E-01;7308;  1.5697744E-02;  0.0000000E+00; -1.2404325E-03;  9.9940948E+02;  1.5894768E-01; -4.8922070E+02;3;  3.8519511E+00;  0.0000000E+00;  4.0584594E-02;0;  6.1690949E-02;  1.5943523E+04;  0.0000000E+00; -8.7566888E-01;  4.0000000E+04;  0.0000000E+00;  3.9685504E+04;  7.1230054E-02;  0.0000000E+00; -9.5391050E-03;  2.3132034E+03;
  8.2538301E-01;  9.9999998E-03;  1.2034576E-01;7307;  1.5659191E-02;  0.0000000E+00; -1.1687840E-03;  9.9928540E+02;  1.5894744E-01; -5.9203259E+02;3;  3.8875444E+00;  0.0000000E+00;  3.6340181E-02;0;  6.2020864E-02;  1.5939438E+04;  0.0000000E+00; -8.9694327E-01;  4.0000000E+04;  0.0000000E+00;  3.9687473E+04;  7.1807064E-02;  0.0000000E+00; -9.7861988E-03;  2.5132327E+03;
  8.2533401E-01;  9.9999998E-03;  1.4048603E-01;7309;  1.5705602E-02;  0.0000000E+00; -1.3031014E-03;  9.9953778E+02;  1.5897925E-01; -3.8295212E+02;3;  3.8188698E+00;  0.0000000E+00;  4.7959656E-02;0;  6.1460443E-02;  1.5940847E+04;  0.0000000E+00; -8.2219774E-01;  4.0000000E+04;  0.0000000E+00;  3.9683469E+04;  7.0754603E-02;  0.0000000E+00; -9.2941588E-03;  2.0321913E+03;
  8.2541430E-01;  9.9999998E-03;  8.0391921E-02;7303;  1.5331803E-02;  0.0000000E+00; -8.1563630E-04;  9.9887213E+02;  1.5884319E-01; -9.3439325E+02;3;  4.0148726E+00;  0.0000000E+00;  2.9082600E-02;0;  6.3257843E-02;  1.5945279E+04;  0.0000000E+00; -6.2960470E-01;  4.0000000E+04;  0.0000000E+00;  3.9686613E+04;  7.3994562E-02;  0.0000000E+00; -1.0736722E-02;  1.9142539E+03;
  8.2537305E-01;  9.9999998E-03;  1.5058441E-01;7310;  1.5672112E-02;  0.0000000E+00; -1.3565398E-03;  9.9965649E+02;  1.5901192E-01; -2.8458453E+02;3;  3.7799242E+00;  0.0000000E+00;  5.3099550E-02;0;  6.1333895E-02;  1.5936170E+04;  0.0000000E+00; -7.4559808E-01;  4.0000000E+04;  0.0000000E+00;  3.9682285E+04;  7.0377432E-02;  0.0000000E+00; -9.0435380E-03;  1.7054220E+03;
  8.2540447E-01;  9.9999998E-03;  1.6067851E-01;7311;  1.5644800E-02;  0.0000000E+00; -1.4054022E-03;  9.9974066E+02;  1.5903653E-01; -2.1485811E+02;3;  3.7365618E+00;  0.0000000E+00;  6.0864817E-02;0;  6.1330594E-02;  1.5931092E+04;  0.0000000E+00; -6.5415984E-01;  4.0000000E+04;  0.0000000E+00;  3.9681898E+04;  7.0109598E-02;  0.0000000E+00; -8.7790042E-03;  1.3525690E+03;
  8.2553476E-01;  9.9999998E-03;  9.0372123E-02;7304;  1.5434418E-02;  0.0000000E+00; -9.1485889E-04;  9.9896991E+02;  1.5892063E-01; -8.5340790E+02;3;  3.9866974E+00;  0.0000000E+00;  3.1657353E-02;0;  6.3065246E-02;  1.5933485E+04;  0.0000000E+00; -7.4007493E-01;  4.0000000E+04;  0.0000000E+00;  3.9688160E+04;  7.3582627E-02;  0.0000000E+00; -1.0517383E-02;  2.2659248E+03;
  8.2555336E-01;  9.9999998E-03;  1.1032340E-01;7306;  1.5598374E-02;  0.0000000E+00; -1.0894465E-03;  9.9917987E+02;  1.5898912E-01; -6.7943750E+02;3;  3.9149439E+00;  0.0000000E+00;  3.5584427E-02;0;  6.2428251E-02;  1.5927282E+04;  0.0000000E+00; -8.8089621E-01;  4.0000000E+04;  0.0000000E+00;  3.9688414E+04;  7.2467662E-02;  0.0000000E+00; -1.0039410E-02;  2.5890364E+03;
  8.2548130E-01;  9.9999998E-03;  1.7075922E-01;7312;  1.5585622E-02;  0.0000000E+00; -1.4622580E-03;  9.9980334E+02;  1.5906936E-01; -1.6290897E+02;3;  3.6755509E+00;  0.0000000E+00;  6.4113557E-02;0;  6.1473671E-02;  1.5921841E+04;  0.0000000E+00; -5.5265683E-01;  4.0000000E+04;  0.0000000E+00;  3.9682863E+04;  6.9964737E-02;  0.0000000E+00; -8.4910663E-03;  9.9224719E+02;
  8.2565159E-01;  9.9999998E-03;  1.0033485E-01;7305;  1.5526605E-02;  0.0000000E+00; -1.0061814E-03;  9.9907867E+02;  1.5899917E-01; -7.6328699E+02;3;  3.9509275E+00;  0.0000000E+00;  3.5914928E-02;0;  6.2810555E-02;  1.5921450E+04;  0.0000000E+00; -8.2715732E-01;  4.0000000E+04;  0.0000000E+00;  3.9688738E+04;  7.3098563E-02;  0.0000000E+00; -1.0288004E-02;  2.5070239E+03;
  8.2562226E-01;  9.9999998E-03;  1.8082955E-01;7313;  1.5525552E-02;  0.0000000E+00; -1.5439462E-03;  9.9981195E+02;  1.5911798E-01; -1.5579805E+02;3;  3.6111202E+00;  0.0000000E+00;  6.0370568E-02;0;  6.1768137E-02;  1.5907489E+04;  0.0000000E+00; -4.3913150E-01;  4.0000000E+04;  0.0000000E+00;  3.9683703E+04;  6.9935091E-02;  0.0000000E+00; -8.1669549E-03;  6.5420007E+02;
  8.2584494E-01;  9.9999998E-03;  1.9089022E-01;7314;  1.5570859E-02;  0.0000000E+00; -1.6444155E-03;  9.9976447E+02;  1.5918748E-01; -1.9515495E+02;3;  3.5573452E+00;  0.0000000E+00;  5.2778803E-02;0;  6.2203988E-02;  1.5886839E+04;  0.0000000E+00; -3.0471271E-01;  4.0000000E+04;  0.0000000E+00;  3.9684238E+04;  7.0005395E-02;  0.0000000E+00; -7.8014056E-03;  3.8523111E+02;
  8.2616776E-01;  9.9999998E-03;  2.0092504E-01;7315;  1.5894977E-02;  0.0000000E+00; -1.7369614E-03;  9.9965869E+02;  1.5928763E-01; -2.8275742E+02;3;  3.5815730E+00;  0.0000000E+00;  3.3102401E-02;0;  6.2760711E-02;  1.5858582E+04;  0.0000000E+00; -1.3745052E-01;  4.0000000E+04;  0.0000000E+00;  3.9684055E+04;  7.0151776E-02;  0.0000000E+00; -7.3910691E-03;  4.5591925E+02;
  8.2649601E-01;  9.9999998E-03;  2.1095201E-01;7316;  1.6466826E-02;  0.0000000E+00; -1.8105699E-03;  9.9947748E+02;  1.5937988E-01; -4.3287662E+02;3;  3.6426809E+00;  0.0000000E+00;  2.0467749E-02;0;  6.3394018E-02;  1.5830211E+04;  0.0000000E+00;  7.7684171E-02;  4.0000000E+04;  0.0000000E+00;  3.9683902E+04;  7.0311219E-02;  0.0000000E+00; -6.9171982E-03;  9.0880664E+02;
  8.2677323E-01;  9.9999998E-03;  2.2097716E-01;7317;  1.7225344E-02;  0.0000000E+00; -1.8852230E-03;  9.9923853E+02;  1.5944427E-01; -6.3084631E+02;3;  3.7310379E+00;  0.0000000E+00;  2.0308148E-02;0;  6.4052664E-02;  1.5806065E+04;  0.0000000E+00;  3.4909362E-01;  4.0000000E+04;  0.0000000E+00;  3.9683262E+04;  7.0436746E-02;  0.0000000E+00; -6.3840812E-03;  1.5529529E+03;
  8.2691199E-01;  9.9999998E-03;  2.3098782E-01;7318;  1.8148251E-02;  0.0000000E+00; -1.9399066E-03;  9.9898248E+02;  1.5945144E-01; -8.4298846E+02;3;  3.8040941E+00;  0.0000000E+00;  2.0107983E-02;0;  6.4756528E-02;  1.5792867E+04;  0.0000000E+00;  6.6971403E-01;  4.0000000E+04;  0.0000000E+00;  3.9684641E+04;  7.0499115E-02;  0.0000000E+00; -5.7425858E-03;  2.3997109E+03;
  8.4181416E-01;  9.9999998E-03;  7.0425175E-02;7363;  1.5437373E-02;  0.0000000E+00; -8.6381548E-04;  9.9862457E+02;  1.6597660E-01; -1.1395232E+03;3;  4.0358720E+00;  0.0000000E+00;  4.1717570E-02;0;  7.2612472E-02;  1.4627338E+04;  0.0000000E+00; -5.1624697E-01;  4.0000000E+04;  0.0000000E+00;  3.9654699E+04;  8.5137092E-02;  0.0000000E+00; -1.2524619E-02;  1.5741648E+03;
  8.4180999E-01;  9.9999998E-03;  8.0492303E-02;7364;  1.5529701E-02;  0.0000000E+00; -9.8222401E-04;  9.9867737E+02;  1.6598874E-01; -1.0957714E+03;3;  4.0060678E+00;  0.0000000E+00;  4.4971526E-02;0;  7.2033256E-02;  1.4624535E+04;  0.0000000E+00; -6.4261752E-01;  4.0000000E+04;  0.0000000E+00;  3.9655953E+04;  8.4225796E-02;  0.0000000E+00; -1.2192542E-02;  1.9816328E+03;
  8.4183103E-01;  9.9999998E-03;  9.0534583E-02;7365;  1.5621355E-02;  0.0000000E+00; -1.0962785E-03;  9.9873944E+02;  1.6601647E-01; -1.0443655E+03;3;  3.9896915E+00;  0.0000000E+00;  4.4711433E-02;0;  7.1382865E-02;  1.4619288E+04;  0.0000000E+00; -7.5584376E-01;  4.0000000E+04;  0.0000000E+00;  3.9657730E+04;  8.3225377E-02;  0.0000000E+00; -1.1842515E-02;  2.3388108E+03;
  8.4187835E-01;  9.9999998E-03;  1.0055837E-01;7366;  1.5703002E-02;  0.0000000E+00; -1.2037255E-03;  9.9880420E+02;  1.6606075E-01; -9.9068793E+02;3;  3.9567704E+00;  0.0000000E+00;  4.8357990E-02;0;  7.0672005E-02;  1.4611346E+04;  0.0000000E+00; -8.4059906E-01;  4.0000000E+04;  0.0000000E+00;  3.9658629E+04;  8.2156941E-02;  0.0000000E+00; -1.1484932E-02;  2.5630166E+03;
  8.4190619E-01;  9.9999998E-03;  1.1055393E-01;7367;  1.5753260E-02;  0.0000000E+00; -1.3009134E-03;  9.9887531E+02;  1.6610029E-01; -9.3177606E+02;3;  3.9205430E+00;  0.0000000E+00;  5.0589725E-02;0;  6.9894180E-02;  1.4604602E+04;  0.0000000E+00; -8.8503104E-01;  4.0000000E+04;  0.0000000E+00;  3.9658727E+04;  8.1020087E-02;  0.0000000E+00; -1.1125905E-02;  2.5905569E+03;
  8.4184551E-01;  9.9999998E-03;  1.2056471E-01;7368;  1.5780563E-02;  0.0000000E+00; -1.3887555E-03;  9.9894244E+02;  1.6610277E-01; -8.7617267E+02;3;  3.8871379E+00;  0.0000000E+00;  5.1793646E-02;0;  6.9046579E-02;  1.4603933E+04;  0.0000000E+00; -8.8654482E-01;  4.0000000E+04;  0.0000000E+00;  3.9657977E+04;  7.9813793E-02;  0.0000000E+00; -1.0767211E-02;  2.4108496E+03;
  8.4166175E-01;  9.9999998E-03;  1.3058782E-01;7369;  1.5799571E-02;  0.0000000E+00; -1.4647152E-03;  9.9901062E+02;  1.6605966E-01; -8.1968048E+02;3;  3.8503850E+00;  0.0000000E+00;  5.2447110E-02;0;  6.8158694E-02;  1.4611479E+04;  0.0000000E+00; -8.5297978E-01;  4.0000000E+04;  0.0000000E+00;  3.9657000E+04;  7.8571655E-02;  0.0000000E+00; -1.0412963E-02;  2.0751375E+03;
  8.4132838E-01;  9.9999998E-03;  1.4061999E-01;7370;  1.5806511E-02;  0.0000000E+00; -1.5299541E-03;  9.9907001E+02;  1.6595390E-01; -7.7049664E+02;3;  3.8180912E+00;  0.0000000E+00;  5.4993540E-02;0;  6.7265064E-02;  1.4629353E+04;  0.0000000E+00; -8.0139637E-01;  4.0000000E+04;  0.0000000E+00;  3.9656168E+04;  7.7329099E-02;  0.0000000E+00; -1.0064038E-02;  1.6774203E+03;
  8.4101003E-01;  9.9999998E-03;  1.5065877E-01;7371;  1.5799180E-02;  0.0000000E+00; -1.5899268E-03;  9.9912921E+02;  1.6584441E-01; -7.2141162E+02;3;  3.7873216E+00;  0.0000000E+00;  5.9784409E-02;0;  6.6466637E-02;  1.4647122E+04;  0.0000000E+00; -7.5389123E-01;  4.0000000E+04;  0.0000000E+00;  3.9655910E+04;  7.6191626E-02;  0.0000000E+00; -9.7249895E-03;  1.3188605E+03;
  8.4080404E-01;  9.9999998E-03;  1.6068885E-01;7372;  1.5756359E-02;  0.0000000E+00; -1.6560659E-03;  9.9918286E+02;  1.6576853E-01; -6.7696844E+02;3;  3.7526250E+00;  0.0000000E+00;  5.9995752E-02;0;  6.5802410E-02;  1.4658227E+04;  0.0000000E+00; -7.2817844E-01;  4.0000000E+04;  0.0000000E+00;  3.9656254E+04;  7.5192869E-02;  0.0000000E+00; -9.3904613E-03;  1.0823868E+03;
  8.4077758E-01;  9.9999998E-03;  1.7071283E-01;7373;  1.5780827E-02;  0.0000000E+00; -1.7344425E-03;  9.9921936E+02;  1.6575176E-01; -6.4674707E+02;3;  3.7275958E+00;  0.0000000E+00;  5.9235755E-02;0;  6.5293573E-02;  1.4657815E+04;  0.0000000E+00; -7.2652799E-01;  4.0000000E+04;  0.0000000E+00;  3.9657250E+04;  7.4342877E-02;  0.0000000E+00; -9.0493057E-03;  1.0062551E+03;
  8.4217656E-01;  9.9999998E-03;  2.3104116E-01;7379;  1.9009298E-02;  0.0000000E+00; -2.3236726E-03;  9.9841412E+02;  1.6596593E-01; -1.3138887E+03;3;  3.8597643E+00;  0.0000000E+00;  9.0883588E-03;0;  6.3013971E-02;  1.4573167E+04;  0.0000000E+00;  6.2928885E-01;  4.0000000E+04;  0.0000000E+00;  3.9664758E+04;  6.9513172E-02;  0.0000000E+00; -6.4992025E-03;  3.2502751E+03;
  8.4090644E-01;  9.9999998E-03;  1.8073769E-01;7374;  1.5853511E-02;  0.0000000E+00; -1.8451905E-03;  9.9922736E+02;  1.6578287E-01; -6.4013000E+02;3;  3.7038057E+00;  0.0000000E+00;  4.9852706E-02;0;  6.4888701E-02;  1.4647611E+04;  0.0000000E+00; -7.2889847E-01;  4.0000000E+04;  0.0000000E+00;  3.9658828E+04;  7.3576257E-02;  0.0000000E+00; -8.6875567E-03;  1.0857188E+03;
  8.4113228E-01;  9.9999998E-03;  1.9077238E-01;7375;  1.6042588E-02;  0.0000000E+00; -1.9737280E-03;  9.9919952E+02;  1.6583617E-01; -6.6319104E+02;3;  3.6904106E+00;  0.0000000E+00;  3.8274731E-02;0;  6.4532533E-02;  1.4632086E+04;  0.0000000E+00; -6.9449371E-01;  4.0000000E+04;  0.0000000E+00;  3.9661590E+04;  7.2834954E-02;  0.0000000E+00; -8.3024194E-03;  1.3034238E+03;
  8.4194183E-01;  9.9999998E-03;  2.2098807E-01;7378;  1.8018663E-02;  0.0000000E+00; -2.2273634E-03;  9.9873761E+02;  1.6594769E-01; -1.0458469E+03;3;  3.8128543E+00;  0.0000000E+00;  3.8323840E-03;0;  6.3504532E-02;  1.4586183E+04;  0.0000000E+00;  8.5885823E-02;  4.0000000E+04;  0.0000000E+00;  3.9666402E+04;  7.0450366E-02;  0.0000000E+00; -6.9458322E-03;  2.3062290E+03;
  8.4139955E-01;  9.9999998E-03;  2.0081349E-01;7376;  1.6421700E-02;  0.0000000E+00; -2.0908022E-03;  9.9913684E+02;  1.6588798E-01; -7.1509082E+02;3;  3.7152503E+00;  0.0000000E+00;  2.3094511E-02;0;  6.4180166E-02;  1.4615419E+04;  0.0000000E+00; -5.7279766E-01;  4.0000000E+04;  0.0000000E+00;  3.9666191E+04;  7.2077453E-02;  0.0000000E+00; -7.8972848E-03;  1.7119293E+03;
  8.4166884E-01;  9.9999998E-03;  2.1088788E-01;7377;  1.7097617E-02;  0.0000000E+00; -2.1625455E-03;  9.9900104E+02;  1.6592273E-01; -8.2763086E+02;3;  3.7480810E+00;  0.0000000E+00;  1.2570725E-02;0;  6.3846484E-02;  1.4600505E+04;  0.0000000E+00; -3.1898028E-01;  4.0000000E+04;  0.0000000E+00;  3.9669035E+04;  7.1291760E-02;  0.0000000E+00; -7.4452739E-03;  2.1480171E+03;
  8.5970461E-01;  9.9999998E-03;  7.0426799E-02;7424;  1.6123297E-02;  0.0000000E+00; -1.0511070E-03;  9.9937207E+02;  1.7421354E-01; -5.2023218E+02;3;  4.0905600E+00;  0.0000000E+00;  3.5637990E-02;0;  8.3769716E-02;  1.3326399E+04;  0.0000000E+00; -4.4334012E-01;  4.0000000E+04;  0.0000000E+00;  3.9622359E+04;  9.8346144E-02;  0.0000000E+00; -1.4576429E-02;  1.3314399E+03;
  8.5978961E-01;  9.9999998E-03;  8.0536827E-02;7425;  1.6221570E-02;  0.0000000E+00; -1.1970497E-03;  9.9936072E+02;  1.7423300E-01; -5.2961462E+02;3;  4.0752277E+00;  0.0000000E+00;  3.4050196E-02;0;  8.2735747E-02;  1.3319021E+04;  0.0000000E+00; -5.5802900E-01;  4.0000000E+04;  0.0000000E+00;  3.9623602E+04;  9.6819855E-02;  0.0000000E+00; -1.4084107E-02;  1.6952429E+03;
  8.5989374E-01;  9.9999998E-03;  9.0620600E-02;7426;  1.6293176E-02;  0.0000000E+00; -1.3395910E-03;  9.9936957E+02;  1.7426743E-01; -5.2230615E+02;3;  4.0528364E+00;  0.0000000E+00;  3.3102527E-02;0;  8.1606008E-02;  1.3309805E+04;  0.0000000E+00; -6.6271800E-01;  4.0000000E+04;  0.0000000E+00;  3.9624906E+04;  9.5168404E-02;  0.0000000E+00; -1.3562399E-02;  2.0088315E+03;
  8.6000627E-01;  9.9999998E-03;  1.0069250E-01;7427;  1.6347215E-02;  0.0000000E+00; -1.4705268E-03;  9.9939362E+02;  1.7430921E-01; -5.0235611E+02;3;  4.0263600E+00;  0.0000000E+00;  3.2044694E-02;0;  8.0385976E-02;  1.3299424E+04;  0.0000000E+00; -7.4224353E-01;  4.0000000E+04;  0.0000000E+00;  3.9625777E+04;  9.3412861E-02;  0.0000000E+00; -1.3026885E-02;  2.1802837E+03;
  8.6007053E-01;  9.9999998E-03;  1.1073911E-01;7428;  1.6348613E-02;  0.0000000E+00; -1.5890124E-03;  9.9942786E+02;  1.7433612E-01; -4.7401126E+02;3;  3.9841220E+00;  0.0000000E+00;  2.8002074E-02;0;  7.9055950E-02;  1.3292063E+04;  0.0000000E+00; -7.8627199E-01;  4.0000000E+04;  0.0000000E+00;  3.9625832E+04;  9.1546260E-02;  0.0000000E+00; -1.2490314E-02;  2.1416616E+03;
  8.6002630E-01;  9.9999998E-03;  1.2078472E-01;7429;  1.6276781E-02;  0.0000000E+00; -1.6942441E-03;  9.9946582E+02;  1.7432062E-01; -4.4255536E+02;3;  3.9313235E+00;  0.0000000E+00;  4.4726111E-02;0;  7.7601537E-02;  1.3291520E+04;  0.0000000E+00; -7.9536384E-01;  4.0000000E+04;  0.0000000E+00;  3.9625035E+04;  8.9563921E-02;  0.0000000E+00; -1.1962380E-02;  1.8877642E+03;
  8.5981643E-01;  9.9999998E-03;  1.3082489E-01;7430;  1.6175365E-02;  0.0000000E+00; -1.7883027E-03;  9.9949817E+02;  1.7424043E-01; -4.1574130E+02;3;  3.8827794E+00;  0.0000000E+00;  4.7245078E-02;0;  7.6034643E-02;  1.3300947E+04;  0.0000000E+00; -7.8386122E-01;  4.0000000E+04;  0.0000000E+00;  3.9624145E+04;  8.7486133E-02;  0.0000000E+00; -1.1451490E-02;  1.4934679E+03;
  8.5961229E-01;  9.9999998E-03;  1.4087728E-01;7431;  1.6090753E-02;  0.0000000E+00; -1.8787300E-03;  9.9953400E+02;  1.7416249E-01; -3.8606314E+02;3;  3.8404133E+00;  0.0000000E+00;  5.0748076E-02;0;  7.4457161E-02;  1.3310337E+04;  0.0000000E+00; -7.7959669E-01;  4.0000000E+04;  0.0000000E+00;  3.9623523E+04;  8.5428178E-02;  0.0000000E+00; -1.0971020E-02;  1.0969280E+03;
  8.5945588E-01;  9.9999998E-03;  1.5092009E-01;7432;  1.6049745E-02;  0.0000000E+00; -1.9709894E-03;  9.9956866E+02;  1.7409915E-01; -3.5737259E+02;3;  3.8052263E+00;  0.0000000E+00;  4.9189154E-02;0;  7.2902605E-02;  1.3317378E+04;  0.0000000E+00; -8.1541914E-01;  4.0000000E+04;  0.0000000E+00;  3.9623094E+04;  8.3420098E-02;  0.0000000E+00; -1.0517492E-02;  8.5127087E+02;
  8.5936522E-01;  9.9999998E-03;  1.6094930E-01;7433;  1.6065642E-02;  0.0000000E+00; -2.0737846E-03;  9.9958917E+02;  1.7405540E-01; -3.4038541E+02;3;  3.7818444E+00;  0.0000000E+00;  4.1381162E-02;0;  7.1374133E-02;  1.3320915E+04;  0.0000000E+00; -9.1519362E-01;  4.0000000E+04;  0.0000000E+00;  3.9623238E+04;  8.1455290E-02;  0.0000000E+00; -1.0081159E-02;  8.6415466E+02;
  8.5933608E-01;  9.9999998E-03;  1.7096509E-01;7434;  1.6149465E-02;  0.0000000E+00; -2.1974586E-03;  9.9959076E+02;  1.7402758E-01; -3.3905212E+02;3;  3.7758827E+00;  0.0000000E+00;  4.1831523E-02;0;  6.9851696E-02;  1.3321498E+04;  0.0000000E+00; -1.0773672E+00;  4.0000000E+04;  0.0000000E+00;  3.9623574E+04;  7.9503290E-02;  0.0000000E+00; -9.6515957E-03;  1.1538805E+03;
  8.5932529E-01;  9.9999998E-03;  1.8097480E-01;7435;  1.6294917E-02;  0.0000000E+00; -2.3626555E-03;  9.9954883E+02;  1.7399618E-01; -3.7376718E+02;3;  3.7671919E+00;  0.0000000E+00;  2.9155286E-02;0;  6.8288259E-02;  1.3321907E+04;  0.0000000E+00; -1.2656926E+00;  4.0000000E+04;  0.0000000E+00;  3.9624777E+04;  7.7513926E-02;  0.0000000E+00; -9.2256675E-03;  1.6361373E+03;
  8.5929346E-01;  9.9999998E-03;  1.9098966E-01;7436;  1.6567500E-02;  0.0000000E+00; -2.5320034E-03;  9.9945508E+02;  1.7393924E-01; -4.5144400E+02;3;  3.7627711E+00;  0.0000000E+00;  1.2810213E-02;0;  6.6649951E-02;  1.3324863E+04;  0.0000000E+00; -1.4134183E+00;  4.0000000E+04;  0.0000000E+00;  3.9626133E+04;  7.5467676E-02;  0.0000000E+00; -8.8177230E-03;  2.1170774E+03;
  8.5917288E-01;  9.9999998E-03;  2.0100424E-01;7437;  1.7004253E-02;  0.0000000E+00; -2.6761293E-03;  9.9931287E+02;  1.7383799E-01; -5.6926782E+02;3;  3.7791204E+00;  0.0000000E+00;  3.0512100E-03;0;  6.4916790E-02;  1.3333508E+04;  0.0000000E+00; -1.4307722E+00;  4.0000000E+04;  0.0000000E+00;  3.9628777E+04;  7.3365718E-02;  0.0000000E+00; -8.4489249E-03;  2.3623066E+03;
  8.5902345E-01;  9.9999998E-03;  2.1103221E-01;7438;  1.7649721E-02;  0.0000000E+00; -2.7796745E-03;  9.9911981E+02;  1.7371903E-01; -7.2921387E+02;3;  3.7894421E+00;  0.0000000E+00; -4.6896539E-03;0;  6.3111596E-02;  1.3344058E+04;  0.0000000E+00; -1.2451837E+00;  4.0000000E+04;  0.0000000E+00;  3.9632371E+04;  7.1241267E-02;  0.0000000E+00; -8.1296721E-03;  2.2400603E+03;
  8.5888827E-01;  9.9999998E-03;  2.2108614E-01;7439;  1.8580940E-02;  0.0000000E+00; -2.8482121E-03;  9.9883447E+02;  1.7360125E-01; -9.6560223E+02;3;  3.8206737E+00;  0.0000000E+00; -8.1429118E-03;0;  6.1291527E-02;  1.3353344E+04;  0.0000000E+00; -8.2021594E-01;  4.0000000E+04;  0.0000000E+00;  3.9633867E+04;  6.9143921E-02;  0.0000000E+00; -7.8523941E-03;  1.7325161E+03;
  8.5878116E-01;  9.9999998E-03;  2.3112535E-01;7440;  1.9659650E-02;  0.0000000E+00; -2.8782201E-03;  9.9851239E+02;  1.7350245E-01; -1.2324589E+03;3;  3.8440320E+00;  0.0000000E+00; -1.7765488E-02;0;  5.9508275E-02;  1.3359715E+04;  0.0000000E+00; -1.7848779E-01;  4.0000000E+04;  0.0000000E+00;  3.9635914E+04;  6.7058250E-02;  0.0000000E+00; -7.5499755E-03;  2.1495640E+03;
  8.7708586E-01;  9.9999998E-03;  7.0410684E-02;7485;  1.8863924E-02;  0.0000000E+00; -1.2563086E-03;  9.9988214E+02;  1.8259530E-01; -9.7626862E+01;3;  4.6989760E+00;  0.0000000E+00; -3.2385100E-02;0;  9.2152484E-02;  1.2161896E+04;  0.0000000E+00; -3.1250411E-01;  4.0000000E+04;  0.0000000E+00;  3.9591922E+04;  1.0900538E-01;  0.0000000E+00; -1.6852891E-02;  9.4882715E+02;
  8.7713736E-01;  9.9999998E-03;  8.0523327E-02;7486;  1.8883441E-02;  0.0000000E+00; -1.4442509E-03;  9.9985333E+02;  1.8260297E-01; -1.2152742E+02;3;  4.6630583E+00;  0.0000000E+00; -3.2294918E-02;0;  9.0616867E-02;  1.2155514E+04;  0.0000000E+00; -4.0747687E-01;  4.0000000E+04;  0.0000000E+00;  3.9592660E+04;  1.0677222E-01;  0.0000000E+00; -1.6155353E-02;  1.2026492E+03;
  8.7725019E-01;  9.9999998E-03;  9.0614863E-02;7487;  1.8851992E-02;  0.0000000E+00; -1.6177627E-03;  9.9984528E+02;  1.8264329E-01; -1.2819389E+02;3;  4.6050682E+00;  0.0000000E+00; -2.5688685E-02;0;  8.9009091E-02;  1.2145167E+04;  0.0000000E+00; -4.9905369E-01;  4.0000000E+04;  0.0000000E+00;  3.9593891E+04;  1.0443190E-01;  0.0000000E+00; -1.5422812E-02;  1.4255732E+03;
  8.7739581E-01;  9.9999998E-03;  1.0068273E-01;7488;  1.8722501E-02;  0.0000000E+00; -1.7769105E-03;  9.9986157E+02;  1.8270209E-01; -1.1466341E+02;3;  4.4995675E+00;  0.0000000E+00; -2.9882757E-02;0;  8.7323487E-02;  1.2132779E+04;  0.0000000E+00; -5.7478070E-01;  4.0000000E+04;  0.0000000E+00;  3.9594031E+04;  1.0199869E-01;  0.0000000E+00; -1.4675203E-02;  1.5215205E+03;
  8.7752789E-01;  9.9999998E-03;  1.1074103E-01;7489;  1.8480409E-02;  0.0000000E+00; -1.9140154E-03;  9.9989056E+02;  1.8275839E-01; -9.0664093E+01;3;  4.3658476E+00;  0.0000000E+00; -2.6447181E-02;0;  8.5547529E-02;  1.2121250E+04;  0.0000000E+00; -6.2691170E-01;  4.0000000E+04;  0.0000000E+00;  3.9593758E+04;  9.9478379E-02;  0.0000000E+00; -1.3930851E-02;  1.4292310E+03;
  8.7760293E-01;  9.9999998E-03;  1.2079434E-01;7490;  1.8124899E-02;  0.0000000E+00; -2.0341896E-03;  9.9993060E+02;  1.8279004E-01; -5.7479851E+01;3;  4.1937380E+00;  0.0000000E+00; -1.9164754E-02;0;  8.3666794E-02;  1.2113692E+04;  0.0000000E+00; -6.5830255E-01;  4.0000000E+04;  0.0000000E+00;  3.9592215E+04;  9.6873738E-02;  0.0000000E+00; -1.3206947E-02;  1.1460010E+03;
  8.7758744E-01;  9.9999998E-03;  1.3084909E-01;7491;  1.7710676E-02;  0.0000000E+00; -2.1396670E-03;  9.9997638E+02;  1.8278028E-01; -1.9555000E+01;3;  4.0326800E+00;  0.0000000E+00; -1.0112007E-02;0;  8.1670828E-02;  1.2112215E+04;  0.0000000E+00; -6.8582571E-01;  4.0000000E+04;  0.0000000E+00;  3.9590555E+04;  9.4187327E-02;  0.0000000E+00; -1.2516496E-02;  7.6145752E+02;
  8.7749571E-01;  9.9999998E-03;  1.4090228E-01;7492;  1.7345786E-02;  0.0000000E+00; -2.2421482E-03;  1.0000338E+03;  1.8273579E-01;  2.7949825E+01;3;  3.9098794E+00;  0.0000000E+00;  6.4560873E-03;0;  7.9565056E-02;  1.2116057E+04;  0.0000000E+00; -7.3785543E-01;  4.0000000E+04;  0.0000000E+00;  3.9588926E+04;  9.1432512E-02;  0.0000000E+00; -1.1867459E-02;  4.1995190E+02;
  8.7736070E-01;  9.9999998E-03;  1.5094861E-01;7493;  1.7051386E-02;  0.0000000E+00; -2.3646224E-03;  1.0000901E+03;  1.8266758E-01;  7.4664551E+01;3;  3.8403738E+00;  0.0000000E+00;  2.1039130E-02;0;  7.7342138E-02;  1.2123377E+04;  0.0000000E+00; -8.4545869E-01;  4.0000000E+04;  0.0000000E+00;  3.9587727E+04;  8.8601053E-02;  0.0000000E+00; -1.1258915E-02;  2.5242638E+02;
  8.7722909E-01;  9.9999998E-03;  1.6098315E-01;7494;  1.6895290E-02;  0.0000000E+00; -2.5206276E-03;  1.0001364E+03;  1.8259653E-01;  1.1298445E+02;3;  3.8011773E+00;  0.0000000E+00;  2.3474744E-02;0;  7.5001724E-02;  1.2131075E+04;  0.0000000E+00; -1.0294408E+00;  4.0000000E+04;  0.0000000E+00;  3.9587508E+04;  8.5688166E-02;  0.0000000E+00; -1.0686443E-02;  4.5601987E+02;
  8.7716568E-01;  9.9999998E-03;  1.7100692E-01;7495;  1.6915608E-02;  0.0000000E+00; -2.6927057E-03;  1.0001505E+03;  1.8255207E-01;  1.2473721E+02;3;  3.7803965E+00;  0.0000000E+00;  1.5158438E-02;0;  7.2533093E-02;  1.2135267E+04;  0.0000000E+00; -1.2863648E+00;  4.0000000E+04;  0.0000000E+00;  3.9587574E+04;  8.2681246E-02;  0.0000000E+00; -1.0148153E-02;  1.0759467E+03;
  8.7716621E-01;  9.9999998E-03;  1.8102494E-01;7496;  1.7112933E-02;  0.0000000E+00; -2.8760976E-03;  1.0001302E+03;  1.8252812E-01;  1.0784879E+02;3;  3.7699249E+00;  0.0000000E+00;  4.6789669E-03;0;  6.9906026E-02;  1.2136187E+04;  0.0000000E+00; -1.5779558E+00;  4.0000000E+04;  0.0000000E+00;  3.9588242E+04;  7.9555072E-02;  0.0000000E+00; -9.6490495E-03;  1.9459409E+03;
  8.7719166E-01;  9.9999998E-03;  1.9104664E-01;7497;  1.7468363E-02;  0.0000000E+00; -3.0567732E-03;  1.0000472E+03;  1.8250306E-01;  3.9110001E+01;3;  3.7653241E+00;  0.0000000E+00; -7.8618694E-03;0;  6.7083806E-02;  1.2136496E+04;  0.0000000E+00; -1.8355376E+00;  4.0000000E+04;  0.0000000E+00;  3.9589578E+04;  7.6292567E-02;  0.0000000E+00; -9.2087612E-03;  2.8282056E+03;
  8.7722421E-01;  9.9999998E-03;  2.0107886E-01;7498;  1.8022412E-02;  0.0000000E+00; -3.2149581E-03;  9.9990411E+02;  1.8246873E-01; -7.9454536E+01;3;  3.7777445E+00;  0.0000000E+00; -2.3973441E-02;0;  6.4064100E-02;  1.2137062E+04;  0.0000000E+00; -1.9774342E+00;  4.0000000E+04;  0.0000000E+00;  3.9591977E+04;  7.2921544E-02;  0.0000000E+00; -8.8574467E-03;  3.4468772E+03;
  8.7725037E-01;  9.9999998E-03;  2.1112160E-01;7499;  1.8758116E-02;  0.0000000E+00; -3.3055947E-03;  9.9968488E+02;  1.8241715E-01; -2.6107901E+02;3;  3.7848146E+00;  0.0000000E+00; -6.3535377E-02;0;  6.0896751E-02;  1.2138117E+04;  0.0000000E+00; -1.9328727E+00;  4.0000000E+04;  0.0000000E+00;  3.9595195E+04;  6.9479808E-02;  0.0000000E+00; -8.5830577E-03;  3.5892974E+03;
  8.7726557E-01;  9.9999998E-03;  2.2118743E-01;7500;  1.9637570E-02;  0.0000000E+00; -3.3535114E-03;  9.9936029E+02;  1.8235548E-01; -5.3000964E+02;3;  3.7706201E+00;  0.0000000E+00; -5.7529811E-02;0;  5.7636321E-02;  1.2139385E+04;  0.0000000E+00; -1.6581274E+00;  4.0000000E+04;  0.0000000E+00;  3.9595992E+04;  6.6007249E-02;  0.0000000E+00; -8.3709303E-03;  3.0698225E+03;
  8.7721175E-01;  9.9999998E-03;  2.3123889E-01;7501;  2.0595748E-02;  0.0000000E+00; -3.4057209E-03;  9.9896942E+02;  1.8226853E-01; -8.5380298E+02;3;  3.7584958E+00;  0.0000000E+00; -4.9582168E-02;0;  5.4300480E-02;  1.2143393E+04;  0.0000000E+00; -1.1485742E+00;  4.0000000E+04;  0.0000000E+00;  3.9597332E+04;  6.2575758E-02;  0.0000000E+00; -8.2752798E-03;  2.1309036E+03;
  8.9605272E-01;  9.9999998E-03;  7.0371434E-02;7546;  2.4093673E-02;  0.0000000E+00; -1.5475272E-03;  9.9981622E+02;  1.9196421E-01; -1.5224260E+02;3;  5.1398907E+00;  0.0000000E+00; -8.5509223E-01;0;  9.3320906E-02;  1.1011528E+04;  0.0000000E+00; -1.7347094E-01;  4.0000000E+04;  0.0000000E+00;  3.9558809E+04;  1.1285327E-01;  0.0000000E+00; -1.9532368E-02;  8.8896057E+02;
  8.9619678E-01;  9.9999998E-03;  8.0477774E-02;7547;  2.4057448E-02;  0.0000000E+00; -1.7510365E-03;  9.9979260E+02;  1.9201675E-01; -1.7184698E+02;3;  5.0331097E+00;  0.0000000E+00; -9.2180693E-01;0;  9.1356330E-02;  1.1000868E+04;  0.0000000E+00; -2.4326497E-01;  4.0000000E+04;  0.0000000E+00;  3.9559293E+04;  1.0995775E-01;  0.0000000E+00; -1.8601425E-02;  9.9138934E+02;
  8.9632797E-01;  9.9999998E-03;  9.0555705E-02;7548;  2.3945050E-02;  0.0000000E+00; -1.9305857E-03;  9.9979779E+02;  1.9206360E-01; -1.6755081E+02;3;  4.9010239E+00;  0.0000000E+00; -9.7463089E-01;0;  8.9361332E-02;  1.0990877E+04;  0.0000000E+00; -3.1891784E-01;  4.0000000E+04;  0.0000000E+00;  3.9560004E+04;  1.0697535E-01;  0.0000000E+00; -1.7614014E-02;  1.0918781E+03;
  8.9642555E-01;  9.9999998E-03;  1.0060838E-01;7549;  2.3729039E-02;  0.0000000E+00; -2.0821125E-03;  9.9981763E+02;  1.9209443E-01; -1.5110683E+02;3;  4.7626925E+00;  0.0000000E+00; -9.9914485E-01;0;  8.7358847E-02;  1.0982830E+04;  0.0000000E+00; -3.9464149E-01;  4.0000000E+04;  0.0000000E+00;  3.9559688E+04;  1.0395847E-01;  0.0000000E+00; -1.6599614E-02;  1.1254695E+03;
  8.9646268E-01;  9.9999998E-03;  1.1064369E-01;7550;  2.3380678E-02;  0.0000000E+00; -2.2028952E-03;  9.9985712E+02;  1.9210123E-01; -1.1836701E+02;3;  4.6561007E+00;  0.0000000E+00; -9.8007071E-01;0;  8.5350342E-02;  1.0978282E+04;  0.0000000E+00; -4.6787089E-01;  4.0000000E+04;  0.0000000E+00;  3.9559117E+04;  1.0093732E-01;  0.0000000E+00; -1.5586982E-02;  1.0462640E+03;
  8.9640379E-01;  9.9999998E-03;  1.2068962E-01;7551;  2.2869477E-02;  0.0000000E+00; -2.2976450E-03;  9.9990234E+02;  1.9206530E-01; -8.0886597E+01;3;  4.5742545E+00;  0.0000000E+00; -9.1853005E-01;0;  8.3313376E-02;  1.0979447E+04;  0.0000000E+00; -5.4230630E-01;  4.0000000E+04;  0.0000000E+00;  3.9557426E+04;  9.7912148E-02;  0.0000000E+00; -1.4598771E-02;  8.6619550E+02;
  8.9625418E-01;  9.9999998E-03;  1.3075413E-01;7552;  2.2149036E-02;  0.0000000E+00; -2.3751177E-03;  9.9996820E+02;  1.9198895E-01; -2.6369623E+01;3;  4.5302167E+00;  0.0000000E+00; -7.7832979E-01;0;  8.1192017E-02;  1.0986036E+04;  0.0000000E+00; -6.2901294E-01;  4.0000000E+04;  0.0000000E+00;  3.9555285E+04;  9.4848610E-02;  0.0000000E+00; -1.3656595E-02;  6.5204309E+02;
  8.9606076E-01;  9.9999998E-03;  1.4082785E-01;7553;  2.1195505E-02;  0.0000000E+00; -2.4684991E-03;  1.0000425E+03;  1.9189326E-01;  3.5258259E+01;3;  4.4364214E+00;  0.0000000E+00; -5.0318462E-01;0;  7.8904271E-02;  1.0996043E+04;  0.0000000E+00; -7.4461710E-01;  4.0000000E+04;  0.0000000E+00;  3.9553254E+04;  9.1679730E-02;  0.0000000E+00; -1.2775460E-02;  4.4661404E+02;
  8.9587390E-01;  9.9999998E-03;  1.5089749E-01;7554;  2.0264843E-02;  0.0000000E+00; -2.6113556E-03;  1.0001385E+03;  1.9179833E-01;  1.1476218E+02;3;  4.1840439E+00;  0.0000000E+00; -3.1458101E-01;0;  7.6398581E-02;  1.1006734E+04;  0.0000000E+00; -9.0582037E-01;  4.0000000E+04;  0.0000000E+00;  3.9551230E+04;  8.8359915E-02;  0.0000000E+00; -1.1961334E-02;  2.0269803E+02;
  8.9575058E-01;  9.9999998E-03;  1.6095711E-01;7555;  1.9592512E-02;  0.0000000E+00; -2.7777220E-03;  1.0002382E+03;  1.9173136E-01;  1.9732774E+02;3;  3.9657559E+00;  0.0000000E+00; -2.1918188E-01;0;  7.3628835E-02;  1.1015071E+04;  0.0000000E+00; -1.1215756E+00;  4.0000000E+04;  0.0000000E+00;  3.9550219E+04;  8.4842131E-02;  0.0000000E+00; -1.1213297E-02;  3.9224509E+02;
  8.9571297E-01;  9.9999998E-03;  1.7100690E-01;7556;  1.9290652E-02;  0.0000000E+00; -2.9535159E-03;  1.0003306E+03;  1.9170290E-01;  2.7396753E+02;3;  3.8222346E+00;  0.0000000E+00; -1.6977891E-01;0;  7.0568360E-02;  1.1019312E+04;  0.0000000E+00; -1.3831643E+00;  4.0000000E+04;  0.0000000E+00;  3.9549645E+04;  8.1095412E-02;  0.0000000E+00; -1.0527049E-02;  1.1372424E+03;
  8.9566618E-01;  9.9999998E-03;  1.8102951E-01;7557;  1.9282116E-02;  0.0000000E+00; -3.1271498E-03;  1.0003790E+03;  1.9167008E-01;  3.1396640E+02;3;  3.7369611E+00;  0.0000000E+00; -1.4958572E-01;0;  6.7227013E-02;  1.1024053E+04;  0.0000000E+00; -1.6550667E+00;  4.0000000E+04;  0.0000000E+00;  3.9550492E+04;  7.7130631E-02;  0.0000000E+00; -9.9036191E-03;  2.0616829E+03;
  8.9566010E-01;  9.9999998E-03;  1.9105265E-01;7558;  1.9605439E-02;  0.0000000E+00; -3.2727462E-03;  1.0003837E+03;  1.9164978E-01;  3.1791690E+02;3;  3.6968951E+00;  0.0000000E+00; -1.3505960E-01;0;  6.3613892E-02;  1.1026838E+04;  0.0000000E+00; -1.8802605E+00;  4.0000000E+04;  0.0000000E+00;  3.9552648E+04;  7.2959810E-02;  0.0000000E+00; -9.3459152E-03;  2.9479961E+03;
  8.9568740E-01;  9.9999998E-03;  2.0109908E-01;7559;  2.0154754E-02;  0.0000000E+00; -3.3690326E-03;  1.0003237E+03;  1.9163409E-01;  2.6823932E+02;3;  3.6653557E+00;  0.0000000E+00; -1.2939808E-01;0;  5.9758782E-02;  1.1027922E+04;  0.0000000E+00; -1.9923482E+00;  4.0000000E+04;  0.0000000E+00;  3.9556297E+04;  6.8603069E-02;  0.0000000E+00; -8.8442881E-03;  3.5538789E+03;
  8.9572805E-01;  9.9999998E-03;  2.1117327E-01;7560;  2.0941300E-02;  0.0000000E+00; -3.3966384E-03;  1.0001694E+03;  1.9161281E-01;  1.4034171E+02;3;  3.6366982E+00;  0.0000000E+00; -1.2161668E-01;0;  5.5808298E-02;  1.1028167E+04;  0.0000000E+00; -1.9369109E+00;  4.0000000E+04;  0.0000000E+00;  3.9559523E+04;  6.4150937E-02;  0.0000000E+00; -8.3426367E-03;  3.6585481E+03;
  8.9576167E-01;  9.9999998E-03;  2.2127581E-01;7561;  2.1881089E-02;  0.0000000E+00; -3.4326033E-03;  9.9987817E+02;  1.9158152E-01; -1.0093541E+02;3;  3.6150987E+00;  0.0000000E+00; -1.1307690E-01;0;  5.1819682E-02;  1.1028279E+04;  0.0000000E+00; -1.6845286E+00;  4.0000000E+04;  0.0000000E+00;  3.9558102E+04;  5.9680723E-02;  0.0000000E+00; -7.8610387E-03;  3.0432209E+03;
  8.9569396E-01;  9.9999998E-03;  2.3135233E-01;7562;  2.2754323E-02;  0.0000000E+00; -3.5570099E-03;  9.9950769E+02;  1.9151010E-01; -4.0788968E+02;3;  3.5939698E+00;  0.0000000E+00; -1.2822397E-01;0;  4.7635168E-02;  1.1032458E+04;  0.0000000E+00; -1.2448013E+00;  4.0000000E+04;  0.0000000E+00;  3.9555820E+04;  5.5276405E-02;  0.0000000E+00; -7.6412377E-03;  1.9245472E+03;
  9.1589355E-01;  9.9999998E-03;  7.0300877E-02;7607;  2.7103376E-02;  0.0000000E+00; -2.1363930E-03;  9.9910718E+02;  2.0214716E-01; -7.3968274E+02;3;  4.3173709E+00;  0.0000000E+00; -1.0659609E+00;0;  8.3334580E-02;  9.9201943E+03;  0.0000000E+00; -8.0962807E-02;  4.0000000E+04;  0.0000000E+00;  3.9522160E+04;  1.0567907E-01;  0.0000000E+00; -2.2344494E-02;  1.2154113E+03;
  9.1592658E-01;  9.9999998E-03;  8.0389090E-02;7608;  2.6964763E-02;  0.0000000E+00; -2.3969880E-03;  9.9909772E+02;  2.0215566E-01; -7.4753436E+02;3;  3.9387467E+00;  0.0000000E+00; -1.1939790E+00;0;  8.1192568E-02;  9.9159502E+03;  0.0000000E+00; -1.2375120E-01;  4.0000000E+04;  0.0000000E+00;  3.9523051E+04;  1.0232671E-01;  0.0000000E+00; -2.1134147E-02;  1.4212671E+03;
  9.1592920E-01;  9.9999998E-03;  9.0466134E-02;7609;  2.6782790E-02;  0.0000000E+00; -2.6259380E-03;  9.9911285E+02;  2.0214486E-01; -7.3499152E+02;3;  3.5717387E+00;  0.0000000E+00; -1.2723509E+00;0;  7.9082698E-02;  9.9134824E+03;  0.0000000E+00; -1.8186598E-01;  4.0000000E+04;  0.0000000E+00;  3.9523984E+04;  9.8940998E-02;  0.0000000E+00; -1.9858303E-02;  1.6347954E+03;
  9.1589069E-01;  9.9999998E-03;  1.0052580E-01;7610;  2.6564978E-02;  0.0000000E+00; -2.8240457E-03;  9.9914929E+02;  2.0211077E-01; -7.0481952E+02;3;  3.1982906E+00;  0.0000000E+00; -1.3578759E+00;0;  7.7038422E-02;  9.9136270E+03;  0.0000000E+00; -2.5898737E-01;  4.0000000E+04;  0.0000000E+00;  3.9524434E+04;  9.5593266E-02;  0.0000000E+00; -1.8554846E-02;  1.7807002E+03;
  9.1579741E-01;  9.9999998E-03;  1.1056709E-01;7611;  2.6301274E-02;  0.0000000E+00; -2.9875338E-03;  9.9919122E+02;  2.0204788E-01; -6.7005505E+02;3;  2.8193948E+00;  0.0000000E+00; -1.4256034E+00;0;  7.5064197E-02;  9.9170693E+03;  0.0000000E+00; -3.5793746E-01;  4.0000000E+04;  0.0000000E+00;  3.9524145E+04;  9.2323877E-02;  0.0000000E+00; -1.7259680E-02;  1.7903218E+03;
  9.1562372E-01;  9.9999998E-03;  1.2062150E-01;7612;  2.5989460E-02;  0.0000000E+00; -3.1199120E-03;  9.9926129E+02;  2.0194362E-01; -6.1198267E+02;3;  2.4931123E+00;  0.0000000E+00; -1.4990299E+00;0;  7.3141798E-02;  9.9254248E+03;  0.0000000E+00; -4.7951674E-01;  4.0000000E+04;  0.0000000E+00;  3.9522684E+04;  8.9140609E-02;  0.0000000E+00; -1.5998807E-02;  1.6296926E+03;
  9.1538572E-01;  9.9999998E-03;  1.3068949E-01;7613;  2.5618916E-02;  0.0000000E+00; -3.2190557E-03;  9.9934399E+02;  2.0180704E-01; -5.4349078E+02;3;  2.2789733E+00;  0.0000000E+00; -1.5780307E+00;0;  7.1201280E-02;  9.9379893E+03;  0.0000000E+00; -6.2181389E-01;  4.0000000E+04;  0.0000000E+00;  3.9520727E+04;  8.5999683E-02;  0.0000000E+00; -1.4798402E-02;  1.3099723E+03;
  9.1512716E-01;  9.9999998E-03;  1.4076290E-01;7614;  2.5197620E-02;  0.0000000E+00; -3.2893759E-03;  9.9944794E+02;  2.0166151E-01; -4.5736975E+02;3;  2.2245760E+00;  0.0000000E+00; -1.6740965E+00;0;  6.9134705E-02;  9.9524922E+03;  0.0000000E+00; -7.8031713E-01;  4.0000000E+04;  0.0000000E+00;  3.9518312E+04;  8.2810469E-02;  0.0000000E+00; -1.3675761E-02;  8.7392804E+02;
  9.1490090E-01;  9.9999998E-03;  1.5083587E-01;7615;  2.4747906E-02;  0.0000000E+00; -3.3370659E-03;  9.9956750E+02;  2.0153484E-01; -3.5831082E+02;3;  2.3190303E+00;  0.0000000E+00; -1.7695644E+00;0;  6.6815965E-02;  9.9662510E+03;  0.0000000E+00; -9.4838142E-01;  4.0000000E+04;  0.0000000E+00;  3.9515797E+04;  7.9453297E-02;  0.0000000E+00; -1.2637331E-02;  3.8898080E+02;
  9.1475838E-01;  9.9999998E-03;  1.6090567E-01;7616;  2.4328388E-02;  0.0000000E+00; -3.3783794E-03;  9.9969861E+02;  2.0144722E-01; -2.4972131E+02;3;  2.5027626E+00;  0.0000000E+00; -1.8047498E+00;0;  6.4123139E-02;  9.9765889E+03;  0.0000000E+00; -1.1173286E+00;  4.0000000E+04;  0.0000000E+00;  3.9513844E+04;  7.5807855E-02;  0.0000000E+00; -1.1684714E-02;  3.2490979E+02;
  9.1472846E-01;  9.9999998E-03;  1.7096828E-01;7617;  2.4029391E-02;  0.0000000E+00; -3.4368292E-03;  9.9982025E+02;  2.0141883E-01; -1.4893405E+02;3;  2.5589640E+00;  0.0000000E+00; -1.8238064E+00;0;  6.0978454E-02;  9.9817881E+03;  0.0000000E+00; -1.2745191E+00;  4.0000000E+04;  0.0000000E+00;  3.9512734E+04;  7.1796119E-02;  0.0000000E+00; -1.0817665E-02;  8.5939514E+02;
  9.1483611E-01;  9.9999998E-03;  1.8102236E-01;7618;  2.3939043E-02;  0.0000000E+00; -3.5175113E-03;  9.9992468E+02;  2.0145491E-01; -6.2417984E+01;3;  2.3760965E+00;  0.0000000E+00; -1.8242640E+00;0;  5.7348095E-02;  9.9805244E+03;  0.0000000E+00; -1.4010353E+00;  4.0000000E+04;  0.0000000E+00;  3.9513250E+04;  6.7381889E-02;  0.0000000E+00; -1.0033795E-02;  1.4012670E+03;
  9.1510332E-01;  9.9999998E-03;  1.9107617E-01;7619;  2.4067992E-02;  0.0000000E+00; -3.6181360E-03;  9.9999005E+02;  2.0156552E-01; -8.2466793E+00;3;  1.8368218E+00;  0.0000000E+00; -1.8461876E+00;0;  5.3229999E-02;  9.9715996E+03;  0.0000000E+00; -1.4726009E+00;  4.0000000E+04;  0.0000000E+00;  3.9515402E+04;  6.2562227E-02;  0.0000000E+00; -9.3322285E-03;  1.8438951E+03;
  9.1552383E-01;  9.9999998E-03;  2.0114698E-01;7620;  2.4351830E-02;  0.0000000E+00; -3.7201832E-03;  9.9999908E+02;  2.0174268E-01; -7.4071974E-01;3;  7.8965783E-01;  0.0000000E+00; -1.8083179E+00;0;  4.8667453E-02;  9.9551553E+03;  0.0000000E+00; -1.4687418E+00;  4.0000000E+04;  0.0000000E+00;  3.9518988E+04;  5.7377830E-02;  0.0000000E+00; -8.7103760E-03;  2.1561609E+03;
  9.1588610E-01;  9.9999998E-03;  2.1123670E-01;7621;  2.4659835E-02;  0.0000000E+00; -3.7999384E-03;  9.9990405E+02;  2.0188937E-01; -7.9503922E+01;3; -6.8269700E-01;  0.0000000E+00; -1.6565489E+00;0;  4.3906439E-02;  9.9403057E+03;  0.0000000E+00; -1.3834696E+00;  4.0000000E+04;  0.0000000E+00;  3.9522219E+04;  5.2060720E-02;  0.0000000E+00; -8.1542805E-03;  2.3030762E+03;
  9.1611147E-01;  9.9999998E-03;  2.2135545E-01;7622;  2.4924919E-02;  0.0000000E+00; -3.8994071E-03;  9.9964075E+02;  2.0197231E-01; -2.9762119E+02;3; -2.0054879E+00;  0.0000000E+00; -1.3752475E+00;0;  3.9040331E-02;  9.9300752E+03;  0.0000000E+00; -1.2127240E+00;  4.0000000E+04;  0.0000000E+00;  3.9521199E+04;  4.6766646E-02;  0.0000000E+00; -7.7263168E-03;  1.9808499E+03;
  9.1619331E-01;  9.9999998E-03;  2.3144741E-01;7623;  2.5134550E-02;  0.0000000E+00; -4.0366268E-03;  9.9928912E+02;  2.0199525E-01; -5.8897095E+02;3; -2.7260859E+00;  0.0000000E+00; -1.2207441E+00;0;  3.4090079E-02;  9.9251270E+03;  0.0000000E+00; -9.7189534E-01;  4.0000000E+04;  0.0000000E+00;  3.9518965E+04;  4.1640200E-02;  0.0000000E+00; -7.5501213E-03;  1.4175619E+03;
  9.3791741E-01;  9.9999998E-03;  7.0559710E-02;7668;  2.8301913E-02;  0.0000000E+00; -2.4365524E-03;  9.9873029E+02;  2.1395601E-01; -1.0519208E+03;3;  4.4883704E+00;  0.0000000E+00; -7.7825212E-01;0;  6.4595796E-02;  8.8510146E+03;  0.0000000E+00; -1.8879080E-02;  4.0000000E+04;  0.0000000E+00;  3.9480887E+04;  8.9836150E-02;  0.0000000E+00; -2.5240354E-02;  1.8004668E+03;
  9.3796575E-01;  9.9999998E-03;  8.0644824E-02;7669;  2.8049996E-02;  0.0000000E+00; -2.7313398E-03;  9.9875763E+02;  2.1397300E-01; -1.0293042E+03;3;  4.0747323E+00;  0.0000000E+00; -8.3007288E-01;0;  6.2280089E-02;  8.8483350E+03;  0.0000000E+00; -4.0826906E-02;  4.0000000E+04;  0.0000000E+00;  3.9482215E+04;  8.6035594E-02;  0.0000000E+00; -2.3755504E-02;  2.2744758E+03;
  9.3793917E-01;  9.9999998E-03;  9.0711534E-02;7670;  2.7791049E-02;  0.0000000E+00; -2.9988124E-03;  9.9879993E+02;  2.1394125E-01; -9.9424341E+02;3;  3.6130602E+00;  0.0000000E+00; -8.6787295E-01;0;  6.0018986E-02;  8.8492334E+03;  0.0000000E+00; -9.0248264E-02;  4.0000000E+04;  0.0000000E+00;  3.9483578E+04;  8.2213014E-02;  0.0000000E+00; -2.2194026E-02;  2.6820903E+03;
  9.3781555E-01;  9.9999998E-03;  1.0076168E-01;7671;  2.7508171E-02;  0.0000000E+00; -3.2374917E-03;  9.9884973E+02;  2.1385390E-01; -9.5296063E+02;3;  3.0985160E+00;  0.0000000E+00; -8.8767326E-01;0;  5.7862945E-02;  8.8550361E+03;  0.0000000E+00; -1.7752586E-01;  4.0000000E+04;  0.0000000E+00;  3.9485277E+04;  7.8460306E-02;  0.0000000E+00; -2.0597359E-02;  2.8974758E+03;
  9.3759590E-01;  9.9999998E-03;  1.1077765E-01;7672;  2.7202038E-02;  0.0000000E+00; -3.4471250E-03;  9.9890088E+02;  2.1370982E-01; -9.1059149E+02;3;  2.5566251E+00;  0.0000000E+00; -8.9041632E-01;0;  5.5821083E-02;  8.8655986E+03;  0.0000000E+00; -3.0449846E-01;  4.0000000E+04;  0.0000000E+00;  3.9485539E+04;  7.4831337E-02;  0.0000000E+00; -1.9010255E-02;  2.8370774E+03;
  9.3727905E-01;  9.9999998E-03;  1.2079765E-01;7673;  2.6882866E-02;  0.0000000E+00; -3.6312076E-03;  9.9896002E+02;  2.1351205E-01; -8.6160522E+02;3;  2.0389886E+00;  0.0000000E+00; -8.7261671E-01;0;  5.3867780E-02;  8.8812178E+03;  0.0000000E+00; -4.6015656E-01;  4.0000000E+04;  0.0000000E+00;  3.9484926E+04;  7.1330756E-02;  0.0000000E+00; -1.7462976E-02;  2.4948887E+03;
  9.3691146E-01;  9.9999998E-03;  1.3082658E-01;7674;  2.6559621E-02;  0.0000000E+00; -3.7947302E-03;  9.9903699E+02;  2.1329033E-01; -7.9785394E+02;3;  1.4964757E+00;  0.0000000E+00; -8.5585558E-01;0;  5.1916450E-02;  8.8998604E+03;  0.0000000E+00; -6.2066644E-01;  4.0000000E+04;  0.0000000E+00;  3.9483109E+04;  6.7902669E-02;  0.0000000E+00; -1.5986219E-02;  1.9552780E+03;
  9.3657267E-01;  9.9999998E-03;  1.4086445E-01;7675;  2.6242180E-02;  0.0000000E+00; -3.9425250E-03;  9.9912573E+02;  2.1308278E-01; -7.2432513E+02;3;  9.8010868E-01;  0.0000000E+00; -8.1603009E-01;0;  4.9827386E-02;  8.9178799E+03;  0.0000000E+00; -7.5402027E-01;  4.0000000E+04;  0.0000000E+00;  3.9480590E+04;  6.4429708E-02;  0.0000000E+00; -1.4602322E-02;  1.3762336E+03;
  9.3634009E-01;  9.9999998E-03;  1.5091188E-01;7676;  2.5940455E-02;  0.0000000E+00; -4.0769344E-03;  9.9922876E+02;  2.1293531E-01; -6.3894482E+02;3;  4.7847098E-01;  0.0000000E+00; -7.5483447E-01;0;  4.7447264E-02;  8.9316816E+03;  0.0000000E+00; -8.2844424E-01;  4.0000000E+04;  0.0000000E+00;  3.9477660E+04;  6.0769740E-02;  0.0000000E+00; -1.3322476E-02;  9.6232690E+02;
  9.3622994E-01;  9.9999998E-03;  1.6096264E-01;7677;  2.5669904E-02;  0.0000000E+00; -4.2001698E-03;  9.9933276E+02;  2.1285620E-01; -5.5277448E+02;3; -2.5038367E-02;  0.0000000E+00; -6.9444311E-01;0;  4.4679429E-02;  8.9401875E+03;  0.0000000E+00; -8.2224983E-01;  4.0000000E+04;  0.0000000E+00;  3.9475480E+04;  5.6832910E-02;  0.0000000E+00; -1.2153479E-02;  9.0893628E+02;
  9.3623894E-01;  9.9999998E-03;  1.7101464E-01;7678;  2.5427155E-02;  0.0000000E+00; -4.3087136E-03;  9.9943524E+02;  2.1284096E-01; -4.6788797E+02;3; -5.5822998E-01;  0.0000000E+00; -6.1747706E-01;0;  4.1460305E-02;  8.9434395E+03;  0.0000000E+00; -7.3177642E-01;  4.0000000E+04;  0.0000000E+00;  3.9474316E+04;  5.2563243E-02;  0.0000000E+00; -1.1102936E-02;  1.1827322E+03;
  9.3638384E-01;  9.9999998E-03;  1.8106887E-01;7679;  2.5218345E-02;  0.0000000E+00; -4.3974700E-03;  9.9951752E+02;  2.1289676E-01; -3.9974176E+02;3; -1.1028295E+00;  0.0000000E+00; -5.2966273E-01;0;  3.7741728E-02;  8.9403760E+03;  0.0000000E+00; -5.7402605E-01;  4.0000000E+04;  0.0000000E+00;  3.9474527E+04;  4.7920235E-02;  0.0000000E+00; -1.0178506E-02;  1.6257881E+03;
  9.3669438E-01;  9.9999998E-03;  1.9112983E-01;7680;  2.5048990E-02;  0.0000000E+00; -4.4603921E-03;  9.9957196E+02;  2.1303804E-01; -3.5460724E+02;3; -1.5681642E+00;  0.0000000E+00; -4.3817109E-01;0;  3.3511791E-02;  8.9297979E+03;  0.0000000E+00; -3.8153106E-01;  4.0000000E+04;  0.0000000E+00;  3.9476734E+04;  4.2893931E-02;  0.0000000E+00; -9.3821390E-03;  2.1436072E+03;
  9.3715268E-01;  9.9999998E-03;  2.0120604E-01;7681;  2.4920164E-02;  0.0000000E+00; -4.4903150E-03;  9.9957996E+02;  2.1325375E-01; -3.4799014E+02;3; -1.9646209E+00;  0.0000000E+00; -3.5242635E-01;0;  2.8864391E-02;  8.9120186E+03;  0.0000000E+00; -1.9646813E-01;  4.0000000E+04;  0.0000000E+00;  3.9480887E+04;  3.7565410E-02;  0.0000000E+00; -8.7010190E-03;  2.6618386E+03;
  9.3766266E-01;  9.9999998E-03;  2.1130995E-01;7682;  2.4845999E-02;  0.0000000E+00; -4.4956985E-03;  9.9948871E+02;  2.1349473E-01; -4.2359293E+02;3; -2.3260520E+00;  0.0000000E+00; -2.9725376E-01;0;  2.4009567E-02;  8.8908105E+03;  0.0000000E+00; -6.6386744E-02;  4.0000000E+04;  0.0000000E+00;  3.9484777E+04;  3.2120977E-02;  0.0000000E+00; -8.1114089E-03;  3.0037144E+03;
  9.3813044E-01;  9.9999998E-03;  2.2144760E-01;7683;  2.4860941E-02;  0.0000000E+00; -4.5471392E-03;  9.9921246E+02;  2.1372300E-01; -6.5247534E+02;3; -2.5114620E+00;  0.0000000E+00; -2.3763391E-01;0;  1.9051291E-02;  8.8692744E+03;  0.0000000E+00; -2.9143497E-02;  4.0000000E+04;  0.0000000E+00;  3.9482605E+04;  2.6755074E-02;  0.0000000E+00; -7.7037835E-03;  2.7228096E+03;
  9.3841201E-01;  9.9999998E-03;  2.3154682E-01;7684;  2.4951791E-02;  0.0000000E+00; -4.6349973E-03;  9.9881659E+02;  2.1387824E-01; -9.8041663E+02;3; -2.8354690E+00;  0.0000000E+00; -2.3285806E-01;0;  1.4155317E-02;  8.8533330E+03;  0.0000000E+00; -1.1151496E-01;  4.0000000E+04;  0.0000000E+00;  3.9481777E+04;  2.1731256E-02;  0.0000000E+00; -7.5759380E-03;  2.0834629E+03;
  9.6014524E-01;  9.9999998E-03;  7.0579678E-02;7729;  2.9326001E-02;  0.0000000E+00; -2.5925273E-03;  9.9883978E+02;  2.2642371E-01; -9.6120734E+02;3;  4.4476848E+00;  0.0000000E+00; -3.7972540E-01;0;  4.5920871E-02;  7.9078677E+03;  0.0000000E+00;  2.0945873E-02;  4.0000000E+04;  0.0000000E+00;  3.9438340E+04;  7.3743455E-02;  0.0000000E+00; -2.7822582E-02;  2.6208181E+03;
  9.6019173E-01;  9.9999998E-03;  8.0674201E-02;7730;  2.8910410E-02;  0.0000000E+00; -2.8903817E-03;  9.9886688E+02;  2.2645047E-01; -9.3878821E+02;3;  3.9997263E+00;  0.0000000E+00; -3.6487713E-01;0;  4.3457381E-02;  7.9057759E+03;  0.0000000E+00; -3.2912409E-03;  4.0000000E+04;  0.0000000E+00;  3.9439750E+04;  6.9524162E-02;  0.0000000E+00; -2.6066782E-02;  3.2229131E+03;
  9.6018499E-01;  9.9999998E-03;  9.0753637E-02;7731;  2.8499482E-02;  0.0000000E+00; -3.1621987E-03;  9.9890051E+02;  2.2644019E-01; -9.1088776E+02;3;  3.5051839E+00;  0.0000000E+00; -3.7009886E-01;0;  4.0923730E-02;  7.9062500E+03;  0.0000000E+00; -6.7880332E-02;  4.0000000E+04;  0.0000000E+00;  3.9441504E+04;  6.5153897E-02;  0.0000000E+00; -2.4230165E-02;  3.6443901E+03;
  9.6009612E-01;  9.9999998E-03;  1.0082507E-01;7732;  2.8077820E-02;  0.0000000E+00; -3.4102895E-03;  9.9893451E+02;  2.2637700E-01; -8.8274042E+02;3;  2.8924477E+00;  0.0000000E+00; -3.3036432E-01;0;  3.8380746E-02;  7.9105024E+03;  0.0000000E+00; -1.8278214E-01;  4.0000000E+04;  0.0000000E+00;  3.9443238E+04;  6.0736861E-02;  0.0000000E+00; -2.2356115E-02;  3.7529321E+03;
  9.5990211E-01;  9.9999998E-03;  1.1086723E-01;7733;  2.7658470E-02;  0.0000000E+00; -3.6287983E-03;  9.9897473E+02;  2.2624765E-01; -8.4940802E+02;3;  2.3653662E+00;  0.0000000E+00; -2.8073642E-01;0;  3.5878435E-02;  7.9195205E+03;  0.0000000E+00; -3.4036180E-01;  4.0000000E+04;  0.0000000E+00;  3.9444293E+04;  5.6370039E-02;  0.0000000E+00; -2.0491606E-02;  3.5043584E+03;
  9.5963174E-01;  9.9999998E-03;  1.2089123E-01;7734;  2.7256634E-02;  0.0000000E+00; -3.8252869E-03;  9.9902594E+02;  2.2606960E-01; -8.0698944E+02;3;  1.8243978E+00;  0.0000000E+00; -2.5013807E-01;0;  3.3405975E-02;  7.9322544E+03;  0.0000000E+00; -5.1029021E-01;  4.0000000E+04;  0.0000000E+00;  3.9444391E+04;  5.2079786E-02;  0.0000000E+00; -1.8673811E-02;  2.9824895E+03;
  9.5931590E-01;  9.9999998E-03;  1.3090867E-01;7735;  2.6859747E-02;  0.0000000E+00; -4.0020552E-03;  9.9907831E+02;  2.2586301E-01; -7.6358331E+02;3;  1.2612466E+00;  0.0000000E+00; -1.9436231E-01;0;  3.0934408E-02;  7.9476226E+03;  0.0000000E+00; -6.4239413E-01;  4.0000000E+04;  0.0000000E+00;  3.9443082E+04;  4.7864888E-02;  0.0000000E+00; -1.6930480E-02;  2.3900247E+03;
  9.5902294E-01;  9.9999998E-03;  1.4093134E-01;7736;  2.6476024E-02;  0.0000000E+00; -4.1609905E-03;  9.9916162E+02;  2.2566664E-01; -6.9459760E+02;3;  7.0917749E-01;  0.0000000E+00; -1.3046096E-01;0;  2.8384842E-02;  7.9627505E+03;  0.0000000E+00; -6.7763591E-01;  4.0000000E+04;  0.0000000E+00;  3.9441184E+04;  4.3665428E-02;  0.0000000E+00; -1.5280587E-02;  2.0138275E+03;
  9.5882171E-01;  9.9999998E-03;  1.5096655E-01;7737;  2.6110044E-02;  0.0000000E+00; -4.3027746E-03;  9.9926270E+02;  2.2552145E-01; -6.1084686E+02;3;  2.1831842E-01;  0.0000000E+00; -6.9879763E-02;0;  2.5662944E-02;  7.9746318E+03;  0.0000000E+00; -5.6511790E-01;  4.0000000E+04;  0.0000000E+00;  3.9438617E+04;  3.9397433E-02;  0.0000000E+00; -1.3734491E-02;  2.2148823E+03;
  9.5873165E-01;  9.9999998E-03;  1.6101348E-01;7738;  2.5753176E-02;  0.0000000E+00; -4.4240849E-03;  9.9935791E+02;  2.2543970E-01; -5.3193555E+02;3; -3.5541955E-01;  0.0000000E+00;  2.8936541E-02;0;  2.2711270E-02;  7.9820596E+03;  0.0000000E+00; -2.8042558E-01;  4.0000000E+04;  0.0000000E+00;  3.9436504E+04;  3.5011403E-02;  0.0000000E+00; -1.2300134E-02;  3.2503525E+03;
  9.5879239E-01;  9.9999998E-03;  1.7106752E-01;7739;  2.5418296E-02;  0.0000000E+00; -4.5242026E-03;  9.9944678E+02;  2.2544490E-01; -4.5835736E+02;3; -8.1451488E-01;  0.0000000E+00;  1.0413828E-01;0;  1.9463066E-02;  7.9829941E+03;  0.0000000E+00;  1.5989871E-01;  4.0000000E+04;  0.0000000E+00;  3.9435293E+04;  3.0449236E-02;  0.0000000E+00; -1.0986170E-02;  5.0227056E+03;
  9.5904595E-01;  9.9999998E-03;  1.8113089E-01;7740;  2.5126617E-02;  0.0000000E+00; -4.6085045E-03;  9.9950970E+02;  2.2555959E-01; -4.0621069E+02;3; -1.2730846E+00;  0.0000000E+00;  1.9444710E-01;0;  1.5868125E-02;  7.9754956E+03;  0.0000000E+00;  6.9309306E-01;  4.0000000E+04;  0.0000000E+00;  3.9435266E+04;  2.5666812E-02;  0.0000000E+00; -9.7986870E-03;  7.1882236E+03;
  9.5951056E-01;  9.9999998E-03;  1.9120654E-01;7741;  2.4880368E-02;  0.0000000E+00; -4.6757301E-03;  9.9953149E+02;  2.2579342E-01; -3.8813715E+02;3; -1.6985055E+00;  0.0000000E+00;  2.8590283E-01;0;  1.1934433E-02;  7.9587275E+03;  0.0000000E+00;  1.2206491E+00;  4.0000000E+04;  0.0000000E+00;  3.9436918E+04;  2.0672182E-02;  0.0000000E+00; -8.7377485E-03;  9.2571025E+03;
  9.6016282E-01;  9.9999998E-03;  2.0130531E-01;7742;  2.4695512E-02;  0.0000000E+00; -4.7317445E-03;  9.9950214E+02;  2.2613297E-01; -4.1248212E+02;3; -2.0899611E+00;  0.0000000E+00;  3.4957036E-01;0;  7.7342344E-03;  7.9336338E+03;  0.0000000E+00;  1.6332253E+00;  4.0000000E+04;  0.0000000E+00;  3.9440457E+04;  1.5534832E-02;  0.0000000E+00; -7.8005977E-03;  1.0702754E+04;
  9.6095699E-01;  9.9999998E-03;  2.1142854E-01;7743;  2.4592042E-02;  0.0000000E+00; -4.7854534E-03;  9.9938989E+02;  2.2655265E-01; -5.0546713E+02;3; -2.3586516E+00;  0.0000000E+00;  3.8421717E-01;0;  3.3701253E-03;  7.9022236E+03;  0.0000000E+00;  1.8392928E+00;  4.0000000E+04;  0.0000000E+00;  3.9442535E+04;  1.0361086E-02;  0.0000000E+00; -6.9909603E-03;  1.1106530E+04;
  9.6168625E-01;  9.9999998E-03;  2.2156927E-01;7744;  2.4567829E-02;  0.0000000E+00; -4.8643127E-03;  9.9912048E+02;  2.2694707E-01; -7.2867072E+02;3; -2.5798581E+00;  0.0000000E+00;  4.5014393E-01;0; -9.8752463E-04;  7.8716147E+03;  0.0000000E+00;  1.7594014E+00;  4.0000000E+04;  0.0000000E+00;  3.9439688E+04;  5.4015135E-03;  0.0000000E+00; -6.3890382E-03;  1.0108482E+04;
  9.6207708E-01;  9.9999998E-03;  2.3166321E-01;7745;  2.4600476E-02;  0.0000000E+00; -4.9563283E-03;  9.9867065E+02;  2.2717758E-01; -1.1013514E+03;3; -2.9095190E+00;  0.0000000E+00;  4.8065752E-01;0; -5.1399041E-03;  7.8513154E+03;  0.0000000E+00;  1.3334796E+00;  4.0000000E+04;  0.0000000E+00;  3.9438730E+04;  9.6442201E-04;  0.0000000E+00; -6.1043259E-03;  7.6873359E+03;
  9.8365247E-01;  9.9999998E-03;  7.0506610E-02;7790;  3.0366605E-02;  0.0000000E+00; -2.6181191E-03;  9.9900323E+02;  2.4020824E-01; -8.2580377E+02;3;  3.9319429E+00;  0.0000000E+00;  4.0656745E-02;0;  3.1935081E-02;  7.0325996E+03;  0.0000000E+00; -9.6258126E-02;  4.0000000E+04;  0.0000000E+00;  3.9395875E+04;  6.2121473E-02;  0.0000000E+00; -3.0186394E-02;  3.0082598E+03;
  9.8345214E-01;  9.9999998E-03;  8.0590338E-02;7791;  2.9762939E-02;  0.0000000E+00; -2.9224851E-03;  9.9897516E+02;  2.4009396E-01; -8.4906232E+02;3;  3.4765570E+00;  0.0000000E+00;  1.0483792E-01;0;  2.9524684E-02;  7.0395063E+03;  0.0000000E+00; -1.5047252E-01;  4.0000000E+04;  0.0000000E+00;  3.9397152E+04;  5.7612214E-02;  0.0000000E+00; -2.8087530E-02;  3.5433042E+03;
  9.8316306E-01;  9.9999998E-03;  9.0668805E-02;7792;  2.9161766E-02;  0.0000000E+00; -3.2008686E-03;  9.9895856E+02;  2.3991670E-01; -8.6283972E+02;3;  3.0368040E+00;  0.0000000E+00;  1.9758224E-01;0;  2.6903750E-02;  7.0501230E+03;  0.0000000E+00; -2.4038202E-01;  4.0000000E+04;  0.0000000E+00;  3.9398875E+04;  5.2811183E-02;  0.0000000E+00; -2.5907433E-02;  3.8538193E+03;
  9.8279500E-01;  9.9999998E-03;  1.0074640E-01;7793;  2.8585253E-02;  0.0000000E+00; -3.4578927E-03;  9.9895453E+02;  2.3968628E-01; -8.6614825E+02;3;  2.5225646E+00;  0.0000000E+00;  2.6030645E-01;0;  2.4114026E-02;  7.0642412E+03;  0.0000000E+00; -3.7046811E-01;  4.0000000E+04;  0.0000000E+00;  3.9401066E+04;  4.7816157E-02;  0.0000000E+00; -2.3702132E-02;  3.8347114E+03;
  9.8236781E-01;  9.9999998E-03;  1.1081302E-01;7794;  2.8030943E-02;  0.0000000E+00; -3.6932123E-03;  9.9897034E+02;  2.3941520E-01; -8.5306226E+02;3;  1.9607477E+00;  0.0000000E+00;  3.4547785E-01;0;  2.1204410E-02;  7.0812505E+03;  0.0000000E+00; -5.2565646E-01;  4.0000000E+04;  0.0000000E+00;  3.9402477E+04;  4.2728014E-02;  0.0000000E+00; -2.1523604E-02;  3.4887715E+03;
  9.8192018E-01;  9.9999998E-03;  1.2086794E-01;7795;  2.7513446E-02;  0.0000000E+00; -3.9068190E-03;  9.9900482E+02;  2.3912460E-01; -8.2447046E+02;3;  1.4443536E+00;  0.0000000E+00;  4.1675276E-01;0;  1.8210571E-02;  7.0998047E+03;  0.0000000E+00; -6.6511005E-01;  4.0000000E+04;  0.0000000E+00;  3.9402832E+04;  3.7621461E-02;  0.0000000E+00; -1.9410890E-02;  2.9638276E+03;
  9.8149878E-01;  9.9999998E-03;  1.3093853E-01;7796;  2.7026799E-02;  0.0000000E+00; -4.1027609E-03;  9.9906494E+02;  2.3884198E-01; -7.7469409E+02;3;  9.4346404E-01;  0.0000000E+00;  4.8611623E-01;0;  1.5145244E-02;  7.1182769E+03;  0.0000000E+00; -7.2590286E-01;  4.0000000E+04;  0.0000000E+00;  3.9401914E+04;  3.2530140E-02;  0.0000000E+00; -1.7384896E-02;  2.5339133E+03;
  9.8116744E-01;  9.9999998E-03;  1.4101809E-01;7797;  2.6559802E-02;  0.0000000E+00; -4.2782528E-03;  9.9915765E+02;  2.3860723E-01; -6.9785675E+02;3;  3.9431274E-01;  0.0000000E+00;  5.8159781E-01;0;  1.2007165E-02;  7.1342480E+03;  0.0000000E+00; -6.3802052E-01;  4.0000000E+04;  0.0000000E+00;  3.9400117E+04;  2.7468540E-02;  0.0000000E+00; -1.5461375E-02;  2.5881541E+03;
  9.8104018E-01;  9.9999998E-03;  1.5110001E-01;7798;  2.6115645E-02;  0.0000000E+00; -4.4316836E-03;  9.9927234E+02;  2.3848900E-01; -6.0284711E+02;3; -7.9468094E-02;  0.0000000E+00;  6.5769798E-01;0;  8.7472918E-03;  7.1432095E+03;  0.0000000E+00; -3.4686196E-01;  4.0000000E+04;  0.0000000E+00;  3.9398020E+04;  2.2392487E-02;  0.0000000E+00; -1.3645195E-02;  3.5833774E+03;
  9.8112506E-01;  9.9999998E-03;  1.6119048E-01;7799;  2.5680214E-02;  0.0000000E+00; -4.5598261E-03;  9.9939966E+02;  2.3849881E-01; -4.9736862E+02;3; -6.2016624E-01;  0.0000000E+00;  7.6360631E-01;0;  5.3599495E-03;  7.1442876E+03;  0.0000000E+00;  1.6490868E-01;  4.0000000E+04;  0.0000000E+00;  3.9395715E+04;  1.7296551E-02;  0.0000000E+00; -1.1936601E-02;  5.7058560E+03;
  9.8141575E-01;  9.9999998E-03;  1.7128864E-01;7800;  2.5270272E-02;  0.0000000E+00; -4.6642791E-03;  9.9950854E+02;  2.3863001E-01; -4.0714896E+02;3; -1.0390301E+00;  0.0000000E+00;  8.4586954E-01;0;  1.8512243E-03;  7.1373599E+03;  0.0000000E+00;  8.5764134E-01;  4.0000000E+04;  0.0000000E+00;  3.9394062E+04;  1.2191125E-02;  0.0000000E+00; -1.0339901E-02;  8.7233184E+03;
  9.8191339E-01;  9.9999998E-03;  1.8138811E-01;7801;  2.4903651E-02;  0.0000000E+00; -4.7551813E-03;  9.9957599E+02;  2.3888646E-01; -3.5129868E+02;3; -1.4899355E+00;  0.0000000E+00;  9.3966228E-01;0; -1.7663511E-03;  7.1220981E+03;  0.0000000E+00;  1.6311156E+00;  4.0000000E+04;  0.0000000E+00;  3.9392824E+04;  7.0919236E-03;  0.0000000E+00; -8.8582747E-03;  1.2077131E+04;
  9.8259234E-01;  9.9999998E-03;  1.9147822E-01;7802;  2.4600906E-02;  0.0000000E+00; -4.8449161E-03;  9.9958673E+02;  2.3925611E-01; -3.4241003E+02;3; -1.8737667E+00;  0.0000000E+00;  1.0068645E+00;0; -5.4531312E-03;  7.0993237E+03;  0.0000000E+00;  2.3455589E+00;  4.0000000E+04;  0.0000000E+00;  3.9392211E+04;  2.0419525E-03;  0.0000000E+00; -7.4950838E-03;  1.5000708E+04;
  9.8334622E-01;  9.9999998E-03;  2.0154828E-01;7803;  2.4377517E-02;  0.0000000E+00; -4.9374239E-03;  9.9951953E+02;  2.3967032E-01; -3.9806277E+02;3; -2.1915488E+00;  0.0000000E+00;  1.0486530E+00;0; -9.1241132E-03;  7.0729058E+03;  0.0000000E+00;  2.8561945E+00;  4.0000000E+04;  0.0000000E+00;  3.9392273E+04; -2.8569060E-03;  0.0000000E+00; -6.2672077E-03;  1.6713412E+04;
  9.8408467E-01;  9.9999998E-03;  2.1160288E-01;7804;  2.4227193E-02;  0.0000000E+00; -5.0074873E-03;  9.9938910E+02;  2.4007165E-01; -5.0610910E+02;3; -2.4387290E+00;  0.0000000E+00;  1.1004291E+00;0; -1.2703896E-02;  7.0461836E+03;  0.0000000E+00;  3.0461121E+00;  4.0000000E+04;  0.0000000E+00;  3.9394770E+04; -7.5169071E-03;  0.0000000E+00; -5.1869880E-03;  1.6670127E+04;
  9.8488224E-01;  9.9999998E-03;  2.2168750E-01;7805;  2.4127943E-02;  0.0000000E+00; -5.0595365E-03;  9.9915509E+02;  2.4052125E-01; -6.9998016E+02;3; -2.7752073E+00;  0.0000000E+00;  1.1574680E+00;0; -1.6231958E-02;  7.0160977E+03;  0.0000000E+00;  2.8639464E+00;  4.0000000E+04;  0.0000000E+00;  3.9395922E+04; -1.1975891E-02;  0.0000000E+00; -4.2560673E-03;  1.4756092E+04;
  9.8550647E-01;  9.9999998E-03;  2.3176900E-01;7806;  2.4088522E-02;  0.0000000E+00; -5.1187584E-03;  9.9876434E+02;  2.4089439E-01; -1.0237241E+03;3; -3.0886252E+00;  0.0000000E+00;  1.1843269E+00;0; -1.9642022E-02;  6.9899683E+03;  0.0000000E+00;  2.2832336E+00;  4.0000000E+04;  0.0000000E+00;  3.9397066E+04; -1.6048446E-02;  0.0000000E+00; -3.5935752E-03;  1.1132410E+04;
  1.0061119E+00;  9.9999998E-03;  1.4101918E-01;7858;  2.6670378E-02;  0.0000000E+00; -4.4355043E-03;  9.9904242E+02;  2.5382385E-01; -7.9336023E+02;3; -1.0461350E-01;  0.0000000E+00;  1.3211454E+00;0;  1.2477813E-03;  6.3155732E+03;  0.0000000E+00; -6.2045598E-01;  4.0000000E+04;  0.0000000E+00;  3.9354445E+04;  1.6229149E-02;  0.0000000E+00; -1.4981368E-02;  3.1329863E+03;
  1.0060922E+00;  9.9999998E-03;  1.5115550E-01;7859;  2.6090167E-02;  0.0000000E+00; -4.5876130E-03;  9.9921313E+02;  2.5375357E-01; -6.5188275E+02;3; -4.8991627E-01;  0.0000000E+00;  1.4187120E+00;0; -2.5861040E-03;  6.3212480E+03;  0.0000000E+00; -3.1962967E-01;  4.0000000E+04;  0.0000000E+00;  3.9352125E+04;  1.0259490E-02;  0.0000000E+00; -1.2845594E-02;  4.3485576E+03;
  1.0061942E+00;  9.9999998E-03;  1.3089211E-01;7857;  2.7285714E-02;  0.0000000E+00; -4.2574666E-03;  9.9890820E+02;  2.5391412E-01; -9.0451758E+02;3;  3.6854354E-01;  0.0000000E+00;  1.1996956E+00;0;  5.0840750E-03;  6.3083701E+03;  0.0000000E+00; -7.6175666E-01;  4.0000000E+04;  0.0000000E+00;  3.9356887E+04;  2.2316055E-02;  0.0000000E+00; -1.7231980E-02;  2.7023245E+03;
  1.0061316E+00;  9.9999998E-03;  1.6128074E-01;7860;  2.5542973E-02;  0.0000000E+00; -4.7153342E-03;  9.9938995E+02;  2.5370944E-01; -5.0541776E+02;3; -9.6230811E-01;  0.0000000E+00;  1.5252761E+00;0; -6.3525820E-03;  6.3250449E+03;  0.0000000E+00;  1.4801395E-01;  4.0000000E+04;  0.0000000E+00;  3.9350148E+04;  4.4771107E-03;  0.0000000E+00; -1.0829693E-02;  6.4053755E+03;
  1.0064830E+00;  9.9999998E-03;  1.2079404E-01;7856;  2.7933048E-02;  0.0000000E+00; -4.0557198E-03;  9.9882538E+02;  2.5412503E-01; -9.7315759E+02;3;  7.9308993E-01;  0.0000000E+00;  1.0822002E+00;0;  8.7997504E-03;  6.2953579E+03;  0.0000000E+00; -7.7729464E-01;  4.0000000E+04;  0.0000000E+00;  3.9357902E+04;  2.8392460E-02;  0.0000000E+00; -1.9592710E-02;  2.7352078E+03;
  1.0063258E+00;  9.9999998E-03;  1.7138360E-01;7861;  2.5024446E-02;  0.0000000E+00; -4.8152925E-03;  9.9954352E+02;  2.5375298E-01; -3.7816211E+02;3; -1.3583732E+00;  0.0000000E+00;  1.6109455E+00;0; -1.0043407E-02;  6.3233047E+03;  0.0000000E+00;  7.4540931E-01;  4.0000000E+04;  0.0000000E+00;  3.9349273E+04; -1.1089765E-03;  0.0000000E+00; -8.9344308E-03;  9.0633164E+03;
  1.0067743E+00;  9.9999998E-03;  1.8148199E-01;7862;  2.4573613E-02;  0.0000000E+00; -4.9123676E-03;  9.9965338E+02;  2.5396487E-01; -2.8715234E+02;3; -1.7439797E+00;  0.0000000E+00;  1.6845465E+00;0; -1.3671085E-02;  6.3123848E+03;  0.0000000E+00;  1.3869979E+00;  4.0000000E+04;  0.0000000E+00;  3.9348297E+04; -6.5279407E-03;  0.0000000E+00; -7.1431450E-03;  1.1821145E+04;
  1.0070750E+00;  9.9999998E-03;  1.1073756E-01;7855;  2.8632063E-02;  0.0000000E+00; -3.8330259E-03;  9.9878302E+02;  2.5451979E-01; -1.0082677E+03;3;  1.1827388E+00;  0.0000000E+00;  9.8801070E-01;0;  1.2285421E-02;  6.2736621E+03;  0.0000000E+00; -7.1468985E-01;  4.0000000E+04;  0.0000000E+00;  3.9357855E+04;  3.4345184E-02;  0.0000000E+00; -2.2059763E-02;  2.8677029E+03;
  1.0072876E+00;  9.9999998E-03;  1.9155954E-01;7863;  2.4215372E-02;  0.0000000E+00; -5.0212415E-03;  9.9968488E+02;  2.5421792E-01; -2.6107901E+02;3; -2.0778437E+00;  0.0000000E+00;  1.7336787E+00;0; -1.7152522E-02;  6.2982402E+03;  0.0000000E+00;  1.9682708E+00;  4.0000000E+04;  0.0000000E+00;  3.9348215E+04; -1.1681252E-02;  0.0000000E+00; -5.4712701E-03;  1.4070147E+04;
  1.0076655E+00;  9.9999998E-03;  1.0068282E-01;7854;  2.9385166E-02;  0.0000000E+00; -3.5894653E-03;  9.9878601E+02;  2.5490043E-01; -1.0057493E+03;3;  1.5720645E+00;  0.0000000E+00;  8.6190677E-01;0;  1.5547965E-02;  6.2530405E+03;  0.0000000E+00; -6.1869150E-01;  4.0000000E+04;  0.0000000E+00;  3.9356332E+04;  4.0174630E-02;  0.0000000E+00; -2.4626665E-02;  2.8854143E+03;
  1.0078855E+00;  9.9999998E-03;  2.0162965E-01;7864;  2.3919117E-02;  0.0000000E+00; -5.1154336E-03;  9.9962634E+02;  2.5452772E-01; -3.0957147E+02;3; -2.3723433E+00;  0.0000000E+00;  1.7884390E+00;0; -2.0496052E-02;  6.2801865E+03;  0.0000000E+00;  2.3834081E+00;  4.0000000E+04;  0.0000000E+00;  3.9349473E+04; -1.6566809E-02;  0.0000000E+00; -3.9292425E-03;  1.5239074E+04;
  1.0081270E+00;  9.9999998E-03;  9.0616018E-02;7853;  3.0168878E-02;  0.0000000E+00; -3.3273620E-03;  9.9880176E+02;  2.5519052E-01; -9.9271259E+02;3;  1.9018313E+00;  0.0000000E+00;  7.3267198E-01;0;  1.8538756E-02;  6.2373525E+03;  0.0000000E+00; -5.1775044E-01;  4.0000000E+04;  0.0000000E+00;  3.9354734E+04;  4.5793079E-02;  0.0000000E+00; -2.7254323E-02;  2.7267458E+03;
  1.0085763E+00;  9.9999998E-03;  2.1170066E-01;7865;  2.3677830E-02;  0.0000000E+00; -5.1814201E-03;  9.9949786E+02;  2.5490806E-01; -4.1598819E+02;3; -2.6817133E+00;  0.0000000E+00;  1.8281072E+00;0; -2.3704991E-02;  6.2580283E+03;  0.0000000E+00;  2.5457709E+00;  4.0000000E+04;  0.0000000E+00;  3.9352180E+04; -2.1176586E-02;  0.0000000E+00; -2.5284053E-03;  1.4948832E+04;
  1.0084186E+00;  9.9999998E-03;  8.0543324E-02;7852;  3.0964157E-02;  0.0000000E+00; -3.0388255E-03;  9.9882935E+02;  2.5536460E-01; -9.6984906E+02;3;  2.3023283E+00;  0.0000000E+00;  5.8623332E-01;0;  2.1207422E-02;  6.2275913E+03;  0.0000000E+00; -4.2347965E-01;  4.0000000E+04;  0.0000000E+00;  3.9352859E+04;  5.1083356E-02;  0.0000000E+00; -2.9875934E-02;  2.4325024E+03;
  1.0093204E+00;  9.9999998E-03;  2.2179879E-01;7866;  2.3482302E-02;  0.0000000E+00; -5.2145496E-03;  9.9926196E+02;  2.5534195E-01; -6.1143945E+02;3; -2.9994929E+00;  0.0000000E+00;  1.8884434E+00;0; -2.6766088E-02;  6.2329399E+03;  0.0000000E+00;  2.4004712E+00;  4.0000000E+04;  0.0000000E+00;  3.9353637E+04; -2.5486559E-02;  0.0000000E+00; -1.2795283E-03;  1.3083228E+04;
  1.0086291E+00;  9.9999998E-03;  7.0470788E-02;7851;  3.1750720E-02;  0.0000000E+00; -2.7274482E-03;  9.9886346E+02;  2.5548658E-01; -9.4160291E+02;3;  2.6696656E+00;  0.0000000E+00;  4.4884366E-01;0;  2.3499787E-02;  6.2207915E+03;  0.0000000E+00; -3.3754316E-01;  4.0000000E+04;  0.0000000E+00;  3.9351848E+04;  5.5921610E-02;  0.0000000E+00; -3.2421824E-02;  2.0900872E+03;
  1.0100955E+00;  9.9999998E-03;  2.3189570E-01;7867;  2.3344016E-02;  0.0000000E+00; -5.2497857E-03;  9.9891119E+02;  2.5582588E-01; -9.0204852E+02;3; -3.3035944E+00;  0.0000000E+00;  1.9470804E+00;0; -2.9759297E-02;  6.2053799E+03;  0.0000000E+00;  1.9282466E+00;  4.0000000E+04;  0.0000000E+00;  3.9352965E+04; -2.9474236E-02;  0.0000000E+00; -2.8506131E-04;  9.8478242E+03;
  1.0341907E+00;  9.9999998E-03;  1.1079344E-01;7916;  2.9971892E-02;  0.0000000E+00; -4.4103232E-03;  9.9873682E+02;  2.7175426E-01; -1.0465382E+03;3; -1.0328469E+00;  0.0000000E+00;  1.9761429E+00;0;  6.1070770E-03;  5.5129019E+03;  0.0000000E+00; -6.1926526E-01;  4.0000000E+04;  0.0000000E+00;  3.9310262E+04;  2.8148191E-02;  0.0000000E+00; -2.2041114E-02;  2.5294946E+03;
  1.0342551E+00;  9.9999998E-03;  1.0071184E-01;7915;  3.0981379E-02;  0.0000000E+00; -4.1842605E-03;  9.9874023E+02;  2.7178821E-01; -1.0436741E+03;3; -7.3688418E-01;  0.0000000E+00;  1.7781724E+00;0;  9.3125515E-03;  5.5094014E+03;  0.0000000E+00; -5.5444461E-01;  4.0000000E+04;  0.0000000E+00;  3.9310336E+04;  3.4445114E-02;  0.0000000E+00; -2.5132563E-02;  2.3098723E+03;
  1.0344814E+00;  9.9999998E-03;  7.0499711E-02;7912;  3.3803400E-02;  0.0000000E+00; -3.2576264E-03;  9.9882587E+02;  2.7189523E-01; -9.7276245E+02;3;  1.9909142E-01;  0.0000000E+00;  1.1466420E+00;0;  1.6395736E-02;  5.5006577E+03;  0.0000000E+00; -3.2141057E-01;  4.0000000E+04;  0.0000000E+00;  3.9308207E+04;  5.0999686E-02;  0.0000000E+00; -3.4603950E-02;  1.8451305E+03;
  1.0339167E+00;  9.9999998E-03;  1.5118910E-01;7920;  2.6206443E-02;  0.0000000E+00; -4.9488610E-03;  9.9917682E+02;  2.7141258E-01; -6.8200537E+02;3; -1.4446369E+00;  0.0000000E+00;  2.3726892E+00;0; -9.2288973E-03;  5.5361011E+03;  0.0000000E+00; -6.7229241E-01;  4.0000000E+04;  0.0000000E+00;  3.9302473E+04;  1.9451714E-03;  0.0000000E+00; -1.1174069E-02;  4.0153450E+03;
  1.0336933E+00;  9.9999998E-03;  1.6127370E-01;7921;  2.5425285E-02;  0.0000000E+00; -5.0210939E-03;  9.9936481E+02;  2.7115992E-01; -5.2625665E+02;3; -1.6652967E+00;  0.0000000E+00;  2.4286239E+00;0; -1.3177328E-02;  5.5473560E+03;  0.0000000E+00; -5.7316512E-01;  4.0000000E+04;  0.0000000E+00;  3.9300852E+04; -4.3153237E-03;  0.0000000E+00; -8.8620037E-03;  4.7862793E+03;
  1.0336268E+00;  9.9999998E-03;  1.7137897E-01;7922;  2.4728153E-02;  0.0000000E+00; -5.0768075E-03;  9.9954395E+02;  2.7100170E-01; -3.7781644E+02;3; -1.8406332E+00;  0.0000000E+00;  2.4436188E+00;0; -1.7065670E-02;  5.5538833E+03;  0.0000000E+00; -4.2226163E-01;  4.0000000E+04;  0.0000000E+00;  3.9299922E+04; -1.0387394E-02;  0.0000000E+00; -6.6782776E-03;  5.6464077E+03;
  1.0345888E+00;  9.9999998E-03;  9.0648092E-02;7914;  3.1989761E-02;  0.0000000E+00; -3.9179428E-03;  9.9878467E+02;  2.7199918E-01; -1.0068849E+03;3; -5.3788292E-01;  0.0000000E+00;  1.5748856E+00;0;  1.2036191E-02;  5.4991602E+03;  0.0000000E+00; -4.7860482E-01;  4.0000000E+04;  0.0000000E+00;  3.9309148E+04;  4.0346228E-02;  0.0000000E+00; -2.8310036E-02;  2.0968149E+03;
  1.0345018E+00;  9.9999998E-03;  1.2090650E-01;7917;  2.8949996E-02;  0.0000000E+00; -4.5871777E-03;  9.9879120E+02;  2.7196839E-01; -1.0014530E+03;3; -1.3683732E+00;  0.0000000E+00;  2.1659563E+00;0;  2.4645422E-03;  5.5070269E+03;  0.0000000E+00; -6.7060512E-01;  4.0000000E+04;  0.0000000E+00;  3.9308594E+04;  2.1527959E-02;  0.0000000E+00; -1.9063417E-02;  2.7536199E+03;
  1.0342772E+00;  9.9999998E-03;  1.4110890E-01;7919;  2.7040351E-02;  0.0000000E+00; -4.8462893E-03;  9.9900531E+02;  2.7173957E-01; -8.2407532E+02;3; -1.3351289E+00;  0.0000000E+00;  2.3457944E+00;0; -5.2823564E-03;  5.5211504E+03;  0.0000000E+00; -7.1401590E-01;  4.0000000E+04;  0.0000000E+00;  3.9304355E+04;  8.3460789E-03;  0.0000000E+00; -1.3628435E-02;  3.4298188E+03;
  1.0346354E+00;  9.9999998E-03;  8.0575883E-02;7913;  3.2948118E-02;  0.0000000E+00; -3.6097360E-03;  9.9881934E+02;  2.7201429E-01; -9.7814502E+02;3; -2.1023831E-01;  0.0000000E+00;  1.3593808E+00;0;  1.4401961E-02;  5.4971577E+03;  0.0000000E+00; -4.0020061E-01;  4.0000000E+04;  0.0000000E+00;  3.9308262E+04;  4.5903038E-02;  0.0000000E+00; -3.1501077E-02;  1.9306105E+03;
  1.0335717E+00;  9.9999998E-03;  1.8149412E-01;7923;  2.4142297E-02;  0.0000000E+00; -5.1436904E-03;  9.9967566E+02;  2.7083948E-01; -2.6873312E+02;3; -2.1237535E+00;  0.0000000E+00;  2.4768372E+00;0; -2.0793153E-02;  5.5592783E+03;  0.0000000E+00; -2.3267657E-01;  4.0000000E+04;  0.0000000E+00;  3.9300527E+04; -1.6171701E-02;  0.0000000E+00; -4.6214513E-03;  6.4623096E+03;
  1.0335181E+00;  9.9999998E-03;  1.9162007E-01;7924;  2.3678275E-02;  0.0000000E+00; -5.2290023E-03;  9.9971558E+02;  2.7068335E-01; -2.3564764E+02;3; -2.3870378E+00;  0.0000000E+00;  2.4991112E+00;0; -2.4318261E-02;  5.5634092E+03;  0.0000000E+00; -2.8960036E-02;  4.0000000E+04;  0.0000000E+00;  3.9302441E+04; -2.1625504E-02;  0.0000000E+00; -2.6927572E-03;  7.0853916E+03;
  1.0345306E+00;  9.9999998E-03;  1.3101369E-01;7918;  2.7959036E-02;  0.0000000E+00; -4.7261007E-03;  9.9887762E+02;  2.7196482E-01; -9.2985010E+02;3; -1.3367838E+00;  0.0000000E+00;  2.2894197E+00;0; -1.3630455E-03;  5.5097690E+03;  0.0000000E+00; -7.0727539E-01;  4.0000000E+04;  0.0000000E+00;  3.9306691E+04;  1.4890044E-02;  0.0000000E+00; -1.6253090E-02;  3.0297803E+03;
  1.0336756E+00;  9.9999998E-03;  2.0174468E-01;7925;  2.3264140E-02;  0.0000000E+00; -5.2848645E-03;  9.9965332E+02;  2.7068970E-01; -2.8720172E+02;3; -2.6828494E+00;  0.0000000E+00;  2.5435896E+00;0; -2.7677899E-02;  5.5602358E+03;  0.0000000E+00;  1.3549389E-01;  4.0000000E+04;  0.0000000E+00;  3.9304234E+04; -2.6786553E-02;  0.0000000E+00; -8.9134590E-04;  7.3032334E+03;
  1.0339800E+00;  9.9999998E-03;  2.1184675E-01;7926;  2.2914711E-02;  0.0000000E+00; -5.3137951E-03;  9.9948816E+02;  2.7081460E-01; -4.2403735E+02;3; -2.9760251E+00;  0.0000000E+00;  2.5906959E+00;0; -3.0851696E-02;  5.5514932E+03;  0.0000000E+00;  2.2722408E-01;  4.0000000E+04;  0.0000000E+00;  3.9306871E+04; -3.1615257E-02;  0.0000000E+00;  7.6356111E-04;  7.0445562E+03;
  1.0345181E+00;  9.9999998E-03;  2.2194983E-01;7927;  2.2608755E-02;  0.0000000E+00; -5.2956217E-03;  9.9923230E+02;  2.7112055E-01; -6.3603131E+02;3; -3.2543464E+00;  0.0000000E+00;  2.6447041E+00;0; -3.3855181E-02;  5.5347437E+03;  0.0000000E+00;  2.0236501E-01;  4.0000000E+04;  0.0000000E+00;  3.9309375E+04; -3.6156431E-02;  0.0000000E+00;  2.3012492E-03;  6.2622432E+03;
  1.0352062E+00;  9.9999998E-03;  2.3205945E-01;7928;  2.2358106E-02;  0.0000000E+00; -5.2957698E-03;  9.9883344E+02;  2.7156872E-01; -9.6649103E+02;3; -3.5220070E+00;  0.0000000E+00;  2.6997294E+00;0; -3.6799081E-02;  5.5122954E+03;  0.0000000E+00;  3.7764110E-02;  4.0000000E+04;  0.0000000E+00;  3.9307379E+04; -4.0386859E-02;  0.0000000E+00;  3.5877805E-03;  4.9040923E+03;
  1.0618514E+00;  9.9999998E-03;  7.0570886E-02;7973;  3.5677604E-02;  0.0000000E+00; -3.9118212E-03;  9.9905267E+02;  2.8983635E-01; -7.8486658E+02;3; -2.2644422E+00;  0.0000000E+00;  1.6822526E+00;0;  4.9419962E-03;  4.8515908E+03;  0.0000000E+00;  4.7672965E-02;  4.0000000E+04;  0.0000000E+00;  3.9260707E+04;  4.1359209E-02;  0.0000000E+00; -3.6417212E-02;  2.3056538E+03;
  1.0612864E+00;  9.9999998E-03;  2.3226604E-01;7989;  2.1142896E-02;  0.0000000E+00; -5.3003165E-03;  9.9889728E+02;  2.8837568E-01; -9.1360364E+02;3; -3.7458477E+00;  0.0000000E+00;  3.4131544E+00;0; -4.4330463E-02;  4.8957285E+03;  0.0000000E+00; -2.1692243E+00;  4.0000000E+04;  0.0000000E+00;  3.9255062E+04; -5.1917128E-02;  0.0000000E+00;  7.5866673E-03;  1.4324889E+03;
  1.0608919E+00;  9.9999998E-03;  2.2217135E-01;7988;  2.1497883E-02;  0.0000000E+00; -5.2914433E-03;  9.9934900E+02;  2.8811157E-01; -5.3934271E+02;3; -3.5413852E+00;  0.0000000E+00;  3.3943887E+00;0; -4.1119333E-02;  4.9090186E+03;  0.0000000E+00; -2.2347758E+00;  4.0000000E+04;  0.0000000E+00;  3.9257949E+04; -4.7295798E-02;  0.0000000E+00;  6.1764643E-03;  1.6417288E+03;
  1.0623465E+00;  9.9999998E-03;  8.0663033E-02;7974;  3.4721047E-02;  0.0000000E+00; -4.2926203E-03;  9.9906158E+02;  2.9018629E-01; -7.7745935E+02;3; -2.6862228E+00;  0.0000000E+00;  1.9676924E+00;0;  3.2937415E-03;  4.8411353E+03;  0.0000000E+00;  1.0358519E-02;  4.0000000E+04;  0.0000000E+00;  3.9260605E+04;  3.5999350E-02;  0.0000000E+00; -3.2705609E-02;  2.4752141E+03;
  1.0606660E+00;  9.9999998E-03;  2.1209656E-01;7987;  2.1915628E-02;  0.0000000E+00; -5.3516743E-03;  9.9962268E+02;  2.8800979E-01; -3.1258371E+02;3; -3.3079445E+00;  0.0000000E+00;  3.2891803E+00;0; -3.7994467E-02;  4.9164238E+03;  0.0000000E+00; -2.2341545E+00;  4.0000000E+04;  0.0000000E+00;  3.9256070E+04; -4.2371191E-02;  0.0000000E+00;  4.3767258E-03;  1.6635177E+03;
  1.0605865E+00;  9.9999998E-03;  2.0202556E-01;7986;  2.2386866E-02;  0.0000000E+00; -5.3653447E-03;  9.9977283E+02;  2.8803831E-01; -1.8819218E+02;3; -3.0825710E+00;  0.0000000E+00;  3.2267685E+00;0; -3.4705494E-02;  4.9185293E+03;  0.0000000E+00; -2.1551962E+00;  4.0000000E+04;  0.0000000E+00;  3.9254477E+04; -3.7142716E-02;  0.0000000E+00;  2.4372227E-03;  2.0911765E+03;
  1.0628371E+00;  9.9999998E-03;  9.0751953E-02;7975;  3.3618037E-02;  0.0000000E+00; -4.5932191E-03;  9.9903943E+02;  2.9054183E-01; -7.9582922E+02;3; -2.9726183E+00;  0.0000000E+00;  2.2558017E+00;0;  1.2843031E-03;  4.8306279E+03;  0.0000000E+00; -6.7417003E-02;  4.0000000E+04;  0.0000000E+00;  3.9261172E+04;  3.0205727E-02;  0.0000000E+00; -2.8921423E-02;  2.6674451E+03;
  1.0606251E+00;  9.9999998E-03;  1.9192748E-01;7985;  2.2926198E-02;  0.0000000E+00; -5.3525125E-03;  9.9979840E+02;  2.8818059E-01; -1.6700760E+02;3; -2.8855300E+00;  0.0000000E+00;  3.1937513E+00;0; -3.1260561E-02;  4.9161489E+03;  0.0000000E+00; -2.0049710E+00;  4.0000000E+04;  0.0000000E+00;  3.9253922E+04; -3.1604677E-02;  0.0000000E+00;  3.4411653E-04;  2.8058735E+03;
  1.0607944E+00;  9.9999998E-03;  1.8181162E-01;7984;  2.3549801E-02;  0.0000000E+00; -5.3189280E-03;  9.9971405E+02;  2.8843221E-01; -2.3688216E+02;3; -2.6461825E+00;  0.0000000E+00;  3.1226490E+00;0; -2.7686529E-02;  4.9092646E+03;  0.0000000E+00; -1.8083417E+00;  4.0000000E+04;  0.0000000E+00;  3.9253258E+04; -2.5804013E-02;  0.0000000E+00; -1.8825156E-03;  3.5209409E+03;
  1.0612525E+00;  9.9999998E-03;  1.7169645E-01;7983;  2.4278851E-02;  0.0000000E+00; -5.2890251E-03;  9.9955048E+02;  2.8890368E-01; -3.7243387E+02;3; -2.6116557E+00;  0.0000000E+00;  3.1682723E+00;0; -2.4073392E-02;  4.8943042E+03;  0.0000000E+00; -1.5954429E+00;  4.0000000E+04;  0.0000000E+00;  3.9252562E+04; -1.9862138E-02;  0.0000000E+00; -4.2112549E-03;  4.0159604E+03;
  1.0634005E+00;  9.9999998E-03;  1.0084581E-01;7976;  3.2409061E-02;  0.0000000E+00; -4.8139058E-03;  9.9900604E+02;  2.9095012E-01; -8.2348279E+02;3; -3.1284294E+00;  0.0000000E+00;  2.5321517E+00;0; -1.1364296E-03;  4.8185171E+03;  0.0000000E+00; -1.8908107E-01;  4.0000000E+04;  0.0000000E+00;  3.9261164E+04;  2.4037702E-02;  0.0000000E+00; -2.5174132E-02;  2.8433760E+03;
  1.0620103E+00;  9.9999998E-03;  1.6158691E-01;7982;  2.5179928E-02;  0.0000000E+00; -5.3142863E-03;  9.9936664E+02;  2.8958631E-01; -5.2472583E+02;3; -2.6626880E+00;  0.0000000E+00;  3.1600082E+00;0; -2.0480853E-02;  4.8716064E+03;  0.0000000E+00; -1.3816296E+00;  4.0000000E+04;  0.0000000E+00;  3.9252801E+04; -1.3840675E-02;  0.0000000E+00; -6.6401763E-03;  4.1599951E+03;
  1.0638531E+00;  9.9999998E-03;  1.1095724E-01;7977;  3.1124735E-02;  0.0000000E+00; -4.9698302E-03;  9.9897156E+02;  2.9127449E-01; -8.5202515E+02;3; -3.1280890E+00;  0.0000000E+00;  2.7482352E+00;0; -3.8881097E-03;  4.8095415E+03;  0.0000000E+00; -3.5227183E-01;  4.0000000E+04;  0.0000000E+00;  3.9260766E+04;  1.7666517E-02;  0.0000000E+00; -2.1554627E-02;  2.9650750E+03;
  1.0627352E+00;  9.9999998E-03;  1.5146083E-01;7981;  2.6210299E-02;  0.0000000E+00; -5.3192405E-03;  9.9919141E+02;  2.9023021E-01; -6.6990686E+02;3; -2.7743444E+00;  0.0000000E+00;  3.1212094E+00;0; -1.6909504E-02;  4.8496802E+03;  0.0000000E+00; -1.1671180E+00;  4.0000000E+04;  0.0000000E+00;  3.9253938E+04; -7.6778182E-03;  0.0000000E+00; -9.2316857E-03;  3.9640005E+03;
  1.0639321E+00;  9.9999998E-03;  1.2107694E-01;7978;  2.9818479E-02;  0.0000000E+00; -5.0928146E-03;  9.9895416E+02;  2.9130799E-01; -8.6644452E+02;3; -3.1273828E+00;  0.0000000E+00;  2.8592796E+00;0; -6.8475604E-03;  4.8100366E+03;  0.0000000E+00; -5.4419917E-01;  4.0000000E+04;  0.0000000E+00;  3.9259664E+04;  1.1293573E-02;  0.0000000E+00; -1.8141134E-02;  3.0684167E+03;
  1.0633355E+00;  9.9999998E-03;  1.4132985E-01;7980;  2.7340205E-02;  0.0000000E+00; -5.2758134E-03;  9.9905859E+02;  2.9076087E-01; -7.7992847E+02;3; -2.9077089E+00;  0.0000000E+00;  3.0608904E+00;0; -1.3411797E-02;  4.8310361E+03;  0.0000000E+00; -9.5609283E-01;  4.0000000E+04;  0.0000000E+00;  3.9255688E+04; -1.4123165E-03;  0.0000000E+00; -1.1999480E-02;  3.5930671E+03;
  1.0637400E+00;  9.9999998E-03;  1.3120210E-01;7979;  2.8550470E-02;  0.0000000E+00; -5.1956344E-03;  9.9897858E+02;  2.9112586E-01; -8.4624756E+02;3; -2.9787488E+00;  0.0000000E+00;  2.9708228E+00;0; -1.0034433E-02;  4.8176523E+03;  0.0000000E+00; -7.4817610E-01;  4.0000000E+04;  0.0000000E+00;  3.9257730E+04;  4.9255742E-03;  0.0000000E+00; -1.4960007E-02;  3.2599128E+03;
  1.0904953E+00;  9.9999998E-03;  2.3247086E-01;8050;  1.9503726E-02;  0.0000000E+00; -5.1074768E-03;  9.9927954E+02;  3.0783576E-01; -5.9687189E+02;3; -3.9904077E+00;  0.0000000E+00;  4.0097885E+00;0; -5.5700902E-02;  4.3038960E+03;  0.0000000E+00; -3.6184649E+00;  4.0000000E+04;  0.0000000E+00;  3.9199316E+04; -6.7915559E-02;  0.0000000E+00;  1.2214658E-02;  6.0184454E+02;
  1.0902028E+00;  9.9999998E-03;  2.2237529E-01;8049;  1.9974334E-02;  0.0000000E+00; -5.1205177E-03;  9.9974365E+02;  3.0760601E-01; -2.1238901E+02;3; -3.8603580E+00;  0.0000000E+00;  3.9572713E+00;0; -5.2322783E-02;  4.3139038E+03;  0.0000000E+00; -3.5708091E+00;  4.0000000E+04;  0.0000000E+00;  3.9203863E+04; -6.2695801E-02;  0.0000000E+00;  1.0373020E-02;  9.3842426E+02;
  1.0900567E+00;  9.9999998E-03;  2.1229267E-01;8048;  2.0528736E-02;  0.0000000E+00; -5.3042378E-03;  9.9996021E+02;  3.0754870E-01; -3.2986713E+01;3; -3.7395086E+00;  0.0000000E+00;  3.8935275E+00;0; -4.9246725E-02;  4.3186543E+03;  0.0000000E+00; -3.3749452E+00;  4.0000000E+04;  0.0000000E+00;  3.9204320E+04; -5.7211388E-02;  0.0000000E+00;  7.9646641E-03;  1.5042808E+03;
  1.0900314E+00;  9.9999998E-03;  2.0223421E-01;8047;  2.1151112E-02;  0.0000000E+00; -5.4448121E-03;  1.0000032E+03;  3.0761546E-01;  2.6665907E+00;3; -3.5904765E+00;  0.0000000E+00;  3.7283041E+00;0; -4.6016093E-02;  4.3189697E+03;  0.0000000E+00; -3.0730844E+00;  4.0000000E+04;  0.0000000E+00;  3.9202949E+04; -5.1523026E-02;  0.0000000E+00;  5.5069323E-03;  2.5953613E+03;
  1.0903180E+00;  9.9999998E-03;  1.9215879E-01;8046;  2.1829927E-02;  0.0000000E+00; -5.5090273E-03;  9.9990009E+02;  3.0794987E-01; -8.2763069E+01;3; -3.4889281E+00;  0.0000000E+00;  3.5832646E+00;0; -4.2807635E-02;  4.3108999E+03;  0.0000000E+00; -2.7071798E+00;  4.0000000E+04;  0.0000000E+00;  3.9202840E+04; -4.5778640E-02;  0.0000000E+00;  2.9710047E-03;  3.9052109E+03;
  1.0921345E+00;  9.9999998E-03;  7.0781082E-02;8034;  3.7059903E-02;  0.0000000E+00; -4.3584541E-03;  9.9916486E+02;  3.1034186E-01; -6.9188153E+02;3; -4.8270354E+00;  0.0000000E+00;  1.9596947E+00;0; -1.3652479E-02;  4.2396938E+03;  0.0000000E+00;  3.1312105E-01;  4.0000000E+04;  0.0000000E+00;  3.9208473E+04;  2.3332173E-02;  0.0000000E+00; -3.6984652E-02;  3.2974104E+03;
  1.0908034E+00;  9.9999998E-03;  1.8206725E-01;8045;  2.2608534E-02;  0.0000000E+00; -5.5305823E-03;  9.9969360E+02;  3.0846488E-01; -2.5381993E+02;3; -3.4048352E+00;  0.0000000E+00;  3.4023981E+00;0; -3.9642960E-02;  4.2972427E+03;  0.0000000E+00; -2.3198922E+00;  4.0000000E+04;  0.0000000E+00;  3.9202461E+04; -3.9968472E-02;  0.0000000E+00;  3.2551217E-04;  4.9564331E+03;
  1.0925714E+00;  9.9999998E-03;  8.0888614E-02;8035;  3.5830509E-02;  0.0000000E+00; -4.7164294E-03;  9.9915271E+02;  3.1064758E-01; -7.0195532E+02;3; -4.7353535E+00;  0.0000000E+00;  2.2580373E+00;0; -1.4767589E-02;  4.2319502E+03;  0.0000000E+00;  2.8832912E-01;  4.0000000E+04;  0.0000000E+00;  3.9209195E+04;  1.8076384E-02;  0.0000000E+00; -3.2843973E-02;  3.5655364E+03;
  1.0914888E+00;  9.9999998E-03;  1.7195836E-01;8044;  2.3521738E-02;  0.0000000E+00; -5.5601243E-03;  9.9941541E+02;  3.0914277E-01; -4.8433188E+02;3; -3.5123224E+00;  0.0000000E+00;  3.4114017E+00;0; -3.6565319E-02;  4.2785938E+03;  0.0000000E+00; -1.9527534E+00;  4.0000000E+04;  0.0000000E+00;  3.9202531E+04; -3.4157127E-02;  0.0000000E+00; -2.4081904E-03;  5.4224961E+03;
  1.0931865E+00;  9.9999998E-03;  9.0985432E-02;8036;  3.4499694E-02;  0.0000000E+00; -4.9798233E-03;  9.9908374E+02;  3.1109715E-01; -7.5908948E+02;3; -4.6251259E+00;  0.0000000E+00;  2.4506962E+00;0; -1.6317707E-02;  4.2202061E+03;  0.0000000E+00;  1.8439336E-01;  4.0000000E+04;  0.0000000E+00;  3.9210445E+04;  1.2398045E-02;  0.0000000E+00; -2.8715750E-02;  3.7032805E+03;
  1.0923197E+00;  9.9999998E-03;  1.6182695E-01;8043;  2.4618655E-02;  0.0000000E+00; -5.6178994E-03;  9.9914264E+02;  3.0992112E-01; -7.1030072E+02;3; -3.6638393E+00;  0.0000000E+00;  3.3622589E+00;0; -3.3597797E-02;  4.2567886E+03;  0.0000000E+00; -1.6286331E+00;  4.0000000E+04;  0.0000000E+00;  3.9203004E+04; -2.8381957E-02;  0.0000000E+00; -5.2158399E-03;  5.2029639E+03;
  1.0937499E+00;  9.9999998E-03;  1.0107633E-01;8037;  3.3077460E-02;  0.0000000E+00; -5.1681222E-03;  9.9898218E+02;  3.1150395E-01; -8.4323523E+02;3; -4.6204166E+00;  0.0000000E+00;  2.6726747E+00;0; -1.8188296E-02;  4.2095225E+03;  0.0000000E+00; -1.4773593E-03;  4.0000000E+04;  0.0000000E+00;  3.9211852E+04;  6.5355375E-03;  0.0000000E+00; -2.4723833E-02;  3.7100615E+03;
  1.0931087E+00;  9.9999998E-03;  1.5167713E-01;8042;  2.5840484E-02;  0.0000000E+00; -5.6194980E-03;  9.9891168E+02;  3.1065902E-01; -9.0165332E+02;3; -3.8335783E+00;  0.0000000E+00;  3.2677255E+00;0; -3.0728607E-02;  4.2359883E+03;  0.0000000E+00; -1.3450345E+00;  4.0000000E+04;  0.0000000E+00;  3.9204418E+04; -2.2626655E-02;  0.0000000E+00; -8.1019513E-03;  4.5173359E+03;
  1.0941305E+00;  9.9999998E-03;  1.1116887E-01;8038;  3.1589054E-02;  0.0000000E+00; -5.3060199E-03;  9.9887274E+02;  3.1176865E-01; -9.3389929E+02;3; -4.6445694E+00;  0.0000000E+00;  2.8333724E+00;0; -2.0320985E-02;  4.2028970E+03;  0.0000000E+00; -2.5051180E-01;  4.0000000E+04;  0.0000000E+00;  3.9212109E+04;  6.3109334E-04;  0.0000000E+00; -2.0952079E-02;  3.6411575E+03;
  1.0937128E+00;  9.9999998E-03;  1.4152525E-01;8041;  2.7165717E-02;  0.0000000E+00; -5.5705672E-03;  9.9877936E+02;  3.1123653E-01; -1.0112798E+03;3; -4.0975304E+00;  0.0000000E+00;  3.1994967E+00;0; -2.7923794E-02;  4.2194414E+03;  0.0000000E+00; -1.0803953E+00;  4.0000000E+04;  0.0000000E+00;  3.9206887E+04; -1.6853005E-02;  0.0000000E+00; -1.1070790E-02;  3.8378313E+03;
  1.0942420E+00;  9.9999998E-03;  1.2126778E-01;8039;  3.0073954E-02;  0.0000000E+00; -5.4111076E-03;  9.9877948E+02;  3.1180862E-01; -1.0111810E+03;3; -4.5873837E+00;  0.0000000E+00;  3.0006514E+00;0; -2.2668839E-02;  4.2024014E+03;  0.0000000E+00; -5.3050423E-01;  4.0000000E+04;  0.0000000E+00;  3.9211387E+04; -5.2320249E-03;  0.0000000E+00; -1.7436814E-02;  3.5457214E+03;
  1.0940841E+00;  9.9999998E-03;  1.3138436E-01;8040;  2.8587008E-02;  0.0000000E+00; -5.4978416E-03;  9.9873651E+02;  3.1161630E-01; -1.0467849E+03;3; -4.3608165E+00;  0.0000000E+00;  3.1198754E+00;0; -2.5209144E-02;  4.2083291E+03;  0.0000000E+00; -8.1155223E-01;  4.0000000E+04;  0.0000000E+00;  3.9209465E+04; -1.1047913E-02;  0.0000000E+00; -1.4161230E-02;  3.5335825E+03;
  1.1246245E+00;  9.9999998E-03;  7.0891157E-02;8095;  3.7450675E-02;  0.0000000E+00; -4.2524771E-03;  9.9867188E+02;  3.3286962E-01; -1.1003141E+03;3; -7.0776429E+00;  0.0000000E+00;  2.0397897E+00;0; -3.4664746E-02;  3.6866936E+03;  0.0000000E+00;  1.5883498E-01;  4.0000000E+04;  0.0000000E+00;  3.9154000E+04;  6.2506093E-04;  0.0000000E+00; -3.5289809E-02;  3.2453049E+03;
  1.1248909E+00;  9.9999998E-03;  8.1015222E-02;8096;  3.5999034E-02;  0.0000000E+00; -4.5831446E-03;  9.9867493E+02;  3.3304402E-01; -1.0977957E+03;3; -6.7431912E+00;  0.0000000E+00;  2.2450023E+00;0; -3.5377372E-02;  3.6830591E+03;  0.0000000E+00;  1.4631267E-01;  4.0000000E+04;  0.0000000E+00;  3.9155496E+04; -4.1689496E-03;  0.0000000E+00; -3.1208424E-02;  3.6562119E+03;
  1.1252766E+00;  9.9999998E-03;  9.1116898E-02;8097;  3.4429323E-02;  0.0000000E+00; -4.8223711E-03;  9.9861072E+02;  3.3331719E-01; -1.1509794E+03;3; -6.4339342E+00;  0.0000000E+00;  2.4440784E+00;0; -3.6527153E-02;  3.6769099E+03;  0.0000000E+00;  7.4500456E-02;  4.0000000E+04;  0.0000000E+00;  3.9157914E+04; -9.2905508E-03;  0.0000000E+00; -2.7236601E-02;  3.9900879E+03;
  1.1258155E+00;  9.9999998E-03;  1.0119724E-01;8098;  3.2791074E-02;  0.0000000E+00; -4.9827243E-03;  9.9849506E+02;  3.3371636E-01; -1.2468285E+03;3; -6.1261697E+00;  0.0000000E+00;  2.5978169E+00;0; -3.8152244E-02;  3.6679155E+03;  0.0000000E+00; -6.2574103E-02;  4.0000000E+04;  0.0000000E+00;  3.9159418E+04; -1.4669507E-02;  0.0000000E+00; -2.3482736E-02;  4.1710068E+03;
  1.1232650E+00;  9.9999998E-03;  2.3263308E-01;8111;  1.6925560E-02;  0.0000000E+00; -5.0767842E-03;  9.9975922E+02;  3.3037955E-01; -1.9950046E+02;3; -4.2631602E+00;  0.0000000E+00;  4.2217636E+00;0; -7.3876023E-02;  3.7419580E+03;  0.0000000E+00; -3.5805616E+00;  4.0000000E+04;  0.0000000E+00;  3.9145371E+04; -8.9755982E-02;  0.0000000E+00;  1.5879959E-02;  3.1078501E+03;
  1.1229036E+00;  9.9999998E-03;  2.2251539E-01;8110;  1.7601093E-02;  0.0000000E+00; -5.2569350E-03;  1.0001606E+03;  3.3004674E-01;  1.3313199E+02;3; -4.2613654E+00;  0.0000000E+00;  4.1438937E+00;0; -7.0252948E-02;  3.7521257E+03;  0.0000000E+00; -3.2686658E+00;  4.0000000E+04;  0.0000000E+00;  3.9150406E+04; -8.3626203E-02;  0.0000000E+00;  1.3373258E-02;  1.7529714E+03;
  1.1226945E+00;  9.9999998E-03;  2.1240433E-01;8109;  1.8362574E-02;  0.0000000E+00; -5.5688880E-03;  1.0002299E+03;  3.2992449E-01;  1.9041429E+02;3; -4.2624993E+00;  0.0000000E+00;  3.9987080E+00;0; -6.6998266E-02;  3.7567632E+03;  0.0000000E+00; -2.9093626E+00;  4.0000000E+04;  0.0000000E+00;  3.9150840E+04; -7.7340953E-02;  0.0000000E+00;  1.0342686E-02;  1.5249353E+03;
  1.1226400E+00;  9.9999998E-03;  2.0233370E-01;8108;  1.9201946E-02;  0.0000000E+00; -5.7909680E-03;  1.0000441E+03;  3.2997715E-01;  3.6542164E+01;3; -4.2458282E+00;  0.0000000E+00;  3.7385695E+00;0; -6.3698180E-02;  3.7563364E+03;  0.0000000E+00; -2.5340383E+00;  4.0000000E+04;  0.0000000E+00;  3.9148465E+04; -7.1011491E-02;  0.0000000E+00;  7.3133125E-03;  2.7287441E+03;
  1.1265872E+00;  9.9999998E-03;  1.1127642E-01;8099;  3.1084802E-02;  0.0000000E+00; -5.0715399E-03;  9.9835052E+02;  3.3428398E-01; -1.3665781E+03;3; -6.0084896E+00;  0.0000000E+00;  2.7735529E+00;0; -4.0303119E-02;  3.6551755E+03;  0.0000000E+00; -2.5292018E-01;  4.0000000E+04;  0.0000000E+00;  3.9159812E+04; -2.0304725E-02;  0.0000000E+00; -1.9998396E-02;  4.2053330E+03;
  1.1229210E+00;  9.9999998E-03;  1.9225234E-01;8107;  2.0089485E-02;  0.0000000E+00; -5.8439886E-03;  9.9971844E+02;  3.3032924E-01; -2.3327727E+02;3; -4.2601132E+00;  0.0000000E+00;  3.5287218E+00;0; -6.0565013E-02;  3.7482664E+03;  0.0000000E+00; -2.1594155E+00;  4.0000000E+04;  0.0000000E+00;  3.9146988E+04; -6.4812787E-02;  0.0000000E+00;  4.2477744E-03;  4.1940278E+03;
  1.1233952E+00;  9.9999998E-03;  1.8213566E-01;8106;  2.1066770E-02;  0.0000000E+00; -5.8088214E-03;  9.9930487E+02;  3.3085951E-01; -5.7588470E+02;3; -4.3343067E+00;  0.0000000E+00;  3.4154272E+00;0; -5.7619400E-02;  3.7357234E+03;  0.0000000E+00; -1.8115389E+00;  4.0000000E+04;  0.0000000E+00;  3.9147289E+04; -5.8716070E-02;  0.0000000E+00;  1.0966712E-03;  5.1842666E+03;
  1.1271073E+00;  9.9999998E-03;  1.2135863E-01;8100;  2.9379167E-02;  0.0000000E+00; -5.1444853E-03;  9.9821533E+02;  3.3463681E-01; -1.4785750E+03;3; -5.7961893E+00;  0.0000000E+00;  2.9246116E+00;0; -4.2682447E-02;  3.6475208E+03;  0.0000000E+00; -4.6989956E-01;  4.0000000E+04;  0.0000000E+00;  3.9158574E+04; -2.5875002E-02;  0.0000000E+00; -1.6807446E-02;  4.1063774E+03;
  1.1240608E+00;  9.9999998E-03;  1.7198811E-01;8105;  2.2152351E-02;  0.0000000E+00; -5.7233339E-03;  9.9887854E+02;  3.3155861E-01; -9.2910919E+02;3; -4.4144325E+00;  0.0000000E+00;  3.2984121E+00;0; -5.4867368E-02;  3.7192129E+03;  0.0000000E+00; -1.5158026E+00;  4.0000000E+04;  0.0000000E+00;  3.9147492E+04; -5.2805498E-02;  0.0000000E+00; -2.0618686E-03;  5.4370459E+03;
  1.1270796E+00;  9.9999998E-03;  1.3144688E-01;8101;  2.7726768E-02;  0.0000000E+00; -5.2403379E-03;  9.9813269E+02;  3.3452696E-01; -1.5470173E+03;3; -5.6673136E+00;  0.0000000E+00;  3.0876279E+00;0; -4.5074418E-02;  3.6502019E+03;  0.0000000E+00; -6.8662494E-01;  4.0000000E+04;  0.0000000E+00;  3.9156512E+04; -3.1227503E-02;  0.0000000E+00; -1.3846913E-02;  3.9434905E+03;
  1.1248840E+00;  9.9999998E-03;  1.6182722E-01;8104;  2.3360126E-02;  0.0000000E+00; -5.6111421E-03;  9.9851581E+02;  3.3237946E-01; -1.2296438E+03;3; -4.7247639E+00;  0.0000000E+00;  3.2919137E+00;0; -5.2286934E-02;  3.6998960E+03;  0.0000000E+00; -1.2764702E+00;  4.0000000E+04;  0.0000000E+00;  3.9148777E+04; -4.7137804E-02;  0.0000000E+00; -5.1491302E-03;  5.0283379E+03;
  1.1257817E+00;  9.9999998E-03;  1.5167616E-01;8103;  2.4706597E-02;  0.0000000E+00; -5.4901666E-03;  9.9825397E+02;  3.3324572E-01; -1.4465758E+03;3; -5.0620809E+00;  0.0000000E+00;  3.2467139E+00;0; -4.9837302E-02;  3.6797139E+03;  0.0000000E+00; -1.0763423E+00;  4.0000000E+04;  0.0000000E+00;  3.9151047E+04; -4.1714847E-02;  0.0000000E+00; -8.1224544E-03;  4.3582451E+03;
  1.1265360E+00;  9.9999998E-03;  1.4154789E-01;8102;  2.6165027E-02;  0.0000000E+00; -5.3619030E-03;  9.9813129E+02;  3.3398056E-01; -1.5482025E+03;3; -5.4130125E+00;  0.0000000E+00;  3.1959100E+00;0; -4.7427010E-02;  3.6627129E+03;  0.0000000E+00; -8.8770396E-01;  4.0000000E+04;  0.0000000E+00;  3.9153934E+04; -3.6431931E-02;  0.0000000E+00; -1.0995078E-02;  3.9431719E+03;
  1.1597754E+00;  9.9999998E-03;  7.0962690E-02;8156;  3.6761001E-02;  0.0000000E+00; -3.5872401E-03;  9.9768365E+02;  3.5778880E-01; -1.9190557E+03;3; -9.1596813E+00;  0.0000000E+00;  1.7526816E+00;0; -4.8477367E-02;  3.1887805E+03;  0.0000000E+00; -1.2606305E-01;  4.0000000E+04;  0.0000000E+00;  3.9093562E+04; -1.8238064E-02;  0.0000000E+00; -3.0239301E-02;  2.7653667E+03;
  1.1601369E+00;  9.9999998E-03;  8.1098989E-02;8157;  3.5141267E-02;  0.0000000E+00; -3.8492305E-03;  9.9779425E+02;  3.5801363E-01; -1.8274041E+03;3; -8.6775866E+00;  0.0000000E+00;  1.9219230E+00;0; -4.9426556E-02;  3.1851553E+03;  0.0000000E+00; -1.1162928E-01;  4.0000000E+04;  0.0000000E+00;  3.9094488E+04; -2.2890327E-02;  0.0000000E+00; -2.6536226E-02;  3.0318743E+03;
  1.1591812E+00;  9.9999998E-03;  2.3281254E-01;8172;  1.2875410E-02;  0.0000000E+00; -5.3225923E-03;  9.9928558E+02;  3.5558456E-01; -5.9188416E+02;3; -4.5556936E+00;  0.0000000E+00;  3.9660499E+00;0; -9.7625792E-02;  3.2306243E+03;  0.0000000E+00; -1.7962109E+00;  4.0000000E+04;  0.0000000E+00;  3.9085309E+04; -1.1371864E-01;  0.0000000E+00;  1.6092850E-02;  4.6382544E+03;
  1.1608303E+00;  9.9999998E-03;  9.1213085E-02;8158;  3.3372123E-02;  0.0000000E+00; -4.0134746E-03;  9.9782690E+02;  3.5852477E-01; -1.8003430E+03;3; -8.3573647E+00;  0.0000000E+00;  2.1249080E+00;0; -5.0891772E-02;  3.1761865E+03;  0.0000000E+00; -1.0510437E-01;  4.0000000E+04;  0.0000000E+00;  3.9095625E+04; -2.7917281E-02;  0.0000000E+00; -2.2974491E-02;  3.4140969E+03;
  1.1589414E+00;  9.9999998E-03;  2.2268602E-01;8171;  1.3867710E-02;  0.0000000E+00; -5.4982333E-03;  9.9959692E+02;  3.5534963E-01; -3.3391629E+02;3; -4.7108364E+00;  0.0000000E+00;  3.8161349E+00;0; -9.2614301E-02;  3.2363638E+03;  0.0000000E+00; -1.4801424E+00;  4.0000000E+04;  0.0000000E+00;  3.9088004E+04; -1.0666804E-01;  0.0000000E+00;  1.4053741E-02;  2.9153054E+03;
  1.1587943E+00;  9.9999998E-03;  2.1253526E-01;8170;  1.4938972E-02;  0.0000000E+00; -5.6292731E-03;  9.9961597E+02;  3.5527760E-01; -3.1816364E+02;3; -4.8421779E+00;  0.0000000E+00;  3.6495245E+00;0; -8.8144161E-02;  3.2385981E+03;  0.0000000E+00; -1.2408310E+00;  4.0000000E+04;  0.0000000E+00;  3.9090250E+04; -9.9461496E-02;  0.0000000E+00;  1.1317335E-02;  1.7602830E+03;
  1.1615865E+00;  9.9999998E-03;  1.0130864E-01;8159;  3.1515762E-02;  0.0000000E+00; -4.1192579E-03;  9.9780713E+02;  3.5909176E-01; -1.8167377E+03;3; -8.0152273E+00;  0.0000000E+00;  2.3219371E+00;0; -5.2835368E-02;  3.1660518E+03;  0.0000000E+00; -1.1658145E-01;  4.0000000E+04;  0.0000000E+00;  3.9096145E+04; -3.3138923E-02;  0.0000000E+00; -1.9696444E-02;  3.7558213E+03;
  1.1587397E+00;  9.9999998E-03;  2.0240816E-01;8169;  1.6079953E-02;  0.0000000E+00; -5.6816968E-03;  9.9935480E+02;  3.5535252E-01; -5.3455249E+02;3; -4.9882636E+00;  0.0000000E+00;  3.5333824E+00;0; -8.4036104E-02;  3.2375261E+03;  0.0000000E+00; -1.0411092E+00;  4.0000000E+04;  0.0000000E+00;  3.9088043E+04; -9.2244565E-02;  0.0000000E+00;  8.2084583E-03;  1.6104319E+03;
  1.1622757E+00;  9.9999998E-03;  1.1139657E-01;8160;  2.9624308E-02;  0.0000000E+00; -4.2006723E-03;  9.9773907E+02;  3.5960916E-01; -1.8731311E+03;3; -7.7009072E+00;  0.0000000E+00;  2.5036132E+00;0; -5.5215992E-02;  3.1568752E+03;  0.0000000E+00; -1.4902654E-01;  4.0000000E+04;  0.0000000E+00;  3.9095633E+04; -3.8468458E-02;  0.0000000E+00; -1.6747534E-02;  3.9530532E+03;
  1.1587843E+00;  9.9999998E-03;  1.9228542E-01;8168;  1.7285112E-02;  0.0000000E+00; -5.6285663E-03;  9.9894598E+02;  3.5555220E-01; -8.7320935E+02;3; -5.1744471E+00;  0.0000000E+00;  3.4537206E+00;0; -8.0189921E-02;  3.2335713E+03;  0.0000000E+00; -8.6676061E-01;  4.0000000E+04;  0.0000000E+00;  3.9085719E+04; -8.5123621E-02;  0.0000000E+00;  4.9336995E-03;  2.6469255E+03;
  1.1627697E+00;  9.9999998E-03;  1.2148315E-01;8161;  2.7753666E-02;  0.0000000E+00; -4.2934204E-03;  9.9764380E+02;  3.5995293E-01; -1.9520424E+03;3; -7.3066115E+00;  0.0000000E+00;  2.6335802E+00;0; -5.7960525E-02;  3.1508022E+03;  0.0000000E+00; -1.9727649E-01;  4.0000000E+04;  0.0000000E+00;  3.9094207E+04; -4.3855779E-02;  0.0000000E+00; -1.4104745E-02;  3.9860974E+03;
  1.1589843E+00;  9.9999998E-03;  1.8213992E-01;8167;  1.8560624E-02;  0.0000000E+00; -5.5110673E-03;  9.9848566E+02;  3.5590339E-01; -1.2545811E+03;3; -5.3514423E+00;  0.0000000E+00;  3.3508346E+00;0; -7.6586060E-02;  3.2264443E+03;  0.0000000E+00; -7.1573246E-01;  4.0000000E+04;  0.0000000E+00;  3.9084762E+04; -7.8217335E-02;  0.0000000E+00;  1.6312741E-03;  3.6192239E+03;
  1.1594787E+00;  9.9999998E-03;  1.7197916E-01;8166;  1.9885883E-02;  0.0000000E+00; -5.3353691E-03;  9.9806213E+02;  3.5650712E-01; -1.6054845E+03;3; -5.5660238E+00;  0.0000000E+00;  3.2284470E+00;0; -7.3220134E-02;  3.2146401E+03;  0.0000000E+00; -5.8684903E-01;  4.0000000E+04;  0.0000000E+00;  3.9084594E+04; -7.1688004E-02;  0.0000000E+00; -1.5321282E-03;  4.1301685E+03;
  1.1628263E+00;  9.9999998E-03;  1.3156813E-01;8162;  2.5954451E-02;  0.0000000E+00; -4.4326107E-03;  9.9755286E+02;  3.5991031E-01; -2.0273982E+03;3; -7.0135288E+00;  0.0000000E+00;  2.7908275E+00;0; -6.0930911E-02;  3.1516697E+03;  0.0000000E+00; -2.5442693E-01;  4.0000000E+04;  0.0000000E+00;  3.9091547E+04; -4.9230453E-02;  0.0000000E+00; -1.1700460E-02;  3.9226611E+03;
  1.1603131E+00;  9.9999998E-03;  1.6183394E-01;8165;  2.1262972E-02;  0.0000000E+00; -5.1133567E-03;  9.9772748E+02;  3.5738701E-01; -1.8827604E+03;3; -5.8797288E+00;  0.0000000E+00;  3.1383283E+00;0; -7.0055932E-02;  3.1979541E+03;  0.0000000E+00; -4.7993490E-01;  4.0000000E+04;  0.0000000E+00;  3.9085695E+04; -6.5621056E-02;  0.0000000E+00; -4.4348743E-03;  4.1916641E+03;
  1.1622046E+00;  9.9999998E-03;  1.4164855E-01;8163;  2.4288492E-02;  0.0000000E+00; -4.6418379E-03;  9.9750012E+02;  3.5927576E-01; -2.0711006E+03;3; -6.6158929E+00;  0.0000000E+00;  2.9132655E+00;0; -6.3944578E-02;  3.1631570E+03;  0.0000000E+00; -3.1985098E-01;  4.0000000E+04;  0.0000000E+00;  3.9089340E+04; -5.4528039E-02;  0.0000000E+00; -9.4165355E-03;  3.9019810E+03;
  1.1613002E+00;  9.9999998E-03;  1.5172882E-01;8164;  2.2731040E-02;  0.0000000E+00; -4.8780288E-03;  9.9754523E+02;  3.5837686E-01; -2.0337190E+03;3; -6.2543917E+00;  0.0000000E+00;  3.0400763E+00;0; -6.6988833E-02;  3.1795720E+03;  0.0000000E+00; -3.9284021E-01;  4.0000000E+04;  0.0000000E+00;  3.9086895E+04; -5.9945684E-02;  0.0000000E+00; -7.0431484E-03;  4.0266233E+03;
  1.1977696E+00;  9.9999998E-03;  2.1269900E-01;8231;  1.0363319E-02;  0.0000000E+00; -4.2698840E-03;  9.9867847E+02;  3.8358074E-01; -1.0948813E+03;3; -5.4022975E+00;  0.0000000E+00;  3.1849666E+00;0; -1.0314261E-01;  2.7793037E+03;  0.0000000E+00;  7.4397635E-01;  4.0000000E+04;  0.0000000E+00;  3.9019656E+04; -1.1794406E-01;  0.0000000E+00;  1.4801452E-02;  3.5058623E+03;
  1.1977752E+00;  9.9999998E-03;  2.0251676E-01;8230;  1.1926964E-02;  0.0000000E+00; -4.2598997E-03;  9.9854639E+02;  3.8374302E-01; -1.2043103E+03;3; -5.7029877E+00;  0.0000000E+00;  3.0876651E+00;0; -9.7783923E-02;  2.7773528E+03;  0.0000000E+00;  6.3141161E-01;  4.0000000E+04;  0.0000000E+00;  3.9017711E+04; -1.1014013E-01;  0.0000000E+00;  1.2356206E-02;  4.1455557E+03;
  1.1977749E+00;  9.9999998E-03;  2.2288604E-01;8232;  8.8566607E-03;  0.0000000E+00; -4.2931796E-03;  9.9845392E+02;  3.8349107E-01; -1.2809006E+03;3; -5.0771117E+00;  0.0000000E+00;  3.2371759E+00;0; -1.0907718E-01;  2.7794778E+03;  0.0000000E+00;  7.6267403E-01;  4.0000000E+04;  0.0000000E+00;  3.9016082E+04; -1.2562037E-01;  0.0000000E+00;  1.6543187E-02;  2.2042783E+03;
  1.1978605E+00;  9.9999998E-03;  2.3302442E-01;8233;  7.4188868E-03;  0.0000000E+00; -4.3476061E-03;  9.9792877E+02;  3.8354790E-01; -1.7159496E+03;3; -4.7643509E+00;  0.0000000E+00;  3.2931616E+00;0; -1.1613113E-01;  2.7771003E+03;  0.0000000E+00;  5.6283540E-01;  4.0000000E+04;  0.0000000E+00;  3.9013305E+04; -1.3303559E-01;  0.0000000E+00;  1.6904462E-02;  3.0404977E+02;
  1.1978776E+00;  9.9999998E-03;  1.9234763E-01;8229;  1.3514174E-02;  0.0000000E+00; -4.1805631E-03;  9.9821979E+02;  3.8401839E-01; -1.4748702E+03;3; -6.0371814E+00;  0.0000000E+00;  3.0048051E+00;0; -9.2700392E-02;  2.7730547E+03;  0.0000000E+00;  5.0648093E-01;  4.0000000E+04;  0.0000000E+00;  3.9013855E+04; -1.0237724E-01;  0.0000000E+00;  9.6768541E-03;  4.5537832E+03;
  1.1980978E+00;  9.9999998E-03;  1.8218595E-01;8228;  1.5127470E-02;  0.0000000E+00; -4.0391311E-03;  9.9783307E+02;  3.8440567E-01; -1.7952559E+03;3; -6.3471041E+00;  0.0000000E+00;  2.8859408E+00;0; -8.7787695E-02;  2.7667905E+03;  0.0000000E+00;  4.0484181E-01;  4.0000000E+04;  0.0000000E+00;  3.9010594E+04; -9.4781712E-02;  0.0000000E+00;  6.9940146E-03;  4.8268262E+03;
  1.1984589E+00;  9.9999998E-03;  1.7203224E-01;8227;  1.6754791E-02;  0.0000000E+00; -3.8436549E-03;  9.9748401E+02;  3.8489914E-01; -2.0844326E+03;3; -6.7357364E+00;  0.0000000E+00;  2.7829208E+00;0; -8.2969740E-02;  2.7588201E+03;  0.0000000E+00;  3.3351290E-01;  4.0000000E+04;  0.0000000E+00;  3.9009125E+04; -8.7455019E-02;  0.0000000E+00;  4.4852821E-03;  4.8983916E+03;
  1.1992800E+00;  9.9999998E-03;  1.6191776E-01;8226;  1.8375639E-02;  0.0000000E+00; -3.5900017E-03;  9.9725995E+02;  3.8577187E-01; -2.2700566E+03;3; -7.1228938E+00;  0.0000000E+00;  2.6343837E+00;0; -7.8238875E-02;  2.7455398E+03;  0.0000000E+00;  2.9199931E-01;  4.0000000E+04;  0.0000000E+00;  3.9008695E+04; -8.0585778E-02;  0.0000000E+00;  2.3469015E-03;  4.7551655E+03;
  1.1990083E+00;  9.9999998E-03;  7.0955701E-02;8217;  3.5176151E-02;  0.0000000E+00; -2.3728057E-03;  9.9695087E+02;  3.8638830E-01; -2.5261479E+03;3; -1.1565556E+01;  0.0000000E+00;  1.2547331E+00;0; -4.7161732E-02;  2.7344192E+03;  0.0000000E+00; -2.6343313E-01;  4.0000000E+04;  0.0000000E+00;  3.9025156E+04; -2.6878737E-02;  0.0000000E+00; -2.0282995E-02;  2.5992883E+03;
  1.1990882E+00;  9.9999998E-03;  8.1098095E-02;8218;  3.3412740E-02;  0.0000000E+00; -2.5204483E-03;  9.9709094E+02;  3.8633260E-01; -2.4101021E+03;3; -1.0993042E+01;  0.0000000E+00;  1.4393547E+00;0; -4.8725236E-02;  2.7354807E+03;  0.0000000E+00; -2.6255885E-01;  4.0000000E+04;  0.0000000E+00;  3.9024777E+04; -3.1861305E-02;  0.0000000E+00; -1.6863931E-02;  2.5115608E+03;
  1.1992743E+00;  9.9999998E-03;  9.1229834E-02;8219;  3.1530291E-02;  0.0000000E+00; -2.6282971E-03;  9.9719604E+02;  3.8638496E-01; -2.3230427E+03;3; -1.0476882E+01;  0.0000000E+00;  1.6225462E+00;0; -5.0804641E-02;  2.7348772E+03;  0.0000000E+00; -2.2621158E-01;  4.0000000E+04;  0.0000000E+00;  3.9024648E+04; -3.7201736E-02;  0.0000000E+00; -1.3602906E-02;  2.4612053E+03;
  1.1995770E+00;  9.9999998E-03;  1.0135527E-01;8220;  2.9567283E-02;  0.0000000E+00; -2.7050809E-03;  9.9724060E+02;  3.8655508E-01; -2.2861057E+03;3; -9.9321156E+00;  0.0000000E+00;  1.8014778E+00;0; -5.3433772E-02;  2.7324902E+03;  0.0000000E+00; -1.5588035E-01;  4.0000000E+04;  0.0000000E+00;  3.9024184E+04; -4.2847462E-02;  0.0000000E+00; -1.0586311E-02;  2.4729539E+03;
  1.2000039E+00;  9.9999998E-03;  1.1147113E-01;8221;  2.7565472E-02;  0.0000000E+00; -2.7620161E-03;  9.9724866E+02;  3.8684899E-01; -2.2794392E+03;3; -9.4183874E+00;  0.0000000E+00;  1.9593303E+00;0; -5.6607582E-02;  2.7283306E+03;  0.0000000E+00; -6.1242145E-02;  4.0000000E+04;  0.0000000E+00;  3.9022332E+04; -4.8757523E-02;  0.0000000E+00; -7.8500584E-03;  2.6052742E+03;
  1.2002771E+00;  9.9999998E-03;  1.5183821E-01;8225;  2.0004001E-02;  0.0000000E+00; -3.3017278E-03;  9.9717719E+02;  3.8678643E-01; -2.3386472E+03;3; -7.5437455E+00;  0.0000000E+00;  2.4713061E+00;0; -7.3526494E-02;  2.7306135E+03;  0.0000000E+00;  2.5793827E-01;  4.0000000E+04;  0.0000000E+00;  3.9009344E+04; -7.4048750E-02;  0.0000000E+00;  5.2225753E-04;  4.3960469E+03;
  1.2005512E+00;  9.9999998E-03;  1.2156809E-01;8222;  2.5560120E-02;  0.0000000E+00; -2.8120221E-03;  9.9722974E+02;  3.8726726E-01; -2.2950930E+03;3; -8.9067707E+00;  0.0000000E+00;  2.0901027E+00;0; -6.0280368E-02;  2.7225645E+03;  0.0000000E+00;  4.2118736E-02;  4.0000000E+04;  0.0000000E+00;  3.9019477E+04; -5.4903198E-02;  0.0000000E+00; -5.3771716E-03;  2.9003618E+03;
  1.2010710E+00;  9.9999998E-03;  1.3165887E-01;8223;  2.3582892E-02;  0.0000000E+00; -2.8831300E-03;  9.9720990E+02;  3.8766631E-01; -2.3115369E+03;3; -8.5487194E+00;  0.0000000E+00;  2.2321343E+00;0; -6.4392507E-02;  2.7172720E+03;  0.0000000E+00;  1.3712962E-01;  4.0000000E+04;  0.0000000E+00;  3.9015500E+04; -6.1250489E-02;  0.0000000E+00; -3.1420186E-03;  3.3538374E+03;
  1.2010375E+00;  9.9999998E-03;  1.4175424E-01;8224;  2.1721926E-02;  0.0000000E+00; -3.0442670E-03;  9.9718591E+02;  3.8756225E-01; -2.3314375E+03;3; -8.0573101E+00;  0.0000000E+00;  2.3549509E+00;0; -6.8863332E-02;  2.7191953E+03;  0.0000000E+00;  2.1055113E-01;  4.0000000E+04;  0.0000000E+00;  3.9011902E+04; -6.7658700E-02;  0.0000000E+00; -1.2046323E-03;  3.8919343E+03;
  1.2386169E+00;  9.9999998E-03;  2.0264545E-01;8291;  7.4104918E-03;  0.0000000E+00; -5.0577300E-04;  9.9916486E+02;  4.1428444E-01; -6.9188031E+02;3; -6.2939162E+00;  0.0000000E+00;  2.1717126E+00;0; -1.0475197E-01;  2.3912683E+03;  0.0000000E+00;  1.5956867E+00;  4.0000000E+04;  0.0000000E+00;  3.8946891E+04; -1.2951620E-01;  0.0000000E+00;  2.4764223E-02;  1.0514286E+04;
  1.2386551E+00;  9.9999998E-03;  1.9248490E-01;8290;  9.3429647E-03;  0.0000000E+00; -6.8899419E-04;  9.9889471E+02;  4.1449189E-01; -9.1572540E+02;3; -6.8130980E+00;  0.0000000E+00;  2.1860614E+00;0; -9.8559588E-02;  2.3884319E+03;  0.0000000E+00;  1.2475703E+00;  4.0000000E+04;  0.0000000E+00;  3.8942098E+04; -1.2146672E-01;  0.0000000E+00;  2.2907132E-02;  9.2411973E+03;
  1.2388351E+00;  9.9999998E-03;  2.1285516E-01;8292;  5.4477244E-03;  0.0000000E+00; -3.0891207E-04;  9.9923547E+02;  4.1432998E-01; -6.3341296E+02;3; -5.8100886E+00;  0.0000000E+00;  2.1821525E+00;0; -1.1104313E-01;  2.3906401E+03;  0.0000000E+00;  1.8771166E+00;  4.0000000E+04;  0.0000000E+00;  3.8947691E+04; -1.3748822E-01;  0.0000000E+00;  2.6445091E-02;  1.1118553E+04;
  1.2389674E+00;  9.9999998E-03;  1.8235056E-01;8289;  1.1256181E-02;  0.0000000E+00; -8.0896629E-04;  9.9859186E+02;  4.1494811E-01; -1.1666313E+03;3; -7.3508615E+00;  0.0000000E+00;  2.1644213E+00;0; -9.2362158E-02;  2.3823965E+03;  0.0000000E+00;  9.0747207E-01;  4.0000000E+04;  0.0000000E+00;  3.8938250E+04; -1.1346908E-01;  0.0000000E+00;  2.1106923E-02;  7.7289707E+03;
  1.2394898E+00;  9.9999998E-03;  1.7222489E-01;8288;  1.3164363E-02;  0.0000000E+00; -8.7812054E-04;  9.9832275E+02;  4.1558155E-01; -1.3895876E+03;3; -7.9021983E+00;  0.0000000E+00;  2.1733840E+00;0; -8.6121649E-02;  2.3742502E+03;  0.0000000E+00;  6.1173588E-01;  4.0000000E+04;  0.0000000E+00;  3.8936250E+04; -1.0557412E-01;  0.0000000E+00;  1.9452473E-02;  6.1506553E+03;
  1.2391087E+00;  9.9999998E-03;  2.2308637E-01;8293;  3.4711536E-03;  0.0000000E+00; -2.2583923E-04;  9.9886761E+02;  4.1446277E-01; -9.3814447E+02;3; -5.3111210E+00;  0.0000000E+00;  2.1625690E+00;0; -1.1773027E-01;  2.3882161E+03;  0.0000000E+00;  1.9636334E+00;  4.0000000E+04;  0.0000000E+00;  3.8939719E+04; -1.4509508E-01;  0.0000000E+00;  2.7364809E-02;  1.0233243E+04;
  1.2399261E+00;  9.9999998E-03;  1.6209416E-01;8287;  1.5123208E-02;  0.0000000E+00; -9.6309395E-04;  9.9811957E+02;  4.1609582E-01; -1.5578788E+03;3; -8.5928783E+00;  0.0000000E+00;  2.3549783E+00;0; -7.9817101E-02;  2.3673694E+03;  0.0000000E+00;  3.6702520E-01;  4.0000000E+04;  0.0000000E+00;  3.8936574E+04; -9.7681016E-02;  0.0000000E+00;  1.7863913E-02;  4.5858970E+03;
  1.2404153E+00;  9.9999998E-03;  1.5197515E-01;8286;  1.7126825E-02;  0.0000000E+00; -1.0935988E-03;  9.9799969E+02;  4.1663629E-01; -1.6572339E+03;3; -9.4029922E+00;  0.0000000E+00;  2.6491430E+00;0; -7.3539682E-02;  2.3604631E+03;  0.0000000E+00;  1.5693474E-01;  4.0000000E+04;  0.0000000E+00;  3.8937797E+04; -8.9936726E-02;  0.0000000E+00;  1.6397042E-02;  3.1038308E+03;
  1.2408948E+00;  9.9999998E-03;  8.1128247E-02;8279;  3.2344971E-02;  0.0000000E+00; -2.0341682E-03;  9.9770087E+02;  4.1756320E-01; -1.9047817E+03;3; -1.6797880E+01;  0.0000000E+00;  3.4157205E+00;0; -4.0285677E-02;  2.3491006E+03;  0.0000000E+00; -3.9011616E-01;  4.0000000E+04;  0.0000000E+00;  3.8950535E+04; -4.1086204E-02;  0.0000000E+00;  8.0052594E-04;  1.8233253E+03;
  1.2407787E+00;  9.9999998E-03;  9.1265887E-02;8280;  3.0288465E-02;  0.0000000E+00; -2.0678702E-03;  9.9779120E+02;  4.1734654E-01; -1.8299692E+03;3; -1.5612256E+01;  0.0000000E+00;  3.4744031E+00;0; -4.3255363E-02;  2.3514434E+03;  0.0000000E+00; -4.4307500E-01;  4.0000000E+04;  0.0000000E+00;  3.8949672E+04; -4.7011998E-02;  0.0000000E+00;  3.7566342E-03;  1.7099969E+03;
  1.2410103E+00;  9.9999998E-03;  1.4186777E-01;8285;  1.9179143E-02;  0.0000000E+00; -1.2997992E-03;  9.9798157E+02;  4.1725281E-01; -1.6722456E+03;3; -1.0261595E+01;  0.0000000E+00;  3.0595846E+00;0; -6.7388311E-02;  2.3529648E+03;  0.0000000E+00; -3.1298462E-02;  4.0000000E+04;  0.0000000E+00;  3.8939867E+04; -8.2405053E-02;  0.0000000E+00;  1.5016741E-02;  1.8247838E+03;
  1.2412453E+00;  9.9999998E-03;  7.0976943E-02;8278;  3.4260552E-02;  0.0000000E+00; -1.9439796E-03;  9.9762543E+02;  4.1801330E-01; -1.9672983E+03;3; -1.8095818E+01;  0.0000000E+00;  3.3208420E+00;0; -3.7870254E-02;  2.3441831E+03;  0.0000000E+00; -3.0940798E-01;  4.0000000E+04;  0.0000000E+00;  3.8951188E+04; -3.5740964E-02;  0.0000000E+00; -2.1292907E-03;  2.0822773E+03;
  1.2409347E+00;  9.9999998E-03;  1.0139360E-01;8281;  2.8111290E-02;  0.0000000E+00; -2.0373021E-03;  9.9788855E+02;  4.1739690E-01; -1.7492803E+03;3; -1.4480744E+01;  0.0000000E+00;  3.4784677E+00;0; -4.6837378E-02;  2.3507588E+03;  0.0000000E+00; -4.5478565E-01;  4.0000000E+04;  0.0000000E+00;  3.8948906E+04; -5.3472158E-02;  0.0000000E+00;  6.6347793E-03;  1.6530437E+03;
  1.2396282E+00;  9.9999998E-03;  2.3325574E-01;8294;  1.5164893E-03;  0.0000000E+00; -3.3668469E-04;  9.9816766E+02;  4.1489357E-01; -1.5180775E+03;3; -4.8058729E+00;  0.0000000E+00;  2.1226516E+00;0; -1.2577122E-01;  2.3821714E+03;  0.0000000E+00;  1.6890969E+00;  4.0000000E+04;  0.0000000E+00;  3.8930566E+04; -1.5229133E-01;  0.0000000E+00;  2.6520101E-02;  7.1600371E+03;
  1.2411399E+00;  9.9999998E-03;  1.3176413E-01;8284;  2.1355253E-02;  0.0000000E+00; -1.5496054E-03;  9.9796558E+02;  4.1741323E-01; -1.6854797E+03;3; -1.1380867E+01;  0.0000000E+00;  3.4660604E+00;0; -6.1484694E-02;  2.3506985E+03;  0.0000000E+00; -1.9416684E-01;  4.0000000E+04;  0.0000000E+00;  3.8942930E+04; -7.4841417E-02;  0.0000000E+00;  1.3356721E-02;  1.0787406E+03;
  1.2411541E+00;  9.9999998E-03;  1.2164845E-01;8283;  2.3604888E-02;  0.0000000E+00; -1.7951280E-03;  9.9796515E+02;  4.1746980E-01; -1.6858254E+03;3; -1.2511060E+01;  0.0000000E+00;  3.6415074E+00;0; -5.6003883E-02;  2.3498525E+03;  0.0000000E+00; -3.2647112E-01;  4.0000000E+04;  0.0000000E+00;  3.8945562E+04; -6.7456983E-02;  0.0000000E+00;  1.1453100E-02;  1.1651022E+03;
  1.2411577E+00;  9.9999998E-03;  1.1151967E-01;8282;  2.5866959E-02;  0.0000000E+00; -1.9568827E-03;  9.9795337E+02;  4.1753539E-01; -1.6956029E+03;3; -1.3523348E+01;  0.0000000E+00;  3.4965596E+00;0; -5.1087338E-02;  2.3491592E+03;  0.0000000E+00; -4.1702545E-01;  4.0000000E+04;  0.0000000E+00;  3.8947371E+04; -6.0344644E-02;  0.0000000E+00;  9.2573045E-03;  1.4899086E+03;
  1.2815260E+00;  9.9999998E-03;  1.9258595E-01;8351;  4.0581385E-03;  0.0000000E+00;  4.2286627E-03;  9.9951691E+02;  4.4720826E-01; -4.0023413E+02;3; -7.3259654E+00;  0.0000000E+00;  2.1449989E-01;0; -1.1423477E-01;  2.0569875E+03;  0.0000000E+00;  1.0701793E+00;  4.0000000E+04;  0.0000000E+00;  3.8882684E+04; -1.5237269E-01;  0.0000000E+00;  3.8137920E-02;  9.4505762E+03;
  1.2814227E+00;  9.9999998E-03;  2.0272365E-01;8352;  1.8621328E-03;  0.0000000E+00;  4.7982410E-03;  9.9967169E+02;  4.4693747E-01; -2.7199133E+02;3; -6.6235313E+00;  0.0000000E+00;  2.2777866E-01;0; -1.2115598E-01;  2.0597139E+03;  0.0000000E+00;  1.4594029E+00;  4.0000000E+04;  0.0000000E+00;  3.8887320E+04; -1.6086794E-01;  0.0000000E+00;  3.9711963E-02;  1.1729062E+04;
  1.2821112E+00;  9.9999998E-03;  1.8249382E-01;8350;  6.2323092E-03;  0.0000000E+00;  3.7675595E-03;  9.9937836E+02;  4.4795346E-01; -5.1499585E+02;3; -8.0727911E+00;  0.0000000E+00;  1.7386894E-01;0; -1.0737287E-01;  2.0497170E+03;  0.0000000E+00;  6.4254165E-01;  4.0000000E+04;  0.0000000E+00;  3.8879766E+04; -1.4399493E-01;  0.0000000E+00;  3.6622066E-02;  6.7539351E+03;
  1.2818208E+00;  9.9999998E-03;  2.1292527E-01;8353; -3.8318482E-04;  0.0000000E+00;  5.5567515E-03;  9.9972083E+02;  4.4716230E-01; -2.3130122E+02;3; -5.9300785E+00;  0.0000000E+00;  1.7195858E-01;0; -1.2805337E-01;  2.0575422E+03;  0.0000000E+00;  1.7138582E+00;  4.0000000E+04;  0.0000000E+00;  3.8889863E+04; -1.6939776E-01;  0.0000000E+00;  4.1344382E-02;  1.2871881E+04;
  1.2827873E+00;  9.9999998E-03;  1.7240332E-01;8349;  8.4618302E-03;  0.0000000E+00;  3.3552703E-03;  9.9926318E+02;  4.4876507E-01; -6.1044958E+02;3; -8.8738461E+00;  0.0000000E+00;  1.0697049E-01;0; -1.0034285E-01;  2.0417266E+03;  0.0000000E+00;  2.4187909E-01;  4.0000000E+04;  0.0000000E+00;  3.8878672E+04; -1.3550676E-01;  0.0000000E+00;  3.5163909E-02;  4.1526646E+03;
  1.2831323E+00;  9.9999998E-03;  1.6227457E-01;8348;  1.0802875E-02;  0.0000000E+00;  2.9741153E-03;  9.9914563E+02;  4.4921583E-01; -7.0782916E+02;3; -9.7469273E+00;  0.0000000E+00;  7.0962369E-02;0; -9.2933789E-02;  2.0370681E+03;  0.0000000E+00; -1.0391102E-01;  4.0000000E+04;  0.0000000E+00;  3.8878992E+04; -1.2670542E-01;  0.0000000E+00;  3.3771638E-02;  2.1506208E+03;
  1.2824881E+00;  9.9999998E-03;  2.2316398E-01;8354; -2.6296715E-03;  0.0000000E+00;  6.3401815E-03;  9.9946484E+02;  4.4767353E-01; -4.4334381E+02;3; -5.2313695E+00;  0.0000000E+00;  6.0442973E-02;0; -1.3476722E-01;  2.0524397E+03;  0.0000000E+00;  1.6964073E+00;  4.0000000E+04;  0.0000000E+00;  3.8884508E+04; -1.7763671E-01;  0.0000000E+00;  4.2869493E-02;  1.1850594E+04;
  1.2835534E+00;  9.9999998E-03;  1.5212667E-01;8347;  1.3179787E-02;  0.0000000E+00;  2.6256521E-03;  9.9907288E+02;  4.4969377E-01; -7.6812347E+02;3; -1.0709915E+01;  0.0000000E+00;  6.1893139E-02;0; -8.5411757E-02;  2.0322111E+03;  0.0000000E+00; -3.9707020E-01;  4.0000000E+04;  0.0000000E+00;  3.8879812E+04; -1.1806101E-01;  0.0000000E+00;  3.2649253E-02;  1.6118223E+03;
  1.2841769E+00;  9.9999998E-03;  1.4199518E-01;8346;  1.5581285E-02;  0.0000000E+00;  2.2638505E-03;  9.9905994E+02;  4.5034871E-01; -7.7883917E+02;3; -1.1877338E+01;  0.0000000E+00;  2.0001191E-01;0; -7.7916794E-02;  2.0259805E+03;  0.0000000E+00; -6.2967825E-01;  4.0000000E+04;  0.0000000E+00;  3.8880930E+04; -1.0982569E-01;  0.0000000E+00;  3.1908900E-02;  2.2093916E+03;
  1.2834076E+00;  9.9999998E-03;  2.3335187E-01;8355; -4.8427973E-03;  0.0000000E+00;  7.0196800E-03;  9.9896564E+02;  4.4848630E-01; -8.5696021E+02;3; -4.5226622E+00;  0.0000000E+00; -1.7504525E-01;0; -1.4155963E-01;  2.0445654E+03;  0.0000000E+00;  1.2502030E+00;  4.0000000E+04;  0.0000000E+00;  3.8878164E+04; -1.8542416E-01;  0.0000000E+00;  4.3864537E-02;  8.0384980E+03;
  1.2846223E+00;  9.9999998E-03;  1.3188255E-01;8345;  1.8070975E-02;  0.0000000E+00;  1.8243763E-03;  9.9903900E+02;  4.5081523E-01; -7.9617194E+02;3; -1.3227735E+01;  0.0000000E+00;  5.6504929E-01;0; -7.0402086E-02;  2.0215978E+03;  0.0000000E+00; -7.8679198E-01;  4.0000000E+04;  0.0000000E+00;  3.8881559E+04; -1.0185988E-01;  0.0000000E+00;  3.1457800E-02;  2.5369780E+03;
  1.2848327E+00;  9.9999998E-03;  1.2176928E-01;8344;  2.0665411E-02;  0.0000000E+00;  1.2869566E-03;  9.9896460E+02;  4.5104608E-01; -8.5779962E+02;3; -1.4895217E+01;  0.0000000E+00;  1.1227930E+00;0; -6.3003048E-02;  2.0194158E+03;  0.0000000E+00; -8.6104548E-01;  4.0000000E+04;  0.0000000E+00;  3.8881250E+04; -9.4218746E-02;  0.0000000E+00;  3.1215698E-02;  2.3775530E+03;
  1.2847925E+00;  9.9999998E-03;  1.1165554E-01;8343;  2.3330906E-02;  0.0000000E+00;  7.0293434E-04;  9.9881635E+02;  4.5103458E-01; -9.8061047E+02;3; -1.6647295E+01;  0.0000000E+00;  1.6781175E+00;0; -5.5907175E-02;  2.0194124E+03;  0.0000000E+00; -8.5331303E-01;  4.0000000E+04;  0.0000000E+00;  3.8879914E+04; -8.6968899E-02;  0.0000000E+00;  3.1061722E-02;  1.9795807E+03;
  1.2848692E+00;  9.9999998E-03;  1.0152861E-01;8342;  2.5964458E-02;  0.0000000E+00;  1.7591797E-04;  9.9862897E+02;  4.5116848E-01; -1.1358647E+03;3; -1.8648798E+01;  0.0000000E+00;  2.1507230E+00;0; -4.9288422E-02;  2.0181796E+03;  0.0000000E+00; -7.7406842E-01;  4.0000000E+04;  0.0000000E+00;  3.8877719E+04; -8.0374904E-02;  0.0000000E+00;  3.1086480E-02;  1.8825818E+03;
  1.2852896E+00;  9.9999998E-03;  9.1386169E-02;8341;  2.8491791E-02;  0.0000000E+00; -1.9425165E-04;  9.9845789E+02;  4.5166615E-01; -1.2775885E+03;3; -2.0839085E+01;  0.0000000E+00;  2.2433455E+00;0; -4.3135073E-02;  2.0137633E+03;  0.0000000E+00; -6.4056742E-01;  4.0000000E+04;  0.0000000E+00;  3.8874887E+04; -7.4609026E-02;  0.0000000E+00;  3.1473953E-02;  2.3211877E+03;
  1.2859941E+00;  9.9999998E-03;  8.1233285E-02;8340;  3.0868217E-02;  0.0000000E+00; -3.7497087E-04;  9.9832959E+02;  4.5246860E-01; -1.3839060E+03;3; -2.2984819E+01;  0.0000000E+00;  2.0300908E+00;0; -3.7320253E-02;  2.0067573E+03;  0.0000000E+00; -4.7775021E-01;  4.0000000E+04;  0.0000000E+00;  3.8871945E+04; -6.9663659E-02;  0.0000000E+00;  3.2343406E-02;  2.8328511E+03;
  1.2866448E+00;  9.9999998E-03;  7.1047053E-02;8339;  3.3100456E-02;  0.0000000E+00; -4.2517178E-04;  9.9822742E+02;  4.5322478E-01; -1.4685453E+03;3; -2.5343222E+01;  0.0000000E+00;  1.7726487E+00;0; -3.1823374E-02;  2.0001635E+03;  0.0000000E+00; -3.1539452E-01;  4.0000000E+04;  0.0000000E+00;  3.8869957E+04; -6.5349802E-02;  0.0000000E+00;  3.3526428E-02;  3.0342236E+03;
  1.3272345E+00;  9.9999998E-03;  2.0289567E-01;8413; -6.9759162E-03;  0.0000000E+00;  1.2219352E-02;  9.9705371E+02;  4.8234287E-01; -2.4409502E+03;3; -6.9918199E+00;  0.0000000E+00; -3.7870665E+00;0; -1.4912498E-01;  1.7613242E+03;  0.0000000E+00;  3.6759722E-01;  4.0000000E+04;  0.0000000E+00;  3.8817852E+04; -1.8665060E-01;  0.0000000E+00;  3.7525628E-02;  5.8986108E+03;
  1.3275486E+00;  9.9999998E-03;  1.9277084E-01;8412; -4.3489095E-03;  0.0000000E+00;  1.1830464E-02;  9.9698358E+02;  4.8285130E-01; -2.4990222E+03;3; -8.0357389E+00;  0.0000000E+00; -3.9881134E+00;0; -1.3934334E-01;  1.7576483E+03;  0.0000000E+00;  8.1735849E-02;  4.0000000E+04;  0.0000000E+00;  3.8812785E+04; -1.7578499E-01;  0.0000000E+00;  3.6441658E-02;  4.1127041E+03;
  1.3275765E+00;  9.9999998E-03;  2.1309066E-01;8414; -9.7093750E-03;  0.0000000E+00;  1.2863623E-02;  9.9705011E+02;  4.8250487E-01; -2.4439131E+03;3; -5.9580989E+00;  0.0000000E+00; -3.7796679E+00;0; -1.5857604E-01;  1.7597230E+03;  0.0000000E+00;  5.1314789E-01;  4.0000000E+04;  0.0000000E+00;  3.8822828E+04; -1.9677877E-01;  0.0000000E+00;  3.8202729E-02;  7.0354375E+03;
  1.3284098E+00;  9.9999998E-03;  1.8268275E-01;8411; -1.7886586E-03;  0.0000000E+00;  1.1658786E-02;  9.9693500E+02;  4.8391619E-01; -2.5392673E+03;3; -9.0953455E+00;  0.0000000E+00; -4.3851337E+00;0; -1.2880626E-01;  1.7496433E+03;  0.0000000E+00; -2.4373674E-01;  4.0000000E+04;  0.0000000E+00;  3.8809812E+04; -1.6404663E-01;  0.0000000E+00;  3.5240363E-02;  2.5629766E+03;
  1.3282934E+00;  9.9999998E-03;  2.2334531E-01;8415; -1.2438573E-02;  0.0000000E+00;  1.3563072E-02;  9.9681885E+02;  4.8305830E-01; -2.6355110E+03;3; -4.9366803E+00;  0.0000000E+00; -3.9111209E+00;0; -1.6795577E-01;  1.7550311E+03;  0.0000000E+00;  4.0183130E-01;  4.0000000E+04;  0.0000000E+00;  3.8819961E+04; -2.0624611E-01;  0.0000000E+00;  3.8290337E-02;  6.4541919E+03;
  1.3293705E+00;  9.9999998E-03;  1.7257659E-01;8410;  8.4504910E-04;  0.0000000E+00;  1.1578248E-02;  9.9690967E+02;  4.8507798E-01; -2.5602539E+03;3; -1.0148024E+01;  0.0000000E+00; -4.8919892E+00;0; -1.1697893E-01;  1.7409897E+03;  0.0000000E+00; -5.3457689E-01;  4.0000000E+04;  0.0000000E+00;  3.8808969E+04; -1.5141571E-01;  0.0000000E+00;  3.4436781E-02;  2.1806812E+03;
  1.3300600E+00;  9.9999998E-03;  1.6242266E-01;8409;  3.6292379E-03;  0.0000000E+00;  1.1498660E-02;  9.9690826E+02;  4.8591113E-01; -2.5614390E+03;3; -1.1237801E+01;  0.0000000E+00; -5.4317932E+00;0; -1.0352963E-01;  1.7348568E+03;  0.0000000E+00; -7.6547432E-01;  4.0000000E+04;  0.0000000E+00;  3.8808293E+04; -1.3805234E-01;  0.0000000E+00;  3.4522709E-02;  2.7375859E+03;
  1.3294139E+00;  9.9999998E-03;  2.3355667E-01;8416; -1.5134041E-02;  0.0000000E+00;  1.4122384E-02;  9.9640338E+02;  4.8406407E-01; -2.9796958E+03;3; -3.9348102E+00;  0.0000000E+00; -4.2366571E+00;0; -1.7801185E-01;  1.7471079E+03;  0.0000000E+00; -9.7875349E-02;  4.0000000E+04;  0.0000000E+00;  3.8814684E+04; -2.1494615E-01;  0.0000000E+00;  3.6934298E-02;  4.1069106E+03;
  1.3305144E+00;  9.9999998E-03;  1.5224038E-01;8408;  6.5117734E-03;  0.0000000E+00;  1.1399697E-02;  9.9692029E+02;  4.8642060E-01; -2.5514639E+03;3; -1.2357544E+01;  0.0000000E+00; -5.9739351E+00;0; -8.8210046E-02;  1.7310887E+03;  0.0000000E+00; -9.3598008E-01;  4.0000000E+04;  0.0000000E+00;  3.8808555E+04; -1.2403311E-01;  0.0000000E+00;  3.5823062E-02;  3.2868447E+03;
  1.3309571E+00;  9.9999998E-03;  1.4207828E-01;8407;  9.3982900E-03;  0.0000000E+00;  1.1304018E-02;  9.9691650E+02;  4.8687288E-01; -2.5545747E+03;3; -1.3535596E+01;  0.0000000E+00; -6.5120811E+00;0; -7.0730552E-02;  1.7277449E+03;  0.0000000E+00; -1.0351807E+00;  4.0000000E+04;  0.0000000E+00;  3.8808926E+04; -1.0931355E-01;  0.0000000E+00;  3.8582999E-02;  3.4567439E+03;
  1.3314607E+00;  9.9999998E-03;  1.3196962E-01;8406;  1.2251834E-02;  0.0000000E+00;  1.1194622E-02;  9.9687164E+02;  4.8736712E-01; -2.5917583E+03;3; -1.4772408E+01;  0.0000000E+00; -7.0160370E+00;0; -5.0961457E-02;  1.7239933E+03;  0.0000000E+00; -1.0545969E+00;  4.0000000E+04;  0.0000000E+00;  3.8808605E+04; -9.3974523E-02;  0.0000000E+00;  4.3013066E-02;  3.1872720E+03;
  1.3320059E+00;  9.9999998E-03;  1.2188075E-01;8405;  1.5076236E-02;  0.0000000E+00;  1.1033632E-02;  9.9673859E+02;  4.8791659E-01; -2.7019766E+03;3; -1.5857450E+01;  0.0000000E+00; -7.3142571E+00;0; -2.8915230E-02;  1.7198213E+03;  0.0000000E+00; -9.9505973E-01;  4.0000000E+04;  0.0000000E+00;  3.8806371E+04; -7.8155525E-02;  0.0000000E+00;  4.9240295E-02;  2.6527961E+03;
  1.3323270E+00;  9.9999998E-03;  1.1177159E-01;8404;  1.7902579E-02;  0.0000000E+00;  1.0723284E-02;  9.9652533E+02;  4.8826796E-01; -2.8786611E+03;3; -1.7566605E+01;  0.0000000E+00; -7.4429774E+00;0; -5.4761432E-03;  1.7171039E+03;  0.0000000E+00; -8.6956859E-01;  4.0000000E+04;  0.0000000E+00;  3.8802758E+04; -6.2606983E-02;  0.0000000E+00;  5.7130840E-02;  2.2475872E+03;
  1.3326182E+00;  9.9999998E-03;  1.0162868E-01;8403;  2.0718133E-02;  0.0000000E+00;  1.0279316E-02;  9.9624561E+02;  4.8862877E-01; -3.1104060E+03;3; -1.9567102E+01;  0.0000000E+00; -7.4275422E+00;0;  1.9222714E-02;  1.7143191E+03;  0.0000000E+00; -6.9942182E-01;  4.0000000E+04;  0.0000000E+00;  3.8797398E+04; -4.7366403E-02;  0.0000000E+00;  6.6589117E-02;  2.3654341E+03;
  1.3329877E+00;  9.9999998E-03;  9.1449708E-02;8402;  2.3486393E-02;  0.0000000E+00;  9.7474493E-03;  9.9592816E+02;  4.8911181E-01; -3.3734084E+03;3; -2.1975809E+01;  0.0000000E+00; -7.0546122E+00;0;  4.5060676E-02;  1.7106693E+03;  0.0000000E+00; -5.1203942E-01;  4.0000000E+04;  0.0000000E+00;  3.8791203E+04; -3.2451514E-02;  0.0000000E+00;  7.7512190E-02;  2.8035103E+03;
  1.3333532E+00;  9.9999998E-03;  8.1225641E-02;8401;  2.6196623E-02;  0.0000000E+00;  9.1265980E-03;  9.9561914E+02;  4.8961017E-01; -3.6294485E+03;3; -2.4542934E+01;  0.0000000E+00; -6.8002172E+00;0;  7.1205251E-02;  1.7068890E+03;  0.0000000E+00; -3.3391112E-01;  4.0000000E+04;  0.0000000E+00;  3.8785488E+04; -1.8353531E-02;  0.0000000E+00;  8.9558780E-02;  3.1058845E+03;
  1.3335487E+00;  9.9999998E-03;  7.1001075E-02;8400;  2.8774977E-02;  0.0000000E+00;  8.4041404E-03;  9.9534839E+02;  4.8994255E-01; -3.8537368E+03;3; -2.7105331E+01;  0.0000000E+00; -6.8032818E+00;0;  9.5929615E-02;  1.7042557E+03;  0.0000000E+00; -1.8716969E-01;  4.0000000E+04;  0.0000000E+00;  3.8781551E+04; -6.0468367E-03;  0.0000000E+00;  1.0197645E-01;  3.0634026E+03;
  1.3778632E+00;  9.9999998E-03;  2.0332581E-01;8474; -1.8625848E-02;  0.0000000E+00;  2.6532350E-02;  9.9456061E+02;  5.2110159E-01; -4.5063701E+03;3; -7.8102341E+00;  0.0000000E+00; -1.0266094E+01;0;  4.2836383E-01;  1.5043967E+03;  0.0000000E+00; -1.5189918E+00;  4.0000000E+04;  0.0000000E+00;  3.8719555E+04;  4.2511433E-01;  0.0000000E+00;  3.2495020E-03;  2.2037515E+03;
  1.3782982E+00;  9.9999998E-03;  1.9317727E-01;8473; -1.5304938E-02;  0.0000000E+00;  2.6678717E-02;  9.9475012E+02;  5.2174479E-01; -4.3493398E+03;3; -9.5423088E+00;  0.0000000E+00; -1.0050773E+01;0;  4.5178694E-01;  1.5014805E+03;  0.0000000E+00; -1.4509914E+00;  4.0000000E+04;  0.0000000E+00;  3.8711730E+04;  4.4388303E-01;  0.0000000E+00;  7.9038888E-03;  2.6859062E+03;
  1.3779191E+00;  9.9999998E-03;  2.1351795E-01;8475; -2.1952286E-02;  0.0000000E+00;  2.6496900E-02;  9.9440094E+02;  5.2095258E-01; -4.6386606E+03;3; -6.2224798E+00;  0.0000000E+00; -1.0551999E+01;0;  4.1543776E-01;  1.5043022E+03;  0.0000000E+00; -1.6117781E+00;  4.0000000E+04;  0.0000000E+00;  3.8728168E+04;  4.1731322E-01;  0.0000000E+00; -1.8754657E-03;  2.3071389E+03;
  1.3792295E+00;  9.9999998E-03;  1.8304819E-01;8472; -1.1963638E-02;  0.0000000E+00;  2.6930733E-02;  9.9497980E+02;  5.2289146E-01; -4.1590752E+03;3; -1.1317307E+01;  0.0000000E+00; -1.0172384E+01;0;  4.8739067E-01;  1.4956614E+03;  0.0000000E+00; -1.3655345E+00;  4.0000000E+04;  0.0000000E+00;  3.8704738E+04;  4.7442594E-01;  0.0000000E+00;  1.2964717E-02;  3.1203738E+03;
  1.3784707E+00;  9.9999998E-03;  2.2375485E-01;8476; -2.5273824E-02;  0.0000000E+00;  2.6528219E-02;  9.9416992E+02;  5.2130824E-01; -4.8300098E+03;3; -4.8044195E+00;  0.0000000E+00; -1.0816262E+01;0;  4.1226715E-01;  1.5013137E+03;  0.0000000E+00; -1.7658545E+00;  4.0000000E+04;  0.0000000E+00;  3.8729922E+04;  4.2066339E-01;  0.0000000E+00; -8.3962465E-03;  2.5591111E+03;
  1.3806403E+00;  9.9999998E-03;  1.7292602E-01;8471; -8.5931327E-03;  0.0000000E+00;  2.7325679E-02;  9.9524487E+02;  5.2449566E-01; -3.9394792E+03;3; -1.3175647E+01;  0.0000000E+00; -1.0547828E+01;0;  5.3668523E-01;  1.4872883E+03;  0.0000000E+00; -1.2262632E+00;  4.0000000E+04;  0.0000000E+00;  3.8698117E+04;  5.1730150E-01;  0.0000000E+00;  1.9383758E-02;  3.2252627E+03;
  1.3791945E+00;  9.9999998E-03;  2.3398049E-01;8477; -2.8444044E-02;  0.0000000E+00;  2.6423357E-02;  9.9382678E+02;  5.2189332E-01; -5.1142925E+03;3; -3.5537603E+00;  0.0000000E+00; -1.1086129E+01;0;  4.0832347E-01;  1.4972556E+03;  0.0000000E+00; -2.0203245E+00;  4.0000000E+04;  0.0000000E+00;  3.8723883E+04;  4.2538714E-01;  0.0000000E+00; -1.7063683E-02;  2.9900176E+03;
  1.3820935E+00;  9.9999998E-03;  1.6275819E-01;8470; -5.0818999E-03;  0.0000000E+00;  2.7767394E-02;  9.9551605E+02;  5.2605867E-01; -3.7147966E+03;3; -1.4293227E+01;  0.0000000E+00; -1.1366702E+01;0;  5.8813536E-01;  1.4791494E+03;  0.0000000E+00; -1.0328640E+00;  4.0000000E+04;  0.0000000E+00;  3.8692598E+04;  5.6004691E-01;  0.0000000E+00;  2.8088432E-02;  3.0725837E+03;
  1.3830783E+00;  9.9999998E-03;  1.5251946E-01;8469; -1.4889772E-03;  0.0000000E+00;  2.8137658E-02;  9.9574719E+02;  5.2703810E-01; -3.5232979E+03;3; -1.3629491E+01;  0.0000000E+00; -1.2406674E+01;0;  6.2713295E-01;  1.4741208E+03;  0.0000000E+00; -8.1201047E-01;  4.0000000E+04;  0.0000000E+00;  3.8689543E+04;  5.8762175E-01;  0.0000000E+00;  3.9511226E-02;  2.7354832E+03;
  1.3826143E+00;  9.9999998E-03;  1.3207011E-01;8467;  5.0793230E-03;  0.0000000E+00;  2.7795956E-02;  9.9593414E+02;  5.2636087E-01; -3.3684409E+03;3; -1.5618068E+01;  0.0000000E+00; -1.3314123E+01;0;  6.4363873E-01;  1.4780171E+03;  0.0000000E+00; -4.6701565E-01;  4.0000000E+04;  0.0000000E+00;  3.8695430E+04;  5.7406247E-01;  0.0000000E+00;  6.9576241E-02;  1.5320199E+03;
  1.3830334E+00;  9.9999998E-03;  1.4225893E-01;8468;  1.9804279E-03;  0.0000000E+00;  2.8179610E-02;  9.9588196E+02;  5.2690119E-01; -3.4116487E+03;3; -1.4443917E+01;  0.0000000E+00; -1.2505491E+01;0;  6.3794363E-01;  1.4750483E+03;  0.0000000E+00; -6.1458927E-01;  4.0000000E+04;  0.0000000E+00;  3.8691137E+04;  5.8465123E-01;  0.0000000E+00;  5.3292379E-02;  2.1668037E+03;
  1.3826065E+00;  9.9999998E-03;  1.2194796E-01;8466;  7.9758987E-03;  0.0000000E+00;  2.7307721E-02;  9.9593597E+02;  5.2629006E-01; -3.3669102E+03;3; -1.7348984E+01;  0.0000000E+00; -1.4923523E+01;0;  6.6877449E-01;  1.4783542E+03;  0.0000000E+00; -3.5275593E-01;  4.0000000E+04;  0.0000000E+00;  3.8697824E+04;  5.7944572E-01;  0.0000000E+00;  8.9328766E-02;  1.2217764E+03;
  1.3830030E+00;  9.9999998E-03;  1.1183769E-01;8465;  1.0736940E-02;  0.0000000E+00;  2.6820624E-02;  9.9588184E+02;  5.2670437E-01; -3.4117473E+03;3; -1.9292889E+01;  0.0000000E+00; -1.6526985E+01;0;  7.1230382E-01;  1.4760090E+03;  0.0000000E+00; -2.5217351E-01;  4.0000000E+04;  0.0000000E+00;  3.8697527E+04;  5.9930515E-01;  0.0000000E+00;  1.1299864E-01;  1.4857084E+03;
  1.3834467E+00;  9.9999998E-03;  1.0169610E-01;8464;  1.3492095E-02;  0.0000000E+00;  2.6292495E-02;  9.9575323E+02;  5.2723259E-01; -3.5183101E+03;3; -2.1429382E+01;  0.0000000E+00; -1.7977797E+01;0;  7.6282907E-01;  1.4730284E+03;  0.0000000E+00; -1.5826982E-01;  4.0000000E+04;  0.0000000E+00;  3.8694078E+04;  6.2273717E-01;  0.0000000E+00;  1.4009188E-01;  2.0602488E+03;
  1.3837874E+00;  9.9999998E-03;  9.1494903E-02;8463;  1.6285669E-02;  0.0000000E+00;  2.5736380E-02;  9.9555597E+02;  5.2769911E-01; -3.6817097E+03;3; -2.3691996E+01;  0.0000000E+00; -1.9109568E+01;0;  8.1467593E-01;  1.4703445E+03;  0.0000000E+00; -7.3414803E-02;  4.0000000E+04;  0.0000000E+00;  3.8689113E+04;  6.4485383E-01;  0.0000000E+00;  1.6982213E-01;  2.6980078E+03;
  1.3840945E+00;  9.9999998E-03;  8.1282467E-02;8462;  1.9024067E-02;  0.0000000E+00;  2.5165638E-02;  9.9534869E+02;  5.2816576E-01; -3.8534546E+03;3; -2.6145800E+01;  0.0000000E+00; -2.0050564E+01;0;  8.6775398E-01;  1.4676509E+03;  0.0000000E+00; -3.2478401E-03;  4.0000000E+04;  0.0000000E+00;  3.8683281E+04;  6.6648006E-01;  0.0000000E+00;  2.0127389E-01;  3.2601162E+03;
  1.3844413E+00;  9.9999998E-03;  7.1080878E-02;8461;  2.1570701E-02;  0.0000000E+00;  2.4031343E-02;  9.9517084E+02;  5.2868938E-01; -4.0008057E+03;3; -2.8331755E+01;  0.0000000E+00; -1.9218882E+01;0;  9.2175967E-01;  1.4646403E+03;  0.0000000E+00;  4.6664976E-02;  4.0000000E+04;  0.0000000E+00;  3.8678125E+04;  6.8843102E-01;  0.0000000E+00;  2.3332866E-01;  3.6512078E+03;
  1.4320208E+00;  9.9999998E-03;  2.0376024E-01;8535; -2.5860889E-02;  0.0000000E+00;  5.0540742E-02;  1.0017505E+03;  5.4855788E-01;  1.4502786E+03;3; -8.1789875E+00;  0.0000000E+00; -1.8850931E+01;0;  3.3145821E+00;  1.3796697E+03;  0.0000000E+00; -1.1085591E+00;  4.0000000E+04;  0.0000000E+00;  3.8621730E+04;  3.3289483E+00;  0.0000000E+00; -1.4366132E-02;  5.4134849E+03;
  1.4321144E+00;  9.9999998E-03;  2.1400630E-01;8536; -2.9524129E-02;  0.0000000E+00;  4.9919952E-02;  1.0012851E+03;  5.4848403E-01;  1.0646239E+03;3; -6.6590657E+00;  0.0000000E+00; -1.8831142E+01;0;  3.3363702E+00;  1.3785656E+03;  0.0000000E+00; -1.0787536E+00;  4.0000000E+04;  0.0000000E+00;  3.8625461E+04;  3.3845744E+00;  0.0000000E+00; -4.8204198E-02;  5.2818760E+03;
  1.4327192E+00;  9.9999998E-03;  1.9355097E-01;8534; -2.2173863E-02;  0.0000000E+00;  5.1467497E-02;  1.0022335E+03;  5.4893613E-01;  1.8503513E+03;3; -9.7594252E+00;  0.0000000E+00; -1.8967237E+01;0;  3.3238208E+00;  1.3792096E+03;  0.0000000E+00; -1.1020406E+00;  4.0000000E+04;  0.0000000E+00;  3.8613828E+04;  3.3060119E+00;  0.0000000E+00;  1.7808879E-02;  6.0683604E+03;
  1.4327265E+00;  9.9999998E-03;  2.2428119E-01;8537; -3.3226453E-02;  0.0000000E+00;  4.9397729E-02;  1.0007280E+03;  5.4854774E-01;  6.0312207E+02;3; -5.2288589E+00;  0.0000000E+00; -1.8852476E+01;0;  3.3712773E+00;  1.3766985E+03;  0.0000000E+00; -1.1042415E+00;  4.0000000E+04;  0.0000000E+00;  3.8617852E+04;  3.4571946E+00;  0.0000000E+00; -8.5917301E-02;  6.5432607E+03;
  1.4343696E+00;  9.9999998E-03;  1.8341841E-01;8533; -1.8331235E-02;  0.0000000E+00;  5.2842159E-02;  1.0027813E+03;  5.4970402E-01;  2.3041477E+03;3; -1.1348321E+01;  0.0000000E+00; -1.9248878E+01;0;  3.3731117E+00;  1.3768490E+03;  0.0000000E+00; -1.0051640E+00;  4.0000000E+04;  0.0000000E+00;  3.8604059E+04;  3.3223100E+00;  0.0000000E+00;  5.0801676E-02;  6.7903457E+03;
  1.4338368E+00;  9.9999998E-03;  2.3452948E-01;8538; -3.6933772E-02;  0.0000000E+00;  4.8762411E-02;  1.0000359E+03;  5.4874980E-01;  2.9726484E+01;3; -3.9290211E+00;  0.0000000E+00; -1.8931780E+01;0;  3.4183583E+00;  1.3743813E+03;  0.0000000E+00; -1.3144069E+00;  4.0000000E+04;  0.0000000E+00;  3.8595551E+04;  3.5480452E+00;  0.0000000E+00; -1.2968691E-01;  9.8996328E+03;
  1.4370822E+00;  9.9999998E-03;  1.7340058E-01;8532; -1.4056612E-02;  0.0000000E+00;  5.4885875E-02;  1.0033959E+03;  5.5080044E-01;  2.8133447E+03;3; -1.3166467E+01;  0.0000000E+00; -2.0026966E+01;0;  3.4654400E+00;  1.3727659E+03;  0.0000000E+00; -8.0481064E-01;  4.0000000E+04;  0.0000000E+00;  3.8594406E+04;  3.3782678E+00;  0.0000000E+00;  8.7172292E-02;  7.4028525E+03;
  1.4395647E+00;  9.9999998E-03;  1.6329166E-01;8531; -9.0640048E-03;  0.0000000E+00;  5.7076987E-02;  1.0038984E+03;  5.5160761E-01;  3.2296091E+03;3; -1.6603199E+01;  0.0000000E+00; -2.1436821E+01;0;  3.5200505E+00;  1.3698866E+03;  0.0000000E+00; -5.3145164E-01;  4.0000000E+04;  0.0000000E+00;  3.8585363E+04;  3.3949342E+00;  0.0000000E+00;  1.2511641E-01;  8.0704526E+03;
  1.4404408E+00;  9.9999998E-03;  1.5296772E-01;8530; -1.8616766E-03;  0.0000000E+00;  5.8751643E-02;  1.0042166E+03;  5.5175018E-01;  3.4932932E+03;3; -3.1098495E+01;  0.0000000E+00; -2.4041073E+01;0;  3.4707174E+00;  1.3699353E+03;  0.0000000E+00; -2.3680253E-01;  4.0000000E+04;  0.0000000E+00;  3.8579750E+04;  3.3115981E+00;  0.0000000E+00;  1.5911932E-01;  8.6353213E+03;
  1.4401672E+00;  9.9999998E-03;  1.4260493E-01;8529;  4.9850359E-03;  0.0000000E+00;  5.9445795E-02;  1.0044406E+03;  5.5149078E-01;  3.6788616E+03;3; -4.0908173E+01;  0.0000000E+00; -2.4154484E+01;0;  3.3596087E+00;  1.3716721E+03;  0.0000000E+00;  2.8871022E-02;  4.0000000E+04;  0.0000000E+00;  3.8580215E+04;  3.1701760E+00;  0.0000000E+00;  1.8943262E-01;  8.6617578E+03;
  1.4386302E+00;  9.9999998E-03;  1.2215877E-01;8527;  1.4748100E-02;  0.0000000E+00;  5.9584007E-02;  1.0047258E+03;  5.5073833E-01;  3.9150957E+03;3; -4.5784931E+01;  0.0000000E+00; -2.4556959E+01;0;  3.1143906E+00;  1.3758325E+03;  0.0000000E+00;  3.4741023E-01;  4.0000000E+04;  0.0000000E+00;  3.8592598E+04;  2.8638053E+00;  0.0000000E+00;  2.5058526E-01;  7.6098281E+03;
  1.4393721E+00;  9.9999998E-03;  1.3232830E-01;8528;  9.3637649E-03;  0.0000000E+00;  5.9497546E-02;  1.0046160E+03;  5.5107087E-01;  3.8241375E+03;3; -4.2654682E+01;  0.0000000E+00; -2.4172384E+01;0;  3.2297707E+00;  1.3740039E+03;  0.0000000E+00;  2.2713432E-01;  4.0000000E+04;  0.0000000E+00;  3.8586008E+04;  3.0109882E+00;  0.0000000E+00;  2.1878247E-01;  8.2142041E+03;
  1.4385693E+00;  9.9999998E-03;  1.1202770E-01;8526;  2.7503649E-02;  0.0000000E+00;  6.0410574E-02;  1.0048410E+03;  5.5077118E-01;  4.0104971E+03;3; -5.0936646E+01;  0.0000000E+00; -2.3301645E+01;0;  3.0417423E+00;  1.3759127E+03;  0.0000000E+00;  4.0041375E-01;  4.0000000E+04;  0.0000000E+00;  3.8597406E+04;  2.7532544E+00;  0.0000000E+00;  2.8848791E-01;  7.0916606E+03;
  1.4387517E+00;  9.9999998E-03;  1.0187412E-01;8525;  4.2927891E-02;  0.0000000E+00;  6.1123554E-02;  1.0049004E+03;  5.5098271E-01;  4.0596785E+03;3; -4.8404564E+01;  0.0000000E+00; -2.1895742E+01;0;  2.9889469E+00;  1.3750854E+03;  0.0000000E+00;  4.0637797E-01;  4.0000000E+04;  0.0000000E+00;  3.8599086E+04;  2.6582115E+00;  0.0000000E+00;  3.3073547E-01;  6.7774136E+03;
  1.4390914E+00;  9.9999998E-03;  9.1704197E-02;8524;  5.7670791E-02;  0.0000000E+00;  6.0089268E-02;  1.0049161E+03;  5.5131811E-01;  4.0727136E+03;3; -4.5028107E+01;  0.0000000E+00; -5.5721388E+00;0;  2.9496810E+00;  1.3736691E+03;  0.0000000E+00;  3.8296747E-01;  4.0000000E+04;  0.0000000E+00;  3.8598457E+04;  2.5742164E+00;  0.0000000E+00;  3.7546465E-01;  6.6832417E+03;
  1.4395019E+00;  9.9999998E-03;  8.1516527E-02;8523;  7.0305765E-02;  0.0000000E+00;  5.3537428E-02;  1.0049020E+03;  5.5169845E-01;  4.0610596E+03;3; -4.1843941E+01;  0.0000000E+00;  2.4963057E+00;0;  2.9176552E+00;  1.3719492E+03;  0.0000000E+00;  3.4183893E-01;  4.0000000E+04;  0.0000000E+00;  3.8596000E+04;  2.4978585E+00;  0.0000000E+00;  4.1979665E-01;  6.7373589E+03;
  1.4399130E+00;  9.9999998E-03;  7.1316898E-02;8522;  8.0311030E-02;  0.0000000E+00;  4.6873443E-02;  1.0048912E+03;  5.5205709E-01;  4.0521699E+03;3; -3.8908821E+01;  0.0000000E+00;  1.9923772E+00;0;  2.8902047E+00;  1.3702335E+03;  0.0000000E+00;  2.8976542E-01;  4.0000000E+04;  0.0000000E+00;  3.8593988E+04;  2.4275274E+00;  0.0000000E+00;  4.6267727E-01;  6.8130854E+03;
  1.4882423E+00;  9.9999998E-03;  2.1388029E-01;8597;  4.5603603E-01;  0.0000000E+00;  1.4586887E-01;  1.0025887E+03;  5.2981150E-01;  2.1444563E+03;3; -2.2506113E+01;  0.0000000E+00; -2.7026179E+00;0;  4.7804956E+00;  1.4822073E+03;  0.0000000E+00;  8.5469824E-01;  4.0000000E+04;  0.0000000E+00;  3.8608406E+04;  4.6702437E+00;  0.0000000E+00;  1.1025198E-01;  5.3816987E+03;
  1.4884065E+00;  9.9999998E-03;  2.0369898E-01;8596;  4.5336723E-01;  0.0000000E+00;  1.4532384E-01;  1.0030008E+03;  5.2963263E-01;  2.4858503E+03;3; -1.3536700E+01;  0.0000000E+00; -2.4624159E+00;0;  4.6334352E+00;  1.4844423E+03;  0.0000000E+00;  9.2635918E-01;  4.0000000E+04;  0.0000000E+00;  3.8605281E+04;  4.4849138E+00;  0.0000000E+00;  1.4852142E-01;  4.8250239E+03;
  1.4889249E+00;  9.9999998E-03;  2.2409578E-01;8598;  4.6039906E-01;  0.0000000E+00;  1.4566454E-01;  1.0021970E+03;  5.2948076E-01;  1.8199470E+03;3; -3.0221642E+01;  0.0000000E+00; -2.2539659E+00;0;  4.9118938E+00;  1.4826705E+03;  0.0000000E+00;  5.7421070E-01;  4.0000000E+04;  0.0000000E+00;  3.8606875E+04;  4.8282137E+00;  0.0000000E+00;  8.3680287E-02;  6.9889912E+03;
  1.4894897E+00;  9.9999998E-03;  1.9357362E-01;8595;  4.5165673E-01;  0.0000000E+00;  1.4416113E-01;  1.0034717E+03;  5.2905315E-01;  2.8760261E+03;3; -3.2432027E+00;  0.0000000E+00; -1.1180731E+00;0;  4.4635139E+00;  1.4887166E+03;  0.0000000E+00;  8.9330149E-01;  4.0000000E+04;  0.0000000E+00;  3.8600352E+04;  4.2677917E+00;  0.0000000E+00;  1.9572197E-01;  4.9999966E+03;
  1.4901066E+00;  9.9999998E-03;  2.3432368E-01;8599;  4.6632120E-01;  0.0000000E+00;  1.4486399E-01;  1.0017625E+03;  5.2878529E-01;  1.4600834E+03;3; -3.6704956E+01;  0.0000000E+00; -1.5152808E+00;0;  5.0410585E+00;  1.4851555E+03;  0.0000000E+00; -7.1610145E-02;  4.0000000E+04;  0.0000000E+00;  3.8595820E+04;  4.9700470E+00;  0.0000000E+00;  7.1011744E-02;  1.0011150E+04;
  1.4912876E+00;  9.9999998E-03;  1.8349867E-01;8594;  4.4920880E-01;  0.0000000E+00;  1.4214709E-01;  1.0039689E+03;  5.2824295E-01;  3.2879233E+03;3;  8.0718222E+00;  0.0000000E+00;  1.3837377E+00;0;  4.2708106E+00;  1.4940789E+03;  0.0000000E+00;  8.1220996E-01;  4.0000000E+04;  0.0000000E+00;  3.8595168E+04;  4.0230656E+00;  0.0000000E+00;  2.4774510E-01;  5.4931460E+03;
  1.4933666E+00;  9.9999998E-03;  1.7341341E-01;8593;  4.4441962E-01;  0.0000000E+00;  1.3790089E-01;  1.0043941E+03;  5.2733654E-01;  3.6400713E+03;3;  1.9647558E+01;  0.0000000E+00;  5.0418577E+00;0;  4.0652409E+00;  1.4996920E+03;  0.0000000E+00;  7.1129823E-01;  4.0000000E+04;  0.0000000E+00;  3.8589707E+04;  3.7654374E+00;  0.0000000E+00;  2.9980350E-01;  6.1238750E+03;
  1.4951138E+00;  9.9999998E-03;  1.6322204E-01;8592;  4.3604228E-01;  0.0000000E+00;  1.3047825E-01;  1.0046020E+03;  5.2645558E-01;  3.8122888E+03;3;  3.0323925E+01;  0.0000000E+00;  7.5836177E+00;0;  3.8681419E+00;  1.5046560E+03;  0.0000000E+00;  6.0035998E-01;  4.0000000E+04;  0.0000000E+00;  3.8584156E+04;  3.5210199E+00;  0.0000000E+00;  3.4712198E-01;  6.8092671E+03;
  1.4945455E+00;  9.9999998E-03;  8.1538096E-02;8584;  3.4865937E-01;  0.0000000E+00;  7.5707801E-02;  1.0028835E+03;  5.2670109E-01;  2.3886570E+03;3;  7.5424377E+01;  0.0000000E+00;  4.9934521E+00;0;  2.9082632E+00;  1.4969966E+03;  0.0000000E+00;  3.3582145E-01;  4.0000000E+04;  0.0000000E+00;  3.8614699E+04;  2.3313603E+00;  0.0000000E+00;  5.7690293E-01;  3.3879395E+03;
  1.4949356E+00;  9.9999998E-03;  7.1370162E-02;8583;  3.4000650E-01;  0.0000000E+00;  6.6854574E-02;  1.0028077E+03;  5.2685553E-01;  2.3259473E+03;3;  7.8624657E+01;  0.0000000E+00;  4.3344793E+00;0;  2.8057175E+00;  1.4957777E+03;  0.0000000E+00;  2.8477618E-01;  4.0000000E+04;  0.0000000E+00;  3.8615781E+04;  2.2024238E+00;  0.0000000E+00;  6.0329354E-01;  2.7720066E+03;
  1.4943318E+00;  9.9999998E-03;  9.1682434E-02;8585;  3.5782453E-01;  0.0000000E+00;  8.3732650E-02;  1.0029957E+03;  5.2647173E-01;  2.4815850E+03;3;  7.1806671E+01;  0.0000000E+00;  5.4333925E+00;0;  3.0156112E+00;  1.4986591E+03;  0.0000000E+00;  3.7376490E-01;  4.0000000E+04;  0.0000000E+00;  3.8613207E+04;  2.4664392E+00;  0.0000000E+00;  5.4917181E-01;  4.2082007E+03;
  1.4963773E+00;  9.9999998E-03;  1.5292914E-01;8591;  4.2534837E-01;  0.0000000E+00;  1.2110022E-01;  1.0045781E+03;  5.2568102E-01;  3.7925320E+03;3;  3.9995083E+01;  0.0000000E+00;  7.5638123E+00;0;  3.6865366E+00;  1.5084958E+03;  0.0000000E+00;  4.9845773E-01;  4.0000000E+04;  0.0000000E+00;  3.8580902E+04;  3.2992656E+00;  0.0000000E+00;  3.8727096E-01;  7.2394414E+03;
  1.4943748E+00;  9.9999998E-03;  1.0180711E-01;8586;  3.6752364E-01;  0.0000000E+00;  9.0671644E-02;  1.0031519E+03;  5.2617341E-01;  2.6110513E+03;3;  6.7838493E+01;  0.0000000E+00;  5.6579962E+00;0;  3.1238313E+00;  1.5007653E+03;  0.0000000E+00;  3.9411533E-01;  4.0000000E+04;  0.0000000E+00;  3.8609688E+04;  2.6024880E+00;  0.0000000E+00;  5.2134317E-01;  5.0669858E+03;
  1.4948062E+00;  9.9999998E-03;  1.1192127E-01;8587;  3.7780085E-01;  0.0000000E+00;  9.6362516E-02;  1.0033740E+03;  5.2582741E-01;  2.7950278E+03;3;  6.3687473E+01;  0.0000000E+00;  5.6937881E+00;0;  3.2263641E+00;  1.5033716E+03;  0.0000000E+00;  3.9649469E-01;  4.0000000E+04;  0.0000000E+00;  3.8604000E+04;  2.7317071E+00;  0.0000000E+00;  4.9465716E-01;  5.7839907E+03;
  1.4956679E+00;  9.9999998E-03;  1.2206133E-01;8588;  3.8901016E-01;  0.0000000E+00;  1.0124308E-01;  1.0036835E+03;  5.2544838E-01;  3.0514878E+03;3;  5.9445599E+01;  0.0000000E+00;  5.6926422E+00;0;  3.3188868E+00;  1.5064008E+03;  0.0000000E+00;  3.8833085E-01;  4.0000000E+04;  0.0000000E+00;  3.8596207E+04;  2.8490872E+00;  0.0000000E+00;  4.6979946E-01;  6.3201274E+03;
  1.4969696E+00;  9.9999998E-03;  1.4258814E-01;8590;  4.1360828E-01;  0.0000000E+00;  1.1263873E-01;  1.0043818E+03;  5.2518994E-01;  3.6299805E+03;3;  4.8449696E+01;  0.0000000E+00;  6.5624781E+00;0;  3.5297649E+00;  1.5102681E+03;  0.0000000E+00;  4.2474017E-01;  4.0000000E+04;  0.0000000E+00;  3.8582484E+04;  3.1101820E+00;  0.0000000E+00;  4.1958284E-01;  7.1771636E+03;
  1.4965885E+00;  9.9999998E-03;  1.3228057E-01;8589;  4.0112025E-01;  0.0000000E+00;  1.0624677E-01;  1.0040513E+03;  5.2516907E-01;  3.3561389E+03;3;  5.4716499E+01;  0.0000000E+00;  5.8512864E+00;0;  3.4126978E+00;  1.5091489E+03;  0.0000000E+00;  3.8993528E-01;  4.0000000E+04;  0.0000000E+00;  3.8588207E+04;  2.9669428E+00;  0.0000000E+00;  4.4575498E-01;  6.7882407E+03;
  1.5385196E+00;  9.9999998E-03;  2.0343284E-01;8657;  5.5551982E-01;  0.0000000E+00;  1.0902463E-01;  1.0059560E+03;  4.8689097E-01;  4.9335259E+03;3;  6.2756935E+01;  0.0000000E+00;  3.0063166E+01;0;  2.2373617E+00;  1.7646682E+03;  0.0000000E+00;  2.3685749E+00;  4.0000000E+04;  0.0000000E+00;  3.8642879E+04;  1.9117801E+00;  0.0000000E+00;  3.2558164E-01;  2.0888020E+03;
  1.5386864E+00;  9.9999998E-03;  2.1358266E-01;8658;  5.7704103E-01;  0.0000000E+00;  1.1416622E-01;  1.0057250E+03;  4.8697242E-01;  4.7422534E+03;3;  6.2040939E+01;  0.0000000E+00;  3.2195782E+01;0;  2.3585787E+00;  1.7639198E+03;  0.0000000E+00;  1.9920040E+00;  4.0000000E+04;  0.0000000E+00;  3.8640039E+04;  2.0574775E+00;  0.0000000E+00;  3.0110121E-01;  3.9037563E+03;
  1.5390741E+00;  9.9999998E-03;  1.9327523E-01;8656;  5.3471965E-01;  0.0000000E+00;  1.0346900E-01;  1.0061730E+03;  4.8626664E-01;  5.1133335E+03;3;  6.3814400E+01;  0.0000000E+00;  2.8153088E+01;0;  2.0896494E+00;  1.7686525E+03;  0.0000000E+00;  2.4583607E+00;  4.0000000E+04;  0.0000000E+00;  3.8646398E+04;  1.7373424E+00;  0.0000000E+00;  3.5230711E-01;  6.7589703E+02;
  1.5394491E+00;  9.9999998E-03;  2.2375371E-01;8659;  5.9924799E-01;  0.0000000E+00;  1.1961713E-01;  1.0055107E+03;  4.8651838E-01;  4.5647002E+03;3;  6.2170513E+01;  0.0000000E+00;  3.6214714E+01;0;  2.4593287E+00;  1.7663907E+03;  0.0000000E+00;  1.2178245E+00;  4.0000000E+04;  0.0000000E+00;  3.8637004E+04;  2.1747110E+00;  0.0000000E+00;  2.8461760E-01;  6.3215288E+03;
  1.5406621E+00;  9.9999998E-03;  2.3395604E-01;8660;  6.2166601E-01;  0.0000000E+00;  1.2636656E-01;  1.0052733E+03;  4.8560500E-01;  4.3679854E+03;3;  6.3071491E+01;  0.0000000E+00;  4.1732059E+01;0;  2.5516331E+00;  1.7718510E+03;  0.0000000E+00; -1.2842092E-01;  4.0000000E+04;  0.0000000E+00;  3.8628867E+04;  2.2654145E+00;  0.0000000E+00;  2.8621858E-01;  1.0233301E+04;
  1.5405209E+00;  9.9999998E-03;  1.8314165E-01;8655;  5.1451659E-01;  0.0000000E+00;  9.6922249E-02;  1.0062769E+03;  4.8508701E-01;  5.1993218E+03;3;  6.5493935E+01;  0.0000000E+00;  2.6820730E+01;0;  1.9107726E+00;  1.7760021E+03;  0.0000000E+00;  2.3394368E+00;  4.0000000E+04;  0.0000000E+00;  3.8648691E+04;  1.5340478E+00;  0.0000000E+00;  3.7672475E-01;  2.1662460E+02;
  1.5425777E+00;  9.9999998E-03;  1.7304382E-01;8654;  4.9471137E-01;  0.0000000E+00;  8.9286447E-02;  1.0062323E+03;  4.8359710E-01;  5.1623618E+03;3;  6.7554436E+01;  0.0000000E+00;  2.5466639E+01;0;  1.7180886E+00;  1.7849740E+03;  0.0000000E+00;  2.0758467E+00;  4.0000000E+04;  0.0000000E+00;  3.8649695E+04;  1.3237695E+00;  0.0000000E+00;  3.9431921E-01;  5.5168683E+02;
  1.5446945E+00;  9.9999998E-03;  1.6291925E-01;8653;  4.7501442E-01;  0.0000000E+00;  8.1074469E-02;  1.0059575E+03;  4.8209128E-01;  4.9347271E+03;3;  6.9454514E+01;  0.0000000E+00;  2.3746035E+01;0;  1.5372007E+00;  1.7934916E+03;  0.0000000E+00;  1.7221329E+00;  4.0000000E+04;  0.0000000E+00;  3.8650875E+04;  1.1343738E+00;  0.0000000E+00;  4.0282688E-01;  5.2794067E+02;
  1.5445170E+00;  9.9999998E-03;  8.1473149E-02;8645;  3.5271245E-01;  0.0000000E+00;  4.0783010E-02;  1.0006292E+03;  4.8223028E-01;  5.2117059E+02;3;  8.2818680E+01;  0.0000000E+00;  1.1108130E+01;0;  9.8902905E-01;  1.7723085E+03;  0.0000000E+00;  2.6834154E-01;  4.0000000E+04;  0.0000000E+00;  3.8703754E+04;  5.7444727E-01;  0.0000000E+00;  4.1458175E-01;  7.8674355E+03;
  1.5444778E+00;  9.9999998E-03;  9.1572836E-02;8646;  3.6396974E-01;  0.0000000E+00;  4.5622014E-02;  1.0010359E+03;  4.8194543E-01;  8.5808508E+02;3;  8.0868088E+01;  0.0000000E+00;  1.2686995E+01;0;  1.0396848E+00;  1.7758090E+03;  0.0000000E+00;  2.8069618E-01;  4.0000000E+04;  0.0000000E+00;  3.8700133E+04;  6.2978041E-01;  0.0000000E+00;  4.0990430E-01;  7.5106709E+03;
  1.5447713E+00;  9.9999998E-03;  7.1343608E-02;8644;  3.4248894E-01;  0.0000000E+00;  3.5674047E-02;  1.0003265E+03;  4.8238102E-01;  2.7045950E+02;3;  8.4659752E+01;  0.0000000E+00;  9.5136223E+00;0;  9.3829906E-01;  1.7700120E+03;  0.0000000E+00;  2.4925396E-01;  4.0000000E+04;  0.0000000E+00;  3.8704727E+04;  5.1966256E-01;  0.0000000E+00;  4.1863647E-01;  7.9387773E+03;
  1.5447648E+00;  9.9999998E-03;  1.0165492E-01;8647;  3.7618387E-01;  0.0000000E+00;  5.0022915E-02;  1.0015734E+03;  4.8150089E-01;  1.3033206E+03;3;  7.8987534E+01;  0.0000000E+00;  1.4184749E+01;0;  1.0858370E+00;  1.7806997E+03;  0.0000000E+00;  2.9982066E-01;  4.0000000E+04;  0.0000000E+00;  3.8693332E+04;  6.8094820E-01;  0.0000000E+00;  4.0488878E-01;  6.7690601E+03;
  1.5453846E+00;  9.9999998E-03;  1.1173252E-01;8648;  3.8945800E-01;  0.0000000E+00;  5.3969935E-02;  1.0022292E+03;  4.8095095E-01;  1.8465074E+03;3;  7.7295509E+01;  0.0000000E+00;  1.5836886E+01;0;  1.1261189E+00;  1.7868081E+03;  0.0000000E+00;  3.4960896E-01;  4.0000000E+04;  0.0000000E+00;  3.8684211E+04;  7.2572035E-01;  0.0000000E+00;  4.0039861E-01;  5.5622178E+03;
  1.5464007E+00;  9.9999998E-03;  1.5269923E-01;8652;  4.5569995E-01;  0.0000000E+00;  7.3300302E-02;  1.0054297E+03;  4.8078403E-01;  4.4975649E+03;3;  7.0648773E+01;  0.0000000E+00;  2.1914427E+01;0;  1.3848195E+00;  1.8000378E+03;  0.0000000E+00;  1.3301252E+00;  4.0000000E+04;  0.0000000E+00;  3.8652586E+04;  9.8155582E-01;  0.0000000E+00;  4.0326372E-01;  6.7050098E+02;
  1.5462954E+00;  9.9999998E-03;  1.2184807E-01;8649;  4.0389723E-01;  0.0000000E+00;  5.7634648E-02;  1.0029930E+03;  4.8034719E-01;  2.4791519E+03;3;  7.5611374E+01;  0.0000000E+00;  1.7478542E+01;0;  1.1609364E+00;  1.7937037E+03;  0.0000000E+00;  4.6157458E-01;  4.0000000E+04;  0.0000000E+00;  3.8673664E+04;  7.6372391E-01;  0.0000000E+00;  3.9721245E-01;  4.0045630E+03;
  1.5471327E+00;  9.9999998E-03;  1.4237435E-01;8651;  4.3711409E-01;  0.0000000E+00;  6.6868313E-02;  1.0046870E+03;  4.8006645E-01;  3.8823853E+03;3;  7.2040466E+01;  0.0000000E+00;  2.0263906E+01;0;  1.2775383E+00;  1.8020109E+03;  0.0000000E+00;  9.5802420E-01;  4.0000000E+04;  0.0000000E+00;  3.8656824E+04;  8.7752533E-01;  0.0000000E+00;  4.0001300E-01;  1.2738945E+03;
  1.5470166E+00;  9.9999998E-03;  1.3206208E-01;8650;  4.1974002E-01;  0.0000000E+00;  6.1737567E-02;  1.0038398E+03;  4.7996387E-01;  3.1806184E+03;3;  7.3778839E+01;  0.0000000E+00;  1.8818077E+01;0;  1.2064260E+00;  1.7994624E+03;  0.0000000E+00;  6.6150451E-01;  4.0000000E+04;  0.0000000E+00;  3.8664246E+04;  8.0928975E-01;  0.0000000E+00;  3.9713627E-01;  2.4302766E+03;
  1.5845883E+00;  9.9999998E-03;  2.0321324E-01;8718;  5.6158853E-01;  0.0000000E+00;  4.2712457E-02;  1.0011633E+03;  4.3962675E-01;  9.6339337E+02;3;  7.6513199E+01;  0.0000000E+00;  5.0076000E+01;0;  6.5578794E-01;  2.1396934E+03;  0.0000000E+00;  2.6780150E+00;  4.0000000E+04;  0.0000000E+00;  3.8704434E+04;  3.0893767E-01;  0.0000000E+00;  3.4685025E-01;  6.0757769E+03;
  1.5850924E+00;  9.9999998E-03;  1.9306129E-01;8717;  5.3950590E-01;  0.0000000E+00;  3.6738601E-02;  1.0014340E+03;  4.3890414E-01;  1.1876028E+03;3;  7.6008873E+01;  0.0000000E+00;  4.8069340E+01;0;  5.9564340E-01;  2.1459006E+03;  0.0000000E+00;  2.8697939E+00;  4.0000000E+04;  0.0000000E+00;  3.8712020E+04;  2.6142222E-01;  0.0000000E+00;  3.3422118E-01;  6.7715337E+03;
  1.5850288E+00;  9.9999998E-03;  2.1335281E-01;8719;  5.8343011E-01;  0.0000000E+00;  4.6492726E-02;  1.0008282E+03;  4.3955216E-01;  6.8586578E+02;3;  7.7801056E+01;  0.0000000E+00;  5.2070198E+01;0;  7.0449513E-01;  2.1398616E+03;  0.0000000E+00;  2.1321709E+00;  4.0000000E+04;  0.0000000E+00;  3.8698457E+04;  3.5043323E-01;  0.0000000E+00;  3.5406190E-01;  6.0031138E+03;
  1.5864662E+00;  9.9999998E-03;  1.8293518E-01;8716;  5.1750553E-01;  0.0000000E+00;  2.9519446E-02;  1.0015366E+03;  4.3758500E-01;  1.2725989E+03;3;  7.6297852E+01;  0.0000000E+00;  4.5103214E+01;0;  5.2954292E-01;  2.1568928E+03;  0.0000000E+00;  2.8096154E+00;  4.0000000E+04;  0.0000000E+00;  3.8717234E+04;  2.1575332E-01;  0.0000000E+00;  3.1378958E-01;  7.3553979E+03;
  1.5863049E+00;  9.9999998E-03;  2.2349691E-01;8720;  6.0525322E-01;  0.0000000E+00;  4.8030868E-02;  1.0005214E+03;  4.3870267E-01;  4.3183490E+02;3;  7.9700584E+01;  0.0000000E+00;  5.3482582E+01;0;  7.3902118E-01;  2.1464683E+03;  0.0000000E+00;  1.0912536E+00;  4.0000000E+04;  0.0000000E+00;  3.8695324E+04;  3.8076633E-01;  0.0000000E+00;  3.5825485E-01;  7.6802021E+03;
  1.5884830E+00;  9.9999998E-03;  1.7285678E-01;8715;  4.9577072E-01;  0.0000000E+00;  2.1980939E-02;  1.0014242E+03;  4.3590850E-01;  1.1794858E+03;3;  7.6605904E+01;  0.0000000E+00;  4.2457066E+01;0;  4.6343800E-01;  2.1704883E+03;  0.0000000E+00;  2.5857496E+00;  4.0000000E+04;  0.0000000E+00;  3.8719758E+04;  1.7921668E-01;  0.0000000E+00;  2.8422132E-01;  7.6460605E+03;
  1.5881840E+00;  9.9999998E-03;  2.3366186E-01;8721;  6.2724495E-01;  0.0000000E+00;  4.7901757E-02;  1.0003273E+03;  4.3725750E-01;  2.7100473E+02;3;  8.2132912E+01;  0.0000000E+00;  5.4996758E+01;0;  7.5925928E-01;  2.1584734E+03;  0.0000000E+00; -6.4823717E-01;  4.0000000E+04;  0.0000000E+00;  3.8692816E+04;  3.9841783E-01;  0.0000000E+00;  3.6084145E-01;  1.2957258E+04;
  1.5906471E+00;  9.9999998E-03;  1.6276743E-01;8714;  4.7444886E-01;  0.0000000E+00;  1.5062393E-02;  1.0010432E+03;  4.3420893E-01;  8.6394537E+02;3;  7.6803612E+01;  0.0000000E+00;  3.9929230E+01;0;  4.0457779E-01;  2.1835007E+03;  0.0000000E+00;  2.2725830E+00;  4.0000000E+04;  0.0000000E+00;  3.8720617E+04;  1.5734436E-01;  0.0000000E+00;  2.4723344E-01;  7.7608770E+03;
  1.5922817E+00;  9.9999998E-03;  1.5257908E-01;8713;  4.5378715E-01;  0.0000000E+00;  9.8465281E-03;  1.0003539E+03;  4.3289354E-01;  2.9311276E+02;3;  7.7008720E+01;  0.0000000E+00;  3.6726013E+01;0;  3.5835922E-01;  2.1920212E+03;  0.0000000E+00;  1.9171788E+00;  4.0000000E+04;  0.0000000E+00;  3.8721953E+04;  1.5016477E-01;  0.0000000E+00;  2.0819446E-01;  7.9312344E+03;
  1.5913478E+00;  9.9999998E-03;  9.1500886E-02;8707;  3.5670680E-01;  0.0000000E+00;  4.0253620E-03;  9.9337122E+02;  4.3354762E-01; -5.4897485E+03;3;  7.8969330E+01;  0.0000000E+00;  2.0864603E+01;0;  2.1702772E-01;  2.1564292E+03;  0.0000000E+00;  5.1768959E-01;  4.0000000E+04;  0.0000000E+00;  3.8763250E+04;  1.4520904E-01;  0.0000000E+00;  7.1818672E-02;  1.3871290E+04;
  1.5913749E+00;  9.9999998E-03;  8.1388287E-02;8706;  3.4500843E-01;  0.0000000E+00;  3.5186759E-03;  9.9264478E+02;  4.3376201E-01; -6.0913276E+03;3;  7.9990883E+01;  0.0000000E+00;  1.8911867E+01;0;  2.0298082E-01;  2.1514614E+03;  0.0000000E+00;  4.4216442E-01;  4.0000000E+04;  0.0000000E+00;  3.8768570E+04;  1.4488164E-01;  0.0000000E+00;  5.8099180E-02;  1.4592642E+04;
  1.5930800E+00;  9.9999998E-03;  1.4230011E-01;8712;  4.3409780E-01;  0.0000000E+00;  6.5697380E-03;  9.9935846E+02;  4.3215951E-01; -5.3128290E+02;3;  7.6647545E+01;  0.0000000E+00;  3.3328083E+01;0;  3.2355729E-01;  2.1941030E+03;  0.0000000E+00;  1.5530413E+00;  4.0000000E+04;  0.0000000E+00;  3.8724465E+04;  1.5116844E-01;  0.0000000E+00;  1.7238885E-01;  8.3450518E+03;
  1.5915971E+00;  9.9999998E-03;  1.0159486E-01;8708;  3.6948609E-01;  0.0000000E+00;  4.2280005E-03;  9.9434149E+02;  4.3317831E-01; -4.6861699E+03;3;  7.8264717E+01;  0.0000000E+00;  2.2544466E+01;0;  2.3373151E-01;  2.1636453E+03;  0.0000000E+00;  6.1316830E-01;  4.0000000E+04;  0.0000000E+00;  3.8755457E+04;  1.4784710E-01;  0.0000000E+00;  8.5884415E-02;  1.2775772E+04;
  1.5915684E+00;  9.9999998E-03;  7.1252525E-02;8705;  3.3437449E-01;  0.0000000E+00;  2.8197307E-03;  9.9214709E+02;  4.3387088E-01; -6.5034971E+03;3;  8.1379311E+01;  0.0000000E+00;  1.7074648E+01;0;  1.9192582E-01;  2.1482859E+03;  0.0000000E+00;  3.7205008E-01;  4.0000000E+04;  0.0000000E+00;  3.8770199E+04;  1.4688516E-01;  0.0000000E+00;  4.5040675E-02;  1.4874529E+04;
  1.5920836E+00;  9.9999998E-03;  1.1169645E-01;8709;  3.8358161E-01;  0.0000000E+00;  4.2561367E-03;  9.9551202E+02;  4.3270996E-01; -3.7167805E+03;3;  7.7777946E+01;  0.0000000E+00;  2.4925476E+01;0;  2.5252435E-01;  2.1725969E+03;  0.0000000E+00;  7.4973404E-01;  4.0000000E+04;  0.0000000E+00;  3.8746062E+04;  1.5121859E-01;  0.0000000E+00;  1.0130575E-01;  1.1455605E+04;
  1.5931147E+00;  9.9999998E-03;  1.3202994E-01;8711;  4.1570961E-01;  0.0000000E+00;  4.8903110E-03;  9.9813251E+02;  4.3200427E-01; -1.5465597E+03;3;  7.6434097E+01;  0.0000000E+00;  2.9909843E+01;0;  2.9630262E-01;  2.1901089E+03;  0.0000000E+00;  1.2192689E+00;  4.0000000E+04;  0.0000000E+00;  3.8729285E+04;  1.5348299E-01;  0.0000000E+00;  1.4281961E-01;  9.0788750E+03;
  1.5926882E+00;  9.9999998E-03;  1.2183213E-01;8710;  3.9893618E-01;  0.0000000E+00;  4.3320046E-03;  9.9679865E+02;  4.3225187E-01; -2.6512375E+03;3;  7.6786613E+01;  0.0000000E+00;  2.7252306E+01;0;  2.7318755E-01;  2.1821709E+03;  0.0000000E+00;  9.4870144E-01;  4.0000000E+04;  0.0000000E+00;  3.8736473E+04;  1.5365285E-01;  0.0000000E+00;  1.1953471E-01;  1.0149330E+04;
  1.6259542E+00;  9.9999998E-03;  1.9293830E-01;8778;  5.3605253E-01;  0.0000000E+00; -3.4330372E-02;  9.9536230E+02;  3.9045042E-01; -3.8397981E+03;3;  7.6337631E+01;  0.0000000E+00;  4.3957870E+01;0;  4.4179732E-01;  2.6757822E+03;  0.0000000E+00;  2.5449421E+00;  4.0000000E+04;  0.0000000E+00;  3.8760734E+04;  2.7647567E-01;  0.0000000E+00;  1.6532166E-01;  1.1115587E+04;
  1.6262993E+00;  9.9999998E-03;  2.0311740E-01;8779;  5.5714446E-01;  0.0000000E+00; -3.4841258E-02;  9.9494763E+02;  3.9049697E-01; -4.1831099E+03;3;  7.7442360E+01;  0.0000000E+00;  4.5070045E+01;0;  4.3104601E-01;  2.6743049E+03;  0.0000000E+00;  2.4236617E+00;  4.0000000E+04;  0.0000000E+00;  3.8757336E+04;  2.2685161E-01;  0.0000000E+00;  2.0419441E-01;  1.0682709E+04;
  1.6266756E+00;  9.9999998E-03;  1.8273656E-01;8777;  5.1493680E-01;  0.0000000E+00; -3.5653051E-02;  9.9564819E+02;  3.8956034E-01; -3.6030430E+03;3;  7.6685745E+01;  0.0000000E+00;  4.2991650E+01;0;  4.6515405E-01;  2.6872781E+03;  0.0000000E+00;  2.4504879E+00;  4.0000000E+04;  0.0000000E+00;  3.8763234E+04;  3.4711435E-01;  0.0000000E+00;  1.1803971E-01;  1.1302890E+04;
  1.6277763E+00;  9.9999998E-03;  2.1320984E-01;8780;  5.7827926E-01;  0.0000000E+00; -3.7046097E-02;  9.9458887E+02;  3.8959450E-01; -4.4800801E+03;3;  7.9038200E+01;  0.0000000E+00;  4.6751011E+01;0;  4.2558056E-01;  2.6844380E+03;  0.0000000E+00;  1.9564829E+00;  4.0000000E+04;  0.0000000E+00;  3.8759590E+04;  1.9046234E-01;  0.0000000E+00;  2.3511821E-01;  1.1096555E+04;
  1.6282705E+00;  9.9999998E-03;  1.7258647E-01;8776;  4.9381992E-01;  0.0000000E+00; -3.8484193E-02;  9.9571228E+02;  3.8809758E-01; -3.5499368E+03;3;  7.7978844E+01;  0.0000000E+00;  4.2272392E+01;0;  5.0859696E-01;  2.7053665E+03;  0.0000000E+00;  2.2314916E+00;  4.0000000E+04;  0.0000000E+00;  3.8762016E+04;  4.4523481E-01;  0.0000000E+00;  6.3362159E-02;  1.1045539E+04;
  1.6302434E+00;  9.9999998E-03;  1.6247724E-01;8775;  4.7270405E-01;  0.0000000E+00; -4.1843962E-02;  9.9554645E+02;  3.8652447E-01; -3.6871509E+03;3;  8.0486153E+01;  0.0000000E+00;  4.2181755E+01;0;  5.7386780E-01;  2.7239565E+03;  0.0000000E+00;  1.9651550E+00;  4.0000000E+04;  0.0000000E+00;  3.8758535E+04;  5.6896263E-01;  0.0000000E+00;  4.9051815E-03;  1.0550400E+04;
  1.6303726E+00;  9.9999998E-03;  2.2324017E-01;8781;  5.9925646E-01;  0.0000000E+00; -4.0356569E-02;  9.9456824E+02;  3.8779092E-01; -4.4970371E+03;3;  8.1212990E+01;  0.0000000E+00;  4.8331894E+01;0;  4.2049170E-01;  2.7059512E+03;  0.0000000E+00;  9.0333003E-01;  4.0000000E+04;  0.0000000E+00;  3.8777684E+04;  1.6056925E-01;  0.0000000E+00;  2.5992244E-01;  1.4980324E+04;
  1.6318542E+00;  9.9999998E-03;  1.5231961E-01;8774;  4.5177880E-01;  0.0000000E+00; -4.4194840E-02;  9.9510120E+02;  3.8535181E-01; -4.0557090E+03;3;  8.1292068E+01;  0.0000000E+00;  4.0810619E+01;0;  6.5031058E-01;  2.7358887E+03;  0.0000000E+00;  1.6938255E+00;  4.0000000E+04;  0.0000000E+00;  3.8755590E+04;  7.0140100E-01;  0.0000000E+00; -5.1090419E-02;  1.0149617E+04;
  1.6329008E+00;  9.9999998E-03;  1.4212494E-01;8773;  4.3178442E-01;  0.0000000E+00; -4.5022141E-02;  9.9431824E+02;  3.8461298E-01; -4.7038760E+03;3;  8.0361061E+01;  0.0000000E+00;  3.8984753E+01;0;  7.2788405E-01;  2.7406882E+03;  0.0000000E+00;  1.4211872E+00;  4.0000000E+04;  0.0000000E+00;  3.8754113E+04;  8.2906955E-01;  0.0000000E+00; -1.0118551E-01;  1.0011245E+04;
  1.6335131E+00;  9.9999998E-03;  1.3192773E-01;8772;  4.1282001E-01;  0.0000000E+00; -4.4701122E-02;  9.9321643E+02;  3.8416591E-01; -5.6160034E+03;3;  7.9824043E+01;  0.0000000E+00;  3.7194725E+01;0;  8.0239707E-01;  2.7403953E+03;  0.0000000E+00;  1.1526512E+00;  4.0000000E+04;  0.0000000E+00;  3.8754547E+04;  9.4746542E-01;  0.0000000E+00; -1.4506836E-01;  1.0184050E+04;
  1.6338482E+00;  9.9999998E-03;  1.2175389E-01;8771;  3.9496145E-01;  0.0000000E+00; -4.3618862E-02;  9.9190765E+02;  3.8392314E-01; -6.6995161E+03;3;  7.9299042E+01;  0.0000000E+00;  3.5294952E+01;0;  8.7196749E-01;  2.7367092E+03;  0.0000000E+00;  9.1352123E-01;  4.0000000E+04;  0.0000000E+00;  3.8757273E+04;  1.0556151E+00;  0.0000000E+00; -1.8364757E-01;  1.0667375E+04;
  1.6339362E+00;  9.9999998E-03;  1.1160624E-01;8770;  3.7848780E-01;  0.0000000E+00; -4.1780341E-02;  9.9052582E+02;  3.8388950E-01; -7.8434893E+03;3;  7.8726402E+01;  0.0000000E+00;  3.2931431E+01;0;  9.3253076E-01;  2.7302566E+03;  0.0000000E+00;  7.2469002E-01;  4.0000000E+04;  0.0000000E+00;  3.8761840E+04;  1.1499739E+00;  0.0000000E+00; -2.1744312E-01;  1.1379900E+04;
  1.6338542E+00;  9.9999998E-03;  1.0147411E-01;8769;  3.6356047E-01;  0.0000000E+00; -3.9264493E-02;  9.8921100E+02;  3.8401002E-01; -8.9320127E+03;3;  7.8758659E+01;  0.0000000E+00;  3.0685822E+01;0;  9.8305976E-01;  2.7223259E+03;  0.0000000E+00;  5.8754826E-01;  4.0000000E+04;  0.0000000E+00;  3.8767305E+04;  1.2303609E+00;  0.0000000E+00; -2.4730112E-01;  1.2194011E+04;
  1.6336257E+00;  9.9999998E-03;  8.1212901E-02;8767;  3.3759224E-01;  0.0000000E+00; -3.3319365E-02;  9.8727448E+02;  3.8438058E-01; -1.0535279E+04;3;  7.8830063E+01;  0.0000000E+00;  2.6500042E+01;0;  1.0648847E+00;  2.7082617E+03;  0.0000000E+00;  4.0919736E-01;  4.0000000E+04;  0.0000000E+00;  3.8777379E+04;  1.3635665E+00;  0.0000000E+00; -2.9868180E-01;  1.3571229E+04;
  1.6335834E+00;  9.9999998E-03;  7.1074039E-02;8766;  3.2667062E-01;  0.0000000E+00; -2.9992839E-02;  9.8677075E+02;  3.8454369E-01; -1.0952306E+04;3;  7.8549187E+01;  0.0000000E+00;  2.4601072E+01;0;  1.1000690E+00;  2.7036548E+03;  0.0000000E+00;  3.3718720E-01;  4.0000000E+04;  0.0000000E+00;  3.8779723E+04;  1.4209923E+00;  0.0000000E+00; -3.2092324E-01;  1.3908815E+04;
  1.6337351E+00;  9.9999998E-03;  9.1345273E-02;8768;  3.4991336E-01;  0.0000000E+00; -3.6423568E-02;  9.8809210E+02;  3.8418993E-01; -9.8583428E+03;3;  7.8964012E+01;  0.0000000E+00;  2.8613308E+01;0;  1.0267401E+00;  2.7147249E+03;  0.0000000E+00;  4.8822474E-01;  4.0000000E+04;  0.0000000E+00;  3.8772934E+04;  1.3010123E+00;  0.0000000E+00; -2.7427220E-01;  1.2967886E+04;
  1.6336696E+00;  9.9999998E-03;  2.3332016E-01;8782;  6.2013006E-01;  0.0000000E+00; -4.3158337E-02;  9.9496545E+02;  3.8556686E-01; -4.1680405E+03;3;  8.3528320E+01;  0.0000000E+00;  4.9356987E+01;0;  4.1338849E-01;  2.7341550E+03;  0.0000000E+00; -1.1311680E+00;  4.0000000E+04;  0.0000000E+00;  3.8806105E+04;  1.3011397E-01;  0.0000000E+00;  2.8327450E-01;  2.5377016E+04;
  1.6619685E+00;  9.9999998E-03;  1.9311738E-01;8839;  5.3085482E-01;  0.0000000E+00; -1.0059735E-01;  9.9077325E+02;  3.4523180E-01; -7.6357744E+03;3;  7.6907730E+01;  0.0000000E+00;  4.3608330E+01;0;  1.1690425E+00;  3.3897925E+03;  0.0000000E+00;  2.8101583E+00;  4.0000000E+04;  0.0000000E+00;  3.8775000E+04;  1.2050264E+00;  0.0000000E+00; -3.5983924E-02;  1.1377885E+04;
  1.6622171E+00;  9.9999998E-03;  1.8288316E-01;8838;  5.1034981E-01;  0.0000000E+00; -1.0011689E-01;  9.9112286E+02;  3.4491894E-01; -7.3464419E+03;3;  7.4891647E+01;  0.0000000E+00;  4.2115074E+01;0;  1.2991674E+00;  3.3972400E+03;  0.0000000E+00;  2.7082739E+00;  4.0000000E+04;  0.0000000E+00;  3.8772930E+04;  1.3938081E+00;  0.0000000E+00; -9.4640777E-02;  1.0917780E+04;
  1.6633062E+00;  9.9999998E-03;  1.7265195E-01;8837;  4.8998368E-01;  0.0000000E+00; -1.0060891E-01;  9.9144702E+02;  3.4401968E-01; -7.0780244E+03;3;  7.7137299E+01;  0.0000000E+00;  4.0157227E+01;0;  1.4724194E+00;  3.4152693E+03;  0.0000000E+00;  2.3927400E+00;  4.0000000E+04;  0.0000000E+00;  3.8768906E+04;  1.6296901E+00;  0.0000000E+00; -1.5727064E-01;  1.0089461E+04;
  1.6629384E+00;  9.9999998E-03;  2.0326722E-01;8840;  5.5135858E-01;  0.0000000E+00; -1.0260436E-01;  9.9047150E+02;  3.4461036E-01; -7.8853901E+03;3;  7.9719948E+01;  0.0000000E+00;  4.4340881E+01;0;  1.0850370E+00;  3.3995496E+03;  0.0000000E+00;  2.5598810E+00;  4.0000000E+04;  0.0000000E+00;  3.8777699E+04;  1.0704230E+00;  0.0000000E+00;  1.4613926E-02;  1.1441825E+04;
  1.6648198E+00;  9.9999998E-03;  1.6246483E-01;8836;  4.6917322E-01;  0.0000000E+00; -1.0107721E-01;  9.9167627E+02;  3.4295014E-01; -6.8881396E+03;3;  8.0814461E+01;  0.0000000E+00;  3.8780388E+01;0;  1.6800895E+00;  3.4359939E+03;  0.0000000E+00;  1.9783436E+00;  4.0000000E+04;  0.0000000E+00;  3.8763488E+04;  1.8994746E+00;  0.0000000E+00; -2.1938516E-01;  9.2210674E+03;
  1.6663834E+00;  9.9999998E-03;  1.5230873E-01;8835;  4.4870877E-01;  0.0000000E+00; -1.0091215E-01;  9.9176874E+02;  3.4195083E-01; -6.8114517E+03;3;  7.9910385E+01;  0.0000000E+00;  3.7199860E+01;0;  1.9082023E+00;  3.4543066E+03;  0.0000000E+00;  1.5629520E+00;  4.0000000E+04;  0.0000000E+00;  3.8758129E+04;  2.1854622E+00;  0.0000000E+00; -2.7725998E-01;  8.4888389E+03;
  1.6654257E+00;  9.9999998E-03;  2.1327965E-01;8841;  5.7173759E-01;  0.0000000E+00; -1.0671426E-01;  9.9047003E+02;  3.4293744E-01; -7.8862407E+03;3;  8.2946640E+01;  0.0000000E+00;  4.2322285E+01;0;  1.0454470E+00;  3.4291985E+03;  0.0000000E+00;  1.7165874E+00;  4.0000000E+04;  0.0000000E+00;  3.8791336E+04;  9.9155432E-01;  0.0000000E+00;  5.3892694E-02;  1.2924268E+04;
  1.6678286E+00;  9.9999998E-03;  1.4216773E-01;8834;  4.2935705E-01;  0.0000000E+00; -9.9777497E-02;  9.9163574E+02;  3.4103942E-01; -6.9213145E+03;3;  7.8959976E+01;  0.0000000E+00;  3.5357296E+01;0;  2.1461618E+00;  3.4699326E+03;  0.0000000E+00;  1.1939495E+00;  4.0000000E+04;  0.0000000E+00;  3.8754316E+04;  2.4752514E+00;  0.0000000E+00; -3.2908964E-01;  7.9469785E+03;
  1.6689948E+00;  9.9999998E-03;  1.3202581E-01;8833;  4.1114733E-01;  0.0000000E+00; -9.7393878E-02;  9.9124713E+02;  3.4024921E-01; -7.2427412E+03;3;  7.7249901E+01;  0.0000000E+00;  3.2643398E+01;0;  2.3792665E+00;  3.4819407E+03;  0.0000000E+00;  8.8374096E-01;  4.0000000E+04;  0.0000000E+00;  3.8751824E+04;  2.7537019E+00;  0.0000000E+00; -3.7443537E-01;  7.6148032E+03;
  1.6697885E+00;  9.9999998E-03;  1.2188048E-01;8832;  3.9403462E-01;  0.0000000E+00; -9.3874983E-02;  9.9059882E+02;  3.3966172E-01; -7.7790923E+03;3;  7.4573692E+01;  0.0000000E+00;  2.9904222E+01;0;  2.5933053E+00;  3.4891272E+03;  0.0000000E+00;  6.4104986E-01;  4.0000000E+04;  0.0000000E+00;  3.8750422E+04;  3.0073447E+00;  0.0000000E+00; -4.1403946E-01;  7.4629771E+03;
  1.6692930E+00;  9.9999998E-03;  2.2323000E-01;8842;  5.9232986E-01;  0.0000000E+00; -1.1182503E-01;  9.9090967E+02;  3.4046274E-01; -7.5219058E+03;3;  8.5345993E+01;  0.0000000E+00;  3.8599651E+01;0;  1.0370003E+00;  3.4752119E+03;  0.0000000E+00; -1.9692883E-01;  4.0000000E+04;  0.0000000E+00;  3.8825758E+04;  9.5513839E-01;  0.0000000E+00;  8.1861898E-02;  2.0365500E+04;
  1.6702234E+00;  9.9999998E-03;  1.1173291E-01;8831;  3.7806094E-01;  0.0000000E+00; -8.9164622E-02;  9.8977722E+02;  3.3929563E-01; -8.4588545E+03;3;  7.2940811E+01;  0.0000000E+00;  2.7496397E+01;0;  2.7804108E+00;  3.4912158E+03;  0.0000000E+00;  4.7389987E-01;  4.0000000E+04;  0.0000000E+00;  3.8749836E+04;  3.2296700E+00;  0.0000000E+00; -4.4925919E-01;  7.4547344E+03;
  1.6703928E+00;  9.9999998E-03;  1.0158385E-01;8830;  3.6322594E-01;  0.0000000E+00; -8.3390802E-02;  9.8888800E+02;  3.3913055E-01; -9.1945791E+03;3;  7.2605453E+01;  0.0000000E+00;  2.5733944E+01;0;  2.9398768E+00;  3.4894976E+03;  0.0000000E+00;  3.7668177E-01;  4.0000000E+04;  0.0000000E+00;  3.8749969E+04;  3.4212189E+00;  0.0000000E+00; -4.8134205E-01;  7.5503198E+03;
  1.6703635E+00;  9.9999998E-03;  9.1432564E-02;8829;  3.4962600E-01;  0.0000000E+00; -7.6688513E-02;  9.8805487E+02;  3.3912280E-01; -9.8839766E+03;3;  7.3113129E+01;  0.0000000E+00;  2.3838463E+01;0;  3.0719757E+00;  3.4851899E+03;  0.0000000E+00;  3.3137929E-01;  4.0000000E+04;  0.0000000E+00;  3.8750387E+04;  3.5827367E+00;  0.0000000E+00; -5.1076108E-01;  7.6911338E+03;
  1.6702203E+00;  9.9999998E-03;  8.1279464E-02;8828;  3.3729029E-01;  0.0000000E+00; -6.9370791E-02;  9.8739142E+02;  3.3921897E-01; -1.0432983E+04;3;  7.3843834E+01;  0.0000000E+00;  2.1587160E+01;0;  3.1804166E+00;  3.4798440E+03;  0.0000000E+00;  3.1303763E-01;  4.0000000E+04;  0.0000000E+00;  3.8751367E+04;  3.7180543E+00;  0.0000000E+00; -5.3763777E-01;  7.8139990E+03;
  1.6700529E+00;  9.9999998E-03;  7.1125105E-02;8827;  3.2639703E-01;  0.0000000E+00; -6.1527278E-02;  9.8695923E+02;  3.3936533E-01; -1.0790635E+04;3;  7.4566879E+01;  0.0000000E+00;  1.9785938E+01;0;  3.2709317E+00;  3.4749526E+03;  0.0000000E+00;  2.9789606E-01;  4.0000000E+04;  0.0000000E+00;  3.8751480E+04;  3.8329370E+00;  0.0000000E+00; -5.6200522E-01;  7.8686382E+03;
  1.6730840E+00;  9.9999998E-03;  2.3339431E-01;8843;  6.1338830E-01;  0.0000000E+00; -1.1566423E-01;  9.9117749E+02;  3.3811030E-01; -7.2997847E+03;3;  8.7877251E+01;  0.0000000E+00;  3.2363941E+01;0;  1.0102421E+00;  3.5204255E+03;  0.0000000E+00; -3.8297911E+00;  4.0000000E+04;  0.0000000E+00;  3.8846883E+04;  9.0552801E-01;  0.0000000E+00;  1.0471407E-01;  3.5713859E+04;
  1.6940721E+00;  9.9999998E-03;  1.8300277E-01;8899;  5.0687575E-01;  0.0000000E+00; -1.4404087E-01;  9.8880884E+02;  3.0606484E-01; -9.2552119E+03;3;  6.9763832E+01;  0.0000000E+00;  1.6562529E+01;0;  2.7645440E+00;  4.2945957E+03;  0.0000000E+00;  3.0671012E+00;  4.0000000E+04;  0.0000000E+00;  3.8765066E+04;  3.0314014E+00;  0.0000000E+00; -2.6685742E-01;  9.5361797E+03;
  1.6943791E+00;  9.9999998E-03;  1.9323681E-01;8900;  5.2763504E-01;  0.0000000E+00; -1.4700952E-01;  9.8852057E+02;  3.0576658E-01; -9.4935186E+03;3;  7.2917046E+01;  0.0000000E+00;  1.5803429E+01;0;  2.5618994E+00;  4.2991011E+03;  0.0000000E+00;  3.0468483E+00;  4.0000000E+04;  0.0000000E+00;  3.8771941E+04;  2.7772734E+00;  0.0000000E+00; -2.1537410E-01;  1.0371321E+04;
  1.6946393E+00;  9.9999998E-03;  1.7274690E-01;8898;  4.8668426E-01;  0.0000000E+00; -1.4195016E-01;  9.8927820E+02;  3.0576336E-01; -8.8668916E+03;3;  6.3712357E+01;  0.0000000E+00;  1.6217287E+01;0;  3.0144143E+00;  4.3071973E+03;  0.0000000E+00;  2.6721013E+00;  4.0000000E+04;  0.0000000E+00;  3.8757875E+04;  3.3366828E+00;  0.0000000E+00; -3.2226855E-01;  7.8203867E+03;
  1.6957486E+00;  9.9999998E-03;  1.6252553E-01;8897;  4.7019517E-01;  0.0000000E+00; -1.3915616E-01;  9.8986267E+02;  3.0512711E-01; -8.3832744E+03;3;  3.8351406E+01;  0.0000000E+00;  1.0094055E+01;0;  3.2963631E+00;  4.3294180E+03;  0.0000000E+00;  2.0853775E+00;  4.0000000E+04;  0.0000000E+00;  3.8750422E+04;  3.6727505E+00;  0.0000000E+00; -3.7638742E-01;  6.2526738E+03;
  1.6959958E+00;  9.9999998E-03;  2.0336096E-01;8901;  5.4803622E-01;  0.0000000E+00; -1.5200457E-01;  9.8855023E+02;  3.0463737E-01; -9.4685557E+03;3;  7.5805504E+01;  0.0000000E+00;  1.3955171E+01;0;  2.4212825E+00;  4.3277578E+03;  0.0000000E+00;  2.4033592E+00;  4.0000000E+04;  0.0000000E+00;  3.8781082E+04;  2.5960653E+00;  0.0000000E+00; -1.7478271E-01;  1.0395570E+04;
  1.6971684E+00;  9.9999998E-03;  1.5235364E-01;8896;  4.6946371E-01;  0.0000000E+00; -1.3226984E-01;  9.9046399E+02;  3.0429944E-01; -7.8857139E+03;3; -2.6718048E+01;  0.0000000E+00; -1.3475099E+00;0;  3.5947285E+00;  4.3567651E+03;  0.0000000E+00;  1.5082464E+00;  4.0000000E+04;  0.0000000E+00;  3.8743859E+04;  4.0201454E+00;  0.0000000E+00; -4.2541686E-01;  5.2325205E+03;
  1.6986666E+00;  9.9999998E-03;  1.4222084E-01;8895;  4.9268800E-01;  0.0000000E+00; -1.2188690E-01;  9.9099475E+02;  3.0340132E-01; -7.4464775E+03;3; -6.6654335E+01;  0.0000000E+00; -3.3572674E+00;0;  3.8916929E+00;  4.3855972E+03;  0.0000000E+00;  1.0556130E+00;  4.0000000E+04;  0.0000000E+00;  3.8737793E+04;  4.3595858E+00;  0.0000000E+00; -4.6789286E-01;  4.4345220E+03;
  1.6999607E+00;  9.9999998E-03;  1.3209970E-01;8894;  5.1926863E-01;  0.0000000E+00; -1.1197466E-01;  9.9134149E+02;  3.0255857E-01; -7.1595063E+03;3; -8.0412155E+01;  0.0000000E+00; -4.3386641E+00;0;  4.1717963E+00;  4.4116343E+03;  0.0000000E+00;  7.4292356E-01;  4.0000000E+04;  0.0000000E+00;  3.8733035E+04;  4.6758695E+00;  0.0000000E+00; -5.0407320E-01;  3.7120112E+03;
  1.6991701E+00;  9.9999998E-03;  2.1333125E-01;8902;  5.6755114E-01;  0.0000000E+00; -1.5941919E-01;  9.8900305E+02;  3.0266365E-01; -9.0932822E+03;3;  7.8086800E+01;  0.0000000E+00;  1.0944709E+01;0;  2.3424861E+00;  4.3818384E+03;  0.0000000E+00;  8.7176311E-01;  4.0000000E+04;  0.0000000E+00;  3.8803297E+04;  2.4960592E+00;  0.0000000E+00; -1.5357308E-01;  1.3129101E+04;
  1.7009245E+00;  9.9999998E-03;  1.2197683E-01;8893;  5.3659868E-01;  0.0000000E+00; -1.0351954E-01;  9.9143695E+02;  3.0185276E-01; -7.0803516E+03;3; -9.0109192E+01;  0.0000000E+00; -5.4704561E+00;0;  4.4266200E+00;  4.4324053E+03;  0.0000000E+00;  5.4189306E-01;  4.0000000E+04;  0.0000000E+00;  3.8728637E+04;  4.9618478E+00;  0.0000000E+00; -5.3522789E-01;  3.1020471E+03;
  1.7015921E+00;  9.9999998E-03;  1.1184939E-01;8892;  5.4214036E-01;  0.0000000E+00; -9.6495718E-02;  9.9130756E+02;  3.0132401E-01; -7.1872056E+03;3; -1.0045552E+02;  0.0000000E+00; -5.9735446E+00;0;  4.6556211E+00;  4.4470137E+03;  0.0000000E+00;  4.2127231E-01;  4.0000000E+04;  0.0000000E+00;  3.8724207E+04;  5.2184243E+00;  0.0000000E+00; -5.6280327E-01;  2.5656614E+03;
  1.7019871E+00;  9.9999998E-03;  7.1229272E-02;8888;  5.2409738E-01;  0.0000000E+00; -6.5000601E-02;  9.8977020E+02;  3.0085158E-01; -8.4582646E+03;3; -1.3163615E+02;  0.0000000E+00; -4.8549714E+00;0;  5.2923975E+00;  4.4534463E+03;  0.0000000E+00;  3.1524259E-01;  4.0000000E+04;  0.0000000E+00;  3.8709211E+04;  5.9442840E+00;  0.0000000E+00; -6.5188658E-01;  7.8298749E+02;
  1.7019958E+00;  9.9999998E-03;  1.0170934E-01;8891;  5.4185224E-01;  0.0000000E+00; -8.9317255E-02;  9.9098584E+02;  3.0097717E-01; -7.4531465E+03;3; -1.0920820E+02;  0.0000000E+00; -6.0182457E+00;0;  4.8566632E+00;  4.4554854E+03;  0.0000000E+00;  3.5502568E-01;  4.0000000E+04;  0.0000000E+00;  3.8720145E+04;  5.4445453E+00;  0.0000000E+00; -5.8788204E-01;  2.0448860E+03;
  1.7021224E+00;  9.9999998E-03;  8.1399366E-02;8889;  5.3081745E-01;  0.0000000E+00; -7.3549047E-02;  9.9013306E+02;  3.0077767E-01; -8.1582002E+03;3; -1.2483724E+02;  0.0000000E+00; -5.3204041E+00;0;  5.1727619E+00;  4.4570195E+03;  0.0000000E+00;  3.1728277E-01;  4.0000000E+04;  0.0000000E+00;  3.8712559E+04;  5.8050961E+00;  0.0000000E+00; -6.3233429E-01;  1.1410005E+03;
  1.7021585E+00;  9.9999998E-03;  9.1558389E-02;8890;  5.3776556E-01;  0.0000000E+00; -8.1700459E-02;  9.9057056E+02;  3.0079809E-01; -7.7964595E+03;3; -1.1736387E+02;  0.0000000E+00; -5.8930240E+00;0;  5.0287375E+00;  4.4584531E+03;  0.0000000E+00;  3.2524028E-01;  4.0000000E+04;  0.0000000E+00;  3.8716133E+04;  5.6397357E+00;  0.0000000E+00; -6.1099797E-01;  1.5576173E+03;
  1.7030944E+00;  9.9999998E-03;  2.2333239E-01;8903;  5.8597165E-01;  0.0000000E+00; -1.6378185E-01;  9.8954376E+02;  3.0036521E-01; -8.6452012E+03;3;  7.6813446E+01;  0.0000000E+00;  1.3755654E+01;0;  2.2777357E+00;  4.4462383E+03;  0.0000000E+00; -2.0864780E+00;  4.0000000E+04;  0.0000000E+00;  3.8839254E+04;  2.4278646E+00;  0.0000000E+00; -1.5012874E-01;  2.2604094E+04;
  1.7058698E+00;  9.9999998E-03;  2.3356646E-01;8904;  6.0463536E-01;  0.0000000E+00; -1.6428694E-01;  9.8913257E+02;  2.9878765E-01; -8.9843652E+03;3;  8.3030457E+01;  0.0000000E+00;  1.4991769E+01;0;  2.1386309E+00;  4.4880713E+03;  0.0000000E+00; -6.9909368E+00;  4.0000000E+04;  0.0000000E+00;  3.8849637E+04;  2.2931473E+00;  0.0000000E+00; -1.5451641E-01;  3.9341648E+04;
  1.7224565E+00;  9.9999998E-03;  1.8312854E-01;8959;  6.2232411E-01;  0.0000000E+00; -1.3300194E-01;  9.8942102E+02;  2.7362868E-01; -8.7406963E+03;3; -6.8969688E+01;  0.0000000E+00; -1.8519756E+01;0;  4.1160173E+00;  5.3795928E+03;  0.0000000E+00;  3.0596633E+00;  4.0000000E+04;  0.0000000E+00;  3.8744031E+04;  4.4813828E+00;  0.0000000E+00; -3.6536568E-01;  7.4164727E+03;
  1.7226646E+00;  9.9999998E-03;  1.7288801E-01;8958;  6.3264948E-01;  0.0000000E+00; -1.2937166E-01;  9.8975830E+02;  2.7363703E-01; -8.4619346E+03;3; -8.5623329E+01;  0.0000000E+00; -1.7597601E+01;0;  4.3442969E+00;  5.3860742E+03;  0.0000000E+00;  2.7505162E+00;  4.0000000E+04;  0.0000000E+00;  3.8734691E+04;  4.7496924E+00;  0.0000000E+00; -4.0539557E-01;  5.5079014E+03;
  1.7230874E+00;  9.9999998E-03;  1.9336371E-01;8960;  6.2170219E-01;  0.0000000E+00; -1.3625453E-01;  9.8940076E+02;  2.7309152E-01; -8.7572158E+03;3; -5.4379787E+01;  0.0000000E+00; -2.0140659E+01;0;  3.9142368E+00;  5.3962271E+03;  0.0000000E+00;  2.7648330E+00;  4.0000000E+04;  0.0000000E+00;  3.8752516E+04;  4.2417617E+00;  0.0000000E+00; -3.2752493E-01;  7.6377627E+03;
  1.7234628E+00;  9.9999998E-03;  1.6267416E-01;8957;  6.5285999E-01;  0.0000000E+00; -1.2399745E-01;  9.9037903E+02;  2.7325916E-01; -7.9488188E+03;3; -9.9406677E+01;  0.0000000E+00; -1.7899387E+01;0;  4.5850549E+00;  5.4094106E+03;  0.0000000E+00;  2.1017723E+00;  4.0000000E+04;  0.0000000E+00;  3.8725883E+04;  5.0289574E+00;  0.0000000E+00; -4.4390252E-01;  3.0287874E+03;
  1.7246183E+00;  9.9999998E-03;  1.5247892E-01;8956;  6.8196440E-01;  0.0000000E+00; -1.1638992E-01;  9.9116620E+02;  2.7264470E-01; -7.2981362E+03;3; -1.0958405E+02;  0.0000000E+00; -1.8368874E+01;0;  4.8254657E+00;  5.4429814E+03;  0.0000000E+00;  1.4179899E+00;  4.0000000E+04;  0.0000000E+00;  3.8718035E+04;  5.3037219E+00;  0.0000000E+00; -4.7825637E-01;  1.4986084E+03;
  1.7249882E+00;  9.9999998E-03;  2.0349820E-01;8961;  6.3574034E-01;  0.0000000E+00; -1.3982221E-01;  9.8971313E+02;  2.7187020E-01; -8.4984453E+03;3; -4.8009212E+01;  0.0000000E+00; -2.0846365E+01;0;  3.7584119E+00;  5.4426626E+03;  0.0000000E+00;  1.7512778E+00;  4.0000000E+04;  0.0000000E+00;  3.8762113E+04;  4.0562048E+00;  0.0000000E+00; -2.9779297E-01;  7.1347896E+03;
  1.7259173E+00;  9.9999998E-03;  1.4230773E-01;8955;  7.1579427E-01;  0.0000000E+00; -1.0699865E-01;  9.9202856E+02;  2.7191594E-01; -6.5852788E+03;3; -1.1591633E+02;  0.0000000E+00; -1.8265818E+01;0;  5.0547476E+00;  5.4811963E+03;  0.0000000E+00;  9.1098803E-01;  4.0000000E+04;  0.0000000E+00;  3.8710531E+04;  5.5619836E+00;  0.0000000E+00; -5.0723600E-01;  1.0292717E+03;
  1.7271154E+00;  9.9999998E-03;  1.3215512E-01;8954;  7.4724442E-01;  0.0000000E+00; -9.7445346E-02;  9.9280792E+02;  2.7119157E-01; -5.9411567E+03;3; -1.2011130E+02;  0.0000000E+00; -1.7728615E+01;0;  5.2642641E+00;  5.5184736E+03;  0.0000000E+00;  6.2454677E-01;  4.0000000E+04;  0.0000000E+00;  3.8703629E+04;  5.7955995E+00;  0.0000000E+00; -5.3133523E-01;  7.1976703E+02;
  1.7281188E+00;  9.9999998E-03;  1.2201669E-01;8953;  7.7002388E-01;  0.0000000E+00; -8.9579262E-02;  9.9342633E+02;  2.7052093E-01; -5.4300776E+03;3; -1.2621769E+02;  0.0000000E+00; -1.7688786E+01;0;  5.4526510E+00;  5.5520957E+03;  0.0000000E+00;  4.9121392E-01;  4.0000000E+04;  0.0000000E+00;  3.8697145E+04;  6.0044661E+00;  0.0000000E+00; -5.5181503E-01;  1.3656483E+03;
  1.7281539E+00;  9.9999998E-03;  2.1350206E-01;8962;  6.7266911E-01;  0.0000000E+00; -1.4549057E-01;  9.9023132E+02;  2.7010444E-01; -8.0692314E+03;3; -5.5761753E+01;  0.0000000E+00; -1.5678849E+01;0;  3.6407318E+00;  5.5132119E+03;  0.0000000E+00; -1.2596807E-01;  4.0000000E+04;  0.0000000E+00;  3.8781402E+04;  3.9251390E+00;  0.0000000E+00; -2.8440708E-01;  1.0076779E+04;
  1.7289506E+00;  9.9999998E-03;  1.1188149E-01;8952;  7.8566247E-01;  0.0000000E+00; -8.2563251E-02;  9.9382727E+02;  2.6994297E-01; -5.0986821E+03;3; -1.3166956E+02;  0.0000000E+00; -1.6693668E+01;0;  5.6213689E+00;  5.5803896E+03;  0.0000000E+00;  4.3428916E-01;  4.0000000E+04;  0.0000000E+00;  3.8690496E+04;  6.1909714E+00;  0.0000000E+00; -5.6960243E-01;  2.3411738E+03;
  1.7295613E+00;  9.9999998E-03;  1.0174417E-01;8951;  7.9730368E-01;  0.0000000E+00; -7.5676568E-02;  9.9399463E+02;  2.6950613E-01; -4.9602983E+03;3; -1.3606334E+02;  0.0000000E+00; -1.5520299E+01;0;  5.7699351E+00;  5.6010332E+03;  0.0000000E+00;  4.0046391E-01;  4.0000000E+04;  0.0000000E+00;  3.8683918E+04;  6.3553939E+00;  0.0000000E+00; -5.8545870E-01;  3.1977661E+03;
  1.7299064E+00;  9.9999998E-03;  9.1596939E-02;8950;  8.0459756E-01;  0.0000000E+00; -6.8792671E-02;  9.9395337E+02;  2.6924095E-01; -4.9943384E+03;3; -1.3986363E+02;  0.0000000E+00; -1.4333411E+01;0;  5.8993607E+00;  5.6127681E+03;  0.0000000E+00;  3.6884013E-01;  4.0000000E+04;  0.0000000E+00;  3.8677586E+04;  6.4993715E+00;  0.0000000E+00; -6.0001093E-01;  3.9239351E+03;
  1.7300284E+00;  9.9999998E-03;  8.1431665E-02;8949;  8.0801129E-01;  0.0000000E+00; -6.1861590E-02;  9.9375262E+02;  2.6912290E-01; -5.1601216E+03;3; -1.4399919E+02;  0.0000000E+00; -1.2770798E+01;0;  6.0116882E+00;  5.6171289E+03;  0.0000000E+00;  3.3926019E-01;  4.0000000E+04;  0.0000000E+00;  3.8672137E+04;  6.6252723E+00;  0.0000000E+00; -6.1358392E-01;  4.5663677E+03;
  1.7299864E+00;  9.9999998E-03;  7.1250439E-02;8948;  8.0929649E-01;  0.0000000E+00; -5.4606777E-02;  9.9346722E+02;  2.6912668E-01; -5.3958506E+03;3; -1.4804471E+02;  0.0000000E+00; -1.1291908E+01;0;  6.1078930E+00;  5.6160630E+03;  0.0000000E+00;  3.1415930E-01;  4.0000000E+04;  0.0000000E+00;  3.8667293E+04;  6.7341614E+00;  0.0000000E+00; -6.2626857E-01;  5.1148027E+03;
  1.7314318E+00;  9.9999998E-03;  2.2356603E-01;8963;  7.0102966E-01;  0.0000000E+00; -1.5122554E-01;  9.9025482E+02;  2.6840416E-01; -8.0486377E+03;3; -5.7091843E+01;  0.0000000E+00; -1.7898891E+01;0;  3.5133936E+00;  5.5790000E+03;  0.0000000E+00; -3.3722575E+00;  4.0000000E+04;  0.0000000E+00;  3.8807285E+04;  3.8027771E+00;  0.0000000E+00; -2.8938332E-01;  1.8617750E+04;
  1.7332811E+00;  9.9999998E-03;  2.3376283E-01;8964;  6.9468099E-01;  0.0000000E+00; -1.5173627E-01;  9.8902246E+02;  2.6755619E-01; -9.0656875E+03;3; -5.6617737E+01;  0.0000000E+00; -1.9231932E+01;0;  3.3281107E+00;  5.6030522E+03;  0.0000000E+00; -8.4922276E+00;  4.0000000E+04;  0.0000000E+00;  3.8817875E+04;  3.6236777E+00;  0.0000000E+00; -2.9556710E-01;  3.3601820E+04;
  1.7478628E+00;  9.9999998E-03;  1.7302160E-01;9017;  8.2936931E-01;  0.0000000E+00; -1.0605291E-01;  9.9213708E+02;  2.4710824E-01; -6.4884600E+03;3; -1.1554205E+02;  0.0000000E+00; -2.6753078E+01;0;  4.9956775E+00;  6.6390352E+03;  0.0000000E+00;  2.2900589E+00;  4.0000000E+04;  0.0000000E+00;  3.8703355E+04;  5.4163127E+00;  0.0000000E+00; -4.2063525E-01;  3.9275369E+03;
  1.7479492E+00;  9.9999998E-03;  1.8322031E-01;9018;  8.1209463E-01;  0.0000000E+00; -1.0916517E-01;  9.9214514E+02;  2.4693389E-01; -6.4817861E+03;3; -1.0987811E+02;  0.0000000E+00; -2.7918669E+01;0;  4.8440156E+00;  6.6422217E+03;  0.0000000E+00;  2.3670068E+00;  4.0000000E+04;  0.0000000E+00;  3.8713105E+04;  5.2426705E+00;  0.0000000E+00; -3.9865512E-01;  4.7861274E+03;
  1.7483732E+00;  9.9999998E-03;  1.6282649E-01;9016;  8.5327876E-01;  0.0000000E+00; -1.0137482E-01;  9.9248285E+02;  2.4693367E-01; -6.2029458E+03;3; -1.2057060E+02;  0.0000000E+00; -2.5593172E+01;0;  5.1410027E+00;  6.6579126E+03;  0.0000000E+00;  1.7954419E+00;  4.0000000E+04;  0.0000000E+00;  3.8694246E+04;  5.5829649E+00;  0.0000000E+00; -4.4196233E-01;  2.0860325E+03;
  1.7488577E+00;  9.9999998E-03;  1.9339424E-01;9019;  8.0601668E-01;  0.0000000E+00; -1.1122537E-01;  9.9246747E+02;  2.4632676E-01; -6.2154556E+03;3; -1.0619293E+02;  0.0000000E+00; -2.8360439E+01;0;  4.6957793E+00;  6.6722310E+03;  0.0000000E+00;  1.8926466E+00;  4.0000000E+04;  0.0000000E+00;  3.8722715E+04;  5.0739765E+00;  0.0000000E+00; -3.7819710E-01;  4.1757603E+03;
  1.7492405E+00;  9.9999998E-03;  1.5260936E-01;9015;  8.8140470E-01;  0.0000000E+00; -9.5239401E-02;  9.9312598E+02;  2.4653988E-01; -5.6719546E+03;3; -1.2453667E+02;  0.0000000E+00; -2.4363482E+01;0;  5.2727990E+00;  6.6912563E+03;  0.0000000E+00;  1.1853347E+00;  4.0000000E+04;  0.0000000E+00;  3.8685223E+04;  5.7339525E+00;  0.0000000E+00; -4.6115363E-01;  1.9564474E+03;
  1.7502840E+00;  9.9999998E-03;  1.4238074E-01;9014;  9.1180956E-01;  0.0000000E+00; -8.7900057E-02;  9.9396661E+02;  2.4601839E-01; -4.9779819E+03;3; -1.2676838E+02;  0.0000000E+00; -2.3206676E+01;0;  5.3868070E+00;  6.7329248E+03;  0.0000000E+00;  7.1776116E-01;  4.0000000E+04;  0.0000000E+00;  3.8676887E+04;  5.8640976E+00;  0.0000000E+00; -4.7729063E-01;  3.2500977E+03;
  1.7508417E+00;  9.9999998E-03;  2.0348082E-01;9020;  8.2021677E-01;  0.0000000E+00; -1.1655349E-01;  9.9297296E+02;  2.4525036E-01; -5.7976353E+03;3; -9.9164108E+01;  0.0000000E+00; -2.9532093E+01;0;  4.5595512E+00;  6.7306904E+03;  0.0000000E+00;  9.3925929E-01;  4.0000000E+04;  0.0000000E+00;  3.8734695E+04;  4.9240828E+00;  0.0000000E+00; -3.6453140E-01;  4.0584763E+03;
  1.7513534E+00;  9.9999998E-03;  1.3216355E-01;9013;  9.4160634E-01;  0.0000000E+00; -8.0037989E-02;  9.9487653E+02;  2.4543469E-01; -4.2269946E+03;3; -1.2751598E+02;  0.0000000E+00; -2.1813005E+01;0;  5.4820032E+00;  6.7780630E+03;  0.0000000E+00;  4.7732234E-01;  4.0000000E+04;  0.0000000E+00;  3.8668578E+04;  5.9724045E+00;  0.0000000E+00; -4.9040109E-01;  4.2454038E+03;
  1.7523512E+00;  9.9999998E-03;  1.2196897E-01;9012;  9.6664459E-01;  0.0000000E+00; -7.3147207E-02;  9.9573651E+02;  2.4484128E-01; -3.5172263E+03;3; -1.2963663E+02;  0.0000000E+00; -2.0672020E+01;0;  5.5603223E+00;  6.8226172E+03;  0.0000000E+00;  3.9957222E-01;  4.0000000E+04;  0.0000000E+00;  3.8660605E+04;  6.0615053E+00;  0.0000000E+00; -5.0118309E-01;  5.1700508E+03;
  1.7532219E+00;  9.9999998E-03;  1.1180533E-01;9011;  9.8694581E-01;  0.0000000E+00; -6.6725075E-02;  9.9643964E+02;  2.4431387E-01; -2.9370303E+03;3; -1.3073398E+02;  0.0000000E+00; -1.9261402E+01;0;  5.6248579E+00;  6.8617310E+03;  0.0000000E+00;  3.9719975E-01;  4.0000000E+04;  0.0000000E+00;  3.8652859E+04;  6.1351027E+00;  0.0000000E+00; -5.1024497E-01;  6.1585059E+03;
  1.7536185E+00;  9.9999998E-03;  2.1350658E-01;9021;  8.4665722E-01;  0.0000000E+00; -1.2353342E-01;  9.9325586E+02;  2.4393666E-01; -5.5632671E+03;3; -9.4890961E+01;  0.0000000E+00; -3.1543159E+01;0;  4.4336762E+00;  6.8009756E+03;  0.0000000E+00; -5.7242835E-01;  4.0000000E+04;  0.0000000E+00;  3.8757969E+04;  4.7982416E+00;  0.0000000E+00; -3.6456540E-01;  6.9402241E+03;
  1.7539017E+00;  9.9999998E-03;  1.0165982E-01;9010;  1.0033809E+00;  0.0000000E+00; -6.0695808E-02;  9.9691937E+02;  2.4390054E-01; -2.5411550E+03;3; -1.3110486E+02;  0.0000000E+00; -1.7625193E+01;0;  5.6796641E+00;  6.8918906E+03;  0.0000000E+00;  4.0581393E-01;  4.0000000E+04;  0.0000000E+00;  3.8645758E+04;  6.1978951E+00;  0.0000000E+00; -5.1823109E-01;  7.1059561E+03;
  1.7543722E+00;  9.9999998E-03;  9.1507927E-02;9009;  1.0159926E+00;  0.0000000E+00; -5.4848906E-02;  9.9716370E+02;  2.4360749E-01; -2.3395476E+03;3; -1.3145692E+02;  0.0000000E+00; -1.6023733E+01;0;  5.7283854E+00;  6.9125376E+03;  0.0000000E+00;  3.9281297E-01;  4.0000000E+04;  0.0000000E+00;  3.8639234E+04;  6.2539625E+00;  0.0000000E+00; -5.2557725E-01;  7.9235059E+03;
  1.7546232E+00;  9.9999998E-03;  8.1345066E-02;9008;  1.0249128E+00;  0.0000000E+00; -4.9071949E-02;  9.9717810E+02;  2.4343362E-01; -2.3276604E+03;3; -1.3200117E+02;  0.0000000E+00; -1.4399137E+01;0;  5.7738285E+00;  6.9236738E+03;  0.0000000E+00;  3.5562009E-01;  4.0000000E+04;  0.0000000E+00;  3.8633746E+04;  6.3064561E+00;  0.0000000E+00; -5.3262764E-01;  8.5844834E+03;
  1.7546644E+00;  9.9999998E-03;  7.1178369E-02;9007;  1.0304116E+00;  0.0000000E+00; -4.3221626E-02;  9.9701398E+02;  2.4338469E-01; -2.4630046E+03;3; -1.3289737E+02;  0.0000000E+00; -1.2676287E+01;0;  5.8176446E+00;  6.9258057E+03;  0.0000000E+00;  3.0660778E-01;  4.0000000E+04;  0.0000000E+00;  3.8629406E+04;  6.3572340E+00;  0.0000000E+00; -5.3958946E-01;  9.0812695E+03;
  1.7560477E+00;  9.9999998E-03;  2.2362785E-01;9022;  8.5528350E-01;  0.0000000E+00; -1.2573557E-01;  9.9250928E+02;  2.4288417E-01; -6.1781113E+03;3; -9.8529610E+01;  0.0000000E+00; -3.1026922E+01;0;  4.3066497E+00;  6.8485303E+03;  0.0000000E+00; -3.2773402E+00;  4.0000000E+04;  0.0000000E+00;  3.8784180E+04;  4.6784253E+00;  0.0000000E+00; -3.7177551E-01;  1.2574558E+04;
  1.7570890E+00;  9.9999998E-03;  2.3383147E-01;9023;  8.4054881E-01;  0.0000000E+00; -1.2665804E-01;  9.9041357E+02;  2.4260685E-01; -7.9060781E+03;3; -1.0106825E+02;  0.0000000E+00; -3.1257750E+01;0;  4.1519771E+00;  6.8414912E+03;  0.0000000E+00; -7.7551589E+00;  4.0000000E+04;  0.0000000E+00;  3.8799719E+04;  4.5309582E+00;  0.0000000E+00; -3.7898105E-01;  2.2779096E+04;
  1.7711159E+00;  9.9999998E-03;  1.7313866E-01;9076;  9.9824619E-01;  0.0000000E+00; -8.1552848E-02;  9.9540814E+02;  2.2533783E-01; -3.7829822E+03;3; -1.1801337E+02;  0.0000000E+00; -2.8357828E+01;0;  4.9832463E+00;  8.0395967E+03;  0.0000000E+00;  1.6692610E+00;  4.0000000E+04;  0.0000000E+00;  3.8665375E+04;  5.3753796E+00;  0.0000000E+00; -3.9213303E-01;  4.0546941E+03;
  1.7712964E+00;  9.9999998E-03;  1.6298218E-01;9075;  1.0182130E+00;  0.0000000E+00; -7.7961653E-02;  9.9531934E+02;  2.2531660E-01; -3.8560906E+03;3; -1.1801266E+02;  0.0000000E+00; -2.7035233E+01;0;  5.0281577E+00;  8.0474082E+03;  0.0000000E+00;  1.4295427E+00;  4.0000000E+04;  0.0000000E+00;  3.8657340E+04;  5.4264646E+00;  0.0000000E+00; -3.9830664E-01;  4.0906643E+03;
  1.7714195E+00;  9.9999998E-03;  1.8327269E-01;9077;  9.8291433E-01;  0.0000000E+00; -8.4295586E-02;  9.9578461E+02;  2.2511376E-01; -3.4727483E+03;3; -1.1716505E+02;  0.0000000E+00; -2.8742996E+01;0;  4.9216547E+00;  8.0532471E+03;  0.0000000E+00;  1.5283537E+00;  4.0000000E+04;  0.0000000E+00;  3.8673438E+04;  5.3081841E+00;  0.0000000E+00; -3.8652930E-01;  3.4755925E+03;
  1.7718164E+00;  9.9999998E-03;  1.5277177E-01;9074;  1.0412579E+00;  0.0000000E+00; -7.3273949E-02;  9.9556677E+02;  2.2511148E-01; -3.6520505E+03;3; -1.1726680E+02;  0.0000000E+00; -2.5761469E+01;0;  5.0543685E+00;  8.0725645E+03;  0.0000000E+00;  9.6471560E-01;  4.0000000E+04;  0.0000000E+00;  3.8648824E+04;  5.4587493E+00;  0.0000000E+00; -4.0438077E-01;  4.6066338E+03;
  1.7724527E+00;  9.9999998E-03;  1.9336306E-01;9078;  9.7832370E-01;  0.0000000E+00; -8.7605417E-02;  9.9633600E+02;  2.2457398E-01; -3.0182280E+03;3; -1.1400988E+02;  0.0000000E+00; -2.9517155E+01;0;  4.8469715E+00;  8.0922334E+03;  0.0000000E+00;  1.1228584E+00;  4.0000000E+04;  0.0000000E+00;  3.8683457E+04;  5.2296262E+00;  0.0000000E+00; -3.8265473E-01;  2.4662717E+03;
  1.7725239E+00;  9.9999998E-03;  1.4249560E-01;9073;  1.0656120E+00;  0.0000000E+00; -6.7910656E-02;  9.9610016E+02;  2.2479184E-01; -3.2124451E+03;3; -1.1593163E+02;  0.0000000E+00; -2.4179281E+01;0;  5.0630808E+00;  8.1091519E+03;  0.0000000E+00;  5.3336996E-01;  4.0000000E+04;  0.0000000E+00;  3.8639781E+04;  5.4730039E+00;  0.0000000E+00; -4.0992329E-01;  5.7186782E+03;
  1.7733445E+00;  9.9999998E-03;  1.3220915E-01;9072;  1.0901479E+00;  0.0000000E+00; -6.2195800E-02;  9.9683331E+02;  2.2438473E-01; -2.6083445E+03;3; -1.1396204E+02;  0.0000000E+00; -2.2788408E+01;0;  5.0560966E+00;  8.1534229E+03;  0.0000000E+00;  2.9177192E-01;  4.0000000E+04;  0.0000000E+00;  3.8631195E+04;  5.4706335E+00;  0.0000000E+00; -4.1453686E-01;  6.8028564E+03;
  1.7742555E+00;  9.9999998E-03;  2.0341842E-01;9079;  9.8616147E-01;  0.0000000E+00; -9.1885209E-02;  9.9673065E+02;  2.2376290E-01; -2.6927229E+03;3; -1.0953322E+02;  0.0000000E+00; -3.0768253E+01;0;  4.7659435E+00;  8.1499512E+03;  0.0000000E+00;  6.9827473E-01;  4.0000000E+04;  0.0000000E+00;  3.8700371E+04;  5.1494851E+00;  0.0000000E+00; -3.8354164E-01;  2.9621157E+03;
  1.7741911E+00;  9.9999998E-03;  1.2195967E-01;9071;  1.1131319E+00;  0.0000000E+00; -5.6680039E-02;  9.9766443E+02;  2.2394800E-01; -1.9236157E+03;3; -1.1224191E+02;  0.0000000E+00; -2.1638105E+01;0;  5.0372801E+00;  8.2002324E+03;  0.0000000E+00;  2.2976488E-01;  4.0000000E+04;  0.0000000E+00;  3.8623039E+04;  5.4555230E+00;  0.0000000E+00; -4.1824284E-01;  7.7611064E+03;
  1.7749845E+00;  9.9999998E-03;  1.1175697E-01;9070;  1.1332716E+00;  0.0000000E+00; -5.1427834E-02;  9.9844489E+02;  2.2353390E-01; -1.2807175E+03;3; -1.1019701E+02;  0.0000000E+00; -2.0016708E+01;0;  5.0116129E+00;  8.2438594E+03;  0.0000000E+00;  2.6171604E-01;  4.0000000E+04;  0.0000000E+00;  3.8615137E+04;  5.4328904E+00;  0.0000000E+00; -4.2127743E-01;  8.6918506E+03;
  1.7756855E+00;  9.9999998E-03;  1.0157831E-01;9069;  1.1504425E+00;  0.0000000E+00; -4.6368033E-02;  9.9906683E+02;  2.2316273E-01; -7.6848077E+02;3; -1.0781034E+02;  0.0000000E+00; -1.8381409E+01;0;  4.9831605E+00;  8.2817412E+03;  0.0000000E+00;  3.1635058E-01;  4.0000000E+04;  0.0000000E+00;  3.8608109E+04;  5.4069700E+00;  0.0000000E+00; -4.2380947E-01;  9.5786465E+03;
  1.7763915E+00;  9.9999998E-03;  2.1350302E-01;9080;  9.9656111E-01;  0.0000000E+00; -9.5331006E-02;  9.9636975E+02;  2.2290322E-01; -2.9893557E+03;3; -1.0827681E+02;  0.0000000E+00; -3.1143105E+01;0;  4.6878738E+00;  8.2031943E+03;  0.0000000E+00;  7.8720413E-02;  4.0000000E+04;  0.0000000E+00;  3.8726672E+04;  5.0794749E+00;  0.0000000E+00; -3.9160085E-01;  5.8421460E+03;
  1.7762289E+00;  9.9999998E-03;  9.1418251E-02;9068;  1.1643304E+00;  0.0000000E+00; -4.1518640E-02;  9.9948035E+02;  2.2287069E-01; -4.2790555E+02;3; -1.0537590E+02;  0.0000000E+00; -1.6679638E+01;0;  4.9571962E+00;  8.3105381E+03;  0.0000000E+00;  3.4839869E-01;  4.0000000E+04;  0.0000000E+00;  3.8602086E+04;  5.3834062E+00;  0.0000000E+00; -4.2620999E-01;  1.0341243E+04;
  1.7765622E+00;  9.9999998E-03;  8.1269123E-02;9067;  1.1746086E+00;  0.0000000E+00; -3.6836561E-02;  9.9965393E+02;  2.2267595E-01; -2.8496729E+02;3; -1.0332539E+02;  0.0000000E+00; -1.4854053E+01;0;  4.9385591E+00;  8.3279609E+03;  0.0000000E+00;  3.4293896E-01;  4.0000000E+04;  0.0000000E+00;  3.8596730E+04;  5.3674269E+00;  0.0000000E+00; -4.2886779E-01;  1.0921752E+04;
  1.7766912E+00;  9.9999998E-03;  7.1121678E-02;9066;  1.1815143E+00;  0.0000000E+00; -3.2328688E-02;  9.9962817E+02;  2.2258587E-01; -3.0616690E+02;3; -1.0229402E+02;  0.0000000E+00; -1.3072348E+01;0;  4.9290800E+00;  8.3346016E+03;  0.0000000E+00;  3.0564371E-01;  4.0000000E+04;  0.0000000E+00;  3.8593648E+04;  5.3609900E+00;  0.0000000E+00; -4.3191022E-01;  1.1298897E+04;
  1.7780466E+00;  9.9999998E-03;  2.2368076E-01;9081;  9.9479866E-01;  0.0000000E+00; -9.6393958E-02;  9.9464453E+02;  2.2233695E-01; -4.4093755E+03;3; -1.1256205E+02;  0.0000000E+00; -3.1999289E+01;0;  4.6208410E+00;  8.2201016E+03;  0.0000000E+00; -1.7249336E+00;  4.0000000E+04;  0.0000000E+00;  3.8752941E+04;  5.0223322E+00;  0.0000000E+00; -4.0149125E-01;  8.0261362E+03;
  1.7784691E+00;  9.9999998E-03;  2.3389839E-01;9082;  9.7493213E-01;  0.0000000E+00; -9.8452345E-02;  9.9168732E+02;  2.2240880E-01; -6.8439067E+03;3; -1.1915038E+02;  0.0000000E+00; -3.3364067E+01;0;  4.5527329E+00;  8.1760029E+03;  0.0000000E+00; -5.4043021E+00;  4.0000000E+04;  0.0000000E+00;  3.8773719E+04;  4.9629049E+00;  0.0000000E+00; -4.1017181E-01;  1.0906168E+04;
  1.7924464E+00;  9.9999998E-03;  1.7322078E-01;9135;  1.1309772E+00;  0.0000000E+00; -5.8599416E-02;  9.9882758E+02;  2.0764448E-01; -9.6387146E+02;3; -1.0392493E+02;  0.0000000E+00; -2.9059242E+01;0;  4.5175080E+00;  9.5392803E+03;  0.0000000E+00;  1.0234251E+00;  4.0000000E+04;  0.0000000E+00;  3.8620109E+04;  4.8577247E+00;  0.0000000E+00; -3.4021658E-01;  5.5878657E+03;
  1.7924643E+00;  9.9999998E-03;  1.6312245E-01;9134;  1.1457814E+00;  0.0000000E+00; -5.5787221E-02;  9.9834546E+02;  2.0766689E-01; -1.3602467E+03;3; -1.0083231E+02;  0.0000000E+00; -2.7680185E+01;0;  4.4833179E+00;  9.5369482E+03;  0.0000000E+00;  1.0129257E+00;  4.0000000E+04;  0.0000000E+00;  3.8615426E+04;  4.8179193E+00;  0.0000000E+00; -3.3460134E-01;  5.8810601E+03;
  1.7927922E+00;  9.9999998E-03;  1.8328407E-01;9136;  1.1191680E+00;  0.0000000E+00; -6.1274681E-02;  9.9943555E+02;  2.0746490E-01; -4.6403159E+02;3; -1.0573201E+02;  0.0000000E+00; -3.0553392E+01;0;  4.5352116E+00;  9.5583926E+03;  0.0000000E+00;  9.2064959E-01;  4.0000000E+04;  0.0000000E+00;  3.8625891E+04;  4.8826513E+00;  0.0000000E+00; -3.4744000E-01;  5.2007646E+03;
  1.7927185E+00;  9.9999998E-03;  1.5296243E-01;9133;  1.1622627E+00;  0.0000000E+00; -5.2417103E-02;  9.9810614E+02;  2.0757976E-01; -1.5569443E+03;3; -9.7498566E+01;  0.0000000E+00; -2.6127464E+01;0;  4.4340339E+00;  9.5494150E+03;  0.0000000E+00;  7.8076875E-01;  4.0000000E+04;  0.0000000E+00;  3.8609355E+04;  4.7646923E+00;  0.0000000E+00; -3.3065861E-01;  6.2856587E+03;
  1.7931010E+00;  9.9999998E-03;  1.4270453E-01;9132;  1.1799569E+00;  0.0000000E+00; -4.8742164E-02;  9.9817261E+02;  2.0741306E-01; -1.5022428E+03;3; -9.3757957E+01;  0.0000000E+00; -2.4587372E+01;0;  4.3728185E+00;  9.5731543E+03;  0.0000000E+00;  4.5862117E-01;  4.0000000E+04;  0.0000000E+00;  3.8601504E+04;  4.7011304E+00;  0.0000000E+00; -3.2831210E-01;  7.0696470E+03;
  1.7936685E+00;  9.9999998E-03;  1.9332591E-01;9137;  1.1135342E+00;  0.0000000E+00; -6.4053692E-02;  9.9994275E+02;  2.0709465E-01; -4.7084389E+01;3; -1.0544930E+02;  0.0000000E+00; -3.2058517E+01;0;  4.5363226E+00;  9.5936455E+03;  0.0000000E+00;  1.0973365E+00;  4.0000000E+04;  0.0000000E+00;  3.8637242E+04;  4.8927364E+00;  0.0000000E+00; -3.5641405E-01;  5.4231870E+03;
  1.7935890E+00;  9.9999998E-03;  1.3238838E-01;9131;  1.1979917E+00;  0.0000000E+00; -4.4856109E-02;  9.9851984E+02;  2.0719293E-01; -1.2167091E+03;3; -8.9819786E+01;  0.0000000E+00; -2.3032324E+01;0;  4.3016758E+00;  9.6059316E+03;  0.0000000E+00;  2.1912678E-01;  4.0000000E+04;  0.0000000E+00;  3.8593340E+04;  4.6287298E+00;  0.0000000E+00; -3.2705411E-01;  8.0325107E+03;
  1.7950317E+00;  9.9999998E-03;  2.0340246E-01;9138;  1.1139468E+00;  0.0000000E+00; -6.6830412E-02;  9.9989752E+02;  2.0658647E-01; -8.4209267E+01;3; -1.0490979E+02;  0.0000000E+00; -3.3285076E+01;0;  4.5284514E+00;  9.6338281E+03;  0.0000000E+00;  1.8776493E+00;  4.0000000E+04;  0.0000000E+00;  3.8657914E+04;  4.8967710E+00;  0.0000000E+00; -3.6831969E-01;  9.1454531E+03;
  1.7941737E+00;  9.9999998E-03;  1.2208685E-01;9130;  1.2156847E+00;  0.0000000E+00; -4.0878002E-02;  9.9908154E+02;  2.0692615E-01; -7.5492255E+02;3; -8.5713432E+01;  0.0000000E+00; -2.1737633E+01;0;  4.2228169E+00;  9.6449854E+03;  0.0000000E+00;  1.2972504E-01;  4.0000000E+04;  0.0000000E+00;  3.8585469E+04;  4.5490255E+00;  0.0000000E+00; -3.2620853E-01;  8.9569883E+03;
  1.7948102E+00;  9.9999998E-03;  1.1182454E-01;9129;  1.2323042E+00;  0.0000000E+00; -3.6982246E-02;  9.9973529E+02;  2.0663872E-01; -2.1755853E+02;3; -8.1555984E+01;  0.0000000E+00; -2.0261017E+01;0;  4.1401019E+00;  9.6862500E+03;  0.0000000E+00;  1.4528172E-01;  4.0000000E+04;  0.0000000E+00;  3.8577332E+04;  4.4655328E+00;  0.0000000E+00; -3.2543072E-01;  9.8367344E+03;
  1.7954472E+00;  9.9999998E-03;  1.0160561E-01;9128;  1.2472138E+00;  0.0000000E+00; -3.3097342E-02;  1.0003375E+03;  2.0634562E-01;  2.7735266E+02;3; -7.6991837E+01;  0.0000000E+00; -1.8612780E+01;0;  4.0578437E+00;  9.7259736E+03;  0.0000000E+00;  2.0603535E-01;  4.0000000E+04;  0.0000000E+00;  3.8570430E+04;  4.3824377E+00;  0.0000000E+00; -3.2459402E-01;  1.0659752E+04;
  1.7965850E+00;  9.9999998E-03;  2.1356100E-01;9139;  1.1154317E+00;  0.0000000E+00; -6.8943344E-02;  9.9868494E+02;  2.0608550E-01; -1.0806064E+03;3; -1.0649535E+02;  0.0000000E+00; -3.3894794E+01;0;  4.5250297E+00;  9.6576885E+03;  0.0000000E+00;  2.7165639E+00;  4.0000000E+04;  0.0000000E+00;  3.8683535E+04;  4.9084077E+00;  0.0000000E+00; -3.8337815E-01;  1.5937472E+04;
  1.7959934E+00;  9.9999998E-03;  9.1424398E-02;9127;  1.2596157E+00;  0.0000000E+00; -2.9412050E-02;  1.0008106E+03;  2.0609456E-01;  6.6615143E+02;3; -7.2860016E+01;  0.0000000E+00; -1.6913971E+01;0;  3.9823222E+00;  9.7587822E+03;  0.0000000E+00;  2.6598024E-01;  4.0000000E+04;  0.0000000E+00;  3.8564215E+04;  4.3062925E+00;  0.0000000E+00; -3.2397044E-01;  1.1365918E+04;
  1.7963922E+00;  9.9999998E-03;  8.1263095E-02;9126;  1.2691982E+00;  0.0000000E+00; -2.5860289E-02;  1.0010877E+03;  2.0590396E-01;  8.9377545E+02;3; -6.9238670E+01;  0.0000000E+00; -1.5091741E+01;0;  3.9181402E+00;  9.7817402E+03;  0.0000000E+00;  2.9612911E-01;  4.0000000E+04;  0.0000000E+00;  3.8559410E+04;  4.2419262E+00;  0.0000000E+00; -3.2378593E-01;  1.1894978E+04;
  1.7966357E+00;  9.9999998E-03;  7.1111232E-02;9125;  1.2761002E+00;  0.0000000E+00; -2.2451334E-02;  1.0011733E+03;  2.0577626E-01;  9.6408136E+02;3; -6.6510536E+01;  0.0000000E+00; -1.3243365E+01;0;  3.8670433E+00;  9.7950264E+03;  0.0000000E+00;  2.8859922E-01;  4.0000000E+04;  0.0000000E+00;  3.8556594E+04;  4.1911330E+00;  0.0000000E+00; -3.2408983E-01;  1.2210203E+04;
  1.7977881E+00;  9.9999998E-03;  2.3400462E-01;9141;  1.0896891E+00;  0.0000000E+00; -7.2679199E-02;  9.9226337E+02;  2.0608263E-01; -6.3563872E+03;3; -1.2236028E+02;  0.0000000E+00; -3.5336388E+01;0;  4.5758781E+00;  9.5570986E+03;  0.0000000E+00; -1.0552226E+00;  4.0000000E+04;  0.0000000E+00;  3.8733906E+04;  4.9820466E+00;  0.0000000E+00; -4.0616828E-01;  1.8605145E+04;
  1.7977188E+00;  9.9999998E-03;  2.2377875E-01;9140;  1.1098886E+00;  0.0000000E+00; -7.0156626E-02;  9.9594830E+02;  2.0583786E-01; -3.3288811E+03;3; -1.1186283E+02;  0.0000000E+00; -3.3781197E+01;0;  4.5414610E+00;  9.6376455E+03;  0.0000000E+00;  1.9958315E+00;  4.0000000E+04;  0.0000000E+00;  3.8708492E+04;  4.9385285E+00;  0.0000000E+00; -3.9706752E-01;  2.0077539E+04;
  1.8119891E+00;  9.9999998E-03;  1.7323159E-01;9193;  1.2288826E+00;  0.0000000E+00; -3.9301716E-02;  1.0017722E+03;  1.9330342E-01;  1.4531694E+03;3; -8.1582985E+01;  0.0000000E+00; -2.9718019E+01;0;  3.8474364E+00;  1.1084065E+04;  0.0000000E+00;  7.7275664E-01;  4.0000000E+04;  0.0000000E+00;  3.8566324E+04;  4.1283879E+00;  0.0000000E+00; -2.8095141E-01;  7.6026963E+03;
  1.8119913E+00;  9.9999998E-03;  1.6320457E-01;9192;  1.2395653E+00;  0.0000000E+00; -3.7133440E-02;  1.0010591E+03;  1.9332120E-01;  8.6842139E+02;3; -7.6763237E+01;  0.0000000E+00; -2.8134871E+01;0;  3.7572155E+00;  1.1075196E+04;  0.0000000E+00;  7.3321855E-01;  4.0000000E+04;  0.0000000E+00;  3.8565223E+04;  4.0239601E+00;  0.0000000E+00; -2.6674461E-01;  7.3579414E+03;
  1.8122537E+00;  9.9999998E-03;  1.8322758E-01;9194;  1.2196887E+00;  0.0000000E+00; -4.1628353E-02;  1.0024061E+03;  1.9320168E-01;  1.9729308E+03;3; -8.5395210E+01;  0.0000000E+00; -3.2141460E+01;0;  3.9264927E+00;  1.1101312E+04;  0.0000000E+00;  1.2179548E+00;  4.0000000E+04;  0.0000000E+00;  3.8571555E+04;  4.2239285E+00;  0.0000000E+00; -2.9743570E-01;  8.2493281E+03;
  1.8121164E+00;  9.9999998E-03;  1.5312125E-01;9191;  1.2505989E+00;  0.0000000E+00; -3.4755234E-02;  1.0004333E+03;  1.9328193E-01;  3.5531873E+02;3; -7.2022949E+01;  0.0000000E+00; -2.6346151E+01;0;  3.6600702E+00;  1.1074665E+04;  0.0000000E+00;  6.7258036E-01;  4.0000000E+04;  0.0000000E+00;  3.8563906E+04;  3.9154723E+00;  0.0000000E+00; -2.5540218E-01;  7.2745103E+03;
  1.8128693E+00;  9.9999998E-03;  1.9325322E-01;9195;  1.2133029E+00;  0.0000000E+00; -4.3934703E-02;  1.0026689E+03;  1.9299793E-01;  2.1881594E+03;3; -8.8077888E+01;  0.0000000E+00; -3.3751476E+01;0;  3.9947243E+00;  1.1122427E+04;  0.0000000E+00;  2.6896043E+00;  4.0000000E+04;  0.0000000E+00;  3.8588031E+04;  4.3107448E+00;  0.0000000E+00; -3.1602040E-01;  1.1858245E+04;
  1.8122890E+00;  9.9999998E-03;  1.4294548E-01;9190;  1.2619795E+00;  0.0000000E+00; -3.2251850E-02;  1.0000257E+03;  1.9321314E-01;  2.1113295E+01;3; -6.7071060E+01;  0.0000000E+00; -2.4436768E+01;0;  3.5590777E+00;  1.1082168E+04;  0.0000000E+00;  4.8738155E-01;  4.0000000E+04;  0.0000000E+00;  3.8559641E+04;  3.8061585E+00;  0.0000000E+00; -2.4708071E-01;  7.5307842E+03;
  1.8124952E+00;  9.9999998E-03;  1.3266599E-01;9189;  1.2732730E+00;  0.0000000E+00; -2.9646616E-02;  9.9989288E+02;  1.9312394E-01; -8.7822678E+01;3; -6.2137184E+01;  0.0000000E+00; -2.2640415E+01;0;  3.4559159E+00;  1.1097283E+04;  0.0000000E+00;  2.7330104E-01;  4.0000000E+04;  0.0000000E+00;  3.8553324E+04;  3.6973119E+00;  0.0000000E+00; -2.4139591E-01;  8.1466436E+03;
  1.8127809E+00;  9.9999998E-03;  1.2234104E-01;9188;  1.2846533E+00;  0.0000000E+00; -2.6990868E-02;  1.0000417E+03;  1.9300579E-01;  3.4208782E+01;3; -5.6905327E+01;  0.0000000E+00; -2.0891092E+01;0;  3.3504853E+00;  1.1119866E+04;  0.0000000E+00;  1.4284873E-01;  4.0000000E+04;  0.0000000E+00;  3.8546016E+04;  3.5879214E+00;  0.0000000E+00; -2.3743595E-01;  8.9261855E+03;
  1.8138487E+00;  9.9999998E-03;  2.0338921E-01;9196;  1.2102414E+00;  0.0000000E+00; -4.6079755E-02;  1.0020434E+03;  1.9272076E-01;  1.6750734E+03;3; -9.0540894E+01;  0.0000000E+00; -3.5304405E+01;0;  4.0570354E+00;  1.1136048E+04;  0.0000000E+00;  5.3598514E+00;  4.0000000E+04;  0.0000000E+00;  3.8613648E+04;  4.3937211E+00;  0.0000000E+00; -3.3668587E-01;  2.1489947E+04;
  1.8131975E+00;  9.9999998E-03;  1.1202878E-01;9187;  1.2960467E+00;  0.0000000E+00; -2.4298398E-02;  1.0003994E+03;  1.9284211E-01;  3.2740588E+02;3; -5.1456841E+01;  0.0000000E+00; -1.9419672E+01;0;  3.2424583E+00;  1.1150479E+04;  0.0000000E+00;  1.1139896E-01;  4.0000000E+04;  0.0000000E+00;  3.8538785E+04;  3.4766896E+00;  0.0000000E+00; -2.3423113E-01;  9.7353574E+03;
  1.8136948E+00;  9.9999998E-03;  1.0175800E-01;9186;  1.3067774E+00;  0.0000000E+00; -2.1550637E-02;  1.0008321E+03;  1.9264741E-01;  6.8212433E+02;3; -4.5828259E+01;  0.0000000E+00; -1.7791521E+01;0;  3.1359873E+00;  1.1184678E+04;  0.0000000E+00;  1.3515808E-01;  4.0000000E+04;  0.0000000E+00;  3.8531273E+04;  3.3674147E+00;  0.0000000E+00; -2.3142755E-01;  1.0515671E+04;
  1.8149896E+00;  9.9999998E-03;  2.1362990E-01;9197;  1.2085514E+00;  0.0000000E+00; -4.7979761E-02;  9.9989557E+02;  1.9247392E-01; -8.5590149E+01;3; -9.3907784E+01;  0.0000000E+00; -3.6518982E+01;0;  4.1250482E+00;  1.1122854E+04;  0.0000000E+00;  7.9462938E+00;  4.0000000E+04;  0.0000000E+00;  3.8638504E+04;  4.4836860E+00;  0.0000000E+00; -3.5863760E-01;  3.3640000E+04;
  1.8154838E+00;  9.9999998E-03;  2.3413426E-01;9199;  1.1858693E+00;  0.0000000E+00; -5.3170908E-02;  9.9212787E+02;  1.9281089E-01; -6.4515820E+03;3; -1.1136703E+02;  0.0000000E+00; -3.7817272E+01;0;  4.3340135E+00;  1.0942377E+04;  0.0000000E+00;  5.5372672E+00;  4.0000000E+04;  0.0000000E+00;  3.8692367E+04;  4.7278461E+00;  0.0000000E+00; -3.9383274E-01;  4.1117125E+04;
  1.8141974E+00;  9.9999998E-03;  9.1527529E-02;9185;  1.3162478E+00;  0.0000000E+00; -1.8906798E-02;  1.0012455E+03;  1.9245152E-01;  1.0209562E+03;3; -4.0549030E+01;  0.0000000E+00; -1.6160048E+01;0;  3.0360799E+00;  1.1217132E+04;  0.0000000E+00;  1.8002665E-01;  4.0000000E+04;  0.0000000E+00;  3.8524832E+04;  3.2650559E+00;  0.0000000E+00; -2.2897595E-01;  1.1205798E+04;
  1.8157359E+00;  9.9999998E-03;  2.2388808E-01;9198;  1.2028950E+00;  0.0000000E+00; -4.9803223E-02;  9.9625549E+02;  1.9244710E-01; -3.0686665E+03;3; -1.0000639E+02;  0.0000000E+00; -3.7000240E+01;0;  4.2164178E+00;  1.1059910E+04;  0.0000000E+00;  8.1221762E+00;  4.0000000E+04;  0.0000000E+00;  3.8664109E+04;  4.5946326E+00;  0.0000000E+00; -3.7821469E-01;  4.0922453E+04;
  1.8146422E+00;  9.9999998E-03;  8.1331104E-02;9184;  1.3239787E+00;  0.0000000E+00; -1.6363973E-02;  1.0015621E+03;  1.9227527E-01;  1.2804053E+03;3; -3.5793316E+01;  0.0000000E+00; -1.4398363E+01;0;  2.9468837E+00;  1.1244006E+04;  0.0000000E+00;  2.1848510E-01;  4.0000000E+04;  0.0000000E+00;  3.8519586E+04;  3.1738117E+00;  0.0000000E+00; -2.2692798E-01;  1.1745041E+04;
  1.8149827E+00;  9.9999998E-03;  7.1156174E-02;9183;  1.3297967E+00;  0.0000000E+00; -1.4001928E-02;  1.0017421E+03;  1.9213632E-01;  1.4278718E+03;3; -3.2042965E+01;  0.0000000E+00; -1.2750098E+01;0;  2.8714168E+00;  1.1263265E+04;  0.0000000E+00;  2.3295552E-01;  4.0000000E+04;  0.0000000E+00;  3.8516262E+04;  3.0968297E+00;  0.0000000E+00; -2.2541288E-01;  1.2091063E+04;
  1.8301859E+00;  9.9999998E-03;  1.8309613E-01;9251;  1.2905421E+00;  0.0000000E+00; -2.3709165E-02;  1.0044941E+03;  1.8162945E-01;  3.6735764E+03;3; -6.2057220E+01;  0.0000000E+00; -3.2373196E+01;0;  3.2612963E+00;  1.2635510E+04;  0.0000000E+00;  3.1558976E+00;  4.0000000E+04;  0.0000000E+00;  3.8513688E+04;  3.5057740E+00;  0.0000000E+00; -2.4447766E-01;  1.3753753E+04;
  1.8301123E+00;  9.9999998E-03;  1.7313130E-01;9250;  1.2977476E+00;  0.0000000E+00; -2.2335924E-02;  1.0039876E+03;  1.8164901E-01;  3.2594937E+03;3; -5.6204857E+01;  0.0000000E+00; -3.0225266E+01;0;  3.1398339E+00;  1.2628762E+04;  0.0000000E+00;  1.4065015E+00;  4.0000000E+04;  0.0000000E+00;  3.8502195E+04;  3.3619056E+00;  0.0000000E+00; -2.2207162E-01;  1.0293095E+04;
  1.8301634E+00;  9.9999998E-03;  1.6318035E-01;9249;  1.3049902E+00;  0.0000000E+00; -2.0860614E-02;  1.0032243E+03;  1.8163930E-01;  2.6355347E+03;3; -5.0712196E+01;  0.0000000E+00; -2.8790876E+01;0;  3.0172949E+00;  1.2618187E+04;  0.0000000E+00;  8.1550258E-01;  4.0000000E+04;  0.0000000E+00;  3.8502578E+04;  3.2196062E+00;  0.0000000E+00; -2.0231116E-01;  9.0312100E+03;
  1.8305118E+00;  9.9999998E-03;  1.9317544E-01;9252;  1.2846141E+00;  0.0000000E+00; -2.5268098E-02;  1.0044102E+03;  1.8156199E-01;  3.6047444E+03;3; -6.6856346E+01;  0.0000000E+00; -3.5080925E+01;0;  3.3798475E+00;  1.2633478E+04;  0.0000000E+00;  6.7547927E+00;  4.0000000E+04;  0.0000000E+00;  3.8538754E+04;  3.6485085E+00;  0.0000000E+00; -2.6866099E-01;  2.3464555E+04;
  1.8302480E+00;  9.9999998E-03;  1.5318535E-01;9248;  1.3118887E+00;  0.0000000E+00; -1.9373046E-02;  1.0023806E+03;  1.8161683E-01;  1.9458995E+03;3; -4.5539879E+01;  0.0000000E+00; -2.6806299E+01;0;  2.8959506E+00;  1.2607277E+04;  0.0000000E+00;  6.6419607E-01;  4.0000000E+04;  0.0000000E+00;  3.8506551E+04;  3.0818570E+00;  0.0000000E+00; -1.8590647E-01;  8.2074092E+03;
  1.8303041E+00;  9.9999998E-03;  1.4311509E-01;9247;  1.3182131E+00;  0.0000000E+00; -1.7878240E-02;  1.0016123E+03;  1.8159635E-01;  1.3178768E+03;3; -4.0671154E+01;  0.0000000E+00; -2.4851553E+01;0;  2.7780499E+00;  1.2598454E+04;  0.0000000E+00;  5.5517834E-01;  4.0000000E+04;  0.0000000E+00;  3.8508199E+04;  2.9512565E+00;  0.0000000E+00; -1.7320646E-01;  7.7408789E+03;
  1.8303430E+00;  9.9999998E-03;  1.3293420E-01;9246;  1.3240944E+00;  0.0000000E+00; -1.6440565E-02;  1.0010375E+03;  1.8157640E-01;  8.4801434E+02;3; -3.5773869E+01;  0.0000000E+00; -2.2833601E+01;0;  2.6633456E+00;  1.2594842E+04;  0.0000000E+00;  3.9585149E-01;  4.0000000E+04;  0.0000000E+00;  3.8506375E+04;  2.8272738E+00;  0.0000000E+00; -1.6392826E-01;  7.7448618E+03;
  1.8312131E+00;  9.9999998E-03;  2.0343201E-01;9253;  1.2815807E+00;  0.0000000E+00; -2.6798036E-02;  1.0030407E+03;  1.8145424E-01;  2.4849531E+03;3; -7.0952644E+01;  0.0000000E+00; -3.6879505E+01;0;  3.4957719E+00;  1.2613579E+04;  0.0000000E+00;  1.1816998E+01;  4.0000000E+04;  0.0000000E+00;  3.8566008E+04;  3.7891681E+00;  0.0000000E+00; -2.9339632E-01;  3.9758332E+04;
  1.8304251E+00;  9.9999998E-03;  1.2264564E-01;9245;  1.3295563E+00;  0.0000000E+00; -1.4960376E-02;  1.0007253E+03;  1.8153909E-01;  5.9290857E+02;3; -3.0531137E+01;  0.0000000E+00; -2.0583187E+01;0;  2.5503185E+00;  1.2599705E+04;  0.0000000E+00;  2.4361424E-01;  4.0000000E+04;  0.0000000E+00;  3.8501582E+04;  2.7076292E+00;  0.0000000E+00; -1.5731074E-01;  8.1468726E+03;
  1.8306195E+00;  9.9999998E-03;  1.1231288E-01;9244;  1.3352208E+00;  0.0000000E+00; -1.3450331E-02;  1.0006902E+03;  1.8146862E-01;  5.6414264E+02;3; -2.4854355E+01;  0.0000000E+00; -1.8455341E+01;0;  2.4381316E+00;  1.2614242E+04;  0.0000000E+00;  1.5378907E-01;  4.0000000E+04;  0.0000000E+00;  3.8495312E+04;  2.5904918E+00;  0.0000000E+00; -1.5236010E-01;  8.7541592E+03;
  1.8321201E+00;  9.9999998E-03;  2.3431122E-01;9256;  1.2646714E+00;  0.0000000E+00; -3.4110866E-02;  9.9116504E+02;  1.8190339E-01; -7.2189438E+03;3; -9.2595764E+01;  0.0000000E+00; -3.9443123E+01;0;  3.9566336E+00;  1.2302474E+04;  0.0000000E+00;  1.2646848E+01;  4.0000000E+04;  0.0000000E+00;  3.8643840E+04;  4.3074441E+00;  0.0000000E+00; -3.5081065E-01;  6.1669914E+04;
  1.8309357E+00;  9.9999998E-03;  1.0199374E-01;9243;  1.3411714E+00;  0.0000000E+00; -1.1870842E-02;  1.0008496E+03;  1.8136589E-01;  6.9436804E+02;3; -1.8985495E+01;  0.0000000E+00; -1.6436768E+01;0;  2.3284769E+00;  1.2636138E+04;  0.0000000E+00;  1.2011775E-01;  4.0000000E+04;  0.0000000E+00;  3.8488398E+04;  2.4767940E+00;  0.0000000E+00; -1.4831698E-01;  9.4324043E+03;
  1.8321402E+00;  9.9999998E-03;  2.1375504E-01;9254;  1.2810366E+00;  0.0000000E+00; -2.8357727E-02;  9.9984808E+02;  1.8137383E-01; -1.2414160E+02;3; -7.4726128E+01;  0.0000000E+00; -3.8163303E+01;0;  3.6184893E+00;  1.2558009E+04;  0.0000000E+00;  1.5766705E+01;  4.0000000E+04;  0.0000000E+00;  3.8587062E+04;  3.9352684E+00;  0.0000000E+00; -3.1677911E-01;  5.5600547E+04;
  1.8313339E+00;  9.9999998E-03;  9.1712490E-02;9242;  1.3469834E+00;  0.0000000E+00; -1.0261534E-02;  1.0011144E+03;  1.8123977E-01;  9.1068250E+02;3; -1.3269265E+01;  0.0000000E+00; -1.4503091E+01;0;  2.2245657E+00;  1.2661903E+04;  0.0000000E+00;  1.1576666E-01;  4.0000000E+04;  0.0000000E+00;  3.8481848E+04;  2.3693898E+00;  0.0000000E+00; -1.4482397E-01;  1.0095246E+04;
  1.8326274E+00;  9.9999998E-03;  2.2404413E-01;9255;  1.2777770E+00;  0.0000000E+00; -3.0290356E-02;  9.9542896E+02;  1.8148783E-01; -3.7345422E+03;3; -8.0966568E+01;  0.0000000E+00; -3.8888851E+01;0;  3.7711990E+00;  1.2450196E+04;  0.0000000E+00;  1.5777062E+01;  4.0000000E+04;  0.0000000E+00;  3.8614445E+04;  4.1067691E+00;  0.0000000E+00; -3.3557004E-01;  6.2763938E+04;
  1.8317517E+00;  9.9999998E-03;  8.1469037E-02;9241;  1.3519900E+00;  0.0000000E+00; -8.7124771E-03;  1.0013714E+03;  1.8110524E-01;  1.1206256E+03;3; -7.9030881E+00;  0.0000000E+00; -1.2596931E+01;0;  2.1299498E+00;  1.2687622E+04;  0.0000000E+00;  1.2654349E-01;  4.0000000E+04;  0.0000000E+00;  3.8475816E+04;  2.2717538E+00;  0.0000000E+00; -1.4180399E-01;  1.0672027E+04;
  1.8321350E+00;  9.9999998E-03;  7.1254820E-02;9240;  1.3558947E+00;  0.0000000E+00; -7.2921822E-03;  1.0015941E+03;  1.8098122E-01;  1.3024897E+03;3; -3.2025847E+00;  0.0000000E+00; -1.0787143E+01;0;  2.0472803E+00;  1.2709952E+04;  0.0000000E+00;  1.3804567E-01;  4.0000000E+04;  0.0000000E+00;  3.8471094E+04;  2.1865706E+00;  0.0000000E+00; -1.3929024E-01;  1.1111726E+04;
  1.8467548E+00;  9.9999998E-03;  1.8295772E-01;9308;  1.3376462E+00;  0.0000000E+00; -7.5239670E-03;  1.0056851E+03;  1.7224687E-01;  4.6298701E+03;3; -3.9591549E+01;  0.0000000E+00; -3.2402645E+01;0;  2.6376588E+00;  1.4111448E+04;  0.0000000E+00;  7.5906858E+00;  4.0000000E+04;  0.0000000E+00;  3.8454266E+04;  2.8294151E+00;  0.0000000E+00; -1.9175620E-01;  2.4040588E+04;
  1.8468788E+00;  9.9999998E-03;  1.9318484E-01;9309;  1.3347133E+00;  0.0000000E+00; -8.0465656E-03;  1.0051058E+03;  1.7227499E-01;  4.1580161E+03;3; -4.6266075E+01;  0.0000000E+00; -3.3522369E+01;0;  2.7867362E+00;  1.4082437E+04;  0.0000000E+00;  1.4074168E+01;  4.0000000E+04;  0.0000000E+00;  3.8486320E+04;  3.0037885E+00;  0.0000000E+00; -2.1705216E-01;  4.1037688E+04;
  1.8469423E+00;  9.9999998E-03;  1.7294684E-01;9307;  1.3419904E+00;  0.0000000E+00; -6.5010795E-03;  1.0053547E+03;  1.7218222E-01;  4.3606484E+03;3; -3.3512856E+01;  0.0000000E+00; -3.1173820E+01;0;  2.4909580E+00;  1.4124352E+04;  0.0000000E+00;  3.6191201E+00;  4.0000000E+04;  0.0000000E+00;  3.8431207E+04;  2.6576509E+00;  0.0000000E+00; -1.6669305E-01;  1.5190951E+04;
  1.8471851E+00;  9.9999998E-03;  1.6303203E-01;9306;  1.3462330E+00;  0.0000000E+00; -5.4727057E-03;  1.0046714E+03;  1.7211854E-01;  3.8039648E+03;3; -2.7795561E+01;  0.0000000E+00; -3.0543535E+01;0;  2.3513200E+00;  1.4123357E+04;  0.0000000E+00;  1.7268265E+00;  4.0000000E+04;  0.0000000E+00;  3.8425738E+04;  2.4953959E+00;  0.0000000E+00; -1.4407586E-01;  1.1614523E+04;
  1.8473613E+00;  9.9999998E-03;  1.5311611E-01;9305;  1.3497770E+00;  0.0000000E+00; -4.5567323E-03;  1.0037975E+03;  1.7207210E-01;  3.0921917E+03;3; -2.2879549E+01;  0.0000000E+00; -2.9221928E+01;0;  2.2207954E+00;  1.4111430E+04;  0.0000000E+00;  9.8236752E-01;  4.0000000E+04;  0.0000000E+00;  3.8431090E+04;  2.3455980E+00;  0.0000000E+00; -1.2480266E-01;  9.7387803E+03;
  1.8473458E+00;  9.9999998E-03;  1.1260001E-01;9301;  1.3579856E+00;  0.0000000E+00; -3.1822906E-03;  1.0008058E+03;  1.7205609E-01;  6.5618085E+02;3; -3.7309694E+00;  0.0000000E+00; -2.0824373E+01;0;  1.7738248E+00;  1.4053466E+04;  0.0000000E+00;  2.2209044E-01;  4.0000000E+04;  0.0000000E+00;  3.8442344E+04;  1.8557374E+00;  0.0000000E+00; -8.1912585E-02;  7.4263940E+03;
  1.8473558E+00;  9.9999998E-03;  1.2288941E-01;9302;  1.3565072E+00;  0.0000000E+00; -3.2215368E-03;  1.0012525E+03;  1.7205667E-01;  1.0198926E+03;3; -8.7710886E+00;  0.0000000E+00; -2.4514822E+01;0;  1.8779095E+00;  1.4059647E+04;  0.0000000E+00;  3.5620028E-01;  4.0000000E+04;  0.0000000E+00;  3.8445219E+04;  1.9662535E+00;  0.0000000E+00; -8.8343948E-02;  7.2697554E+03;
  1.8474368E+00;  9.9999998E-03;  1.4314264E-01;9304;  1.3525667E+00;  0.0000000E+00; -3.8893619E-03;  1.0028555E+03;  1.7204957E-01;  2.3250203E+03;3; -1.8095016E+01;  0.0000000E+00; -2.8211819E+01;0;  2.0992401E+00;  1.4093510E+04;  0.0000000E+00;  6.9514114E-01;  4.0000000E+04;  0.0000000E+00;  3.8438938E+04;  2.2084231E+00;  0.0000000E+00; -1.0918296E-01;  8.3962881E+03;
  1.8474139E+00;  9.9999998E-03;  1.3307653E-01;9303;  1.3547448E+00;  0.0000000E+00; -3.4448430E-03;  1.0019662E+03;  1.7204869E-01;  1.6010149E+03;3; -1.3489658E+01;  0.0000000E+00; -2.6911818E+01;0;  1.9857587E+00;  1.4074293E+04;  0.0000000E+00;  5.1928401E-01;  4.0000000E+04;  0.0000000E+00;  3.8444312E+04;  2.0829437E+00;  0.0000000E+00; -9.7185001E-02;  7.5553252E+03;
  1.8474447E+00;  9.9999998E-03;  1.0227285E-01;9300;  1.3597105E+00;  0.0000000E+00; -3.0478213E-03;  1.0006169E+03;  1.7203231E-01;  5.0231525E+02;3;  1.3789266E+00;  0.0000000E+00; -1.7229795E+01;0;  1.6734822E+00;  1.4057130E+04;  0.0000000E+00;  1.3603692E-01;  4.0000000E+04;  0.0000000E+00;  3.8437770E+04;  1.7505459E+00;  0.0000000E+00; -7.7063687E-02;  7.8397417E+03;
  1.8475463E+00;  9.9999998E-03;  2.0359004E-01;9310;  1.3348479E+00;  0.0000000E+00; -8.6562848E-03;  1.0027178E+03;  1.7225030E-01;  2.2128477E+03;3; -5.1045002E+01;  0.0000000E+00; -3.6308170E+01;0;  2.9341133E+00;  1.4027759E+04;  0.0000000E+00;  2.1253328E+01;  4.0000000E+04;  0.0000000E+00;  3.8505617E+04;  3.1738124E+00;  0.0000000E+00; -2.3969917E-01;  6.2364695E+04;
  1.8476720E+00;  9.9999998E-03;  9.1953278E-02;9299;  1.3618069E+00;  0.0000000E+00; -2.6698534E-03;  1.0006551E+03;  1.7197895E-01;  5.3334552E+02;3;  6.0697832E+00;  0.0000000E+00; -1.4871963E+01;0;  1.5780532E+00;  1.4069813E+04;  0.0000000E+00;  8.4512360E-02;  4.0000000E+04;  0.0000000E+00;  3.8431895E+04;  1.6511759E+00;  0.0000000E+00; -7.3122583E-02;  8.3741807E+03;
  1.8477859E+00;  9.9999998E-03;  2.3455355E-01;9313;  1.3275412E+00;  0.0000000E+00; -1.6084787E-02;  9.8966486E+02;  1.7290185E-01; -8.4146279E+03;3; -7.1619904E+01;  0.0000000E+00; -3.8659828E+01;0;  3.5319734E+00;  1.3613912E+04;  0.0000000E+00;  1.9236912E+01;  4.0000000E+04;  0.0000000E+00;  3.8580938E+04;  3.8117311E+00;  0.0000000E+00; -2.7975768E-01;  7.7712938E+04;
  1.8479916E+00;  9.9999998E-03;  8.1661947E-02;9298;  1.3639063E+00;  0.0000000E+00; -2.1548504E-03;  1.0008019E+03;  1.7190130E-01;  6.5287048E+02;3;  1.0000359E+01;  0.0000000E+00; -1.3129022E+01;0;  1.4899074E+00;  1.4088510E+04;  0.0000000E+00;  5.3284541E-02;  4.0000000E+04;  0.0000000E+00;  3.8425863E+04;  1.5596793E+00;  0.0000000E+00; -6.9771849E-02;  8.9387070E+03;
  1.8483869E+00;  9.9999998E-03;  2.1396522E-01;9311;  1.3372365E+00;  0.0000000E+00; -1.0003808E-02;  9.9843048E+02;  1.7226790E-01; -1.2776606E+03;3; -5.4602070E+01;  0.0000000E+00; -3.7117718E+01;0;  3.0938311E+00;  1.3926479E+04;  0.0000000E+00;  2.4985428E+01;  4.0000000E+04;  0.0000000E+00;  3.8523340E+04;  3.3525231E+00;  0.0000000E+00; -2.5869206E-01;  7.7734711E+04;
  1.8483567E+00;  9.9999998E-03;  7.1401983E-02;9297;  1.3656596E+00;  0.0000000E+00; -1.6401696E-03;  1.0010104E+03;  1.7181130E-01;  8.2253802E+02;3;  1.3123664E+01;  0.0000000E+00; -1.1609311E+01;0;  1.4110645E+00;  1.4109627E+04;  0.0000000E+00;  3.9168127E-02;  4.0000000E+04;  0.0000000E+00;  3.8420270E+04;  1.4779577E+00;  0.0000000E+00; -6.6893242E-02;  9.4640986E+03;
  1.8485667E+00;  9.9999998E-03;  2.2427331E-01;9312;  1.3364732E+00;  0.0000000E+00; -1.2137225E-02;  9.9354681E+02;  1.7247774E-01; -5.2529551E+03;3; -6.0800907E+01;  0.0000000E+00; -3.7944672E+01;0;  3.2946858E+00;  1.3777214E+04;  0.0000000E+00;  2.3490446E+01;  4.0000000E+04;  0.0000000E+00;  3.8552961E+04;  3.5661662E+00;  0.0000000E+00; -2.7148020E-01;  8.1719812E+04;
  1.8625859E+00;  9.9999998E-03;  2.3485784E-01;9369;  1.3710719E+00;  0.0000000E+00; -2.9274072E-03;  9.8833289E+02;  1.6543940E-01; -9.4594014E+03;3; -5.3128731E+01;  0.0000000E+00; -3.5896164E+01;0;  3.0784092E+00;  1.4871477E+04;  0.0000000E+00;  2.4603315E+01;  4.0000000E+04;  0.0000000E+00;  3.8502121E+04;  3.2920845E+00;  0.0000000E+00; -2.1367535E-01;  8.7941906E+04;
  1.8622843E+00;  9.9999998E-03;  1.8291464E-01;9364;  1.3674911E+00;  0.0000000E+00;  5.1651020E-03;  1.0060513E+03;  1.6458282E-01;  4.9066973E+03;3; -2.0871918E+01;  0.0000000E+00; -2.8253937E+01;0;  2.1015363E+00;  1.5502415E+04;  0.0000000E+00;  1.5303923E+01;  4.0000000E+04;  0.0000000E+00;  3.8395156E+04;  2.2420588E+00;  0.0000000E+00; -1.4052248E-01;  3.9907559E+04;
  1.8624291E+00;  9.9999998E-03;  1.9335538E-01;9365;  1.3690017E+00;  0.0000000E+00;  5.0595114E-03;  1.0046689E+03;  1.6464864E-01;  3.7856470E+03;3; -2.6643646E+01;  0.0000000E+00; -2.9173037E+01;0;  2.2578552E+00;  1.5446047E+04;  0.0000000E+00;  2.4712912E+01;  4.0000000E+04;  0.0000000E+00;  3.8422215E+04;  2.4221826E+00;  0.0000000E+00; -1.6432735E-01;  6.3152254E+04;
  1.8626950E+00;  9.9999998E-03;  1.7275029E-01;9363;  1.3688600E+00;  0.0000000E+00;  6.0246056E-03;  1.0059564E+03;  1.6446036E-01;  4.8291343E+03;3; -1.4936606E+01;  0.0000000E+00; -2.7829313E+01;0;  1.9469563E+00;  1.5538172E+04;  0.0000000E+00;  8.1933775E+00;  4.0000000E+04;  0.0000000E+00;  3.8358473E+04;  2.0620332E+00;  0.0000000E+00; -1.1507686E-01;  2.4079230E+04;
  1.8632153E+00;  9.9999998E-03;  2.0386025E-01;9366;  1.3732944E+00;  0.0000000E+00;  5.4096053E-03;  1.0009733E+03;  1.6467322E-01;  7.8900488E+02;3; -3.1749697E+01;  0.0000000E+00; -3.0699177E+01;0;  2.4159479E+00;  1.5349435E+04;  0.0000000E+00;  3.2217045E+01;  4.0000000E+04;  0.0000000E+00;  3.8430656E+04;  2.5976543E+00;  0.0000000E+00; -1.8170632E-01;  8.5010531E+04;
  1.8632146E+00;  9.9999998E-03;  1.6279458E-01;9362;  1.3707564E+00;  0.0000000E+00;  7.0812930E-03;  1.0053622E+03;  1.6433533E-01;  4.3466309E+03;3; -9.6661797E+00;  0.0000000E+00; -2.6838507E+01;0;  1.8025761E+00;  1.5555063E+04;  0.0000000E+00;  4.0916901E+00;  4.0000000E+04;  0.0000000E+00;  3.8338617E+04;  1.8942128E+00;  0.0000000E+00; -9.1636814E-02;  1.6118000E+04;
  1.8636464E+00;  9.9999998E-03;  2.2456938E-01;9368;  1.3771682E+00;  0.0000000E+00;  1.3614950E-03;  9.9114319E+02;  1.6504666E-01; -7.1784805E+03;3; -4.2102375E+01;  0.0000000E+00; -3.3870636E+01;0;  2.8213127E+00;  1.5023168E+04;  0.0000000E+00;  2.9911633E+01;  4.0000000E+04;  0.0000000E+00;  3.8480195E+04;  3.0274572E+00;  0.0000000E+00; -2.0614465E-01;  9.4970719E+04;
  1.8634435E+00;  9.9999998E-03;  1.0251672E-01;9356;  1.3697298E+00;  0.0000000E+00;  6.2611327E-03;  1.0004131E+03;  1.6428231E-01;  3.3480765E+02;3;  1.3060145E+01;  0.0000000E+00; -1.7291582E+01;0;  1.1728278E+00;  1.5433612E+04;  0.0000000E+00;  1.5841207E-01;  4.0000000E+04;  0.0000000E+00;  3.8373133E+04;  1.1911705E+00;  0.0000000E+00; -1.8342607E-02;  6.3038364E+03;
  1.8636048E+00;  9.9999998E-03;  1.5291010E-01;9361;  1.3719904E+00;  0.0000000E+00;  7.9525970E-03;  1.0045721E+03;  1.6424622E-01;  3.7056912E+03;3; -4.8992333E+00;  0.0000000E+00; -2.5684856E+01;0;  1.6717402E+00;  1.5552671E+04;  0.0000000E+00;  2.0538585E+00;  4.0000000E+04;  0.0000000E+00;  3.8337762E+04;  1.7431557E+00;  0.0000000E+00; -7.1415514E-02;  1.2328606E+04;
  1.8634677E+00;  9.9999998E-03;  9.2195489E-02;9355;  1.3692495E+00;  0.0000000E+00;  5.1426240E-03;  1.0001588E+03;  1.6428614E-01;  1.2870428E+02;3;  1.5722351E+01;  0.0000000E+00; -1.4727578E+01;0;  1.0913889E+00;  1.5428749E+04;  0.0000000E+00;  7.8589775E-02;  4.0000000E+04;  0.0000000E+00;  3.8370145E+04;  1.1056151E+00;  0.0000000E+00; -1.4226192E-02;  6.5203774E+03;
  1.8635387E+00;  9.9999998E-03;  1.1279438E-01;9357;  1.3705659E+00;  0.0000000E+00;  7.3658670E-03;  1.0009243E+03;  1.6425283E-01;  7.4921210E+02;3;  1.0184892E+01;  0.0000000E+00; -1.9699921E+01;0;  1.2591184E+00;  1.5450135E+04;  0.0000000E+00;  2.8052077E-01;  4.0000000E+04;  0.0000000E+00;  3.8373324E+04;  1.2829272E+00;  0.0000000E+00; -2.3808774E-02;  6.4087012E+03;
  1.8638480E+00;  9.9999998E-03;  2.1425153E-01;9367;  1.3771392E+00;  0.0000000E+00;  4.0630284E-03;  9.9584790E+02;  1.6477600E-01; -3.3650842E+03;3; -3.5336803E+01;  0.0000000E+00; -3.3107952E+01;0;  2.5970323E+00;  1.5199037E+04;  0.0000000E+00;  3.3660706E+01;  4.0000000E+04;  0.0000000E+00;  3.8449828E+04;  2.7927549E+00;  0.0000000E+00; -1.9572265E-01;  9.5671891E+04;
  1.8636951E+00;  9.9999998E-03;  1.2297855E-01;9358;  1.3714869E+00;  0.0000000E+00;  8.1841992E-03;  1.0016929E+03;  1.6421737E-01;  1.3720702E+03;3;  6.9586701E+00;  0.0000000E+00; -2.1708261E+01;0;  1.3501534E+00;  1.5476045E+04;  0.0000000E+00;  4.5256233E-01;  4.0000000E+04;  0.0000000E+00;  3.8368930E+04;  1.3814120E+00;  0.0000000E+00; -3.1258553E-02;  6.9950693E+03;
  1.8636248E+00;  9.9999998E-03;  8.1872895E-02;9354;  1.3691664E+00;  0.0000000E+00;  4.2597619E-03;  1.0001217E+03;  1.6426286E-01;  9.8649033E+01;3;  1.7976028E+01;  0.0000000E+00; -1.2327743E+01;0;  1.0158768E+00;  1.5434734E+04;  0.0000000E+00;  2.4377292E-02;  4.0000000E+04;  0.0000000E+00;  3.8365621E+04;  1.0268438E+00;  0.0000000E+00; -1.0967026E-02;  6.9330679E+03;
  1.8638066E+00;  9.9999998E-03;  1.4301257E-01;9360;  1.3724453E+00;  0.0000000E+00;  8.4706433E-03;  1.0036247E+03;  1.6419841E-01;  2.9376582E+03;3; -7.2550076E-01;  0.0000000E+00; -2.4600157E+01;0;  1.5538716E+00;  1.5534556E+04;  0.0000000E+00;  1.1261355E+00;  4.0000000E+04;  0.0000000E+00;  3.8347660E+04;  1.6085317E+00;  0.0000000E+00; -5.4660071E-02;  9.9506133E+03;
  1.8638171E+00;  9.9999998E-03;  1.3304709E-01;9359;  1.3722107E+00;  0.0000000E+00;  8.5668480E-03;  1.0026520E+03;  1.6419630E-01;  2.1493738E+03;3;  3.1594241E+00;  0.0000000E+00; -2.3200953E+01;0;  1.4475079E+00;  1.5506619E+04;  0.0000000E+00;  6.9677001E-01;  4.0000000E+04;  0.0000000E+00;  3.8359957E+04;  1.4888679E+00;  0.0000000E+00; -4.1360069E-02;  8.1810479E+03;
  1.8638902E+00;  9.9999998E-03;  7.1570665E-02;9353;  1.3693811E+00;  0.0000000E+00;  3.6154755E-03;  1.0002482E+03;  1.6421685E-01;  2.0114587E+02;3;  1.9839073E+01;  0.0000000E+00; -1.0022105E+01;0;  9.4768173E-01;  1.5449035E+04;  0.0000000E+00; -1.2447326E-02;  4.0000000E+04;  0.0000000E+00;  3.8359953E+04;  9.5594716E-01;  0.0000000E+00; -8.2654357E-03;  7.4476504E+03;
  1.8766276E+00;  9.9999998E-03;  2.3522457E-01;9424;  1.4020891E+00;  0.0000000E+00;  6.5511540E-03;  9.8794244E+02;  1.5920925E-01; -9.7285146E+03;3; -3.6055843E+01;  0.0000000E+00; -3.1050137E+01;0;  2.6379225E+00;  1.6089003E+04;  0.0000000E+00;  2.8445370E+01;  4.0000000E+04;  0.0000000E+00;  3.8402184E+04;  2.7925448E+00;  0.0000000E+00; -1.5462226E-01;  9.1895539E+04;
  1.8771034E+00;  9.9999998E-03;  1.8310368E-01;9419;  1.3869039E+00;  0.0000000E+00;  1.3775807E-02;  1.0054886E+03;  1.5828919E-01;  4.4276475E+03;3; -7.0671964E+00;  0.0000000E+00; -2.3218113E+01;0;  1.6586057E+00;  1.6787617E+04;  0.0000000E+00;  2.6719006E+01;  4.0000000E+04;  0.0000000E+00;  3.8324746E+04;  1.7502302E+00;  0.0000000E+00; -9.1624476E-02;  6.0625367E+04;
  1.8775328E+00;  9.9999998E-03;  1.9372311E-01;9420;  1.3930812E+00;  0.0000000E+00;  1.4589867E-02;  1.0027629E+03;  1.5835319E-01;  2.2284573E+03;3; -1.1600624E+01;  0.0000000E+00; -2.5016371E+01;0;  1.8056086E+00;  1.6697881E+04;  0.0000000E+00;  3.7197006E+01;  4.0000000E+04;  0.0000000E+00;  3.8333117E+04;  1.9166327E+00;  0.0000000E+00; -1.1102402E-01;  8.5729164E+04;
  1.8779113E+00;  9.9999998E-03;  2.2493830E-01;9423;  1.4060899E+00;  0.0000000E+00;  1.0873103E-02;  9.8900336E+02;  1.5888920E-01; -8.8681562E+03;3; -2.6072256E+01;  0.0000000E+00; -2.8857138E+01;0;  2.3866534E+00;  1.6195168E+04;  0.0000000E+00;  3.4549801E+01;  4.0000000E+04;  0.0000000E+00;  3.8389219E+04;  2.5313902E+00;  0.0000000E+00; -1.4473680E-01;  1.0201039E+05;
  1.8774914E+00;  9.9999998E-03;  1.7268939E-01;9418;  1.3846092E+00;  0.0000000E+00;  1.3736335E-02;  1.0059425E+03;  1.5815978E-01;  4.7930337E+03;3; -1.9196972E+00;  0.0000000E+00; -2.1009958E+01;0;  1.5127192E+00;  1.6842162E+04;  0.0000000E+00;  1.6114262E+01;  4.0000000E+04;  0.0000000E+00;  3.8286887E+04;  1.5805281E+00;  0.0000000E+00; -6.7809045E-02;  3.8147102E+04;
  1.8782982E+00;  9.9999998E-03;  2.0424002E-01;9421;  1.4003483E+00;  0.0000000E+00;  1.5039372E-02;  9.9787750E+02;  1.5842783E-01; -1.7114340E+03;3; -1.5854786E+01;  0.0000000E+00; -2.6105755E+01;0;  1.9654555E+00;  1.6550570E+04;  0.0000000E+00;  4.2094719E+01;  4.0000000E+04;  0.0000000E+00;  3.8337805E+04;  2.0894921E+00;  0.0000000E+00; -1.2403660E-01;  1.0251641E+05;
  1.8785144E+00;  9.9999998E-03;  2.1462259E-01;9422;  1.4050901E+00;  0.0000000E+00;  1.3900601E-02;  9.9269208E+02;  1.5860674E-01; -5.8920537E+03;3; -2.0376163E+01;  0.0000000E+00; -2.8344044E+01;0;  2.1587186E+00;  1.6365581E+04;  0.0000000E+00;  4.0186531E+01;  4.0000000E+04;  0.0000000E+00;  3.8360891E+04;  2.2925968E+00;  0.0000000E+00; -1.3387831E-01;  1.0686484E+05;
  1.8782440E+00;  9.9999998E-03;  1.6258505E-01;9417;  1.3842535E+00;  0.0000000E+00;  1.4420722E-02;  1.0054603E+03;  1.5800367E-01;  4.4028179E+03;3;  3.0564654E+00;  0.0000000E+00; -1.9956966E+01;0;  1.3751383E+00;  1.6877643E+04;  0.0000000E+00;  8.7900114E+00;  4.0000000E+04;  0.0000000E+00;  3.8248883E+04;  1.4197239E+00;  0.0000000E+00; -4.4585526E-02;  2.4020189E+04;
  1.8789165E+00;  9.9999998E-03;  1.5265395E-01;9416;  1.3837862E+00;  0.0000000E+00;  1.5155186E-02;  1.0047335E+03;  1.5786894E-01;  3.8158472E+03;3;  7.1897635E+00;  0.0000000E+00; -1.9310135E+01;0;  1.2515492E+00;  1.6892436E+04;  0.0000000E+00;  4.5626111E+00;  4.0000000E+04;  0.0000000E+00;  3.8232793E+04;  1.2760923E+00;  0.0000000E+00; -2.4543036E-02;  1.6646768E+04;
  1.8788974E+00;  9.9999998E-03;  8.2054690E-02;9409;  1.3715883E+00;  0.0000000E+00;  9.4500557E-03;  9.9952655E+02;  1.5788192E-01; -3.8165485E+02;3;  2.2964046E+01;  0.0000000E+00; -9.0508213E+00;0;  6.7899436E-01;  1.6721559E+04;  0.0000000E+00;  3.6020651E-02;  4.0000000E+04;  0.0000000E+00;  3.8289520E+04;  6.4412165E-01;  0.0000000E+00;  3.4872696E-02;  5.1199111E+03;
  1.8789470E+00;  9.9999998E-03;  9.2369951E-02;9410;  1.3729972E+00;  0.0000000E+00;  1.1217642E-02;  9.9978680E+02;  1.5785798E-01; -1.7186865E+02;3;  2.1208065E+01;  0.0000000E+00; -1.1397358E+01;0;  7.4042815E-01;  1.6732557E+04;  0.0000000E+00;  8.6702004E-02;  4.0000000E+04;  0.0000000E+00;  3.8290406E+04;  7.0844573E-01;  0.0000000E+00;  3.1982407E-02;  5.0653320E+03;
  1.8789833E+00;  9.9999998E-03;  7.1732640E-02;9408;  1.3706241E+00;  0.0000000E+00;  7.6707192E-03;  9.9949060E+02;  1.5788189E-01; -4.1061462E+02;3;  2.3842548E+01;  0.0000000E+00; -6.2451873E+00;0;  6.2348467E-01;  1.6722889E+04;  0.0000000E+00;  3.4482314E-03;  4.0000000E+04;  0.0000000E+00;  3.8285652E+04;  5.8640981E-01;  0.0000000E+00;  3.7074871E-02;  5.4490840E+03;
  1.8791051E+00;  9.9999998E-03;  1.0264090E-01;9411;  1.3747605E+00;  0.0000000E+00;  1.2831988E-02;  1.0003123E+03;  1.5782085E-01;  2.5175723E+02;3;  1.9599443E+01;  0.0000000E+00; -1.2978951E+01;0;  8.0743837E-01;  1.6755672E+04;  0.0000000E+00;  1.7515130E-01;  4.0000000E+04;  0.0000000E+00;  3.8287547E+04;  7.7940333E-01;  0.0000000E+00;  2.8035074E-02;  5.4050918E+03;
  1.8793567E+00;  9.9999998E-03;  1.4277139E-01;9415;  1.3827105E+00;  0.0000000E+00;  1.5650809E-02;  1.0039209E+03;  1.5778266E-01;  3.1602002E+03;3;  1.0621122E+01;  0.0000000E+00; -1.8540880E+01;0;  1.1420641E+00;  1.6885959E+04;  0.0000000E+00;  2.3194442E+00;  4.0000000E+04;  0.0000000E+00;  3.8236602E+04;  1.1501387E+00;  0.0000000E+00; -8.0746096E-03;  1.2609122E+04;
  1.8793093E+00;  9.9999998E-03;  1.1282486E-01;9412;  1.3768297E+00;  0.0000000E+00;  1.4242223E-02;  1.0010803E+03;  1.5777892E-01;  8.7070233E+02;3;  1.8101320E+01;  0.0000000E+00; -1.4243129E+01;0;  8.8006198E-01;  1.6788301E+04;  0.0000000E+00;  3.3150136E-01;  4.0000000E+04;  0.0000000E+00;  3.8279750E+04;  8.5752094E-01;  0.0000000E+00;  2.2541033E-02;  6.2671680E+03;
  1.8795432E+00;  9.9999998E-03;  1.3286737E-01;9414;  1.3810821E+00;  0.0000000E+00;  1.5735874E-02;  1.0029971E+03;  1.5774466E-01;  2.4153940E+03;3;  1.3506271E+01;  0.0000000E+00; -1.7434797E+01;0;  1.0449877E+00;  1.6861578E+04;  0.0000000E+00;  1.1833438E+00;  4.0000000E+04;  0.0000000E+00;  3.8250785E+04;  1.0399828E+00;  0.0000000E+00;  5.0048283E-03;  9.8447559E+03;
  1.8794944E+00;  9.9999998E-03;  1.2289565E-01;9413;  1.3790493E+00;  0.0000000E+00;  1.5280246E-02;  1.0020206E+03;  1.5774921E-01;  1.6284841E+03;3;  1.6153976E+01;  0.0000000E+00; -1.5810066E+01;0;  9.5853716E-01;  1.6826090E+04;  0.0000000E+00;  6.1883992E-01;  4.0000000E+04;  0.0000000E+00;  3.8266875E+04;  9.4349962E-01;  0.0000000E+00;  1.5037564E-02;  7.7447339E+03;
  1.8900673E+00;  9.9999998E-03;  2.3564680E-01;9478;  1.4226887E+00;  0.0000000E+00;  1.2956874E-02;  9.8922534E+02;  1.5396328E-01; -8.6446816E+03;3; -2.2681810E+01;  0.0000000E+00; -2.6836010E+01;0;  2.2219174E+00;  1.7292539E+04;  0.0000000E+00;  2.9770729E+01;  4.0000000E+04;  0.0000000E+00;  3.8277625E+04;  2.3291719E+00;  0.0000000E+00; -1.0725440E-01;  8.8041898E+04;
  1.8915093E+00;  9.9999998E-03;  2.2537048E-01;9477;  1.4249926E+00;  0.0000000E+00;  1.7054398E-02;  9.8800049E+02;  1.5373872E-01; -9.6209512E+03;3; -1.4990740E+01;  0.0000000E+00; -2.4771379E+01;0;  1.9963546E+00;  1.7318773E+04;  0.0000000E+00;  3.6597115E+01;  4.0000000E+04;  0.0000000E+00;  3.8275996E+04;  2.0885880E+00;  0.0000000E+00; -9.2233390E-02;  1.0160451E+05;
  1.8916597E+00;  9.9999998E-03;  1.8357359E-01;9473;  1.4018184E+00;  0.0000000E+00;  1.9537125E-02;  1.0035995E+03;  1.5307383E-01;  2.8858242E+03;3;  2.4114208E+00;  0.0000000E+00; -1.8252466E+01;0;  1.3043368E+00;  1.7951945E+04;  0.0000000E+00;  4.0448803E+01;  4.0000000E+04;  0.0000000E+00;  3.8224273E+04;  1.3484460E+00;  0.0000000E+00; -4.4109195E-02;  8.2444289E+04;
  1.8916526E+00;  9.9999998E-03;  1.7290352E-01;9472;  1.3948438E+00;  0.0000000E+00;  1.7832031E-02;  1.0053495E+03;  1.5297893E-01;  4.2888486E+03;3;  6.4905448E+00;  0.0000000E+00; -1.6412542E+01;0;  1.1777468E+00;  1.8031230E+04;  0.0000000E+00;  2.8139612E+01;  4.0000000E+04;  0.0000000E+00;  3.8207664E+04;  1.2026591E+00;  0.0000000E+00; -2.4912387E-02;  5.7228105E+04;
  1.8923026E+00;  9.9999998E-03;  1.9422948E-01;9474;  1.4109007E+00;  0.0000000E+00;  2.1241086E-02;  9.9930072E+02;  1.5314847E-01; -5.6046136E+02;3; -6.2907958E-01;  0.0000000E+00; -2.0346775E+01;0;  1.4392754E+00;  1.7813336E+04;  0.0000000E+00;  4.8145832E+01;  4.0000000E+04;  0.0000000E+00;  3.8218461E+04;  1.4967333E+00;  0.0000000E+00; -5.7457928E-02;  1.0265322E+05;
  1.8924479E+00;  9.9999998E-03;  2.1506454E-01;9476;  1.4235797E+00;  0.0000000E+00;  1.9843200E-02;  9.8983887E+02;  1.5349562E-01; -8.1434233E+03;3; -9.3513002E+00;  0.0000000E+00; -2.2506323E+01;0;  1.7833263E+00;  1.7442555E+04;  0.0000000E+00;  4.3548553E+01;  4.0000000E+04;  0.0000000E+00;  3.8254020E+04;  1.8636258E+00;  0.0000000E+00; -8.0299549E-02;  1.1012533E+05;
  1.8923914E+00;  9.9999998E-03;  1.6252834E-01;9471;  1.3914584E+00;  0.0000000E+00;  1.7648581E-02;  1.0051993E+03;  1.5282820E-01;  4.1669785E+03;3;  1.0562728E+01;  0.0000000E+00; -1.4909292E+01;0;  1.0567756E+00;  1.8080387E+04;  0.0000000E+00;  1.7005817E+01;  4.0000000E+04;  0.0000000E+00;  3.8163414E+04;  1.0598387E+00;  0.0000000E+00; -3.0630981E-03;  3.6683867E+04;
  1.8927184E+00;  9.9999998E-03;  2.0470423E-01;9475;  1.4188280E+00;  0.0000000E+00;  2.1210227E-02;  9.9406433E+02;  1.5328304E-01; -4.7563931E+03;3; -4.1455798E+00;  0.0000000E+00; -2.1281580E+01;0;  1.5959840E+00;  1.7626338E+04;  0.0000000E+00;  4.8510479E+01;  4.0000000E+04;  0.0000000E+00;  3.8228645E+04;  1.6652993E+00;  0.0000000E+00; -6.9315329E-02;  1.1158002E+05;
  1.8933129E+00;  9.9999998E-03;  1.5244178E-01;9470;  1.3894821E+00;  0.0000000E+00;  1.8123295E-02;  1.0045029E+03;  1.5267067E-01;  3.6072522E+03;3;  1.3988029E+01;  0.0000000E+00; -1.3786782E+01;0;  9.4600213E-01;  1.8112553E+04;  0.0000000E+00;  9.4971504E+00;  4.0000000E+04;  0.0000000E+00;  3.8127516E+04;  9.2970502E-01;  0.0000000E+00;  1.6297093E-02;  2.3906670E+04;
  1.8938159E+00;  9.9999998E-03;  7.1851291E-02;9462;  1.3707623E+00;  0.0000000E+00;  1.0339447E-02;  9.9895795E+02;  1.5258610E-01; -8.3459564E+02;3;  2.5915468E+01;  0.0000000E+00; -4.8051157E+00;0;  4.0594095E-01;  1.7929303E+04;  0.0000000E+00;  5.4629456E-02;  4.0000000E+04;  0.0000000E+00;  3.8191688E+04;  3.3606917E-01;  0.0000000E+00;  6.9871798E-02;  3.9066411E+03;
  1.8940624E+00;  9.9999998E-03;  1.4249675E-01;9469;  1.3874619E+00;  0.0000000E+00;  1.8520162E-02;  1.0037839E+03;  1.5254320E-01;  3.0301147E+03;3;  1.6898916E+01;  0.0000000E+00; -1.2924123E+01;0;  8.4756273E-01;  1.8124955E+04;  0.0000000E+00;  5.0135951E+00;  4.0000000E+04;  0.0000000E+00;  3.8115023E+04;  8.1579375E-01;  0.0000000E+00;  3.1768959E-02;  1.6763680E+04;
  1.8939433E+00;  9.9999998E-03;  8.2157999E-02;9463;  1.3723648E+00;  0.0000000E+00;  1.2553502E-02;  9.9920160E+02;  1.5255044E-01; -6.3940527E+02;3;  2.5493456E+01;  0.0000000E+00; -6.1703243E+00;0;  4.5002112E-01;  1.7944432E+04;  0.0000000E+00;  5.0131336E-02;  4.0000000E+04;  0.0000000E+00;  3.8191031E+04;  3.8165170E-01;  0.0000000E+00;  6.8369411E-02;  3.9730896E+03;
  1.8941702E+00;  9.9999998E-03;  9.2422023E-02;9464;  1.3744833E+00;  0.0000000E+00;  1.4506652E-02;  9.9969165E+02;  1.5250486E-01; -2.4690413E+02;3;  2.4841536E+01;  0.0000000E+00; -8.1284294E+00;0;  4.9966443E-01;  1.7972006E+04;  0.0000000E+00;  7.1829006E-02;  4.0000000E+04;  0.0000000E+00;  3.8185680E+04;  4.3343753E-01;  0.0000000E+00;  6.6226885E-02;  4.4822373E+03;
  1.8945284E+00;  9.9999998E-03;  1.3258751E-01;9468;  1.3850678E+00;  0.0000000E+00;  1.8615149E-02;  1.0030215E+03;  1.5246180E-01;  2.4191731E+03;3;  1.8993862E+01;  0.0000000E+00; -1.2003002E+01;0;  7.6078713E-01;  1.8116008E+04;  0.0000000E+00;  2.4812291E+00;  4.0000000E+04;  0.0000000E+00;  3.8122281E+04;  7.1720600E-01;  0.0000000E+00;  4.3581098E-02;  1.2493987E+04;
  1.8944201E+00;  9.9999998E-03;  1.0260774E-01;9465;  1.3769323E+00;  0.0000000E+00;  1.6081434E-02;  1.0004142E+03;  1.5246159E-01;  3.3167905E+02;3;  2.3632532E+01;  0.0000000E+00; -9.2184134E+00;0;  5.5511308E-01;  1.8008889E+04;  0.0000000E+00;  1.7343393E-01;  4.0000000E+04;  0.0000000E+00;  3.8174887E+04;  4.9200696E-01;  0.0000000E+00;  6.3106120E-02;  5.5392144E+03;
  1.8946297E+00;  9.9999998E-03;  1.1268388E-01;9466;  1.3796345E+00;  0.0000000E+00;  1.7354356E-02;  1.0012759E+03;  1.5243213E-01;  1.0214673E+03;3;  2.2621101E+01;  0.0000000E+00; -1.0069802E+01;0;  6.1633921E-01;  1.8049953E+04;  0.0000000E+00;  4.6127263E-01;  4.0000000E+04;  0.0000000E+00;  3.8158570E+04;  5.5770409E-01;  0.0000000E+00;  5.8635101E-02;  7.2069399E+03;
  1.8947060E+00;  9.9999998E-03;  1.2266231E-01;9467;  1.3824276E+00;  0.0000000E+00;  1.8244907E-02;  1.0021616E+03;  1.5242539E-01;  1.7304080E+03;3;  2.0951948E+01;  0.0000000E+00; -1.0924028E+01;0;  6.8419749E-01;  1.8088922E+04;  0.0000000E+00;  1.1271787E+00;  4.0000000E+04;  0.0000000E+00;  3.8139441E+04;  6.3185972E-01;  0.0000000E+00;  5.2337755E-02;  9.4946230E+03;
  1.9030859E+00;  9.9999998E-03;  2.3611146E-01;9531;  1.4360663E+00;  0.0000000E+00;  1.6891019E-02;  9.9249139E+02;  1.4951509E-01; -5.9851592E+03;3; -1.2638646E+01;  0.0000000E+00; -2.2562691E+01;0;  1.8351128E+00;  1.8504100E+04;  0.0000000E+00;  2.6532557E+01;  4.0000000E+04;  0.0000000E+00;  3.8130379E+04;  1.9102833E+00;  0.0000000E+00; -7.5170480E-02;  7.3987406E+04;
  1.9045743E+00;  9.9999998E-03;  2.2585374E-01;9530;  1.4372772E+00;  0.0000000E+00;  2.0601314E-02;  9.8887885E+02;  1.4938907E-01; -8.8574463E+03;3; -5.6053076E+00;  0.0000000E+00; -2.0361132E+01;0;  1.6499641E+00;  1.8430375E+04;  0.0000000E+00;  3.5357426E+01;  4.0000000E+04;  0.0000000E+00;  3.8138043E+04;  1.7030184E+00;  0.0000000E+00; -5.3054314E-02;  9.3075406E+04;
  1.9057271E+00;  9.9999998E-03;  2.1556698E-01;9529;  1.4356148E+00;  0.0000000E+00;  2.3237104E-02;  9.8831451E+02;  1.4922057E-01; -9.3009004E+03;3; -2.7832508E-01;  0.0000000E+00; -1.8518616E+01;0;  1.4690794E+00;  1.8469869E+04;  0.0000000E+00;  4.3705997E+01;  4.0000000E+04;  0.0000000E+00;  3.8124152E+04;  1.5044491E+00;  0.0000000E+00; -3.5369810E-02;  1.0588089E+05;
  1.9056355E+00;  9.9999998E-03;  1.7347367E-01;9525;  1.4039897E+00;  0.0000000E+00;  2.1037342E-02;  1.0036414E+03;  1.4866939E-01;  2.8984443E+03;3;  1.2255816E+01;  0.0000000E+00; -1.2461330E+01;0;  9.2089206E-01;  1.9100582E+04;  0.0000000E+00;  4.3172668E+01;  4.0000000E+04;  0.0000000E+00;  3.8096691E+04;  9.0437728E-01;  0.0000000E+00;  1.6514793E-02;  7.8213070E+04;
  1.9060410E+00;  9.9999998E-03;  1.8424016E-01;9526;  1.4141375E+00;  0.0000000E+00;  2.3718130E-02;  1.0000538E+03;  1.4875025E-01;  4.2879475E+01;3;  1.0226050E+01;  0.0000000E+00; -1.3949103E+01;0;  1.0306476E+00;  1.8974174E+04;  0.0000000E+00;  5.2763500E+01;  4.0000000E+04;  0.0000000E+00;  3.8086359E+04;  1.0271066E+00;  0.0000000E+00;  3.5409785E-03;  9.9237250E+04;
  1.9059548E+00;  9.9999998E-03;  1.6277991E-01;9524;  1.3966019E+00;  0.0000000E+00;  1.8870546E-02;  1.0046531E+03;  1.4855897E-01;  3.7030894E+03;3;  1.4871174E+01;  0.0000000E+00; -1.1054800E+01;0;  8.1998879E-01;  1.9169555E+04;  0.0000000E+00;  2.9843813E+01;  4.0000000E+04;  0.0000000E+00;  3.8073984E+04;  7.8629494E-01;  0.0000000E+00;  3.3693857E-02;  5.4470922E+04;
  1.9063985E+00;  9.9999998E-03;  2.0523757E-01;9528;  1.4310116E+00;  0.0000000E+00;  2.4847044E-02;  9.9066022E+02;  1.4903435E-01; -7.4310586E+03;3;  4.3115640E+00;  0.0000000E+00; -1.7414019E+01;0;  1.3025218E+00;  1.8605111E+04;  0.0000000E+00;  5.1008869E+01;  4.0000000E+04;  0.0000000E+00;  3.8099090E+04;  1.3223817E+00;  0.0000000E+00; -1.9859901E-02;  1.1240343E+05;
  1.9064717E+00;  9.9999998E-03;  1.9482036E-01;9527;  1.4237808E+00;  0.0000000E+00;  2.5168506E-02;  9.9506354E+02;  1.4886793E-01; -3.9274431E+03;3;  7.1974626E+00;  0.0000000E+00; -1.5229803E+01;0;  1.1564856E+00;  1.8792775E+04;  0.0000000E+00;  5.5057739E+01;  4.0000000E+04;  0.0000000E+00;  3.8082023E+04;  1.1636801E+00;  0.0000000E+00; -7.1945433E-03;  1.1093921E+05;
  1.9069083E+00;  9.9999998E-03;  1.5240474E-01;9523;  1.3924237E+00;  0.0000000E+00;  1.8360626E-02;  1.0041629E+03;  1.4840879E-01;  3.3111807E+03;3;  1.8002649E+01;  0.0000000E+00; -9.9788170E+00;0;  7.2647625E-01;  1.9212404E+04;  0.0000000E+00;  1.8271471E+01;  4.0000000E+04;  0.0000000E+00;  3.8029551E+04;  6.7515105E-01;  0.0000000E+00;  5.1325209E-02;  3.5670578E+04;
  1.9079406E+00;  9.9999998E-03;  1.4228967E-01;9522;  1.3894359E+00;  0.0000000E+00;  1.8502895E-02;  1.0034193E+03;  1.4825624E-01;  2.7180776E+03;3;  2.0258951E+01;  0.0000000E+00; -9.0091619E+00;0;  6.4197892E-01;  1.9241883E+04;  0.0000000E+00;  1.0351248E+01;  4.0000000E+04;  0.0000000E+00;  3.7996555E+04;  5.7654166E-01;  0.0000000E+00;  6.5437242E-02;  2.3606734E+04;
  1.9087520E+00;  9.9999998E-03;  1.3230054E-01;9521;  1.3865348E+00;  0.0000000E+00;  1.8559113E-02;  1.0027308E+03;  1.4813438E-01;  2.1696992E+03;3;  2.2262993E+01;  0.0000000E+00; -8.1329327E+00;0;  5.6674874E-01;  1.9253801E+04;  0.0000000E+00;  5.4214625E+00;  4.0000000E+04;  0.0000000E+00;  3.7986289E+04;  4.9125049E-01;  0.0000000E+00;  7.5498275E-02;  1.6431701E+04;
  1.9085151E+00;  9.9999998E-03;  7.1895137E-02;9515;  1.3703438E+00;  0.0000000E+00;  1.1750645E-02;  9.9872357E+02;  1.4815488E-01; -1.0143312E+03;3;  2.7152437E+01;  0.0000000E+00; -3.7986073E+00;0;  2.6584059E-01;  1.9067518E+04;  0.0000000E+00;  3.4894045E-02;  4.0000000E+04;  0.0000000E+00;  3.8072027E+04;  1.7448735E-01;  0.0000000E+00;  9.1353253E-02;  3.1653296E+03;
  1.9088271E+00;  9.9999998E-03;  8.2150541E-02;9516;  1.3722720E+00;  0.0000000E+00;  1.3707111E-02;  9.9918073E+02;  1.4810531E-01; -6.5091895E+02;3;  2.6994041E+01;  0.0000000E+00; -4.6481161E+00;0;  3.0138424E-01;  1.9098773E+04;  0.0000000E+00; -4.3787170E-02;  4.0000000E+04;  0.0000000E+00;  3.8064895E+04;  2.1049047E-01;  0.0000000E+00;  9.0893783E-02;  3.7779456E+03;
  1.9092581E+00;  9.9999998E-03;  1.2235510E-01;9520;  1.3834803E+00;  0.0000000E+00;  1.8281993E-02;  1.0020618E+03;  1.4805624E-01;  1.6376545E+03;3;  2.3952538E+01;  0.0000000E+00; -7.4446788E+00;0;  5.0003177E-01;  1.9245768E+04;  0.0000000E+00;  2.5186737E+00;  4.0000000E+04;  0.0000000E+00;  3.7994223E+04;  4.1783285E-01;  0.0000000E+00;  8.2198925E-02;  1.2002731E+04;
  1.9091300E+00;  9.9999998E-03;  9.2334449E-02;9517;  1.3746797E+00;  0.0000000E+00;  1.5358477E-02;  9.9982104E+02;  1.4805873E-01; -1.4213966E+02;3;  2.6688858E+01;  0.0000000E+00; -5.7915578E+00;0;  3.4244028E-01;  1.9138182E+04;  0.0000000E+00; -3.9744087E-02;  4.0000000E+04;  0.0000000E+00;  3.8051645E+04;  2.5232333E-01;  0.0000000E+00;  9.0116955E-02;  4.9248706E+03;
  1.9093679E+00;  9.9999998E-03;  1.0241625E-01;9518;  1.3774338E+00;  0.0000000E+00;  1.6608140E-02;  1.0005779E+03;  1.4802963E-01;  4.5902478E+02;3;  2.5868559E+01;  0.0000000E+00; -6.3537989E+00;0;  3.8888186E-01;  1.9180643E+04;  0.0000000E+00;  2.0499702E-01;  4.0000000E+04;  0.0000000E+00;  3.8033586E+04;  3.0011198E-01;  0.0000000E+00;  8.8769868E-02;  6.6404019E+03;
  1.9094517E+00;  9.9999998E-03;  1.1240654E-01;9519;  1.3803939E+00;  0.0000000E+00;  1.7618274E-02;  1.0013413E+03;  1.4802326E-01;  1.0653239E+03;3;  2.4979471E+01;  0.0000000E+00; -6.7537909E+00;0;  4.4100910E-01;  1.9219453E+04;  0.0000000E+00;  9.4057810E-01;  4.0000000E+04;  0.0000000E+00;  3.8012645E+04;  3.5464236E-01;  0.0000000E+00;  8.6366758E-02;  8.9429785E+03;
  1.9158933E+00;  9.9999998E-03;  2.3660100E-01;9583;  1.4461489E+00;  0.0000000E+00;  2.0612054E-02;  9.9733606E+02;  1.4573203E-01; -2.1073682E+03;3; -4.1343837E+00;  0.0000000E+00; -1.8250565E+01;0;  1.5106285E+00;  1.9718949E+04;  0.0000000E+00;  1.6288347E+01;  4.0000000E+04;  0.0000000E+00;  3.7967996E+04;  1.5475119E+00;  0.0000000E+00; -3.6883526E-02;  4.8247547E+04;
  1.9172841E+00;  9.9999998E-03;  2.2636926E-01;9582;  1.4457746E+00;  0.0000000E+00;  2.3099985E-02;  9.9203528E+02;  1.4568637E-01; -6.2949043E+03;3;  1.4166396E+00;  0.0000000E+00; -1.6433157E+01;0;  1.3559669E+00;  1.9558066E+04;  0.0000000E+00;  2.8880009E+01;  4.0000000E+04;  0.0000000E+00;  3.7978777E+04;  1.3744898E+00;  0.0000000E+00; -1.8522909E-02;  7.4751578E+04;
  1.9185194E+00;  9.9999998E-03;  2.1610762E-01;9581;  1.4434878E+00;  0.0000000E+00;  2.5307607E-02;  9.8897089E+02;  1.4560208E-01; -8.7097178E+03;3;  6.2403679E+00;  0.0000000E+00; -1.4982403E+01;0;  1.2100500E+00;  1.9492246E+04;  0.0000000E+00;  3.9853489E+01;  4.0000000E+04;  0.0000000E+00;  3.7971938E+04;  1.2066028E+00;  0.0000000E+00;  3.4472204E-03;  9.3442805E+04;
  1.9194424E+00;  9.9999998E-03;  2.0581041E-01;9580;  1.4392916E+00;  0.0000000E+00;  2.6990918E-02;  9.8882233E+02;  1.4547841E-01; -8.8215488E+03;3;  9.9757032E+00;  0.0000000E+00; -1.3079165E+01;0;  1.0742388E+00;  1.9538547E+04;  0.0000000E+00;  4.9734016E+01;  4.0000000E+04;  0.0000000E+00;  3.7950465E+04;  1.0498273E+00;  0.0000000E+00;  2.4411399E-02;  1.0558834E+05;
  1.9194916E+00;  9.9999998E-03;  1.6343522E-01;9576;  1.4026719E+00;  0.0000000E+00;  2.0448934E-02;  1.0031220E+03;  1.4498486E-01;  2.4638181E+03;3;  1.9022985E+01;  0.0000000E+00; -7.8975172E+00;0;  6.4606184E-01;  2.0144121E+04;  0.0000000E+00;  4.6226105E+01;  4.0000000E+04;  0.0000000E+00;  3.7953797E+04;  5.7704282E-01;  0.0000000E+00;  6.9019035E-02;  7.4403180E+04;
  1.9196334E+00;  9.9999998E-03;  1.7428666E-01;9577;  1.4132223E+00;  0.0000000E+00;  2.3882251E-02;  1.0001843E+03;  1.4507923E-01;  1.4543118E+02;3;  1.7690548E+01;  0.0000000E+00; -8.6528530E+00;0;  7.3262155E-01;  2.0029096E+04;  0.0000000E+00;  5.6955078E+01;  4.0000000E+04;  0.0000000E+00;  3.7940535E+04;  6.7388171E-01;  0.0000000E+00;  5.8739815E-02;  9.4655219E+04;
  1.9199290E+00;  9.9999998E-03;  1.9545181E-01;9579;  1.4329540E+00;  0.0000000E+00;  2.7560664E-02;  9.9135590E+02;  1.4533018E-01; -6.8197886E+03;3;  1.3512876E+01;  0.0000000E+00; -1.1724256E+01;0;  9.4817603E-01;  1.9676521E+04;  0.0000000E+00;  5.7508831E+01;  4.0000000E+04;  0.0000000E+00;  3.7927883E+04;  9.0811801E-01;  0.0000000E+00;  4.0057991E-02;  1.1079759E+05;
  1.9199440E+00;  9.9999998E-03;  1.8496995E-01;9578;  1.4240404E+00;  0.0000000E+00;  2.6669942E-02;  9.9565125E+02;  1.4518945E-01; -3.4309265E+03;3;  1.5870571E+01;  0.0000000E+00; -9.8183603E+00;0;  8.3360511E-01;  1.9858842E+04;  0.0000000E+00;  6.0640224E+01;  4.0000000E+04;  0.0000000E+00;  3.7923305E+04;  7.8279173E-01;  0.0000000E+00;  5.0813373E-02;  1.0739209E+05;
  1.9200566E+00;  9.9999998E-03;  1.5270329E-01;9575;  1.3950392E+00;  0.0000000E+00;  1.7995741E-02;  1.0037054E+03;  1.4487109E-01;  2.9231177E+03;3;  2.0724686E+01;  0.0000000E+00; -7.0000930E+00;0;  5.6920719E-01;  2.0204398E+04;  0.0000000E+00;  3.2184727E+01;  4.0000000E+04;  0.0000000E+00;  3.7930969E+04;  4.8737365E-01;  0.0000000E+00;  8.1833519E-02;  5.2449625E+04;
  1.9211450E+00;  9.9999998E-03;  1.4228745E-01;9574;  1.3903050E+00;  0.0000000E+00;  1.7117362E-02;  1.0030751E+03;  1.4473040E-01;  2.4241079E+03;3;  2.2542423E+01;  0.0000000E+00; -6.2204981E+00;0;  4.9954990E-01;  2.0241959E+04;  0.0000000E+00;  1.9969469E+01;  4.0000000E+04;  0.0000000E+00;  3.7888711E+04;  4.0596300E-01;  0.0000000E+00;  9.3586884E-02;  3.4847707E+04;
  1.9222707E+00;  9.9999998E-03;  1.3212077E-01;9573;  1.3867564E+00;  0.0000000E+00;  1.6881265E-02;  1.0023405E+03;  1.4459087E-01;  1.8435143E+03;3;  2.4095982E+01;  0.0000000E+00; -5.4899673E+00;0;  4.3644738E-01;  2.0269977E+04;  0.0000000E+00;  1.1324109E+01;  4.0000000E+04;  0.0000000E+00;  3.7856660E+04;  3.3482373E-01;  0.0000000E+00;  1.0162366E-01;  2.3008215E+04;
  1.9231548E+00;  9.9999998E-03;  1.2208535E-01;9572;  1.3834077E+00;  0.0000000E+00;  1.6564513E-02;  1.0017494E+03;  1.4447685E-01;  1.3771073E+03;3;  2.5468409E+01;  0.0000000E+00; -4.7837420E+00;0;  3.7968880E-01;  2.0284324E+04;  0.0000000E+00;  5.7472320E+00;  4.0000000E+04;  0.0000000E+00;  3.7845551E+04;  2.7379423E-01;  0.0000000E+00;  1.0589456E-01;  1.5663370E+04;
  1.9231761E+00;  9.9999998E-03;  7.1866333E-02;9567;  1.3695903E+00;  0.0000000E+00;  1.1770351E-02;  9.9882776E+02;  1.4445561E-01; -9.2276526E+02;3;  2.8078451E+01;  0.0000000E+00; -3.3214984E+00;0;  1.7935741E-01;  2.0138766E+04;  0.0000000E+00; -2.5553834E-01;  4.0000000E+04;  0.0000000E+00;  3.7923203E+04;  7.6122709E-02;  0.0000000E+00;  1.0323469E-01;  3.3282991E+03;
  1.9237098E+00;  9.9999998E-03;  1.1210386E-01;9571;  1.3801392E+00;  0.0000000E+00;  1.6026242E-02;  1.0012195E+03;  1.4440355E-01;  9.5960864E+02;3;  2.6465546E+01;  0.0000000E+00; -4.3285027E+00;0;  3.2892954E-01;  2.0280393E+04;  0.0000000E+00;  2.3918698E+00;  4.0000000E+04;  0.0000000E+00;  3.7851848E+04;  2.2157392E-01;  0.0000000E+00;  1.0735562E-01;  1.1163853E+04;
  1.9235458E+00;  9.9999998E-03;  8.2044512E-02;9568;  1.3716688E+00;  0.0000000E+00;  1.3171746E-02;  9.9940997E+02;  1.4440812E-01; -4.6433398E+02;3;  2.7867041E+01;  0.0000000E+00; -3.6644495E+00;0;  2.0935680E-01;  2.0179939E+04;  0.0000000E+00; -3.7568685E-01;  4.0000000E+04;  0.0000000E+00;  3.7908750E+04;  1.0497509E-01;  0.0000000E+00;  1.0438171E-01;  4.4696221E+03;
  1.9239230E+00;  9.9999998E-03;  1.0213172E-01;9570;  1.3770357E+00;  0.0000000E+00;  1.5265182E-02;  1.0006551E+03;  1.4436996E-01;  5.1537115E+02;3;  2.6995205E+01;  0.0000000E+00; -4.0049624E+00;0;  2.8384739E-01;  2.0258330E+04;  0.0000000E+00;  5.8110052E-01;  4.0000000E+04;  0.0000000E+00;  3.7869012E+04;  1.7682426E-01;  0.0000000E+00;  1.0702315E-01;  8.2220684E+03;
  1.9238338E+00;  9.9999998E-03;  9.2127152E-02;9569;  1.3741808E+00;  0.0000000E+00;  1.4318742E-02;  1.0000436E+03;  1.4437768E-01;  3.4328995E+01;3;  2.7700247E+01;  0.0000000E+00; -3.8699481E+00;0;  2.4412212E-01;  2.0222260E+04;  0.0000000E+00; -2.0334573E-01;  4.0000000E+04;  0.0000000E+00;  3.7889691E+04;  1.3832791E-01;  0.0000000E+00;  1.0579421E-01;  6.0858652E+03;
  1.9287157E+00;  9.9999998E-03;  2.3709607E-01;9633;  1.4541099E+00;  0.0000000E+00;  2.4187896E-02;  1.0022112E+03;  1.4253561E-01;  1.7335627E+03;3;  3.2415824E+00;  0.0000000E+00; -1.4161532E+01;0;  1.2508205E+00;  2.0877361E+04;  0.0000000E+00;  1.5410953E+00;  4.0000000E+04;  0.0000000E+00;  3.7803676E+04;  1.2434658E+00;  0.0000000E+00;  7.3547335E-03;  1.6698439E+04;
  1.9298515E+00;  9.9999998E-03;  2.2689596E-01;9632;  1.4519845E+00;  0.0000000E+00;  2.5416857E-02;  9.9691089E+02;  1.4252731E-01; -2.4197363E+03;3;  7.0941448E+00;  0.0000000E+00; -1.2936541E+01;0;  1.1185313E+00;  2.0693984E+04;  0.0000000E+00;  1.4990171E+01;  4.0000000E+04;  0.0000000E+00;  3.7808352E+04;  1.1001254E+00;  0.0000000E+00;  1.8405968E-02;  4.6116258E+04;
  1.9310157E+00;  9.9999998E-03;  2.1666531E-01;9631;  1.4493037E+00;  0.0000000E+00;  2.6985532E-02;  9.9207184E+02;  1.4251123E-01; -6.2045552E+03;3;  1.0708818E+01;  0.0000000E+00; -1.1397656E+01;0;  1.0051152E+00;  2.0539039E+04;  0.0000000E+00;  3.0038916E+01;  4.0000000E+04;  0.0000000E+00;  3.7802551E+04;  9.6414024E-01;  0.0000000E+00;  4.0974937E-02;  7.1756438E+04;
  1.9320400E+00;  9.9999998E-03;  2.0640279E-01;9630;  1.4453795E+00;  0.0000000E+00;  2.8395209E-02;  9.8936908E+02;  1.4245984E-01; -8.3130479E+03;3;  1.4343518E+01;  0.0000000E+00; -1.0039619E+01;0;  8.9990747E-01;  2.0477246E+04;  0.0000000E+00;  4.3715485E+01;  4.0000000E+04;  0.0000000E+00;  3.7783605E+04;  8.3450627E-01;  0.0000000E+00;  6.5401226E-02;  9.0653125E+04;
  1.9328015E+00;  9.9999998E-03;  1.9609496E-01;9629;  1.4395977E+00;  0.0000000E+00;  2.9154528E-02;  9.8935419E+02;  1.4236809E-01; -8.3196631E+03;3;  1.7410597E+01;  0.0000000E+00; -8.1297836E+00;0;  7.9740220E-01;  2.0522072E+04;  0.0000000E+00;  5.5206936E+01;  4.0000000E+04;  0.0000000E+00;  3.7758426E+04;  7.1242505E-01;  0.0000000E+00;  8.4977165E-02;  1.0245543E+05;
  1.9332193E+00;  9.9999998E-03;  1.8570442E-01;9628;  1.4316754E+00;  0.0000000E+00;  2.8560225E-02;  9.9176593E+02;  1.4224637E-01; -6.4327568E+03;3;  2.0576120E+01;  0.0000000E+00; -6.7420220E+00;0;  6.9737649E-01;  2.0651586E+04;  0.0000000E+00;  6.3088932E+01;  4.0000000E+04;  0.0000000E+00;  3.7742711E+04;  6.0090983E-01;  0.0000000E+00;  9.6466646E-02;  1.0649113E+05;
  1.9331950E+00;  9.9999998E-03;  1.6439326E-01;9626;  1.4098542E+00;  0.0000000E+00;  2.2550846E-02;  9.9970758E+02;  1.4200820E-01; -2.2845360E+02;3;  2.3622475E+01;  0.0000000E+00; -4.3099699E+00;0;  5.2239954E-01;  2.0977668E+04;  0.0000000E+00;  6.0919506E+01;  4.0000000E+04;  0.0000000E+00;  3.7778668E+04;  4.1674367E-01;  0.0000000E+00;  1.0565589E-01;  8.9537047E+04;
  1.9333001E+00;  9.9999998E-03;  1.7515892E-01;9627;  1.4213834E+00;  0.0000000E+00;  2.6324546E-02;  9.9569257E+02;  1.4212191E-01; -3.3649126E+03;3;  2.2563677E+01;  0.0000000E+00; -4.9587955E+00;0;  6.0381001E-01;  2.0820477E+04;  0.0000000E+00;  6.5451492E+01;  4.0000000E+04;  0.0000000E+00;  3.7750836E+04;  5.0172293E-01;  0.0000000E+00;  1.0208706E-01;  1.0207509E+05;
  1.9333029E+00;  9.9999998E-03;  1.5347788E-01;9625;  1.3992993E+00;  0.0000000E+00;  1.8676173E-02;  1.0022344E+03;  1.4190878E-01;  1.7455208E+03;3;  2.4015512E+01;  0.0000000E+00; -4.3205314E+00;0;  4.5529053E-01;  2.1084264E+04;  0.0000000E+00;  4.9635941E+01;  4.0000000E+04;  0.0000000E+00;  3.7795902E+04;  3.4420559E-01;  0.0000000E+00;  1.1108494E-01;  7.0867258E+04;
  1.9340110E+00;  9.9999998E-03;  1.4269355E-01;9624;  1.3916188E+00;  0.0000000E+00;  1.5996499E-02;  1.0026650E+03;  1.4179936E-01;  2.0806960E+03;3;  2.4367083E+01;  0.0000000E+00; -3.9533980E+00;0;  3.9808664E-01;  2.1139736E+04;  0.0000000E+00;  3.5075787E+01;  4.0000000E+04;  0.0000000E+00;  3.7777012E+04;  2.8043851E-01;  0.0000000E+00;  1.1764812E-01;  5.0727695E+04;
  1.9351802E+00;  9.9999998E-03;  1.3221420E-01;9623;  1.3867238E+00;  0.0000000E+00;  1.4763299E-02;  1.0020156E+03;  1.4167249E-01;  1.5721436E+03;3;  2.5102629E+01;  0.0000000E+00; -3.6999609E+00;0;  3.4684199E-01;  2.1173361E+04;  0.0000000E+00;  2.1994457E+01;  4.0000000E+04;  0.0000000E+00;  3.7737734E+04;  2.2424768E-01;  0.0000000E+00;  1.2259430E-01;  3.3953152E+04;
  1.9363854E+00;  9.9999998E-03;  1.2198947E-01;9622;  1.3829385E+00;  0.0000000E+00;  1.4088690E-02;  1.0013119E+03;  1.4154670E-01;  1.0222482E+03;3;  2.6278931E+01;  0.0000000E+00; -3.0207572E+00;0;  2.9970586E-01;  2.1200561E+04;  0.0000000E+00;  1.2369660E+01;  4.0000000E+04;  0.0000000E+00;  3.7705363E+04;  1.7553222E-01;  0.0000000E+00;  1.2417363E-01;  2.2118137E+04;
  1.9373304E+00;  9.9999998E-03;  1.1191007E-01;9621;  1.3794616E+00;  0.0000000E+00;  1.3452270E-02;  1.0008177E+03;  1.4144452E-01;  6.3662335E+02;3;  2.7222065E+01;  0.0000000E+00; -2.7242308E+00;0;  2.5670081E-01;  2.1218529E+04;  0.0000000E+00;  5.9973307E+00;  4.0000000E+04;  0.0000000E+00;  3.7691105E+04;  1.3397317E-01;  0.0000000E+00;  1.2272763E-01;  1.4574586E+04;
  1.9377210E+00;  9.9999998E-03;  7.1793996E-02;9617;  1.3686780E+00;  0.0000000E+00;  1.0625036E-02;  9.9911499E+02;  1.4138691E-01; -6.8883649E+02;3;  2.8627396E+01;  0.0000000E+00; -2.8912210E+00;0;  1.2678753E-01;  2.1134686E+04;  0.0000000E+00; -9.1043073E-01;  4.0000000E+04;  0.0000000E+00;  3.7744625E+04;  1.9196514E-02;  0.0000000E+00;  1.0759102E-01;  4.1771724E+03;
  1.9379263E+00;  9.9999998E-03;  1.0189441E-01;9620;  1.3762223E+00;  0.0000000E+00;  1.2791011E-02;  1.0004525E+03;  1.4137623E-01;  3.5205807E+02;3;  2.7892214E+01;  0.0000000E+00; -2.5563219E+00;0;  2.1783194E-01;  2.1221113E+04;  0.0000000E+00;  2.1209791E+00;  4.0000000E+04;  0.0000000E+00;  3.7693688E+04;  9.8484427E-02;  0.0000000E+00;  1.1934751E-01;  1.0072170E+04;
  1.9380566E+00;  9.9999998E-03;  8.1877753E-02;9618;  1.3707511E+00;  0.0000000E+00;  1.1374724E-02;  9.9964539E+02;  1.4135548E-01; -2.7591052E+02;3;  2.8487469E+01;  0.0000000E+00; -2.7837770E+00;0;  1.5284450E-01;  2.1175090E+04;  0.0000000E+00; -8.0114979E-01;  4.0000000E+04;  0.0000000E+00;  3.7725926E+04;  4.1848920E-02;  0.0000000E+00;  1.1099558E-01;  5.5621738E+03;
  1.9381577E+00;  9.9999998E-03;  9.1896467E-02;9619;  1.3733273E+00;  0.0000000E+00;  1.2125649E-02;  1.0001016E+03;  1.4134930E-01;  7.9023537E+01;3;  2.8267738E+01;  0.0000000E+00; -2.4974444E+00;0;  1.8318538E-01;  2.1205922E+04;  0.0000000E+00;  4.6951640E-02;  4.0000000E+04;  0.0000000E+00;  3.7707602E+04;  6.8056010E-02;  0.0000000E+00;  1.1512937E-01;  7.3776621E+03;
  1.9424912E+00;  9.9999998E-03;  2.2741632E-01;9680;  1.4571269E+00;  0.0000000E+00;  2.7553961E-02;  1.0017803E+03;  1.3985926E-01;  1.3799841E+03;3;  1.1683697E+01;  0.0000000E+00; -9.3360157E+00;0;  9.3640858E-01;  2.1769471E+04;  0.0000000E+00; -2.4250722E+00;  4.0000000E+04;  0.0000000E+00;  3.7638270E+04;  8.7978101E-01;  0.0000000E+00;  5.6627583E-02;  1.4111014E+04;
  1.9434357E+00;  9.9999998E-03;  2.1721832E-01;9679;  1.4539483E+00;  0.0000000E+00;  2.8458415E-02;  9.9692944E+02;  1.3987121E-01; -2.3779448E+03;3;  1.4541329E+01;  0.0000000E+00; -8.4228344E+00;0;  8.4910792E-01;  2.1595256E+04;  0.0000000E+00;  1.2434373E+01;  4.0000000E+04;  0.0000000E+00;  3.7627641E+04;  7.7094144E-01;  0.0000000E+00;  7.8166507E-02;  4.1209109E+04;
  1.9444093E+00;  9.9999998E-03;  2.0699117E-01;9678;  1.4500101E+00;  0.0000000E+00;  2.9499356E-02;  9.9245386E+02;  1.3987485E-01; -5.8388262E+03;3;  1.7410706E+01;  0.0000000E+00; -7.0638404E+00;0;  7.7087277E-01;  2.1446613E+04;  0.0000000E+00;  3.0533278E+01;  4.0000000E+04;  0.0000000E+00;  3.7606492E+04;  6.6638523E-01;  0.0000000E+00;  1.0448756E-01;  6.6564742E+04;
  1.9452794E+00;  9.9999998E-03;  1.9673030E-01;9677;  1.4446295E+00;  0.0000000E+00;  3.0080000E-02;  9.8986597E+02;  1.3984808E-01; -7.8349238E+03;3;  2.0762138E+01;  0.0000000E+00; -5.5922728E+00;0;  6.9106102E-01;  2.1383318E+04;  0.0000000E+00;  4.6867954E+01;  4.0000000E+04;  0.0000000E+00;  3.7576840E+04;  5.6475723E-01;  0.0000000E+00;  1.2630379E-01;  8.5542180E+04;
  1.9459549E+00;  9.9999998E-03;  1.8641554E-01;9676;  1.4372604E+00;  0.0000000E+00;  2.9696070E-02;  9.8973560E+02;  1.3977967E-01; -7.9307051E+03;3;  2.3773396E+01;  0.0000000E+00; -3.7202909E+00;0;  6.0702151E-01;  2.1418229E+04;  0.0000000E+00;  5.9556221E+01;  4.0000000E+04;  0.0000000E+00;  3.7549484E+04;  4.6747559E-01;  0.0000000E+00;  1.3954590E-01;  9.6766938E+04;
  1.9463803E+00;  9.9999998E-03;  1.7599973E-01;9675;  1.4277915E+00;  0.0000000E+00;  2.7834645E-02;  9.9181921E+02;  1.3967952E-01; -6.3183047E+03;3;  2.6418365E+01;  0.0000000E+00; -2.1331406E+00;0;  5.2214515E-01;  2.1532262E+04;  0.0000000E+00;  6.7445663E+01;  4.0000000E+04;  0.0000000E+00;  3.7540348E+04;  3.7820780E-01;  0.0000000E+00;  1.4393732E-01;  1.0001241E+05;
  1.9465810E+00;  9.9999998E-03;  1.6540994E-01;9674;  1.4165568E+00;  0.0000000E+00;  2.4446407E-02;  9.9527252E+02;  1.3956353E-01; -3.6505029E+03;3;  2.7500004E+01;  0.0000000E+00; -1.1175863E+00;0;  4.4340783E-01;  2.1684037E+04;  0.0000000E+00;  6.9316635E+01;  4.0000000E+04;  0.0000000E+00;  3.7557773E+04;  3.0027333E-01;  0.0000000E+00;  1.4313449E-01;  9.5383445E+04;
  1.9466963E+00;  9.9999998E-03;  1.5459624E-01;9673;  1.4050246E+00;  0.0000000E+00;  2.0311838E-02;  9.9882751E+02;  1.3945389E-01; -9.0527808E+02;3;  2.7486803E+01;  0.0000000E+00; -1.4717076E+00;0;  3.7802207E-01;  2.1827359E+04;  0.0000000E+00;  6.4356949E+01;  4.0000000E+04;  0.0000000E+00;  3.7593223E+04;  2.3631193E-01;  0.0000000E+00;  1.4171016E-01;  8.3722633E+04;
  1.9470080E+00;  9.9999998E-03;  1.4364469E-01;9672;  1.3948052E+00;  0.0000000E+00;  1.6344281E-02;  1.0010916E+03;  1.3935241E-01;  8.4257898E+02;3;  2.6964401E+01;  0.0000000E+00; -1.6402116E+00;0;  3.2544079E-01;  2.1927916E+04;  0.0000000E+00;  5.2972794E+01;  4.0000000E+04;  0.0000000E+00;  3.7616379E+04;  1.8456307E-01;  0.0000000E+00;  1.4087772E-01;  6.6972352E+04;
  1.9477890E+00;  9.9999998E-03;  1.3281180E-01;9671;  1.3875546E+00;  0.0000000E+00;  1.3499893E-02;  1.0015766E+03;  1.3925247E-01;  1.2159896E+03;3;  2.6469643E+01;  0.0000000E+00; -2.0948715E+00;0;  2.8230286E-01;  2.1981502E+04;  0.0000000E+00;  3.8139313E+01;  4.0000000E+04;  0.0000000E+00;  3.7604492E+04;  1.4212540E-01;  0.0000000E+00;  1.4017744E-01;  4.8700750E+04;
  1.9489561E+00;  9.9999998E-03;  1.2226465E-01;9670;  1.3827145E+00;  0.0000000E+00;  1.1975529E-02;  1.0010282E+03;  1.3914596E-01;  7.9214526E+02;3;  2.6852261E+01;  0.0000000E+00; -1.9988432E+00;0;  2.4377663E-01;  2.2011879E+04;  0.0000000E+00;  2.4233158E+01;  4.0000000E+04;  0.0000000E+00;  3.7570402E+04;  1.0577548E-01;  0.0000000E+00;  1.3800116E-01;  3.2830934E+04;
  1.9501683E+00;  9.9999998E-03;  1.1197783E-01;9669;  1.3788497E+00;  0.0000000E+00;  1.0969867E-02;  1.0003708E+03;  1.3904111E-01;  2.8538504E+02;3;  2.7629877E+01;  0.0000000E+00; -1.8557292E+00;0;  2.0765781E-01;  2.2036531E+04;  0.0000000E+00;  1.3573337E+01;  4.0000000E+04;  0.0000000E+00;  3.7538016E+04;  7.4293457E-02;  0.0000000E+00;  1.3336436E-01;  2.1115861E+04;
  1.9511366E+00;  9.9999998E-03;  1.0184724E-01;9668;  1.3754278E+00;  0.0000000E+00;  1.0159942E-02;  9.9995001E+02;  1.3895334E-01; -3.8445621E+01;3;  2.8424675E+01;  0.0000000E+00; -1.6600175E+00;0;  1.7422532E-01;  2.2055920E+04;  0.0000000E+00;  6.3323050E+00;  4.0000000E+04;  0.0000000E+00;  3.7520082E+04;  4.7363993E-02;  0.0000000E+00;  1.2686132E-01;  1.3433419E+04;
  1.9517465E+00;  9.9999998E-03;  9.1791518E-02;9667;  1.3724093E+00;  0.0000000E+00;  9.5474636E-03;  9.9972125E+02;  1.3889697E-01; -2.1418434E+02;3;  2.8613865E+01;  0.0000000E+00; -1.8001295E+00;0;  1.4389932E-01;  2.2063785E+04;  0.0000000E+00;  1.8735619E+00;  4.0000000E+04;  0.0000000E+00;  3.7517773E+04;  2.4311764E-02;  0.0000000E+00;  1.1958756E-01;  8.9361133E+03;
  1.9518639E+00;  9.9999998E-03;  7.1723722E-02;9665;  1.3677346E+00;  0.0000000E+00;  8.7109888E-03;  9.9921368E+02;  1.3887990E-01; -6.0405969E+02;3;  2.8967075E+01;  0.0000000E+00; -2.4120383E+00;0;  9.3701437E-02;  2.2031020E+04;  0.0000000E+00; -1.4700998E+00;  4.0000000E+04;  0.0000000E+00;  3.7541531E+04; -1.2911138E-02;  0.0000000E+00;  1.0661258E-01;  5.1240464E+03;
  1.9519783E+00;  9.9999998E-03;  8.1763193E-02;9666;  1.3698447E+00;  0.0000000E+00;  9.0684248E-03;  9.9950513E+02;  1.3887213E-01; -3.8014938E+02;3;  2.8947346E+01;  0.0000000E+00; -1.9853959E+00;0;  1.1697104E-01;  2.2055424E+04;  0.0000000E+00; -5.1416731E-01;  4.0000000E+04;  0.0000000E+00;  3.7526703E+04;  4.4031995E-03;  0.0000000E+00;  1.1256784E-01;  6.5295684E+03;
  1.9552476E+00;  9.9999998E-03;  2.2791947E-01;9727;  1.4621805E+00;  0.0000000E+00;  2.9464491E-02;  1.0049009E+03;  1.3764191E-01;  3.7520037E+03;3;  1.6061434E+01;  0.0000000E+00; -6.3595500E+00;0;  8.1441331E-01;  2.2699408E+04;  0.0000000E+00; -1.8067257E+00;  4.0000000E+04;  0.0000000E+00;  3.7470582E+04;  7.1963948E-01;  0.0000000E+00;  9.4773822E-02;  5.5528594E+03;
  1.9559730E+00;  9.9999998E-03;  2.1775417E-01;9726;  1.4578923E+00;  0.0000000E+00;  2.9630784E-02;  1.0015965E+03;  1.3764611E-01;  1.2212651E+03;3;  1.7689259E+01;  0.0000000E+00; -5.7461581E+00;0;  7.3638952E-01;  2.2582500E+04;  0.0000000E+00; -7.0556698E+00;  4.0000000E+04;  0.0000000E+00;  3.7454266E+04;  6.2364233E-01;  0.0000000E+00;  1.1274716E-01;  1.0064858E+04;
  1.9567531E+00;  9.9999998E-03;  2.0755975E-01;9725;  1.4537096E+00;  0.0000000E+00;  3.0123912E-02;  9.9721594E+02;  1.3766801E-01; -2.1280256E+03;3;  2.0193872E+01;  0.0000000E+00; -4.9947219E+00;0;  6.7749929E-01;  2.2424102E+04;  0.0000000E+00;  9.1352530E+00;  4.0000000E+04;  0.0000000E+00;  3.7428164E+04;  5.3888446E-01;  0.0000000E+00;  1.3861483E-01;  3.4975000E+04;
  1.9575726E+00;  9.9999998E-03;  1.9733904E-01;9724;  1.4484642E+00;  0.0000000E+00;  3.0470075E-02;  9.9303210E+02;  1.3768551E-01; -5.3213096E+03;3;  2.3086796E+01;  0.0000000E+00; -3.5435643E+00;0;  6.1786449E-01;  2.2283430E+04;  0.0000000E+00;  3.0059898E+01;  4.0000000E+04;  0.0000000E+00;  3.7391289E+04;  4.5524323E-01;  0.0000000E+00;  1.6262126E-01;  5.9669004E+04;
  1.9583321E+00;  9.9999998E-03;  1.8708326E-01;9723;  1.4415364E+00;  0.0000000E+00;  3.0057404E-02;  9.9046094E+02;  1.3767533E-01; -7.2789277E+03;3;  2.6276297E+01;  0.0000000E+00; -1.7556102E+00;0;  5.4934984E-01;  2.2216938E+04;  0.0000000E+00;  4.8570168E+01;  4.0000000E+04;  0.0000000E+00;  3.7351281E+04;  3.7170860E-01;  0.0000000E+00;  1.7764124E-01;  7.8163305E+04;
  1.9589602E+00;  9.9999998E-03;  1.7676485E-01;9722;  1.4326141E+00;  0.0000000E+00;  2.8396619E-02;  9.9009515E+02;  1.3762532E-01; -7.5529023E+03;3;  2.8698071E+01;  0.0000000E+00;  4.9002779E-01;0;  4.7284508E-01;  2.2239477E+04;  0.0000000E+00;  6.2151188E+01;  4.0000000E+04;  0.0000000E+00;  3.7321629E+04;  2.9101926E-01;  0.0000000E+00;  1.8182580E-01;  8.8713047E+04;
  1.9594264E+00;  9.9999998E-03;  1.6633260E-01;9721;  1.4220259E+00;  0.0000000E+00;  2.5385451E-02;  9.9176001E+02;  1.3754191E-01; -6.2801621E+03;3;  3.0300526E+01;  0.0000000E+00;  1.4775627E+00;0;  3.9678839E-01;  2.2334080E+04;  0.0000000E+00;  6.9900558E+01;  4.0000000E+04;  0.0000000E+00;  3.7316086E+04;  2.1838906E-01;  0.0000000E+00;  1.7839932E-01;  9.1354578E+04;
  1.9597633E+00;  9.9999998E-03;  1.5571912E-01;9720;  1.4106103E+00;  0.0000000E+00;  2.1623021E-02;  9.9469720E+02;  1.3743988E-01; -4.0400630E+03;3;  3.0593714E+01;  0.0000000E+00;  1.4306612E+00;0;  3.3045149E-01;  2.2464803E+04;  0.0000000E+00;  7.1389351E+01;  4.0000000E+04;  0.0000000E+00;  3.7339984E+04;  1.5815565E-01;  0.0000000E+00;  1.7229585E-01;  8.6871578E+04;
  1.9600780E+00;  9.9999998E-03;  1.4489257E-01;9719;  1.3994371E+00;  0.0000000E+00;  1.7542753E-02;  9.9777728E+02;  1.3733666E-01; -1.6928470E+03;3;  3.0228899E+01;  0.0000000E+00;  9.2067808E-01;0;  2.7630913E-01;  2.2591805E+04;  0.0000000E+00;  6.6367844E+01;  4.0000000E+04;  0.0000000E+00;  3.7380352E+04;  1.1125007E-01;  0.0000000E+00;  1.6505907E-01;  7.6466078E+04;
  1.9605486E+00;  9.9999998E-03;  1.3394639E-01;9718;  1.3900008E+00;  0.0000000E+00;  1.3660599E-02;  9.9988123E+02;  1.3724448E-01; -9.0426353E+01;3;  2.8748945E+01;  0.0000000E+00; -1.0541332E-01;0;  2.3385935E-01;  2.2685414E+04;  0.0000000E+00;  5.5330524E+01;  4.0000000E+04;  0.0000000E+00;  3.7408445E+04;  7.6574728E-02;  0.0000000E+00;  1.5728462E-01;  6.1878746E+04;
  1.9613156E+00;  9.9999998E-03;  1.2308804E-01;9717;  1.3833835E+00;  0.0000000E+00;  1.0956801E-02;  1.0005343E+03;  1.3715716E-01;  4.0636731E+02;3;  2.7928516E+01;  0.0000000E+00; -9.0609664E-01;0;  2.0029663E-01;  2.2739684E+04;  0.0000000E+00;  4.0869007E+01;  4.0000000E+04;  0.0000000E+00;  3.7405336E+04;  5.0772462E-02;  0.0000000E+00;  1.4952417E-01;  4.5888426E+04;
  1.9623611E+00;  9.9999998E-03;  1.1247874E-01;9716;  1.3786628E+00;  0.0000000E+00;  9.2314640E-03;  1.0001989E+03;  1.3707516E-01;  1.5105406E+02;3;  2.8157465E+01;  0.0000000E+00; -1.0892978E+00;0;  1.6998415E-01;  2.2767820E+04;  0.0000000E+00;  2.6626274E+01;  4.0000000E+04;  0.0000000E+00;  3.7379086E+04;  2.9243199E-02;  0.0000000E+00;  1.4074095E-01;  3.1405307E+04;
  1.9634696E+00;  9.9999998E-03;  1.0211939E-01;9715;  1.3748798E+00;  0.0000000E+00;  8.0527728E-03;  9.9960138E+02;  1.3699561E-01; -3.0245078E+02;3;  2.8763365E+01;  0.0000000E+00; -9.9844646E-01;0;  1.4127277E-01;  2.2786430E+04;  0.0000000E+00;  1.5145131E+01;  4.0000000E+04;  0.0000000E+00;  3.7348961E+04;  1.0429301E-02;  0.0000000E+00;  1.3084346E-01;  2.0183832E+04;
  1.9643962E+00;  9.9999998E-03;  9.1926940E-02;9714;  1.3716563E+00;  0.0000000E+00;  7.2289063E-03;  9.9915015E+02;  1.3692735E-01; -6.4410095E+02;3;  2.9012375E+01;  0.0000000E+00; -1.2638266E+00;0;  1.1460134E-01;  2.2801701E+04;  0.0000000E+00;  7.0753021E+00;  4.0000000E+04;  0.0000000E+00;  3.7328527E+04; -5.9272544E-03;  0.0000000E+00;  1.2052859E-01;  1.2548858E+04;
  1.9650089E+00;  9.9999998E-03;  8.1824116E-02;9713;  1.3690515E+00;  0.0000000E+00;  6.8242564E-03;  9.9891913E+02;  1.3688223E-01; -8.1861591E+02;3;  2.9063093E+01;  0.0000000E+00; -1.6541324E+00;0;  9.0633333E-02;  2.2809598E+04;  0.0000000E+00;  2.0165026E+00;  4.0000000E+04;  0.0000000E+00;  3.7321082E+04; -2.0100750E-02;  0.0000000E+00;  1.1073408E-01;  8.0657935E+03;
  1.9652601E+00;  9.9999998E-03;  7.1756735E-02;9712;  1.3668963E+00;  0.0000000E+00;  6.6125193E-03;  9.9876080E+02;  1.3686059E-01; -9.3823969E+02;3;  2.9404911E+01;  0.0000000E+00; -1.8333429E+00;0;  6.9623739E-02;  2.2805906E+04;  0.0000000E+00; -7.1559554E-01;  4.0000000E+04;  0.0000000E+00;  3.7323965E+04; -3.2596149E-02;  0.0000000E+00;  1.0221989E-01;  5.8773896E+03;
  1.9677590E+00;  9.9999998E-03;  2.2838902E-01;9773;  1.4677360E+00;  0.0000000E+00;  3.1065118E-02;  1.0082493E+03;  1.3578695E-01;  6.2274551E+03;3;  2.0449148E+01;  0.0000000E+00; -3.7097328E+00;0;  7.6079756E-01;  2.3560998E+04;  0.0000000E+00;  4.4931156E+01;  4.0000000E+04;  0.0000000E+00;  3.7304195E+04;  6.3028121E-01;  0.0000000E+00;  1.3051635E-01;  1.4389834E+04;
  1.9686146E+00;  9.9999998E-03;  2.1826367E-01;9772;  1.4622276E+00;  0.0000000E+00;  3.0888366E-02;  1.0045499E+03;  1.3580909E-01;  3.4311887E+03;3;  2.1334322E+01;  0.0000000E+00; -3.3322589E+00;0;  6.8069667E-01;  2.3425203E+04;  0.0000000E+00; -2.9845939E+00;  4.0000000E+04;  0.0000000E+00;  3.7281359E+04;  5.3171009E-01;  0.0000000E+00;  1.4898656E-01;  4.3520239E+03;
  1.9692321E+00;  9.9999998E-03;  2.0809695E-01;9771;  1.4570441E+00;  0.0000000E+00;  3.0645302E-02;  1.0016406E+03;  1.3581935E-01;  1.2362668E+03;3;  2.2959991E+01;  0.0000000E+00; -2.7822709E+00;0;  6.2234300E-01;  2.3323688E+04;  0.0000000E+00; -1.1535277E+01;  4.0000000E+04;  0.0000000E+00;  3.7254559E+04;  4.5210752E-01;  0.0000000E+00;  1.7023547E-01;  5.7605674E+03;
  1.9698807E+00;  9.9999998E-03;  1.9790357E-01;9770;  1.4515026E+00;  0.0000000E+00;  3.0395065E-02;  9.9778815E+02;  1.3584431E-01; -1.6654639E+03;3;  2.5459904E+01;  0.0000000E+00; -1.3891062E+00;0;  5.7162333E-01;  2.3187111E+04;  0.0000000E+00;  4.9328289E+00;  4.0000000E+04;  0.0000000E+00;  3.7214344E+04;  3.7939894E-01;  0.0000000E+00;  1.9222435E-01;  2.7808545E+04;
  1.9705787E+00;  9.9999998E-03;  1.8768623E-01;9769;  1.4447856E+00;  0.0000000E+00;  2.9703708E-02;  9.9393085E+02;  1.3586961E-01; -4.5659209E+03;3;  2.8107693E+01;  0.0000000E+00;  8.1286657E-01;0;  5.1454794E-01;  2.3059094E+04;  0.0000000E+00;  2.7650133E+01;  4.0000000E+04;  0.0000000E+00;  3.7163180E+04;  3.0676341E-01;  0.0000000E+00;  2.0778452E-01;  5.0848828E+04;
  1.9712533E+00;  9.9999998E-03;  1.7743139E-01;9768;  1.4363644E+00;  0.0000000E+00;  2.8032601E-02;  9.9139301E+02;  1.3586897E-01; -6.4697715E+03;3;  3.0718279E+01;  0.0000000E+00;  2.2611890E+00;0;  4.4606447E-01;  2.2992332E+04;  0.0000000E+00;  4.7554073E+01;  4.0000000E+04;  0.0000000E+00;  3.7113207E+04;  2.3341741E-01;  0.0000000E+00;  2.1264708E-01;  6.8137570E+04;
  1.9718570E+00;  9.9999998E-03;  1.6710581E-01;9767;  1.4261767E+00;  0.0000000E+00;  2.5211947E-02;  9.9077374E+02;  1.3583229E-01; -6.9300562E+03;3;  3.2371117E+01;  0.0000000E+00;  3.2290063E+00;0;  3.7114742E-01;  2.3001871E+04;  0.0000000E+00;  6.1566025E+01;  4.0000000E+04;  0.0000000E+00;  3.7080719E+04;  1.6321914E-01;  0.0000000E+00;  2.0792829E-01;  7.7739367E+04;
  1.9723760E+00;  9.9999998E-03;  1.5666059E-01;9766;  1.4150002E+00;  0.0000000E+00;  2.1722186E-02;  9.9193805E+02;  1.3576718E-01; -6.0515605E+03;3;  3.3148239E+01;  0.0000000E+00;  3.4899402E+00;0;  3.0173311E-01;  2.3073803E+04;  0.0000000E+00;  6.9121223E+01;  4.0000000E+04;  0.0000000E+00;  3.7076555E+04;  1.0305710E-01;  0.0000000E+00;  1.9867601E-01;  7.9965977E+04;
  1.9728339E+00;  9.9999998E-03;  1.4604387E-01;9765;  1.4036962E+00;  0.0000000E+00;  1.7920995E-02;  9.9425360E+02;  1.3568106E-01; -4.3109590E+03;3;  3.3059963E+01;  0.0000000E+00;  3.2610087E+00;0;  2.4331662E-01;  2.3179152E+04;  0.0000000E+00;  7.0470337E+01;  4.0000000E+04;  0.0000000E+00;  3.7101266E+04;  5.6275614E-02;  0.0000000E+00;  1.8704100E-01;  7.6022109E+04;
  1.9732944E+00;  9.9999998E-03;  1.3524163E-01;9764;  1.3933232E+00;  0.0000000E+00;  1.4052190E-02;  9.9680615E+02;  1.3559163E-01; -2.3946248E+03;3;  3.1503574E+01;  0.0000000E+00;  2.1989489E+00;0;  1.9730742E-01;  2.3286248E+04;  0.0000000E+00;  6.5866829E+01;  4.0000000E+04;  0.0000000E+00;  3.7140777E+04;  2.3473486E-02;  0.0000000E+00;  1.7383394E-01;  6.7285906E+04;
  1.9738479E+00;  9.9999998E-03;  1.2433267E-01;9763;  1.3851869E+00;  0.0000000E+00;  1.0886302E-02;  9.9872217E+02;  1.3551031E-01; -9.5736975E+02;3;  2.9821096E+01;  0.0000000E+00;  7.8340554E-01;0;  1.6362314E-01;  2.3371273E+04;  0.0000000E+00;  5.5935116E+01;  4.0000000E+04;  0.0000000E+00;  3.7171434E+04;  3.0713482E-03;  0.0000000E+00;  1.6055179E-01;  5.5277898E+04;
  1.9745588E+00;  9.9999998E-03;  1.1347581E-01;9762;  1.3792392E+00;  0.0000000E+00;  8.4736980E-03;  9.9956067E+02;  1.3543934E-01; -3.2887057E+02;3;  2.9244144E+01;  0.0000000E+00;  3.0185513E-02;0;  1.3632676E-01;  2.3425080E+04;  0.0000000E+00;  4.2641117E+01;  4.0000000E+04;  0.0000000E+00;  3.7177191E+04; -1.0463473E-02;  0.0000000E+00;  1.4679024E-01;  4.1966969E+04;
  1.9754421E+00;  9.9999998E-03;  1.0281842E-01;9761;  1.3747520E+00;  0.0000000E+00;  6.7100129E-03;  9.9948193E+02;  1.3538346E-01; -3.8736572E+02;3;  2.9298548E+01;  0.0000000E+00; -3.2298511E-01;0;  1.1145665E-01;  2.3450990E+04;  0.0000000E+00;  2.8819300E+01;  4.0000000E+04;  0.0000000E+00;  3.7159367E+04; -2.1363784E-02;  0.0000000E+00;  1.3282043E-01;  2.9408088E+04;
  1.9763459E+00;  9.9999998E-03;  9.2378423E-02;9760;  1.3711929E+00;  0.0000000E+00;  5.5307625E-03;  9.9895166E+02;  1.3532500E-01; -7.8289673E+02;3;  2.9499062E+01;  0.0000000E+00; -7.4778211E-01;0;  8.8267744E-02;  2.3464158E+04;  0.0000000E+00;  1.7116682E+01;  4.0000000E+04;  0.0000000E+00;  3.7133828E+04; -3.0973421E-02;  0.0000000E+00;  1.1924116E-01;  1.9248977E+04;
  1.9771535E+00;  9.9999998E-03;  8.2105957E-02;9759;  1.3684031E+00;  0.0000000E+00;  4.9656131E-03;  9.9840948E+02;  1.3527845E-01; -1.1865225E+03;3;  2.9485983E+01;  0.0000000E+00; -1.2332044E+00;0;  6.7172013E-02;  2.3470236E+04;  0.0000000E+00;  8.5161018E+00;  4.0000000E+04;  0.0000000E+00;  3.7112578E+04; -3.9576337E-02;  0.0000000E+00;  1.0674835E-01;  1.2029425E+04;
  1.9777291E+00;  9.9999998E-03;  7.1933530E-02;9758;  1.3661696E+00;  0.0000000E+00;  4.7331131E-03;  9.9803198E+02;  1.3524292E-01; -1.4670455E+03;3;  2.9894842E+01;  0.0000000E+00; -1.2709688E+00;0;  4.8404232E-02;  2.3471990E+04;  0.0000000E+00;  2.9702744E+00;  4.0000000E+04;  0.0000000E+00;  3.7100992E+04; -4.7426261E-02;  0.0000000E+00;  9.5830493E-02;  7.6535425E+03;
  1.9809815E+00;  9.9999998E-03;  2.1872593E-01;9816;  1.4667987E+00;  0.0000000E+00;  3.1912159E-02;  1.0081250E+03;  1.3426648E-01;  6.0300181E+03;3;  2.5739174E+01;  0.0000000E+00; -6.3575053E-01;0;  6.7865860E-01;  2.4224422E+04;  0.0000000E+00;  5.4233524E+01;  4.0000000E+04;  0.0000000E+00;  3.7109922E+04;  4.9632028E-01;  0.0000000E+00;  1.8233836E-01;  1.7736037E+04;
  1.9817725E+00;  9.9999998E-03;  2.0860139E-01;9815;  1.4609311E+00;  0.0000000E+00;  3.1649806E-02;  1.0043931E+03;  1.3429399E-01;  3.2568213E+03;3;  2.6421942E+01;  0.0000000E+00; -7.9479396E-02;0;  6.2169313E-01;  2.4086803E+04;  0.0000000E+00; -1.5599084E+00;  4.0000000E+04;  0.0000000E+00;  3.7075285E+04;  4.1483563E-01;  0.0000000E+00;  2.0685749E-01;  2.9908066E+03;
  1.9823201E+00;  9.9999998E-03;  1.9842796E-01;9814;  1.4545308E+00;  0.0000000E+00;  3.0437004E-02;  1.0019203E+03;  1.3431200E-01;  1.4225590E+03;3;  2.7735743E+01;  0.0000000E+00;  1.0639577E+00;0;  5.6106257E-01;  2.4002801E+04;  0.0000000E+00; -1.5306191E+01;  4.0000000E+04;  0.0000000E+00;  3.7039855E+04;  3.4095696E-01;  0.0000000E+00;  2.2010559E-01;  1.8955514E+03;
  1.9828688E+00;  9.9999998E-03;  1.8822448E-01;9813;  1.4476928E+00;  0.0000000E+00;  2.9160440E-02;  9.9871692E+02;  1.3433398E-01; -9.4977667E+02;3;  3.0150368E+01;  0.0000000E+00;  2.4826455E+00;0;  5.0584829E-01;  2.3895488E+04;  0.0000000E+00; -7.0045954E-01;  4.0000000E+04;  0.0000000E+00;  3.6990211E+04;  2.7327141E-01;  0.0000000E+00;  2.3257691E-01;  1.9656941E+04;
  1.9834709E+00;  9.9999998E-03;  1.7799658E-01;9812;  1.4394537E+00;  0.0000000E+00;  2.7242392E-02;  9.9532678E+02;  1.3435578E-01; -3.4562717E+03;3;  3.2373798E+01;  0.0000000E+00;  3.9690413E+00;0;  4.4029477E-01;  2.3788104E+04;  0.0000000E+00;  2.2103798E+01;  4.0000000E+04;  0.0000000E+00;  3.6929250E+04;  2.0372672E-01;  0.0000000E+00;  2.3656805E-01;  3.9820199E+04;
  1.9840853E+00;  9.9999998E-03;  1.6772963E-01;9811;  1.4294952E+00;  0.0000000E+00;  2.4333050E-02;  9.9290039E+02;  1.3436393E-01; -5.2462271E+03;3;  3.4131687E+01;  0.0000000E+00;  4.9742785E+00;0;  3.6323249E-01;  2.3724086E+04;  0.0000000E+00;  4.2302097E+01;  4.0000000E+04;  0.0000000E+00;  3.6872359E+04;  1.3310868E-01;  0.0000000E+00;  2.3012383E-01;  5.5137652E+04;
  1.9846740E+00;  9.9999998E-03;  1.5739132E-01;9810;  1.4184279E+00;  0.0000000E+00;  2.0786788E-02;  9.9202429E+02;  1.3434236E-01; -5.8886494E+03;3;  3.5329517E+01;  0.0000000E+00;  5.5082536E+00;0;  2.8682703E-01;  2.3720691E+04;  0.0000000E+00;  5.6424675E+01;  4.0000000E+04;  0.0000000E+00;  3.6835316E+04;  6.9142818E-02;  0.0000000E+00;  2.1768419E-01;  6.3753422E+04;
  1.9852287E+00;  9.9999998E-03;  1.4693964E-01;9809;  1.4069839E+00;  0.0000000E+00;  1.6954435E-02;  9.9262793E+02;  1.3429208E-01; -5.4386597E+03;3;  3.5345997E+01;  0.0000000E+00;  5.4232578E+00;0;  2.1945667E-01;  2.3768395E+04;  0.0000000E+00;  6.4037079E+01;  4.0000000E+04;  0.0000000E+00;  3.6827379E+04;  1.7326776E-02;  0.0000000E+00;  2.0212990E-01;  6.6007156E+04;
  1.9857631E+00;  9.9999998E-03;  1.3633719E-01;9808;  1.3962839E+00;  0.0000000E+00;  1.3337199E-02;  9.9423926E+02;  1.3422559E-01; -4.2466323E+03;3;  3.4133457E+01;  0.0000000E+00;  4.1403265E+00;0;  1.6722880E-01;  2.3845338E+04;  0.0000000E+00;  6.5708923E+01;  4.0000000E+04;  0.0000000E+00;  3.6846523E+04; -1.8458882E-02;  0.0000000E+00;  1.8568769E-01;  6.3103680E+04;
  1.9863044E+00;  9.9999998E-03;  1.2557544E-01;9807;  1.3872807E+00;  0.0000000E+00;  1.0371816E-02;  9.9617664E+02;  1.3415131E-01; -2.8162393E+03;3;  3.1992760E+01;  0.0000000E+00;  2.4617705E+00;0;  1.3022470E-01;  2.3929170E+04;  0.0000000E+00;  6.2166794E+01;  4.0000000E+04;  0.0000000E+00;  3.6880996E+04; -3.8807176E-02;  0.0000000E+00;  1.6903187E-01;  5.6427070E+04;
  1.9868962E+00;  9.9999998E-03;  1.1471914E-01;9806;  1.3803966E+00;  0.0000000E+00;  7.9670670E-03;  9.9776068E+02;  1.3408385E-01; -1.6480621E+03;3;  3.0704823E+01;  0.0000000E+00;  1.4463592E+00;0;  1.0334802E-01;  2.3998818E+04;  0.0000000E+00;  5.3936573E+01;  4.0000000E+04;  0.0000000E+00;  3.6910422E+04; -4.8208408E-02;  0.0000000E+00;  1.5155643E-01;  4.7150320E+04;
  1.9875534E+00;  9.9999998E-03;  1.0389099E-01;9805;  1.3751190E+00;  0.0000000E+00;  5.9467526E-03;  9.9859198E+02;  1.3402921E-01; -1.0352592E+03;3;  3.0230343E+01;  0.0000000E+00;  6.9949228E-01;0;  8.0792829E-02;  2.4045936E+04;  0.0000000E+00;  4.2473953E+01;  4.0000000E+04;  0.0000000E+00;  3.6920312E+04; -5.2886683E-02;  0.0000000E+00;  1.3367951E-01;  3.6675953E+04;
  1.9882628E+00;  9.9999998E-03;  9.3203537E-02;9804;  1.3710601E+00;  0.0000000E+00;  4.4406392E-03;  9.9866949E+02;  1.3398771E-01; -9.7722064E+02;3;  3.0091370E+01;  0.0000000E+00; -2.7900295E-02;0;  6.0687210E-02;  2.4070578E+04;  0.0000000E+00;  3.0058172E+01;  4.0000000E+04;  0.0000000E+00;  3.6909965E+04; -5.5979181E-02;  0.0000000E+00;  1.1666639E-01;  2.6511010E+04;
  1.9889674E+00;  9.9999998E-03;  8.2671098E-02;9803;  1.3679616E+00;  0.0000000E+00;  3.6091444E-03;  9.9830292E+02;  1.3395360E-01; -1.2451534E+03;3;  3.0024260E+01;  0.0000000E+00; -6.4885998E-01;0;  4.2708255E-02;  2.4078949E+04;  0.0000000E+00;  1.9069239E+01;  4.0000000E+04;  0.0000000E+00;  3.6891000E+04; -5.8696397E-02;  0.0000000E+00;  1.0140465E-01;  1.7971582E+04;
  1.9895988E+00;  9.9999998E-03;  7.2237179E-02;9802;  1.3655283E+00;  0.0000000E+00;  3.2367576E-03;  9.9781616E+02;  1.3392653E-01; -1.6008059E+03;3;  3.0349041E+01;  0.0000000E+00; -7.9699367E-01;0;  2.6512489E-02;  2.4077535E+04;  0.0000000E+00;  1.0769962E+01;  4.0000000E+04;  0.0000000E+00;  3.6874754E+04; -6.1652824E-02;  0.0000000E+00;  8.8165313E-02;  1.1658661E+04;
  1.9939989E+00;  9.9999998E-03;  2.0904067E-01;9857;  1.4645463E+00;  0.0000000E+00;  3.1788275E-02;  1.0083577E+03;  1.3301475E-01;  6.0851768E+03;3;  3.0022943E+01;  0.0000000E+00;  2.3531554E+00;0;  6.5010691E-01;  2.4836875E+04;  0.0000000E+00;  6.8343788E+01;  4.0000000E+04;  0.0000000E+00;  3.6901105E+04;  4.1833889E-01;  0.0000000E+00;  2.3176803E-01;  2.2019566E+04;
  1.9947625E+00;  9.9999998E-03;  1.9891469E-01;9856;  1.4578985E+00;  0.0000000E+00;  3.0780209E-02;  1.0045151E+03;  1.3305382E-01;  3.2835488E+03;3;  3.0731546E+01;  0.0000000E+00;  3.7951453E+00;0;  5.9353483E-01;  2.4695059E+04;  0.0000000E+00;  4.4372001E+00;  4.0000000E+04;  0.0000000E+00;  3.6852094E+04;  3.4389850E-01;  0.0000000E+00;  2.4963629E-01;  8.9703918E+02;
  1.9952748E+00;  9.9999998E-03;  1.8872240E-01;9855;  1.4504660E+00;  0.0000000E+00;  2.8701555E-02;  1.0024300E+03;  1.3306683E-01;  1.7657036E+03;3;  3.2131752E+01;  0.0000000E+00;  4.8893590E+00;0;  5.2655733E-01;  2.4630090E+04;  0.0000000E+00; -1.7282404E+01;  4.0000000E+04;  0.0000000E+00;  3.6812352E+04;  2.7236885E-01;  0.0000000E+00;  2.5418845E-01;  2.2779778E+03;
  1.9957653E+00;  9.9999998E-03;  1.7849241E-01;9854;  1.4420118E+00;  0.0000000E+00;  2.6072189E-02;  9.9996167E+02;  1.3308358E-01; -2.7827351E+01;3;  3.4131046E+01;  0.0000000E+00;  5.9424219E+00;0;  4.5301443E-01;  2.4553873E+04;  0.0000000E+00; -8.0703278E+00;  4.0000000E+04;  0.0000000E+00;  3.6760352E+04;  2.0097621E-01;  0.0000000E+00;  2.5203821E-01;  1.0642786E+04;
  1.9962995E+00;  9.9999998E-03;  1.6823652E-01;9853;  1.4322361E+00;  0.0000000E+00;  2.2932775E-02;  9.9719824E+02;  1.3310339E-01; -2.0325669E+03;3;  3.5973503E+01;  0.0000000E+00;  6.7163963E+00;0;  3.7162355E-01;  2.4472348E+04;  0.0000000E+00;  1.2319544E+01;  4.0000000E+04;  0.0000000E+00;  3.6696043E+04;  1.2826587E-01;  0.0000000E+00;  2.4335767E-01;  2.6775520E+04;
  1.9968616E+00;  9.9999998E-03;  1.5794180E-01;9852;  1.4211779E+00;  0.0000000E+00;  1.9140800E-02;  9.9499481E+02;  1.3311017E-01; -3.6277776E+03;3;  3.7212669E+01;  0.0000000E+00;  7.3385367E+00;0;  2.8460997E-01;  2.4417098E+04;  0.0000000E+00;  3.1943787E+01;  4.0000000E+04;  0.0000000E+00;  3.6635777E+04;  5.7220638E-02;  0.0000000E+00;  2.2738935E-01;  3.9876945E+04;
  1.9974304E+00;  9.9999998E-03;  1.4758185E-01;9851;  1.4096948E+00;  0.0000000E+00;  1.5216829E-02;  9.9389600E+02;  1.3309839E-01; -4.4201562E+03;3;  3.7308399E+01;  0.0000000E+00;  6.9567461E+00;0;  2.0554192E-01;  2.4402943E+04;  0.0000000E+00;  4.6150505E+01;  4.0000000E+04;  0.0000000E+00;  3.6593594E+04; -3.2543195E-03;  0.0000000E+00;  2.0879625E-01;  4.7734062E+04;
  1.9979957E+00;  9.9999998E-03;  1.3712043E-01;9850;  1.3987107E+00;  0.0000000E+00;  1.1643026E-02;  9.9393811E+02;  1.3306418E-01; -4.3856748E+03;3;  3.6267834E+01;  0.0000000E+00;  5.7885528E+00;0;  1.4237776E-01;  2.4427000E+04;  0.0000000E+00;  5.4278057E+01;  4.0000000E+04;  0.0000000E+00;  3.6578898E+04; -4.7438584E-02;  0.0000000E+00;  1.8981634E-01;  5.0450145E+04;
  1.9985631E+00;  9.9999998E-03;  1.2652965E-01;9849;  1.3891065E+00;  0.0000000E+00;  8.8006295E-03;  9.9483441E+02;  1.3301817E-01; -3.7337512E+03;3;  3.4152512E+01;  0.0000000E+00;  4.0497007E+00;0;  9.7647533E-02;  2.4474619E+04;  0.0000000E+00;  5.6891201E+01;  4.0000000E+04;  0.0000000E+00;  3.6589164E+04; -7.3521987E-02;  0.0000000E+00;  1.7116952E-01;  4.8960473E+04;
  1.9991363E+00;  9.9999998E-03;  1.1580806E-01;9848;  1.3815085E+00;  0.0000000E+00;  6.6711861E-03;  9.9607526E+02;  1.3296543E-01; -2.8341934E+03;3;  3.2330002E+01;  0.0000000E+00;  2.7296448E+00;0;  6.8304844E-02;  2.4530031E+04;  0.0000000E+00;  5.4852463E+01;  4.0000000E+04;  0.0000000E+00;  3.6613676E+04; -8.3763652E-02;  0.0000000E+00;  1.5206850E-01;  4.4432160E+04;
  1.9997239E+00;  9.9999998E-03;  1.0500846E-01;9847;  1.3756447E+00;  0.0000000E+00;  4.9189059E-03;  9.9716064E+02;  1.3291544E-01; -2.0484087E+03;3;  3.1402214E+01;  0.0000000E+00;  1.7502840E+00;0;  4.6918906E-02;  2.4578781E+04;  0.0000000E+00;  4.8728462E+01;  4.0000000E+04;  0.0000000E+00;  3.6635984E+04; -8.5226603E-02;  0.0000000E+00;  1.3214551E-01;  3.7822984E+04;
  2.0003195E+00;  9.9999998E-03;  9.4225034E-02;9846;  1.3711164E+00;  0.0000000E+00;  3.4960515E-03;  9.9775757E+02;  1.3287695E-01; -1.6162050E+03;3;  3.0824270E+01;  0.0000000E+00;  8.0666834E-01;0;  2.9499389E-02;  2.4613152E+04;  0.0000000E+00;  3.9573467E+01;  4.0000000E+04;  0.0000000E+00;  3.6643551E+04; -8.3156280E-02;  0.0000000E+00;  1.1265567E-01;  3.0122850E+04;
  2.0008941E+00;  9.9999998E-03;  8.3514549E-02;9845;  1.3676856E+00;  0.0000000E+00;  2.5660747E-03;  9.9787274E+02;  1.3284579E-01; -1.5317046E+03;3;  3.0614830E+01;  0.0000000E+00;  6.0993269E-02;0;  1.4850996E-02;  2.4633391E+04;  0.0000000E+00;  2.9450474E+01;  4.0000000E+04;  0.0000000E+00;  3.6638320E+04; -8.0127366E-02;  0.0000000E+00;  9.4978362E-02;  2.2532264E+04;
  2.0014272E+00;  9.9999998E-03;  7.2809368E-02;9844;  1.3650100E+00;  0.0000000E+00;  2.0939501E-03;  9.9778564E+02;  1.3282593E-01; -1.5930353E+03;3;  3.0784039E+01;  0.0000000E+00; -2.5291076E-01;0;  1.8793792E-03;  2.4639717E+04;  0.0000000E+00;  2.0759237E+01;  4.0000000E+04;  0.0000000E+00;  3.6633051E+04; -7.7733569E-02;  0.0000000E+00;  7.9612948E-02;  1.6137369E+04;
  2.0076110E+00;  9.9999998E-03;  1.8917255E-01;9894;  1.4530182E+00;  0.0000000E+00;  2.7970122E-02;  1.0049749E+03;  1.3203405E-01;  3.5412629E+03;3;  3.4370132E+01;  0.0000000E+00;  7.4499283E+00;0;  5.7136673E-01;  2.5261551E+04;  0.0000000E+00;  1.8574760E+01;  4.0000000E+04;  0.0000000E+00;  3.6617891E+04;  3.0168593E-01;  0.0000000E+00;  2.6968080E-01;  3.9457637E+03;
  2.0081341E+00;  9.9999998E-03;  1.7895482E-01;9893;  1.4445031E+00;  0.0000000E+00;  2.4856176E-02;  1.0030646E+03;  1.3204783E-01;  2.1794458E+03;3;  3.6020153E+01;  0.0000000E+00;  8.3051710E+00;0;  4.9040580E-01;  2.5205344E+04;  0.0000000E+00; -1.4660176E+01;  4.0000000E+04;  0.0000000E+00;  3.6574426E+04;  2.2855937E-01;  0.0000000E+00;  2.6184642E-01;  3.9537639E+03;
  2.0085998E+00;  9.9999998E-03;  1.6868550E-01;9892;  1.4347211E+00;  0.0000000E+00;  2.1225428E-02;  1.0013160E+03;  1.3205874E-01;  9.3508112E+02;3;  3.7592968E+01;  0.0000000E+00;  8.9557333E+00;0;  3.9896694E-01;  2.5158129E+04;  0.0000000E+00; -1.5222511E+01;  4.0000000E+04;  0.0000000E+00;  3.6526125E+04;  1.5136565E-01;  0.0000000E+00;  2.4760129E-01;  2.3323433E+03;
  2.0090868E+00;  9.9999998E-03;  1.5838280E-01;9891;  1.4237356E+00;  0.0000000E+00;  1.7165603E-02;  9.9929150E+02;  1.3206895E-01; -5.0302072E+02;3;  3.8910946E+01;  0.0000000E+00;  9.1201191E+00;0;  3.0030707E-01;  2.5105799E+04;  0.0000000E+00; -2.1722795E-01;  4.0000000E+04;  0.0000000E+00;  3.6467844E+04;  7.2329499E-02;  0.0000000E+00;  2.2797757E-01;  1.3712837E+04;
  2.0096090E+00;  9.9999998E-03;  1.4804390E-01;9890;  1.4121710E+00;  0.0000000E+00;  1.3090705E-02;  9.9741675E+02;  1.3207491E-01; -1.8323041E+03;3;  3.9126617E+01;  0.0000000E+00;  8.5199194E+00;0;  2.0631278E-01;  2.5061674E+04;  0.0000000E+00;  1.7306797E+01;  4.0000000E+04;  0.0000000E+00;  3.6409074E+04; -1.5854242E-04;  0.0000000E+00;  2.0647132E-01;  2.4256744E+04;
  2.0101507E+00;  9.9999998E-03;  1.3764811E-01;9889;  1.4009552E+00;  0.0000000E+00;  9.4846357E-03;  9.9620605E+02;  1.3207071E-01; -2.6884316E+03;3;  3.8386700E+01;  0.0000000E+00;  7.3709273E+00;0;  1.2819536E-01;  2.5041283E+04;  0.0000000E+00;  3.1290659E+01;  4.0000000E+04;  0.0000000E+00;  3.6363754E+04; -5.7346225E-02;  0.0000000E+00;  1.8554159E-01;  3.1361830E+04;
  2.0107026E+00;  9.9999998E-03;  1.2716679E-01;9888;  1.3907506E+00;  0.0000000E+00;  6.5516806E-03;  9.9577643E+02;  1.3204972E-01; -2.9898977E+03;3;  3.6419765E+01;  0.0000000E+00;  5.5480843E+00;0;  6.9250159E-02;  2.5045680E+04;  0.0000000E+00;  4.0125793E+01;  4.0000000E+04;  0.0000000E+00;  3.6340316E+04; -9.5933490E-02;  0.0000000E+00;  1.6518365E-01;  3.4608027E+04;
  2.0112596E+00;  9.9999998E-03;  1.1658163E-01;9887;  1.3824122E+00;  0.0000000E+00;  4.4952957E-03;  9.9599487E+02;  1.3202055E-01; -2.8324001E+03;3;  3.3978767E+01;  0.0000000E+00;  3.7808990E+00;0;  3.1610571E-02;  2.5067090E+04;  0.0000000E+00;  4.4034199E+01;  4.0000000E+04;  0.0000000E+00;  3.6337789E+04; -1.1387042E-01;  0.0000000E+00;  1.4548099E-01;  3.4548863E+04;
  2.0118101E+00;  9.9999998E-03;  1.0590035E-01;9886;  1.3760458E+00;  0.0000000E+00;  3.0878489E-03;  9.9652740E+02;  1.3198572E-01; -2.4533179E+03;3;  3.2593601E+01;  0.0000000E+00;  2.5938611E+00;0;  8.9894980E-03;  2.5097172E+04;  0.0000000E+00;  4.3690948E+01;  4.0000000E+04;  0.0000000E+00;  3.6346660E+04; -1.1653173E-01;  0.0000000E+00;  1.2552123E-01;  3.2021025E+04;
  2.0123534E+00;  9.9999998E-03;  9.5164038E-02;9885;  1.3711663E+00;  0.0000000E+00;  2.0618991E-03;  9.9703687E+02;  1.3195644E-01; -2.0913311E+03;3;  3.1620205E+01;  0.0000000E+00;  1.5930630E+00;0; -6.1997548E-03;  2.5124049E+04;  0.0000000E+00;  3.9677814E+01;  4.0000000E+04;  0.0000000E+00;  3.6355234E+04; -1.1177189E-01;  0.0000000E+00;  1.0557213E-01;  2.7757193E+04;
  2.0128658E+00;  9.9999998E-03;  8.4415071E-02;9884;  1.3674680E+00;  0.0000000E+00;  1.3798005E-03;  9.9734204E+02;  1.3192917E-01; -1.8741815E+03;3;  3.1225990E+01;  0.0000000E+00;  8.1680030E-01;0; -1.7306216E-02;  2.5145279E+04;  0.0000000E+00;  3.3296940E+01;  4.0000000E+04;  0.0000000E+00;  3.6358121E+04; -1.0415039E-01;  0.0000000E+00;  8.6844176E-02;  2.2652271E+04;
  2.0133278E+00;  9.9999998E-03;  7.3610641E-02;9883;  1.3645849E+00;  0.0000000E+00;  1.0257544E-03;  9.9756396E+02;  1.3190874E-01; -1.7162498E+03;3;  3.1266710E+01;  0.0000000E+00;  3.7838891E-01;0; -2.6468642E-02;  2.5159387E+04;  0.0000000E+00;  2.6927221E+01;  4.0000000E+04;  0.0000000E+00;  3.6363168E+04; -9.6666969E-02;  0.0000000E+00;  7.0198327E-02;  1.7778934E+04;
  2.0203259E+00;  9.9999998E-03;  1.7934389E-01;9929;  1.4462066E+00;  0.0000000E+00;  2.2998881E-02;  1.0059199E+03;  1.3119090E-01;  4.1158618E+03;3;  3.7237759E+01;  0.0000000E+00;  1.0555953E+01;0;  5.3436154E-01;  2.5798117E+04;  0.0000000E+00;  4.5189850E+01;  4.0000000E+04;  0.0000000E+00;  3.6381328E+04;  2.7376896E-01;  0.0000000E+00;  2.6059258E-01;  1.1486395E+04;
  2.0208972E+00;  9.9999998E-03;  1.6910845E-01;9928;  1.4368299E+00;  0.0000000E+00;  1.8961042E-02;  1.0037417E+03;  1.3121210E-01;  2.5985730E+03;3;  3.9041084E+01;  0.0000000E+00;  1.0948854E+01;0;  4.3865556E-01;  2.5733443E+04;  0.0000000E+00; -2.2298641E+00;  4.0000000E+04;  0.0000000E+00;  3.6327102E+04;  1.9815670E-01;  0.0000000E+00;  2.4049886E-01;  2.9574082E+03;
  2.0213678E+00;  9.9999998E-03;  1.5879990E-01;9927;  1.4260526E+00;  0.0000000E+00;  1.4731232E-02;  1.0024520E+03;  1.3121876E-01;  1.7013170E+03;3;  4.0382145E+01;  0.0000000E+00;  1.0784268E+01;0;  3.3142355E-01;  2.5705217E+04;  0.0000000E+00; -1.7109543E+01;  4.0000000E+04;  0.0000000E+00;  3.6283488E+04;  1.1369548E-01;  0.0000000E+00;  2.1772806E-01;  2.9422742E+03;
  2.0218318E+00;  9.9999998E-03;  1.4844389E-01;9926;  1.4146608E+00;  0.0000000E+00;  1.0678381E-02;  1.0010982E+03;  1.3122055E-01;  7.6125696E+02;3;  4.0805332E+01;  0.0000000E+00;  1.0017761E+01;0;  2.2641669E-01;  2.5677480E+04;  0.0000000E+00; -1.1746887E+01;  4.0000000E+04;  0.0000000E+00;  3.6235531E+04;  3.1538948E-02;  0.0000000E+00;  1.9487774E-01;  3.2942422E+03;
  2.0223196E+00;  9.9999998E-03;  1.3804759E-01;9925;  1.4031100E+00;  0.0000000E+00;  6.9332323E-03;  9.9969006E+02;  1.3122472E-01; -2.1465155E+02;3;  4.0282047E+01;  0.0000000E+00;  8.6926088E+00;0;  1.2918271E-01;  2.5648088E+04;  0.0000000E+00;  1.0261532E+00;  4.0000000E+04;  0.0000000E+00;  3.6184750E+04; -4.2639796E-02;  0.0000000E+00;  1.7182250E-01;  1.0597987E+04;
  2.0228286E+00;  9.9999998E-03;  1.2760372E-01;9924;  1.3923706E+00;  0.0000000E+00;  3.8651086E-03;  9.9851257E+02;  1.3122384E-01; -1.0290869E+03;3;  3.8437679E+01;  0.0000000E+00;  6.9352970E+00;0;  5.1293522E-02;  2.5626594E+04;  0.0000000E+00;  1.3388781E+01;  4.0000000E+04;  0.0000000E+00;  3.6139621E+04; -9.8873273E-02;  0.0000000E+00;  1.5016679E-01;  1.6449467E+04;
  2.0233443E+00;  9.9999998E-03;  1.1709655E-01;9923;  1.3833282E+00;  0.0000000E+00;  1.7451916E-03;  9.9778125E+02;  1.3121669E-01; -1.5334651E+03;3;  3.5802563E+01;  0.0000000E+00;  4.8800473E+00;0; -9.1399252E-04;  2.5618910E+04;  0.0000000E+00;  2.2301626E+01;  4.0000000E+04;  0.0000000E+00;  3.6107355E+04; -1.3135140E-01;  0.0000000E+00;  1.3043740E-01;  1.9832641E+04;
  2.0238578E+00;  9.9999998E-03;  1.0651350E-01;9922;  1.3763851E+00;  0.0000000E+00;  5.5118499E-04;  9.9746741E+02;  1.3120191E-01; -1.7486160E+03;3;  3.3740318E+01;  0.0000000E+00;  3.2357872E+00;0; -2.9788531E-02;  2.5622008E+04;  0.0000000E+00;  2.7268427E+01;  4.0000000E+04;  0.0000000E+00;  3.6089961E+04; -1.4162257E-01;  0.0000000E+00;  1.1183404E-01;  2.0842098E+04;
  2.0243554E+00;  9.9999998E-03;  9.5861457E-02;9921;  1.3711827E+00;  0.0000000E+00; -2.9783530E-05;  9.9742480E+02;  1.3118427E-01; -1.7762773E+03;3;  3.2327728E+01;  0.0000000E+00;  2.0042958E+00;0; -4.4620954E-02;  2.5631502E+04;  0.0000000E+00;  2.8588137E+01;  4.0000000E+04;  0.0000000E+00;  3.6081973E+04; -1.3811199E-01;  0.0000000E+00;  9.3491040E-02;  1.9946297E+04;
  2.0248237E+00;  9.9999998E-03;  8.5148580E-02;9920;  1.3672540E+00;  0.0000000E+00; -2.7348849E-04;  9.9749927E+02;  1.3116482E-01; -1.7232708E+03;3;  3.1814005E+01;  0.0000000E+00;  1.3413850E+00;0; -5.2778661E-02;  2.5643193E+04;  0.0000000E+00;  2.7201180E+01;  4.0000000E+04;  0.0000000E+00;  3.6079969E+04; -1.2839369E-01;  0.0000000E+00;  7.5615034E-02;  1.7791967E+04;
  2.0252490E+00;  9.9999998E-03;  7.4357770E-02;9919;  1.3641832E+00;  0.0000000E+00; -3.3311953E-04;  9.9767731E+02;  1.3114907E-01; -1.5992159E+03;3;  3.1811119E+01;  0.0000000E+00;  1.0219015E+00;0; -5.8367122E-02;  2.5653211E+04;  0.0000000E+00;  2.4700338E+01;  4.0000000E+04;  0.0000000E+00;  3.6085309E+04; -1.1739868E-01;  0.0000000E+00;  5.9031557E-02;  1.5139304E+04;
  2.0329034E+00;  9.9999998E-03;  1.6940272E-01;9962;  1.4376675E+00;  0.0000000E+00;  1.6142691E-02;  1.0075897E+03;  1.3049282E-01;  5.1438789E+03;3;  3.9505272E+01;  0.0000000E+00;  1.2401649E+01;0;  4.7131073E-01;  2.6316367E+04;  0.0000000E+00;  8.6530670E+01;  4.0000000E+04;  0.0000000E+00;  3.6156039E+04;  2.4861082E-01;  0.0000000E+00;  2.2269990E-01;  2.1961029E+04;
  2.0335407E+00;  9.9999998E-03;  1.5916891E-01;9961;  1.4277439E+00;  0.0000000E+00;  1.1658293E-02;  1.0046464E+03;  1.3052756E-01;  3.1448442E+03;3;  4.1017963E+01;  0.0000000E+00;  1.2057621E+01;0;  3.6587277E-01;  2.6227674E+04;  0.0000000E+00;  2.5244181E+01;  4.0000000E+04;  0.0000000E+00;  3.6076141E+04;  1.7081901E-01;  0.0000000E+00;  1.9505376E-01;  6.1421909E+03;
  2.0340483E+00;  9.9999998E-03;  1.4884186E-01;9960;  1.4168556E+00;  0.0000000E+00;  7.6483660E-03;  1.0032270E+03;  1.3053896E-01;  2.1817795E+03;3;  4.1833069E+01;  0.0000000E+00;  1.0950357E+01;0;  2.5759557E-01;  2.6196975E+04;  0.0000000E+00; -6.9091692E+00;  4.0000000E+04;  0.0000000E+00;  3.6025121E+04;  8.6302273E-02;  0.0000000E+00;  1.7129329E-01;  3.4821807E+03;
  2.0345125E+00;  9.9999998E-03;  1.3844329E-01;9959;  1.4052612E+00;  0.0000000E+00;  3.9122622E-03;  1.0022523E+03;  1.3054100E-01;  1.5213088E+03;3;  4.1677036E+01;  0.0000000E+00;  9.8248444E+00;0;  1.4624190E-01;  2.6181293E+04;  0.0000000E+00; -1.5925003E+01;  4.0000000E+04;  0.0000000E+00;  3.5984227E+04; -1.1931492E-03;  0.0000000E+00;  1.4743505E-01;  2.8856213E+03;
  2.0349731E+00;  9.9999998E-03;  1.2799242E-01;9958;  1.3943921E+00;  0.0000000E+00;  9.9372643E-04;  1.0012980E+03;  1.3054244E-01;  8.7589941E+02;3;  4.0124039E+01;  0.0000000E+00;  8.0500231E+00;0;  5.4155052E-02;  2.6166361E+04;  0.0000000E+00; -1.2237749E+01;  4.0000000E+04;  0.0000000E+00;  3.5943016E+04; -7.2690353E-02;  0.0000000E+00;  1.2684540E-01;  1.4517311E+03;
  2.0354397E+00;  9.9999998E-03;  1.1749168E-01;9957;  1.3847195E+00;  0.0000000E+00; -1.0554490E-03;  1.0003729E+03;  1.3054101E-01;  2.5136180E+02;3;  3.7541817E+01;  0.0000000E+00;  5.6443472E+00;0; -1.5978299E-02;  2.6151824E+04;  0.0000000E+00; -4.1718287E+00;  4.0000000E+04;  0.0000000E+00;  3.5903914E+04; -1.2441119E-01;  0.0000000E+00;  1.0843289E-01;  4.8768291E+03;
  2.0359066E+00;  9.9999998E-03;  1.0694464E-01;9956;  1.3770704E+00;  0.0000000E+00; -2.1072426E-03;  9.9957349E+02;  1.3054006E-01; -2.8723511E+02;3;  3.5239601E+01;  0.0000000E+00;  3.9547851E+00;0; -5.8007509E-02;  2.6139828E+04;  0.0000000E+00;  3.3804941E+00;  4.0000000E+04;  0.0000000E+00;  3.5869387E+04; -1.4995599E-01;  0.0000000E+00;  9.1948479E-02;  7.7171577E+03;
  2.0363581E+00;  9.9999998E-03;  9.6336931E-02;9955;  1.3713428E+00;  0.0000000E+00; -2.4038488E-03;  9.9902515E+02;  1.3053240E-01; -6.5583636E+02;3;  3.3302132E+01;  0.0000000E+00;  2.6644378E+00;0; -7.8575127E-02;  2.6134604E+04;  0.0000000E+00;  8.9045725E+00;  4.0000000E+04;  0.0000000E+00;  3.5844512E+04; -1.5475334E-01;  0.0000000E+00;  7.6178215E-02;  9.2766270E+03;
  2.0367861E+00;  9.9999998E-03;  8.5656926E-02;9954;  1.3670864E+00;  0.0000000E+00; -2.2904084E-03;  9.9873395E+02;  1.3052364E-01; -8.5097919E+02;3;  3.2435390E+01;  0.0000000E+00;  1.9371028E+00;0; -8.7184012E-02;  2.6133008E+04;  0.0000000E+00;  1.2347274E+01;  4.0000000E+04;  0.0000000E+00;  3.5831121E+04; -1.4766750E-01;  0.0000000E+00;  6.0483485E-02;  9.6847930E+03;
  2.0371764E+00;  9.9999998E-03;  7.4910462E-02;9953;  1.3638110E+00;  0.0000000E+00; -2.0364779E-03;  9.9862604E+02;  1.3051268E-01; -9.2271356E+02;3;  3.2266228E+01;  0.0000000E+00;  1.5876530E+00;0; -9.0936437E-02;  2.6134650E+04;  0.0000000E+00;  1.3930832E+01;  4.0000000E+04;  0.0000000E+00;  3.5826484E+04; -1.3621563E-01;  0.0000000E+00;  4.5279186E-02;  9.2045391E+03;
  2.0460427E+00;  9.9999998E-03;  1.4910492E-01;9991;  1.4177507E+00;  0.0000000E+00;  3.9453241E-03;  1.0061625E+03;  1.2996157E-01;  4.0580076E+03;3;  4.2129448E+01;  0.0000000E+00;  1.1576880E+01;0;  2.7564281E-01;  2.6703107E+04;  0.0000000E+00;  7.0307404E+01;  4.0000000E+04;  0.0000000E+00;  3.5839777E+04;  1.4083923E-01;  0.0000000E+00;  1.3480358E-01;  1.6206700E+04;
  2.0466001E+00;  9.9999998E-03;  1.3878635E-01;9990;  1.4070966E+00;  0.0000000E+00;  5.4332393E-04;  1.0040328E+03;  1.2998368E-01;  2.6522605E+03;3;  4.2234886E+01;  0.0000000E+00;  1.0354147E+01;0;  1.7146362E-01;  2.6652133E+04;  0.0000000E+00;  2.2316555E+01;  4.0000000E+04;  0.0000000E+00;  3.5763734E+04;  5.8124673E-02;  0.0000000E+00;  1.1333895E-01;  5.6466274E+03;
  2.0470800E+00;  9.9999998E-03;  1.2837476E-01;9989;  1.3965384E+00;  0.0000000E+00; -2.0674493E-03;  1.0029030E+03;  1.2999237E-01;  1.9071016E+03;3;  4.1273514E+01;  0.0000000E+00;  8.5546436E+00;0;  7.5353444E-02;  2.6633230E+04;  0.0000000E+00; -3.6322882E+00;  4.0000000E+04;  0.0000000E+00;  3.5714191E+04; -2.0280264E-02;  0.0000000E+00;  9.5633708E-02;  3.1965876E+03;
  2.0475240E+00;  9.9999998E-03;  1.1788869E-01;9988;  1.3866323E+00;  0.0000000E+00; -3.8653056E-03;  1.0021374E+03;  1.2999223E-01;  1.4027473E+03;3;  3.9267418E+01;  0.0000000E+00;  6.3939347E+00;0; -7.2686374E-03;  2.6624652E+04;  0.0000000E+00; -1.3448764E+01;  4.0000000E+04;  0.0000000E+00;  3.5677199E+04; -8.7478489E-02;  0.0000000E+00;  8.0209851E-02;  3.2224678E+03;
  2.0479500E+00;  9.9999998E-03;  1.0733806E-01;9987;  1.3783301E+00;  0.0000000E+00; -4.7244220E-03;  1.0015019E+03;  1.2999016E-01;  9.8471759E+02;3;  3.6801418E+01;  0.0000000E+00;  4.6975350E+00;0; -6.4864442E-02;  2.6617279E+04;  0.0000000E+00; -1.3990411E+01;  4.0000000E+04;  0.0000000E+00;  3.5647234E+04; -1.3176225E-01;  0.0000000E+00;  6.6897810E-02;  2.1692188E+03;
  2.0483620E+00;  9.9999998E-03;  9.6730694E-02;9986;  1.3718792E+00;  0.0000000E+00; -4.8450762E-03;  1.0009198E+03;  1.2998898E-01;  6.0250098E+02;3;  3.4590305E+01;  0.0000000E+00;  3.3393178E+00;0; -9.8204724E-02;  2.6608539E+04;  0.0000000E+00; -1.0498376E+01;  4.0000000E+04;  0.0000000E+00;  3.5621258E+04; -1.5246426E-01;  0.0000000E+00;  5.4259531E-02;  1.2503571E+03;
  2.0487497E+00;  9.9999998E-03;  8.6068951E-02;9985;  1.3671732E+00;  0.0000000E+00; -4.4716205E-03;  1.0004580E+03;  1.2998715E-01;  2.9973407E+02;3;  3.3111931E+01;  0.0000000E+00;  2.4586430E+00;0; -1.1224736E-01;  2.6601764E+04;  0.0000000E+00; -6.0802817E+00;  4.0000000E+04;  0.0000000E+00;  3.5600480E+04; -1.5390940E-01;  0.0000000E+00;  4.1662045E-02;  1.7394042E+03;
  2.0491052E+00;  9.9999998E-03;  7.5353257E-02;9984;  1.3636571E+00;  0.0000000E+00; -3.9070123E-03;  1.0001349E+03;  1.2998337E-01;  8.8240921E+01;3;  3.2685310E+01;  0.0000000E+00;  1.9254872E+00;0; -1.1705406E-01;  2.6598189E+04;  0.0000000E+00; -2.1945269E+00;  4.0000000E+04;  0.0000000E+00;  3.5585711E+04; -1.4605740E-01;  0.0000000E+00;  2.9003335E-02;  2.4119202E+03;
  2.0589931E+00;  9.9999998E-03;  1.2858331E-01;10016;  1.3976763E+00;  0.0000000E+00; -5.6048851E-03;  1.0055313E+03;  1.2952536E-01;  3.5338267E+03;3;  4.1540863E+01;  0.0000000E+00;  8.2655258E+00;0;  8.8092864E-02;  2.7091320E+04;  0.0000000E+00;  7.1686325E+01;  4.0000000E+04;  0.0000000E+00;  3.5527301E+04;  3.3705018E-02;  0.0000000E+00;  5.4387841E-02;  1.5358207E+04;
  2.0594928E+00;  9.9999998E-03;  1.1818937E-01;10015;  1.3884774E+00;  0.0000000E+00; -6.8258173E-03;  1.0037570E+03;  1.2954196E-01;  2.3973840E+03;3;  4.0303417E+01;  0.0000000E+00;  6.6530271E+00;0;  1.3861958E-02;  2.7056916E+04;  0.0000000E+00;  3.1282248E+01;  4.0000000E+04;  0.0000000E+00;  3.5452035E+04; -3.1572618E-02;  0.0000000E+00;  4.5434576E-02;  7.1668906E+03;
  2.0599301E+00;  9.9999998E-03;  1.0770581E-01;10014;  1.3800224E+00;  0.0000000E+00; -7.3870625E-03;  1.0027390E+03;  1.2954925E-01;  1.7459983E+03;3;  3.8259869E+01;  0.0000000E+00;  5.2122736E+00;0; -5.0745308E-02;  2.7042566E+04;  0.0000000E+00;  6.5713449E+00;  4.0000000E+04;  0.0000000E+00;  3.5403082E+04; -8.7474309E-02;  0.0000000E+00;  3.6729001E-02;  3.3952214E+03;
  2.0603263E+00;  9.9999998E-03;  9.7139291E-02;10013;  1.3730991E+00;  0.0000000E+00; -7.3195263E-03;  1.0021155E+03;  1.2955195E-01;  1.3472146E+03;3;  3.6098537E+01;  0.0000000E+00;  4.0054436E+00;0; -9.4981633E-02;  2.7035150E+04;  0.0000000E+00; -6.2155142E+00;  4.0000000E+04;  0.0000000E+00;  3.5371191E+04; -1.2306418E-01;  0.0000000E+00;  2.8082551E-02;  2.9506243E+03;
  2.0606885E+00;  9.9999998E-03;  8.6504146E-02;10012;  1.3677872E+00;  0.0000000E+00; -6.7672087E-03;  1.0016822E+03;  1.2955341E-01;  1.0703236E+03;3;  3.4027508E+01;  0.0000000E+00;  2.9993498E+00;0; -1.1958039E-01;  2.7030697E+04;  0.0000000E+00; -1.1247612E+01;  4.0000000E+04;  0.0000000E+00;  3.5348469E+04; -1.3877621E-01;  0.0000000E+00;  1.9195829E-02;  2.9886394E+03;
  2.0610151E+00;  9.9999998E-03;  7.5815618E-02;10011;  1.3639231E+00;  0.0000000E+00; -5.9300563E-03;  1.0013561E+03;  1.2955084E-01;  8.6219342E+02;3;  3.3142090E+01;  0.0000000E+00;  2.3313799E+00;0; -1.2912068E-01;  2.7028309E+04;  0.0000000E+00; -1.1950660E+01;  4.0000000E+04;  0.0000000E+00;  3.5331320E+04; -1.3916087E-01;  0.0000000E+00;  1.0040199E-02;  2.7216055E+03;
  2.0721703E+00;  9.9999998E-03;  9.7370364E-02;10035;  1.3742290E+00;  0.0000000E+00; -9.7342692E-03;  1.0038068E+03;  1.2918323E-01;  2.3549548E+03;3;  3.7067493E+01;  0.0000000E+00;  3.7194562E+00;0; -8.2323685E-02;  2.7440180E+04;  0.0000000E+00;  4.9243950E+01;  4.0000000E+04;  0.0000000E+00;  3.5152211E+04; -8.0595449E-02;  0.0000000E+00; -1.7282404E-03;  1.0012971E+04;
  2.0725424E+00;  9.9999998E-03;  8.6823292E-02;10034;  1.3687285E+00;  0.0000000E+00; -8.9159897E-03;  1.0028449E+03;  1.2919056E-01;  1.7582816E+03;3;  3.5188354E+01;  0.0000000E+00;  2.8348770E+00;0; -1.1074267E-01;  2.7428320E+04;  0.0000000E+00;  2.5020697E+01;  4.0000000E+04;  0.0000000E+00;  3.5102961E+04; -1.0497861E-01;  0.0000000E+00; -5.7640644E-03;  5.7680229E+03;
  2.0728669E+00;  9.9999998E-03;  7.6207563E-02;10033;  1.3645092E+00;  0.0000000E+00; -7.8303134E-03;  1.0022429E+03;  1.2919681E-01;  1.3850970E+03;3;  3.3922047E+01;  0.0000000E+00;  2.2528176E+00;0; -1.2610821E-01;  2.7422084E+04;  0.0000000E+00;  9.7535257E+00;  4.0000000E+04;  0.0000000E+00;  3.5069387E+04; -1.1534640E-01;  0.0000000E+00; -1.0761813E-02;  3.5272415E+03;
  2.7894753E-03;  9.9999998E-03;  2.3995228E-01;2501;  4.1812314E-03;  0.0000000E+00; -6.7830284E-04;  9.9023431E+02;  1.0000000E-01; -8.0906846E+03;3;  7.2857292E+01;  0.0000000E+00; -2.2130695E+01;0;  1.7070999E-02;  3.9209492E+04;  0.0000000E+00; -4.8156092E-01;  4.0000000E+04;  0.0000000E+00;  4.0020730E+04;  1.6426930E-02;  0.0000000E+00;  6.4406986E-04;  3.4996240E+03;
  2.3645235E-03;  9.9999998E-03;  2.4991408E-01;2502;  3.7746821E-03;  0.0000000E+00; -7.3891622E-04;  9.9128522E+02;  1.0000000E-01; -7.2200425E+03;3;  6.4067284E+01;  0.0000000E+00; -2.3856451E+01;0;  1.6046410E-02;  3.9292961E+04;  0.0000000E+00; -3.9460668E-01;  4.0000000E+04;  0.0000000E+00;  4.0018676E+04;  1.4964183E-02;  0.0000000E+00;  1.0822278E-03;  3.0495671E+03;
  1.8799440E-03;  9.9999998E-03;  2.5987586E-01;2503;  3.2468694E-03;  0.0000000E+00; -7.8728481E-04;  9.9239111E+02;  1.0000000E-01; -6.3038218E+03;3;  5.3870392E+01;  0.0000000E+00; -2.5520874E+01;0;  1.4871831E-02;  3.9383734E+04;  0.0000000E+00; -3.1258547E-01;  4.0000000E+04;  0.0000000E+00;  4.0011410E+04;  1.3353333E-02;  0.0000000E+00;  1.5184981E-03;  2.2778994E+03;
  1.3515390E-03;  9.9999998E-03;  2.6985407E-01;2504;  2.5975269E-03;  0.0000000E+00; -7.8609423E-04;  9.9352637E+02;  1.0000000E-01; -5.3633052E+03;3;  4.3225018E+01;  0.0000000E+00; -2.7224504E+01;0;  1.3527325E-02;  3.9478078E+04;  0.0000000E+00; -2.4945286E-01;  4.0000000E+04;  0.0000000E+00;  4.0004691E+04;  1.1624418E-02;  0.0000000E+00;  1.9029069E-03;  1.2781143E+03;
  8.1653695E-04;  9.9999998E-03;  2.7986726E-01;2505;  1.7948257E-03;  0.0000000E+00; -6.1427028E-04;  9.9463617E+02;  1.0000000E-01; -4.4438247E+03;3;  3.3482761E+01;  0.0000000E+00; -2.8721014E+01;0;  1.2005420E-02;  3.9572559E+04;  0.0000000E+00; -2.1098585E-01;  4.0000000E+04;  0.0000000E+00;  3.9997363E+04;  9.8335436E-03;  0.0000000E+00;  2.1718768E-03;  3.2450696E+02;
  2.9688425E-04;  9.9999998E-03;  2.8994781E-01;2506;  4.6623728E-04;  0.0000000E+00;  1.9367045E-04;  9.9569348E+02;  1.0000000E-01; -3.5678496E+03;3;  2.5431515E+01;  0.0000000E+00; -2.8302998E+01;0;  1.0319754E-02;  3.9662633E+04;  0.0000000E+00; -1.9323793E-01;  4.0000000E+04;  0.0000000E+00;  3.9989953E+04;  8.0762934E-03;  0.0000000E+00;  2.2434606E-03;  9.1674530E+02;
  1.2510504E-02;  9.9999998E-03;  2.3992594E-01;2561;  3.6479416E-03;  0.0000000E+00; -7.3647208E-04;  9.9230231E+02;  1.0000000E-01; -6.3773999E+03;3;  5.2419678E+01;  0.0000000E+00; -1.7143606E+01;0;  1.5535315E-02;  3.9369500E+04;  0.0000000E+00; -6.1263508E-01;  4.0000000E+04;  0.0000000E+00;  4.0023426E+04;  1.4895114E-02;  0.0000000E+00;  6.4020115E-04;  3.5610186E+03;
  1.2146689E-02;  9.9999998E-03;  2.4987638E-01;2562;  3.3122760E-03;  0.0000000E+00; -8.0599770E-04;  9.9307269E+02;  1.0000000E-01; -5.7391465E+03;3;  4.6976643E+01;  0.0000000E+00; -1.8351295E+01;0;  1.4753784E-02;  3.9431129E+04;  0.0000000E+00; -4.8995313E-01;  4.0000000E+04;  0.0000000E+00;  4.0020477E+04;  1.3640823E-02;  0.0000000E+00;  1.1129613E-03;  3.1901562E+03;
  1.1714950E-02;  9.9999998E-03;  2.5982267E-01;2563;  2.8599827E-03;  0.0000000E+00; -8.7541610E-04;  9.9390387E+02;  1.0000000E-01; -5.0505239E+03;3;  3.9911774E+01;  0.0000000E+00; -1.9826849E+01;0;  1.3845087E-02;  3.9499707E+04;  0.0000000E+00; -3.7825784E-01;  4.0000000E+04;  0.0000000E+00;  4.0013988E+04;  1.2254762E-02;  0.0000000E+00;  1.5903242E-03;  2.4624661E+03;
  1.1223787E-02;  9.9999998E-03;  2.6978061E-01;2564;  2.2939213E-03;  0.0000000E+00; -9.2362612E-04;  9.9474567E+02;  1.0000000E-01; -4.3531113E+03;3;  3.2142246E+01;  0.0000000E+00; -2.1956793E+01;0;  1.2777912E-02;  3.9573168E+04;  0.0000000E+00; -2.9808381E-01;  4.0000000E+04;  0.0000000E+00;  4.0006770E+04;  1.0756990E-02;  0.0000000E+00;  2.0209227E-03;  1.4572166E+03;
  1.0719022E-02;  9.9999998E-03;  2.7976325E-01;2565;  1.6151016E-03;  0.0000000E+00; -8.9334499E-04;  9.9559723E+02;  1.0000000E-01; -3.6476006E+03;3;  2.4502481E+01;  0.0000000E+00; -2.4635195E+01;0;  1.1530401E-02;  3.9647227E+04;  0.0000000E+00; -2.5715536E-01;  4.0000000E+04;  0.0000000E+00;  3.9998840E+04;  9.1879051E-03;  0.0000000E+00;  2.3424965E-03;  4.3124167E+02;
  1.0245792E-02;  9.9999998E-03;  2.8979105E-01;2566;  5.7931559E-04;  0.0000000E+00; -3.6900406E-04;  9.9641083E+02;  1.0000000E-01; -2.9735454E+03;3;  1.8086006E+01;  0.0000000E+00; -2.7016241E+01;0;  1.0105746E-02;  3.9720055E+04;  0.0000000E+00; -2.4740398E-01;  4.0000000E+04;  0.0000000E+00;  3.9990625E+04;  7.6281428E-03;  0.0000000E+00;  2.4776030E-03;  9.4990765E+02;
  9.8449867E-03;  9.9999998E-03;  2.9986921E-01;2567; -1.7704508E-04;  0.0000000E+00;  9.1270849E-05;  9.9716644E+02;  1.0000000E-01; -2.3475386E+03;3;  1.1934965E+01;  0.0000000E+00; -2.7335644E+01;0;  8.5377470E-03;  3.9786016E+04;  0.0000000E+00; -2.4935313E-01;  4.0000000E+04;  0.0000000E+00;  3.9983738E+04;  6.0906447E-03;  0.0000000E+00;  2.4471025E-03;  1.8243491E+03;
  2.2190537E-02;  9.9999998E-03;  2.3996417E-01;2622;  3.0847588E-03;  0.0000000E+00; -6.9424097E-04;  9.9462823E+02;  1.0000000E-01; -4.4503926E+03;3;  3.1317398E+01;  0.0000000E+00; -1.0741780E+01;0;  1.3915449E-02;  3.9551012E+04;  0.0000000E+00; -7.4159932E-01;  4.0000000E+04;  0.0000000E+00;  4.0023488E+04;  1.3313017E-02;  0.0000000E+00;  6.0243229E-04;  3.5187527E+03;
  2.1879626E-02;  9.9999998E-03;  2.4991545E-01;2623;  2.8230522E-03;  0.0000000E+00; -7.6532504E-04;  9.9509705E+02;  1.0000000E-01; -4.0620085E+03;3;  2.9314636E+01;  0.0000000E+00; -1.1110209E+01;0;  1.3358081E-02;  3.9588531E+04;  0.0000000E+00; -6.0309088E-01;  4.0000000E+04;  0.0000000E+00;  4.0022395E+04;  1.2263397E-02;  0.0000000E+00;  1.0946840E-03;  3.2647607E+03;
  2.1498187E-02;  9.9999998E-03;  2.5985810E-01;2624;  2.4436866E-03;  0.0000000E+00; -8.3823345E-04;  9.9561230E+02;  1.0000000E-01; -3.6351072E+03;3;  2.5783609E+01;  0.0000000E+00; -1.2121471E+01;0;  1.2693387E-02;  3.9632473E+04;  0.0000000E+00; -4.7778359E-01;  4.0000000E+04;  0.0000000E+00;  4.0016875E+04;  1.1098667E-02;  0.0000000E+00;  1.5947205E-03;  2.6363828E+03;
  2.1046961E-02;  9.9999998E-03;  2.6980987E-01;2625;  1.9489441E-03;  0.0000000E+00; -8.9838979E-04;  9.9615588E+02;  1.0000000E-01; -3.1847988E+03;3;  2.1254959E+01;  0.0000000E+00; -1.4267654E+01;0;  1.1881031E-02;  3.9681496E+04;  0.0000000E+00; -3.9032769E-01;  4.0000000E+04;  0.0000000E+00;  4.0009594E+04;  9.8308669E-03;  0.0000000E+00;  2.0501637E-03;  1.6978309E+03;
  2.0566288E-02;  9.9999998E-03;  2.7978402E-01;2626;  1.3408941E-03;  0.0000000E+00; -9.0380060E-04;  9.9670392E+02;  1.0000000E-01; -2.7307375E+03;3;  1.6492392E+01;  0.0000000E+00; -1.7667601E+01;0;  1.0887505E-02;  3.9732977E+04;  0.0000000E+00; -3.4963107E-01;  4.0000000E+04;  0.0000000E+00;  4.0001527E+04;  8.4890462E-03;  0.0000000E+00;  2.3984585E-03;  6.7477478E+02;
  2.0112613E-02;  9.9999998E-03;  2.8979179E-01;2627;  4.4181960E-04;  0.0000000E+00; -5.5592647E-04;  9.9725623E+02;  1.0000000E-01; -2.2731702E+03;3;  1.2080689E+01;  0.0000000E+00; -2.1642099E+01;0;  9.7098183E-03;  3.9784539E+04;  0.0000000E+00; -3.4473556E-01;  4.0000000E+04;  0.0000000E+00;  3.9992340E+04;  7.1355449E-03;  0.0000000E+00;  2.5742734E-03;  8.4942145E+02;
  1.9740226E-02;  9.9999998E-03;  2.9983285E-01;2628; -2.7059627E-04;  0.0000000E+00; -7.4314958E-05;  9.9777533E+02;  1.0000000E-01; -1.8431084E+03;3;  7.6748810E+00;  0.0000000E+00; -2.4300413E+01;0;  8.3484603E-03;  3.9834254E+04;  0.0000000E+00; -3.5009012E-01;  4.0000000E+04;  0.0000000E+00;  3.9984891E+04;  5.7841595E-03;  0.0000000E+00;  2.5643010E-03;  1.7480431E+03;
  3.1904910E-02;  9.9999998E-03;  2.4000102E-01;2683;  2.5992848E-03;  0.0000000E+00; -5.9374905E-04;  9.9687378E+02;  1.0000000E-01; -2.5900007E+03;3;  1.3547926E+01;  0.0000000E+00; -3.9166486E+00;0;  1.2524560E-02;  3.9729293E+04;  0.0000000E+00; -8.0120796E-01;  4.0000000E+04;  0.0000000E+00;  4.0023559E+04;  1.1987515E-02;  0.0000000E+00;  5.3704553E-04;  3.3145762E+03;
  3.1639911E-02;  9.9999998E-03;  2.4995922E-01;2684;  2.3950457E-03;  0.0000000E+00; -6.5831764E-04;  9.9705042E+02;  1.0000000E-01; -2.4436841E+03;3;  1.4437115E+01;  0.0000000E+00; -3.3138182E+00;0;  1.2168206E-02;  3.9742309E+04;  0.0000000E+00; -6.7573339E-01;  4.0000000E+04;  0.0000000E+00;  4.0022957E+04;  1.1133105E-02;  0.0000000E+00;  1.0351017E-03;  3.2066470E+03;
  3.1298202E-02;  9.9999998E-03;  2.5990680E-01;2685;  2.0764584E-03;  0.0000000E+00; -7.2745181E-04;  9.9725830E+02;  1.0000000E-01; -2.2714419E+03;3;  1.4022632E+01;  0.0000000E+00; -3.7137167E+00;0;  1.1714211E-02;  3.9761895E+04;  0.0000000E+00; -5.6409866E-01;  4.0000000E+04;  0.0000000E+00;  4.0018734E+04;  1.0171835E-02;  0.0000000E+00;  1.5423757E-03;  2.7223022E+03;
  3.0877024E-02;  9.9999998E-03;  2.6986319E-01;2686;  1.6341592E-03;  0.0000000E+00; -7.8450731E-04;  9.9750409E+02;  1.0000000E-01; -2.0677935E+03;3;  1.2506968E+01;  0.0000000E+00; -5.7399263E+00;0;  1.1116120E-02;  3.9786473E+04;  0.0000000E+00; -4.9085453E-01;  4.0000000E+04;  0.0000000E+00;  4.0011367E+04;  9.1101918E-03;  0.0000000E+00;  2.0059280E-03;  1.9058445E+03;
  3.0411655E-02;  9.9999998E-03;  2.7984157E-01;2687;  1.0671137E-03;  0.0000000E+00; -7.8829285E-04;  9.9777423E+02;  1.0000000E-01; -1.8439972E+03;3;  1.0409153E+01;  0.0000000E+00; -9.5902481E+00;0;  1.0332266E-02;  3.9815203E+04;  0.0000000E+00; -4.6330222E-01;  4.0000000E+04;  0.0000000E+00;  4.0003562E+04;  7.9683661E-03;  0.0000000E+00;  2.3638993E-03;  9.5930774E+02;
  2.9958490E-02;  9.9999998E-03;  2.8985274E-01;2688;  2.0184385E-04;  0.0000000E+00; -4.5345412E-04;  9.9806641E+02;  1.0000000E-01; -1.6019301E+03;3;  8.1494989E+00;  0.0000000E+00; -1.4678576E+01;0;  9.3547069E-03;  3.9846734E+04;  0.0000000E+00; -4.6711680E-01;  4.0000000E+04;  0.0000000E+00;  3.9994410E+04;  6.7950413E-03;  0.0000000E+00;  2.5596656E-03;  7.8954340E+02;
  2.9606499E-02;  9.9999998E-03;  2.9987761E-01;2689; -3.7669853E-04;  0.0000000E+00; -1.6061436E-04;  9.9836414E+02;  1.0000000E-01; -1.3552703E+03;3;  5.0639377E+00;  0.0000000E+00; -1.8946844E+01;0;  8.1684198E-03;  3.9878156E+04;  0.0000000E+00; -4.7292906E-01;  4.0000000E+04;  0.0000000E+00;  3.9986922E+04;  5.5960431E-03;  0.0000000E+00;  2.5723763E-03;  1.5841858E+03;
  4.1661534E-02;  9.9999998E-03;  2.4002218E-01;2744;  2.2286780E-03;  0.0000000E+00; -4.6027693E-04;  9.9876758E+02;  1.0000000E-01; -1.0210576E+03;3;  1.4779396E+00;  0.0000000E+00;  2.3642688E+00;0;  1.1576559E-02;  3.9882227E+04;  0.0000000E+00; -7.2470254E-01;  4.0000000E+04;  0.0000000E+00;  4.0022578E+04;  1.1130643E-02;  0.0000000E+00;  4.4591626E-04;  2.9504231E+03;
  4.1437916E-02;  9.9999998E-03;  2.4999043E-01;2745;  2.0671710E-03;  0.0000000E+00; -5.1265274E-04;  9.9869586E+02;  1.0000000E-01; -1.0804633E+03;3;  4.2949796E+00;  0.0000000E+00;  3.9139948E+00;0;  1.1388374E-02;  3.9874160E+04;  0.0000000E+00; -6.4314419E-01;  4.0000000E+04;  0.0000000E+00;  4.0021934E+04;  1.0449737E-02;  0.0000000E+00;  9.3863613E-04;  3.0084653E+03;
  4.1132025E-02;  9.9999998E-03;  2.5994614E-01;2746;  1.7894065E-03;  0.0000000E+00; -5.7122298E-04;  9.9864380E+02;  1.0000000E-01; -1.1235731E+03;3;  6.0963578E+00;  0.0000000E+00;  4.1724582E+00;0;  1.1102751E-02;  3.9871266E+04;  0.0000000E+00; -5.7867038E-01;  4.0000000E+04;  0.0000000E+00;  4.0019770E+04;  9.6617071E-03;  0.0000000E+00;  1.4410440E-03;  2.6978074E+03;
  4.0739421E-02;  9.9999998E-03;  2.6990810E-01;2747;  1.3835434E-03;  0.0000000E+00; -6.1741652E-04;  9.9862775E+02;  1.0000000E-01; -1.1369061E+03;3;  6.8710613E+00;  0.0000000E+00;  2.3372824E+00;0;  1.0666476E-02;  3.9874094E+04;  0.0000000E+00; -5.5017626E-01;  4.0000000E+04;  0.0000000E+00;  4.0013762E+04;  8.7664053E-03;  0.0000000E+00;  1.9000701E-03;  2.0394677E+03;
  4.0286720E-02;  9.9999998E-03;  2.7989519E-01;2748;  7.9742918E-04;  0.0000000E+00; -5.6128594E-04;  9.9864819E+02;  1.0000000E-01; -1.1199684E+03;3;  6.8545151E+00;  0.0000000E+00; -1.9012548E+00;0;  1.0037240E-02;  3.9882355E+04;  0.0000000E+00; -5.5900204E-01;  4.0000000E+04;  0.0000000E+00;  4.0005758E+04;  7.7804090E-03;  0.0000000E+00;  2.2568307E-03;  1.2096586E+03;
  3.9827678E-02;  9.9999998E-03;  2.8992325E-01;2749; -6.7750443E-05;  0.0000000E+00; -1.5981036E-04;  9.9871136E+02;  1.0000000E-01; -1.0676241E+03;3;  6.2299705E+00;  0.0000000E+00; -7.8763604E+00;0;  9.1968272E-03;  3.9895766E+04;  0.0000000E+00; -5.8555168E-01;  4.0000000E+04;  0.0000000E+00;  3.9996555E+04;  6.7333207E-03;  0.0000000E+00;  2.4635070E-03;  8.4416003E+02;
  3.9489813E-02;  9.9999998E-03;  2.9994208E-01;2750; -4.6901911E-04;  0.0000000E+00; -1.3158692E-04;  9.9881580E+02;  1.0000000E-01; -9.8110803E+02;3;  4.2130413E+00;  0.0000000E+00; -1.3113461E+01;0;  8.1250938E-03;  3.9911203E+04;  0.0000000E+00; -5.9766215E-01;  4.0000000E+04;  0.0000000E+00;  3.9989324E+04;  5.6384606E-03;  0.0000000E+00;  2.4866331E-03;  1.4292538E+03;
  5.1453985E-02;  9.9999998E-03;  2.4003336E-01;2805;  1.9856479E-03;  0.0000000E+00; -3.0727914E-04;  1.0001469E+03;  1.0000000E-01;  1.2167557E+02;3; -4.5890832E+00;  0.0000000E+00;  7.4469118E+00;0;  1.1147594E-02;  3.9995250E+04;  0.0000000E+00; -4.7636634E-01;  4.0000000E+04;  0.0000000E+00;  4.0020824E+04;  1.0819662E-02;  0.0000000E+00;  3.2793195E-04;  2.4927180E+03;
  5.1270258E-02;  9.9999998E-03;  2.5001416E-01;2806;  1.8494956E-03;  0.0000000E+00; -3.4448519E-04;  9.9987756E+02;  1.0000000E-01; -1.0142923E+02;3; -8.0707633E-01;  0.0000000E+00;  9.7504797E+00;0;  1.1090736E-02;  3.9970070E+04;  0.0000000E+00; -4.6450555E-01;  4.0000000E+04;  0.0000000E+00;  4.0021566E+04;  1.0283735E-02;  0.0000000E+00;  8.0700114E-04;  2.7174587E+03;
  5.0999139E-02;  9.9999998E-03;  2.5997978E-01;2807;  1.5910597E-03;  0.0000000E+00; -3.8826081E-04;  9.9961987E+02;  1.0000000E-01; -3.1490466E+02;3;  2.2600265E+00;  0.0000000E+00;  1.0544060E+01;0;  1.0929688E-02;  3.9950004E+04;  0.0000000E+00; -4.7999838E-01;  4.0000000E+04;  0.0000000E+00;  4.0019531E+04;  9.6331174E-03;  0.0000000E+00;  1.2965709E-03;  2.5815044E+03;
  5.0635744E-02;  9.9999998E-03;  2.6994741E-01;2808;  1.1876317E-03;  0.0000000E+00; -4.0070599E-04;  9.9940320E+02;  1.0000000E-01; -4.9445514E+02;3;  4.4391766E+00;  0.0000000E+00;  8.8886976E+00;0;  1.0605482E-02;  3.9935379E+04;  0.0000000E+00; -5.2991080E-01;  4.0000000E+04;  0.0000000E+00;  4.0014352E+04;  8.8611105E-03;  0.0000000E+00;  1.7443718E-03;  2.0843435E+03;
  5.0196223E-02;  9.9999998E-03;  2.7994648E-01;2809;  5.2685587E-04;  0.0000000E+00; -2.1576011E-04;  9.9923035E+02;  1.0000000E-01; -6.3766095E+02;3;  5.7680435E+00;  0.0000000E+00;  4.3244901E+00;0;  1.0074750E-02;  3.9927109E+04;  0.0000000E+00; -6.0413533E-01;  4.0000000E+04;  0.0000000E+00;  4.0008305E+04;  7.9766866E-03;  0.0000000E+00;  2.0980630E-03;  1.3776113E+03;
  4.9743842E-02;  9.9999998E-03;  2.8997788E-01;2810; -1.4176023E-04;  0.0000000E+00;  2.1915519E-05;  9.9911438E+02;  1.0000000E-01; -7.3370764E+02;3;  5.7695851E+00;  0.0000000E+00; -1.9732791E+00;0;  9.2954673E-03;  3.9925645E+04;  0.0000000E+00; -6.7522812E-01;  4.0000000E+04;  0.0000000E+00;  3.9998918E+04;  6.9926823E-03;  0.0000000E+00;  2.3027847E-03;  9.5813928E+02;
  4.9415424E-02;  9.9999998E-03;  2.9999262E-01;2811; -5.2605115E-04;  0.0000000E+00; -2.8028608E-05;  9.9907129E+02;  1.0000000E-01; -7.6941034E+02;3;  4.7835064E+00;  0.0000000E+00; -8.1952486E+00;0;  8.2904790E-03;  3.9929668E+04;  0.0000000E+00; -7.0742232E-01;  4.0000000E+04;  0.0000000E+00;  3.9991172E+04;  5.9566568E-03;  0.0000000E+00;  2.3338217E-03;  1.3478723E+03;
  6.1286509E-02;  9.9999998E-03;  2.4004862E-01;2866;  1.8632950E-03;  0.0000000E+00; -1.3479553E-04;  1.0009501E+03;  1.0000000E-01;  7.8713824E+02;3; -5.8760319E+00;  0.0000000E+00;  1.1058932E+01;0;  1.1169757E-02;  4.0062852E+04;  0.0000000E+00; -7.0086159E-02;  4.0000000E+04;  0.0000000E+00;  4.0018621E+04;  1.0988091E-02;  0.0000000E+00;  1.8166524E-04;  2.1063516E+03;
  6.1135337E-02;  9.9999998E-03;  2.5004154E-01;2867;  1.7362353E-03;  0.0000000E+00; -1.6155571E-04;  1.0005446E+03;  1.0000000E-01;  4.5114774E+02;3; -1.9010525E+00;  0.0000000E+00;  1.3859302E+01;0;  1.1210256E-02;  4.0026195E+04;  0.0000000E+00; -1.4172174E-01;  4.0000000E+04;  0.0000000E+00;  4.0020148E+04;  1.0569170E-02;  0.0000000E+00;  6.4108649E-04;  2.4517598E+03;
  6.0896769E-02;  9.9999998E-03;  2.6001841E-01;2868;  1.4837642E-03;  0.0000000E+00; -1.8984052E-04;  1.0001528E+03;  1.0000000E-01;  1.2661370E+02;3;  1.6255995E+00;  0.0000000E+00;  1.5022347E+01;0;  1.1138242E-02;  3.9993523E+04;  0.0000000E+00; -2.5659022E-01;  4.0000000E+04;  0.0000000E+00;  4.0019219E+04;  1.0024372E-02;  0.0000000E+00;  1.1138696E-03;  2.4396223E+03;
  6.0563326E-02;  9.9999998E-03;  2.6999247E-01;2869;  1.0609230E-03;  0.0000000E+00; -1.6083727E-04;  9.9978815E+02;  1.0000000E-01; -1.7550121E+02;3;  4.5115628E+00;  0.0000000E+00;  1.3410506E+01;0;  1.0888426E-02;  3.9966062E+04;  0.0000000E+00; -4.0545434E-01;  4.0000000E+04;  0.0000000E+00;  4.0015609E+04;  9.3389358E-03;  0.0000000E+00;  1.5494893E-03;  2.0525237E+03;
  6.0143746E-02;  9.9999998E-03;  2.7999443E-01;2870;  3.6318341E-04;  0.0000000E+00;  8.2055114E-05;  9.9947687E+02;  1.0000000E-01; -4.3341983E+02;3;  6.6275916E+00;  0.0000000E+00;  8.7869921E+00;0;  1.0407888E-02;  3.9946508E+04;  0.0000000E+00; -5.6471103E-01;  4.0000000E+04;  0.0000000E+00;  4.0008410E+04;  8.5087465E-03;  0.0000000E+00;  1.8991421E-03;  1.4258381E+03;
  5.9712809E-02;  9.9999998E-03;  2.9001424E-01;2871; -1.4197954E-04;  0.0000000E+00;  1.4304063E-04;  9.9924860E+02;  1.0000000E-01; -6.2250092E+02;3;  6.8469205E+00;  0.0000000E+00;  2.0841165E+00;0;  9.6506532E-03;  3.9935117E+04;  0.0000000E+00; -6.9851881E-01;  4.0000000E+04;  0.0000000E+00;  4.0000457E+04;  7.5537860E-03;  0.0000000E+00;  2.0968667E-03;  1.0109323E+03;
  5.9383400E-02;  9.9999998E-03;  3.0003846E-01;2872; -5.3574401E-04;  0.0000000E+00;  1.0515138E-04;  9.9910614E+02;  1.0000000E-01; -7.4052228E+02;3;  6.3227491E+00;  0.0000000E+00; -5.2392716E+00;0;  8.6657507E-03;  3.9930977E+04;  0.0000000E+00; -7.6781285E-01;  4.0000000E+04;  0.0000000E+00;  3.9992637E+04;  6.5233558E-03;  0.0000000E+00;  2.1423947E-03;  1.3269785E+03;
  7.1171768E-02;  9.9999998E-03;  2.4008708E-01;2927;  1.8838509E-03;  0.0000000E+00;  6.2166066E-05;  1.0012260E+03;  1.0000000E-01;  1.0157737E+03;3; -4.3041949E+00;  0.0000000E+00;  1.3343366E+01;0;  1.1456076E-02;  4.0087223E+04;  0.0000000E+00;  4.4375262E-01;  4.0000000E+04;  0.0000000E+00;  4.0017254E+04;  1.1447923E-02;  0.0000000E+00;  8.1524777E-06;  2.0436281E+03;
  7.1043260E-02;  9.9999998E-03;  2.5009042E-01;2928;  1.7469364E-03;  0.0000000E+00;  3.3874683E-05;  1.0007520E+03;  1.0000000E-01;  6.2299475E+02;3; -6.0908329E-01;  0.0000000E+00;  1.6422739E+01;0;  1.1569789E-02;  4.0044035E+04;  0.0000000E+00;  3.0674157E-01;  4.0000000E+04;  0.0000000E+00;  4.0019359E+04;  1.1126168E-02;  0.0000000E+00;  4.4362075E-04;  2.3859160E+03;
  7.0832469E-02;  9.9999998E-03;  2.6007310E-01;2929;  1.4917507E-03;  0.0000000E+00;  2.7105295E-06;  1.0002689E+03;  1.0000000E-01;  2.2270975E+02;3;  2.9153540E+00;  0.0000000E+00;  1.7657848E+01;0;  1.1568077E-02;  4.0003891E+04;  0.0000000E+00;  1.1101845E-01;  4.0000000E+04;  0.0000000E+00;  4.0019551E+04;  1.0670500E-02;  0.0000000E+00;  8.9757721E-04;  2.3833831E+03;
  7.0528820E-02;  9.9999998E-03;  2.7004707E-01;2930;  1.0494058E-03;  0.0000000E+00;  4.9615988E-05;  9.9981714E+02;  1.0000000E-01; -1.5150189E+02;3;  6.0156093E+00;  0.0000000E+00;  1.5949258E+01;0;  1.1377010E-02;  3.9969305E+04;  0.0000000E+00; -1.2163965E-01;  4.0000000E+04;  0.0000000E+00;  4.0016105E+04;  1.0054164E-02;  0.0000000E+00;  1.3228464E-03;  1.9892205E+03;
  7.0140474E-02;  9.9999998E-03;  2.8003502E-01;2931;  3.9031322E-04;  0.0000000E+00;  2.2994664E-04;  9.9942487E+02;  1.0000000E-01; -4.7648035E+02;3;  8.3600368E+00;  0.0000000E+00;  1.1086724E+01;0;  1.0927604E-02;  3.9942410E+04;  0.0000000E+00; -3.5890812E-01;  4.0000000E+04;  0.0000000E+00;  4.0009348E+04;  9.2603667E-03;  0.0000000E+00;  1.6672371E-03;  1.3123113E+03;
  6.9731280E-02;  9.9999998E-03;  2.9004410E-01;2932; -9.1777983E-05;  0.0000000E+00;  2.5615687E-04;  9.9912244E+02;  1.0000000E-01; -7.2704114E+02;3;  8.8585863E+00;  0.0000000E+00;  3.5506651E+00;0;  1.0184987E-02;  3.9924992E+04;  0.0000000E+00; -5.6041008E-01;  4.0000000E+04;  0.0000000E+00;  4.0000711E+04;  8.3133969E-03;  0.0000000E+00;  1.8715891E-03;  8.2321008E+02;
  6.9398545E-02;  9.9999998E-03;  3.0008432E-01;2933; -4.8896845E-04;  0.0000000E+00;  2.4259195E-04;  9.9892804E+02;  1.0000000E-01; -8.8812305E+02;3;  8.3772812E+00;  0.0000000E+00; -4.9194398E+00;0;  9.1927331E-03;  3.9917117E+04;  0.0000000E+00; -6.8534684E-01;  4.0000000E+04;  0.0000000E+00;  3.9992801E+04;  7.2533851E-03;  0.0000000E+00;  1.9393479E-03;  1.2564318E+03;
  8.1118204E-02;  9.9999998E-03;  2.4015112E-01;2988;  2.0953652E-03;  0.0000000E+00;  2.2541711E-04;  1.0010947E+03;  1.0000000E-01;  9.0693732E+02;3; -1.6739736E+00;  0.0000000E+00;  1.4603793E+01;0;  1.1752578E-02;  4.0077625E+04;  0.0000000E+00;  1.0277741E+00;  4.0000000E+04;  0.0000000E+00;  4.0015996E+04;  1.1943333E-02;  0.0000000E+00; -1.9075460E-04;  2.4450315E+03;
  8.1007227E-02;  9.9999998E-03;  2.5016004E-01;2989;  1.9651181E-03;  0.0000000E+00;  1.7087859E-04;  1.0005909E+03;  1.0000000E-01;  4.8956641E+02;3;  1.5944750E+00;  0.0000000E+00;  1.7734081E+01;0;  1.1929203E-02;  4.0032242E+04;  0.0000000E+00;  8.9273643E-01;  4.0000000E+04;  0.0000000E+00;  4.0019410E+04;  1.1713390E-02;  0.0000000E+00;  2.1581241E-04;  2.6984070E+03;
  8.0823235E-02;  9.9999998E-03;  2.6013970E-01;2990;  1.6875772E-03;  0.0000000E+00;  1.2314273E-04;  1.0000755E+03;  1.0000000E-01;  6.2516750E+01;3;  4.8722506E+00;  0.0000000E+00;  1.8837027E+01;0;  1.1999881E-02;  3.9988688E+04;  0.0000000E+00;  6.8966234E-01;  4.0000000E+04;  0.0000000E+00;  4.0019879E+04;  1.1350132E-02;  0.0000000E+00;  6.4974936E-04;  2.6085510E+03;
  8.0551058E-02;  9.9999998E-03;  2.7010310E-01;2991;  1.2260915E-03;  0.0000000E+00;  1.5632878E-04;  9.9957599E+02;  1.0000000E-01; -3.5129871E+02;3;  7.9468021E+00;  0.0000000E+00;  1.6676706E+01;0;  1.1880168E-02;  3.9950227E+04;  0.0000000E+00;  4.3926647E-01;  4.0000000E+04;  0.0000000E+00;  4.0015879E+04;  1.0812321E-02;  0.0000000E+00;  1.0678470E-03;  2.0903862E+03;
  8.0196597E-02;  9.9999998E-03;  2.8007120E-01;2992;  5.5872585E-04;  0.0000000E+00;  3.1001796E-04;  9.9913568E+02;  1.0000000E-01; -7.1607849E+02;3;  1.0406141E+01;  0.0000000E+00;  1.0980337E+01;0;  1.1484166E-02;  3.9920395E+04;  0.0000000E+00;  1.6945291E-01;  4.0000000E+04;  0.0000000E+00;  4.0008391E+04;  1.0064377E-02;  0.0000000E+00;  1.4197892E-03;  1.1846355E+03;
  7.9804905E-02;  9.9999998E-03;  2.9007122E-01;2993;  1.9404586E-05;  0.0000000E+00;  3.5206618E-04;  9.9879926E+02;  1.0000000E-01; -9.9478668E+02;3;  1.1229198E+01;  0.0000000E+00;  2.3806551E+00;0;  1.0769377E-02;  3.9900910E+04;  0.0000000E+00; -8.4471516E-02;  4.0000000E+04;  0.0000000E+00;  3.9999613E+04;  9.1226259E-03;  0.0000000E+00;  1.6467506E-03;  1.3262003E+02;
  7.9468913E-02;  9.9999998E-03;  3.0012608E-01;2994; -3.8036014E-04;  0.0000000E+00;  3.5934238E-04;  9.9858337E+02;  1.0000000E-01; -1.1736459E+03;3;  1.0625931E+01;  0.0000000E+00; -7.4236226E+00;0;  9.7723529E-03;  3.9892688E+04;  0.0000000E+00; -2.8300643E-01;  4.0000000E+04;  0.0000000E+00;  3.9990492E+04;  8.0258679E-03;  0.0000000E+00;  1.7464850E-03;  1.1443048E+03;
  9.1141269E-02;  9.9999998E-03;  2.4020433E-01;3049;  2.7642711E-03;  0.0000000E+00;  1.1827181E-04;  1.0007078E+03;  1.0000000E-01;  5.8635376E+02;3;  7.3902476E-01;  0.0000000E+00;  1.5024690E+01;0;  1.1808299E-02;  4.0046023E+04;  0.0000000E+00;  1.6883340E+00;  4.0000000E+04;  0.0000000E+00;  4.0017055E+04;  1.2226822E-02;  0.0000000E+00; -4.1852362E-04;  3.2452332E+03;
  9.1051146E-02;  9.9999998E-03;  2.5021213E-01;3050;  2.6721659E-03;  0.0000000E+00;  4.6817117E-05;  1.0002137E+03;  1.0000000E-01;  1.7708141E+02;3;  3.6219423E+00;  0.0000000E+00;  1.8115772E+01;0;  1.2054722E-02;  4.0000945E+04;  0.0000000E+00;  1.6765417E+00;  4.0000000E+04;  0.0000000E+00;  4.0020812E+04;  1.2104111E-02;  0.0000000E+00; -4.9388953E-05;  3.5153179E+03;
  9.0890266E-02;  9.9999998E-03;  2.6018754E-01;3051;  2.3605826E-03;  0.0000000E+00;  1.4080229E-05;  9.9968622E+02;  1.0000000E-01; -2.5994327E+02;3;  6.7544136E+00;  0.0000000E+00;  1.8956093E+01;0;  1.2222630E-02;  3.9957227E+04;  0.0000000E+00;  1.5995158E+00;  4.0000000E+04;  0.0000000E+00;  4.0020551E+04;  1.1860593E-02;  0.0000000E+00;  3.6203710E-04;  3.4259006E+03;
  9.0640426E-02;  9.9999998E-03;  2.7014124E-01;3052;  1.7004928E-03;  0.0000000E+00;  8.9084795E-05;  9.9916522E+02;  1.0000000E-01; -6.9158539E+02;3;  9.7359953E+00;  0.0000000E+00;  1.5990087E+01;0;  1.2206331E-02;  3.9917922E+04;  0.0000000E+00;  1.4551876E+00;  4.0000000E+04;  0.0000000E+00;  4.0015410E+04;  1.1424990E-02;  0.0000000E+00;  7.8134082E-04;  2.9034031E+03;
  9.0315774E-02;  9.9999998E-03;  2.8009313E-01;3053;  9.0529729E-04;  0.0000000E+00;  2.8566737E-04;  9.9869794E+02;  1.0000000E-01; -1.0787349E+03;3;  1.2318099E+01;  0.0000000E+00;  8.9361401E+00;0;  1.1909271E-02;  3.9887160E+04;  0.0000000E+00;  1.2453988E+00;  4.0000000E+04;  0.0000000E+00;  4.0006781E+04;  1.0749532E-02;  0.0000000E+00;  1.1597385E-03;  2.0636077E+03;
  8.9939557E-02;  9.9999998E-03;  2.9008472E-01;3054;  2.1397063E-04;  0.0000000E+00;  4.0709358E-04;  9.9835034E+02;  1.0000000E-01; -1.3667268E+03;3;  1.3573076E+01;  0.0000000E+00; -1.1176283E+00;0;  1.1260093E-02;  3.9868266E+04;  0.0000000E+00;  9.8397475E-01;  4.0000000E+04;  0.0000000E+00;  3.9996746E+04;  9.8283924E-03;  0.0000000E+00;  1.4317005E-03;  1.4420399E+03;
  8.9603893E-02;  9.9999998E-03;  3.0015182E-01;3055; -2.0728761E-04;  0.0000000E+00;  4.2925403E-04;  9.9814709E+02;  1.0000000E-01; -1.5351171E+03;3;  1.2955523E+01;  0.0000000E+00; -1.2428228E+01;0;  1.0291461E-02;  3.9861660E+04;  0.0000000E+00;  7.0108873E-01;  4.0000000E+04;  0.0000000E+00;  3.9985844E+04;  8.7153763E-03;  0.0000000E+00;  1.5760842E-03;  1.9069512E+03;
  1.0127487E-01;  9.9999998E-03;  2.4017558E-01;3110;  3.5605440E-03;  0.0000000E+00; -2.3328009E-04;  1.0002329E+03;  1.0000000E-01;  1.9298219E+02;3;  2.2759178E+00;  0.0000000E+00;  1.5132254E+01;0;  1.1432297E-02;  4.0005105E+04;  0.0000000E+00;  2.4735692E+00;  4.0000000E+04;  0.0000000E+00;  4.0020727E+04;  1.2096260E-02;  0.0000000E+00; -6.6396315E-04;  4.3958706E+03;
  1.0119593E-01;  9.9999998E-03;  2.5018433E-01;3111;  3.4072285E-03;  0.0000000E+00; -2.6297980E-04;  9.9975745E+02;  1.0000000E-01; -2.0093259E+02;3;  4.8434396E+00;  0.0000000E+00;  1.8175747E+01;0;  1.1761694E-02;  3.9962496E+04;  0.0000000E+00;  2.7506452E+00;  4.0000000E+04;  0.0000000E+00;  4.0022887E+04;  1.2105970E-02;  0.0000000E+00; -3.4427538E-04;  4.9269185E+03;
  1.0105046E-01;  9.9999998E-03;  2.6015979E-01;3112;  3.1526701E-03;  0.0000000E+00; -3.0059242E-04;  9.9922595E+02;  1.0000000E-01; -6.4126581E+02;3;  7.8464971E+00;  0.0000000E+00;  1.8702383E+01;0;  1.2066442E-02;  3.9919262E+04;  0.0000000E+00;  2.9849706E+00;  4.0000000E+04;  0.0000000E+00;  4.0021891E+04;  1.2037553E-02;  0.0000000E+00;  2.8888811E-05;  5.1328374E+03;
  1.0082801E-01;  9.9999998E-03;  2.7010527E-01;3113;  2.7383897E-03;  0.0000000E+00; -3.2497756E-04;  9.9868805E+02;  1.0000000E-01; -1.0869323E+03;3;  1.1081331E+01;  0.0000000E+00;  1.5012548E+01;0;  1.2242068E-02;  3.9880039E+04;  0.0000000E+00;  3.1274521E+00;  4.0000000E+04;  0.0000000E+00;  4.0016207E+04;  1.1816536E-02;  0.0000000E+00;  4.2553165E-04;  4.9740991E+03;
  1.0051616E-01;  9.9999998E-03;  2.8005561E-01;3114;  1.7138802E-03;  0.0000000E+00; -5.4970817E-05;  9.9820361E+02;  1.0000000E-01; -1.4882542E+03;3;  1.3940311E+01;  0.0000000E+00;  6.0809789E+00;0;  1.2103911E-02;  3.9849551E+04;  0.0000000E+00;  3.1244535E+00;  4.0000000E+04;  0.0000000E+00;  4.0005859E+04;  1.1259685E-02;  0.0000000E+00;  8.4422511E-04;  4.5820332E+03;
  1.0015338E-01;  9.9999998E-03;  2.9004964E-01;3115;  6.1568635E-04;  0.0000000E+00;  3.2764365E-04;  9.9784125E+02;  1.0000000E-01; -1.7884927E+03;3;  1.5714192E+01;  0.0000000E+00; -6.2465940E+00;0;  1.1557106E-02;  3.9832176E+04;  0.0000000E+00;  2.9438689E+00;  4.0000000E+04;  0.0000000E+00;  3.9993402E+04;  1.0347435E-02;  0.0000000E+00;  1.2096702E-03;  4.2926074E+03;
  9.9820733E-02;  9.9999998E-03;  3.0013746E-01;3116;  3.2927750E-05;  0.0000000E+00;  4.1989799E-04;  9.9764813E+02;  1.0000000E-01; -1.9484882E+03;3;  1.5558444E+01;  0.0000000E+00; -1.9554413E+01;0;  1.0651967E-02;  3.9828590E+04;  0.0000000E+00;  2.5861130E+00;  4.0000000E+04;  0.0000000E+00;  3.9979484E+04;  9.2286011E-03;  0.0000000E+00;  1.4233664E-03;  4.4175293E+03;
  1.1142413E-01;  9.9999998E-03;  2.4007805E-01;3171;  3.7994117E-03;  0.0000000E+00; -3.0250679E-04;  9.9981042E+02;  1.0000000E-01; -1.5708197E+02;3;  3.0644376E+00;  0.0000000E+00;  1.5634606E+01;0;  1.0584752E-02;  3.9967023E+04;  0.0000000E+00;  3.4413719E+00;  4.0000000E+04;  0.0000000E+00;  4.0026270E+04;  1.1463107E-02;  0.0000000E+00; -8.7835477E-04;  5.8984336E+03;
  1.1133349E-01;  9.9999998E-03;  2.5008678E-01;3172;  3.6515396E-03;  0.0000000E+00; -3.3818718E-04;  9.9934943E+02;  1.0000000E-01; -5.3899713E+02;3;  5.4051504E+00;  0.0000000E+00;  1.8747213E+01;0;  1.1016296E-02;  3.9926164E+04;  0.0000000E+00;  4.1941652E+00;  4.0000000E+04;  0.0000000E+00;  4.0027270E+04;  1.1637110E-02;  0.0000000E+00; -6.2081392E-04;  6.9864868E+03;
  1.1120077E-01;  9.9999998E-03;  2.6005715E-01;3173;  3.4438241E-03;  0.0000000E+00; -3.9849710E-04;  9.9880945E+02;  1.0000000E-01; -9.8634247E+02;3;  8.3155613E+00;  0.0000000E+00;  1.9083158E+01;0;  1.1476276E-02;  3.9882727E+04;  0.0000000E+00;  4.9580965E+00;  4.0000000E+04;  0.0000000E+00;  4.0025785E+04;  1.1777786E-02;  0.0000000E+00; -3.0150870E-04;  7.8645674E+03;
  1.1102581E-01;  9.9999998E-03;  2.6998517E-01;3174;  3.1599381E-03;  0.0000000E+00; -4.8867875E-04;  9.9824023E+02;  1.0000000E-01; -1.4579341E+03;3;  1.1646293E+01;  0.0000000E+00;  1.4837770E+01;0;  1.1869430E-02;  3.9842699E+04;  0.0000000E+00;  5.6154151E+00;  4.0000000E+04;  0.0000000E+00;  4.0018184E+04;  1.1813866E-02;  0.0000000E+00;  5.5563636E-05;  8.4578486E+03;
  1.1078613E-01;  9.9999998E-03;  2.7990410E-01;3175;  2.7554221E-03;  0.0000000E+00; -5.8627833E-04;  9.9770648E+02;  1.0000000E-01; -1.9001438E+03;3;  1.5055865E+01;  0.0000000E+00;  4.9325290E+00;0;  1.2058998E-02;  3.9810867E+04;  0.0000000E+00;  6.0309935E+00;  4.0000000E+04;  0.0000000E+00;  4.0006520E+04;  1.1636375E-02;  0.0000000E+00;  4.2262254E-04;  8.7534336E+03;
  1.1047648E-01;  9.9999998E-03;  2.8988111E-01;3176;  1.9354731E-03;  0.0000000E+00; -4.8052432E-04;  9.9730768E+02;  1.0000000E-01; -2.2305542E+03;3;  1.7699682E+01;  0.0000000E+00; -1.0238832E+01;0;  1.1810285E-02;  3.9792520E+04;  0.0000000E+00;  6.0886431E+00;  4.0000000E+04;  0.0000000E+00;  3.9990727E+04;  1.1003772E-02;  0.0000000E+00;  8.0651348E-04;  8.8174727E+03;
  1.1014810E-01;  9.9999998E-03;  3.0001035E-01;3177;  5.5430079E-04;  0.0000000E+00;  1.9274277E-04;  9.9709076E+02;  1.0000000E-01; -2.4102529E+03;3;  1.8300791E+01;  0.0000000E+00; -2.7515896E+01;0;  1.0885588E-02;  3.9791371E+04;  0.0000000E+00;  5.7058544E+00;  4.0000000E+04;  0.0000000E+00;  3.9973445E+04;  9.6543701E-03;  0.0000000E+00;  1.2312176E-03;  8.7724482E+03;
  1.2146816E-01;  9.9999998E-03;  2.3998073E-01;3232;  3.8507187E-03;  0.0000000E+00; -3.0300778E-04;  9.9952771E+02;  1.0000000E-01; -3.9129758E+02;3;  3.2721312E+00;  0.0000000E+00;  1.6620667E+01;0;  9.4218981E-03;  3.9938766E+04;  0.0000000E+00;  4.6105366E+00;  4.0000000E+04;  0.0000000E+00;  4.0031586E+04;  1.0475820E-02;  0.0000000E+00; -1.0539223E-03;  7.7257056E+03;
  1.2135548E-01;  9.9999998E-03;  2.4998027E-01;3233;  3.7053635E-03;  0.0000000E+00; -3.4443397E-04;  9.9906940E+02;  1.0000000E-01; -7.7099054E+02;3;  5.5331073E+00;  0.0000000E+00;  2.0054344E+01;0;  9.9603077E-03;  3.9898461E+04;  0.0000000E+00;  6.0169659E+00;  4.0000000E+04;  0.0000000E+00;  4.0032367E+04;  1.0830190E-02;  0.0000000E+00; -8.6988206E-04;  9.6666963E+03;
  1.2121627E-01;  9.9999998E-03;  2.5993901E-01;3234;  3.5177481E-03;  0.0000000E+00; -4.1899184E-04;  9.9851752E+02;  1.0000000E-01; -1.2282122E+03;3;  8.4991713E+00;  0.0000000E+00;  2.0597923E+01;0;  1.0575030E-02;  3.9855027E+04;  0.0000000E+00;  7.5388498E+00;  4.0000000E+04;  0.0000000E+00;  4.0030863E+04;  1.1195339E-02;  0.0000000E+00; -6.2030973E-04;  1.1597341E+04;
  1.2106051E-01;  9.9999998E-03;  2.6985341E-01;3235;  3.2884397E-03;  0.0000000E+00; -5.3469854E-04;  9.9791479E+02;  1.0000000E-01; -1.7275560E+03;3;  1.2037695E+01;  0.0000000E+00;  1.6344379E+01;0;  1.1182434E-02;  3.9812664E+04;  0.0000000E+00;  8.9794893E+00;  4.0000000E+04;  0.0000000E+00;  4.0023086E+04;  1.1502996E-02;  0.0000000E+00; -3.2056216E-04;  1.3339978E+04;
  1.2090154E-01;  9.9999998E-03;  2.7973893E-01;3236;  3.0100008E-03;  0.0000000E+00; -6.8802742E-04;  9.9732513E+02;  1.0000000E-01; -2.2160854E+03;3;  1.5792662E+01;  0.0000000E+00;  6.2729125E+00;0;  1.1659518E-02;  3.9777086E+04;  0.0000000E+00;  1.0104981E+01;  4.0000000E+04;  0.0000000E+00;  4.0010859E+04;  1.1653668E-02;  0.0000000E+00;  5.8496371E-06;  1.4689395E+04;
  1.2073150E-01;  9.9999998E-03;  2.8965318E-01;3237;  2.6298421E-03;  0.0000000E+00; -8.4530521E-04;  9.9682251E+02;  1.0000000E-01; -2.6324688E+03;3;  1.9144447E+01;  0.0000000E+00; -9.3583975E+00;0;  1.1838090E-02;  3.9752594E+04;  0.0000000E+00;  1.0673919E+01;  4.0000000E+04;  0.0000000E+00;  3.9993844E+04;  1.1501158E-02;  0.0000000E+00;  3.3693248E-04;  1.5420126E+04;
  1.2056158E-01;  9.9999998E-03;  2.9970905E-01;3238;  2.0712416E-03;  0.0000000E+00; -9.0060296E-04;  9.9646240E+02;  1.0000000E-01; -2.9308308E+03;3;  2.1250431E+01;  0.0000000E+00; -2.9242292E+01;0;  1.1514919E-02;  3.9742344E+04;  0.0000000E+00;  1.0440684E+01;  4.0000000E+04;  0.0000000E+00;  3.9974027E+04;  1.0850530E-02;  0.0000000E+00;  6.6438830E-04;  1.5334802E+04;
  1.3144162E-01;  9.9999998E-03;  2.3988785E-01;3293;  3.7887858E-03;  0.0000000E+00; -2.8095127E-04;  9.9941699E+02;  1.0000000E-01; -4.8299869E+02;3;  3.1813073E+00;  0.0000000E+00;  1.8069407E+01;0;  8.1422674E-03;  3.9923434E+04;  0.0000000E+00;  5.9239898E+00;  4.0000000E+04;  0.0000000E+00;  4.0037109E+04;  9.3233623E-03;  0.0000000E+00; -1.1810953E-03;  9.7903965E+03;
  1.3130885E-01;  9.9999998E-03;  2.4987033E-01;3294;  3.6384820E-03;  0.0000000E+00; -3.2442805E-04;  9.9895099E+02;  1.0000000E-01; -8.6906183E+02;3;  5.5459299E+00;  0.0000000E+00;  2.2212942E+01;0;  8.7772040E-03;  3.9881902E+04;  0.0000000E+00;  8.1234703E+00;  4.0000000E+04;  0.0000000E+00;  4.0040715E+04;  9.8581463E-03;  0.0000000E+00; -1.0809421E-03;  1.2844186E+04;
  1.3115557E-01;  9.9999998E-03;  2.5981188E-01;3295;  3.4609654E-03;  0.0000000E+00; -4.0642451E-04;  9.9838611E+02;  1.0000000E-01; -1.3370980E+03;3;  8.8413448E+00;  0.0000000E+00;  2.3660675E+01;0;  9.5292497E-03;  3.9836746E+04;  0.0000000E+00;  1.0622681E+01;  4.0000000E+04;  0.0000000E+00;  4.0039086E+04;  1.0447464E-02;  0.0000000E+00; -9.1821374E-04;  1.6192410E+04;
  1.3100554E-01;  9.9999998E-03;  2.6970783E-01;3296;  3.2708137E-03;  0.0000000E+00; -5.4109294E-04;  9.9776453E+02;  1.0000000E-01; -1.8520464E+03;3;  1.2954156E+01;  0.0000000E+00;  2.0542906E+01;0;  1.0329234E-02;  3.9792777E+04;  0.0000000E+00;  1.3169444E+01;  4.0000000E+04;  0.0000000E+00;  4.0031859E+04;  1.1032761E-02;  0.0000000E+00; -7.0352666E-04;  1.9560711E+04;
  1.3087554E-01;  9.9999998E-03;  2.7957815E-01;3297;  3.0807015E-03;  0.0000000E+00; -7.3663460E-04;  9.9713342E+02;  1.0000000E-01; -2.3748958E+03;3;  1.7447300E+01;  0.0000000E+00;  1.1574318E+01;0;  1.1079054E-02;  3.9753234E+04;  0.0000000E+00;  1.5407958E+01;  4.0000000E+04;  0.0000000E+00;  4.0020430E+04;  1.1536369E-02;  0.0000000E+00; -4.5731477E-04;  2.2510389E+04;
  1.3079023E-01;  9.9999998E-03;  2.8946188E-01;3298;  2.8742070E-03;  0.0000000E+00; -9.6763636E-04;  9.9653473E+02;  1.0000000E-01; -2.8709312E+03;3;  2.1582039E+01;  0.0000000E+00; -3.3330350E+00;0;  1.1653362E-02;  3.9720938E+04;  0.0000000E+00;  1.6912132E+01;  4.0000000E+04;  0.0000000E+00;  4.0004438E+04;  1.1848949E-02;  0.0000000E+00; -1.9558705E-04;  2.4490816E+04;
  1.3077664E-01;  9.9999998E-03;  2.9947481E-01;3299;  2.6125670E-03;  0.0000000E+00; -1.1791321E-03;  9.9594098E+02;  1.0000000E-01; -3.3628184E+03;3;  2.4336275E+01;  0.0000000E+00; -2.4559671E+01;0;  1.1897164E-02;  3.9693980E+04;  0.0000000E+00;  1.7107595E+01;  4.0000000E+04;  0.0000000E+00;  3.9983039E+04;  1.1827376E-02;  0.0000000E+00;  6.9788657E-05;  2.4771918E+04;
  1.4137815E-01;  9.9999998E-03;  2.3982289E-01;3354;  3.6401788E-03;  0.0000000E+00; -2.2532059E-04;  9.9946283E+02;  1.0000000E-01; -4.4502444E+02;3;  3.0133951E+00;  0.0000000E+00;  1.9727560E+01;0;  6.9482657E-03;  3.9920066E+04;  0.0000000E+00;  7.2457914E+00;  4.0000000E+04;  0.0000000E+00;  4.0043250E+04;  8.1939064E-03;  0.0000000E+00; -1.2456408E-03;  1.1881006E+04;
  1.4124188E-01;  9.9999998E-03;  2.4977869E-01;3355;  3.4714732E-03;  0.0000000E+00; -2.6599166E-04;  9.9898608E+02;  1.0000000E-01; -8.4002563E+02;3;  5.7249227E+00;  0.0000000E+00;  2.5024708E+01;0;  7.6551246E-03;  3.9875926E+04;  0.0000000E+00;  1.0310175E+01;  4.0000000E+04;  0.0000000E+00;  4.0049117E+04;  8.8889217E-03;  0.0000000E+00; -1.2337969E-03;  1.6231677E+04;
  1.4108042E-01;  9.9999998E-03;  2.5969663E-01;3356;  3.2882269E-03;  0.0000000E+00; -3.4790768E-04;  9.9841748E+02;  1.0000000E-01; -1.3110740E+03;3;  9.7873974E+00;  0.0000000E+00;  2.8283298E+01;0;  8.5057896E-03;  3.9828230E+04;  0.0000000E+00;  1.3990626E+01;  4.0000000E+04;  0.0000000E+00;  4.0050812E+04;  9.6757207E-03;  0.0000000E+00; -1.1699315E-03;  2.1353021E+04;
  1.4090966E-01;  9.9999998E-03;  2.6958093E-01;3357;  3.1195213E-03;  0.0000000E+00; -4.8932526E-04;  9.9780463E+02;  1.0000000E-01; -1.8188127E+03;3;  1.5187275E+01;  0.0000000E+00;  2.7652847E+01;0;  9.4532911E-03;  3.9782055E+04;  0.0000000E+00;  1.8034718E+01;  4.0000000E+04;  0.0000000E+00;  4.0046945E+04;  1.0515807E-02;  0.0000000E+00; -1.0625161E-03;  2.6930385E+04;
  1.4078692E-01;  9.9999998E-03;  2.7943647E-01;3358;  2.9918002E-03;  0.0000000E+00; -6.9733436E-04;  9.9717401E+02;  1.0000000E-01; -2.3412671E+03;3;  2.1460869E+01;  0.0000000E+00;  2.1786428E+01;0;  1.0437095E-02;  3.9739523E+04;  0.0000000E+00;  2.1959988E+01;  4.0000000E+04;  0.0000000E+00;  4.0038262E+04;  1.1365416E-02;  0.0000000E+00; -9.2832092E-04;  3.2311188E+04;
  1.4075053E-01;  9.9999998E-03;  2.8930324E-01;3359;  2.9136338E-03;  0.0000000E+00; -9.6452265E-04;  9.9650153E+02;  1.0000000E-01; -2.8984365E+03;3;  2.7535194E+01;  0.0000000E+00;  9.4851198E+00;0;  1.1398073E-02;  3.9699000E+04;  0.0000000E+00;  2.5031645E+01;  4.0000000E+04;  0.0000000E+00;  4.0024559E+04;  1.2183453E-02;  0.0000000E+00; -7.8537967E-04;  3.6449078E+04;
  1.4086494E-01;  9.9999998E-03;  2.9928643E-01;3360;  2.8807898E-03;  0.0000000E+00; -1.2708583E-03;  9.9560046E+02;  1.0000000E-01; -3.6449338E+03;3;  3.1689951E+01;  0.0000000E+00; -1.2266808E+01;0;  1.2286033E-02;  3.9648164E+04;  0.0000000E+00;  2.6089823E+01;  4.0000000E+04;  0.0000000E+00;  4.0005141E+04;  1.2943462E-02;  0.0000000E+00; -6.5742899E-04;  3.7721191E+04;
  1.5132008E-01;  9.9999998E-03;  2.3980898E-01;3415;  3.4326843E-03;  0.0000000E+00; -1.2702178E-04;  9.9961261E+02;  1.0000000E-01; -3.2092920E+02;3;  2.8566480E+00;  0.0000000E+00;  2.1023718E+01;0;  6.0194694E-03;  3.9926527E+04;  0.0000000E+00;  8.3878975E+00;  4.0000000E+04;  0.0000000E+00;  4.0047629E+04;  7.2499462E-03;  0.0000000E+00; -1.2304767E-03;  1.3672168E+04;
  1.5118635E-01;  9.9999998E-03;  2.4974507E-01;3416;  3.2269955E-03;  0.0000000E+00; -1.5120269E-04;  9.9911981E+02;  1.0000000E-01; -7.2921393E+02;3;  6.1786442E+00;  0.0000000E+00;  2.7590141E+01;0;  6.7729177E-03;  3.9878668E+04;  0.0000000E+00;  1.2289550E+01;  4.0000000E+04;  0.0000000E+00;  4.0056285E+04;  8.0680326E-03;  0.0000000E+00; -1.2951146E-03;  1.9354615E+04;
  1.5102495E-01;  9.9999998E-03;  2.5964707E-01;3417;  3.0081910E-03;  0.0000000E+00; -2.0833989E-04;  9.9855023E+02;  1.0000000E-01; -1.2011018E+03;3;  1.1567724E+01;  0.0000000E+00;  3.3099934E+01;0;  7.6748049E-03;  3.9826527E+04;  0.0000000E+00;  1.7265236E+01;  4.0000000E+04;  0.0000000E+00;  4.0061926E+04;  8.9898342E-03;  0.0000000E+00; -1.3150291E-03;  2.6480107E+04;
  1.5084086E-01;  9.9999998E-03;  2.6952389E-01;3418;  2.8251579E-03;  0.0000000E+00; -3.0801244E-04;  9.9796820E+02;  1.0000000E-01; -1.6833104E+03;3;  1.9312443E+01;  0.0000000E+00;  3.5867462E+01;0;  8.7126810E-03;  3.9778008E+04;  0.0000000E+00;  2.3185400E+01;  4.0000000E+04;  0.0000000E+00;  4.0064070E+04;  1.0000594E-02;  0.0000000E+00; -1.2879128E-03;  3.4861426E+04;
  1.5068406E-01;  9.9999998E-03;  2.7939600E-01;3419;  2.7321670E-03;  0.0000000E+00; -4.6660539E-04;  9.9739301E+02;  1.0000000E-01; -2.1598401E+03;3;  2.8912764E+01;  0.0000000E+00;  3.3654583E+01;0;  9.8956916E-03;  3.9735008E+04;  0.0000000E+00;  2.9438976E+01;  4.0000000E+04;  0.0000000E+00;  4.0059602E+04;  1.1126845E-02;  0.0000000E+00; -1.2311530E-03;  4.3591570E+04;
  1.5067163E-01;  9.9999998E-03;  2.8928676E-01;3420;  2.7758251E-03;  0.0000000E+00; -7.0146582E-04;  9.9664972E+02;  1.0000000E-01; -2.7756252E+03;3;  3.8785164E+01;  0.0000000E+00;  2.3533911E+01;0;  1.1285346E-02;  3.9686812E+04;  0.0000000E+00;  3.4666122E+01;  4.0000000E+04;  0.0000000E+00;  4.0049840E+04;  1.2473602E-02;  0.0000000E+00; -1.1882563E-03;  5.0728742E+04;
  1.5089405E-01;  9.9999998E-03;  2.9927531E-01;3421;  2.9370454E-03;  0.0000000E+00; -1.0591252E-03;  9.9533502E+02;  1.0000000E-01; -3.8648289E+03;3;  4.5750412E+01;  0.0000000E+00; -1.7885780E-01;0;  1.2886529E-02;  3.9603746E+04;  0.0000000E+00;  3.6670471E+01;  4.0000000E+04;  0.0000000E+00;  4.0030246E+04;  1.4148018E-02;  0.0000000E+00; -1.2614895E-03;  5.3162680E+04;
  1.6128330E-01;  9.9999998E-03;  2.3986118E-01;3476;  3.1800794E-03;  0.0000000E+00;  2.9630655E-05;  9.9977026E+02;  1.0000000E-01; -1.9031560E+02;3;  2.6433284E+00;  0.0000000E+00;  2.1089031E+01;0;  5.5030845E-03;  3.9938160E+04;  0.0000000E+00;  9.1633129E+00;  4.0000000E+04;  0.0000000E+00;  4.0047949E+04;  6.6089681E-03;  0.0000000E+00; -1.1058837E-03;  1.4785278E+04;
  1.6119091E-01;  9.9999998E-03;  2.4979690E-01;3477;  2.9084808E-03;  0.0000000E+00;  6.3857813E-05;  9.9923065E+02;  1.0000000E-01; -6.3741406E+02;3;  6.7033362E+00;  0.0000000E+00;  2.8207006E+01;0;  6.2995898E-03;  3.9883805E+04;  0.0000000E+00;  1.3670724E+01;  4.0000000E+04;  0.0000000E+00;  4.0059531E+04;  7.4854963E-03;  0.0000000E+00; -1.1859065E-03;  2.1500924E+04;
  1.6103171E-01;  9.9999998E-03;  2.5970647E-01;3478;  2.6368976E-03;  0.0000000E+00;  7.0965230E-05;  9.9864111E+02;  1.0000000E-01; -1.1257953E+03;3;  1.3751778E+01;  0.0000000E+00;  3.4977840E+01;0;  7.2411709E-03;  3.9826215E+04;  0.0000000E+00;  1.9780827E+01;  4.0000000E+04;  0.0000000E+00;  4.0068586E+04;  8.4514413E-03;  0.0000000E+00; -1.2102702E-03;  3.0429670E+04;
  1.6083585E-01;  9.9999998E-03;  2.6960495E-01;3479;  2.4336579E-03;  0.0000000E+00;  5.2276191E-05;  9.9805347E+02;  1.0000000E-01; -1.6126458E+03;3;  2.4545006E+01;  0.0000000E+00;  3.9399193E+01;0;  8.3634164E-03;  3.9773418E+04;  0.0000000E+00;  2.7585360E+01;  4.0000000E+04;  0.0000000E+00;  4.0074422E+04;  9.5268395E-03;  0.0000000E+00; -1.1634235E-03;  4.1642926E+04;
  1.6067727E-01;  9.9999998E-03;  2.7953097E-01;3480;  2.4456212E-03;  0.0000000E+00; -2.8878190E-05;  9.9742767E+02;  1.0000000E-01; -2.1311003E+03;3;  3.8431004E+01;  0.0000000E+00;  3.7082279E+01;0;  9.8733930E-03;  3.9726461E+04;  0.0000000E+00;  3.6156891E+01;  4.0000000E+04;  0.0000000E+00;  4.0070867E+04;  1.0968389E-02;  0.0000000E+00; -1.0949958E-03;  5.3691688E+04;
  1.6070472E-01;  9.9999998E-03;  2.8950602E-01;3481;  2.7760097E-03;  0.0000000E+00; -2.5366675E-04;  9.9642126E+02;  1.0000000E-01; -2.9649038E+03;3;  5.2304703E+01;  0.0000000E+00;  2.2099529E+01;0;  1.2117902E-02;  3.9661473E+04;  0.0000000E+00;  4.2841675E+01;  4.0000000E+04;  0.0000000E+00;  4.0056594E+04;  1.3289174E-02;  0.0000000E+00; -1.1712721E-03;  6.2782730E+04;
  1.6107395E-01;  9.9999998E-03;  2.9953754E-01;3482;  3.2522613E-03;  0.0000000E+00; -7.2677043E-04;  9.9428900E+02;  1.0000000E-01; -4.7314712E+03;3;  6.1545544E+01;  0.0000000E+00; -1.0528041E+01;0;  1.4960606E-02;  3.9518289E+04;  0.0000000E+00;  4.3813251E+01;  4.0000000E+04;  0.0000000E+00;  4.0031828E+04;  1.6613001E-02;  0.0000000E+00; -1.6523949E-03;  6.3605137E+04;
  1.7123081E-01;  9.9999998E-03;  2.3998879E-01;3537;  2.8941049E-03;  0.0000000E+00;  2.7221229E-04;  9.9983258E+02;  1.0000000E-01; -1.3871213E+02;3;  2.1270654E+00;  0.0000000E+00;  1.9023453E+01;0;  5.5156755E-03;  3.9950258E+04;  0.0000000E+00;  9.4888315E+00;  4.0000000E+04;  0.0000000E+00;  4.0040629E+04;  6.3256002E-03;  0.0000000E+00; -8.0992485E-04;  1.4947152E+04;
  1.7119330E-01;  9.9999998E-03;  2.4994931E-01;3538;  2.5647823E-03;  0.0000000E+00;  3.6301999E-04;  9.9920734E+02;  1.0000000E-01; -6.5672217E+02;3;  6.5864005E+00;  0.0000000E+00;  2.4793953E+01;0;  6.3791675E-03;  3.9889996E+04;  0.0000000E+00;  1.4149438E+01;  4.0000000E+04;  0.0000000E+00;  4.0049805E+04;  7.1997242E-03;  0.0000000E+00; -8.2055689E-04;  2.1985863E+04;
  1.7108454E-01;  9.9999998E-03;  2.5988573E-01;3539;  2.2533364E-03;  0.0000000E+00;  4.4898540E-04;  9.9850061E+02;  1.0000000E-01; -1.2422365E+03;3;  1.4734269E+01;  0.0000000E+00;  2.9779903E+01;0;  7.4098809E-03;  3.9824199E+04;  0.0000000E+00;  2.0669312E+01;  4.0000000E+04;  0.0000000E+00;  4.0059191E+04;  8.1294924E-03;  0.0000000E+00; -7.1961142E-04;  3.1674984E+04;
  1.7093347E-01;  9.9999998E-03;  2.6983011E-01;3540;  2.1199521E-03;  0.0000000E+00;  4.9772777E-04;  9.9774774E+02;  1.0000000E-01; -1.8659719E+03;3;  2.7563148E+01;  0.0000000E+00;  3.0759993E+01;0;  8.7668439E-03;  3.9759938E+04;  0.0000000E+00;  2.9289391E+01;  4.0000000E+04;  0.0000000E+00;  4.0061852E+04;  9.3050934E-03;  0.0000000E+00; -5.3824950E-04;  4.4216602E+04;
  1.7085595E-01;  9.9999998E-03;  2.7981415E-01;3541;  2.4667387E-03;  0.0000000E+00;  3.6081267E-04;  9.9677655E+02;  1.0000000E-01; -2.6705911E+03;3;  4.3879288E+01;  0.0000000E+00;  2.0872700E+01;0;  1.0982184E-02;  3.9690633E+04;  0.0000000E+00;  3.8358139E+01;  4.0000000E+04;  0.0000000E+00;  4.0052988E+04;  1.1583681E-02;  0.0000000E+00; -6.0149701E-04;  5.7107090E+04;
  1.7104308E-01;  9.9999998E-03;  2.8983709E-01;3542;  3.4650804E-03;  0.0000000E+00; -5.9130842E-05;  9.9495764E+02;  1.0000000E-01; -4.1775117E+03;3;  5.8800636E+01;  0.0000000E+00; -6.1318326E+00;0;  1.5191672E-02;  3.9567992E+04;  0.0000000E+00;  4.3106159E+01;  4.0000000E+04;  0.0000000E+00;  4.0031348E+04;  1.6461870E-02;  0.0000000E+00; -1.2701977E-03;  6.3507402E+04;
  1.7153728E-01;  9.9999998E-03;  2.9982707E-01;3543;  3.5370125E-03;  0.0000000E+00; -6.8809098E-04;  9.9171136E+02;  1.0000000E-01; -6.8669663E+03;3;  6.9175621E+01;  0.0000000E+00; -4.4840843E+01;0;  1.7262172E-02;  3.9331316E+04;  0.0000000E+00;  4.0426804E+01;  4.0000000E+04;  0.0000000E+00;  4.0012898E+04;  1.9768663E-02;  0.0000000E+00; -2.5064908E-03;  5.9011594E+04;
  1.8111335E-01;  9.9999998E-03;  2.4015418E-01;3598;  2.6666028E-03;  0.0000000E+00;  5.0119776E-04;  9.9974585E+02;  1.0000000E-01; -2.1056195E+02;3;  1.0382643E+00;  0.0000000E+00;  1.4566013E+01;0;  6.0405778E-03;  3.9961195E+04;  0.0000000E+00;  9.5363579E+00;  4.0000000E+04;  0.0000000E+00;  4.0022145E+04;  6.4129997E-03;  0.0000000E+00; -3.7242204E-04;  1.4499914E+04;
  1.8110950E-01;  9.9999998E-03;  2.5013566E-01;3599;  2.3373310E-03;  0.0000000E+00;  5.7386805E-04;  9.9905225E+02;  1.0000000E-01; -7.8521234E+02;3;  5.1474113E+00;  0.0000000E+00;  1.7172180E+01;0;  6.9509824E-03;  3.9900141E+04;  0.0000000E+00;  1.4020318E+01;  4.0000000E+04;  0.0000000E+00;  4.0027273E+04;  7.2805518E-03;  0.0000000E+00; -3.2956945E-04;  2.1341322E+04;
  1.8108003E-01;  9.9999998E-03;  2.6009277E-01;3600;  2.1045369E-03;  0.0000000E+00;  6.2987406E-04;  9.9820087E+02;  1.0000000E-01; -1.4905258E+03;3;  1.3030249E+01;  0.0000000E+00;  1.7577135E+01;0;  8.0853887E-03;  3.9826754E+04;  0.0000000E+00;  2.0123259E+01;  4.0000000E+04;  0.0000000E+00;  4.0032434E+04;  8.2838144E-03;  0.0000000E+00; -1.9842526E-04;  3.0614129E+04;
  1.8106896E-01;  9.9999998E-03;  2.7005878E-01;3601;  2.2052901E-03;  0.0000000E+00;  6.0386508E-04;  9.9712061E+02;  1.0000000E-01; -2.3855127E+03;3;  2.5564390E+01;  0.0000000E+00;  1.1538700E+01;0;  9.7965151E-03;  3.9740203E+04;  0.0000000E+00;  2.7583038E+01;  4.0000000E+04;  0.0000000E+00;  4.0030938E+04;  9.9254809E-03;  0.0000000E+00; -1.2896606E-04;  4.1803949E+04;
  1.8118414E-01;  9.9999998E-03;  2.8003582E-01;3602;  2.8915822E-03;  0.0000000E+00;  3.6433438E-04;  9.9551068E+02;  1.0000000E-01; -3.7193022E+03;3;  4.1387585E+01;  0.0000000E+00; -6.1298928E+00;0;  1.2883476E-02;  3.9619906E+04;  0.0000000E+00;  3.3744789E+01;  4.0000000E+04;  0.0000000E+00;  4.0021461E+04;  1.3461999E-02;  0.0000000E+00; -5.7852292E-04;  5.0943961E+04;
  1.8150057E-01;  9.9999998E-03;  2.8999025E-01;3603;  3.6096717E-03;  0.0000000E+00; -5.9844991E-05;  9.9294141E+02;  1.0000000E-01; -5.8479336E+03;3;  5.7117008E+01;  0.0000000E+00; -3.3806435E+01;0;  1.6893627E-02;  3.9424355E+04;  0.0000000E+00;  3.4420200E+01;  4.0000000E+04;  0.0000000E+00;  4.0013801E+04;  1.8564943E-02;  0.0000000E+00; -1.6713168E-03;  5.1744781E+04;
  1.8178749E-01;  9.9999998E-03;  2.9988763E-01;3604;  2.5133137E-03;  0.0000000E+00; -1.6377986E-04;  9.8998218E+02;  1.0000000E-01; -8.2995674E+03;3;  7.4801018E+01;  0.0000000E+00; -5.9056801E+01;0;  1.5484964E-02;  3.9183953E+04;  0.0000000E+00;  3.3047096E+01;  4.0000000E+04;  0.0000000E+00;  4.0020238E+04;  1.7282462E-02;  0.0000000E+00; -1.7974983E-03;  4.8630477E+04;
  1.9095464E-01;  9.9999998E-03;  2.4028125E-01;3659;  2.5800166E-03;  0.0000000E+00;  5.8243534E-04;  9.9953546E+02;  1.0000000E-01; -3.8487799E+02;3; -5.0129265E-01;  0.0000000E+00;  9.0303278E+00;0;  6.8515232E-03;  3.9967184E+04;  0.0000000E+00;  9.6442976E+00;  4.0000000E+04;  0.0000000E+00;  3.9999695E+04;  6.8208110E-03;  0.0000000E+00;  3.0711992E-05;  1.4425460E+04;
  1.9097117E-01;  9.9999998E-03;  2.5025365E-01;3660;  2.3157748E-03;  0.0000000E+00;  5.9159828E-04;  9.9886664E+02;  1.0000000E-01; -9.3898578E+02;3;  2.8225348E+00;  0.0000000E+00;  8.6426821E+00;0;  7.7545438E-03;  3.9911035E+04;  0.0000000E+00;  1.3987503E+01;  4.0000000E+04;  0.0000000E+00;  4.0001773E+04;  7.7295257E-03;  0.0000000E+00;  2.5018235E-05;  2.1121908E+04;
  1.9100569E-01;  9.9999998E-03;  2.6020792E-01;3661;  2.2389051E-03;  0.0000000E+00;  6.0617190E-04;  9.9798303E+02;  1.0000000E-01; -1.6710145E+03;3;  9.7191467E+00;  0.0000000E+00;  5.2312756E+00;0;  9.0628527E-03;  3.9837160E+04;  0.0000000E+00;  1.9497463E+01;  4.0000000E+04;  0.0000000E+00;  4.0004348E+04;  8.9621497E-03;  0.0000000E+00;  1.0070344E-04;  2.9680709E+04;
  1.9112433E-01;  9.9999998E-03;  2.7017000E-01;3662;  2.5965027E-03;  0.0000000E+00;  5.0931814E-04;  9.9667383E+02;  1.0000000E-01; -2.7556750E+03;3;  2.0712761E+01;  0.0000000E+00; -5.4200397E+00;0;  1.1226639E-02;  3.9732336E+04;  0.0000000E+00;  2.4848289E+01;  4.0000000E+04;  0.0000000E+00;  4.0002613E+04;  1.1298964E-02;  0.0000000E+00; -7.2324183E-05;  3.8090977E+04;
  1.9140211E-01;  9.9999998E-03;  2.8011420E-01;3663;  3.2749942E-03;  0.0000000E+00;  3.2137230E-04;  9.9460834E+02;  1.0000000E-01; -4.4668862E+03;3;  3.4836197E+01;  0.0000000E+00; -2.3605202E+01;0;  1.4820732E-02;  3.9565762E+04;  0.0000000E+00;  2.6376783E+01;  4.0000000E+04;  0.0000000E+00;  4.0002719E+04;  1.5416096E-02;  0.0000000E+00; -5.9536356E-04;  4.0797438E+04;
  1.9167352E-01;  9.9999998E-03;  2.9002038E-01;3664;  2.7627633E-03;  0.0000000E+00;  2.7788515E-04;  9.9205432E+02;  1.0000000E-01; -6.5828262E+03;3;  5.2148239E+01;  0.0000000E+00; -4.2822826E+01;0;  1.6017735E-02;  3.9350043E+04;  0.0000000E+00;  2.4956556E+01;  4.0000000E+04;  0.0000000E+00;  4.0013883E+04;  1.6622527E-02;  0.0000000E+00; -6.0479238E-04;  3.8393074E+04;
  1.9173580E-01;  9.9999998E-03;  2.9995900E-01;3665;  2.0367205E-03;  0.0000000E+00;  4.8579150E-04;  9.8965363E+02;  1.0000000E-01; -8.5717578E+03;3;  6.9196907E+01;  0.0000000E+00; -6.6566017E+01;0;  1.6572077E-02;  3.9151824E+04;  0.0000000E+00;  2.6097828E+01;  4.0000000E+04;  0.0000000E+00;  4.0018246E+04;  1.6037684E-02;  0.0000000E+00;  5.3439266E-04;  3.7798574E+04;
  2.0080444E-01;  9.9999998E-03;  2.4031585E-01;3720;  2.6388529E-03;  0.0000000E+00;  5.3219759E-04;  9.9927673E+02;  1.0000000E-01; -5.9919293E+02;3; -1.9050434E+00;  0.0000000E+00;  4.6853356E+00;0;  7.7122394E-03;  3.9964863E+04;  0.0000000E+00;  1.0027442E+01;  4.0000000E+04;  0.0000000E+00;  3.9982355E+04;  7.4131745E-03;  0.0000000E+00;  2.9906514E-04;  1.5143644E+04;
  2.0083089E-01;  9.9999998E-03;  2.5027180E-01;3721;  2.4575784E-03;  0.0000000E+00;  5.2351592E-04;  9.9872076E+02;  1.0000000E-01; -1.0598219E+03;3;  6.9932884E-01;  0.0000000E+00;  2.8121781E+00;0;  8.6461576E-03;  3.9918020E+04;  0.0000000E+00;  1.4515678E+01;  4.0000000E+04;  0.0000000E+00;  3.9984848E+04;  8.3853649E-03;  0.0000000E+00;  2.6079256E-04;  2.1990408E+04;
  2.0091099E-01;  9.9999998E-03;  2.6022607E-01;3722;  2.5626777E-03;  0.0000000E+00;  5.4208410E-04;  9.9791351E+02;  1.0000000E-01; -1.7285931E+03;3;  6.4893017E+00;  0.0000000E+00; -2.5912561E+00;0;  1.0278163E-02;  3.9849422E+04;  0.0000000E+00;  1.9648802E+01;  4.0000000E+04;  0.0000000E+00;  3.9986793E+04;  9.9282665E-03;  0.0000000E+00;  3.4989673E-04;  3.0009119E+04;
  2.0113136E-01;  9.9999998E-03;  2.7018932E-01;3723;  3.3147002E-03;  0.0000000E+00;  4.4906430E-04;  9.9650519E+02;  1.0000000E-01; -2.8953750E+03;3;  1.5427699E+01;  0.0000000E+00; -1.5025178E+01;0;  1.3455397E-02;  3.9735000E+04;  0.0000000E+00;  2.2565149E+01;  4.0000000E+04;  0.0000000E+00;  3.9986383E+04;  1.3351420E-02;  0.0000000E+00;  1.0397774E-04;  3.4957023E+04;
  2.0146170E-01;  9.9999998E-03;  2.8012758E-01;3724;  3.6456389E-03;  0.0000000E+00;  3.5514950E-04;  9.9436511E+02;  1.0000000E-01; -4.6684111E+03;3;  2.7197632E+01;  0.0000000E+00; -3.0686930E+01;0;  1.6903445E-02;  3.9552812E+04;  0.0000000E+00;  2.0256870E+01;  4.0000000E+04;  0.0000000E+00;  3.9996234E+04;  1.7101921E-02;  0.0000000E+00; -1.9847567E-04;  3.1894549E+04;
  2.0162767E-01;  9.9999998E-03;  2.9006532E-01;3725;  2.8648120E-03;  0.0000000E+00;  4.1566647E-04;  9.9206781E+02;  1.0000000E-01; -6.5716660E+03;3;  4.1654381E+01;  0.0000000E+00; -4.8680477E+01;0;  1.7868707E-02;  3.9354324E+04;  0.0000000E+00;  1.8783686E+01;  4.0000000E+04;  0.0000000E+00;  4.0009090E+04;  1.7587917E-02;  0.0000000E+00;  2.8078933E-04;  2.8511762E+04;
  2.0163941E-01;  9.9999998E-03;  3.0003989E-01;3726;  2.8610856E-03;  0.0000000E+00;  4.3110229E-04;  9.8975726E+02;  1.0000000E-01; -8.4859326E+03;3;  5.6902344E+01;  0.0000000E+00; -7.5081337E+01;0;  2.1487558E-02;  3.9163887E+04;  0.0000000E+00;  2.1530079E+01;  4.0000000E+04;  0.0000000E+00;  4.0012117E+04;  2.0900566E-02;  0.0000000E+00;  5.8699213E-04;  2.9461371E+04;
  2.1070798E-01;  9.9999998E-03;  2.4027011E-01;3781;  2.8144440E-03;  0.0000000E+00;  4.2599280E-04;  9.9902863E+02;  1.0000000E-01; -8.0476733E+02;3; -2.7461898E+00;  0.0000000E+00;  2.6143093E+00;0;  8.4639369E-03;  3.9951930E+04;  0.0000000E+00;  1.0452945E+01;  4.0000000E+04;  0.0000000E+00;  3.9975750E+04;  8.0119828E-03;  0.0000000E+00;  4.5195431E-04;  1.5849631E+04;
  2.1073021E-01;  9.9999998E-03;  2.5022620E-01;3782;  2.6992918E-03;  0.0000000E+00;  4.5599721E-04;  9.9863110E+02;  1.0000000E-01; -1.1340914E+03;3; -7.5179487E-01;  0.0000000E+00;  4.4601637E-01;0;  9.5258113E-03;  3.9916305E+04;  0.0000000E+00;  1.5271872E+01;  4.0000000E+04;  0.0000000E+00;  3.9978742E+04;  9.0269530E-03;  0.0000000E+00;  4.9885816E-04;  2.3075113E+04;
  2.1085218E-01;  9.9999998E-03;  2.6019382E-01;3783;  3.0865353E-03;  0.0000000E+00;  4.4745157E-04;  9.9790771E+02;  1.0000000E-01; -1.7334325E+03;3;  3.7912147E+00;  0.0000000E+00; -5.7915816E+00;0;  1.1516456E-02;  3.9855965E+04;  0.0000000E+00;  1.9983671E+01;  4.0000000E+04;  0.0000000E+00;  3.9980414E+04;  1.1023259E-02;  0.0000000E+00;  4.9319747E-04;  3.0446383E+04;
  2.1119863E-01;  9.9999998E-03;  2.7015725E-01;3784;  3.7247620E-03;  0.0000000E+00;  2.8514271E-04;  9.9642828E+02;  1.0000000E-01; -2.9590769E+03;3;  1.0599661E+01;  0.0000000E+00; -1.6891249E+01;0;  1.4184968E-02;  3.9731520E+04;  0.0000000E+00;  1.9108637E+01;  4.0000000E+04;  0.0000000E+00;  3.9984988E+04;  1.4398474E-02;  0.0000000E+00; -2.1350628E-04;  2.9857180E+04;
  2.1147823E-01;  9.9999998E-03;  2.8010926E-01;3785;  3.6616323E-03;  0.0000000E+00;  3.1002137E-04;  9.9452100E+02;  1.0000000E-01; -4.5392295E+03;3;  1.9623720E+01;  0.0000000E+00; -2.9949827E+01;0;  1.7113471E-02;  3.9564070E+04;  0.0000000E+00;  1.5269920E+01;  4.0000000E+04;  0.0000000E+00;  3.9998180E+04;  1.7165413E-02;  0.0000000E+00; -5.1942538E-05;  2.4205318E+04;
  2.1157357E-01;  9.9999998E-03;  2.9007342E-01;3786;  3.5947626E-03;  0.0000000E+00;  3.2122640E-04;  9.9252594E+02;  1.0000000E-01; -6.1921211E+03;3;  3.0600199E+01;  0.0000000E+00; -4.7654335E+01;0;  2.0593464E-02;  3.9390840E+04;  0.0000000E+00;  1.4572680E+01;  4.0000000E+04;  0.0000000E+00;  4.0008168E+04;  2.0464255E-02;  0.0000000E+00;  1.2921030E-04;  2.1357330E+04;
  2.1158044E-01;  9.9999998E-03;  3.0005437E-01;3787;  3.7649218E-03;  0.0000000E+00;  3.5154686E-04;  9.9039203E+02;  1.0000000E-01; -7.9600220E+03;3;  4.3475365E+01;  0.0000000E+00; -7.1033867E+01;0;  2.6011927E-02;  3.9211855E+04;  0.0000000E+00;  1.7385582E+01;  4.0000000E+04;  0.0000000E+00;  4.0014348E+04;  2.5512343E-02;  0.0000000E+00;  4.9958413E-04;  2.1997703E+04;
  2.2069898E-01;  9.9999998E-03;  2.4018599E-01;3842;  3.0628107E-03;  0.0000000E+00;  3.2722205E-04;  9.9880109E+02;  1.0000000E-01; -9.9325586E+02;3; -3.0218918E+00;  0.0000000E+00;  2.3386583E+00;0;  9.0134740E-03;  3.9929875E+04;  0.0000000E+00;  1.0346194E+01;  4.0000000E+04;  0.0000000E+00;  3.9979613E+04;  8.4385574E-03;  0.0000000E+00;  5.7491695E-04;  1.5556008E+04;
  2.2072038E-01;  9.9999998E-03;  2.5015911E-01;3843;  3.0146579E-03;  0.0000000E+00;  3.8358328E-04;  9.9851953E+02;  1.0000000E-01; -1.2265332E+03;3; -1.6848193E+00;  0.0000000E+00;  3.9193895E-01;0;  1.0189568E-02;  3.9904855E+04;  0.0000000E+00;  1.5134129E+01;  4.0000000E+04;  0.0000000E+00;  3.9983793E+04;  9.4834166E-03;  0.0000000E+00;  7.0615148E-04;  2.2710971E+04;
  2.2092365E-01;  9.9999998E-03;  2.6014024E-01;3844;  3.5484245E-03;  0.0000000E+00;  2.9785739E-04;  9.9782288E+02;  1.0000000E-01; -1.8037020E+03;3;  1.4777536E+00;  0.0000000E+00; -5.1832628E+00;0;  1.1979263E-02;  3.9846508E+04;  0.0000000E+00;  1.8087198E+01;  4.0000000E+04;  0.0000000E+00;  3.9985094E+04;  1.1650858E-02;  0.0000000E+00;  3.2840442E-04;  2.7501789E+04;
  2.2127764E-01;  9.9999998E-03;  2.7011228E-01;3845;  3.7401526E-03;  0.0000000E+00;  2.3645845E-04;  9.9650342E+02;  1.0000000E-01; -2.8968564E+03;3;  6.2275019E+00;  0.0000000E+00; -1.3835760E+01;0;  1.4033330E-02;  3.9732508E+04;  0.0000000E+00;  1.4908980E+01;  4.0000000E+04;  0.0000000E+00;  3.9992660E+04;  1.4086276E-02;  0.0000000E+00; -5.2946503E-05;  2.3458242E+04;
  2.2148682E-01;  9.9999998E-03;  2.8008303E-01;3846;  3.6046673E-03;  0.0000000E+00;  2.5137904E-04;  9.9492572E+02;  1.0000000E-01; -4.2039307E+03;3;  1.2309174E+01;  0.0000000E+00; -2.5061024E+01;0;  1.6435031E-02;  3.9592598E+04;  0.0000000E+00;  1.0947587E+01;  4.0000000E+04;  0.0000000E+00;  4.0003438E+04;  1.6410118E-02;  0.0000000E+00;  2.4911948E-05;  1.7448336E+04;
  2.2154923E-01;  9.9999998E-03;  2.9005933E-01;3847;  3.6798392E-03;  0.0000000E+00;  2.0947427E-04;  9.9324811E+02;  1.0000000E-01; -5.5938169E+03;3;  2.0047272E+01;  0.0000000E+00; -4.0583549E+01;0;  1.9659722E-02;  3.9445695E+04;  0.0000000E+00;  1.0650674E+01;  4.0000000E+04;  0.0000000E+00;  4.0012535E+04;  1.9923899E-02;  0.0000000E+00; -2.6417768E-04;  1.5230447E+04;
  2.2155598E-01;  9.9999998E-03;  3.0004138E-01;3848;  3.8211416E-03;  0.0000000E+00;  2.0729870E-04;  9.9138885E+02;  1.0000000E-01; -7.1341685E+03;3;  2.9862795E+01;  0.0000000E+00; -5.9910332E+01;0;  2.4352921E-02;  3.9287195E+04;  0.0000000E+00;  1.3187928E+01;  4.0000000E+04;  0.0000000E+00;  4.0020266E+04;  2.4559645E-02;  0.0000000E+00; -2.0672439E-04;  1.5840175E+04;
  2.3078158E-01;  9.9999998E-03;  2.4009851E-01;3903;  3.3258880E-03;  0.0000000E+00;  2.7283153E-04;  9.9860205E+02;  1.0000000E-01; -1.1581895E+03;3; -2.9297421E+00;  0.0000000E+00;  2.7035632E+00;0;  9.3216524E-03;  3.9904410E+04;  0.0000000E+00;  9.2841425E+00;  4.0000000E+04;  0.0000000E+00;  3.9989930E+04;  8.5547604E-03;  0.0000000E+00;  7.6689187E-04;  1.3827674E+04;
  2.3081394E-01;  9.9999998E-03;  2.5009385E-01;3904;  3.3014663E-03;  0.0000000E+00;  3.2387287E-04;  9.9838635E+02;  1.0000000E-01; -1.3369005E+03;3; -2.2992079E+00;  0.0000000E+00;  1.2620045E+00;0;  1.0486943E-02;  3.9886023E+04;  0.0000000E+00;  1.3294563E+01;  4.0000000E+04;  0.0000000E+00;  3.9992715E+04;  9.5615303E-03;  0.0000000E+00;  9.2541240E-04;  1.9873562E+04;
  2.3105080E-01;  9.9999998E-03;  2.6008824E-01;3905;  3.6190865E-03;  0.0000000E+00;  2.3958944E-04;  9.9777502E+02;  1.0000000E-01; -1.8433552E+03;3; -5.1585543E-01;  0.0000000E+00; -2.9319494E+00;0;  1.1784817E-02;  3.9835184E+04;  0.0000000E+00;  1.4329481E+01;  4.0000000E+04;  0.0000000E+00;  3.9994750E+04;  1.1284312E-02;  0.0000000E+00;  5.0050503E-04;  2.1840555E+04;
  2.3132625E-01;  9.9999998E-03;  2.7007383E-01;3906;  3.7095228E-03;  0.0000000E+00;  2.0720625E-04;  9.9676550E+02;  1.0000000E-01; -2.6797266E+03;3;  2.2478547E+00;  0.0000000E+00; -9.5876703E+00;0;  1.3500091E-02;  3.9747168E+04;  0.0000000E+00;  1.0997838E+01;  4.0000000E+04;  0.0000000E+00;  4.0000922E+04;  1.3266239E-02;  0.0000000E+00;  2.3385097E-04;  1.7489881E+04;
  2.3148367E-01;  9.9999998E-03;  2.8005600E-01;3907;  3.5639571E-03;  0.0000000E+00;  2.3553790E-04;  9.9553711E+02;  1.0000000E-01; -3.6974263E+03;3;  5.8048229E+00;  0.0000000E+00; -1.8638689E+01;0;  1.5683573E-02;  3.9638004E+04;  0.0000000E+00;  7.3311243E+00;  4.0000000E+04;  0.0000000E+00;  4.0008816E+04;  1.5249326E-02;  0.0000000E+00;  4.3424609E-04;  1.2038117E+04;
  2.3153536E-01;  9.9999998E-03;  2.9003868E-01;3908;  3.6292570E-03;  0.0000000E+00;  1.7399866E-04;  9.9417596E+02;  1.0000000E-01; -4.8250981E+03;3;  1.0525606E+01;  0.0000000E+00; -3.0951332E+01;0;  1.8175857E-02;  3.9517297E+04;  0.0000000E+00;  6.7979779E+00;  4.0000000E+04;  0.0000000E+00;  4.0017289E+04;  1.8286286E-02;  0.0000000E+00; -1.1042954E-04;  1.0020556E+04;
  2.3154531E-01;  9.9999998E-03;  3.0002224E-01;3909;  3.7582971E-03;  0.0000000E+00;  1.4129258E-04;  9.9262610E+02;  1.0000000E-01; -6.1091606E+03;3;  1.7175945E+01;  0.0000000E+00; -4.5845051E+01;0;  2.1898376E-02;  3.9382750E+04;  0.0000000E+00;  8.7458181E+00;  4.0000000E+04;  0.0000000E+00;  4.0026031E+04;  2.2307334E-02;  0.0000000E+00; -4.0895812E-04;  1.0629239E+04;
  2.4092934E-01;  9.9999998E-03;  2.4003379E-01;3964;  3.5490140E-03;  0.0000000E+00;  1.8404241E-04;  9.9844336E+02;  1.0000000E-01; -1.2896426E+03;3; -2.7217467E+00;  0.0000000E+00;  2.8496675E+00;0;  9.1112899E-03;  3.9882285E+04;  0.0000000E+00;  7.3635798E+00;  4.0000000E+04;  0.0000000E+00;  4.0000199E+04;  8.3149215E-03;  0.0000000E+00;  7.9636864E-04;  1.0967007E+04;
  2.4098009E-01;  9.9999998E-03;  2.5004497E-01;3965;  3.4674746E-03;  0.0000000E+00;  2.2075075E-04;  9.9826831E+02;  1.0000000E-01; -1.4346754E+03;3; -2.7402916E+00;  0.0000000E+00;  1.9926348E+00;0;  1.0085978E-02;  3.9868785E+04;  0.0000000E+00;  9.9650650E+00;  4.0000000E+04;  0.0000000E+00;  4.0001043E+04;  9.1963634E-03;  0.0000000E+00;  8.8961434E-04;  1.4966532E+04;
  2.4115442E-01;  9.9999998E-03;  2.6004887E-01;3966;  3.6078088E-03;  0.0000000E+00;  1.6541436E-04;  9.9784778E+02;  1.0000000E-01; -1.7830607E+03;3; -2.1292825E+00;  0.0000000E+00; -7.6957351E-01;0;  1.1039792E-02;  3.9834211E+04;  0.0000000E+00;  1.0310449E+01;  4.0000000E+04;  0.0000000E+00;  4.0002410E+04;  1.0521743E-02;  0.0000000E+00;  5.1804882E-04;  1.5859748E+04;
  2.4134222E-01;  9.9999998E-03;  2.7004364E-01;3967;  3.6859722E-03;  0.0000000E+00;  1.3239298E-04;  9.9716205E+02;  1.0000000E-01; -2.3511929E+03;3; -9.9031335E-01;  0.0000000E+00; -5.6100678E+00;0;  1.2350610E-02;  3.9775188E+04;  0.0000000E+00;  7.7550769E+00;  4.0000000E+04;  0.0000000E+00;  4.0006727E+04;  1.2192054E-02;  0.0000000E+00;  1.5855659E-04;  1.2597207E+04;
  2.4146563E-01;  9.9999998E-03;  2.8003311E-01;3968;  3.5885642E-03;  0.0000000E+00;  1.5599094E-04;  9.9626910E+02;  1.0000000E-01; -3.0909744E+03;3;  4.7437975E-01;  0.0000000E+00; -1.2455539E+01;0;  1.4252370E-02;  3.9694922E+04;  0.0000000E+00;  4.4692645E+00;  4.0000000E+04;  0.0000000E+00;  4.0013020E+04;  1.3976902E-02;  0.0000000E+00;  2.7546816E-04;  7.9946362E+03;
  2.4151620E-01;  9.9999998E-03;  2.9002064E-01;3969;  3.5920104E-03;  0.0000000E+00;  1.2204997E-04;  9.9521295E+02;  1.0000000E-01; -3.9659619E+03;3;  2.6103549E+00;  0.0000000E+00; -2.1566031E+01;0;  1.6292011E-02;  3.9600035E+04;  0.0000000E+00;  3.4121561E+00;  4.0000000E+04;  0.0000000E+00;  4.0020910E+04;  1.6414380E-02;  0.0000000E+00; -1.2236893E-04;  6.0413345E+03;
  2.4153166E-01;  9.9999998E-03;  3.0000708E-01;3970;  3.6803547E-03;  0.0000000E+00;  8.4628067E-05;  9.9396307E+02;  1.0000000E-01; -5.0014883E+03;3;  6.2951479E+00;  0.0000000E+00; -3.2401657E+01;0;  1.9131271E-02;  3.9489109E+04;  0.0000000E+00;  4.5326924E+00;  4.0000000E+04;  0.0000000E+00;  4.0029227E+04;  1.9700237E-02;  0.0000000E+00; -5.6896609E-04;  6.5606699E+03;
  2.5103503E-01;  9.9999998E-03;  2.3999274E-01;4025;  3.7761861E-03;  0.0000000E+00;  4.6772584E-05;  9.9838525E+02;  1.0000000E-01; -1.3377893E+03;3; -2.4432023E+00;  0.0000000E+00;  2.6693783E+00;0;  8.3803246E-03;  3.9870695E+04;  0.0000000E+00;  5.4355454E+00;  4.0000000E+04;  0.0000000E+00;  4.0007117E+04;  7.8227501E-03;  0.0000000E+00;  5.5757479E-04;  8.2005625E+03;
  2.5108188E-01;  9.9999998E-03;  2.5001186E-01;4026;  3.5624593E-03;  0.0000000E+00;  1.2502295E-04;  9.9828479E+02;  1.0000000E-01; -1.4209968E+03;3; -2.9234915E+00;  0.0000000E+00;  2.3392863E+00;0;  9.3264142E-03;  3.9864422E+04;  0.0000000E+00;  7.0539613E+00;  4.0000000E+04;  0.0000000E+00;  4.0007672E+04;  8.5594710E-03;  0.0000000E+00;  7.6694280E-04;  1.0721695E+04;
  2.5119707E-01;  9.9999998E-03;  2.6002076E-01;4027;  3.6029879E-03;  0.0000000E+00;  8.4064690E-05;  9.9804370E+02;  1.0000000E-01; -1.6207443E+03;3; -3.1422150E+00;  0.0000000E+00;  7.3478734E-01;0;  1.0005745E-02;  3.9845926E+04;  0.0000000E+00;  7.2107196E+00;  4.0000000E+04;  0.0000000E+00;  4.0008348E+04;  9.6221045E-03;  0.0000000E+00;  3.8364052E-04;  1.1266347E+04;
  2.5132102E-01;  9.9999998E-03;  2.7002111E-01;4028;  3.6853515E-03;  0.0000000E+00;  3.8566624E-05;  9.9763593E+02;  1.0000000E-01; -1.9586113E+03;3; -3.2037036E+00;  0.0000000E+00; -2.5201664E+00;0;  1.0842469E-02;  3.9810879E+04;  0.0000000E+00;  5.5194726E+00;  4.0000000E+04;  0.0000000E+00;  4.0010691E+04;  1.1038294E-02;  0.0000000E+00; -1.9582527E-04;  9.2317168E+03;
  2.5143188E-01;  9.9999998E-03;  2.8001544E-01;4029;  3.6082636E-03;  0.0000000E+00;  6.9818583E-05;  9.9702570E+02;  1.0000000E-01; -2.4641772E+03;3; -3.2510509E+00;  0.0000000E+00; -7.3158927E+00;0;  1.2493131E-02;  3.9755590E+04;  0.0000000E+00;  2.4408953E+00;  4.0000000E+04;  0.0000000E+00;  4.0015738E+04;  1.2576064E-02;  0.0000000E+00; -8.2933650E-05;  5.2486426E+03;
  2.5148460E-01;  9.9999998E-03;  2.9000741E-01;4030;  3.5888283E-03;  0.0000000E+00;  4.5172517E-05;  9.9624878E+02;  1.0000000E-01; -3.1078132E+03;3; -3.0728507E+00;  0.0000000E+00; -1.3748606E+01;0;  1.4084660E-02;  3.9684961E+04;  0.0000000E+00;  9.1960460E-01;  4.0000000E+04;  0.0000000E+00;  4.0021695E+04;  1.4579592E-02;  0.0000000E+00; -4.9493235E-04;  3.6533494E+03;
  2.5150800E-01;  9.9999998E-03;  2.9999742E-01;4031;  3.6240816E-03;  0.0000000E+00;  1.4206252E-05;  9.9528510E+02;  1.0000000E-01; -3.9062104E+03;3; -1.9228439E+00;  0.0000000E+00; -2.1267950E+01;0;  1.6217966E-02;  3.9597684E+04;  0.0000000E+00;  1.0819951E+00;  4.0000000E+04;  0.0000000E+00;  4.0028234E+04;  1.7183173E-02;  0.0000000E+00; -9.6520793E-04;  4.1682334E+03;
  2.6107049E-01;  9.9999998E-03;  2.3996820E-01;4086;  3.9248983E-03;  0.0000000E+00; -3.9611965E-05;  9.9842297E+02;  1.0000000E-01; -1.3065310E+03;3; -2.0710855E+00;  0.0000000E+00;  2.2666757E+00;0;  7.5666001E-03;  3.9869160E+04;  0.0000000E+00;  3.8578184E+00;  4.0000000E+04;  0.0000000E+00;  4.0011848E+04;  7.1731713E-03;  0.0000000E+00;  3.9342896E-04;  6.0296255E+03;
  2.6110053E-01;  9.9999998E-03;  2.4999033E-01;4087;  3.6318072E-03;  0.0000000E+00;  5.5484034E-05;  9.9839532E+02;  1.0000000E-01; -1.3294438E+03;3; -2.8053074E+00;  0.0000000E+00;  2.3086898E+00;0;  8.5002286E-03;  3.9869953E+04;  0.0000000E+00;  4.9841495E+00;  4.0000000E+04;  0.0000000E+00;  4.0011590E+04;  7.8345779E-03;  0.0000000E+00;  6.6565076E-04;  7.7409932E+03;
  2.6117891E-01;  9.9999998E-03;  2.6000145E-01;4088;  3.5997827E-03;  0.0000000E+00;  2.3571089E-05;  9.9830365E+02;  1.0000000E-01; -1.4053923E+03;3; -3.5172641E+00;  0.0000000E+00;  1.5270456E+00;0;  9.0023912E-03;  3.9864094E+04;  0.0000000E+00;  5.1898999E+00;  4.0000000E+04;  0.0000000E+00;  4.0011816E+04;  8.7170945E-03;  0.0000000E+00;  2.8529673E-04;  8.2682256E+03;
  2.6126516E-01;  9.9999998E-03;  2.7000478E-01;4089;  3.6694035E-03;  0.0000000E+00; -2.1398886E-05;  9.9810760E+02;  1.0000000E-01; -1.5678075E+03;3; -4.3085537E+00;  0.0000000E+00; -4.4541508E-01;0;  9.5275408E-03;  3.9848145E+04;  0.0000000E+00;  4.2340698E+00;  4.0000000E+04;  0.0000000E+00;  4.0012355E+04;  9.8964535E-03;  0.0000000E+00; -3.6891238E-04;  7.2364932E+03;
  2.6136556E-01;  9.9999998E-03;  2.8000286E-01;4090;  3.6573079E-03;  0.0000000E+00; -2.0384436E-05;  9.9773938E+02;  1.0000000E-01; -1.8728853E+03;3; -5.2996211E+00;  0.0000000E+00; -3.6304495E+00;0;  1.0633598E-02;  3.9815344E+04;  0.0000000E+00;  1.7079380E+00;  4.0000000E+04;  0.0000000E+00;  4.0015652E+04;  1.1274124E-02;  0.0000000E+00; -6.4052554E-04;  4.1816890E+03;
  2.6143730E-01;  9.9999998E-03;  2.8999814E-01;4091;  3.5761672E-03;  0.0000000E+00; -1.9088455E-05;  9.9719824E+02;  1.0000000E-01; -2.3212183E+03;3; -6.3982449E+00;  0.0000000E+00; -7.8476658E+00;0;  1.2006291E-02;  3.9765215E+04;  0.0000000E+00; -6.4931667E-01;  4.0000000E+04;  0.0000000E+00;  4.0020078E+04;  1.2832385E-02;  0.0000000E+00; -8.2609331E-04;  2.7429595E+03;
  2.6146951E-01;  9.9999998E-03;  2.9999146E-01;4092;  3.5767434E-03;  0.0000000E+00; -4.1485018E-05;  9.9648590E+02;  1.0000000E-01; -2.9113745E+03;3; -7.0043788E+00;  0.0000000E+00; -1.2876917E+01;0;  1.3646835E-02;  3.9700254E+04;  0.0000000E+00; -1.3071243E+00;  4.0000000E+04;  0.0000000E+00;  4.0025645E+04;  1.4896362E-02;  0.0000000E+00; -1.2495273E-03;  3.7425703E+03;
  2.7107611E-01;  9.9999998E-03;  2.3995620E-01;4147;  3.9598378E-03;  0.0000000E+00; -5.5102792E-05;  9.9850562E+02;  1.0000000E-01; -1.2380885E+03;3; -1.6444609E+00;  0.0000000E+00;  1.7515297E+00;0;  6.9495062E-03;  3.9873062E+04;  0.0000000E+00;  2.5563364E+00;  4.0000000E+04;  0.0000000E+00;  4.0014484E+04;  6.5164850E-03;  0.0000000E+00;  4.3302117E-04;  4.3381353E+03;
  2.7107129E-01;  9.9999998E-03;  2.4997768E-01;4148;  3.6594814E-03;  0.0000000E+00;  1.9411989E-05;  9.9853009E+02;  1.0000000E-01; -1.2177927E+03;3; -2.4242797E+00;  0.0000000E+00;  1.9887115E+00;0;  7.8216251E-03;  3.9878508E+04;  0.0000000E+00;  3.4528165E+00;  4.0000000E+04;  0.0000000E+00;  4.0013305E+04;  7.1575940E-03;  0.0000000E+00;  6.6403107E-04;  5.5813379E+03;
  2.7111480E-01;  9.9999998E-03;  2.5998881E-01;4149;  3.5808322E-03;  0.0000000E+00; -6.5178410E-06;  9.9854211E+02;  1.0000000E-01; -1.2078177E+03;3; -3.3230131E+00;  0.0000000E+00;  1.7416525E+00;0;  8.2626510E-03;  3.9882562E+04;  0.0000000E+00;  3.9132197E+00;  4.0000000E+04;  0.0000000E+00;  4.0013422E+04;  7.9275817E-03;  0.0000000E+00;  3.3506894E-04;  6.3601270E+03;
  2.7117720E-01;  9.9999998E-03;  2.6999357E-01;4150;  3.6252337E-03;  0.0000000E+00; -4.7075984E-05;  9.9850464E+02;  1.0000000E-01; -1.2388785E+03;3; -4.4365835E+00;  0.0000000E+00;  7.0579541E-01;0;  8.6259907E-03;  3.9880531E+04;  0.0000000E+00;  3.6142304E+00;  4.0000000E+04;  0.0000000E+00;  4.0013668E+04;  8.9061521E-03;  0.0000000E+00; -2.8016104E-04;  6.1616792E+03;
  2.7125928E-01;  9.9999998E-03;  2.7999425E-01;4151;  3.6879801E-03;  0.0000000E+00; -7.4317395E-05;  9.9834534E+02;  1.0000000E-01; -1.3708748E+03;3; -5.8743510E+00;  0.0000000E+00; -1.2582879E+00;0;  9.2414422E-03;  3.9866766E+04;  0.0000000E+00;  2.1153944E+00;  4.0000000E+04;  0.0000000E+00;  4.0014352E+04;  1.0128889E-02;  0.0000000E+00; -8.8744692E-04;  4.4112026E+03;
  2.7135211E-01;  9.9999998E-03;  2.8999206E-01;4152;  3.6261086E-03;  0.0000000E+00; -7.4496304E-05;  9.9801343E+02;  1.0000000E-01; -1.6458300E+03;3; -7.6083546E+00;  0.0000000E+00; -3.9213667E+00;0;  1.0327819E-02;  3.9836008E+04;  0.0000000E+00; -5.9968454E-01;  4.0000000E+04;  0.0000000E+00;  4.0017266E+04;  1.1457352E-02;  0.0000000E+00; -1.1295329E-03;  2.3448115E+03;
  2.7141076E-01;  9.9999998E-03;  2.9998776E-01;4153;  3.5324418E-03;  0.0000000E+00; -8.0900856E-05;  9.9751221E+02;  1.0000000E-01; -2.0610774E+03;3; -9.2554226E+00;  0.0000000E+00; -7.0307236E+00;0;  1.1617761E-02;  3.9789965E+04;  0.0000000E+00; -2.6318624E+00;  4.0000000E+04;  0.0000000E+00;  4.0021648E+04;  1.2970546E-02;  0.0000000E+00; -1.3527856E-03;  4.0412688E+03;
  2.8110129E-01;  9.9999998E-03;  2.3995344E-01;4208;  3.9501074E-03;  0.0000000E+00; -4.6300880E-05;  9.9858875E+02;  1.0000000E-01; -1.1692015E+03;3; -1.1950148E+00;  0.0000000E+00;  1.2234699E+00;0;  6.5362784E-03;  3.9878781E+04;  0.0000000E+00;  1.4994743E+00;  4.0000000E+04;  0.0000000E+00;  4.0015449E+04;  6.0108085E-03;  0.0000000E+00;  5.2547007E-04;  3.0930076E+03;
  2.8104460E-01;  9.9999998E-03;  2.4997149E-01;4209;  3.6558721E-03;  0.0000000E+00;  9.1235806E-06;  9.9863147E+02;  1.0000000E-01; -1.1337950E+03;3; -1.8847637E+00;  0.0000000E+00;  1.5259827E+00;0;  7.4086343E-03;  3.9886004E+04;  0.0000000E+00;  2.1456325E+00;  4.0000000E+04;  0.0000000E+00;  4.0014152E+04;  6.6583948E-03;  0.0000000E+00;  7.5023965E-04;  3.8310422E+03;
  2.8103885E-01;  9.9999998E-03;  2.5998136E-01;4210;  3.5512536E-03;  0.0000000E+00; -1.8535748E-05;  9.9870807E+02;  1.0000000E-01; -1.0703401E+03;3; -2.7444751E+00;  0.0000000E+00;  1.5727501E+00;0;  7.8425463E-03;  3.9895117E+04;  0.0000000E+00;  2.8008296E+00;  4.0000000E+04;  0.0000000E+00;  4.0013871E+04;  7.3709753E-03;  0.0000000E+00;  4.7157114E-04;  4.7371304E+03;
  2.8107145E-01;  9.9999998E-03;  2.6998636E-01;4211;  3.5600497E-03;  0.0000000E+00; -5.3795517E-05;  9.9877032E+02;  1.0000000E-01; -1.0187860E+03;3; -3.8577003E+00;  0.0000000E+00;  1.1455662E+00;0;  8.1652245E-03;  3.9902098E+04;  0.0000000E+00;  3.0979414E+00;  4.0000000E+04;  0.0000000E+00;  4.0013824E+04;  8.2008336E-03;  0.0000000E+00; -3.5609541E-05;  5.2473096E+03;
  2.8113362E-01;  9.9999998E-03;  2.7998835E-01;4212;  3.6293289E-03;  0.0000000E+00; -8.9684239E-05;  9.9876202E+02;  1.0000000E-01; -1.0256500E+03;3; -5.3281202E+00;  0.0000000E+00;  9.2848130E-02;0;  8.5098455E-03;  3.9902508E+04;  0.0000000E+00;  2.5518074E+00;  4.0000000E+04;  0.0000000E+00;  4.0013605E+04;  9.2121139E-03;  0.0000000E+00; -7.0226879E-04;  4.6704751E+03;
  2.8121653E-01;  9.9999998E-03;  2.8998810E-01;4213;  3.6762974E-03;  0.0000000E+00; -1.1249559E-04;  9.9863391E+02;  1.0000000E-01; -1.1317705E+03;3; -7.1994042E+00;  0.0000000E+00; -1.5196151E+00;0;  9.1694705E-03;  3.9891121E+04;  0.0000000E+00;  7.6377684E-01;  4.0000000E+04;  0.0000000E+00;  4.0014434E+04;  1.0417031E-02;  0.0000000E+00; -1.2475605E-03;  2.7119897E+03;
  2.8129849E-01;  9.9999998E-03;  2.9998574E-01;4214;  3.6075655E-03;  0.0000000E+00; -1.1965403E-04;  9.9833856E+02;  1.0000000E-01; -1.3764550E+03;3; -9.2668715E+00;  0.0000000E+00; -3.4074960E+00;0;  1.0223190E-02;  3.9864562E+04;  0.0000000E+00; -1.9578770E+00;  4.0000000E+04;  0.0000000E+00;  4.0016723E+04;  1.1709757E-02;  0.0000000E+00; -1.4865672E-03;  2.9228499E+03;
  2.9117298E-01;  9.9999998E-03;  2.3995724E-01;4269;  3.9313505E-03;  0.0000000E+00; -3.3285833E-05;  9.9865576E+02;  1.0000000E-01; -1.1136969E+03;3; -7.7753872E-01;  0.0000000E+00;  7.6509237E-01;0;  6.3406029E-03;  3.9884598E+04;  0.0000000E+00;  7.6189810E-01;  4.0000000E+04;  0.0000000E+00;  4.0015180E+04;  5.7446989E-03;  0.0000000E+00;  5.9590396E-04;  2.3678843E+03;
  2.9108110E-01;  9.9999998E-03;  2.4997011E-01;4270;  3.6554418E-03;  0.0000000E+00;  4.1043445E-06;  9.9867981E+02;  1.0000000E-01; -1.0937468E+03;3; -1.3031645E+00;  0.0000000E+00;  1.0397944E+00;0;  7.2414931E-03;  3.9889676E+04;  0.0000000E+00;  9.9798232E-01;  4.0000000E+04;  0.0000000E+00;  4.0014410E+04;  6.4231153E-03;  0.0000000E+00;  8.1837783E-04;  2.5264712E+03;
  2.9100320E-01;  9.9999998E-03;  2.5997770E-01;4271;  3.5323226E-03;  0.0000000E+00; -2.6665964E-05;  9.9876971E+02;  1.0000000E-01; -1.0192798E+03;3; -1.9901756E+00;  0.0000000E+00;  1.2020859E+00;0;  7.7151493E-03;  3.9899582E+04;  0.0000000E+00;  1.5754052E+00;  4.0000000E+04;  0.0000000E+00;  4.0014117E+04;  7.1221404E-03;  0.0000000E+00;  5.9300906E-04;  3.1230386E+03;
  2.9098457E-01;  9.9999998E-03;  2.6998207E-01;4272;  3.5035431E-03;  0.0000000E+00; -6.1734718E-05;  9.9887616E+02;  1.0000000E-01; -9.3108478E+02;3; -2.9033089E+00;  0.0000000E+00;  1.1135556E+00;0;  8.0273421E-03;  3.9910566E+04;  0.0000000E+00;  2.1809933E+00;  4.0000000E+04;  0.0000000E+00;  4.0013566E+04;  7.8669740E-03;  0.0000000E+00;  1.6036775E-04;  3.8830381E+03;
  2.9102352E-01;  9.9999998E-03;  2.7998433E-01;4273;  3.5279847E-03;  0.0000000E+00; -9.1907474E-05;  9.9895203E+02;  1.0000000E-01; -8.6822235E+02;3; -4.1313596E+00;  0.0000000E+00;  6.5738946E-01;0;  8.3315596E-03;  3.9918461E+04;  0.0000000E+00;  2.1461415E+00;  4.0000000E+04;  0.0000000E+00;  4.0013051E+04;  8.6972741E-03;  0.0000000E+00; -3.6571498E-04;  3.8995823E+03;
  2.9108560E-01;  9.9999998E-03;  2.8998500E-01;4274;  3.5702477E-03;  0.0000000E+00; -1.1758000E-04;  9.9896332E+02;  1.0000000E-01; -8.5888928E+02;3; -5.7474422E+00;  0.0000000E+00; -1.8108349E-01;0;  8.7601040E-03;  3.9920625E+04;  0.0000000E+00;  1.1759195E+00;  4.0000000E+04;  0.0000000E+00;  4.0013066E+04;  9.6568596E-03;  0.0000000E+00; -8.9675543E-04;  2.8088416E+03;
  2.9115012E-01;  9.9999998E-03;  2.9998416E-01;4275;  3.5881836E-03;  0.0000000E+00; -1.3675849E-04;  9.9887018E+02;  1.0000000E-01; -9.3602289E+02;3; -7.7195272E+00;  0.0000000E+00; -1.2755042E+00;0;  9.4660064E-03;  3.9913492E+04;  0.0000000E+00; -7.7477890E-01;  4.0000000E+04;  0.0000000E+00;  4.0013707E+04;  1.0767429E-02;  0.0000000E+00; -1.3014225E-03;  1.8278098E+03;
  3.0122682E-01;  9.9999998E-03;  2.3996545E-01;4330;  3.9253403E-03;  0.0000000E+00; -2.9140372E-05;  9.9871362E+02;  1.0000000E-01; -1.0657477E+03;3; -4.4058526E-01;  0.0000000E+00;  4.2251527E-01;0;  6.3310973E-03;  3.9890094E+04;  0.0000000E+00;  4.5719254E-01;  4.0000000E+04;  0.0000000E+00;  4.0014805E+04;  5.7394328E-03;  0.0000000E+00;  5.9166469E-04;  2.0608804E+03;
  3.0111653E-01;  9.9999998E-03;  2.4997275E-01;4331;  3.6836448E-03;  0.0000000E+00; -6.9124912E-06;  9.9870465E+02;  1.0000000E-01; -1.0731548E+03;3; -7.8475440E-01;  0.0000000E+00;  6.1968935E-01;0;  7.2735678E-03;  3.9891047E+04;  0.0000000E+00;  4.2265561E-01;  4.0000000E+04;  0.0000000E+00;  4.0014832E+04;  6.4680907E-03;  0.0000000E+00;  8.0547732E-04;  2.0524639E+03;
  3.0100608E-01;  9.9999998E-03;  2.5997719E-01;4332;  3.5423583E-03;  0.0000000E+00; -3.4824603E-05;  9.9875873E+02;  1.0000000E-01; -1.0283660E+03;3; -1.2723407E+00;  0.0000000E+00;  7.8967208E-01;0;  7.8597050E-03;  3.9897695E+04;  0.0000000E+00;  6.4136136E-01;  4.0000000E+04;  0.0000000E+00;  4.0014578E+04;  7.1881250E-03;  0.0000000E+00;  6.7157985E-04;  2.1832502E+03;
  3.0096269E-01;  9.9999998E-03;  2.6998013E-01;4333;  3.4790866E-03;  0.0000000E+00; -7.1283226E-05;  9.9885101E+02;  1.0000000E-01; -9.5192371E+02;3; -1.9083937E+00;  0.0000000E+00;  8.4087300E-01;0;  8.2091745E-03;  3.9907453E+04;  0.0000000E+00;  9.2924780E-01;  4.0000000E+04;  0.0000000E+00;  4.0014547E+04;  7.9070209E-03;  0.0000000E+00;  3.0215329E-04;  2.3895190E+03;
  3.0098137E-01;  9.9999998E-03;  2.7998185E-01;4334;  3.4526135E-03;  0.0000000E+00; -1.0050783E-04;  9.9894470E+02;  1.0000000E-01; -8.7429626E+02;3; -2.7717907E+00;  0.0000000E+00;  7.0296389E-01;0;  8.4999166E-03;  3.9917449E+04;  0.0000000E+00;  8.4853703E-01;  4.0000000E+04;  0.0000000E+00;  4.0013094E+04;  8.6400043E-03;  0.0000000E+00; -1.4008774E-04;  2.2865586E+03;
  3.0102438E-01;  9.9999998E-03;  2.8998256E-01;4335;  3.4395969E-03;  0.0000000E+00; -1.2397663E-04;  9.9901318E+02;  1.0000000E-01; -8.1755713E+02;3; -3.9295583E+00;  0.0000000E+00;  3.4449604E-01;0;  8.8302130E-03;  3.9924844E+04;  0.0000000E+00;  1.2574793E-01;  4.0000000E+04;  0.0000000E+00;  4.0012852E+04;  9.4110919E-03;  0.0000000E+00; -5.8087852E-04;  1.7396938E+03;
  3.0106556E-01;  9.9999998E-03;  2.9998234E-01;4336;  3.4182065E-03;  0.0000000E+00; -1.4394513E-04;  9.9903162E+02;  1.0000000E-01; -8.0229828E+02;3; -5.4198017E+00;  0.0000000E+00; -1.9823509E-01;0;  9.2814351E-03;  3.9928551E+04;  0.0000000E+00; -1.2917823E+00;  4.0000000E+04;  0.0000000E+00;  4.0012406E+04;  1.0245344E-02;  0.0000000E+00; -9.6390839E-04;  2.1201494E+03;
  3.1129175E-01;  9.9999998E-03;  2.3997571E-01;4391;  3.9483379E-03;  0.0000000E+00; -4.5399545E-05;  9.9875867E+02;  1.0000000E-01; -1.0284154E+03;3; -1.9983418E-01;  0.0000000E+00;  2.0020023E-01;0;  6.4184563E-03;  3.9894336E+04;  0.0000000E+00;  3.9780676E-01;  4.0000000E+04;  0.0000000E+00;  4.0013102E+04;  5.9512216E-03;  0.0000000E+00;  4.6723490E-04;  1.8861117E+03;
  3.1116548E-01;  9.9999998E-03;  2.4997747E-01;4392;  3.7547702E-03;  0.0000000E+00; -3.4321256E-05;  9.9869617E+02;  1.0000000E-01; -1.0802163E+03;3; -3.9373755E-01;  0.0000000E+00;  3.1334385E-01;0;  7.3903091E-03;  3.9890402E+04;  0.0000000E+00;  2.4151653E-01;  4.0000000E+04;  0.0000000E+00;  4.0013852E+04;  6.7386497E-03;  0.0000000E+00;  6.5165939E-04;  1.9267396E+03;
  3.1103486E-01;  9.9999998E-03;  2.5997889E-01;4393;  3.5880583E-03;  0.0000000E+00; -4.7558719E-05;  9.9870129E+02;  1.0000000E-01; -1.0759696E+03;3; -7.0902413E-01;  0.0000000E+00;  4.4392142E-01;0;  8.1781419E-03;  3.9892254E+04;  0.0000000E+00;  1.9163401E-01;  4.0000000E+04;  0.0000000E+00;  4.0014879E+04;  7.5031510E-03;  0.0000000E+00;  6.7499059E-04;  1.9647002E+03;
  3.1098020E-01;  9.9999998E-03;  2.6997998E-01;4394;  3.5042306E-03;  0.0000000E+00; -8.2098552E-05;  9.9875012E+02;  1.0000000E-01; -1.0354769E+03;3; -1.0967511E+00;  0.0000000E+00;  5.2014631E-01;0;  8.6387219E-03;  3.9897918E+04;  0.0000000E+00;  1.3663252E-01;  4.0000000E+04;  0.0000000E+00;  4.0014172E+04;  8.2423883E-03;  0.0000000E+00;  3.9633393E-04;  1.9451805E+03;
  3.1099421E-01;  9.9999998E-03;  2.7998066E-01;4395;  3.4487401E-03;  0.0000000E+00; -1.1116145E-04;  9.9881586E+02;  1.0000000E-01; -9.8105865E+02;3; -1.6165692E+00;  0.0000000E+00;  5.0759679E-01;0;  8.9843562E-03;  3.9905527E+04;  0.0000000E+00; -1.7805867E-01;  4.0000000E+04;  0.0000000E+00;  4.0014332E+04;  8.9552691E-03;  0.0000000E+00;  2.9087028E-05;  1.8704150E+03;
  3.1103930E-01;  9.9999998E-03;  2.8998086E-01;4396;  3.3964114E-03;  0.0000000E+00; -1.3580431E-04;  9.9888293E+02;  1.0000000E-01; -9.2545532E+02;3; -2.3168445E+00;  0.0000000E+00;  3.8304645E-01;0;  9.2752306E-03;  3.9913184E+04;  0.0000000E+00; -9.8565578E-01;  4.0000000E+04;  0.0000000E+00;  4.0014027E+04;  9.6467920E-03;  0.0000000E+00; -3.7156136E-04;  2.1526472E+03;
  3.1108606E-01;  9.9999998E-03;  2.9998058E-01;4397;  3.3274570E-03;  0.0000000E+00; -1.6223900E-04;  9.9893250E+02;  1.0000000E-01; -8.8441943E+02;3; -3.2413423E+00;  0.0000000E+00;  1.5277272E-01;0;  9.4956160E-03;  3.9919488E+04;  0.0000000E+00; -2.3395855E+00;  4.0000000E+04;  0.0000000E+00;  4.0012938E+04;  1.0324896E-02;  0.0000000E+00; -8.2928076E-04;  3.5035562E+03;
  3.2138121E-01;  9.9999998E-03;  2.3998576E-01;4452;  4.0238742E-03;  0.0000000E+00; -9.7828801E-05;  9.9878711E+02;  1.0000000E-01; -1.0048605E+03;3; -5.0363198E-02;  0.0000000E+00;  8.1267461E-02;0;  6.4521022E-03;  3.9897648E+04;  0.0000000E+00;  4.3948314E-01;  4.0000000E+04;  0.0000000E+00;  4.0011980E+04;  6.2932507E-03;  0.0000000E+00;  1.5885153E-04;  1.7805450E+03;
  3.2126251E-01;  9.9999998E-03;  2.4998301E-01;4453;  3.8973030E-03;  0.0000000E+00; -1.0312792E-04;  9.9867883E+02;  1.0000000E-01; -1.0945863E+03;3; -1.5076187E-01;  0.0000000E+00;  1.3527450E-01;0;  7.3337811E-03;  3.9888750E+04;  0.0000000E+00;  2.6128098E-01;  4.0000000E+04;  0.0000000E+00;  4.0014195E+04;  7.1346690E-03;  0.0000000E+00;  1.9911195E-04;  1.8952444E+03;
  3.2112378E-01;  9.9999998E-03;  2.5998172E-01;4454;  3.7093414E-03;  0.0000000E+00; -8.7599044E-05;  9.9862598E+02;  1.0000000E-01; -1.1383381E+03;3; -3.0523953E-01;  0.0000000E+00;  2.0261501E-01;0;  8.3600068E-03;  3.9884984E+04;  0.0000000E+00;  7.6054484E-02;  4.0000000E+04;  0.0000000E+00;  4.0014844E+04;  7.9517448E-03;  0.0000000E+00;  4.0826196E-04;  1.9831422E+03;
  3.2104561E-01;  9.9999998E-03;  2.6998106E-01;4455;  3.5864357E-03;  0.0000000E+00; -1.0404384E-04;  9.9862213E+02;  1.0000000E-01; -1.1415480E+03;3; -5.4240727E-01;  0.0000000E+00;  2.6678771E-01;0;  9.0640904E-03;  3.9885730E+04;  0.0000000E+00; -1.4707108E-01;  4.0000000E+04;  0.0000000E+00;  4.0015469E+04;  8.7302476E-03;  0.0000000E+00;  3.3384308E-04;  2.0413489E+03;
  3.2104090E-01;  9.9999998E-03;  2.7998057E-01;4456;  3.5171355E-03;  0.0000000E+00; -1.2695455E-04;  9.9864655E+02;  1.0000000E-01; -1.1213016E+03;3; -8.2054275E-01;  0.0000000E+00;  2.8474224E-01;0;  9.5600067E-03;  3.9889188E+04;  0.0000000E+00; -5.2555215E-01;  4.0000000E+04;  0.0000000E+00;  4.0015836E+04;  9.4622215E-03;  0.0000000E+00;  9.7785451E-05;  2.1506846E+03;
  3.2106671E-01;  9.9999998E-03;  2.8998005E-01;4457;  3.4620194E-03;  0.0000000E+00; -1.5139581E-04;  9.9869183E+02;  1.0000000E-01; -1.0837719E+03;3; -1.1870295E+00;  0.0000000E+00;  2.5113842E-01;0;  9.8915398E-03;  3.9894906E+04;  0.0000000E+00; -1.1495942E+00;  4.0000000E+04;  0.0000000E+00;  4.0015113E+04;  1.0141004E-02;  0.0000000E+00; -2.4946374E-04;  2.5194707E+03;
  3.2109311E-01;  9.9999998E-03;  2.9997936E-01;4458;  3.4023207E-03;  0.0000000E+00; -1.7933996E-04;  9.9874310E+02;  1.0000000E-01; -1.0413038E+03;3; -1.6777774E+00;  0.0000000E+00;  1.6574882E-01;0;  1.0064714E-02;  3.9901102E+04;  0.0000000E+00; -2.0419402E+00;  4.0000000E+04;  0.0000000E+00;  4.0014637E+04;  1.0766434E-02;  0.0000000E+00; -7.0172054E-04;  3.3746313E+03;
  3.3143181E-01;  9.9999998E-03;  2.3999442E-01;4513;  4.1250582E-03;  0.0000000E+00; -1.6156828E-04;  9.9881628E+02;  1.0000000E-01; -9.8066364E+02;3;  1.5458079E-02;  0.0000000E+00;  3.8881473E-02;0;  6.4484347E-03;  3.9899980E+04;  0.0000000E+00;  4.9990329E-01;  4.0000000E+04;  0.0000000E+00;  4.0011445E+04;  6.6573527E-03;  0.0000000E+00; -2.0891779E-04;  1.7206576E+03;
  3.3132792E-01;  9.9999998E-03;  2.4998833E-01;4514;  4.0690261E-03;  0.0000000E+00; -1.7241624E-04;  9.9866711E+02;  1.0000000E-01; -1.1042650E+03;3; -1.8309083E-02;  0.0000000E+00;  5.5873327E-02;0;  7.2598117E-03;  3.9887062E+04;  0.0000000E+00;  3.8946319E-01;  4.0000000E+04;  0.0000000E+00;  4.0013648E+04;  7.5300778E-03;  0.0000000E+00; -2.7026597E-04;  1.9262517E+03;
  3.3119869E-01;  9.9999998E-03;  2.5998494E-01;4515;  3.9923536E-03;  0.0000000E+00; -1.8607195E-04;  9.9856647E+02;  1.0000000E-01; -1.1876702E+03;3; -8.6433068E-02;  0.0000000E+00;  8.2391612E-02;0;  7.9757487E-03;  3.9878523E+04;  0.0000000E+00;  2.2196187E-01;  4.0000000E+04;  0.0000000E+00;  4.0015625E+04;  8.3863279E-03;  0.0000000E+00; -4.1057932E-04;  2.0674839E+03;
  3.3110985E-01;  9.9999998E-03;  2.6998278E-01;4516;  3.8732465E-03;  0.0000000E+00; -1.8069064E-04;  9.9850891E+02;  1.0000000E-01; -1.2353231E+03;3; -1.6770121E-01;  0.0000000E+00;  1.0304943E-01;0;  8.8118827E-03;  3.9874035E+04;  0.0000000E+00; -1.0440791E-02;  4.0000000E+04;  0.0000000E+00;  4.0016445E+04;  9.2022484E-03;  0.0000000E+00; -3.9036584E-04;  2.1706562E+03;
  3.3108723E-01;  9.9999998E-03;  2.7998123E-01;4517;  3.7191559E-03;  0.0000000E+00; -1.6663743E-04;  9.9848505E+02;  1.0000000E-01; -1.2551250E+03;3; -3.1640005E-01;  0.0000000E+00;  1.1553662E-01;0;  9.7637419E-03;  3.9873027E+04;  0.0000000E+00; -3.4660161E-01;  4.0000000E+04;  0.0000000E+00;  4.0016793E+04;  9.9571049E-03;  0.0000000E+00; -1.9336319E-04;  2.2842397E+03;
  3.3110449E-01;  9.9999998E-03;  2.8997993E-01;4518;  3.6346021E-03;  0.0000000E+00; -1.8167947E-04;  9.9848956E+02;  1.0000000E-01; -1.2513721E+03;3; -5.0936145E-01;  0.0000000E+00;  1.1441928E-01;0;  1.0251516E-02;  3.9874898E+04;  0.0000000E+00; -8.1566596E-01;  4.0000000E+04;  0.0000000E+00;  4.0016945E+04;  1.0640261E-02;  0.0000000E+00; -3.8874478E-04;  2.5109968E+03;
  3.3112749E-01;  9.9999998E-03;  2.9997867E-01;4519;  3.5839535E-03;  0.0000000E+00; -2.0475249E-04;  9.9851746E+02;  1.0000000E-01; -1.2282616E+03;3; -7.3977488E-01;  0.0000000E+00;  9.2100225E-02;0;  1.0501727E-02;  3.9878711E+04;  0.0000000E+00; -1.4064275E+00;  4.0000000E+04;  0.0000000E+00;  4.0016902E+04;  1.1242248E-02;  0.0000000E+00; -7.4052042E-04;  2.9485344E+03;
  3.4146360E-01;  9.9999998E-03;  2.4000037E-01;4574;  4.2360527E-03;  0.0000000E+00; -2.1627347E-04;  9.9883679E+02;  1.0000000E-01; -9.6367645E+02;3;  4.8897073E-02;  0.0000000E+00;  2.4243096E-02;0;  6.4221169E-03;  3.9901297E+04;  0.0000000E+00;  4.9912313E-01;  4.0000000E+04;  0.0000000E+00;  4.0011395E+04;  6.9512459E-03;  0.0000000E+00; -5.2912923E-04;  1.6848278E+03;
  3.4138352E-01;  9.9999998E-03;  2.4999262E-01;4575;  4.2530205E-03;  0.0000000E+00; -2.3579304E-04;  9.9866779E+02;  1.0000000E-01; -1.1037219E+03;3;  4.1296281E-02;  0.0000000E+00;  2.5139105E-02;0;  7.1228100E-03;  3.9885492E+04;  0.0000000E+00;  4.5859975E-01;  4.0000000E+04;  0.0000000E+00;  4.0013840E+04;  7.8215851E-03;  0.0000000E+00; -6.9877482E-04;  1.9686110E+03;
  3.4128234E-01;  9.9999998E-03;  2.5998798E-01;4576;  4.2963573E-03;  0.0000000E+00; -2.6269775E-04;  9.9852789E+02;  1.0000000E-01; -1.2196199E+03;3;  3.1066576E-02;  0.0000000E+00;  2.9115036E-02;0;  7.6426174E-03;  3.9873203E+04;  0.0000000E+00;  3.5168481E-01;  4.0000000E+04;  0.0000000E+00;  4.0015984E+04;  8.6785322E-03;  0.0000000E+00; -1.0359148E-03;  2.1679924E+03;
  3.4121108E-01;  9.9999998E-03;  2.6998472E-01;4577;  4.3509654E-03;  0.0000000E+00; -2.7231450E-04;  9.9842743E+02;  1.0000000E-01; -1.3028274E+03;3;  1.8156826E-02;  0.0000000E+00;  3.6719371E-02;0;  8.1895040E-03;  3.9864570E+04;  0.0000000E+00;  1.6877960E-01;  4.0000000E+04;  0.0000000E+00;  4.0017738E+04;  9.4993208E-03;  0.0000000E+00; -1.3098167E-03;  2.3169985E+03;
  3.4118417E-01;  9.9999998E-03;  2.7998227E-01;4578;  4.4374680E-03;  0.0000000E+00; -2.7694280E-04;  9.9835815E+02;  1.0000000E-01; -1.3602578E+03;3;  4.4769989E-03;  0.0000000E+00;  4.3242842E-02;0;  8.7354798E-03;  3.9859555E+04;  0.0000000E+00; -9.6317701E-02;  4.0000000E+04;  0.0000000E+00;  4.0018488E+04;  1.0263435E-02;  0.0000000E+00; -1.5279547E-03;  2.4397815E+03;
  3.4119111E-01;  9.9999998E-03;  2.8998035E-01;4579;  4.5554847E-03;  0.0000000E+00; -2.8807233E-04;  9.9832867E+02;  1.0000000E-01; -1.3846522E+03;3; -1.2338720E-02;  0.0000000E+00;  4.7208786E-02;0;  9.1513712E-03;  3.9857418E+04;  0.0000000E+00; -4.3421084E-01;  4.0000000E+04;  0.0000000E+00;  4.0019016E+04;  1.0952915E-02;  0.0000000E+00; -1.8015441E-03;  2.5629221E+03;
  3.4121102E-01;  9.9999998E-03;  2.9997846E-01;4580;  4.6667983E-03;  0.0000000E+00; -2.9613936E-04;  9.9831714E+02;  1.0000000E-01; -1.3942322E+03;3; -4.7167480E-02;  0.0000000E+00;  4.0682878E-02;0;  9.6040033E-03;  3.9858023E+04;  0.0000000E+00; -8.0629849E-01;  4.0000000E+04;  0.0000000E+00;  4.0019148E+04;  1.1553952E-02;  0.0000000E+00; -1.9499488E-03;  2.7540166E+03;
  3.5146680E-01;  9.9999998E-03;  2.4000333E-01;4635;  4.3676738E-03;  0.0000000E+00; -2.5576458E-04;  9.9885669E+02;  1.0000000E-01; -9.4723248E+02;3;  8.1632182E-02;  0.0000000E+00;  1.4518400E-02;0;  6.3520549E-03;  3.9901355E+04;  0.0000000E+00;  4.3714449E-01;  4.0000000E+04;  0.0000000E+00;  4.0011793E+04;  7.1172877E-03;  0.0000000E+00; -7.6523272E-04;  1.6663970E+03;
  3.5142031E-01;  9.9999998E-03;  2.4999557E-01;4636;  4.4584055E-03;  0.0000000E+00; -2.7519983E-04;  9.9866901E+02;  1.0000000E-01; -1.1026848E+03;3;  1.0392542E-01;  0.0000000E+00;  8.4386207E-03;0;  6.9929035E-03;  3.9884477E+04;  0.0000000E+00;  4.3577519E-01;  4.0000000E+04;  0.0000000E+00;  4.0014375E+04;  7.9501467E-03;  0.0000000E+00; -9.5724291E-04;  1.9863035E+03;
  3.5135916E-01;  9.9999998E-03;  2.5999072E-01;4637;  4.6052854E-03;  0.0000000E+00; -2.9497742E-04;  9.9850568E+02;  1.0000000E-01; -1.2380391E+03;3;  1.6665368E-01;  0.0000000E+00;  5.0367988E-03;0;  7.5156726E-03;  3.9869879E+04;  0.0000000E+00;  3.7477368E-01;  4.0000000E+04;  0.0000000E+00;  4.0016426E+04;  8.7671494E-03;  0.0000000E+00; -1.2514768E-03;  2.2099829E+03;
  3.5131419E-01;  9.9999998E-03;  2.6998723E-01;4638;  4.7688829E-03;  0.0000000E+00; -3.0030776E-04;  9.9837268E+02;  1.0000000E-01; -1.3482087E+03;3;  2.2960122E-01;  0.0000000E+00;  1.5965749E-02;0;  8.0683455E-03;  3.9858469E+04;  0.0000000E+00;  2.4800383E-01;  4.0000000E+04;  0.0000000E+00;  4.0017789E+04;  9.5468443E-03;  0.0000000E+00; -1.4784988E-03;  2.3644695E+03;
  3.5128376E-01;  9.9999998E-03;  2.7998435E-01;4639;  4.9424642E-03;  0.0000000E+00; -2.8083372E-04;  9.9827435E+02;  1.0000000E-01; -1.4296880E+03;3;  2.6118484E-01;  0.0000000E+00;  2.6073175E-02;0;  8.9315139E-03;  3.9850262E+04;  0.0000000E+00;  6.3144065E-02;  4.0000000E+04;  0.0000000E+00;  4.0018781E+04;  1.0269954E-02;  0.0000000E+00; -1.3384403E-03;  2.4842964E+03;
  3.5126531E-01;  9.9999998E-03;  2.8998181E-01;4640;  5.1041241E-03;  0.0000000E+00; -2.5707937E-04;  9.9820569E+02;  1.0000000E-01; -1.4865752E+03;3;  2.5963715E-01;  0.0000000E+00;  1.9157339E-02;0;  9.9487109E-03;  3.9844855E+04;  0.0000000E+00; -1.6546594E-01;  4.0000000E+04;  0.0000000E+00;  4.0019145E+04;  1.0920107E-02;  0.0000000E+00; -9.7139680E-04;  2.5881296E+03;
  3.5127932E-01;  9.9999998E-03;  2.9997948E-01;4641;  5.2250908E-03;  0.0000000E+00; -2.6234545E-04;  9.9816077E+02;  1.0000000E-01; -1.5237594E+03;3;  2.4501528E-01;  0.0000000E+00;  1.1315646E-02;0;  1.0493746E-02;  3.9841977E+04;  0.0000000E+00; -4.0846553E-01;  4.0000000E+04;  0.0000000E+00;  4.0020215E+04;  1.1485845E-02;  0.0000000E+00; -9.9209859E-04;  2.6929619E+03;
  3.6145568E-01;  9.9999998E-03;  2.4000387E-01;4696;  4.5462735E-03;  0.0000000E+00; -2.7535757E-04;  9.9886395E+02;  1.0000000E-01; -9.4120795E+02;3;  1.6325884E-01;  0.0000000E+00;  4.6699420E-03;0;  6.2532062E-03;  3.9900672E+04;  0.0000000E+00;  3.4700623E-01;  4.0000000E+04;  0.0000000E+00;  4.0012465E+04;  7.1464917E-03;  0.0000000E+00; -8.9328550E-04;  1.6679254E+03;
  3.6144108E-01;  9.9999998E-03;  2.4999771E-01;4697;  4.6927808E-03;  0.0000000E+00; -2.7352353E-04;  9.9867609E+02;  1.0000000E-01; -1.0968579E+03;3;  2.3314348E-01;  0.0000000E+00;  1.1089091E-02;0;  6.9835936E-03;  3.9883625E+04;  0.0000000E+00;  3.5421613E-01;  4.0000000E+04;  0.0000000E+00;  4.0014629E+04;  7.9168165E-03;  0.0000000E+00; -9.3322311E-04;  1.9516191E+03;
  3.6140358E-01;  9.9999998E-03;  2.5999326E-01;4698;  4.8149573E-03;  0.0000000E+00; -2.8311095E-04;  9.9849799E+02;  1.0000000E-01; -1.2444093E+03;3;  2.6391369E-01;  0.0000000E+00;  1.5360314E-02;0;  7.6031946E-03;  3.9868301E+04;  0.0000000E+00;  3.1372979E-01;  4.0000000E+04;  0.0000000E+00;  4.0015793E+04;  8.6669307E-03;  0.0000000E+00; -1.0637362E-03;  2.1669714E+03;
  3.6137170E-01;  9.9999998E-03;  2.6998949E-01;4699;  4.9554631E-03;  0.0000000E+00; -2.7226520E-04;  9.9835284E+02;  1.0000000E-01; -1.3646527E+03;3;  2.8594166E-01;  0.0000000E+00;  2.1372583E-02;0;  8.3927829E-03;  3.9855242E+04;  0.0000000E+00;  2.2201446E-01;  4.0000000E+04;  0.0000000E+00;  4.0017375E+04;  9.3787583E-03;  0.0000000E+00; -9.8597584E-04;  2.3480757E+03;
  3.6135510E-01;  9.9999998E-03;  2.7998620E-01;4700;  5.1011303E-03;  0.0000000E+00; -2.4923522E-04;  9.9823340E+02;  1.0000000E-01; -1.4636129E+03;3;  2.9335245E-01;  0.0000000E+00;  1.5449985E-02;0;  9.4016930E-03;  3.9844922E+04;  0.0000000E+00;  8.2498647E-02;  4.0000000E+04;  0.0000000E+00;  4.0018582E+04;  1.0037574E-02;  0.0000000E+00; -6.3588104E-04;  2.5004915E+03;
  3.6134353E-01;  9.9999998E-03;  2.8998333E-01;4701;  5.2211285E-03;  0.0000000E+00; -2.5330429E-04;  9.9814172E+02;  1.0000000E-01; -1.5395614E+03;3;  2.9186180E-01;  0.0000000E+00;  6.7510614E-03;0;  1.0038060E-02;  3.9837168E+04;  0.0000000E+00; -8.9117415E-02;  4.0000000E+04;  0.0000000E+00;  4.0019715E+04;  1.0633460E-02;  0.0000000E+00; -5.9540028E-04;  2.6208601E+03;
  3.6134240E-01;  9.9999998E-03;  2.9998064E-01;4702;  5.3452738E-03;  0.0000000E+00; -2.6898025E-04;  9.9807306E+02;  1.0000000E-01; -1.5964487E+03;3;  2.8963837E-01;  0.0000000E+00;  8.8592782E-04;0;  1.0410521E-02;  3.9831824E+04;  0.0000000E+00; -2.6321340E-01;  4.0000000E+04;  0.0000000E+00;  4.0020230E+04;  1.1162046E-02;  0.0000000E+00; -7.5152493E-04;  2.7214995E+03;
  3.7144086E-01;  9.9999998E-03;  2.4000359E-01;4757;  4.7171158E-03;  0.0000000E+00; -2.5665195E-04;  9.9886206E+02;  1.0000000E-01; -9.4273877E+02;3;  2.5787079E-01;  0.0000000E+00;  1.6922111E-02;0;  6.2459437E-03;  3.9899285E+04;  0.0000000E+00;  2.5337625E-01;  4.0000000E+04;  0.0000000E+00;  4.0012172E+04;  7.0782783E-03;  0.0000000E+00; -8.3233468E-04;  1.6484503E+03;
  3.7143204E-01;  9.9999998E-03;  2.4999899E-01;4758;  4.8066569E-03;  0.0000000E+00; -2.6279243E-04;  9.9867780E+02;  1.0000000E-01; -1.0954258E+03;3;  2.7524769E-01;  0.0000000E+00;  2.1607824E-02;0;  6.9418652E-03;  3.9882949E+04;  0.0000000E+00;  2.5710320E-01;  4.0000000E+04;  0.0000000E+00;  4.0013973E+04;  7.7800821E-03;  0.0000000E+00; -8.3821686E-04;  1.8932998E+03;
  3.7141684E-01;  9.9999998E-03;  2.5999483E-01;4759;  4.9109892E-03;  0.0000000E+00; -2.6437646E-04;  9.9850842E+02;  1.0000000E-01; -1.2357676E+03;3;  2.8768522E-01;  0.0000000E+00;  2.3647880E-02;0;  7.6522557E-03;  3.9867500E+04;  0.0000000E+00;  2.2139250E-01;  4.0000000E+04;  0.0000000E+00;  4.0015594E+04;  8.4576439E-03;  0.0000000E+00; -8.0538815E-04;  2.1152493E+03;
  3.7140960E-01;  9.9999998E-03;  2.6999107E-01;4760;  5.0328355E-03;  0.0000000E+00; -2.5285396E-04;  9.9835876E+02;  1.0000000E-01; -1.3597146E+03;3;  2.9729992E-01;  0.0000000E+00;  2.2444274E-02;0;  8.5045658E-03;  3.9853852E+04;  0.0000000E+00;  1.4447868E-01;  4.0000000E+04;  0.0000000E+00;  4.0017551E+04;  9.0969000E-03;  0.0000000E+00; -5.9233443E-04;  2.3152500E+03;
  3.7139496E-01;  9.9999998E-03;  2.7998766E-01;4761;  5.1456769E-03;  0.0000000E+00; -2.5021750E-04;  9.9822717E+02;  1.0000000E-01; -1.4687485E+03;3;  2.9937312E-01;  0.0000000E+00;  1.5025275E-02;0;  9.2775580E-03;  3.9842727E+04;  0.0000000E+00;  3.3882029E-02;  4.0000000E+04;  0.0000000E+00;  4.0018719E+04;  9.6891336E-03;  0.0000000E+00; -4.1157551E-04;  2.4908408E+03;
  3.7136370E-01;  9.9999998E-03;  2.8998458E-01;4762;  5.2571818E-03;  0.0000000E+00; -2.6132027E-04;  9.9812250E+02;  1.0000000E-01; -1.5554622E+03;3;  2.9888853E-01;  0.0000000E+00;  8.0280807E-03;0;  9.8040001E-03;  3.9833461E+04;  0.0000000E+00; -9.5421515E-02;  4.0000000E+04;  0.0000000E+00;  4.0019582E+04;  1.0231060E-02;  0.0000000E+00; -4.2705980E-04;  2.6292214E+03;
  3.7133560E-01;  9.9999998E-03;  2.9998162E-01;4763;  5.3867279E-03;  0.0000000E+00; -2.7772537E-04;  9.9803174E+02;  1.0000000E-01; -1.6306699E+03;3;  2.9790330E-01;  0.0000000E+00;  3.7301232E-03;0;  1.0158543E-02;  3.9826008E+04;  0.0000000E+00; -2.2662269E-01;  4.0000000E+04;  0.0000000E+00;  4.0020410E+04;  1.0723245E-02;  0.0000000E+00; -5.6470186E-04;  2.7494604E+03;
  3.8143542E-01;  9.9999998E-03;  2.4000247E-01;4818;  4.7765020E-03;  0.0000000E+00; -2.5871699E-04;  9.9885016E+02;  1.0000000E-01; -9.5261505E+02;3;  2.7694076E-01;  0.0000000E+00;  2.2596262E-02;0;  6.1362097E-03;  3.9897098E+04;  0.0000000E+00;  1.5886755E-01;  4.0000000E+04;  0.0000000E+00;  4.0012121E+04;  6.9878655E-03;  0.0000000E+00; -8.5165584E-04;  1.6288868E+03;
  3.8142648E-01;  9.9999998E-03;  2.4999903E-01;4819;  4.8492844E-03;  0.0000000E+00; -2.6871639E-04;  9.9867725E+02;  1.0000000E-01; -1.0958702E+03;3;  2.8738785E-01;  0.0000000E+00;  2.4734180E-02;0;  6.7926436E-03;  3.9881625E+04;  0.0000000E+00;  1.5597363E-01;  4.0000000E+04;  0.0000000E+00;  4.0013469E+04;  7.6337219E-03;  0.0000000E+00; -8.4107852E-04;  1.8596750E+03;
  3.8141969E-01;  9.9999998E-03;  2.5999537E-01;4820;  4.9426109E-03;  0.0000000E+00; -2.6936425E-04;  9.9851575E+02;  1.0000000E-01; -1.2296936E+03;3;  2.9601091E-01;  0.0000000E+00;  2.5015777E-02;0;  7.4977404E-03;  3.9866902E+04;  0.0000000E+00;  1.2384935E-01;  4.0000000E+04;  0.0000000E+00;  4.0015574E+04;  8.2519539E-03;  0.0000000E+00; -7.5421331E-04;  2.0843521E+03;
  3.8141531E-01;  9.9999998E-03;  2.6999184E-01;4821;  5.0488366E-03;  0.0000000E+00; -2.6301638E-04;  9.9836774E+02;  1.0000000E-01; -1.3523074E+03;3;  3.0241579E-01;  0.0000000E+00;  2.3351682E-02;0;  8.2856007E-03;  3.9853484E+04;  0.0000000E+00;  6.1333854E-02;  4.0000000E+04;  0.0000000E+00;  4.0017797E+04;  8.8321511E-03;  0.0000000E+00; -5.4655073E-04;  2.2934116E+03;
  3.8139877E-01;  9.9999998E-03;  2.7998853E-01;4822;  5.1485961E-03;  0.0000000E+00; -2.6509361E-04;  9.9823657E+02;  1.0000000E-01; -1.4609463E+03;3;  3.0346489E-01;  0.0000000E+00;  1.7794784E-02;0;  8.9794667E-03;  3.9841922E+04;  0.0000000E+00; -2.2383822E-02;  4.0000000E+04;  0.0000000E+00;  4.0018781E+04;  9.3696918E-03;  0.0000000E+00; -3.9022521E-04;  2.4765205E+03;
  3.8136780E-01;  9.9999998E-03;  2.8998539E-01;4823;  5.2523799E-03;  0.0000000E+00; -2.7621721E-04;  9.9812286E+02;  1.0000000E-01; -1.5551659E+03;3;  3.0283171E-01;  0.0000000E+00;  1.0265580E-02;0;  9.4901286E-03;  3.9831934E+04;  0.0000000E+00; -1.1679112E-01;  4.0000000E+04;  0.0000000E+00;  4.0019266E+04;  9.8654274E-03;  0.0000000E+00; -3.7529925E-04;  2.6300825E+03;
  3.8133401E-01;  9.9999998E-03;  2.9998234E-01;4824;  5.3762933E-03;  0.0000000E+00; -2.9231960E-04;  9.9802252E+02;  1.0000000E-01; -1.6383240E+03;3;  3.0175278E-01;  0.0000000E+00;  5.8152890E-03;0;  9.8405387E-03;  3.9823344E+04;  0.0000000E+00; -2.1125312E-01;  4.0000000E+04;  0.0000000E+00;  4.0020699E+04;  1.0323983E-02;  0.0000000E+00; -4.8344425E-04;  2.7604873E+03;
  3.9145052E-01;  9.9999998E-03;  2.4000049E-01;4879;  4.7933687E-03;  0.0000000E+00; -2.7246276E-04;  9.9884155E+02;  1.0000000E-01; -9.5977533E+02;3;  2.8348750E-01;  0.0000000E+00;  2.3513045E-02;0;  6.0539837E-03;  3.9895605E+04;  0.0000000E+00;  6.6516183E-02;  4.0000000E+04;  0.0000000E+00;  4.0012270E+04;  6.9652996E-03;  0.0000000E+00; -9.1131584E-04;  1.6363387E+03;
  3.9143032E-01;  9.9999998E-03;  2.4999826E-01;4880;  4.8585385E-03;  0.0000000E+00; -2.8669729E-04;  9.9867639E+02;  1.0000000E-01; -1.0965615E+03;3;  2.9228884E-01;  0.0000000E+00;  2.5364812E-02;0;  6.6662575E-03;  3.9880406E+04;  0.0000000E+00;  5.7232704E-02;  4.0000000E+04;  0.0000000E+00;  4.0013422E+04;  7.5792964E-03;  0.0000000E+00; -9.1303891E-04;  1.8496002E+03;
  3.9141768E-01;  9.9999998E-03;  2.5999519E-01;4881;  4.9433140E-03;  0.0000000E+00; -2.8992858E-04;  9.9851910E+02;  1.0000000E-01; -1.2268789E+03;3;  3.0035269E-01;  0.0000000E+00;  2.6447458E-02;0;  7.3252530E-03;  3.9866328E+04;  0.0000000E+00;  3.0523337E-02;  4.0000000E+04;  0.0000000E+00;  4.0015770E+04;  8.1631662E-03;  0.0000000E+00; -8.3791319E-04;  2.0746267E+03;
  3.9141577E-01;  9.9999998E-03;  2.6999202E-01;4882;  5.0409422E-03;  0.0000000E+00; -2.8514801E-04;  9.9837842E+02;  1.0000000E-01; -1.3434681E+03;3;  3.0559465E-01;  0.0000000E+00;  2.4195908E-02;0;  8.0711693E-03;  3.9853152E+04;  0.0000000E+00; -1.4582621E-02;  4.0000000E+04;  0.0000000E+00;  4.0017254E+04;  8.7087406E-03;  0.0000000E+00; -6.3757092E-04;  2.2817598E+03;
  3.9140576E-01;  9.9999998E-03;  2.7998891E-01;4883;  5.1317066E-03;  0.0000000E+00; -2.8801855E-04;  9.9825000E+02;  1.0000000E-01; -1.4498356E+03;3;  3.0593282E-01;  0.0000000E+00;  1.8996585E-02;0;  8.7315887E-03;  3.9841480E+04;  0.0000000E+00; -7.1193993E-02;  4.0000000E+04;  0.0000000E+00;  4.0018867E+04;  9.2136273E-03;  0.0000000E+00; -4.8203825E-04;  2.4669368E+03;
  3.9137909E-01;  9.9999998E-03;  2.8998584E-01;4884;  5.2241827E-03;  0.0000000E+00; -2.9963846E-04;  9.9813373E+02;  1.0000000E-01; -1.5461785E+03;3;  3.0540684E-01;  0.0000000E+00;  1.2766153E-02;0;  9.2179617E-03;  3.9831098E+04;  0.0000000E+00; -1.3075195E-01;  4.0000000E+04;  0.0000000E+00;  4.0019449E+04;  9.6812062E-03;  0.0000000E+00; -4.6324448E-04;  2.6257305E+03;
  3.9134705E-01;  9.9999998E-03;  2.9998276E-01;4885;  5.3332802E-03;  0.0000000E+00; -3.1468921E-04;  9.9802887E+02;  1.0000000E-01; -1.6330403E+03;3;  3.0468920E-01;  0.0000000E+00;  6.4029414E-03;0;  9.5807044E-03;  3.9821988E+04;  0.0000000E+00; -1.8900028E-01;  4.0000000E+04;  0.0000000E+00;  4.0020805E+04;  1.0118338E-02;  0.0000000E+00; -5.3763366E-04;  2.7630073E+03;
  4.0144524E-01;  9.9999998E-03;  2.3999833E-01;4940;  4.7935238E-03;  0.0000000E+00; -2.9053475E-04;  9.9883917E+02;  1.0000000E-01; -9.6170117E+02;3;  2.8661966E-01;  0.0000000E+00;  2.2546638E-02;0;  6.1117103E-03;  3.9894168E+04;  0.0000000E+00; -1.9325066E-02;  4.0000000E+04;  0.0000000E+00;  4.0012324E+04;  7.0911064E-03;  0.0000000E+00; -9.7939628E-04;  1.6650920E+03;
  4.0142277E-01;  9.9999998E-03;  2.4999706E-01;4941;  4.8545306E-03;  0.0000000E+00; -3.0739041E-04;  9.9867664E+02;  1.0000000E-01; -1.0963640E+03;3;  2.9468796E-01;  0.0000000E+00;  2.4170674E-02;0;  6.7093903E-03;  3.9879180E+04;  0.0000000E+00; -3.1338375E-02;  4.0000000E+04;  0.0000000E+00;  4.0013770E+04;  7.7021439E-03;  0.0000000E+00; -9.9275354E-04;  1.8625608E+03;
  4.0140963E-01;  9.9999998E-03;  2.5999454E-01;4942;  4.9336730E-03;  0.0000000E+00; -3.1273864E-04;  9.9852173E+02;  1.0000000E-01; -1.2247061E+03;3;  3.0219737E-01;  0.0000000E+00;  2.5194628E-02;0;  7.3485714E-03;  3.9865398E+04;  0.0000000E+00; -4.9820662E-02;  4.0000000E+04;  0.0000000E+00;  4.0015562E+04;  8.2815308E-03;  0.0000000E+00; -9.3295949E-04;  2.0838447E+03;
  4.0140554E-01;  9.9999998E-03;  2.6999173E-01;4943;  5.0237556E-03;  0.0000000E+00; -3.1124338E-04;  9.9838202E+02;  1.0000000E-01; -1.3404559E+03;3;  3.0664220E-01;  0.0000000E+00;  2.3548294E-02;0;  8.0527067E-03;  3.9852289E+04;  0.0000000E+00; -7.6347433E-02;  4.0000000E+04;  0.0000000E+00;  4.0017234E+04;  8.8220742E-03;  0.0000000E+00; -7.6936773E-04;  2.2899734E+03;
  4.0139809E-01;  9.9999998E-03;  2.7998883E-01;4944;  5.1050303E-03;  0.0000000E+00; -3.1704080E-04;  9.9825403E+02;  1.0000000E-01; -1.4465270E+03;3;  3.0771208E-01;  0.0000000E+00;  1.9671088E-02;0;  8.6645214E-03;  3.9840828E+04;  0.0000000E+00; -1.0790443E-01;  4.0000000E+04;  0.0000000E+00;  4.0018695E+04;  9.3220482E-03;  0.0000000E+00; -6.5752660E-04;  2.4745803E+03;
  4.0138015E-01;  9.9999998E-03;  2.8998590E-01;4945;  5.1858900E-03;  0.0000000E+00; -3.2929447E-04;  9.9814081E+02;  1.0000000E-01; -1.5403021E+03;3;  3.0778119E-01;  0.0000000E+00;  1.4792681E-02;0;  9.1351811E-03;  3.9830477E+04;  0.0000000E+00; -1.3964227E-01;  4.0000000E+04;  0.0000000E+00;  4.0019629E+04;  9.7854231E-03;  0.0000000E+00; -6.5024197E-04;  2.6304651E+03;
  4.0135279E-01;  9.9999998E-03;  2.9998282E-01;4946;  5.2741547E-03;  0.0000000E+00; -3.4500612E-04;  9.9803027E+02;  1.0000000E-01; -1.6319044E+03;3;  3.0816329E-01;  0.0000000E+00;  9.3589220E-03;0;  9.4895326E-03;  3.9821176E+04;  0.0000000E+00; -1.6827780E-01;  4.0000000E+04;  0.0000000E+00;  4.0020832E+04;  1.0219608E-02;  0.0000000E+00; -7.3007535E-04;  2.7782346E+03;
  4.1143286E-01;  9.9999998E-03;  2.3999649E-01;5001;  4.7869240E-03;  0.0000000E+00; -3.1188293E-04;  9.9883533E+02;  1.0000000E-01; -9.6491101E+02;3;  2.8789964E-01;  0.0000000E+00;  2.0140959E-02;0;  6.3653337E-03;  3.9893141E+04;  0.0000000E+00; -9.6242003E-02;  4.0000000E+04;  0.0000000E+00;  4.0012598E+04;  7.4176318E-03;  0.0000000E+00; -1.0522984E-03;  1.7045083E+03;
  4.1141641E-01;  9.9999998E-03;  2.4999589E-01;5002;  4.8465603E-03;  0.0000000E+00; -3.2925743E-04;  9.9867566E+02;  1.0000000E-01; -1.0972035E+03;3;  2.9589945E-01;  0.0000000E+00;  2.1545075E-02;0;  6.9844285E-03;  3.9878289E+04;  0.0000000E+00; -1.0883565E-01;  4.0000000E+04;  0.0000000E+00;  4.0013949E+04;  8.0546085E-03;  0.0000000E+00; -1.0701802E-03;  1.8891768E+03;
  4.1140816E-01;  9.9999998E-03;  2.5999373E-01;5003;  4.9206167E-03;  0.0000000E+00; -3.3687850E-04;  9.9852191E+02;  1.0000000E-01; -1.2245580E+03;3;  3.0283430E-01;  0.0000000E+00;  2.2560861E-02;0;  7.6290164E-03;  3.9864445E+04;  0.0000000E+00; -1.2036584E-01;  4.0000000E+04;  0.0000000E+00;  4.0015852E+04;  8.6595416E-03;  0.0000000E+00; -1.0305250E-03;  2.1055679E+03;
  4.1140407E-01;  9.9999998E-03;  2.6999119E-01;5004;  5.0026355E-03;  0.0000000E+00; -3.4013434E-04;  9.9837952E+02;  1.0000000E-01; -1.3425299E+03;3;  3.0771130E-01;  0.0000000E+00;  2.1893749E-02;0;  8.2988618E-03;  3.9851625E+04;  0.0000000E+00; -1.3295549E-01;  4.0000000E+04;  0.0000000E+00;  4.0017191E+04;  9.2246914E-03;  0.0000000E+00; -9.2582963E-04;  2.3112866E+03;
  4.1139576E-01;  9.9999998E-03;  2.7998853E-01;5005;  5.0767092E-03;  0.0000000E+00; -3.4877830E-04;  9.9825165E+02;  1.0000000E-01; -1.4484529E+03;3;  3.0842814E-01;  0.0000000E+00;  1.9439632E-02;0;  8.8822152E-03;  3.9839891E+04;  0.0000000E+00; -1.4626306E-01;  4.0000000E+04;  0.0000000E+00;  4.0018609E+04;  9.7475518E-03;  0.0000000E+00; -8.6533633E-04;  2.4927603E+03;
  4.1137645E-01;  9.9999998E-03;  2.8998572E-01;5006;  5.1473477E-03;  0.0000000E+00; -3.6270398E-04;  9.9813702E+02;  1.0000000E-01; -1.5434625E+03;3;  3.0938169E-01;  0.0000000E+00;  1.5209491E-02;0;  9.3374103E-03;  3.9829434E+04;  0.0000000E+00; -1.5539621E-01;  4.0000000E+04;  0.0000000E+00;  4.0019617E+04;  1.0230901E-02;  0.0000000E+00; -8.9349033E-04;  2.6502463E+03;
  4.1134620E-01;  9.9999998E-03;  2.9998279E-01;5007;  5.2165943E-03;  0.0000000E+00; -3.7867963E-04;  9.9803259E+02;  1.0000000E-01; -1.6299786E+03;3;  3.0894190E-01;  0.0000000E+00;  1.1509835E-02;0;  9.7040664E-03;  3.9820121E+04;  0.0000000E+00; -1.5444545E-01;  4.0000000E+04;  0.0000000E+00;  4.0020805E+04;  1.0681169E-02;  0.0000000E+00; -9.7710255E-04;  2.7911990E+03;
  4.2143673E-01;  9.9999998E-03;  2.3999578E-01;5062;  4.7809584E-03;  0.0000000E+00; -3.3593446E-04;  9.9883899E+02;  1.0000000E-01; -9.6189874E+02;3;  2.8916448E-01;  0.0000000E+00;  1.8000919E-02;0;  6.8337666E-03;  3.9892648E+04;  0.0000000E+00; -1.6135445E-01;  4.0000000E+04;  0.0000000E+00;  4.0012766E+04;  7.9619475E-03;  0.0000000E+00; -1.1281807E-03;  1.7222308E+03;
  4.2143163E-01;  9.9999998E-03;  2.4999501E-01;5063;  4.8400722E-03;  0.0000000E+00; -3.5367682E-04;  9.9867145E+02;  1.0000000E-01; -1.1006603E+03;3;  2.9701534E-01;  0.0000000E+00;  1.8768962E-02;0;  7.4955444E-03;  3.9877473E+04;  0.0000000E+00; -1.7414686E-01;  4.0000000E+04;  0.0000000E+00;  4.0014332E+04;  8.6496519E-03;  0.0000000E+00; -1.1541076E-03;  1.9184221E+03;
  4.2143020E-01;  9.9999998E-03;  2.5999305E-01;5064;  4.9102386E-03;  0.0000000E+00; -3.6305006E-04;  9.9851874E+02;  1.0000000E-01; -1.2271752E+03;3;  3.0344799E-01;  0.0000000E+00;  2.0188762E-02;0;  8.1696296E-03;  3.9863539E+04;  0.0000000E+00; -1.8096271E-01;  4.0000000E+04;  0.0000000E+00;  4.0015879E+04;  9.3059391E-03;  0.0000000E+00; -1.1363092E-03;  2.1317639E+03;
  4.2142433E-01;  9.9999998E-03;  2.6999071E-01;5065;  4.9839662E-03;  0.0000000E+00; -3.7074616E-04;  9.9837543E+02;  1.0000000E-01; -1.3459373E+03;3;  3.0885553E-01;  0.0000000E+00;  2.0300748E-02;0;  8.8284072E-03;  3.9850617E+04;  0.0000000E+00; -1.8204923E-01;  4.0000000E+04;  0.0000000E+00;  4.0017609E+04;  9.9210273E-03;  0.0000000E+00; -1.0926204E-03;  2.3347964E+03;
  4.2140996E-01;  9.9999998E-03;  2.7998820E-01;5066;  5.0527509E-03;  0.0000000E+00; -3.8239884E-04;  9.9824634E+02;  1.0000000E-01; -1.4528972E+03;3;  3.0919957E-01;  0.0000000E+00;  1.7639356E-02;0;  9.3991039E-03;  3.9838816E+04;  0.0000000E+00; -1.7526674E-01;  4.0000000E+04;  0.0000000E+00;  4.0018848E+04;  1.0490144E-02;  0.0000000E+00; -1.0910396E-03;  2.5131807E+03;
  4.2138335E-01;  9.9999998E-03;  2.8998554E-01;5067;  5.1149535E-03;  0.0000000E+00; -3.9824416E-04;  9.9813293E+02;  1.0000000E-01; -1.5468204E+03;3;  3.1043303E-01;  0.0000000E+00;  1.5248241E-02;0;  9.8492121E-03;  3.9828559E+04;  0.0000000E+00; -1.5453827E-01;  4.0000000E+04;  0.0000000E+00;  4.0019914E+04;  1.1013221E-02;  0.0000000E+00; -1.1640090E-03;  2.6665642E+03;
  4.2134160E-01;  9.9999998E-03;  2.9998267E-01;5068;  5.1734112E-03;  0.0000000E+00; -4.1309849E-04;  9.9803003E+02;  1.0000000E-01; -1.6321019E+03;3;  3.1076416E-01;  0.0000000E+00;  1.2573655E-02;0;  1.0261735E-02;  3.9819246E+04;  0.0000000E+00; -1.1169101E-01;  4.0000000E+04;  0.0000000E+00;  4.0021176E+04;  1.1493773E-02;  0.0000000E+00; -1.2320378E-03;  2.8041016E+03;
  4.3145755E-01;  9.9999998E-03;  2.3999611E-01;5123;  4.7835219E-03;  0.0000000E+00; -3.6184138E-04;  9.9884686E+02;  1.0000000E-01; -9.5533099E+02;3;  2.9128698E-01;  0.0000000E+00;  1.5666973E-02;0;  7.5007658E-03;  3.9893102E+04;  0.0000000E+00; -2.0748821E-01;  4.0000000E+04;  0.0000000E+00;  4.0012617E+04;  8.7038781E-03;  0.0000000E+00; -1.2031125E-03;  1.7112234E+03;
  4.3145943E-01;  9.9999998E-03;  2.4999477E-01;5124;  4.8430706E-03;  0.0000000E+00; -3.7941453E-04;  9.9867548E+02;  1.0000000E-01; -1.0973517E+03;3;  2.9894710E-01;  0.0000000E+00;  1.6674219E-02;0;  8.2224654E-03;  3.9877938E+04;  0.0000000E+00; -2.1714124E-01;  4.0000000E+04;  0.0000000E+00;  4.0014504E+04;  9.4583677E-03;  0.0000000E+00; -1.2359023E-03;  1.9233646E+03;
  4.3146122E-01;  9.9999998E-03;  2.5999275E-01;5125;  4.9108882E-03;  0.0000000E+00; -3.8994302E-04;  9.9852277E+02;  1.0000000E-01; -1.2238666E+03;3;  3.0494708E-01;  0.0000000E+00;  1.7754009E-02;0;  8.9463387E-03;  3.9863785E+04;  0.0000000E+00; -2.1636188E-01;  4.0000000E+04;  0.0000000E+00;  4.0016102E+04;  1.0182974E-02;  0.0000000E+00; -1.2366349E-03;  2.1389263E+03;
  4.3145320E-01;  9.9999998E-03;  2.6999044E-01;5126;  4.9787117E-03;  0.0000000E+00; -4.0093120E-04;  9.9837671E+02;  1.0000000E-01; -1.3448508E+03;3;  3.0958083E-01;  0.0000000E+00;  1.7092496E-02;0;  9.6233394E-03;  3.9850691E+04;  0.0000000E+00; -2.0274146E-01;  4.0000000E+04;  0.0000000E+00;  4.0017578E+04;  1.0864979E-02;  0.0000000E+00; -1.2416390E-03;  2.3429980E+03;
  4.3143585E-01;  9.9999998E-03;  2.7998799E-01;5127;  5.0415876E-03;  0.0000000E+00; -4.1548305E-04;  9.9824805E+02;  1.0000000E-01; -1.4514651E+03;3;  3.1036028E-01;  0.0000000E+00;  1.5496077E-02;0;  1.0198727E-02;  3.9838977E+04;  0.0000000E+00; -1.7094015E-01;  4.0000000E+04;  0.0000000E+00;  4.0019086E+04;  1.1496158E-02;  0.0000000E+00; -1.2974308E-03;  2.5176453E+03;
  4.3140537E-01;  9.9999998E-03;  2.8998542E-01;5128;  5.0981166E-03;  0.0000000E+00; -4.3277413E-04;  9.9813708E+02;  1.0000000E-01; -1.5434131E+03;3;  3.1147584E-01;  0.0000000E+00;  1.4286192E-02;0;  1.0662856E-02;  3.9828574E+04;  0.0000000E+00; -1.1209280E-01;  4.0000000E+04;  0.0000000E+00;  4.0020109E+04;  1.2071489E-02;  0.0000000E+00; -1.4086337E-03;  2.6655522E+03;
  4.3135792E-01;  9.9999998E-03;  2.9998258E-01;5129;  5.1508308E-03;  0.0000000E+00; -4.4788851E-04;  9.9803479E+02;  1.0000000E-01; -1.6281515E+03;3;  3.1218019E-01;  0.0000000E+00;  1.2617763E-02;0;  1.1104371E-02;  3.9819176E+04;  0.0000000E+00; -1.5848016E-02;  4.0000000E+04;  0.0000000E+00;  4.0021066E+04;  1.2589665E-02;  0.0000000E+00; -1.4852934E-03;  2.8045923E+03;
  4.4148993E-01;  9.9999998E-03;  2.3999751E-01;5184;  4.8042326E-03;  0.0000000E+00; -3.8862825E-04;  9.9886603E+02;  1.0000000E-01; -9.3947961E+02;3;  2.9758146E-01;  0.0000000E+00;  1.4704296E-02;0;  8.3195958E-03;  3.9895340E+04;  0.0000000E+00; -2.2958988E-01;  4.0000000E+04;  0.0000000E+00;  4.0012379E+04;  9.5921401E-03;  0.0000000E+00; -1.2725447E-03;  1.6557615E+03;
  4.4149622E-01;  9.9999998E-03;  2.4999537E-01;5185;  4.8668417E-03;  0.0000000E+00; -4.0536275E-04;  9.9869788E+02;  1.0000000E-01; -1.0787843E+03;3;  3.0423555E-01;  0.0000000E+00;  1.5720548E-02;0;  9.1101807E-03;  3.9880035E+04;  0.0000000E+00; -2.3301141E-01;  4.0000000E+04;  0.0000000E+00;  4.0014066E+04;  1.0417541E-02;  0.0000000E+00; -1.3073612E-03;  1.8819805E+03;
  4.4149992E-01;  9.9999998E-03;  2.5999296E-01;5186;  4.9338746E-03;  0.0000000E+00; -4.1692352E-04;  9.9854236E+02;  1.0000000E-01; -1.2076201E+03;3;  3.0890974E-01;  0.0000000E+00;  1.6133640E-02;0;  9.8906923E-03;  3.9865746E+04;  0.0000000E+00; -2.2181185E-01;  4.0000000E+04;  0.0000000E+00;  4.0015832E+04;  1.1214934E-02;  0.0000000E+00; -1.3242423E-03;  2.1075959E+03;
  4.4149345E-01;  9.9999998E-03;  2.6999056E-01;5187;  4.9996777E-03;  0.0000000E+00; -4.2907801E-04;  9.9839917E+02;  1.0000000E-01; -1.3262341E+03;3;  3.1214914E-01;  0.0000000E+00;  1.5436986E-02;0;  1.0615605E-02;  3.9852441E+04;  0.0000000E+00; -1.9089250E-01;  4.0000000E+04;  0.0000000E+00;  4.0017379E+04;  1.1968622E-02;  0.0000000E+00; -1.3530169E-03;  2.3108538E+03;
  4.4147891E-01;  9.9999998E-03;  2.7998805E-01;5188;  5.0575025E-03;  0.0000000E+00; -4.4658527E-04;  9.9826678E+02;  1.0000000E-01; -1.4359594E+03;3;  3.1231025E-01;  0.0000000E+00;  1.3418225E-02;0;  1.1203953E-02;  3.9840816E+04;  0.0000000E+00; -1.3192126E-01;  4.0000000E+04;  0.0000000E+00;  4.0018848E+04;  1.2665948E-02;  0.0000000E+00; -1.4619947E-03;  2.4919985E+03;
  4.4145119E-01;  9.9999998E-03;  2.8998542E-01;5189;  5.1116371E-03;  0.0000000E+00; -4.6593416E-04;  9.9815204E+02;  1.0000000E-01; -1.5310184E+03;3;  3.1334308E-01;  0.0000000E+00;  1.0424401E-02;0;  1.1678660E-02;  3.9830008E+04;  0.0000000E+00; -3.4006264E-02;  4.0000000E+04;  0.0000000E+00;  4.0019832E+04;  1.3295352E-02;  0.0000000E+00; -1.6166926E-03;  2.6494004E+03;
  4.4140780E-01;  9.9999998E-03;  2.9998264E-01;5190;  5.1675322E-03;  0.0000000E+00; -4.8357158E-04;  9.9805121E+02;  1.0000000E-01; -1.6145222E+03;3;  3.1597716E-01;  0.0000000E+00;  1.0183226E-02;0;  1.2106314E-02;  3.9821199E+04;  0.0000000E+00;  1.1416428E-01;  4.0000000E+04;  0.0000000E+00;  4.0020758E+04;  1.3848941E-02;  0.0000000E+00; -1.7426264E-03;  2.7991924E+03;
  4.5153654E-01;  9.9999998E-03;  2.3999953E-01;5245;  4.8544607E-03;  0.0000000E+00; -4.1511221E-04;  9.9889197E+02;  1.0000000E-01; -9.1799872E+02;3;  3.0688480E-01;  0.0000000E+00;  1.4401522E-02;0;  9.2256349E-03;  3.9898496E+04;  0.0000000E+00; -2.2857355E-01;  4.0000000E+04;  0.0000000E+00;  4.0011801E+04;  1.0556318E-02;  0.0000000E+00; -1.3306832E-03;  1.5655239E+03;
  4.5154545E-01;  9.9999998E-03;  2.4999650E-01;5246;  4.9226689E-03;  0.0000000E+00; -4.3208044E-04;  9.9873035E+02;  1.0000000E-01; -1.0518715E+03;3;  3.1388551E-01;  0.0000000E+00;  1.4692466E-02;0;  1.0070944E-02;  3.9883457E+04;  0.0000000E+00; -2.2476003E-01;  4.0000000E+04;  0.0000000E+00;  4.0013480E+04;  1.1442150E-02;  0.0000000E+00; -1.3712054E-03;  1.8053488E+03;
  4.5155212E-01;  9.9999998E-03;  2.5999364E-01;5247;  4.9973796E-03;  0.0000000E+00; -4.4328679E-04;  9.9857629E+02;  1.0000000E-01; -1.1795222E+03;3;  3.1788671E-01;  0.0000000E+00;  1.5102288E-02;0;  1.0909078E-02;  3.9869070E+04;  0.0000000E+00; -2.0237637E-01;  4.0000000E+04;  0.0000000E+00;  4.0015078E+04;  1.2300913E-02;  0.0000000E+00; -1.3918353E-03;  2.0408436E+03;
  4.5155358E-01;  9.9999998E-03;  2.6999101E-01;5248;  5.0708675E-03;  0.0000000E+00; -4.5418474E-04;  9.9843561E+02;  1.0000000E-01; -1.2960621E+03;3;  3.2126954E-01;  0.0000000E+00;  1.3003643E-02;0;  1.1702495E-02;  3.9856359E+04;  0.0000000E+00; -1.5416701E-01;  4.0000000E+04;  0.0000000E+00;  4.0016965E+04;  1.3114415E-02;  0.0000000E+00; -1.4119205E-03;  2.2494895E+03;
  4.5155147E-01;  9.9999998E-03;  2.7998835E-01;5249;  5.1424042E-03;  0.0000000E+00; -4.7364607E-04;  9.9830267E+02;  1.0000000E-01; -1.4061825E+03;3;  3.2604155E-01;  0.0000000E+00;  1.0334158E-02;0;  1.2314160E-02;  3.9844387E+04;  0.0000000E+00; -7.0591524E-02;  4.0000000E+04;  0.0000000E+00;  4.0018504E+04;  1.3865604E-02;  0.0000000E+00; -1.5514437E-03;  2.4381431E+03;
  4.5153946E-01;  9.9999998E-03;  2.8998569E-01;5250;  5.2363416E-03;  0.0000000E+00; -4.9707049E-04;  9.9818964E+02;  1.0000000E-01; -1.4998588E+03;3;  3.3837351E-01;  0.0000000E+00;  8.6203050E-03;0;  1.2758040E-02;  3.9833891E+04;  0.0000000E+00;  5.8388688E-02;  4.0000000E+04;  0.0000000E+00;  4.0019191E+04;  1.4536656E-02;  0.0000000E+00; -1.7786163E-03;  2.6038284E+03;
  4.5151308E-01;  9.9999998E-03;  2.9998288E-01;5251;  5.3859041E-03;  0.0000000E+00; -5.1500689E-04;  9.9809326E+02;  1.0000000E-01; -1.5797084E+03;3;  3.7050122E-01;  0.0000000E+00;  8.2158400E-03;0;  1.3200726E-02;  3.9825082E+04;  0.0000000E+00;  2.4325085E-01;  4.0000000E+04;  0.0000000E+00;  4.0020344E+04;  1.5112516E-02;  0.0000000E+00; -1.9117887E-03;  2.7668674E+03;
  4.6158892E-01;  9.9999998E-03;  2.4000213E-01;5306;  4.9656867E-03;  0.0000000E+00; -4.3850052E-04;  9.9892651E+02;  1.0000000E-01; -8.8935754E+02;3;  3.3444664E-01;  0.0000000E+00;  1.8061705E-02;0;  1.0154345E-02;  3.9902090E+04;  0.0000000E+00; -2.0749168E-01;  4.0000000E+04;  0.0000000E+00;  4.0010656E+04;  1.1519878E-02;  0.0000000E+00; -1.3655334E-03;  1.4387812E+03;
  4.6160337E-01;  9.9999998E-03;  2.4999802E-01;5307;  5.0604944E-03;  0.0000000E+00; -4.5768623E-04;  9.9876349E+02;  1.0000000E-01; -1.0244155E+03;3;  3.4801355E-01;  0.0000000E+00;  1.7792620E-02;0;  1.1024378E-02;  3.9887566E+04;  0.0000000E+00; -1.9673230E-01;  4.0000000E+04;  0.0000000E+00;  4.0012699E+04;  1.2440641E-02;  0.0000000E+00; -1.4162628E-03;  1.6977502E+03;
  4.6161708E-01;  9.9999998E-03;  2.5999469E-01;5308;  5.1935539E-03;  0.0000000E+00; -4.7057364E-04;  9.9861694E+02;  1.0000000E-01; -1.1458441E+03;3;  3.8078666E-01;  0.0000000E+00;  1.5523472E-02;0;  1.1878681E-02;  3.9873598E+04;  0.0000000E+00; -1.6375612E-01;  4.0000000E+04;  0.0000000E+00;  4.0014445E+04;  1.3332113E-02;  0.0000000E+00; -1.4534313E-03;  1.9380952E+03;
  4.6162754E-01;  9.9999998E-03;  2.6999176E-01;5309;  5.4023881E-03;  0.0000000E+00; -4.7711024E-04;  9.9848041E+02;  1.0000000E-01; -1.2589767E+03;3;  4.3711743E-01;  0.0000000E+00;  1.6223453E-02;0;  1.2741938E-02;  3.9860719E+04;  0.0000000E+00; -1.0057725E-01;  4.0000000E+04;  0.0000000E+00;  4.0016059E+04;  1.4172983E-02;  0.0000000E+00; -1.4310447E-03;  2.1537500E+03;
  4.6163595E-01;  9.9999998E-03;  2.7998894E-01;5310;  5.6819920E-03;  0.0000000E+00; -4.8193155E-04;  9.9835144E+02;  1.0000000E-01; -1.3657886E+03;3;  4.9057186E-01;  0.0000000E+00;  1.2829940E-02;0;  1.3587637E-02;  3.9849230E+04;  0.0000000E+00;  5.8517762E-04;  4.0000000E+04;  0.0000000E+00;  4.0017734E+04;  1.4943422E-02;  0.0000000E+00; -1.3557851E-03;  2.3468027E+03;
  4.6163815E-01;  9.9999998E-03;  2.8998622E-01;5311;  5.9954142E-03;  0.0000000E+00; -4.9078092E-04;  9.9824146E+02;  1.0000000E-01; -1.4568971E+03;3;  5.3163904E-01;  0.0000000E+00;  7.4253078E-03;0;  1.4315284E-02;  3.9839242E+04;  0.0000000E+00;  1.4590180E-01;  4.0000000E+04;  0.0000000E+00;  4.0018754E+04;  1.5624334E-02;  0.0000000E+00; -1.3090500E-03;  2.5135188E+03;
  4.6162978E-01;  9.9999998E-03;  2.9998341E-01;5312;  6.3211746E-03;  0.0000000E+00; -5.0520932E-04;  9.9814075E+02;  1.0000000E-01; -1.5403514E+03;3;  5.6886381E-01;  0.0000000E+00;  1.1113454E-03;0;  1.4855596E-02;  3.9830512E+04;  0.0000000E+00;  3.4212676E-01;  4.0000000E+04;  0.0000000E+00;  4.0019668E+04;  1.6200356E-02;  0.0000000E+00; -1.3447599E-03;  2.6859824E+03;
  4.7159988E-01;  9.9999998E-03;  2.4000409E-01;5367;  5.2312575E-03;  0.0000000E+00; -4.4973867E-04;  9.9894586E+02;  1.0000000E-01; -8.7335803E+02;3;  4.3939799E-01;  0.0000000E+00;  2.2966526E-02;0;  1.1080300E-02;  3.9905328E+04;  0.0000000E+00; -1.7074919E-01;  4.0000000E+04;  0.0000000E+00;  4.0009793E+04;  1.2417116E-02;  0.0000000E+00; -1.3368163E-03;  1.3280872E+03;
  4.7161973E-01;  9.9999998E-03;  2.4999948E-01;5368;  5.4261684E-03;  0.0000000E+00; -4.7462017E-04;  9.9878882E+02;  1.0000000E-01; -1.0034284E+03;3;  4.8796037E-01;  0.0000000E+00;  2.4376761E-02;0;  1.1941513E-02;  3.9890879E+04;  0.0000000E+00; -1.5520079E-01;  4.0000000E+04;  0.0000000E+00;  4.0011762E+04;  1.3336088E-02;  0.0000000E+00; -1.3945748E-03;  1.5875077E+03;
  4.7164184E-01;  9.9999998E-03;  2.5999567E-01;5369;  5.6910370E-03;  0.0000000E+00; -4.7567170E-04;  9.9864459E+02;  1.0000000E-01; -1.1229312E+03;3;  5.3821218E-01;  0.0000000E+00;  2.7030217E-02;0;  1.2916075E-02;  3.9877402E+04;  0.0000000E+00; -1.1630186E-01;  4.0000000E+04;  0.0000000E+00;  4.0013797E+04;  1.4220211E-02;  0.0000000E+00; -1.3041354E-03;  1.8395720E+03;
  4.7166130E-01;  9.9999998E-03;  2.6999247E-01;5370;  6.0155336E-03;  0.0000000E+00; -4.5753899E-04;  9.9851331E+02;  1.0000000E-01; -1.2317183E+03;3;  5.7747060E-01;  0.0000000E+00;  2.1866765E-02;0;  1.4113524E-02;  3.9864883E+04;  0.0000000E+00; -4.6973266E-02;  4.0000000E+04;  0.0000000E+00;  4.0015172E+04;  1.5047242E-02;  0.0000000E+00; -9.3371794E-04;  2.0582354E+03;
  4.7167456E-01;  9.9999998E-03;  2.7998960E-01;5371;  6.3355924E-03;  0.0000000E+00; -4.5851662E-04;  9.9839221E+02;  1.0000000E-01; -1.3320117E+03;3;  6.0176206E-01;  0.0000000E+00;  5.7473620E-03;0;  1.5114946E-02;  3.9853688E+04;  0.0000000E+00;  5.7116188E-02;  4.0000000E+04;  0.0000000E+00;  4.0016758E+04;  1.5798384E-02;  0.0000000E+00; -6.8343832E-04;  2.2418325E+03;
  4.7168404E-01;  9.9999998E-03;  2.8998679E-01;5372;  6.6323583E-03;  0.0000000E+00; -4.8180154E-04;  9.9828271E+02;  1.0000000E-01; -1.4227252E+03;3;  6.2670213E-01;  0.0000000E+00; -2.3440626E-03;0;  1.5681915E-02;  3.9844051E+04;  0.0000000E+00;  1.9717829E-01;  4.0000000E+04;  0.0000000E+00;  4.0017781E+04;  1.6458608E-02;  0.0000000E+00; -7.7669241E-04;  2.4102900E+03;
  4.7168764E-01;  9.9999998E-03;  2.9998398E-01;5373;  6.9271913E-03;  0.0000000E+00; -5.0694600E-04;  9.9818750E+02;  1.0000000E-01; -1.5016366E+03;3;  6.6103011E-01;  0.0000000E+00; -8.0655543E-03;0;  1.6057931E-02;  3.9835605E+04;  0.0000000E+00;  3.7533063E-01;  4.0000000E+04;  0.0000000E+00;  4.0019059E+04;  1.7018504E-02;  0.0000000E+00; -9.6057425E-04;  2.5768467E+03;
  4.8167700E-01;  9.9999998E-03;  2.9998419E-01;5434;  7.2661620E-03;  0.0000000E+00; -5.2259059E-04;  9.9821527E+02;  1.0000147E-01; -1.4786249E+03;3;  7.2243702E-01;  0.0000000E+00; -1.0465974E-02;0;  1.6785748E-02;  3.9837754E+04;  0.0000000E+00;  3.3090457E-01;  4.0000000E+04;  0.0000000E+00;  4.0018133E+04;  1.7591206E-02;  0.0000000E+00; -8.0545782E-04;  2.4877473E+03;
  4.8166913E-01;  9.9999998E-03;  2.8998706E-01;5433;  7.0060552E-03;  0.0000000E+00; -4.9076765E-04;  9.9830988E+02;  1.0000147E-01; -1.4002567E+03;3;  6.9097364E-01;  0.0000000E+00; -5.5436385E-03;0;  1.6530581E-02;  3.9846270E+04;  0.0000000E+00;  1.9046815E-01;  4.0000000E+04;  0.0000000E+00;  4.0017312E+04;  1.7056873E-02;  0.0000000E+00; -5.2629138E-04;  2.3303623E+03;
  4.8165533E-01;  9.9999998E-03;  2.7998996E-01;5432;  6.7390394E-03;  0.0000000E+00; -4.5771644E-04;  9.9841730E+02;  1.0000148E-01; -1.3112222E+03;3;  6.6488367E-01;  0.0000000E+00;  3.3133151E-04;0;  1.6109623E-02;  3.9855734E+04;  0.0000000E+00;  7.3409185E-02;  4.0000000E+04;  0.0000000E+00;  4.0016215E+04;  1.6436344E-02;  0.0000000E+00; -3.2672047E-04;  2.1659512E+03;
  4.8156253E-01;  9.9999998E-03;  2.4000509E-01;5428;  5.5876742E-03;  0.0000000E+00; -4.4852891E-04;  9.9895166E+02;  1.0000148E-01; -8.6851862E+02;3;  5.4998016E-01;  0.0000000E+00;  3.1012857E-02;0;  1.1980475E-02;  3.9905734E+04;  0.0000000E+00; -1.2883106E-01;  4.0000000E+04;  0.0000000E+00;  4.0009398E+04;  1.3226458E-02;  0.0000000E+00; -1.2459828E-03;  1.2557637E+03;
  4.8158675E-01;  9.9999998E-03;  2.5000036E-01;5429;  5.8180741E-03;  0.0000000E+00; -4.7044244E-04;  9.9880328E+02;  1.0000146E-01; -9.9147815E+02;3;  5.8624643E-01;  0.0000000E+00;  3.3005025E-02;0;  1.2882237E-02;  3.9891660E+04;  0.0000000E+00; -1.1497167E-01;  4.0000000E+04;  0.0000000E+00;  4.0011184E+04;  1.4109035E-02;  0.0000000E+00; -1.2267977E-03;  1.5107688E+03;
  4.8161209E-01;  9.9999998E-03;  2.5999627E-01;5430;  6.1123739E-03;  0.0000000E+00; -4.6156469E-04;  9.9866162E+02;  1.0000145E-01; -1.1088081E+03;3;  6.2384075E-01;  0.0000000E+00;  3.0876474E-02;0;  1.3980843E-02;  3.9878477E+04;  0.0000000E+00; -7.9855509E-02;  4.0000000E+04;  0.0000000E+00;  4.0013129E+04;  1.4950781E-02;  0.0000000E+00; -9.6993771E-04;  1.7699385E+03;
  4.8163736E-01;  9.9999998E-03;  2.6999298E-01;5431;  6.4411000E-03;  0.0000000E+00; -4.4265873E-04;  9.9853723E+02;  1.0000148E-01; -1.2118669E+03;3;  6.4747947E-01;  0.0000000E+00;  1.7364779E-02;0;  1.5251888E-02;  3.9866418E+04;  0.0000000E+00; -1.7532278E-02;  4.0000000E+04;  0.0000000E+00;  4.0014602E+04;  1.5731478E-02;  0.0000000E+00; -4.7959000E-04;  1.9829102E+03;
  4.9160364E-01;  9.9999998E-03;  2.4000411E-01;5489;  5.8555771E-03;  0.0000000E+00; -4.5120632E-04;  9.9891962E+02;  1.0000210E-01; -8.9508582E+02;3;  6.0530722E-01;  0.0000000E+00;  3.0123871E-02;0;  1.2817351E-02;  3.9902676E+04;  0.0000000E+00; -9.9667624E-02;  4.0000000E+04;  0.0000000E+00;  4.0009410E+04;  1.3986332E-02;  0.0000000E+00; -1.1689807E-03;  1.2804318E+03;
  4.9161154E-01;  9.9999998E-03;  2.4999973E-01;5490;  6.1052581E-03;  0.0000000E+00; -4.6838450E-04;  9.9876801E+02;  1.0000207E-01; -1.0206625E+03;3;  6.3851207E-01;  0.0000000E+00;  3.0439215E-02;0;  1.3740161E-02;  3.9888691E+04;  0.0000000E+00; -9.5094219E-02;  4.0000000E+04;  0.0000000E+00;  4.0011371E+04;  1.4807187E-02;  0.0000000E+00; -1.0670263E-03;  1.5388676E+03;
  4.9161538E-01;  9.9999998E-03;  2.5999588E-01;5491;  6.4092539E-03;  0.0000000E+00; -4.5721387E-04;  9.9863086E+02;  1.0000200E-01; -1.1342889E+03;3;  6.6993457E-01;  0.0000000E+00;  2.6331272E-02;0;  1.4866094E-02;  3.9875617E+04;  0.0000000E+00; -7.2849303E-02;  4.0000000E+04;  0.0000000E+00;  4.0013637E+04;  1.5583679E-02;  0.0000000E+00; -7.1758480E-04;  1.7923506E+03;
  4.9162304E-01;  9.9999998E-03;  2.6999262E-01;5492;  6.7205727E-03;  0.0000000E+00; -4.4874049E-04;  9.9850696E+02;  1.0000207E-01; -1.2369526E+03;3;  6.9083947E-01;  0.0000000E+00;  1.0810286E-02;0;  1.6033791E-02;  3.9864043E+04;  0.0000000E+00; -2.8489668E-02;  4.0000000E+04;  0.0000000E+00;  4.0014984E+04;  1.6299505E-02;  0.0000000E+00; -2.6571329E-04;  2.0027640E+03;
  4.9163142E-01;  9.9999998E-03;  2.7998963E-01;5493;  6.9893971E-03;  0.0000000E+00; -4.7268736E-04;  9.9838837E+02;  1.0000204E-01; -1.3352214E+03;3;  7.0636892E-01;  0.0000000E+00; -3.2716452E-03;0;  1.6758209E-02;  3.9853133E+04;  0.0000000E+00;  3.7138455E-02;  4.0000000E+04;  0.0000000E+00;  4.0016312E+04;  1.6945397E-02;  0.0000000E+00; -1.8718888E-04;  2.1816226E+03;
  4.9164137E-01;  9.9999998E-03;  2.8998670E-01;5494;  7.2328146E-03;  0.0000000E+00; -5.1019812E-04;  9.9828204E+02;  1.0000199E-01; -1.4233177E+03;3;  7.3291320E-01;  0.0000000E+00; -8.4035853E-03;0;  1.7086810E-02;  3.9843574E+04;  0.0000000E+00;  1.1872862E-01;  4.0000000E+04;  0.0000000E+00;  4.0017430E+04;  1.7519282E-02;  0.0000000E+00; -4.3247247E-04;  2.3391411E+03;
  4.9165303E-01;  9.9999998E-03;  2.9998377E-01;5495;  7.4597485E-03;  0.0000000E+00; -5.4736133E-04;  9.9818304E+02;  1.0000207E-01; -1.5052908E+03;3;  7.5110692E-01;  0.0000000E+00; -1.4165563E-02;0;  1.7236123E-02;  3.9835055E+04;  0.0000000E+00;  2.1019541E-01;  4.0000000E+04;  0.0000000E+00;  4.0018543E+04;  1.8025545E-02;  0.0000000E+00; -7.8942301E-04;  2.4880227E+03;
  5.0164086E-01;  9.9999998E-03;  2.4000165E-01;5550;  6.0457154E-03;  0.0000000E+00; -4.6934246E-04;  9.9886243E+02;  1.0000383E-01; -9.4244250E+02;3;  6.3677752E-01;  0.0000000E+00;  2.2998171E-02;0;  1.3592460E-02;  3.9896023E+04;  0.0000000E+00; -8.4653169E-02;  4.0000000E+04;  0.0000000E+00;  4.0010277E+04;  1.4756600E-02;  0.0000000E+00; -1.1641399E-03;  1.3873989E+03;
  5.0166267E-01;  9.9999998E-03;  2.4999806E-01;5551;  6.3118408E-03;  0.0000000E+00; -4.8112852E-04;  9.9870532E+02;  1.0000373E-01; -1.0726117E+03;3;  6.7009622E-01;  0.0000000E+00;  2.3774162E-02;0;  1.4503175E-02;  3.9881688E+04;  0.0000000E+00; -9.6958809E-02;  4.0000000E+04;  0.0000000E+00;  4.0012254E+04;  1.5509230E-02;  0.0000000E+00; -1.0060550E-03;  1.6434315E+03;
  5.0167418E-01;  9.9999998E-03;  2.5999463E-01;5552;  6.6106673E-03;  0.0000000E+00; -4.7373644E-04;  9.9856311E+02;  1.0000370E-01; -1.1904354E+03;3;  7.0256442E-01;  0.0000000E+00;  1.9549070E-02;0;  1.5562700E-02;  3.9868395E+04;  0.0000000E+00; -9.5136411E-02;  4.0000000E+04;  0.0000000E+00;  4.0014332E+04;  1.6216949E-02;  0.0000000E+00; -6.5424899E-04;  1.8950264E+03;
  5.0168425E-01;  9.9999998E-03;  2.6999161E-01;5553;  6.8907645E-03;  0.0000000E+00; -4.7822014E-04;  9.9843512E+02;  1.0000364E-01; -1.2964572E+03;3;  7.2412390E-01;  0.0000000E+00;  7.3718522E-03;0;  1.6542066E-02;  3.9856430E+04;  0.0000000E+00; -7.4330702E-02;  4.0000000E+04;  0.0000000E+00;  4.0015664E+04;  1.6867543E-02;  0.0000000E+00; -3.2547739E-04;  2.1044038E+03;
  5.0169981E-01;  9.9999998E-03;  2.7998868E-01;5554;  7.1331267E-03;  0.0000000E+00; -5.0776562E-04;  9.9831555E+02;  1.0000388E-01; -1.3955161E+03;3;  7.3811233E-01;  0.0000000E+00; -5.5852020E-03;0;  1.7128890E-02;  3.9845211E+04;  0.0000000E+00; -3.6530595E-02;  4.0000000E+04;  0.0000000E+00;  4.0017164E+04;  1.7457161E-02;  0.0000000E+00; -3.2827034E-04;  2.2820342E+03;
  5.0171852E-01;  9.9999998E-03;  2.8998581E-01;5555;  7.3535591E-03;  0.0000000E+00; -5.4686889E-04;  9.9820605E+02;  1.0000371E-01; -1.4862296E+03;3;  7.5258660E-01;  0.0000000E+00; -1.4081164E-02;0;  1.7385432E-02;  3.9835480E+04;  0.0000000E+00;  1.2406515E-02;  4.0000000E+04;  0.0000000E+00;  4.0018223E+04;  1.7988838E-02;  0.0000000E+00; -6.0340588E-04;  2.4394167E+03;
  5.0174266E-01;  9.9999998E-03;  2.9998285E-01;5556;  7.5673102E-03;  0.0000000E+00; -5.8505835E-04;  9.9810260E+02;  1.0000388E-01; -1.5719556E+03;3;  7.6701856E-01;  0.0000000E+00; -1.8790301E-02;0;  1.7494656E-02;  3.9826652E+04;  0.0000000E+00;  6.6147767E-02;  4.0000000E+04;  0.0000000E+00;  4.0019277E+04;  1.8471142E-02;  0.0000000E+00; -9.7648613E-04;  2.5854875E+03;
  5.1161677E-01;  9.9999998E-03;  2.3999792E-01;5611;  6.1710496E-03;  0.0000000E+00; -5.0747104E-04;  9.9877612E+02;  1.0000615E-01; -1.0139467E+03;3;  6.6280049E-01;  0.0000000E+00;  1.5103264E-02;0;  1.4353663E-02;  3.9886070E+04;  0.0000000E+00; -7.7948011E-02;  4.0000000E+04;  0.0000000E+00;  4.0011961E+04;  1.5611324E-02;  0.0000000E+00; -1.2576616E-03;  1.5721272E+03;
  5.1163197E-01;  9.9999998E-03;  2.4999543E-01;5612;  6.4403247E-03;  0.0000000E+00; -5.1553448E-04;  9.9860986E+02;  1.0000618E-01; -1.1517205E+03;3;  6.9683856E-01;  0.0000000E+00;  1.5345992E-02;0;  1.5205133E-02;  3.9870801E+04;  0.0000000E+00; -1.0517214E-01;  4.0000000E+04;  0.0000000E+00;  4.0013434E+04;  1.6301004E-02;  0.0000000E+00; -1.0958713E-03;  1.8235413E+03;
  5.1163703E-01;  9.9999998E-03;  2.5999257E-01;5613;  6.7193825E-03;  0.0000000E+00; -5.1491585E-04;  9.9845709E+02;  1.0000620E-01; -1.2782848E+03;3;  7.2291201E-01;  0.0000000E+00;  9.0997703E-03;0;  1.6127476E-02;  3.9856676E+04;  0.0000000E+00; -1.2095243E-01;  4.0000000E+04;  0.0000000E+00;  4.0015609E+04;  1.6949212E-02;  0.0000000E+00; -8.2173600E-04;  2.0739741E+03;
  5.1163691E-01;  9.9999998E-03;  2.6998985E-01;5614;  6.9783079E-03;  0.0000000E+00; -5.2535487E-04;  9.9832007E+02;  1.0000632E-01; -1.3918125E+03;3;  7.4010921E-01;  0.0000000E+00; -4.9328915E-04;0;  1.6948096E-02;  3.9844117E+04;  0.0000000E+00; -1.1862196E-01;  4.0000000E+04;  0.0000000E+00;  4.0017199E+04;  1.7546749E-02;  0.0000000E+00; -5.9865188E-04;  2.2881865E+03;
  5.1164967E-01;  9.9999998E-03;  2.7998716E-01;5615;  7.2022695E-03;  0.0000000E+00; -5.5677746E-04;  9.9819800E+02;  1.0000617E-01; -1.4929454E+03;3;  7.5553137E-01;  0.0000000E+00; -1.0353337E-02;0;  1.7421637E-02;  3.9832633E+04;  0.0000000E+00; -1.0181027E-01;  4.0000000E+04;  0.0000000E+00;  4.0018512E+04;  1.8094050E-02;  0.0000000E+00; -6.7241379E-04;  2.4677449E+03;
  5.1167202E-01;  9.9999998E-03;  2.8998435E-01;5616;  7.4067749E-03;  0.0000000E+00; -5.9659203E-04;  9.9808374E+02;  1.0000617E-01; -1.5876094E+03;3;  7.6764458E-01;  0.0000000E+00; -1.7788377E-02;0;  1.7607572E-02;  3.9822426E+04;  0.0000000E+00; -7.6138765E-02;  4.0000000E+04;  0.0000000E+00;  4.0019625E+04;  1.8597100E-02;  0.0000000E+00; -9.8952814E-04;  2.6310063E+03;
  5.1170772E-01;  9.9999998E-03;  2.9998147E-01;5617;  7.6132063E-03;  0.0000000E+00; -6.3364953E-04;  9.9797876E+02;  1.0000626E-01; -1.6745699E+03;3;  7.8097653E-01;  0.0000000E+00; -2.1351552E-02;0;  1.7714880E-02;  3.9813078E+04;  0.0000000E+00; -4.7238160E-02;  4.0000000E+04;  0.0000000E+00;  4.0020809E+04;  1.9066196E-02;  0.0000000E+00; -1.3513155E-03;  2.7769055E+03;
  5.2158809E-01;  9.9999998E-03;  2.3999403E-01;5672;  6.2510353E-03;  0.0000000E+00; -5.5828330E-04;  9.9868066E+02;  1.0001042E-01; -1.0930555E+03;3;  6.8000674E-01;  0.0000000E+00;  6.6427686E-03;0;  1.5198292E-02;  3.9872879E+04;  0.0000000E+00; -8.1917018E-02;  4.0000000E+04;  0.0000000E+00;  4.0013742E+04;  1.6617399E-02;  0.0000000E+00; -1.4191067E-03;  1.7855547E+03;
  5.2159762E-01;  9.9999998E-03;  2.4999243E-01;5673;  6.5207873E-03;  0.0000000E+00; -5.6254421E-04;  9.9850232E+02;  1.0001062E-01; -1.2408044E+03;3;  7.1172488E-01;  0.0000000E+00;  6.4404681E-03;0;  1.5983395E-02;  3.9856617E+04;  0.0000000E+00; -1.2324439E-01;  4.0000000E+04;  0.0000000E+00;  4.0015402E+04;  1.7263167E-02;  0.0000000E+00; -1.2797711E-03;  2.0385818E+03;
  5.2159601E-01;  9.9999998E-03;  2.5999016E-01;5674;  6.7835022E-03;  0.0000000E+00; -5.6738057E-04;  9.9833551E+02;  1.0001060E-01; -1.3790227E+03;3;  7.3880416E-01;  0.0000000E+00;  3.2835563E-03;0;  1.6769182E-02;  3.9841555E+04;  0.0000000E+00; -1.5454015E-01;  4.0000000E+04;  0.0000000E+00;  4.0017133E+04;  1.7873330E-02;  0.0000000E+00; -1.1041479E-03;  2.2918452E+03;
  5.2158785E-01;  9.9999998E-03;  2.6998779E-01;5675;  7.0153479E-03;  0.0000000E+00; -5.8635802E-04;  9.9818768E+02;  1.0001048E-01; -1.5014884E+03;3;  7.5757527E-01;  0.0000000E+00; -5.8708065E-03;0;  1.7394973E-02;  3.9828176E+04;  0.0000000E+00; -1.6605100E-01;  4.0000000E+04;  0.0000000E+00;  4.0018430E+04;  1.8440913E-02;  0.0000000E+00; -1.0459400E-03;  2.5123857E+03;
  5.2159238E-01;  9.9999998E-03;  2.7998528E-01;5676;  7.2174855E-03;  0.0000000E+00; -6.2012003E-04;  9.9805347E+02;  1.0001054E-01; -1.6126458E+03;3;  7.6523834E-01;  0.0000000E+00; -1.5838280E-02;0;  1.7738143E-02;  3.9815812E+04;  0.0000000E+00; -1.6196543E-01;  4.0000000E+04;  0.0000000E+00;  4.0020016E+04;  1.8968141E-02;  0.0000000E+00; -1.2299976E-03;  2.7064028E+03;
  5.2161485E-01;  9.9999998E-03;  2.8998265E-01;5677;  7.4124145E-03;  0.0000000E+00; -6.5649953E-04;  9.9793591E+02;  1.0001048E-01; -1.7100751E+03;3;  7.7624100E-01;  0.0000000E+00; -2.1182166E-02;0;  1.7915051E-02;  3.9805078E+04;  0.0000000E+00; -1.5269352E-01;  4.0000000E+04;  0.0000000E+00;  4.0021492E+04;  1.9462071E-02;  0.0000000E+00; -1.5470203E-03;  2.8747803E+03;
  5.2165478E-01;  9.9999998E-03;  2.9997984E-01;5678;  7.6140976E-03;  0.0000000E+00; -6.8860629E-04;  9.9782373E+02;  1.0001039E-01; -1.8030107E+03;3;  7.8954607E-01;  0.0000000E+00; -2.3466859E-02;0;  1.8092312E-02;  3.9794949E+04;  0.0000000E+00; -1.4480387E-01;  4.0000000E+04;  0.0000000E+00;  4.0022309E+04;  1.9932382E-02;  0.0000000E+00; -1.8400706E-03;  3.0331467E+03;
  5.3156281E-01;  9.9999998E-03;  2.3999093E-01;5733;  6.2989779E-03;  0.0000000E+00; -6.2363612E-04;  9.9859894E+02;  1.0001750E-01; -1.1607573E+03;3;  6.9431448E-01;  0.0000000E+00; -2.9096568E-03;0;  1.6143093E-02;  3.9859117E+04;  0.0000000E+00; -9.3944840E-02;  4.0000000E+04;  0.0000000E+00;  4.0014727E+04;  1.7802477E-02;  0.0000000E+00; -1.6593841E-03;  1.9716837E+03;
  5.3157437E-01;  9.9999998E-03;  2.4998955E-01;5734;  6.5629911E-03;  0.0000000E+00; -6.2405522E-04;  9.9840118E+02;  1.0001737E-01; -1.3246045E+03;3;  7.2503954E-01;  0.0000000E+00; -1.9222954E-03;0;  1.6859831E-02;  3.9841699E+04;  0.0000000E+00; -1.4716513E-01;  4.0000000E+04;  0.0000000E+00;  4.0016926E+04;  1.8433591E-02;  0.0000000E+00; -1.5737597E-03;  2.2445095E+03;
  5.3157294E-01;  9.9999998E-03;  2.5998771E-01;5735;  6.8048663E-03;  0.0000000E+00; -6.3316454E-04;  9.9822162E+02;  1.0001739E-01; -1.4733411E+03;3;  7.4822402E-01;  0.0000000E+00; -6.5724854E-03;0;  1.7515384E-02;  3.9825586E+04;  0.0000000E+00; -1.9006933E-01;  4.0000000E+04;  0.0000000E+00;  4.0018766E+04;  1.9036699E-02;  0.0000000E+00; -1.5213164E-03;  2.5037224E+03;
  5.3156197E-01;  9.9999998E-03;  2.6998565E-01;5736;  7.0153838E-03;  0.0000000E+00; -6.5738452E-04;  9.9806079E+02;  1.0001741E-01; -1.6066212E+03;3;  7.6300669E-01;  0.0000000E+00; -1.4093343E-02;0;  1.7979827E-02;  3.9810488E+04;  0.0000000E+00; -2.0780931E-01;  4.0000000E+04;  0.0000000E+00;  4.0020457E+04;  1.9605104E-02;  0.0000000E+00; -1.6252777E-03;  2.7342183E+03;
  5.3156483E-01;  9.9999998E-03;  2.7998340E-01;5737;  7.2040660E-03;  0.0000000E+00; -6.9044990E-04;  9.9791650E+02;  1.0001760E-01; -1.7261240E+03;3;  7.7100199E-01;  0.0000000E+00; -2.0346252E-02;0;  1.8238647E-02;  3.9797555E+04;  0.0000000E+00; -2.0535888E-01;  4.0000000E+04;  0.0000000E+00;  4.0021992E+04;  2.0140760E-02;  0.0000000E+00; -1.9021119E-03;  2.9391899E+03;
  5.3159082E-01;  9.9999998E-03;  2.8998098E-01;5738;  7.3908167E-03;  0.0000000E+00; -7.2127004E-04;  9.9779047E+02;  1.0001747E-01; -1.8305656E+03;3;  7.8288096E-01;  0.0000000E+00; -2.2839684E-02;0;  1.8451707E-02;  3.9785832E+04;  0.0000000E+00; -2.0408532E-01;  4.0000000E+04;  0.0000000E+00;  4.0023371E+04;  2.0649230E-02;  0.0000000E+00; -2.1975227E-03;  3.1210771E+03;
  5.3163660E-01;  9.9999998E-03;  2.9997838E-01;5739;  7.5861271E-03;  0.0000000E+00; -7.4759306E-04;  9.9767493E+02;  1.0001730E-01; -1.9262665E+03;3;  7.9597497E-01;  0.0000000E+00; -2.3426395E-02;0;  1.8724674E-02;  3.9775754E+04;  0.0000000E+00; -2.1707529E-01;  4.0000000E+04;  0.0000000E+00;  4.0024484E+04;  2.1137146E-02;  0.0000000E+00; -2.4124717E-03;  3.2889719E+03;
  5.4155630E-01;  9.9999998E-03;  2.3998971E-01;5794;  6.3401409E-03;  0.0000000E+00; -6.9363019E-04;  9.9856989E+02;  1.0002956E-01; -1.1848060E+03;3;  7.1089160E-01;  0.0000000E+00; -1.0436135E-02;0;  1.7213486E-02;  3.9846254E+04;  0.0000000E+00; -1.1192535E-01;  4.0000000E+04;  0.0000000E+00;  4.0015199E+04;  1.9147366E-02;  0.0000000E+00; -1.9338800E-03;  2.0556670E+03;
  5.4157549E-01;  9.9999998E-03;  2.4998787E-01;5795;  6.5906858E-03;  0.0000000E+00; -6.9133681E-04;  9.9836053E+02;  1.0002953E-01; -1.3582826E+03;3;  7.3690450E-01;  0.0000000E+00; -1.0930371E-02;0;  1.7877072E-02;  3.9827391E+04;  0.0000000E+00; -1.7398652E-01;  4.0000000E+04;  0.0000000E+00;  4.0017406E+04;  1.9798098E-02;  0.0000000E+00; -1.9210256E-03;  2.3485806E+03;
  5.4157746E-01;  9.9999998E-03;  2.5998598E-01;5796;  6.8122018E-03;  0.0000000E+00; -7.0323760E-04;  9.9816504E+02;  1.0002952E-01; -1.5202533E+03;3;  7.5350243E-01;  0.0000000E+00; -1.4889178E-02;0;  1.8433802E-02;  3.9809871E+04;  0.0000000E+00; -2.2334972E-01;  4.0000000E+04;  0.0000000E+00;  4.0019223E+04;  2.0428717E-02;  0.0000000E+00; -1.9949158E-03;  2.6250222E+03;
  5.4156739E-01;  9.9999998E-03;  2.6998407E-01;5797;  7.0058834E-03;  0.0000000E+00; -7.2956999E-04;  9.9798785E+02;  1.0002949E-01; -1.6670145E+03;3;  7.6674771E-01;  0.0000000E+00; -1.9589962E-02;0;  1.8792972E-02;  3.9794129E+04;  0.0000000E+00; -2.3895997E-01;  4.0000000E+04;  0.0000000E+00;  4.0021457E+04;  2.1031195E-02;  0.0000000E+00; -2.2382240E-03;  2.8732490E+03;
  5.4157072E-01;  9.9999998E-03;  2.7998206E-01;5798;  7.1855611E-03;  0.0000000E+00; -7.5853249E-04;  9.9783417E+02;  1.0002955E-01; -1.7943690E+03;3;  7.7359176E-01;  0.0000000E+00; -2.3239614E-02;0;  1.9041512E-02;  3.9779973E+04;  0.0000000E+00; -2.2733741E-01;  4.0000000E+04;  0.0000000E+00;  4.0022855E+04;  2.1604493E-02;  0.0000000E+00; -2.5629804E-03;  3.0897219E+03;
  5.4160261E-01;  9.9999998E-03;  2.8997990E-01;5799;  7.3628672E-03;  0.0000000E+00; -7.8404503E-04;  9.9770264E+02;  1.0002948E-01; -1.9033042E+03;3;  7.8701949E-01;  0.0000000E+00; -2.4011277E-02;0;  1.9313175E-02;  3.9767984E+04;  0.0000000E+00; -2.2927147E-01;  4.0000000E+04;  0.0000000E+00;  4.0024438E+04;  2.2150716E-02;  0.0000000E+00; -2.8375408E-03;  3.2814873E+03;
  5.4165733E-01;  9.9999998E-03;  2.9997763E-01;5800;  7.5504645E-03;  0.0000000E+00; -8.0583920E-04;  9.9759497E+02;  1.0002959E-01; -1.9925363E+03;3;  8.0074471E-01;  0.0000000E+00; -2.5001233E-02;0;  1.9679036E-02;  3.9757668E+04;  0.0000000E+00; -2.7157459E-01;  4.0000000E+04;  0.0000000E+00;  4.0025586E+04;  2.2670496E-02;  0.0000000E+00; -2.9914596E-03;  3.4453069E+03;
  5.5158311E-01;  9.9999998E-03;  2.3999077E-01;5855;  6.3993977E-03;  0.0000000E+00; -7.5485697E-04;  9.9861646E+02;  1.0004855E-01; -1.1462391E+03;3;  7.2450531E-01;  0.0000000E+00; -1.6291315E-02;0;  1.8403895E-02;  3.9834555E+04;  0.0000000E+00; -1.3390610E-01;  4.0000000E+04;  0.0000000E+00;  4.0014477E+04;  2.0582849E-02;  0.0000000E+00; -2.1789542E-03;  1.9872250E+03;
  5.5161428E-01;  9.9999998E-03;  2.4998759E-01;5856;  6.6356463E-03;  0.0000000E+00; -7.5162714E-04;  9.9839679E+02;  1.0004877E-01; -1.3282094E+03;3;  7.4771267E-01;  0.0000000E+00; -1.8538285E-02;0;  1.9049624E-02;  3.9814965E+04;  0.0000000E+00; -2.0437650E-01;  4.0000000E+04;  0.0000000E+00;  4.0016652E+04;  2.1285685E-02;  0.0000000E+00; -2.2360613E-03;  2.3106704E+03;
  5.5162299E-01;  9.9999998E-03;  2.5998533E-01;5857;  6.8389066E-03;  0.0000000E+00; -7.6475384E-04;  9.9819183E+02;  1.0004857E-01; -1.4980317E+03;3;  7.6125348E-01;  0.0000000E+00; -2.4038879E-02;0;  1.9568605E-02;  3.9796316E+04;  0.0000000E+00; -2.6072758E-01;  4.0000000E+04;  0.0000000E+00;  4.0018891E+04;  2.1975964E-02;  0.0000000E+00; -2.4073597E-03;  2.6068477E+03;
  5.5161613E-01;  9.9999998E-03;  2.6998341E-01;5858;  7.0169787E-03;  0.0000000E+00; -7.9051056E-04;  9.9800397E+02;  1.0004877E-01; -1.6536816E+03;3;  7.7261138E-01;  0.0000000E+00; -2.7008018E-02;0;  1.9905042E-02;  3.9779547E+04;  0.0000000E+00; -2.7486554E-01;  4.0000000E+04;  0.0000000E+00;  4.0020906E+04;  2.2642137E-02;  0.0000000E+00; -2.7370949E-03;  2.8730146E+03;
  5.5161804E-01;  9.9999998E-03;  2.7998167E-01;5859;  7.1865059E-03;  0.0000000E+00; -8.1759319E-04;  9.9784338E+02;  1.0004848E-01; -1.7867148E+03;3;  7.7886194E-01;  0.0000000E+00; -2.8719343E-02;0;  2.0161392E-02;  3.9764961E+04;  0.0000000E+00; -2.5101781E-01;  4.0000000E+04;  0.0000000E+00;  4.0023023E+04;  2.3277171E-02;  0.0000000E+00; -3.1157795E-03;  3.0997444E+03;
  5.5165291E-01;  9.9999998E-03;  2.8997988E-01;5860;  7.3574111E-03;  0.0000000E+00; -8.3950098E-04;  9.9770752E+02;  1.0004845E-01; -1.8992549E+03;3;  7.8996849E-01;  0.0000000E+00; -2.6664196E-02;0;  2.0495517E-02;  3.9752699E+04;  0.0000000E+00; -2.5559798E-01;  4.0000000E+04;  0.0000000E+00;  4.0024105E+04;  2.3877425E-02;  0.0000000E+00; -3.3819075E-03;  3.3008816E+03;
  5.5171394E-01;  9.9999998E-03;  2.9997802E-01;5861;  7.5442288E-03;  0.0000000E+00; -8.5872534E-04;  9.9760260E+02;  1.0004847E-01; -1.9862155E+03;3;  8.0527472E-01;  0.0000000E+00; -2.8492857E-02;0;  2.0932248E-02;  3.9743043E+04;  0.0000000E+00; -3.3541328E-01;  4.0000000E+04;  0.0000000E+00;  4.0025855E+04;  2.4434758E-02;  0.0000000E+00; -3.5025100E-03;  3.4701960E+03;
  5.6165397E-01;  9.9999998E-03;  2.3999374E-01;5916;  6.5070745E-03;  0.0000000E+00; -7.9447823E-04;  9.9874237E+02;  1.0007975E-01; -1.0419458E+03;3;  7.4452096E-01;  0.0000000E+00; -2.0442717E-02;0;  1.9666864E-02;  3.9821520E+04;  0.0000000E+00; -1.5999335E-01;  4.0000000E+04;  0.0000000E+00;  4.0012211E+04;  2.1998115E-02;  0.0000000E+00; -2.3312506E-03;  1.7527557E+03;
  5.6170160E-01;  9.9999998E-03;  2.4998865E-01;5917;  6.7291190E-03;  0.0000000E+00; -7.9117826E-04;  9.9851971E+02;  1.0007986E-01; -1.2263850E+03;3;  7.6267189E-01;  0.0000000E+00; -2.3635499E-02;0;  2.0353783E-02;  3.9801379E+04;  0.0000000E+00; -2.4649581E-01;  4.0000000E+04;  0.0000000E+00;  4.0015062E+04;  2.2777244E-02;  0.0000000E+00; -2.4234608E-03;  2.1116233E+03;
  5.6172389E-01;  9.9999998E-03;  2.5998574E-01;5918;  6.9226450E-03;  0.0000000E+00; -8.0350117E-04;  9.9830896E+02;  1.0007985E-01; -1.4009974E+03;3;  7.7232939E-01;  0.0000000E+00; -2.9139252E-02;0;  2.0922862E-02;  3.9782156E+04;  0.0000000E+00; -3.2790086E-01;  4.0000000E+04;  0.0000000E+00;  4.0017156E+04;  2.3548761E-02;  0.0000000E+00; -2.6259003E-03;  2.4390947E+03;
  5.6172019E-01;  9.9999998E-03;  2.6998389E-01;5919;  7.0969122E-03;  0.0000000E+00; -8.2751876E-04;  9.9811707E+02;  1.0007992E-01; -1.5599559E+03;3;  7.7918535E-01;  0.0000000E+00; -3.1400088E-02;0;  2.1324378E-02;  3.9764984E+04;  0.0000000E+00; -3.6406812E-01;  4.0000000E+04;  0.0000000E+00;  4.0019438E+04;  2.4295021E-02;  0.0000000E+00; -2.9706436E-03;  2.7254465E+03;
  5.6171948E-01;  9.9999998E-03;  2.7998242E-01;5920;  7.2621196E-03;  0.0000000E+00; -8.5502007E-04;  9.9794983E+02;  1.0007984E-01; -1.6985199E+03;3;  7.8982794E-01;  0.0000000E+00; -3.0405974E-02;0;  2.1623975E-02;  3.9749906E+04;  0.0000000E+00; -3.5240969E-01;  4.0000000E+04;  0.0000000E+00;  4.0021555E+04;  2.5003200E-02;  0.0000000E+00; -3.3792257E-03;  2.9681333E+03;
  5.6175613E-01;  9.9999998E-03;  2.8998119E-01;5921;  7.4402946E-03;  0.0000000E+00; -8.7875506E-04;  9.9782104E+02;  1.0007969E-01; -1.8052329E+03;3;  8.0586970E-01;  0.0000000E+00; -3.2625113E-02;0;  2.1976434E-02;  3.9738023E+04;  0.0000000E+00; -3.8748464E-01;  4.0000000E+04;  0.0000000E+00;  4.0023051E+04;  2.5660070E-02;  0.0000000E+00; -3.6836353E-03;  3.1692693E+03;
  5.6182224E-01;  9.9999998E-03;  2.9997993E-01;5922;  7.7614207E-03;  0.0000000E+00; -8.8995474E-04;  9.9772284E+02;  1.0007991E-01; -1.8865640E+03;3;  8.5550976E-01;  0.0000000E+00; -3.2563698E-02;0;  2.2565462E-02;  3.9729543E+04;  0.0000000E+00; -5.3561276E-01;  4.0000000E+04;  0.0000000E+00;  4.0024121E+04;  2.6227891E-02;  0.0000000E+00; -3.6624302E-03;  3.3510471E+03;
  5.7177466E-01;  9.9999998E-03;  2.3999766E-01;5977;  6.7043062E-03;  0.0000000E+00; -7.9324585E-04;  9.9893494E+02;  1.0013139E-01; -8.8239478E+02;3;  7.8176868E-01;  0.0000000E+00; -1.8285370E-02;0;  2.0964164E-02;  3.9798516E+04;  0.0000000E+00; -1.9394977E-01;  4.0000000E+04;  0.0000000E+00;  4.0008980E+04;  2.3260701E-02;  0.0000000E+00; -2.2965372E-03;  1.3821249E+03;
  5.7183623E-01;  9.9999998E-03;  2.4999067E-01;5978;  6.9169831E-03;  0.0000000E+00; -7.9560431E-04;  9.9871313E+02;  1.0013139E-01; -1.0661427E+03;3;  7.9168648E-01;  0.0000000E+00; -2.4482127E-02;0;  2.1741951E-02;  3.9778594E+04;  0.0000000E+00; -3.1244102E-01;  4.0000000E+04;  0.0000000E+00;  4.0011824E+04;  2.4123305E-02;  0.0000000E+00; -2.3813548E-03;  1.7794659E+03;
  5.7187533E-01;  9.9999998E-03;  2.5998724E-01;5979;  7.1175378E-03;  0.0000000E+00; -8.0821838E-04;  9.9850507E+02;  1.0013117E-01; -1.2385328E+03;3;  7.9384160E-01;  0.0000000E+00; -3.1653970E-02;0;  2.2436194E-02;  3.9759797E+04;  0.0000000E+00; -4.5378751E-01;  4.0000000E+04;  0.0000000E+00;  4.0014641E+04;  2.4976660E-02;  0.0000000E+00; -2.5404652E-03;  2.1534741E+03;
  5.7188267E-01;  9.9999998E-03;  2.6998556E-01;5980;  7.3111528E-03;  0.0000000E+00; -8.3451136E-04;  9.9831494E+02;  1.0013127E-01; -1.3960593E+03;3;  8.0087680E-01;  0.0000000E+00; -3.6630381E-02;0;  2.2940155E-02;  3.9742457E+04;  0.0000000E+00; -5.7308125E-01;  4.0000000E+04;  0.0000000E+00;  4.0016895E+04;  2.5797619E-02;  0.0000000E+00; -2.8574641E-03;  2.4855806E+03;
  5.7188445E-01;  9.9999998E-03;  2.7998465E-01;5981;  7.5364951E-03;  0.0000000E+00; -8.6672237E-04;  9.9815186E+02;  1.0013135E-01; -1.5311666E+03;3;  8.2540089E-01;  0.0000000E+00; -4.1223001E-02;0;  2.3278255E-02;  3.9727816E+04;  0.0000000E+00; -6.5337592E-01;  4.0000000E+04;  0.0000000E+00;  4.0018816E+04;  2.6558893E-02;  0.0000000E+00; -3.2806376E-03;  2.7585088E+03;
  5.7192063E-01;  9.9999998E-03;  2.8998414E-01;5982;  7.9917694E-03;  0.0000000E+00; -8.8042469E-04;  9.9802905E+02;  1.0013096E-01; -1.6328921E+03;3;  9.1295719E-01;  0.0000000E+00; -4.0473152E-02;0;  2.3815617E-02;  3.9716258E+04;  0.0000000E+00; -7.9682666E-01;  4.0000000E+04;  0.0000000E+00;  4.0020098E+04;  2.7200041E-02;  0.0000000E+00; -3.3844251E-03;  3.0002617E+03;
  5.7198590E-01;  9.9999998E-03;  2.9998368E-01;5983;  8.5536633E-03;  0.0000000E+00; -8.9680706E-04;  9.9794177E+02;  1.0013086E-01; -1.7051864E+03;3;  9.7834373E-01;  0.0000000E+00; -4.7475409E-02;0;  2.4315696E-02;  3.9708887E+04;  0.0000000E+00; -1.0794197E+00;  4.0000000E+04;  0.0000000E+00;  4.0021008E+04;  2.7726185E-02;  0.0000000E+00; -3.4104891E-03;  3.2685266E+03;
  5.8193183E-01;  9.9999998E-03;  2.4000004E-01;6038;  7.0505776E-03;  0.0000000E+00; -7.4482156E-04;  9.9911926E+02;  1.0021478E-01; -7.2965839E+02;3;  8.5460782E-01;  0.0000000E+00; -9.6808998E-03;0;  2.2204936E-02;  3.9750902E+04;  0.0000000E+00; -2.3697789E-01;  4.0000000E+04;  0.0000000E+00;  4.0005641E+04;  2.4244046E-02;  0.0000000E+00; -2.0391096E-03;  1.0042565E+03;
  5.8200610E-01;  9.9999998E-03;  2.4999236E-01;6039;  7.2930362E-03;  0.0000000E+00; -7.6057750E-04;  9.9890546E+02;  1.0021477E-01; -9.0678918E+02;3;  8.7299627E-01;  0.0000000E+00; -1.7438686E-02;0;  2.3095315E-02;  3.9731730E+04;  0.0000000E+00; -4.0528855E-01;  4.0000000E+04;  0.0000000E+00;  4.0008457E+04;  2.5168464E-02;  0.0000000E+00; -2.0731478E-03;  1.4381808E+03;
  5.8205539E-01;  9.9999998E-03;  2.5998914E-01;6040;  7.5965445E-03;  0.0000000E+00; -7.7358220E-04;  9.9871136E+02;  1.0021447E-01; -1.0676241E+03;3;  9.0924633E-01;  0.0000000E+00; -2.7806284E-02;0;  2.3964167E-02;  3.9713660E+04;  0.0000000E+00; -6.3546681E-01;  4.0000000E+04;  0.0000000E+00;  4.0010875E+04;  2.6058566E-02;  0.0000000E+00; -2.0943992E-03;  1.8849287E+03;
  5.8207673E-01;  9.9999998E-03;  2.6998812E-01;6041;  8.0249589E-03;  0.0000000E+00; -7.9039362E-04;  9.9853015E+02;  1.0021449E-01; -1.2177433E+03;3;  9.7504973E-01;  0.0000000E+00; -3.7024867E-02;0;  2.4734339E-02;  3.9697473E+04;  0.0000000E+00; -8.9926255E-01;  4.0000000E+04;  0.0000000E+00;  4.0013227E+04;  2.6872655E-02;  0.0000000E+00; -2.1383164E-03;  2.3299199E+03;
  5.8208549E-01;  9.9999998E-03;  2.7998817E-01;6042;  8.5010640E-03;  0.0000000E+00; -8.1765314E-04;  9.9837689E+02;  1.0021434E-01; -1.3447028E+03;3;  1.0226851E+00;  0.0000000E+00; -4.7437530E-02;0;  2.5298482E-02;  3.9683570E+04;  0.0000000E+00; -1.1672090E+00;  4.0000000E+04;  0.0000000E+00;  4.0015188E+04;  2.7605874E-02;  0.0000000E+00; -2.3073927E-03;  2.7390742E+03;
  5.8211279E-01;  9.9999998E-03;  2.8998858E-01;6043;  8.9653963E-03;  0.0000000E+00; -8.5605192E-04;  9.9825977E+02;  1.0021405E-01; -1.4417371E+03;3;  1.0744069E+00;  0.0000000E+00; -5.5609666E-02;0;  2.5595142E-02;  3.9673016E+04;  0.0000000E+00; -1.4898354E+00;  4.0000000E+04;  0.0000000E+00;  4.0016324E+04;  2.8253132E-02;  0.0000000E+00; -2.6579904E-03;  3.1602253E+03;
  5.8215654E-01;  9.9999998E-03;  2.9998899E-01;6044;  9.4259894E-03;  0.0000000E+00; -8.9447683E-04;  9.9818231E+02;  1.0021381E-01; -1.5059327E+03;3;  1.1305648E+00;  0.0000000E+00; -5.9780296E-02;0;  2.5791435E-02;  3.9666496E+04;  0.0000000E+00; -1.8968530E+00;  4.0000000E+04;  0.0000000E+00;  4.0017363E+04;  2.8795892E-02;  0.0000000E+00; -3.0044576E-03;  3.6383984E+03;
  5.9204900E-01;  9.9999998E-03;  2.3999812E-01;6099;  7.5919447E-03;  0.0000000E+00; -6.7162304E-04;  9.9920740E+02;  1.0034949E-01; -6.5667279E+02;3;  1.0024329E+00;  0.0000000E+00;  7.6945540E-03;0;  2.3218744E-02;  3.9655086E+04;  0.0000000E+00; -2.6257336E-01;  4.0000000E+04;  0.0000000E+00;  4.0002602E+04;  2.4876626E-02;  0.0000000E+00; -1.6578819E-03;  7.7326044E+02;
  5.9213167E-01;  9.9999998E-03;  2.4999207E-01;6100;  7.9550538E-03;  0.0000000E+00; -7.0092670E-04;  9.9901007E+02;  1.0034920E-01; -8.2012494E+02;3;  1.0617343E+00;  0.0000000E+00;  1.8290104E-03;0;  2.4213338E-02;  3.9637527E+04;  0.0000000E+00; -4.6474147E-01;  4.0000000E+04;  0.0000000E+00;  4.0005359E+04;  2.5805559E-02;  0.0000000E+00; -1.5922202E-03;  1.2225466E+03;
  5.9218973E-01;  9.9999998E-03;  2.5999039E-01;6101;  8.4278649E-03;  0.0000000E+00; -7.0736819E-04;  9.9883411E+02;  1.0034929E-01; -9.6589862E+02;3;  1.1094744E+00;  0.0000000E+00; -9.0287849E-03;0;  2.5320869E-02;  3.9620812E+04;  0.0000000E+00; -7.6255357E-01;  4.0000000E+04;  0.0000000E+00;  4.0007859E+04;  2.6672661E-02;  0.0000000E+00; -1.3517929E-03;  1.7382014E+03;
  5.9221953E-01;  9.9999998E-03;  2.6999089E-01;6102;  8.9261010E-03;  0.0000000E+00; -7.2173425E-04;  9.9866345E+02;  1.0034879E-01; -1.1073267E+03;3;  1.1498803E+00;  0.0000000E+00; -2.8383782E-02;0;  2.6356930E-02;  3.9605844E+04;  0.0000000E+00; -1.1407583E+00;  4.0000000E+04;  0.0000000E+00;  4.0010273E+04;  2.7476570E-02;  0.0000000E+00; -1.1196389E-03;  2.3140898E+03;
  5.9223551E-01;  9.9999998E-03;  2.7999237E-01;6103;  9.3774758E-03;  0.0000000E+00; -7.6743175E-04;  9.9852295E+02;  1.0034849E-01; -1.2237185E+03;3;  1.1894860E+00;  0.0000000E+00; -4.5993440E-02;0;  2.6909579E-02;  3.9593020E+04;  0.0000000E+00; -1.5791392E+00;  4.0000000E+04;  0.0000000E+00;  4.0011965E+04;  2.8217332E-02;  0.0000000E+00; -1.3077529E-03;  2.9234846E+03;
  5.9225780E-01;  9.9999998E-03;  2.8999400E-01;6104;  9.7788088E-03;  0.0000000E+00; -8.2738616E-04;  9.9841522E+02;  1.0034816E-01; -1.3129506E+03;3;  1.2320194E+00;  0.0000000E+00; -5.6759901E-02;0;  2.7026957E-02;  3.9583512E+04;  0.0000000E+00; -2.0825973E+00;  4.0000000E+04;  0.0000000E+00;  4.0013070E+04;  2.8880389E-02;  0.0000000E+00; -1.8534333E-03;  3.5932834E+03;
  5.9228730E-01;  9.9999998E-03;  2.9999551E-01;6105;  1.0152912E-02;  0.0000000E+00; -8.8336691E-04;  9.9834393E+02;  1.0034749E-01; -1.3720106E+03;3;  1.2749290E+00;  0.0000000E+00; -6.2715828E-02;0;  2.7015578E-02;  3.9577504E+04;  0.0000000E+00; -2.6379685E+00;  4.0000000E+04;  0.0000000E+00;  4.0014266E+04;  2.9450439E-02;  0.0000000E+00; -2.4348614E-03;  4.3181929E+03;
  6.0207605E-01;  9.9999998E-03;  2.3998988E-01;6160;  8.1785154E-03;  0.0000000E+00; -6.1588763E-04;  9.9913245E+02;  1.0056426E-01; -7.1874512E+02;3;  1.1540706E+00;  0.0000000E+00;  2.5654135E-02;0;  2.3904771E-02;  3.9482574E+04;  0.0000000E+00; -2.3513216E-01;  4.0000000E+04;  0.0000000E+00;  4.0001418E+04;  2.5250576E-02;  0.0000000E+00; -1.3458055E-03;  7.8814258E+02;
  6.0216272E-01;  9.9999998E-03;  2.4998860E-01;6161;  8.6052278E-03;  0.0000000E+00; -6.4992043E-04;  9.9894904E+02;  1.0056369E-01; -8.7069141E+02;3;  1.1995322E+00;  0.0000000E+00;  1.6923243E-02;0;  2.5009906E-02;  3.9466215E+04;  0.0000000E+00; -4.1994578E-01;  4.0000000E+04;  0.0000000E+00;  4.0003645E+04;  2.6163504E-02;  0.0000000E+00; -1.1535970E-03;  1.1886387E+03;
  6.0222292E-01;  9.9999998E-03;  2.5999025E-01;6162;  9.0935566E-03;  0.0000000E+00; -6.6062552E-04;  9.9878180E+02;  1.0056348E-01; -1.0092554E+03;3;  1.2487810E+00;  0.0000000E+00;  1.7277852E-03;0;  2.6250707E-02;  3.9451109E+04;  0.0000000E+00; -7.0347184E-01;  4.0000000E+04;  0.0000000E+00;  4.0006461E+04;  2.7017923E-02;  0.0000000E+00; -7.6721609E-04;  1.6828496E+03;
  6.0225570E-01;  9.9999998E-03;  2.6999342E-01;6163;  9.5756659E-03;  0.0000000E+00; -6.8095885E-04;  9.9862860E+02;  1.0056274E-01; -1.1361654E+03;3;  1.2905900E+00;  0.0000000E+00; -1.9481771E-02;0;  2.7402639E-02;  3.9437469E+04;  0.0000000E+00; -1.0797006E+00;  4.0000000E+04;  0.0000000E+00;  4.0008465E+04;  2.7812744E-02;  0.0000000E+00; -4.1010356E-04;  2.2437793E+03;
  6.0227531E-01;  9.9999998E-03;  2.7999702E-01;6164;  9.9896817E-03;  0.0000000E+00; -7.4031757E-04;  9.9849982E+02;  1.0056198E-01; -1.2428784E+03;3;  1.3240917E+00;  0.0000000E+00; -4.3368202E-02;0;  2.7936652E-02;  3.9426320E+04;  0.0000000E+00; -1.5366533E+00;  4.0000000E+04;  0.0000000E+00;  4.0010262E+04;  2.8552720E-02;  0.0000000E+00; -6.1606796E-04;  2.8657192E+03;
  6.0229462E-01;  9.9999998E-03;  2.9000029E-01;6165;  1.0352676E-02;  0.0000000E+00; -8.1634568E-04;  9.9839368E+02;  1.0056148E-01; -1.3308265E+03;3;  1.3567928E+00;  0.0000000E+00; -5.4606058E-02;0;  2.7916037E-02;  3.9417426E+04;  0.0000000E+00; -2.0547280E+00;  4.0000000E+04;  0.0000000E+00;  4.0011164E+04;  2.9225584E-02;  0.0000000E+00; -1.3095485E-03;  3.5576990E+03;
  6.0231704E-01;  9.9999998E-03;  3.0000305E-01;6166;  1.0697699E-02;  0.0000000E+00; -8.8416255E-04;  9.9831372E+02;  1.0056042E-01; -1.3970469E+03;3;  1.3855764E+00;  0.0000000E+00; -6.1435636E-02;0;  2.7778104E-02;  3.9411078E+04;  0.0000000E+00; -2.6017649E+00;  4.0000000E+04;  0.0000000E+00;  4.0012570E+04;  2.9820058E-02;  0.0000000E+00; -2.0419538E-03;  4.2869810E+03;
  6.1203778E-01;  9.9999998E-03;  2.3997658E-01;6221;  8.6296350E-03;  0.0000000E+00; -5.9372268E-04;  9.9888342E+02;  1.0089970E-01; -9.2506024E+02;3;  1.2400608E+00;  0.0000000E+00;  2.7974322E-02;0;  2.4390372E-02;  3.9202262E+04;  0.0000000E+00; -1.5272474E-01;  4.0000000E+04;  0.0000000E+00;  4.0001992E+04;  2.5569160E-02;  0.0000000E+00; -1.1787876E-03;  1.1143860E+03;
  6.1212200E-01;  9.9999998E-03;  2.4998292E-01;6222;  9.0683997E-03;  0.0000000E+00; -6.3229987E-04;  9.9870801E+02;  1.0089895E-01; -1.0703895E+03;3;  1.2942909E+00;  0.0000000E+00;  2.0580068E-02;0;  2.5536979E-02;  3.9186977E+04;  0.0000000E+00; -2.7385837E-01;  4.0000000E+04;  0.0000000E+00;  4.0003949E+04;  2.6458209E-02;  0.0000000E+00; -9.2123018E-04;  1.4158558E+03;
  6.1218244E-01;  9.9999998E-03;  2.5998974E-01;6223;  9.5447339E-03;  0.0000000E+00; -6.4688589E-04;  9.9855481E+02;  1.0089819E-01; -1.1972994E+03;3;  1.3470165E+00;  0.0000000E+00;  7.5198635E-03;0;  2.6830588E-02;  3.9173367E+04;  0.0000000E+00; -4.7692484E-01;  4.0000000E+04;  0.0000000E+00;  4.0006191E+04;  2.7293423E-02;  0.0000000E+00; -4.6283589E-04;  1.7925070E+03;
  6.1221743E-01;  9.9999998E-03;  2.6999658E-01;6224;  9.9907154E-03;  0.0000000E+00; -6.7513972E-04;  9.9841254E+02;  1.0089751E-01; -1.3151727E+03;3;  1.3822252E+00;  0.0000000E+00; -1.6109094E-02;0;  2.7993606E-02;  3.9160980E+04;  0.0000000E+00; -7.6055372E-01;  4.0000000E+04;  0.0000000E+00;  4.0008254E+04;  2.8078225E-02;  0.0000000E+00; -8.4617248E-05;  2.2095742E+03;
  6.1223662E-01;  9.9999998E-03;  2.8000280E-01;6225;  1.0374426E-02;  0.0000000E+00; -7.4292783E-04;  9.9828204E+02;  1.0089610E-01; -1.4233177E+03;3;  1.4039166E+00;  0.0000000E+00; -4.0472757E-02;0;  2.8498260E-02;  3.9150523E+04;  0.0000000E+00; -1.1092252E+00;  4.0000000E+04;  0.0000000E+00;  4.0009934E+04;  2.8815212E-02;  0.0000000E+00; -3.1695218E-04;  2.6653257E+03;
  6.1225146E-01;  9.9999998E-03;  2.9000801E-01;6226;  1.0727180E-02;  0.0000000E+00; -8.2556828E-04;  9.9816931E+02;  1.0089499E-01; -1.5166979E+03;3;  1.4242184E+00;  0.0000000E+00; -5.5191297E-02;0;  2.8443957E-02;  3.9142148E+04;  0.0000000E+00; -1.4919769E+00;  4.0000000E+04;  0.0000000E+00;  4.0011297E+04;  2.9496001E-02;  0.0000000E+00; -1.0520444E-03;  3.1544800E+03;
  6.1226618E-01;  9.9999998E-03;  3.0001220E-01;6227;  1.1084918E-02;  0.0000000E+00; -8.9761481E-04;  9.9807489E+02;  1.0089329E-01; -1.5949178E+03;3;  1.4483341E+00;  0.0000000E+00; -6.2239081E-02;0;  2.8293360E-02;  3.9135352E+04;  0.0000000E+00; -1.8582507E+00;  4.0000000E+04;  0.0000000E+00;  4.0012480E+04;  3.0114342E-02;  0.0000000E+00; -1.8209821E-03;  3.6298298E+03;
  6.2195182E-01;  9.9999998E-03;  2.3996383E-01;6282;  8.9231376E-03;  0.0000000E+00; -6.1175512E-04;  9.9856293E+02;  1.0140960E-01; -1.1905836E+03;3;  1.3160678E+00;  0.0000000E+00;  2.6645312E-02;0;  2.4823593E-02;  3.8785008E+04;  0.0000000E+00; -2.9890954E-02;  4.0000000E+04;  0.0000000E+00;  4.0003191E+04;  2.6019722E-02;  0.0000000E+00; -1.1961288E-03;  1.6714321E+03;
  6.2202942E-01;  9.9999998E-03;  2.4997897E-01;6283;  9.3505643E-03;  0.0000000E+00; -6.5783696E-04;  9.9838281E+02;  1.0140868E-01; -1.3398140E+03;3;  1.3651388E+00;  0.0000000E+00;  1.7447138E-02;0;  2.5917077E-02;  3.8770551E+04;  0.0000000E+00; -6.6518597E-02;  4.0000000E+04;  0.0000000E+00;  4.0004570E+04;  2.6883092E-02;  0.0000000E+00; -9.6601446E-04;  1.8967145E+03;
  6.2208527E-01;  9.9999998E-03;  2.5999159E-01;6284;  9.7994618E-03;  0.0000000E+00; -6.7746371E-04;  9.9822821E+02;  1.0140751E-01; -1.4679091E+03;3;  1.4028760E+00;  0.0000000E+00;  9.4883906E-04;0;  2.7161215E-02;  3.8757414E+04;  0.0000000E+00; -1.5951367E-01;  4.0000000E+04;  0.0000000E+00;  4.0006590E+04;  2.7702870E-02;  0.0000000E+00; -5.4165494E-04;  2.1780200E+03;
  6.2211823E-01;  9.9999998E-03;  2.7000242E-01;6285;  1.0217080E-02;  0.0000000E+00; -7.1164279E-04;  9.9808264E+02;  1.0140579E-01; -1.5884983E+03;3;  1.4228702E+00;  0.0000000E+00; -2.4678236E-02;0;  2.8253350E-02;  3.8745785E+04;  0.0000000E+00; -3.1270555E-01;  4.0000000E+04;  0.0000000E+00;  4.0008582E+04;  2.8481070E-02;  0.0000000E+00; -2.2771908E-04;  2.4607361E+03;
  6.2213379E-01;  9.9999998E-03;  2.8001145E-01;6286;  1.0585193E-02;  0.0000000E+00; -7.8173960E-04;  9.9794653E+02;  1.0140418E-01; -1.7012358E+03;3;  1.4435955E+00;  0.0000000E+00; -4.5067746E-02;0;  2.8723419E-02;  3.8735348E+04;  0.0000000E+00; -5.0605524E-01;  4.0000000E+04;  0.0000000E+00;  4.0010297E+04;  2.9220922E-02;  0.0000000E+00; -4.9750286E-04;  2.7332087E+03;
  6.2214392E-01;  9.9999998E-03;  2.9001868E-01;6287;  1.0943376E-02;  0.0000000E+00; -8.6203031E-04;  9.9782330E+02;  1.0140157E-01; -1.8033564E+03;3;  1.4627342E+00;  0.0000000E+00; -5.9878189E-02;0;  2.8727014E-02;  3.8726543E+04;  0.0000000E+00; -7.0404255E-01;  4.0000000E+04;  0.0000000E+00;  4.0011566E+04;  2.9918225E-02;  0.0000000E+00; -1.1912123E-03;  2.9949954E+03;
  6.2215209E-01;  9.9999998E-03;  3.0002424E-01;6288;  1.1338593E-02;  0.0000000E+00; -9.2867151E-04;  9.9770215E+02;  1.0139902E-01; -1.9037487E+03;3;  1.4850800E+00;  0.0000000E+00; -6.6955842E-02;0;  2.8716194E-02;  3.8718855E+04;  0.0000000E+00; -8.5205573E-01;  4.0000000E+04;  0.0000000E+00;  4.0012887E+04;  3.0568112E-02;  0.0000000E+00; -1.8519188E-03;  3.2303423E+03;
  6.3181376E-01;  9.9999998E-03;  2.3995945E-01;6343;  9.0704542E-03;  0.0000000E+00; -6.7662494E-04;  9.9832672E+02;  1.0215342E-01; -1.3862817E+03;3;  1.3511823E+00;  0.0000000E+00;  1.1269049E-02;0;  2.5314340E-02;  3.8206141E+04;  0.0000000E+00;  1.0416658E-01;  4.0000000E+04;  0.0000000E+00;  4.0001961E+04;  2.6749838E-02;  0.0000000E+00; -1.4354985E-03;  2.2125723E+03;
  6.3187844E-01;  9.9999998E-03;  2.4998243E-01;6344;  9.4879512E-03;  0.0000000E+00; -7.2072219E-04;  9.9813678E+02;  1.0215217E-01; -1.5436600E+03;3;  1.3989440E+00;  0.0000000E+00;  3.0389915E-03;0;  2.6337629E-02;  3.8191246E+04;  0.0000000E+00;  1.3493553E-01;  4.0000000E+04;  0.0000000E+00;  4.0003312E+04;  2.7594158E-02;  0.0000000E+00; -1.2565297E-03;  2.3933899E+03;
  6.3192379E-01;  9.9999998E-03;  2.5999999E-01;6345;  9.9099539E-03;  0.0000000E+00; -7.4515451E-04;  9.9796649E+02;  1.0215039E-01; -1.6847424E+03;3;  1.4319820E+00;  0.0000000E+00; -1.2437044E-02;0;  2.7464410E-02;  3.8178055E+04;  0.0000000E+00;  1.1616761E-01;  4.0000000E+04;  0.0000000E+00;  4.0005141E+04;  2.8411135E-02;  0.0000000E+00; -9.4672397E-04;  2.6430173E+03;
  6.3194913E-01;  9.9999998E-03;  2.7001414E-01;6346;  1.0292571E-02;  0.0000000E+00; -7.8899623E-04;  9.9780420E+02;  1.0214785E-01; -1.8191584E+03;3;  1.4509336E+00;  0.0000000E+00; -3.4484312E-02;0;  2.8368389E-02;  3.8165992E+04;  0.0000000E+00;  3.8156211E-02;  4.0000000E+04;  0.0000000E+00;  4.0007324E+04;  2.9200815E-02;  0.0000000E+00; -8.3242607E-04;  2.8878745E+03;
  6.3195825E-01;  9.9999998E-03;  2.8002554E-01;6347;  1.0646620E-02;  0.0000000E+00; -8.5701147E-04;  9.9765430E+02;  1.0214505E-01; -1.9433524E+03;3;  1.4659942E+00;  0.0000000E+00; -5.1583398E-02;0;  2.8793328E-02;  3.8155578E+04;  0.0000000E+00; -8.1828110E-02;  4.0000000E+04;  0.0000000E+00;  4.0008871E+04;  2.9962759E-02;  0.0000000E+00; -1.1694313E-03;  3.1093306E+03;
  6.3196105E-01;  9.9999998E-03;  2.9003438E-01;6348;  1.1011146E-02;  0.0000000E+00; -9.2875352E-04;  9.9750293E+02;  1.0214166E-01; -2.0687810E+03;3;  1.4917042E+00;  0.0000000E+00; -6.1346836E-02;0;  2.8911732E-02;  3.8145598E+04;  0.0000000E+00; -1.9144551E-01;  4.0000000E+04;  0.0000000E+00;  4.0010570E+04;  3.0696308E-02;  0.0000000E+00; -1.7845754E-03;  3.3322126E+03;
  6.3195878E-01;  9.9999998E-03;  3.0004114E-01;6349;  1.1438956E-02;  0.0000000E+00; -9.8466233E-04;  9.9734924E+02;  1.0213718E-01; -2.1960859E+03;3;  1.5232400E+00;  0.0000000E+00; -6.6751823E-02;0;  2.9127680E-02;  3.8136613E+04;  0.0000000E+00; -2.1372388E-01;  4.0000000E+04;  0.0000000E+00;  4.0012105E+04;  3.1397298E-02;  0.0000000E+00; -2.2696191E-03;  3.5400029E+03;
  6.4164710E-01;  9.9999998E-03;  2.3997208E-01;6404;  9.1158440E-03;  0.0000000E+00; -7.8553439E-04;  9.9834344E+02;  1.0318413E-01; -1.3724056E+03;3;  1.3856430E+00;  0.0000000E+00; -4.5343870E-03;0;  2.5947759E-02;  3.7450918E+04;  0.0000000E+00;  1.9256908E-01;  4.0000000E+04;  0.0000000E+00;  3.9997059E+04;  2.7842086E-02;  0.0000000E+00; -1.8943262E-03;  2.4236162E+03;
  6.4169419E-01;  9.9999998E-03;  2.4999888E-01;6405;  9.5175384E-03;  0.0000000E+00; -8.2214962E-04;  9.9812848E+02;  1.0318229E-01; -1.5505240E+03;3;  1.4196813E+00;  0.0000000E+00; -1.4980404E-02;0;  2.6877938E-02;  3.7435238E+04;  0.0000000E+00;  2.1017541E-01;  4.0000000E+04;  0.0000000E+00;  3.9998195E+04;  2.8688977E-02;  0.0000000E+00; -1.8110381E-03;  2.5881663E+03;
  6.4172524E-01;  9.9999998E-03;  2.6001897E-01;6406;  9.9148722E-03;  0.0000000E+00; -8.4841251E-04;  9.9793396E+02;  1.0317974E-01; -1.7116553E+03;3;  1.4432759E+00;  0.0000000E+00; -2.7647808E-02;0;  2.7852293E-02;  3.7420594E+04;  0.0000000E+00;  1.2502186E-01;  4.0000000E+04;  0.0000000E+00;  3.9999934E+04;  2.9526576E-02;  0.0000000E+00; -1.6742833E-03;  2.8175691E+03;
  6.4174020E-01;  9.9999998E-03;  2.7003485E-01;6407;  1.0276273E-02;  0.0000000E+00; -8.9247321E-04;  9.9774518E+02;  1.0317664E-01; -1.8680953E+03;3;  1.4626925E+00;  0.0000000E+00; -4.4968136E-02;0;  2.8618529E-02;  3.7407855E+04;  0.0000000E+00; -9.3051627E-02;  4.0000000E+04;  0.0000000E+00;  4.0001824E+04;  3.0351570E-02;  0.0000000E+00; -1.7330397E-03;  3.0751211E+03;
  6.4174324E-01;  9.9999998E-03;  2.8004751E-01;6408;  1.0614549E-02;  0.0000000E+00; -9.5580536E-04;  9.9756506E+02;  1.0317304E-01; -2.0172762E+03;3;  1.4801540E+00;  0.0000000E+00; -5.8186673E-02;0;  2.9007642E-02;  3.7395945E+04;  0.0000000E+00; -4.2533681E-01;  4.0000000E+04;  0.0000000E+00;  4.0003781E+04;  3.1163195E-02;  0.0000000E+00; -2.1555535E-03;  3.3839792E+03;
  6.4174098E-01;  9.9999998E-03;  2.9005739E-01;6409;  1.0969657E-02;  0.0000000E+00; -1.0182309E-03;  9.9738220E+02;  1.0316797E-01; -2.1687781E+03;3;  1.5060862E+00;  0.0000000E+00; -6.5688513E-02;0;  2.9245086E-02;  3.7385164E+04;  0.0000000E+00; -7.8160328E-01;  4.0000000E+04;  0.0000000E+00;  4.0005609E+04;  3.1960152E-02;  0.0000000E+00; -2.7150651E-03;  3.7659368E+03;
  6.4173114E-01;  9.9999998E-03;  3.0006498E-01;6410;  1.1401750E-02;  0.0000000E+00; -1.0636125E-03;  9.9719763E+02;  1.0316148E-01; -2.3217122E+03;3;  1.5475957E+00;  0.0000000E+00; -6.8807878E-02;0;  2.9691866E-02;  3.7375527E+04;  0.0000000E+00; -1.0245446E+00;  4.0000000E+04;  0.0000000E+00;  4.0007703E+04;  3.2735411E-02;  0.0000000E+00; -3.0435456E-03;  4.1284722E+03;
  6.5156877E-01;  9.9999998E-03;  3.0009672E-01;6471;  1.1363315E-02;  0.0000000E+00; -1.1477603E-03;  9.9729169E+02;  1.0450038E-01; -2.2437883E+03;3;  1.5668137E+00;  0.0000000E+00; -7.4721657E-02;0;  3.0776273E-02;  3.6435055E+04;  0.0000000E+00; -3.8636174E+00;  4.0000000E+04;  0.0000000E+00;  3.9998520E+04;  3.4646045E-02;  0.0000000E+00; -3.8697724E-03;  7.0727690E+03;
  6.5156472E-01;  9.9999998E-03;  2.9008853E-01;6470;  1.0920964E-02;  0.0000000E+00; -1.1094556E-03;  9.9750000E+02;  1.0450910E-01; -2.0712007E+03;3;  1.5196860E+00;  0.0000000E+00; -6.9485843E-02;0;  3.0129146E-02;  3.6444855E+04;  0.0000000E+00; -2.9824505E+00;  4.0000000E+04;  0.0000000E+00;  3.9996168E+04;  3.3775173E-02;  0.0000000E+00; -3.6460282E-03;  5.7965176E+03;
  6.5155745E-01;  9.9999998E-03;  2.8007826E-01;6469;  1.0567325E-02;  0.0000000E+00; -1.0579865E-03;  9.9771045E+02;  1.0451502E-01; -1.8968352E+03;3;  1.4880276E+00;  0.0000000E+00; -6.5457411E-02;0;  2.9711353E-02;  3.6456941E+04;  0.0000000E+00; -1.9352926E+00;  4.0000000E+04;  0.0000000E+00;  3.9994211E+04;  3.2885529E-02;  0.0000000E+00; -3.1741762E-03;  4.3994951E+03;
  6.5155119E-01;  9.9999998E-03;  2.7006561E-01;6468;  1.0240013E-02;  0.0000000E+00; -1.0010874E-03;  9.9792749E+02;  1.0452000E-01; -1.7170378E+03;3;  1.4705763E+00;  0.0000000E+00; -5.6333743E-02;0;  2.9300511E-02;  3.6470457E+04;  0.0000000E+00; -9.8735857E-01;  4.0000000E+04;  0.0000000E+00;  3.9991500E+04;  3.1990662E-02;  0.0000000E+00; -2.6901523E-03;  3.2993445E+03;
  6.5154505E-01;  9.9999998E-03;  2.6004991E-01;6467;  9.8997448E-03;  0.0000000E+00; -9.5722097E-04;  9.9814343E+02;  1.0452373E-01; -1.5381294E+03;3;  1.4515003E+00;  0.0000000E+00; -4.3876246E-02;0;  2.8636599E-02;  3.6485348E+04;  0.0000000E+00; -3.0961868E-01;  4.0000000E+04;  0.0000000E+00;  3.9989637E+04;  3.1096322E-02;  0.0000000E+00; -2.4597228E-03;  2.6786035E+03;
  6.5153432E-01;  9.9999998E-03;  2.5003058E-01;6466;  9.5296241E-03;  0.0000000E+00; -9.3070348E-04;  9.9837592E+02;  1.0452656E-01; -1.3455422E+03;3;  1.4347750E+00;  0.0000000E+00; -2.8995480E-02;0;  2.7774077E-02;  3.6501285E+04;  0.0000000E+00;  6.0446762E-02;  4.0000000E+04;  0.0000000E+00;  3.9987766E+04;  3.0205440E-02;  0.0000000E+00; -2.4313633E-03;  2.3608896E+03;
  6.5151280E-01;  9.9999998E-03;  2.4000524E-01;6465;  9.1441451E-03;  0.0000000E+00; -9.0348092E-04;  9.9861920E+02;  1.0452793E-01; -1.1439677E+03;3;  1.4029016E+00;  0.0000000E+00; -2.1068700E-02;0;  2.6904222E-02;  3.6518406E+04;  0.0000000E+00;  1.8592280E-01;  4.0000000E+04;  0.0000000E+00;  3.9986391E+04;  2.9323135E-02;  0.0000000E+00; -2.4189125E-03;  2.1880381E+03;
  6.6164899E-01;  9.9999998E-03;  3.0013561E-01;6532;  1.1698619E-02;  0.0000000E+00; -1.1963118E-03;  9.9748010E+02;  1.0615198E-01; -2.0876941E+03;3;  1.6682839E+00;  0.0000000E+00; -7.6039545E-02;0;  3.3180397E-02;  3.5328203E+04;  0.0000000E+00; -7.7976985E+00;  4.0000000E+04;  0.0000000E+00;  3.9986016E+04;  3.7221663E-02;  0.0000000E+00; -4.0412657E-03;  1.2887602E+04;
  6.6157353E-01;  9.9999998E-03;  2.4005452E-01;6526;  9.2402603E-03;  0.0000000E+00; -9.9987688E-04;  9.9895441E+02;  1.0617972E-01; -8.6624713E+02;3;  1.4233797E+00;  0.0000000E+00; -3.5164952E-02;0;  2.8344026E-02;  3.5418934E+04;  0.0000000E+00;  1.1794725E-01;  4.0000000E+04;  0.0000000E+00;  3.9972258E+04;  3.1217050E-02;  0.0000000E+00; -2.8730235E-03;  1.7249286E+03;
  6.6158617E-01;  9.9999998E-03;  2.9012695E-01;6531;  1.1016486E-02;  0.0000000E+00; -1.1852789E-03;  9.9770398E+02;  1.0616223E-01; -1.9022178E+03;3;  1.5534157E+00;  0.0000000E+00; -7.1451843E-02;0;  3.1896405E-02;  3.5337434E+04;  0.0000000E+00; -6.2272520E+00;  4.0000000E+04;  0.0000000E+00;  3.9983656E+04;  3.6196627E-02;  0.0000000E+00; -4.3002204E-03;  1.0451429E+04;
  6.6157621E-01;  9.9999998E-03;  2.5007439E-01;6527;  9.6018286E-03;  0.0000000E+00; -1.0190184E-03;  9.9868219E+02;  1.0617909E-01; -1.0917716E+03;3;  1.4534328E+00;  0.0000000E+00; -4.0406637E-02;0;  2.9240206E-02;  3.5399758E+04;  0.0000000E+00; -2.3959479E-01;  4.0000000E+04;  0.0000000E+00;  3.9974285E+04;  3.2179419E-02;  0.0000000E+00; -2.9392138E-03;  2.0348849E+03;
  6.6152924E-01;  9.9999998E-03;  2.7010483E-01;6529;  1.0258778E-02;  0.0000000E+00; -1.0943570E-03;  9.9818695E+02;  1.0617333E-01; -1.5020809E+03;3;  1.4824117E+00;  0.0000000E+00; -6.2337227E-02;0;  3.0689470E-02;  3.5366027E+04;  0.0000000E+00; -2.4540019E+00;  4.0000000E+04;  0.0000000E+00;  3.9978598E+04;  3.4156699E-02;  0.0000000E+00; -3.4672287E-03;  4.7542241E+03;
  6.6154635E-01;  9.9999998E-03;  2.6009089E-01;6528;  9.9353213E-03;  0.0000000E+00; -1.0497050E-03;  9.9843500E+02;  1.0617708E-01; -1.2965559E+03;3;  1.4691826E+00;  0.0000000E+00; -5.2122273E-02;0;  3.0047683E-02;  3.5382574E+04;  0.0000000E+00; -1.0665673E+00;  4.0000000E+04;  0.0000000E+00;  3.9976402E+04;  3.3158042E-02;  0.0000000E+00; -3.1103578E-03;  2.8898843E+03;
  6.6154736E-01;  9.9999998E-03;  2.8011677E-01;6530;  1.0599599E-02;  0.0000000E+00; -1.1444169E-03;  9.9794073E+02;  1.0616936E-01; -1.7060752E+03;3;  1.5049727E+00;  0.0000000E+00; -6.7771316E-02;0;  3.1219587E-02;  3.5350562E+04;  0.0000000E+00; -4.2732806E+00;  4.0000000E+04;  0.0000000E+00;  3.9981398E+04;  3.5173956E-02;  0.0000000E+00; -3.9543691E-03;  7.4561812E+03;
  6.7159355E-01;  9.9999998E-03;  2.4011160E-01;6587;  9.4138803E-03;  0.0000000E+00; -1.0672926E-03;  9.9914526E+02;  1.0811506E-01; -7.0812811E+02;3;  1.4520128E+00;  0.0000000E+00; -4.3724366E-02;0;  3.0224714E-02;  3.4178723E+04;  0.0000000E+00; -7.3480323E-02;  4.0000000E+04;  0.0000000E+00;  3.9957219E+04;  3.3443391E-02;  0.0000000E+00; -3.2186760E-03;  1.3765017E+03;
  6.7160428E-01;  9.9999998E-03;  2.5012484E-01;6588;  9.7447708E-03;  0.0000000E+00; -1.0856504E-03;  9.9886023E+02;  1.0811606E-01; -9.4426959E+02;3;  1.4758182E+00;  0.0000000E+00; -5.0944123E-02;0;  3.1210270E-02;  3.4158703E+04;  0.0000000E+00; -7.5309783E-01;  4.0000000E+04;  0.0000000E+00;  3.9959785E+04;  3.4534879E-02;  0.0000000E+00; -3.3246083E-03;  2.1977019E+03;
  6.7162460E-01;  9.9999998E-03;  2.6013750E-01;6589;  1.0055586E-02;  0.0000000E+00; -1.1176172E-03;  9.9858099E+02;  1.0811608E-01; -1.1756211E+03;3;  1.4932653E+00;  0.0000000E+00; -5.9989471E-02;0;  3.2112602E-02;  3.4138703E+04;  0.0000000E+00; -2.0580127E+00;  4.0000000E+04;  0.0000000E+00;  3.9962281E+04;  3.5663635E-02;  0.0000000E+00; -3.5510317E-03;  4.1026777E+03;
  6.7168289E-01;  9.9999998E-03;  2.7014944E-01;6590;  1.0378241E-02;  0.0000000E+00; -1.1621930E-03;  9.9830261E+02;  1.0811607E-01; -1.4062318E+03;3;  1.5170275E+00;  0.0000000E+00; -6.8653829E-02;0;  3.2884210E-02;  3.4118332E+04;  0.0000000E+00; -4.0388169E+00;  4.0000000E+04;  0.0000000E+00;  3.9964980E+04;  3.6830042E-02;  0.0000000E+00; -3.9458317E-03;  7.2097808E+03;
  6.7177463E-01;  9.9999998E-03;  2.8016058E-01;6591;  1.0788346E-02;  0.0000000E+00; -1.2056067E-03;  9.9803339E+02;  1.0811489E-01; -1.6292872E+03;3;  1.5548258E+00;  0.0000000E+00; -7.5550422E-02;0;  3.3674370E-02;  3.4099648E+04;  0.0000000E+00; -6.5127463E+00;  4.0000000E+04;  0.0000000E+00;  3.9967500E+04;  3.8030602E-02;  0.0000000E+00; -4.3562329E-03;  1.1163698E+04;
  6.7190343E-01;  9.9999998E-03;  2.9017073E-01;6592;  1.1452857E-02;  0.0000000E+00; -1.2328519E-03;  9.9777802E+02;  1.0810889E-01; -1.8408862E+03;3;  1.6774487E+00;  0.0000000E+00; -7.5894929E-02;0;  3.4809671E-02;  3.4085559E+04;  0.0000000E+00; -8.9417801E+00;  4.0000000E+04;  0.0000000E+00;  3.9970285E+04;  3.9272200E-02;  0.0000000E+00; -4.4625308E-03;  1.5050792E+04;
  6.7209131E-01;  9.9999998E-03;  3.0018008E-01;6593;  1.2639972E-02;  0.0000000E+00; -1.2284749E-03;  9.9753674E+02;  1.0809863E-01; -2.0407817E+03;3;  1.8453400E+00;  0.0000000E+00; -9.3903832E-02;0;  3.6695328E-02;  3.4076055E+04;  0.0000000E+00; -1.0446458E+01;  4.0000000E+04;  0.0000000E+00;  3.9972141E+04;  4.0571798E-02;  0.0000000E+00; -3.8764684E-03;  1.7424027E+04;
  6.8186879E-01;  9.9999998E-03;  2.4016887E-01;6648;  9.6596973E-03;  0.0000000E+00; -1.1082253E-03;  9.9904590E+02;  1.1032353E-01; -7.9044678E+02;3;  1.5017543E+00;  0.0000000E+00; -3.9974540E-02;0;  3.2540213E-02;  3.2823449E+04;  0.0000000E+00; -2.6118454E-01;  4.0000000E+04;  0.0000000E+00;  3.9942941E+04;  3.5998665E-02;  0.0000000E+00; -3.4584503E-03;  1.4950677E+03;
  6.8187064E-01;  9.9999998E-03;  2.5017720E-01;6649;  9.9493014E-03;  0.0000000E+00; -1.1339331E-03;  9.9877710E+02;  1.1033116E-01; -1.0131566E+03;3;  1.5196588E+00;  0.0000000E+00; -4.9231175E-02;0;  3.3652067E-02;  3.2801219E+04;  0.0000000E+00; -1.2451030E+00;  4.0000000E+04;  0.0000000E+00;  3.9946023E+04;  3.7253533E-02;  0.0000000E+00; -3.6014656E-03;  2.9502415E+03;
  6.8193799E-01;  9.9999998E-03;  2.6018721E-01;6650;  1.0252127E-02;  0.0000000E+00; -1.1683528E-03;  9.9849976E+02;  1.1034176E-01; -1.2429279E+03;3;  1.5336229E+00;  0.0000000E+00; -6.5977611E-02;0;  3.4735050E-02;  3.2775871E+04;  0.0000000E+00; -2.9392793E+00;  4.0000000E+04;  0.0000000E+00;  3.9949031E+04;  3.8574588E-02;  0.0000000E+00; -3.8395363E-03;  5.6996519E+03;
  6.8207878E-01;  9.9999998E-03;  2.7019790E-01;6651;  1.0629426E-02;  0.0000000E+00; -1.2130648E-03;  9.9821021E+02;  1.1035369E-01; -1.4828223E+03;3;  1.5733618E+00;  0.0000000E+00; -7.7544019E-02;0;  3.5742577E-02;  3.2749168E+04;  0.0000000E+00; -5.3078175E+00;  4.0000000E+04;  0.0000000E+00;  3.9952148E+04;  3.9959371E-02;  0.0000000E+00; -4.2167930E-03;  9.6406465E+03;
  6.8228072E-01;  9.9999998E-03;  2.8020883E-01;6652;  1.1246210E-02;  0.0000000E+00; -1.2485215E-03;  9.9793164E+02;  1.1036298E-01; -1.7135812E+03;3;  1.6712254E+00;  0.0000000E+00; -8.4334113E-02;0;  3.6943480E-02;  3.2724391E+04;  0.0000000E+00; -7.9681010E+00;  4.0000000E+04;  0.0000000E+00;  3.9954410E+04;  4.1418772E-02;  0.0000000E+00; -4.4752937E-03;  1.4073699E+04;
  6.8255585E-01;  9.9999998E-03;  2.9021958E-01;6653;  1.2403200E-02;  0.0000000E+00; -1.2459441E-03;  9.9766608E+02;  1.1036934E-01; -1.9336243E+03;3;  1.8979775E+00;  0.0000000E+00; -9.7405694E-02;0;  3.8973868E-02;  3.2703289E+04;  0.0000000E+00; -1.0018736E+01;  4.0000000E+04;  0.0000000E+00;  3.9956680E+04;  4.2990673E-02;  0.0000000E+00; -4.0168054E-03;  1.7447096E+04;
  6.8285877E-01;  9.9999998E-03;  3.0022991E-01;6654;  1.3543885E-02;  0.0000000E+00; -1.3015016E-03;  9.9743823E+02;  1.1036929E-01; -2.1223596E+03;3;  2.0454662E+00;  0.0000000E+00; -1.1195340E-01;0;  4.0072836E-02;  3.2689309E+04;  0.0000000E+00; -1.0821742E+01;  4.0000000E+04;  0.0000000E+00;  3.9958570E+04;  4.4450674E-02;  0.0000000E+00; -4.3778378E-03;  1.8679740E+04;
  6.9291610E-01;  9.9999998E-03;  2.4022712E-01;6709;  9.9953916E-03;  0.0000000E+00; -1.1289873E-03;  9.9875885E+02;  1.1291512E-01; -1.0282672E+03;3;  1.5822300E+00;  0.0000000E+00; -3.6368560E-02;0;  3.5337910E-02;  3.1327824E+04;  0.0000000E+00; -1.7181788E-01;  4.0000000E+04;  0.0000000E+00;  3.9929062E+04;  3.8944129E-02;  0.0000000E+00; -3.6062170E-03;  1.7030610E+03;
  6.9306201E-01;  9.9999998E-03;  2.5023255E-01;6710;  1.0271218E-02;  0.0000000E+00; -1.1673028E-03;  9.9849420E+02;  1.1294329E-01; -1.2475203E+03;3;  1.5953089E+00;  0.0000000E+00; -5.2589260E-02;0;  3.6685247E-02;  3.1295264E+04;  0.0000000E+00; -1.0320607E+00;  4.0000000E+04;  0.0000000E+00;  3.9932102E+04;  4.0454406E-02;  0.0000000E+00; -3.7691600E-03;  3.0402024E+03;
  6.9326186E-01;  9.9999998E-03;  2.6024190E-01;6711;  1.0616183E-02;  0.0000000E+00; -1.2076825E-03;  9.9824432E+02;  1.1297821E-01; -1.4545267E+03;3;  1.6266600E+00;  0.0000000E+00; -7.1311243E-02;0;  3.8050052E-02;  3.1259592E+04;  0.0000000E+00; -2.4361918E+00;  4.0000000E+04;  0.0000000E+00;  3.9934863E+04;  4.2048320E-02;  0.0000000E+00; -3.9982698E-03;  5.3790405E+03;
  6.9355494E-01;  9.9999998E-03;  2.7025318E-01;6712;  1.1122120E-02;  0.0000000E+00; -1.2568913E-03;  9.9799658E+02;  1.1302113E-01; -1.6598049E+03;3;  1.7221454E+00;  0.0000000E+00; -8.6650871E-02;0;  3.9372988E-02;  3.1219979E+04;  0.0000000E+00; -4.2048640E+00;  4.0000000E+04;  0.0000000E+00;  3.9937371E+04;  4.3726977E-02;  0.0000000E+00; -4.3539880E-03;  8.4345762E+03;
  6.9393075E-01;  9.9999998E-03;  2.8026536E-01;6713;  1.2003823E-02;  0.0000000E+00; -1.2840237E-03;  9.9775934E+02;  1.1306658E-01; -1.8563425E+03;3;  1.9281934E+00;  0.0000000E+00; -9.0046711E-02;0;  4.1089382E-02;  3.1180297E+04;  0.0000000E+00; -5.7998691E+00;  4.0000000E+04;  0.0000000E+00;  3.9939242E+04;  4.5500368E-02;  0.0000000E+00; -4.4109849E-03;  1.1217966E+04;
  6.9432169E-01;  9.9999998E-03;  2.9027772E-01;6714;  1.3052722E-02;  0.0000000E+00; -1.3184590E-03;  9.9755151E+02;  1.1310297E-01; -2.0285353E+03;3;  2.0479581E+00;  0.0000000E+00; -1.1692548E-01;0;  4.2783763E-02;  3.1148158E+04;  0.0000000E+00; -6.6523371E+00;  4.0000000E+04;  0.0000000E+00;  3.9941062E+04;  4.7228362E-02;  0.0000000E+00; -4.4446001E-03;  1.2676716E+04;
  6.9468063E-01;  9.9999998E-03;  3.0028972E-01;6715;  1.3984822E-02;  0.0000000E+00; -1.3893610E-03;  9.9739551E+02;  1.1312354E-01; -2.1577661E+03;3;  2.1609340E+00;  0.0000000E+00; -1.2130436E-01;0;  4.3764401E-02;  3.1128422E+04;  0.0000000E+00; -6.4343410E+00;  4.0000000E+04;  0.0000000E+00;  3.9942492E+04;  4.8784982E-02;  0.0000000E+00; -5.0205798E-03;  1.2229614E+04;
  7.0520937E-01;  9.9999998E-03;  2.4029791E-01;6770;  1.0717824E-02;  0.0000000E+00; -1.0807196E-03;  9.9867090E+02;  1.1607365E-01; -1.1011541E+03;3;  1.8041174E+00;  0.0000000E+00; -2.0671206E-02;0;  3.8986862E-02;  2.9662295E+04;  0.0000000E+00;  2.0666362E-01;  4.0000000E+04;  0.0000000E+00;  3.9909145E+04;  4.2403847E-02;  0.0000000E+00; -3.4169869E-03;  1.4498162E+03;
  7.0543122E-01;  9.9999998E-03;  2.5030175E-01;6771;  1.1065028E-02;  0.0000000E+00; -1.1439216E-03;  9.9846576E+02;  1.1612593E-01; -1.2710752E+03;3;  1.8576790E+00;  0.0000000E+00; -3.7809879E-02;0;  4.0675681E-02;  2.9623477E+04;  0.0000000E+00; -4.1560596E-01;  4.0000000E+04;  0.0000000E+00;  3.9911871E+04;  4.4199795E-02;  0.0000000E+00; -3.5241139E-03;  2.3523135E+03;
  7.0573598E-01;  9.9999998E-03;  2.6031089E-01;6772;  1.1576329E-02;  0.0000000E+00; -1.1888832E-03;  9.9829419E+02;  1.1619013E-01; -1.4132440E+03;3;  1.9642329E+00;  0.0000000E+00; -5.9618756E-02;0;  4.2533927E-02;  2.9579914E+04;  0.0000000E+00; -1.3857400E+00;  4.0000000E+04;  0.0000000E+00;  3.9913945E+04;  4.6101768E-02;  0.0000000E+00; -3.5678395E-03;  4.0067375E+03;
  7.0611233E-01;  9.9999998E-03;  2.7032289E-01;6773;  1.2317185E-02;  0.0000000E+00; -1.2174770E-03;  9.9813751E+02;  1.1626185E-01; -1.5430181E+03;3;  2.0621393E+00;  0.0000000E+00; -8.1040978E-02;0;  4.4651560E-02;  2.9534156E+04;  0.0000000E+00; -2.5773683E+00;  4.0000000E+04;  0.0000000E+00;  3.9915719E+04;  4.8070692E-02;  0.0000000E+00; -3.4191303E-03;  6.1744067E+03;
  7.0648533E-01;  9.9999998E-03;  2.8033620E-01;6774;  1.3164585E-02;  0.0000000E+00; -1.2753415E-03;  9.9799792E+02;  1.1632186E-01; -1.6586692E+03;3;  2.1448226E+00;  0.0000000E+00; -1.0999110E-01;0;  4.6406832E-02;  2.9496182E+04;  0.0000000E+00; -3.7115149E+00;  4.0000000E+04;  0.0000000E+00;  3.9916543E+04;  4.9995482E-02;  0.0000000E+00; -3.5886492E-03;  8.2668105E+03;
  7.0682806E-01;  9.9999998E-03;  2.9034972E-01;6775;  1.4042766E-02;  0.0000000E+00; -1.3624760E-03;  9.9787537E+02;  1.1636340E-01; -1.7601971E+03;3;  2.2481534E+00;  0.0000000E+00; -1.2824869E-01;0;  4.7529999E-02;  2.9469188E+04;  0.0000000E+00; -4.3586535E+00;  4.0000000E+04;  0.0000000E+00;  3.9917391E+04;  5.1807810E-02;  0.0000000E+00; -4.2778119E-03;  9.4480391E+03;
  7.0712364E-01;  9.9999998E-03;  3.0036297E-01;6776;  1.4944362E-02;  0.0000000E+00; -1.4421993E-03;  9.9777014E+02;  1.1638027E-01; -1.8474045E+03;3;  2.3454719E+00;  0.0000000E+00; -1.3166592E-01;0;  4.8564959E-02;  2.9455545E+04;  0.0000000E+00; -4.1562343E+00;  4.0000000E+04;  0.0000000E+00;  3.9918309E+04;  5.3480756E-02;  0.0000000E+00; -4.9157953E-03;  9.0343340E+03;
  7.1768141E-01;  9.9999998E-03;  2.4037597E-01;6831;  1.1788417E-02;  0.0000000E+00; -9.8088314E-04;  9.9887109E+02;  1.1959387E-01; -9.3528217E+02;3;  2.1702764E+00;  0.0000000E+00;  2.7770030E-03;0;  4.3001011E-02;  2.7977820E+04;  0.0000000E+00;  2.3154692E-01;  4.0000000E+04;  0.0000000E+00;  3.9885359E+04;  4.5942739E-02;  0.0000000E+00; -2.9417293E-03;  1.0013517E+03;
  7.1787447E-01;  9.9999998E-03;  2.5037834E-01;6832;  1.2266504E-02;  0.0000000E+00; -1.0532081E-03;  9.9871375E+02;  1.1964690E-01; -1.0656489E+03;3;  2.2270112E+00;  0.0000000E+00; -1.0475541E-02;0;  4.5196488E-02;  2.7943479E+04;  0.0000000E+00; -4.3611011E-01;  4.0000000E+04;  0.0000000E+00;  3.9887332E+04;  4.7966041E-02;  0.0000000E+00; -2.7695517E-03;  2.1386765E+03;
  7.1809357E-01;  9.9999998E-03;  2.6038647E-01;6833;  1.2879086E-02;  0.0000000E+00; -1.1007432E-03;  9.9859283E+02;  1.1970447E-01; -1.1657942E+03;3;  2.2932999E+00;  0.0000000E+00; -3.8367659E-02;0;  4.7619134E-02;  2.7908840E+04;  0.0000000E+00; -1.5466293E+00;  4.0000000E+04;  0.0000000E+00;  3.9889078E+04;  5.0047826E-02;  0.0000000E+00; -2.4286928E-03;  4.2701650E+03;
  7.1824783E-01;  9.9999998E-03;  2.7039731E-01;6834;  1.3598639E-02;  0.0000000E+00; -1.1489724E-03;  9.9847345E+02;  1.1973210E-01; -1.2647050E+03;3;  2.3337915E+00;  0.0000000E+00; -7.5050607E-02;0;  5.0044205E-02;  2.7888934E+04;  0.0000000E+00; -3.0763183E+00;  4.0000000E+04;  0.0000000E+00;  3.9890465E+04;  5.2101087E-02;  0.0000000E+00; -2.0568818E-03;  7.2502773E+03;
  7.1838868E-01;  9.9999998E-03;  2.8040981E-01;6835;  1.4387936E-02;  0.0000000E+00; -1.2472040E-03;  9.9835693E+02;  1.1974037E-01; -1.3612455E+03;3;  2.3976943E+00;  0.0000000E+00; -1.1017795E-01;0;  5.1671926E-02;  2.7878658E+04;  0.0000000E+00; -4.6866918E+00;  4.0000000E+04;  0.0000000E+00;  3.9891793E+04;  5.4086458E-02;  0.0000000E+00; -2.4145306E-03;  1.0363033E+04;
  7.1851683E-01;  9.9999998E-03;  2.9042295E-01;6836;  1.5262887E-02;  0.0000000E+00; -1.3578469E-03;  9.9823126E+02;  1.1973148E-01; -1.4653413E+03;3;  2.4699786E+00;  0.0000000E+00; -1.3035443E-01;0;  5.2725121E-02;  2.7876098E+04;  0.0000000E+00; -5.8731017E+00;  4.0000000E+04;  0.0000000E+00;  3.9893090E+04;  5.5974863E-02;  0.0000000E+00; -3.2497405E-03;  1.2608395E+04;
  7.1862793E-01;  9.9999998E-03;  3.0043620E-01;6837;  1.6135423E-02;  0.0000000E+00; -1.4595280E-03;  9.9809515E+02;  1.1970387E-01; -1.5781282E+03;3;  2.5367129E+00;  0.0000000E+00; -1.4413343E-01;0;  5.3597100E-02;  2.7881920E+04;  0.0000000E+00; -6.1786418E+00;  4.0000000E+04;  0.0000000E+00;  3.9894598E+04;  5.7736143E-02;  0.0000000E+00; -4.1390448E-03;  1.3094659E+04;
  7.2964239E-01;  9.9999998E-03;  2.4043711E-01;6892;  1.2537734E-02;  0.0000000E+00; -9.7710500E-04;  9.9885645E+02;  1.2325641E-01; -9.4742999E+02;3;  2.3755124E+00;  0.0000000E+00;  9.8290825E-03;0;  4.6394721E-02;  2.6359018E+04;  0.0000000E+00; -3.1058101E-02;  4.0000000E+04;  0.0000000E+00;  3.9865273E+04;  4.9237877E-02;  0.0000000E+00; -2.8431548E-03;  1.3664739E+03;
  7.2966892E-01;  9.9999998E-03;  2.5044259E-01;6893;  1.3056106E-02;  0.0000000E+00; -1.0570822E-03;  9.9866205E+02;  1.2325775E-01; -1.1084625E+03;3;  2.4211869E+00;  0.0000000E+00; -1.3154030E-02;0;  4.8813224E-02;  2.6346625E+04;  0.0000000E+00; -7.6771438E-01;  4.0000000E+04;  0.0000000E+00;  3.9867574E+04;  5.1372536E-02;  0.0000000E+00; -2.5593103E-03;  2.7948318E+03;
  7.2968960E-01;  9.9999998E-03;  2.6045212E-01;6894;  1.3662625E-02;  0.0000000E+00; -1.1200167E-03;  9.9850781E+02;  1.2325579E-01; -1.2362614E+03;3;  2.4500134E+00;  0.0000000E+00; -4.4427078E-02;0;  5.1364198E-02;  2.6337270E+04;  0.0000000E+00; -1.8882099E+00;  4.0000000E+04;  0.0000000E+00;  3.9869656E+04;  5.3539347E-02;  0.0000000E+00; -2.1751486E-03;  5.0450430E+03;
  7.2971511E-01;  9.9999998E-03;  2.7046412E-01;6895;  1.4365959E-02;  0.0000000E+00; -1.1895864E-03;  9.9836725E+02;  1.2324683E-01; -1.3527025E+03;3;  2.4847255E+00;  0.0000000E+00; -8.4974580E-02;0;  5.3806834E-02;  2.6332600E+04;  0.0000000E+00; -3.3149517E+00;  4.0000000E+04;  0.0000000E+00;  3.9871551E+04;  5.5690087E-02;  0.0000000E+00; -1.8832533E-03;  7.9191519E+03;
  7.2976387E-01;  9.9999998E-03;  2.8047761E-01;6896;  1.5127424E-02;  0.0000000E+00; -1.3009032E-03;  9.9822363E+02;  1.2323149E-01; -1.4716621E+03;3;  2.5248075E+00;  0.0000000E+00; -1.2442177E-01;0;  5.5482715E-02;  2.6331227E+04;  0.0000000E+00; -4.7779293E+00;  4.0000000E+04;  0.0000000E+00;  3.9873348E+04;  5.7785057E-02;  0.0000000E+00; -2.3023407E-03;  1.0846269E+04;
  7.2981447E-01;  9.9999998E-03;  2.9049185E-01;6897;  1.5930394E-02;  0.0000000E+00; -1.4321323E-03;  9.9806976E+02;  1.2320448E-01; -1.5991647E+03;3;  2.5842216E+00;  0.0000000E+00; -1.4103192E-01;0;  5.6401752E-02;  2.6334090E+04;  0.0000000E+00; -5.8280354E+00;  4.0000000E+04;  0.0000000E+00;  3.9875113E+04;  5.9788849E-02;  0.0000000E+00; -3.3870968E-03;  1.2921112E+04;
  7.2984755E-01;  9.9999998E-03;  3.0050620E-01;6898;  1.6765092E-02;  0.0000000E+00; -1.5503580E-03;  9.9788995E+02;  1.2316225E-01; -1.7481481E+03;3;  2.6564913E+00;  0.0000000E+00; -1.4686899E-01;0;  5.7162233E-02;  2.6342982E+04;  0.0000000E+00; -6.0381665E+00;  4.0000000E+04;  0.0000000E+00;  3.9877234E+04;  6.1679572E-02;  0.0000000E+00; -4.5173406E-03;  1.3304915E+04;
  7.4152935E-01;  9.9999998E-03;  2.4047653E-01;6953;  1.2953890E-02;  0.0000000E+00; -1.0947841E-03;  9.9837122E+02;  1.2709633E-01; -1.3493939E+03;3;  2.4766605E+00;  0.0000000E+00; -1.2483236E-02;0;  4.9381446E-02;  2.4780443E+04;  0.0000000E+00; -1.3085264E-01;  4.0000000E+04;  0.0000000E+00;  3.9851258E+04;  5.2615855E-02;  0.0000000E+00; -3.2344090E-03;  2.2235049E+03;
  7.4156243E-01;  9.9999998E-03;  2.5049376E-01;6954;  1.3517453E-02;  0.0000000E+00; -1.1705313E-03;  9.9812640E+02;  1.2709978E-01; -1.5522524E+03;3;  2.5071430E+00;  0.0000000E+00; -3.2158025E-02;0;  5.1886942E-02;  2.4764830E+04;  0.0000000E+00; -5.8808076E-01;  4.0000000E+04;  0.0000000E+00;  3.9853219E+04;  5.4861475E-02;  0.0000000E+00; -2.9745342E-03;  3.0256575E+03;
  7.4159497E-01;  9.9999998E-03;  2.6051039E-01;6955;  1.4151498E-02;  0.0000000E+00; -1.2420593E-03;  9.9791321E+02;  1.2709929E-01; -1.7288894E+03;3;  2.5329618E+00;  0.0000000E+00; -6.2808983E-02;0;  5.4428495E-02;  2.4752162E+04;  0.0000000E+00; -1.1156751E+00;  4.0000000E+04;  0.0000000E+00;  3.9855953E+04;  5.7143949E-02;  0.0000000E+00; -2.7154519E-03;  4.0495869E+03;
  7.4164832E-01;  9.9999998E-03;  2.7052701E-01;6956;  1.4834462E-02;  0.0000000E+00; -1.3296120E-03;  9.9771161E+02;  1.2709881E-01; -1.8958970E+03;3;  2.5712149E+00;  0.0000000E+00; -9.9626765E-02;0;  5.6717467E-02;  2.4741104E+04;  0.0000000E+00; -1.5750840E+00;  4.0000000E+04;  0.0000000E+00;  3.9858176E+04;  5.9417840E-02;  0.0000000E+00; -2.7003726E-03;  4.9923110E+03;
  7.4174738E-01;  9.9999998E-03;  2.8054410E-01;6957;  1.5517743E-02;  0.0000000E+00; -1.4556154E-03;  9.9752240E+02;  1.2710457E-01; -2.0526333E+03;3;  2.6091459E+00;  0.0000000E+00; -1.3261668E-01;0;  5.8230087E-02;  2.4728699E+04;  0.0000000E+00; -1.7682877E+00;  4.0000000E+04;  0.0000000E+00;  3.9860285E+04;  6.1650459E-02;  0.0000000E+00; -3.4203723E-03;  5.4580923E+03;
  7.4181789E-01;  9.9999998E-03;  2.9056108E-01;6958;  1.6212251E-02;  0.0000000E+00; -1.5945253E-03;  9.9732104E+02;  1.2709673E-01; -2.2194434E+03;3;  2.6472759E+00;  0.0000000E+00; -1.4941102E-01;0;  5.9084259E-02;  2.4721334E+04;  0.0000000E+00; -1.4233969E+00;  4.0000000E+04;  0.0000000E+00;  3.9862730E+04;  6.3789107E-02;  0.0000000E+00; -4.7048484E-03;  5.0625156E+03;
  7.4186486E-01;  9.9999998E-03;  3.0057797E-01;6959;  1.7029123E-02;  0.0000000E+00; -1.7093376E-03;  9.9710785E+02;  1.2707601E-01; -2.3960803E+03;3;  2.7242873E+00;  0.0000000E+00; -1.5945235E-01;0;  6.0020339E-02;  2.4718789E+04;  0.0000000E+00; -4.0179047E-01;  4.0000000E+04;  0.0000000E+00;  3.9865324E+04;  6.5809883E-02;  0.0000000E+00; -5.7895444E-03;  4.0772988E+03;
  7.5465316E-01;  9.9999998E-03;  2.4051830E-01;7014;  1.3254890E-02;  0.0000000E+00; -1.3043399E-03;  9.9783887E+02;  1.3146847E-01; -1.7904679E+03;3;  2.5438864E+00;  0.0000000E+00; -4.0460810E-02;0;  5.2707039E-02;  2.3148961E+04;  0.0000000E+00; -6.0762122E-02;  4.0000000E+04;  0.0000000E+00;  3.9836133E+04;  5.6674860E-02;  0.0000000E+00; -3.9678202E-03;  3.0452966E+03;
  7.5458771E-01;  9.9999998E-03;  2.5054771E-01;7015;  1.3873622E-02;  0.0000000E+00; -1.3672403E-03;  9.9751416E+02;  1.3144511E-01; -2.0594480E+03;3;  2.5851672E+00;  0.0000000E+00; -5.5487256E-02;0;  5.5135313E-02;  2.3139531E+04;  0.0000000E+00; -8.5358217E-02;  4.0000000E+04;  0.0000000E+00;  3.9838426E+04;  5.8939852E-02;  0.0000000E+00; -3.8045377E-03;  3.3387375E+03;
  7.5442594E-01;  9.9999998E-03;  2.6057145E-01;7016;  1.4523542E-02;  0.0000000E+00; -1.4386196E-03;  9.9720453E+02;  1.3139175E-01; -2.3159839E+03;3;  2.6403420E+00;  0.0000000E+00; -8.0826938E-02;0;  5.7468120E-02;  2.3141018E+04;  0.0000000E+00;  2.3207618E-01;  4.0000000E+04;  0.0000000E+00;  3.9841633E+04;  6.1215136E-02;  0.0000000E+00; -3.7470150E-03;  3.6577058E+03;
  7.5431782E-01;  9.9999998E-03;  2.7059269E-01;7017;  1.5191360E-02;  0.0000000E+00; -1.5274946E-03;  9.9691010E+02;  1.3134778E-01; -2.5599275E+03;3;  2.6518760E+00;  0.0000000E+00; -1.1309791E-01;0;  5.9526481E-02;  2.3140875E+04;  0.0000000E+00;  1.0881114E+00;  4.0000000E+04;  0.0000000E+00;  3.9845047E+04;  6.3497148E-02;  0.0000000E+00; -3.9706696E-03;  4.6631543E+03;
  7.5432152E-01;  9.9999998E-03;  2.8061318E-01;7018;  1.5885446E-02;  0.0000000E+00; -1.6489242E-03;  9.9664093E+02;  1.3132827E-01; -2.7829336E+03;3;  2.6868064E+00;  0.0000000E+00; -1.4298140E-01;0;  6.0932424E-02;  2.3133734E+04;  0.0000000E+00;  2.5649467E+00;  4.0000000E+04;  0.0000000E+00;  3.9848219E+04;  6.5760739E-02;  0.0000000E+00; -4.8283157E-03;  7.3193525E+03;
  7.5433475E-01;  9.9999998E-03;  2.9063302E-01;7019;  1.6719384E-02;  0.0000000E+00; -1.7697334E-03;  9.9638617E+02;  1.3130458E-01; -2.9939895E+03;3;  2.7816334E+00;  0.0000000E+00; -1.5830785E-01;0;  6.1975699E-02;  2.3129246E+04;  0.0000000E+00;  4.7609930E+00;  4.0000000E+04;  0.0000000E+00;  3.9851043E+04;  6.7920931E-02;  0.0000000E+00; -5.9452322E-03;  1.1912697E+04;
  7.5436163E-01;  9.9999998E-03;  3.0065256E-01;7020;  1.8058971E-02;  0.0000000E+00; -1.8432394E-03;  9.9614038E+02;  1.3127016E-01; -3.1976379E+03;3;  2.9274266E+00;  0.0000000E+00; -1.5846278E-01;0;  6.3550390E-02;  2.3129752E+04;  0.0000000E+00;  7.6123643E+00;  4.0000000E+04;  0.0000000E+00;  3.9853891E+04;  6.9888853E-02;  0.0000000E+00; -6.3384627E-03;  1.8087861E+04;
  7.6847935E-01;  9.9999998E-03;  2.4059071E-01;7075;  1.3552111E-02;  0.0000000E+00; -1.5586495E-03;  9.9788892E+02;  1.3629089E-01; -1.7489875E+03;3;  2.6251838E+00;  0.0000000E+00; -5.5347055E-02;0;  5.6435559E-02;  2.1554258E+04;  0.0000000E+00; -1.2340129E-01;  4.0000000E+04;  0.0000000E+00;  3.9811938E+04;  6.1278332E-02;  0.0000000E+00; -4.8427740E-03;  3.0897322E+03;
  7.6840085E-01;  9.9999998E-03;  2.5062466E-01;7076;  1.4247099E-02;  0.0000000E+00; -1.5913117E-03;  9.9752759E+02;  1.3625117E-01; -2.0483372E+03;3;  2.6778083E+00;  0.0000000E+00; -8.0938689E-02;0;  5.8791053E-02;  2.1547750E+04;  0.0000000E+00;  1.3472128E-02;  4.0000000E+04;  0.0000000E+00;  3.9814809E+04;  6.3479930E-02;  0.0000000E+00; -4.6888776E-03;  3.3627842E+03;
  7.6820064E-01;  9.9999998E-03;  2.6065096E-01;7077;  1.4954810E-02;  0.0000000E+00; -1.6468447E-03;  9.9713037E+02;  1.3617711E-01; -2.3774143E+03;3;  2.6993802E+00;  0.0000000E+00; -1.0216358E-01;0;  6.0995638E-02;  2.1551342E+04;  0.0000000E+00;  7.1241158E-01;  4.0000000E+04;  0.0000000E+00;  3.9818660E+04;  6.5678641E-02;  0.0000000E+00; -4.6830033E-03;  4.3383276E+03;
  7.6809025E-01;  9.9999998E-03;  2.7067468E-01;7078;  1.5706776E-02;  0.0000000E+00; -1.7332329E-03;  9.9676691E+02;  1.3612583E-01; -2.6785415E+03;3;  2.7610669E+00;  0.0000000E+00; -1.2528165E-01;0;  6.2828891E-02;  2.1549371E+04;  0.0000000E+00;  2.2047141E+00;  4.0000000E+04;  0.0000000E+00;  3.9822523E+04;  6.7879058E-02;  0.0000000E+00; -5.0501646E-03;  7.4633267E+03;
  7.6819599E-01;  9.9999998E-03;  2.8069830E-01;7079;  1.6629448E-02;  0.0000000E+00; -1.8359153E-03;  9.9647852E+02;  1.3612922E-01; -2.9174978E+03;3;  2.8591077E+00;  0.0000000E+00; -1.4708321E-01;0;  6.4261533E-02;  2.1533971E+04;  0.0000000E+00;  4.3492265E+00;  4.0000000E+04;  0.0000000E+00;  3.9825594E+04;  7.0033357E-02;  0.0000000E+00; -5.7718218E-03;  1.2686333E+04;
  7.6839334E-01;  9.9999998E-03;  2.9072168E-01;7080;  1.8155560E-02;  0.0000000E+00; -1.9115481E-03;  9.9622382E+02;  1.3613954E-01; -3.1285042E+03;3;  3.0973189E+00;  0.0000000E+00; -1.5591644E-01;0;  6.5756030E-02;  2.1518885E+04;  0.0000000E+00;  7.0407238E+00;  4.0000000E+04;  0.0000000E+00;  3.9827977E+04;  7.1933039E-02;  0.0000000E+00; -6.1770114E-03;  1.9392252E+04;
  7.6868337E-01;  9.9999998E-03;  3.0074552E-01;7081;  2.0365236E-02;  0.0000000E+00; -1.9959889E-03;  9.9603296E+02;  1.3613909E-01; -3.2866230E+03;3;  3.3556526E+00;  0.0000000E+00; -1.4778960E-01;0;  6.6770069E-02;  2.1511303E+04;  0.0000000E+00;  9.9014511E+00;  4.0000000E+04;  0.0000000E+00;  3.9829000E+04;  7.3447570E-02;  0.0000000E+00; -6.6775028E-03;  2.6373016E+04;
  7.8312612E-01;  9.9999998E-03;  2.4070249E-01;7136;  1.4002274E-02;  0.0000000E+00; -1.8001038E-03;  9.9869092E+02;  1.4168152E-01; -1.0845619E+03;3;  2.7167594E+00;  0.0000000E+00; -8.0589131E-02;0;  6.0415618E-02;  1.9984268E+04;  0.0000000E+00; -2.3678112E-01;  4.0000000E+04;  0.0000000E+00;  3.9776711E+04;  6.6009492E-02;  0.0000000E+00; -5.5938722E-03;  2.0305762E+03;
  7.8304964E-01;  9.9999998E-03;  2.5073040E-01;7137;  1.4805172E-02;  0.0000000E+00; -1.8030228E-03;  9.9832184E+02;  1.4163859E-01; -1.3903309E+03;3;  2.7668622E+00;  0.0000000E+00; -9.8566256E-02;0;  6.2606171E-02;  1.9978203E+04;  0.0000000E+00; -2.6626813E-01;  4.0000000E+04;  0.0000000E+00;  3.9780000E+04;  6.7972898E-02;  0.0000000E+00; -5.3667300E-03;  2.3070728E+03;
  7.8290266E-01;  9.9999998E-03;  2.6075417E-01;7138;  1.5623556E-02;  0.0000000E+00; -1.8557027E-03;  9.9791571E+02;  1.4157392E-01; -1.7268152E+03;3;  2.8511171E+00;  0.0000000E+00; -1.1351364E-01;0;  6.4496025E-02;  1.9977285E+04;  0.0000000E+00;  1.8428902E-01;  4.0000000E+04;  0.0000000E+00;  3.9783840E+04;  6.9919169E-02;  0.0000000E+00; -5.4231426E-03;  3.1825007E+03;
  7.8291184E-01;  9.9999998E-03;  2.7077758E-01;7139;  1.6599795E-02;  0.0000000E+00; -1.9304571E-03;  9.9755890E+02;  1.4155322E-01; -2.0224117E+03;3;  2.9921594E+00;  0.0000000E+00; -1.3893430E-01;0;  6.6061743E-02;  1.9966400E+04;  0.0000000E+00;  1.3384826E+00;  4.0000000E+04;  0.0000000E+00;  3.9787152E+04;  7.1793869E-02;  0.0000000E+00; -5.7321289E-03;  6.3553306E+03;
  7.8333658E-01;  9.9999998E-03;  2.8080377E-01;7140;  1.8038386E-02;  0.0000000E+00; -2.0111960E-03;  9.9734735E+02;  1.4165220E-01; -2.1976660E+03;3;  3.2183566E+00;  0.0000000E+00; -1.4939916E-01;0;  6.7315742E-02;  1.9928816E+04;  0.0000000E+00;  2.6551838E+00;  4.0000000E+04;  0.0000000E+00;  3.9788781E+04;  7.3456600E-02;  0.0000000E+00; -6.1408565E-03;  1.0639505E+04;
  7.8385949E-01;  9.9999998E-03;  2.9083091E-01;7141;  2.0046290E-02;  0.0000000E+00; -2.1149006E-03;  9.9718146E+02;  1.4175479E-01; -2.3350942E+03;3;  3.4158154E+00;  0.0000000E+00; -1.6424979E-01;0;  6.7762628E-02;  1.9893104E+04;  0.0000000E+00;  4.1097088E+00;  4.0000000E+04;  0.0000000E+00;  3.9789359E+04;  7.4672990E-02;  0.0000000E+00; -6.9103627E-03;  1.5465568E+04;
  7.8444266E-01;  9.9999998E-03;  3.0085897E-01;7142;  2.2409940E-02;  0.0000000E+00; -2.2096031E-03;  9.9708160E+02;  1.4184007E-01; -2.4178574E+03;3;  3.6452956E+00;  0.0000000E+00; -1.4593412E-01;0;  6.7908533E-02;  1.9865857E+04;  0.0000000E+00;  5.3858566E+00;  4.0000000E+04;  0.0000000E+00;  3.9788609E+04;  7.5421855E-02;  0.0000000E+00; -7.5133238E-03;  1.9666570E+04;
  7.9825920E-01;  9.9999998E-03;  2.4082878E-01;7197;  1.5119981E-02;  0.0000000E+00; -1.9056732E-03;  9.9951208E+02;  1.4757031E-01; -4.0423544E+02;3;  2.9988601E+00;  0.0000000E+00; -6.7027889E-02;0;  6.3941769E-02;  1.8451887E+04;  0.0000000E+00; -1.2459850E-01;  4.0000000E+04;  0.0000000E+00;  3.9738777E+04;  6.9600604E-02;  0.0000000E+00; -5.6588342E-03;  6.3958051E+02;
  7.9839051E-01;  9.9999998E-03;  2.5084868E-01;7198;  1.6196977E-02;  0.0000000E+00; -1.8933506E-03;  9.9919788E+02;  1.4758590E-01; -6.6452435E+02;3;  3.1394882E+00;  0.0000000E+00; -9.4079785E-02;0;  6.5939099E-02;  1.8432963E+04;  0.0000000E+00; -2.8994927E-01;  4.0000000E+04;  0.0000000E+00;  3.9741180E+04;  7.1051650E-02;  0.0000000E+00; -5.1125507E-03;  9.5504767E+02;
  7.9844111E-01;  9.9999998E-03;  2.6086900E-01;7199;  1.7381838E-02;  0.0000000E+00; -1.9426123E-03;  9.9885187E+02;  1.4757515E-01; -9.5118292E+02;3;  3.3366041E+00;  0.0000000E+00; -1.1433677E-01;0;  6.7546777E-02;  1.8420393E+04;  0.0000000E+00; -1.8498218E-01;  4.0000000E+04;  0.0000000E+00;  3.9744305E+04;  7.2383709E-02;  0.0000000E+00; -4.8369304E-03;  1.6778452E+03;
  7.9861087E-01;  9.9999998E-03;  2.7089104E-01;7200;  1.8771363E-02;  0.0000000E+00; -2.0112314E-03;  9.9853870E+02;  1.4760260E-01; -1.2106818E+03;3;  3.4847441E+00;  0.0000000E+00; -1.3459130E-01;0;  6.8782330E-02;  1.8400109E+04;  0.0000000E+00;  4.0671933E-01;  4.0000000E+04;  0.0000000E+00;  3.9746816E+04;  7.3513292E-02;  0.0000000E+00; -4.7309631E-03;  4.2193525E+03;
  7.9906219E-01;  9.9999998E-03;  2.8091660E-01;7201;  2.0353040E-02;  0.0000000E+00; -2.1373995E-03;  9.9830817E+02;  1.4771907E-01; -1.4016393E+03;3;  3.5553625E+00;  0.0000000E+00; -1.6590182E-01;0;  6.8920925E-02;  1.8361553E+04;  0.0000000E+00;  1.3031340E+00;  4.0000000E+04;  0.0000000E+00;  3.9747906E+04;  7.4361198E-02;  0.0000000E+00; -5.4402761E-03;  8.1342358E+03;
  7.9951662E-01;  9.9999998E-03;  2.9094368E-01;7202;  2.2267010E-02;  0.0000000E+00; -2.2625013E-03;  9.9808759E+02;  1.4780913E-01; -1.5843995E+03;3;  3.6652317E+00;  0.0000000E+00; -1.6099480E-01;0;  6.8406545E-02;  1.8330521E+04;  0.0000000E+00;  2.6910517E+00;  4.0000000E+04;  0.0000000E+00;  3.9749059E+04;  7.4793451E-02;  0.0000000E+00; -6.3869087E-03;  1.3569692E+04;
  7.9989201E-01;  9.9999998E-03;  3.0097145E-01;7203;  2.4422705E-02;  0.0000000E+00; -2.3478775E-03;  9.9787122E+02;  1.4782721E-01; -1.7636537E+03;3;  3.7717977E+00;  0.0000000E+00; -1.4906009E-01;0;  6.8080954E-02;  1.8319398E+04;  0.0000000E+00;  4.5537210E+00;  4.0000000E+04;  0.0000000E+00;  3.9750129E+04;  7.4836865E-02;  0.0000000E+00; -6.7559122E-03;  1.9982312E+04;
  8.1309062E-01;  9.9999998E-03;  2.4092981E-01;7258;  1.7484659E-02;  0.0000000E+00; -1.8314180E-03;  9.9945654E+02;  1.5356410E-01; -4.5025885E+02;3;  3.6190820E+00;  0.0000000E+00; -1.5665846E-02;0;  6.6030040E-02;  1.7036480E+04;  0.0000000E+00;  3.8908446E-01;  4.0000000E+04;  0.0000000E+00;  3.9708766E+04;  7.0868962E-02;  0.0000000E+00; -4.8389207E-03;  1.2950027E+03;
  8.1325769E-01;  9.9999998E-03;  2.5094584E-01;7259;  1.8799579E-02;  0.0000000E+00; -1.7933097E-03;  9.9916260E+02;  1.5358092E-01; -6.9375812E+02;3;  3.7016025E+00;  0.0000000E+00; -4.8836794E-02;0;  6.8016745E-02;  1.7019750E+04;  0.0000000E+00;  4.3127954E-01;  4.0000000E+04;  0.0000000E+00;  3.9711363E+04;  7.1531080E-02;  0.0000000E+00; -3.5143376E-03;  1.7847267E+03;
  8.1321114E-01;  9.9999998E-03;  2.6096413E-01;7260;  2.0168865E-02;  0.0000000E+00; -1.8071316E-03;  9.9883167E+02;  1.5351759E-01; -9.6792316E+02;3;  3.6918695E+00;  0.0000000E+00; -9.6630774E-02;0;  6.9939420E-02;  1.7020137E+04;  0.0000000E+00;  6.7048925E-01;  4.0000000E+04;  0.0000000E+00;  3.9714641E+04;  7.2063148E-02;  0.0000000E+00; -2.1237258E-03;  3.0271096E+03;
  8.1318372E-01;  9.9999998E-03;  2.7098501E-01;7261;  2.1505011E-02;  0.0000000E+00; -1.9298703E-03;  9.9852075E+02;  1.5345535E-01; -1.2255455E+03;3;  3.7235820E+00;  0.0000000E+00; -1.3504168E-01;0;  7.0742913E-02;  1.7022148E+04;  0.0000000E+00;  1.2946361E+00;  4.0000000E+04;  0.0000000E+00;  3.9717539E+04;  7.2453335E-02;  0.0000000E+00; -1.7104195E-03;  5.5580229E+03;
  8.1346601E-01;  9.9999998E-03;  2.8101027E-01;7262;  2.2802832E-02;  0.0000000E+00; -2.1251722E-03;  9.9828198E+02;  1.5350167E-01; -1.4233671E+03;3;  3.7418933E+00;  0.0000000E+00; -1.5176648E-01;0;  6.9968879E-02;  1.7002986E+04;  0.0000000E+00;  2.0565917E+00;  4.0000000E+04;  0.0000000E+00;  3.9719363E+04;  7.2637089E-02;  0.0000000E+00; -2.6682112E-03;  8.6495859E+03;
  8.1379592E-01;  9.9999998E-03;  2.9103783E-01;7263;  2.4228528E-02;  0.0000000E+00; -2.2950596E-03;  9.9804138E+02;  1.5355936E-01; -1.6226700E+03;3;  3.7527785E+00;  0.0000000E+00; -1.6132714E-01;0;  6.8684906E-02;  1.6981746E+04;  0.0000000E+00;  3.0432029E+00;  4.0000000E+04;  0.0000000E+00;  3.9721391E+04;  7.2582670E-02;  0.0000000E+00; -3.8977626E-03;  1.2451732E+04;
  8.1409103E-01;  9.9999998E-03;  3.0106673E-01;7264;  2.5745090E-02;  0.0000000E+00; -2.4310672E-03;  9.9774927E+02;  1.5358755E-01; -1.8646879E+03;3;  3.7361758E+00;  0.0000000E+00; -1.6794014E-01;0;  6.7401707E-02;  1.6966904E+04;  0.0000000E+00;  4.5755239E+00;  4.0000000E+04;  0.0000000E+00;  3.9724004E+04;  7.2338007E-02;  0.0000000E+00; -4.9362993E-03;  1.7716553E+04;
  8.2684582E-01;  9.9999998E-03;  2.7106264E-01;7322;  2.3026770E-02;  0.0000000E+00; -2.0465492E-03;  9.9774823E+02;  1.5924159E-01; -1.8655273E+03;3;  3.7866676E+00;  0.0000000E+00; -1.1433652E-01;0;  6.9032870E-02;  1.5789970E+04;  0.0000000E+00;  2.1473122E+00;  4.0000000E+04;  0.0000000E+00;  3.9699293E+04;  6.9925129E-02;  0.0000000E+00; -8.9225627E-04;  6.5355742E+03;
  8.2685387E-01;  9.9999998E-03;  2.6103830E-01;7321;  2.1869170E-02;  0.0000000E+00; -1.9112477E-03;  9.9807281E+02;  1.5929207E-01; -1.5966461E+03;3;  3.8237624E+00;  0.0000000E+00; -7.3478863E-02;0;  6.8726927E-02;  1.5790511E+04;  0.0000000E+00;  1.7206424E+00;  4.0000000E+04;  0.0000000E+00;  3.9696078E+04;  7.0218436E-02;  0.0000000E+00; -1.4915130E-03;  5.3362241E+03;
  8.2695234E-01;  9.9999998E-03;  2.5101665E-01;7320;  2.0586403E-02;  0.0000000E+00; -1.8821365E-03;  9.9840826E+02;  1.5937302E-01; -1.3187280E+03;3;  3.8562799E+00;  0.0000000E+00; -2.7647244E-02;0;  6.7321502E-02;  1.5785771E+04;  0.0000000E+00;  1.3532083E+00;  4.0000000E+04;  0.0000000E+00;  3.9692602E+04;  7.0397556E-02;  0.0000000E+00; -3.0760563E-03;  4.3126396E+03;
  8.2704443E-01;  9.9999998E-03;  2.8108984E-01;7323;  2.4112137E-02;  0.0000000E+00; -2.2601059E-03;  9.9742316E+02;  1.5926777E-01; -2.1348530E+03;3;  3.7486978E+00;  0.0000000E+00; -1.4961362E-01;0;  6.7654438E-02;  1.5774380E+04;  0.0000000E+00;  2.6588447E+00;  4.0000000E+04;  0.0000000E+00;  3.9702680E+04;  6.9486156E-02;  0.0000000E+00; -1.8317170E-03;  8.0169858E+03;
  8.2734245E-01;  9.9999998E-03;  2.9111961E-01;7324;  2.5201043E-02;  0.0000000E+00; -2.4733688E-03;  9.9709827E+02;  1.5933093E-01; -2.4040305E+03;3;  3.7302737E+00;  0.0000000E+00; -1.5985347E-01;0;  6.5349787E-02;  1.5752148E+04;  0.0000000E+00;  3.3235619E+00;  4.0000000E+04;  0.0000000E+00;  3.9705992E+04;  6.8933614E-02;  0.0000000E+00; -3.5838261E-03;  9.9788467E+03;
  8.2695782E-01;  9.9999998E-03;  2.4099787E-01;7319;  1.9318430E-02;  0.0000000E+00; -1.9028401E-03;  9.9871533E+02;  1.5942089E-01; -1.0643156E+03;3;  3.8646460E+00;  0.0000000E+00;  8.8031618E-03;0;  6.5896183E-02;  1.5787719E+04;  0.0000000E+00;  1.0117447E+00;  4.0000000E+04;  0.0000000E+00;  3.9688512E+04;  7.0492186E-02;  0.0000000E+00; -4.5959996E-03;  3.3682080E+03;
  8.2765859E-01;  9.9999998E-03;  3.0115110E-01;7325;  2.6388172E-02;  0.0000000E+00; -2.6400003E-03;  9.9673688E+02;  1.5939479E-01; -2.7034294E+03;3;  3.6782141E+00;  0.0000000E+00; -1.4822517E-01;0;  6.3226998E-02;  1.5729834E+04;  0.0000000E+00;  4.3163991E+00;  4.0000000E+04;  0.0000000E+00;  3.9709508E+04;  6.8315551E-02;  0.0000000E+00; -5.0885519E-03;  1.2941167E+04;
  8.4277380E-01;  9.9999998E-03;  2.8118026E-01;7384;  2.4585789E-02;  0.0000000E+00; -2.6484991E-03;  9.9661908E+02;  1.6597487E-01; -2.8010071E+03;3;  3.7364552E+00;  0.0000000E+00; -1.1934717E-01;0;  6.0253613E-02;  1.4520204E+04;  0.0000000E+00;  2.3964720E+00;  4.0000000E+04;  0.0000000E+00;  3.9684363E+04;  6.4013116E-02;  0.0000000E+00; -3.7595038E-03;  5.6490718E+03;
  8.4311813E-01;  9.9999998E-03;  2.9121342E-01;7385;  2.5571678E-02;  0.0000000E+00; -2.8383392E-03;  9.9621722E+02;  1.6607612E-01; -3.1339358E+03;3;  3.6903141E+00;  0.0000000E+00; -1.1948756E-01;0;  5.7494085E-02;  1.4492379E+04;  0.0000000E+00;  2.2738020E+00;  4.0000000E+04;  0.0000000E+00;  3.9688453E+04;  6.2799156E-02;  0.0000000E+00; -5.3050695E-03;  5.2753794E+03;
  8.4337306E-01;  9.9999998E-03;  3.0124739E-01;7386;  2.6782103E-02;  0.0000000E+00; -2.9551398E-03;  9.9577197E+02;  1.6614172E-01; -3.5028635E+03;3;  3.3162353E+00;  0.0000000E+00; -3.0322911E-03;0;  5.5655118E-02;  1.4471286E+04;  0.0000000E+00;  2.3981669E+00;  4.0000000E+04;  0.0000000E+00;  3.9693074E+04;  6.1748173E-02;  0.0000000E+00; -6.0930536E-03;  5.7026958E+03;
  8.4246546E-01;  9.9999998E-03;  2.7114892E-01;7383;  2.3645749E-02;  0.0000000E+00; -2.4504878E-03;  9.9700317E+02;  1.6589250E-01; -2.4827937E+03;3;  3.7642815E+00;  0.0000000E+00; -1.0229520E-01;0;  6.2498976E-02;  1.4545353E+04;  0.0000000E+00;  2.4845443E+00;  4.0000000E+04;  0.0000000E+00;  3.9680527E+04;  6.5263189E-02;  0.0000000E+00; -2.7642127E-03;  6.4891904E+03;
  8.4244955E-01;  9.9999998E-03;  2.6112050E-01;7382;  2.2577403E-02;  0.0000000E+00; -2.3353396E-03;  9.9738135E+02;  1.6592358E-01; -2.1695188E+03;3;  3.8092756E+00;  0.0000000E+00; -7.3836207E-02;0;  6.3167758E-02;  1.4550111E+04;  0.0000000E+00;  2.3278534E+00;  4.0000000E+04;  0.0000000E+00;  3.9676395E+04;  6.6388957E-02;  0.0000000E+00; -3.2212019E-03;  6.8100098E+03;
  8.4248137E-01;  9.9999998E-03;  2.5109291E-01;7381;  2.1440471E-02;  0.0000000E+00; -2.2998014E-03;  9.9775098E+02;  1.6597597E-01; -1.8632559E+03;3;  3.8601079E+00;  0.0000000E+00; -3.4535918E-02;0;  6.3057482E-02;  1.4551436E+04;  0.0000000E+00;  1.8664825E+00;  4.0000000E+04;  0.0000000E+00;  3.9672164E+04;  6.7476168E-02;  0.0000000E+00; -4.4186888E-03;  6.1225278E+03;
  8.4236151E-01;  9.9999998E-03;  2.4106517E-01;7380;  2.0233341E-02;  0.0000000E+00; -2.2974212E-03;  9.9810248E+02;  1.6597672E-01; -1.5720542E+03;3;  3.8786128E+00;  0.0000000E+00; -9.0652863E-03;0;  6.2973134E-02;  1.4561539E+04;  0.0000000E+00;  1.2553048E+00;  4.0000000E+04;  0.0000000E+00;  3.9668527E+04;  6.8535052E-02;  0.0000000E+00; -5.5619185E-03;  4.7992441E+03;
  8.5870039E-01;  9.9999998E-03;  2.4115768E-01;7441;  2.0782731E-02;  0.0000000E+00; -2.8663874E-03;  9.9814624E+02;  1.7342511E-01; -1.5358083E+03;3;  3.8425756E+00;  0.0000000E+00; -2.7299132E-02;0;  5.7914678E-02;  1.3362998E+04;  0.0000000E+00;  5.8823669E-01;  4.0000000E+04;  0.0000000E+00;  3.9639871E+04;  6.4968273E-02;  0.0000000E+00; -7.0535946E-03;  3.6279294E+03;
  8.5868144E-01;  9.9999998E-03;  2.5119007E-01;7442;  2.1834020E-02;  0.0000000E+00; -2.8896853E-03;  9.9774756E+02;  1.7338765E-01; -1.8661199E+03;3;  3.8161666E+00;  0.0000000E+00; -3.4629207E-02;0;  5.6273151E-02;  1.3359915E+04;  0.0000000E+00;  1.2978685E+00;  4.0000000E+04;  0.0000000E+00;  3.9643734E+04;  6.2841967E-02;  0.0000000E+00; -6.5688170E-03;  4.8958765E+03;
  8.5872382E-01;  9.9999998E-03;  2.6122132E-01;7443;  2.2818070E-02;  0.0000000E+00; -2.9384824E-03;  9.9731592E+02;  1.7338786E-01; -2.2236899E+03;3;  3.7883811E+00;  0.0000000E+00; -4.1340847E-02;0;  5.4562453E-02;  1.3350727E+04;  0.0000000E+00;  1.6953214E+00;  4.0000000E+04;  0.0000000E+00;  3.9648691E+04;  6.0716163E-02;  0.0000000E+00; -6.1537088E-03;  5.1019810E+03;
  8.5898048E-01;  9.9999998E-03;  2.7125376E-01;7444;  2.3727011E-02;  0.0000000E+00; -3.0395163E-03;  9.9686029E+02;  1.7348528E-01; -2.6012102E+03;3;  3.7578542E+00;  0.0000000E+00; -4.8432339E-02;0;  5.2313067E-02;  1.3325824E+04;  0.0000000E+00;  1.6217207E+00;  4.0000000E+04;  0.0000000E+00;  3.9653531E+04;  5.8557436E-02;  0.0000000E+00; -6.2443693E-03;  4.4482559E+03;
  8.5929304E-01;  9.9999998E-03;  2.8128791E-01;7445;  2.4674697E-02;  0.0000000E+00; -3.1723655E-03;  9.9640094E+02;  1.7360252E-01; -2.9817427E+03;3;  3.7393904E+00;  0.0000000E+00; -5.4360207E-02;0;  4.9546294E-02;  1.3297312E+04;  0.0000000E+00;  1.1997877E+00;  4.0000000E+04;  0.0000000E+00;  3.9658148E+04;  5.6516074E-02;  0.0000000E+00; -6.9697788E-03;  5.4048101E+03;
  8.5944009E-01;  9.9999998E-03;  2.9132271E-01;7446;  2.5813155E-02;  0.0000000E+00; -3.2833668E-03;  9.9592889E+02;  1.7363419E-01; -3.3728425E+03;3;  3.5942502E+00;  0.0000000E+00; -3.3631496E-02;0;  4.7138289E-02;  1.3282450E+04;  0.0000000E+00;  5.0254536E-01;  4.0000000E+04;  0.0000000E+00;  3.9663094E+04;  5.4816753E-02;  0.0000000E+00; -7.6784627E-03;  8.7262471E+03;
  8.5955995E-01;  9.9999998E-03;  3.0135855E-01;7447;  2.7341506E-02;  0.0000000E+00; -3.2983122E-03;  9.9541382E+02;  1.7362760E-01; -3.7995466E+03;3;  1.8407395E+00;  0.0000000E+00;  3.6773765E-01;0;  4.6521619E-02;  1.3273235E+04;  0.0000000E+00;  2.1942262E-02;  4.0000000E+04;  0.0000000E+00;  3.9668184E+04;  5.3523283E-02;  0.0000000E+00; -7.0016636E-03;  1.1501652E+04;
  8.7707037E-01;  9.9999998E-03;  2.4127403E-01;7502;  2.1541772E-02;  0.0000000E+00; -3.4273441E-03;  9.9856415E+02;  1.8215933E-01; -1.1895959E+03;3;  3.7370656E+00;  0.0000000E+00; -4.0648956E-02;0;  5.1062923E-02;  1.2150540E+04;  0.0000000E+00; -4.7559354E-01;  4.0000000E+04;  0.0000000E+00;  3.9601418E+04;  5.9227578E-02;  0.0000000E+00; -8.1646554E-03;  1.8357435E+03;
  8.7696296E-01;  9.9999998E-03;  2.5130829E-01;7503;  2.2411073E-02;  0.0000000E+00; -3.4914622E-03;  9.9811755E+02;  1.8209061E-01; -1.5595607E+03;3;  3.7327213E+00;  0.0000000E+00; -3.5376966E-02;0;  4.7617942E-02;  1.2152670E+04;  0.0000000E+00;  1.7002936E-01;  4.0000000E+04;  0.0000000E+00;  3.9606250E+04;  5.5941742E-02;  0.0000000E+00; -8.3237998E-03;  2.4931084E+03;
  8.7726003E-01;  9.9999998E-03;  2.6134312E-01;7504;  2.3234133E-02;  0.0000000E+00; -3.5790023E-03;  9.9762677E+02;  1.8223831E-01; -1.9661665E+03;3;  3.7189286E+00;  0.0000000E+00; -2.9780671E-02;0;  4.3843515E-02;  1.2125391E+04;  0.0000000E+00;  5.2975923E-01;  4.0000000E+04;  0.0000000E+00;  3.9611734E+04;  5.2598137E-02;  0.0000000E+00; -8.7546241E-03;  3.1770090E+03;
  8.7772959E-01;  9.9999998E-03;  2.7137893E-01;7505;  2.4031470E-02;  0.0000000E+00; -3.6670463E-03;  9.9712518E+02;  1.8247744E-01; -2.3817102E+03;3;  3.6795073E+00;  0.0000000E+00; -3.7862934E-02;0;  4.0017150E-02;  1.2085172E+04;  0.0000000E+00;  6.3456178E-01;  4.0000000E+04;  0.0000000E+00;  3.9616895E+04;  4.9329668E-02;  0.0000000E+00; -9.3125179E-03;  4.4481646E+03;
  8.7789315E-01;  9.9999998E-03;  2.8141484E-01;7506;  2.4982968E-02;  0.0000000E+00; -3.7387810E-03;  9.9664874E+02;  1.8255147E-01; -2.7764644E+03;3;  3.5254233E+00;  0.0000000E+00; -7.1608238E-03;0;  3.6731627E-02;  1.2066425E+04;  0.0000000E+00;  3.7071785E-01;  4.0000000E+04;  0.0000000E+00;  3.9622141E+04;  4.6549581E-02;  0.0000000E+00; -9.8179542E-03;  7.3679829E+03;
  8.7787956E-01;  9.9999998E-03;  2.9145142E-01;7507;  2.6342174E-02;  0.0000000E+00; -3.7470602E-03;  9.9613922E+02;  1.8250178E-01; -3.1985759E+03;3;  2.2310991E+00;  0.0000000E+00;  4.3071654E-01;0;  3.4904007E-02;  1.2063351E+04;  0.0000000E+00; -2.4767694E-01;  4.0000000E+04;  0.0000000E+00;  3.9627801E+04;  4.4413336E-02;  0.0000000E+00; -9.5093297E-03;  1.1580588E+04;
  8.7783247E-01;  9.9999998E-03;  3.0148923E-01;7508;  2.7992122E-02;  0.0000000E+00; -3.4979940E-03;  9.9556079E+02;  1.8238860E-01; -3.6778215E+03;3; -1.9019071E+00;  0.0000000E+00;  3.6326969E-01;0;  3.8736504E-02;  1.2067699E+04;  0.0000000E+00; -7.5591171E-01;  4.0000000E+04;  0.0000000E+00;  3.9633488E+04;  4.2792432E-02;  0.0000000E+00; -4.0559280E-03;  1.4456462E+04;
  8.9554369E-01;  9.9999998E-03;  2.4139500E-01;7563;  2.3522696E-02;  0.0000000E+00; -3.6403595E-03;  9.9914026E+02;  1.9141826E-01; -7.1227612E+02;3;  3.5144172E+00;  0.0000000E+00; -2.1335655E-01;0;  4.3568011E-02;  1.1039453E+04;  0.0000000E+00; -7.2510469E-01;  4.0000000E+04;  0.0000000E+00;  3.9559086E+04;  5.1004339E-02;  0.0000000E+00; -7.4363267E-03;  1.1072957E+03;
  8.9556199E-01;  9.9999998E-03;  2.5143260E-01;7564;  2.4189591E-02;  0.0000000E+00; -3.7601523E-03;  9.9871228E+02;  1.9143362E-01; -1.0668340E+03;3;  3.2792876E+00;  0.0000000E+00; -2.0519868E-01;0;  3.9182201E-02;  1.1033829E+04;  0.0000000E+00; -3.2461441E-01;  4.0000000E+04;  0.0000000E+00;  3.9563340E+04;  4.6770271E-02;  0.0000000E+00; -7.5880690E-03;  1.4609000E+03;
  8.9614427E-01;  9.9999998E-03;  2.6147008E-01;7565;  2.4826759E-02;  0.0000000E+00; -3.9144335E-03;  9.9819000E+02;  1.9173275E-01; -1.4995624E+03;3;  2.7581947E+00;  0.0000000E+00; -1.5414043E-01;0;  3.4121141E-02;  1.0993090E+04;  0.0000000E+00; -1.8450654E-01;  4.0000000E+04;  0.0000000E+00;  3.9568387E+04;  4.2390361E-02;  0.0000000E+00; -8.2692187E-03;  2.8742971E+03;
  8.9667541E-01;  9.9999998E-03;  2.7150759E-01;7566;  2.5628168E-02;  0.0000000E+00; -4.0098703E-03;  9.9766876E+02;  1.9199170E-01; -1.9314020E+03;3;  1.2181885E+00;  0.0000000E+00;  1.6231878E-01;0;  2.9546332E-02;  1.0955575E+04;  0.0000000E+00; -2.8979561E-01;  4.0000000E+04;  0.0000000E+00;  3.9574172E+04;  3.8406659E-02;  0.0000000E+00; -8.8603282E-03;  5.6071475E+03;
  8.9698529E-01;  9.9999998E-03;  2.8154653E-01;7567;  2.6531624E-02;  0.0000000E+00; -3.8770048E-03;  9.9715088E+02;  1.9212654E-01; -2.3604270E+03;3; -2.2574573E+00;  0.0000000E+00;  2.5541767E-01;0;  2.8751615E-02;  1.0931805E+04;  0.0000000E+00; -6.8728465E-01;  4.0000000E+04;  0.0000000E+00;  3.9579781E+04;  3.4957968E-02;  0.0000000E+00; -6.2063523E-03;  9.8374619E+03;
  8.9701587E-01;  9.9999998E-03;  2.9158705E-01;7568;  2.7321851E-02;  0.0000000E+00; -3.8212540E-03;  9.9661493E+02;  1.9208689E-01; -2.8044636E+03;3; -3.8626227E+00;  0.0000000E+00; -6.3150668E-01;0;  2.8247656E-02;  1.0927621E+04;  0.0000000E+00; -1.4113541E+00;  4.0000000E+04;  0.0000000E+00;  3.9584941E+04;  3.1950440E-02;  0.0000000E+00; -3.7027837E-03;  1.5126202E+04;
  8.9695030E-01;  9.9999998E-03;  3.0162871E-01;7569;  2.8098786E-02;  0.0000000E+00; -4.0074820E-03;  9.9604065E+02;  1.9194460E-01; -3.2802527E+03;3; -4.2816553E+00;  0.0000000E+00; -6.2539881E-01;0;  2.3656659E-02;  1.0934434E+04;  0.0000000E+00; -2.0913367E+00;  4.0000000E+04;  0.0000000E+00;  3.9590504E+04;  2.9335564E-02;  0.0000000E+00; -5.6789042E-03;  1.9145912E+04;
  9.1613179E-01;  9.9999998E-03;  2.4150170E-01;7624;  2.5312487E-02;  0.0000000E+00; -4.1126269E-03;  9.9891711E+02;  2.0196773E-01; -8.9715973E+02;3; -3.1449881E+00;  0.0000000E+00; -1.1707571E+00;0;  2.9428121E-02;  9.9257285E+03;  0.0000000E+00; -7.1553695E-01;  4.0000000E+04;  0.0000000E+00;  3.9522309E+04;  3.6794145E-02;  0.0000000E+00; -7.3660244E-03;  1.2724857E+03;
  9.1623527E-01;  9.9999998E-03;  2.5154814E-01;7625;  2.5509479E-02;  0.0000000E+00; -4.2111245E-03;  9.9845709E+02;  2.0204045E-01; -1.2782848E+03;3; -3.4648488E+00;  0.0000000E+00; -1.1358978E+00;0;  2.4604315E-02;  9.9151377E+03;  0.0000000E+00; -5.1261699E-01;  4.0000000E+04;  0.0000000E+00;  3.9526379E+04;  3.2050870E-02;  0.0000000E+00; -7.4465559E-03;  1.7126144E+03;
  9.1669285E-01;  9.9999998E-03;  2.6159132E-01;7626;  2.5735671E-02;  0.0000000E+00; -4.3175365E-03;  9.9791742E+02;  2.0229699E-01; -1.7253832E+03;3; -3.7580874E+00;  0.0000000E+00; -1.0937122E+00;0;  1.9541098E-02;  9.8839209E+03;  0.0000000E+00; -4.0990278E-01;  4.0000000E+04;  0.0000000E+00;  3.9531402E+04;  2.7318353E-02;  0.0000000E+00; -7.7772555E-03;  2.6293899E+03;
  9.1716856E-01;  9.9999998E-03;  2.7163327E-01;7627;  2.6019406E-02;  0.0000000E+00; -4.4008433E-03;  9.9734637E+02;  2.0254871E-01; -2.1984561E+03;3; -4.0058355E+00;  0.0000000E+00; -1.0602477E+00;0;  1.4831340E-02;  9.8511475E+03;  0.0000000E+00; -4.1685861E-01;  4.0000000E+04;  0.0000000E+00;  3.9537121E+04;  2.2927059E-02;  0.0000000E+00; -8.0957189E-03;  3.9978323E+03;
  9.1747779E-01;  9.9999998E-03;  2.8167638E-01;7628;  2.6383255E-02;  0.0000000E+00; -4.4618286E-03;  9.9677081E+02;  2.0270887E-01; -2.6753315E+03;3; -4.2278795E+00;  0.0000000E+00; -1.0071911E+00;0;  1.0808188E-02;  9.8267383E+03;  0.0000000E+00; -4.9220505E-01;  4.0000000E+04;  0.0000000E+00;  3.9543648E+04;  1.9058665E-02;  0.0000000E+00; -8.2504777E-03;  5.7103618E+03;
  9.1749072E-01;  9.9999998E-03;  2.9172093E-01;7629;  2.6846744E-02;  0.0000000E+00; -4.4730362E-03;  9.9621063E+02;  2.0270400E-01; -3.1394172E+03;3; -4.4866581E+00;  0.0000000E+00; -9.1181773E-01;0;  8.1810206E-03;  9.8187227E+03;  0.0000000E+00; -6.3757509E-01;  4.0000000E+04;  0.0000000E+00;  3.9550016E+04;  1.5833093E-02;  0.0000000E+00; -7.6520722E-03;  7.7238340E+03;
  9.1734463E-01;  9.9999998E-03;  3.0176699E-01;7630;  2.7424168E-02;  0.0000000E+00; -4.4392040E-03;  9.9566821E+02;  2.0259346E-01; -3.5887871E+03;3; -4.7174563E+00;  0.0000000E+00; -7.6976007E-01;0;  6.9594923E-03;  9.8215234E+03;  0.0000000E+00; -8.1254363E-01;  4.0000000E+04;  0.0000000E+00;  3.9556461E+04;  1.3134517E-02;  0.0000000E+00; -6.1750244E-03;  9.6845518E+03;
  9.3844426E-01;  9.9999998E-03;  2.4160698E-01;7685;  2.5079131E-02;  0.0000000E+00; -4.6776808E-03;  9.9835938E+02;  2.1391062E-01; -1.3592207E+03;3; -3.1778085E+00;  0.0000000E+00; -2.6504230E-01;0;  9.6369162E-03;  8.8469971E+03;  0.0000000E+00; -2.9991552E-01;  4.0000000E+04;  0.0000000E+00;  3.9486480E+04;  1.7175227E-02;  0.0000000E+00; -7.5383116E-03;  1.9041868E+03;
  9.3832344E-01;  9.9999998E-03;  2.5165862E-01;7686;  2.5246622E-02;  0.0000000E+00; -4.7444990E-03;  9.9779285E+02;  2.1386151E-01; -1.8285901E+03;3; -3.4821589E+00;  0.0000000E+00; -2.9514849E-01;0;  5.1792460E-03;  8.8455547E+03;  0.0000000E+00; -5.1141202E-01;  4.0000000E+04;  0.0000000E+00;  3.9492027E+04;  1.3029384E-02;  0.0000000E+00; -7.8501385E-03;  2.4621101E+03;
  9.3872052E-01;  9.9999998E-03;  2.6170862E-01;7687;  2.5446124E-02;  0.0000000E+00; -4.8556682E-03;  9.9716730E+02;  2.1408747E-01; -2.3468469E+03;3; -3.7603056E+00;  0.0000000E+00; -2.7844778E-01;0;  1.5893020E-05;  8.8191660E+03;  0.0000000E+00; -5.9921950E-01;  4.0000000E+04;  0.0000000E+00;  3.9497414E+04;  8.7579107E-03;  0.0000000E+00; -8.7420177E-03;  3.3291641E+03;
  9.3929458E-01;  9.9999998E-03;  2.7175763E-01;7688;  2.5689073E-02;  0.0000000E+00; -4.9799453E-03;  9.9650256E+02;  2.1439707E-01; -2.8975474E+03;3; -4.0379939E+00;  0.0000000E+00; -2.2930729E-01;0; -5.4855770E-03;  8.7842930E+03;  0.0000000E+00; -4.8670980E-01;  4.0000000E+04;  0.0000000E+00;  3.9503996E+04;  4.6982742E-03;  0.0000000E+00; -1.0183851E-02;  4.9781294E+03;
  9.3973726E-01;  9.9999998E-03;  2.8180668E-01;7689;  2.5996421E-02;  0.0000000E+00; -5.0865244E-03;  9.9578894E+02;  2.1462885E-01; -3.4887900E+03;3; -4.3018265E+00;  0.0000000E+00; -1.3946119E-01;0; -1.0658487E-02;  8.7549092E+03;  0.0000000E+00;  5.3996939E-02;  4.0000000E+04;  0.0000000E+00;  3.9511109E+04;  1.1074847E-03;  0.0000000E+00; -1.1765972E-02;  9.0910352E+03;
  9.4003165E-01;  9.9999998E-03;  2.9185781E-01;7690;  2.6404370E-02;  0.0000000E+00; -5.1694266E-03;  9.9509070E+02;  2.1475263E-01; -4.0672427E+03;3; -4.5548568E+00;  0.0000000E+00; -2.5810733E-02;0; -1.5044179E-02;  8.7346016E+03;  0.0000000E+00;  1.1279359E+00;  4.0000000E+04;  0.0000000E+00;  3.9518469E+04; -2.0310036E-03;  0.0000000E+00; -1.3013176E-02;  1.6151147E+04;
  9.4034404E-01;  9.9999998E-03;  3.0191171E-01;7691;  2.6951564E-02;  0.0000000E+00; -5.2726390E-03;  9.9445630E+02;  2.1482520E-01; -4.5928574E+03;3; -4.8596821E+00;  0.0000000E+00;  8.6434186E-02;0; -1.9185159E-02;  8.7200225E+03;  0.0000000E+00;  2.4623098E+00;  4.0000000E+04;  0.0000000E+00;  3.9525176E+04; -4.8943534E-03;  0.0000000E+00; -1.4290807E-02;  2.4180268E+04;
  9.6212888E-01;  9.9999998E-03;  2.4172010E-01;7746;  2.4696205E-02;  0.0000000E+00; -4.9941530E-03;  9.9812231E+02;  2.2722103E-01; -1.5556102E+03;3; -3.2278476E+00;  0.0000000E+00;  4.9908674E-01;0; -8.9234039E-03;  7.8428291E+03;  0.0000000E+00;  6.1466444E-01;  4.0000000E+04;  0.0000000E+00;  3.9445086E+04; -2.9399749E-03;  0.0000000E+00; -5.9834295E-03;  4.8392056E+03;
  9.6196902E-01;  9.9999998E-03;  2.5177398E-01;7747;  2.4843916E-02;  0.0000000E+00; -5.0311652E-03;  9.9742676E+02;  2.2714058E-01; -2.1318901E+03;3; -3.5279369E+00;  0.0000000E+00;  5.0440723E-01;0; -1.2574391E-02;  7.8407959E+03;  0.0000000E+00; -2.0228124E-01;  4.0000000E+04;  0.0000000E+00;  3.9453164E+04; -6.4155539E-03;  0.0000000E+00; -6.1588376E-03;  3.6402717E+03;
  9.6233153E-01;  9.9999998E-03;  2.6183066E-01;7748;  2.5012083E-02;  0.0000000E+00; -5.1000342E-03;  9.9672284E+02;  2.2734760E-01; -2.7150835E+03;3; -3.8154070E+00;  0.0000000E+00;  5.3940672E-01;0; -1.6805431E-02;  7.8178887E+03;  0.0000000E+00; -7.6527643E-01;  4.0000000E+04;  0.0000000E+00;  3.9459883E+04; -9.9930596E-03;  0.0000000E+00; -6.8123718E-03;  4.7036851E+03;
  9.6306068E-01;  9.9999998E-03;  2.7188927E-01;7749;  2.5211425E-02;  0.0000000E+00; -5.1968857E-03;  9.9608228E+02;  2.2774448E-01; -3.2457844E+03;3; -4.1024742E+00;  0.0000000E+00;  6.1132836E-01;0; -2.1637185E-02;  7.7827505E+03;  0.0000000E+00; -9.2812705E-01;  4.0000000E+04;  0.0000000E+00;  3.9464848E+04; -1.3526033E-02;  0.0000000E+00; -8.1111519E-03;  8.5580244E+03;
  9.6380055E-01;  9.9999998E-03;  2.8194883E-01;7750;  2.5504587E-02;  0.0000000E+00; -5.3246333E-03;  9.9547797E+02;  2.2810224E-01; -3.7464124E+03;3; -4.3902640E+00;  0.0000000E+00;  7.0850599E-01;0; -2.7039040E-02;  7.7509053E+03;  0.0000000E+00; -5.3702259E-01;  4.0000000E+04;  0.0000000E+00;  3.9469594E+04; -1.6798774E-02;  0.0000000E+00; -1.0240267E-02;  1.7302176E+04;
  9.6471405E-01;  9.9999998E-03;  2.9201230E-01;7751;  2.5965016E-02;  0.0000000E+00; -5.5159144E-03;  9.9501227E+02;  2.2846662E-01; -4.1322285E+03;3; -4.7254081E+00;  0.0000000E+00;  8.2875675E-01;0; -3.3619151E-02;  7.7218730E+03;  0.0000000E+00;  5.1792089E-02;  4.0000000E+04;  0.0000000E+00;  3.9472531E+04; -2.0021770E-02;  0.0000000E+00; -1.3597381E-02;  2.7367654E+04;
  9.6588826E-01;  9.9999998E-03;  3.0208039E-01;7752;  2.6599357E-02;  0.0000000E+00; -5.6940001E-03;  9.9485382E+02;  2.2883229E-01; -4.2635332E+03;3; -5.0433583E+00;  0.0000000E+00;  9.7303730E-01;0; -3.9963886E-02;  7.6983359E+03;  0.0000000E+00; -3.3984461E-01;  4.0000000E+04;  0.0000000E+00;  3.9472234E+04; -2.3319885E-02;  0.0000000E+00; -1.6643999E-02;  2.9196355E+04;
  9.8593652E-01;  9.9999998E-03;  2.4183351E-01;7807;  2.4114814E-02;  0.0000000E+00; -5.1224944E-03;  9.9828485E+02;  2.4115965E-01; -1.4209474E+03;3; -3.3882411E+00;  0.0000000E+00;  1.2266999E+00;0; -2.2779167E-02;  6.9695879E+03;  0.0000000E+00;  1.3429332E+00;  4.0000000E+04;  0.0000000E+00;  3.9402113E+04; -1.9716047E-02;  0.0000000E+00; -3.0631192E-03;  6.8613950E+03;
  9.8613596E-01;  9.9999998E-03;  2.5189728E-01;7808;  2.4203043E-02;  0.0000000E+00; -5.0919531E-03;  9.9766791E+02;  2.4128878E-01; -1.9320934E+03;3; -3.6779737E+00;  0.0000000E+00;  1.2760583E+00;0; -2.5577910E-02;  6.9560444E+03;  0.0000000E+00;  1.7267823E-01;  4.0000000E+04;  0.0000000E+00;  3.9409391E+04; -2.2966150E-02;  0.0000000E+00; -2.6117610E-03;  4.1661665E+03;
  9.8662084E-01;  9.9999998E-03;  2.6196402E-01;7809;  2.4311651E-02;  0.0000000E+00; -5.0668693E-03;  9.9704999E+02;  2.4158166E-01; -2.4440295E+03;3; -3.9649167E+00;  0.0000000E+00;  1.3376892E+00;0; -2.8401040E-02;  6.9327544E+03;  0.0000000E+00; -8.7389147E-01;  4.0000000E+04;  0.0000000E+00;  3.9414434E+04; -2.6102556E-02;  0.0000000E+00; -2.2984836E-03;  4.6983770E+03;
  9.8752838E-01;  9.9999998E-03;  2.7203420E-01;7810;  2.4429224E-02;  0.0000000E+00; -5.0828275E-03;  9.9658844E+02;  2.4211429E-01; -2.8263889E+03;3; -4.2488132E+00;  0.0000000E+00;  1.4158945E+00;0; -3.1729087E-02;  6.8980869E+03;  0.0000000E+00; -1.5420544E+00;  4.0000000E+04;  0.0000000E+00;  3.9416688E+04; -2.9200079E-02;  0.0000000E+00; -2.5290076E-03;  8.8437383E+03;
  9.8843455E-01;  9.9999998E-03;  2.8210491E-01;7811;  2.4637222E-02;  0.0000000E+00; -5.1681362E-03;  9.9623633E+02;  2.4259476E-01; -3.1181338E+03;3; -4.5391717E+00;  0.0000000E+00;  1.4812092E+00;0; -3.6132663E-02;  6.8683730E+03;  0.0000000E+00; -1.6927032E+00;  4.0000000E+04;  0.0000000E+00;  3.9417199E+04; -3.2089006E-02;  0.0000000E+00; -4.0436573E-03;  1.9095336E+04;
  9.8965359E-01;  9.9999998E-03;  2.9218006E-01;7812;  2.5011588E-02;  0.0000000E+00; -5.3046430E-03;  9.9612280E+02;  2.4315217E-01; -3.2122053E+03;3; -4.8391905E+00;  0.0000000E+00;  1.5819309E+00;0; -4.1873444E-02;  6.8387329E+03;  0.0000000E+00; -1.8720927E+00;  4.0000000E+04;  0.0000000E+00;  3.9414730E+04; -3.5076991E-02;  0.0000000E+00; -6.7964527E-03;  2.9443426E+04;
  9.9110019E-01;  9.9999998E-03;  3.0225915E-01;7813;  2.5505353E-02;  0.0000000E+00; -5.3907218E-03;  9.9627515E+02;  2.4372663E-01; -3.0859866E+03;3; -5.1264052E+00;  0.0000000E+00;  1.6885203E+00;0; -4.6957958E-02;  6.8133467E+03;  0.0000000E+00; -3.1381617E+00;  4.0000000E+04;  0.0000000E+00;  3.9410184E+04; -3.8114373E-02;  0.0000000E+00; -8.8435868E-03;  2.9161443E+04;
  1.0107363E+00;  9.9999998E-03;  2.4197197E-01;7868;  2.3272725E-02;  0.0000000E+00; -5.2221143E-03;  9.9850708E+02;  2.5624371E-01; -1.2368538E+03;3; -3.5917907E+00;  0.0000000E+00;  2.0037172E+00;0; -3.2506276E-02;  6.1813242E+03;  0.0000000E+00;  1.1384043E+00;  4.0000000E+04;  0.0000000E+00;  3.9356152E+04; -3.3065133E-02;  0.0000000E+00;  5.5885565E-04;  6.0820337E+03;
  1.0112267E+00;  9.9999998E-03;  2.5204518E-01;7869;  2.3270225E-02;  0.0000000E+00; -5.0860271E-03;  9.9804620E+02;  2.5657150E-01; -1.6186702E+03;3; -3.8659377E+00;  0.0000000E+00;  2.0654242E+00;0; -3.4545530E-02;  6.1618838E+03;  0.0000000E+00;  8.4207118E-02;  4.0000000E+04;  0.0000000E+00;  3.9361027E+04; -3.6275126E-02;  0.0000000E+00;  1.7295947E-03;  3.6201189E+03;
  1.0117583E+00;  9.9999998E-03;  2.6211873E-01;7870;  2.3306986E-02;  0.0000000E+00; -4.8418972E-03;  9.9758521E+02;  2.5692296E-01; -2.0006346E+03;3; -4.1402516E+00;  0.0000000E+00;  2.1196921E+00;0; -3.5239052E-02;  6.1416250E+03;  0.0000000E+00; -1.0443379E+00;  4.0000000E+04;  0.0000000E+00;  3.9365176E+04; -3.9204452E-02;  0.0000000E+00;  3.9653997E-03;  3.8019585E+03;
  1.0124996E+00;  9.9999998E-03;  2.7219430E-01;7871;  2.3357907E-02;  0.0000000E+00; -4.6930513E-03;  9.9720721E+02;  2.5739384E-01; -2.3137615E+03;3; -4.4128103E+00;  0.0000000E+00;  2.1740279E+00;0; -3.6102489E-02;  6.1165962E+03;  0.0000000E+00; -1.9561051E+00;  4.0000000E+04;  0.0000000E+00;  3.9366309E+04; -4.1943703E-02;  0.0000000E+00;  5.8412161E-03;  6.1400078E+03;
  1.0132726E+00;  9.9999998E-03;  2.8227004E-01;7872;  2.3465095E-02;  0.0000000E+00; -4.6827882E-03;  9.9691650E+02;  2.5785723E-01; -2.5545942E+03;3; -4.6702204E+00;  0.0000000E+00;  2.2359300E+00;0; -3.8581196E-02;  6.0936382E+03;  0.0000000E+00; -2.3791463E+00;  4.0000000E+04;  0.0000000E+00;  3.9365770E+04; -4.4460081E-02;  0.0000000E+00;  5.8788829E-03;  1.4746270E+04;
  1.0143861E+00;  9.9999998E-03;  2.9235020E-01;7873;  2.3694487E-02;  0.0000000E+00; -4.7338684E-03;  9.9674786E+02;  2.5849786E-01; -2.6943433E+03;3; -4.9181180E+00;  0.0000000E+00;  2.2936332E+00;0; -4.2628855E-02;  6.0646987E+03;  0.0000000E+00; -2.5121202E+00;  4.0000000E+04;  0.0000000E+00;  3.9363414E+04; -4.6995208E-02;  0.0000000E+00;  4.3663518E-03;  2.6327783E+04;
  1.0156906E+00;  9.9999998E-03;  3.0243391E-01;7874;  2.4128793E-02;  0.0000000E+00; -4.8239371E-03;  9.9667426E+02;  2.5917023E-01; -2.7553293E+03;3; -5.1527061E+00;  0.0000000E+00;  2.3426466E+00;0; -4.7941133E-02;  6.0373525E+03;  0.0000000E+00; -2.8341112E+00;  4.0000000E+04;  0.0000000E+00;  3.9359965E+04; -4.9579374E-02;  0.0000000E+00;  1.6382405E-03;  3.3690410E+04;
  1.0358888E+00;  9.9999998E-03;  2.4213740E-01;7929;  2.2174001E-02;  0.0000000E+00; -5.2571166E-03;  9.9841486E+02;  2.7204630E-01; -1.3132466E+03;3; -3.7826438E+00;  0.0000000E+00;  2.7673481E+00;0; -3.9627057E-02;  5.4892983E+03;  0.0000000E+00; -2.8139395E-01;  4.0000000E+04;  0.0000000E+00;  3.9309375E+04; -4.4236485E-02;  0.0000000E+00;  4.6094293E-03;  3.5313298E+03;
  1.0365330E+00;  9.9999998E-03;  2.5221151E-01;7930;  2.2056483E-02;  0.0000000E+00; -5.0877836E-03;  9.9800983E+02;  2.7251649E-01; -1.6488420E+03;3; -4.0304422E+00;  0.0000000E+00;  2.8322961E+00;0; -4.1766018E-02;  5.4676924E+03;  0.0000000E+00; -7.6979560E-01;  4.0000000E+04;  0.0000000E+00;  3.9313730E+04; -4.7710568E-02;  0.0000000E+00;  5.9445505E-03;  2.9838149E+03;
  1.0369734E+00;  9.9999998E-03;  2.6228365E-01;7931;  2.2010464E-02;  0.0000000E+00; -4.7026756E-03;  9.9759991E+02;  2.7284870E-01; -1.9884373E+03;3; -4.2716684E+00;  0.0000000E+00;  2.8480244E+00;0; -4.1633725E-02;  5.4519761E+03;  0.0000000E+00; -1.3872175E+00;  4.0000000E+04;  0.0000000E+00;  3.9318816E+04; -5.0746523E-02;  0.0000000E+00;  9.1127958E-03;  3.6651528E+03;
  1.0372192E+00;  9.9999998E-03;  2.7235612E-01;7932;  2.2018768E-02;  0.0000000E+00; -4.3338663E-03;  9.9720660E+02;  2.7302939E-01; -2.3142551E+03;3; -4.5020256E+00;  0.0000000E+00;  2.7913771E+00;0; -4.0131439E-02;  5.4423857E+03;  0.0000000E+00; -1.9638183E+00;  4.0000000E+04;  0.0000000E+00;  3.9322211E+04; -5.3359635E-02;  0.0000000E+00;  1.3228196E-02;  4.1538535E+03;
  1.0375626E+00;  9.9999998E-03;  2.8243107E-01;7933;  2.2075498E-02;  0.0000000E+00; -4.0606777E-03;  9.9686023E+02;  2.7327290E-01; -2.6012593E+03;3; -4.7124114E+00;  0.0000000E+00;  2.6900349E+00;0; -3.8747467E-02;  5.4311079E+03;  0.0000000E+00; -2.2874157E+00;  4.0000000E+04;  0.0000000E+00;  3.9323367E+04; -5.5710070E-02;  0.0000000E+00;  1.6962605E-02;  5.5375884E+03;
  1.0381627E+00;  9.9999998E-03;  2.9251027E-01;7934;  2.2163255E-02;  0.0000000E+00; -3.9066984E-03;  9.9652112E+02;  2.7371040E-01; -2.8821897E+03;3; -4.9111094E+00;  0.0000000E+00;  2.5050397E+00;0; -3.9032571E-02;  5.4131362E+03;  0.0000000E+00; -2.2359934E+00;  4.0000000E+04;  0.0000000E+00;  3.9323582E+04; -5.7902787E-02;  0.0000000E+00;  1.8870214E-02;  1.0433516E+04;
  1.0389729E+00;  9.9999998E-03;  3.0259338E-01;7935;  2.2325203E-02;  0.0000000E+00; -3.9036861E-03;  9.9611188E+02;  2.7430704E-01; -3.2212417E+03;3; -5.1163487E+00;  0.0000000E+00;  2.3940516E+00;0; -4.2519551E-02;  5.3897100E+03;  0.0000000E+00; -1.7897309E+00;  4.0000000E+04;  0.0000000E+00;  3.9324965E+04; -5.9958637E-02;  0.0000000E+00;  1.7439086E-02;  1.7389250E+04;
  1.0617661E+00;  9.9999998E-03;  2.4232863E-01;7990;  2.0833114E-02;  0.0000000E+00; -5.2598361E-03;  9.9842212E+02;  2.8875110E-01; -1.3072220E+03;3; -3.9549754E+00;  0.0000000E+00;  3.4592907E+00;0; -4.7566846E-02;  4.8792002E+03;  0.0000000E+00; -2.0675852E+00;  4.0000000E+04;  0.0000000E+00;  3.9257660E+04; -5.6179661E-02;  0.0000000E+00;  8.6128134E-03;  1.6581470E+03;
  1.0623280E+00;  9.9999998E-03;  2.5239363E-01;7991;  2.0571604E-02;  0.0000000E+00; -5.1320321E-03;  9.9790466E+02;  2.8922144E-01; -1.7359507E+03;3; -4.1435213E+00;  0.0000000E+00;  3.5114894E+00;0; -5.0616380E-02;  4.8600376E+03;  0.0000000E+00; -1.9871932E+00;  4.0000000E+04;  0.0000000E+00;  3.9262793E+04; -6.0098257E-02;  0.0000000E+00;  9.4818762E-03;  2.2514663E+03;
  1.0629830E+00;  9.9999998E-03;  2.6246238E-01;7992;  2.0373860E-02;  0.0000000E+00; -4.8473771E-03;  9.9739215E+02;  2.8976905E-01; -2.1605312E+03;3; -4.3049998E+00;  0.0000000E+00;  3.4629643E+00;0; -5.2475374E-02;  4.8385918E+03;  0.0000000E+00; -1.9375045E+00;  4.0000000E+04;  0.0000000E+00;  3.9268645E+04; -6.3675925E-02;  0.0000000E+00;  1.1200552E-02;  3.9032329E+03;
  1.0634677E+00;  9.9999998E-03;  2.7253205E-01;7993;  2.0261612E-02;  0.0000000E+00; -4.3099406E-03;  9.9696710E+02;  2.9016694E-01; -2.5127188E+03;3; -4.4753528E+00;  0.0000000E+00;  3.3542631E+00;0; -5.0713427E-02;  4.8226714E+03;  0.0000000E+00; -1.8850318E+00;  4.0000000E+04;  0.0000000E+00;  3.9274500E+04; -6.6766389E-02;  0.0000000E+00;  1.6052963E-02;  6.9484990E+03;
  1.0637795E+00;  9.9999998E-03;  2.8260538E-01;7994;  2.0276748E-02;  0.0000000E+00; -3.7614112E-03;  9.9657367E+02;  2.9040679E-01; -2.8386353E+03;3; -4.6275935E+00;  0.0000000E+00;  3.1126769E+00;0; -4.6716444E-02;  4.8124873E+03;  0.0000000E+00; -1.8173023E+00;  4.0000000E+04;  0.0000000E+00;  3.9278695E+04; -6.9346249E-02;  0.0000000E+00;  2.2629807E-02;  1.1183286E+04;
  1.0639488E+00;  9.9999998E-03;  2.9268262E-01;7995;  2.0453813E-02;  0.0000000E+00; -3.6148278E-03;  9.9614862E+02;  2.9052725E-01; -3.1907734E+03;3; -4.7886457E+00;  0.0000000E+00;  2.8179665E+00;0; -4.7775514E-02;  4.8071304E+03;  0.0000000E+00; -1.6716548E+00;  4.0000000E+04;  0.0000000E+00;  3.9281312E+04; -7.1423225E-02;  0.0000000E+00;  2.3647711E-02;  1.5681338E+04;
  1.0641153E+00;  9.9999998E-03;  3.0276242E-01;7996;  2.0747313E-02;  0.0000000E+00; -3.6684277E-03;  9.9560303E+02;  2.9062608E-01; -3.6428101E+03;3; -4.9512181E+00;  0.0000000E+00;  2.7175910E+00;0; -5.2893247E-02;  4.8028550E+03;  0.0000000E+00; -1.2246423E+00;  4.0000000E+04;  0.0000000E+00;  3.9285777E+04; -7.3132128E-02;  0.0000000E+00;  2.0238880E-02;  1.7766213E+04;
  1.0915451E+00;  9.9999998E-03;  2.5259048E-01;8052;  1.8601591E-02;  0.0000000E+00; -4.8101023E-03;  9.9798639E+02;  3.0885550E-01; -1.6682488E+03;3; -4.2095447E+00;  0.0000000E+00;  3.9602158E+00;0; -6.2365711E-02;  4.2676025E+03;  0.0000000E+00; -3.3468447E+00;  4.0000000E+04;  0.0000000E+00;  3.9208340E+04; -7.7589124E-02;  0.0000000E+00;  1.5223416E-02;  3.6114688E+03;
  1.0909697E+00;  9.9999998E-03;  2.4252695E-01;8051;  1.9039780E-02;  0.0000000E+00; -4.9618697E-03;  9.9870929E+02;  3.0827966E-01; -1.0693522E+03;3; -4.1038437E+00;  0.0000000E+00;  4.0364370E+00;0; -5.8945924E-02;  4.2877090E+03;  0.0000000E+00; -3.5334432E+00;  4.0000000E+04;  0.0000000E+00;  3.9203027E+04; -7.2896011E-02;  0.0000000E+00;  1.3950086E-02;  1.7039805E+03;
  1.0921694E+00;  9.9999998E-03;  2.6265955E-01;8053;  1.8244430E-02;  0.0000000E+00; -4.8271874E-03;  9.9718945E+02;  3.0947959E-01; -2.3284768E+03;3; -4.3018756E+00;  0.0000000E+00;  3.8995664E+00;0; -6.7659453E-02;  4.2458481E+03;  0.0000000E+00; -2.9768429E+00;  4.0000000E+04;  0.0000000E+00;  3.9213832E+04; -8.1907183E-02;  0.0000000E+00;  1.4247727E-02;  6.3403560E+03;
  1.0924287E+00;  9.9999998E-03;  2.7272746E-01;8054;  1.8005168E-02;  0.0000000E+00; -4.5708572E-03;  9.9657269E+02;  3.0978227E-01; -2.8394746E+03;3; -4.3936496E+00;  0.0000000E+00;  3.8412917E+00;0; -7.0929162E-02;  4.2339751E+03;  0.0000000E+00; -2.3595304E+00;  4.0000000E+04;  0.0000000E+00;  3.9220828E+04; -8.5548140E-02;  0.0000000E+00;  1.4618975E-02;  1.0243938E+04;
  1.0925967E+00;  9.9999998E-03;  2.8279927E-01;8055;  1.7934602E-02;  0.0000000E+00; -4.0876567E-03;  9.9604205E+02;  3.0995563E-01; -3.2790669E+03;3; -4.4735389E+00;  0.0000000E+00;  3.6976011E+00;0; -7.0640504E-02;  4.2262349E+03;  0.0000000E+00; -1.6755285E+00;  4.0000000E+04;  0.0000000E+00;  3.9227285E+04; -8.8611722E-02;  0.0000000E+00;  1.7971218E-02;  1.7140812E+04;
  1.0925030E+00;  9.9999998E-03;  2.9287463E-01;8056;  1.8202506E-02;  0.0000000E+00; -3.7399190E-03;  9.9547980E+02;  3.0978391E-01; -3.7448809E+03;3; -4.5558167E+00;  0.0000000E+00;  3.4373751E+00;0; -7.0813641E-02;  4.2283384E+03;  0.0000000E+00; -1.1348644E+00;  4.0000000E+04;  0.0000000E+00;  3.9233426E+04; -9.0777472E-02;  0.0000000E+00;  1.9963834E-02;  2.7271443E+04;
  1.0924374E+00;  9.9999998E-03;  3.0295128E-01;8057;  1.8758813E-02;  0.0000000E+00; -3.5876657E-03;  9.9459674E+02;  3.0938533E-01; -4.4765142E+03;3; -4.6542730E+00;  0.0000000E+00;  3.0744255E+00;0; -7.3571399E-02;  4.2347866E+03;  0.0000000E+00; -3.5985947E-01;  4.0000000E+04;  0.0000000E+00;  3.9242672E+04; -9.2276603E-02;  0.0000000E+00;  1.8705200E-02;  3.2005201E+04;
  1.1238618E+00;  9.9999998E-03;  2.4270727E-01;8112;  1.6247923E-02;  0.0000000E+00; -4.6654688E-03;  9.9912762E+02;  3.3099791E-01; -7.2274469E+02;3; -4.2471585E+00;  0.0000000E+00;  4.2053332E+00;0; -7.6887809E-02;  3.7244697E+03;  0.0000000E+00; -3.8614337E+00;  4.0000000E+04;  0.0000000E+00;  3.9149906E+04; -9.5761560E-02;  0.0000000E+00;  1.8873749E-02;  5.4958965E+03;
  1.1247128E+00;  9.9999998E-03;  2.5278172E-01;8113;  1.5580992E-02;  0.0000000E+00; -4.2116540E-03;  9.9817120E+02;  3.3188164E-01; -1.5151171E+03;3; -4.2388816E+00;  0.0000000E+00;  4.1937847E+00;0; -7.9464398E-02;  3.6996023E+03;  0.0000000E+00; -4.1178617E+00;  4.0000000E+04;  0.0000000E+00;  3.9156715E+04; -1.0164179E-01;  0.0000000E+00;  2.2177389E-02;  8.7664414E+03;
  1.1256566E+00;  9.9999998E-03;  2.6286009E-01;8114;  1.4941151E-02;  0.0000000E+00; -3.9377175E-03;  9.9693604E+02;  3.3286175E-01; -2.5384458E+03;3; -4.2219877E+00;  0.0000000E+00;  4.1474476E+00;0; -8.3262265E-02;  3.6714844E+03;  0.0000000E+00; -4.1758904E+00;  4.0000000E+04;  0.0000000E+00;  3.9163805E+04; -1.0726597E-01;  0.0000000E+00;  2.4003709E-02;  1.1987279E+04;
  1.1256845E+00;  9.9999998E-03;  2.7293390E-01;8115;  1.4513153E-02;  0.0000000E+00; -3.5407341E-03;  9.9595013E+02;  3.3303195E-01; -3.3552124E+03;3; -4.1932588E+00;  0.0000000E+00;  4.0052862E+00;0; -8.5208088E-02;  3.6627305E+03;  0.0000000E+00; -3.8239121E+00;  4.0000000E+04;  0.0000000E+00;  3.9171004E+04; -1.1174542E-01;  0.0000000E+00;  2.6537333E-02;  1.4259363E+04;
  1.1255637E+00;  9.9999998E-03;  2.8300950E-01;8116;  1.4248671E-02;  0.0000000E+00; -2.9382429E-03;  9.9505743E+02;  3.3303708E-01; -4.0947961E+03;3; -4.1510181E+00;  0.0000000E+00;  3.6549034E+00;0; -8.3610609E-02;  3.6580557E+03;  0.0000000E+00; -3.2755067E+00;  4.0000000E+04;  0.0000000E+00;  3.9178395E+04; -1.1560525E-01;  0.0000000E+00;  3.1994645E-02;  1.8994889E+04;
  1.1254178E+00;  9.9999998E-03;  2.9309046E-01;8117;  1.4286905E-02;  0.0000000E+00; -2.5201961E-03;  9.9412323E+02;  3.3293843E-01; -4.8687988E+03;3; -4.0785265E+00;  0.0000000E+00;  2.9835985E+00;0; -8.3565891E-02;  3.6558884E+03;  0.0000000E+00; -2.7235506E+00;  4.0000000E+04;  0.0000000E+00;  3.9186059E+04; -1.1875916E-01;  0.0000000E+00;  3.5193276E-02;  2.7857170E+04;
  1.1251733E+00;  9.9999998E-03;  3.0317372E-01;8118;  1.4847476E-02;  0.0000000E+00; -2.5565082E-03;  9.9305481E+02;  3.3254662E-01; -5.7539585E+03;3; -4.0711017E+00;  0.0000000E+00;  2.5073671E+00;0; -9.0842426E-02;  3.6598752E+03;  0.0000000E+00; -2.1874993E+00;  4.0000000E+04;  0.0000000E+00;  3.9195781E+04; -1.2086340E-01;  0.0000000E+00;  3.0020973E-02;  3.7706035E+04;
  1.1596309E+00;  9.9999998E-03;  2.4289313E-01;8173;  1.1917419E-02;  0.0000000E+00; -4.6295710E-03;  9.9878235E+02;  3.5607836E-01; -1.0088104E+03;3; -4.3967028E+00;  0.0000000E+00;  4.1498880E+00;0; -1.0116450E-01;  3.2194958E+03;  0.0000000E+00; -2.2596343E+00;  4.0000000E+04;  0.0000000E+00;  3.9092441E+04; -1.2058104E-01;  0.0000000E+00;  1.9416543E-02;  7.2001201E+03;
  1.1611736E+00;  9.9999998E-03;  2.5297755E-01;8174;  1.0872259E-02;  0.0000000E+00; -3.5573947E-03;  9.9790930E+02;  3.5757414E-01; -1.7320981E+03;3; -4.1887298E+00;  0.0000000E+00;  3.9697239E+00;0; -1.0220772E-01;  3.1884883E+03;  0.0000000E+00; -2.9748013E+00;  4.0000000E+04;  0.0000000E+00;  3.9102328E+04; -1.2777348E-01;  0.0000000E+00;  2.5565760E-02;  1.1308701E+04;
  1.1643620E+00;  9.9999998E-03;  2.6308188E-01;8175;  9.5400279E-03;  0.0000000E+00; -2.6239243E-03;  9.9657971E+02;  3.6059093E-01; -2.8336465E+03;3; -3.9995999E+00;  0.0000000E+00;  3.7937341E+00;0; -1.0351336E-01;  3.1289285E+03;  0.0000000E+00; -4.0587230E+00;  4.0000000E+04;  0.0000000E+00;  3.9107938E+04; -1.3562530E-01;  0.0000000E+00;  3.2111939E-02;  1.6897244E+04;
  1.1656140E+00;  9.9999998E-03;  2.8326055E-01;8177;  8.0799963E-03;  0.0000000E+00; -1.6092457E-03;  9.9377972E+02;  3.6200902E-01; -5.1533818E+03;3; -3.5843146E+00;  0.0000000E+00;  2.7801518E+00;0; -1.0716280E-01;  3.0925420E+03;  0.0000000E+00; -6.2226930E+00;  4.0000000E+04;  0.0000000E+00;  3.9122129E+04; -1.4660142E-01;  0.0000000E+00;  3.9438616E-02;  1.9549982E+04;
  1.1656672E+00;  9.9999998E-03;  2.7317482E-01;8176;  8.6036427E-03;  0.0000000E+00; -1.8609937E-03;  9.9519482E+02;  3.6191523E-01; -3.9809714E+03;3; -3.7943847E+00;  0.0000000E+00;  3.4157355E+00;0; -1.0311351E-01;  3.1001897E+03;  0.0000000E+00; -5.2477436E+00;  4.0000000E+04;  0.0000000E+00;  3.9114152E+04; -1.4180304E-01;  0.0000000E+00;  3.8689531E-02;  1.9779752E+04;
  1.1661210E+00;  9.9999998E-03;  2.9335475E-01;8178;  7.5263348E-03;  0.0000000E+00; -1.6496481E-03;  9.9223322E+02;  3.6263248E-01; -6.4346289E+03;3; -3.4286146E+00;  0.0000000E+00;  2.6157260E+00;0; -1.1769383E-01;  3.0754111E+03;  0.0000000E+00; -6.7123098E+00;  4.0000000E+04;  0.0000000E+00;  3.9131906E+04; -1.5126756E-01;  0.0000000E+00;  3.3573732E-02;  1.5760207E+04;
  1.1670450E+00;  9.9999998E-03;  3.0345675E-01;8179;  6.9214962E-03;  0.0000000E+00; -1.6574141E-03;  9.9058777E+02;  3.6368802E-01; -7.7978477E+03;3; -3.2865243E+00;  0.0000000E+00;  2.5137672E+00;0; -1.2928218E-01;  3.0511965E+03;  0.0000000E+00; -6.3845935E+00;  4.0000000E+04;  0.0000000E+00;  3.9144211E+04; -1.5573981E-01;  0.0000000E+00;  2.6457636E-02;  1.1197039E+04;
  1.1986203E+00;  9.9999998E-03;  2.4310346E-01;8234;  5.9666848E-03;  0.0000000E+00; -3.9861305E-03;  9.9734210E+02;  3.8426980E-01; -2.2020093E+03;3; -4.4248152E+00;  0.0000000E+00;  3.3529105E+00;0; -1.2332058E-01;  2.7647844E+03;  0.0000000E+00;  5.8033125E-04;  4.0000000E+04;  0.0000000E+00;  3.9024520E+04; -1.4031605E-01;  0.0000000E+00;  1.6995477E-02;  4.0678474E+03;
  1.2008431E+00;  9.9999998E-03;  2.5319052E-01;8235;  4.3778806E-03;  0.0000000E+00; -2.7011835E-03;  9.9669885E+02;  3.8636887E-01; -2.7349319E+03;3; -4.0144181E+00;  0.0000000E+00;  3.1745827E+00;0; -1.2647633E-01;  2.7321938E+03;  0.0000000E+00; -1.1036116E+00;  4.0000000E+04;  0.0000000E+00;  3.9039387E+04; -1.4771533E-01;  0.0000000E+00;  2.1238996E-02;  9.5324395E+03;
  1.2053159E+00;  9.9999998E-03;  2.6331797E-01;8236;  2.3598543E-03;  0.0000000E+00; -8.3969015E-04;  9.9633472E+02;  3.9064708E-01; -3.0366018E+03;3; -3.6294398E+00;  0.0000000E+00;  2.8273864E+00;0; -1.2401901E-01;  2.6708267E+03;  0.0000000E+00; -3.0595713E+00;  4.0000000E+04;  0.0000000E+00;  3.9041977E+04; -1.5531150E-01;  0.0000000E+00;  3.1292479E-02;  1.5952801E+04;
  1.2080084E+00;  9.9999998E-03;  2.7344042E-01;8237;  6.9141964E-04;  0.0000000E+00; -1.2698493E-04;  9.9559625E+02;  3.9332250E-01; -3.6484355E+03;3; -3.2564349E+00;  0.0000000E+00;  2.2571204E+00;0; -1.2776175E-01;  2.6326951E+03;  0.0000000E+00; -5.9503536E+00;  4.0000000E+04;  0.0000000E+00;  3.9039410E+04; -1.6146143E-01;  0.0000000E+00;  3.3699673E-02;  2.2280303E+04;
  1.2088165E+00;  9.9999998E-03;  2.8354308E-01;8238; -4.4597348E-04;  0.0000000E+00; -1.5980905E-04;  9.9412341E+02;  3.9422804E-01; -4.8686460E+03;3; -2.9056392E+00;  0.0000000E+00;  2.1041133E+00;0; -1.3933958E-01;  2.6158445E+03;  0.0000000E+00; -8.8110962E+00;  4.0000000E+04;  0.0000000E+00;  3.9045891E+04; -1.6631515E-01;  0.0000000E+00;  2.6975572E-02;  2.0768059E+04;
  1.2098922E+00;  9.9999998E-03;  2.9365101E-01;8239; -1.5591839E-03;  0.0000000E+00; -1.6749614E-04;  9.9245416E+02;  3.9539066E-01; -6.2515684E+03;3; -2.5799484E+00;  0.0000000E+00;  2.0579476E+00;0; -1.5267721E-01;  2.5950295E+03;  0.0000000E+00; -1.0835485E+01;  4.0000000E+04;  0.0000000E+00;  3.9056141E+04; -1.7062183E-01;  0.0000000E+00;  1.7944612E-02;  9.5874160E+03;
  1.2119395E+00;  9.9999998E-03;  3.0377221E-01;8240; -2.5818192E-03;  0.0000000E+00;  1.0606930E-04;  9.9096106E+02;  3.9737749E-01; -7.4885688E+03;3; -2.2035174E+00;  0.0000000E+00;  1.8080727E+00;0; -1.6300786E-01;  2.5650710E+03;  0.0000000E+00; -1.1851387E+01;  4.0000000E+04;  0.0000000E+00;  3.9065789E+04; -1.7482124E-01;  0.0000000E+00;  1.1813380E-02;  2.4629734E+04;
  1.2409259E+00;  9.9999998E-03;  2.4335882E-01;8295; -5.0387514E-04;  0.0000000E+00; -2.5381765E-04;  9.9752423E+02;  4.1610458E-01; -2.0511477E+03;3; -4.2693968E+00;  0.0000000E+00;  2.0203004E+00;0; -1.3532221E-01;  2.3672595E+03;  0.0000000E+00;  8.7128073E-01;  4.0000000E+04;  0.0000000E+00;  3.8932262E+04; -1.5926880E-01;  0.0000000E+00;  2.3946581E-02;  1.6399500E+03;
  1.2433889E+00;  9.9999998E-03;  2.5347495E-01;8296; -2.6133396E-03;  0.0000000E+00; -1.4565022E-04;  9.9698590E+02;  4.1846415E-01; -2.4971094E+03;3; -3.7018974E+00;  0.0000000E+00;  1.8673810E+00;0; -1.4847831E-01;  2.3395671E+03;  0.0000000E+00; -6.8132442E-01;  4.0000000E+04;  0.0000000E+00;  3.8931168E+04; -1.6624320E-01;  0.0000000E+00;  1.7764887E-02;  5.7847734E+03;
  1.2478851E+00;  9.9999998E-03;  2.6360810E-01;8297; -5.0817821E-03;  0.0000000E+00;  5.0808513E-04;  9.9714734E+02;  4.2290857E-01; -2.3633845E+03;3; -3.1021500E+00;  0.0000000E+00;  1.6298729E+00;0; -1.6363895E-01;  2.2910256E+03;  0.0000000E+00; -3.2250783E+00;  4.0000000E+04;  0.0000000E+00;  3.8926195E+04; -1.7359211E-01;  0.0000000E+00;  9.9531552E-03;  1.4175970E+04;
  1.2512069E+00;  9.9999998E-03;  2.7372637E-01;8298; -7.3746233E-03;  0.0000000E+00;  1.7101211E-03;  9.9718701E+02;  4.2633495E-01; -2.3304966E+03;3; -2.5006690E+00;  0.0000000E+00;  1.4010683E+00;0; -1.7308071E-01;  2.2551147E+03;  0.0000000E+00; -6.7945571E+00;  4.0000000E+04;  0.0000000E+00;  3.8929777E+04; -1.7952585E-01;  0.0000000E+00;  6.4451452E-03;  2.3704502E+04;
  1.2523528E+00;  9.9999998E-03;  2.8383073E-01;8299; -9.0636732E-03;  0.0000000E+00;  3.0504137E-03;  9.9602319E+02;  4.2763478E-01; -3.2947136E+03;3; -1.9638213E+00;  0.0000000E+00;  8.2210439E-01;0; -1.7344534E-01;  2.2386592E+03;  0.0000000E+00; -1.0134220E+01;  4.0000000E+04;  0.0000000E+00;  3.8943414E+04; -1.8363352E-01;  0.0000000E+00;  1.0188171E-02;  2.0864521E+04;
  1.2535692E+00;  9.9999998E-03;  2.9394653E-01;8300; -1.0511103E-02;  0.0000000E+00;  3.9684647E-03;  9.9438751E+02;  4.2901179E-01; -4.6498325E+03;3; -1.4212067E+00;  0.0000000E+00;  1.7033875E-01;0; -1.7619385E-01;  2.2205183E+03;  0.0000000E+00; -1.2179330E+01;  4.0000000E+04;  0.0000000E+00;  3.8956688E+04; -1.8734369E-01;  0.0000000E+00;  1.1149842E-02;  6.8955146E+03;
  1.2558421E+00;  9.9999998E-03;  3.0408075E-01;8301; -1.1516727E-02;  0.0000000E+00;  4.5516281E-03;  9.9293073E+02;  4.3140328E-01; -5.8567578E+03;3; -8.3290005E-01;  0.0000000E+00; -3.3896080E-01;0; -1.8569960E-01;  2.1937209E+03;  0.0000000E+00; -1.2894938E+01;  4.0000000E+04;  0.0000000E+00;  3.8965285E+04; -1.9179417E-01;  0.0000000E+00;  6.0945689E-03;  4.0349520E+04;
  1.2849844E+00;  9.9999998E-03;  2.4347597E-01;8356; -7.0630130E-03;  0.0000000E+00;  8.2448032E-03;  9.9857629E+02;  4.5001954E-01; -1.1795177E+03;3; -3.8087435E+00;  0.0000000E+00; -5.3179562E-01;0; -1.4679317E-01;  2.0302030E+03;  0.0000000E+00;  2.1711522E-01;  4.0000000E+04;  0.0000000E+00;  3.8884254E+04; -1.9309375E-01;  0.0000000E+00;  4.6300579E-02;  2.8162942E+03;
  1.2877265E+00;  9.9999998E-03;  2.5363159E-01;8357; -9.5508080E-03;  0.0000000E+00;  9.4910609E-03;  9.9823206E+02;  4.5280829E-01; -1.4646935E+03;3; -3.1025188E+00;  0.0000000E+00; -1.1556953E+00;0; -1.5229565E-01;  2.0046217E+03;  0.0000000E+00; -1.5706779E+00;  4.0000000E+04;  0.0000000E+00;  3.8882023E+04; -2.0111990E-01;  0.0000000E+00;  4.8824247E-02;  6.7730762E+03;
  1.2925522E+00;  9.9999998E-03;  2.6381752E-01;8358; -1.2575740E-02;  0.0000000E+00;  1.0552435E-02;  9.9817645E+02;  4.5790285E-01; -1.5107656E+03;3; -2.2591481E+00;  0.0000000E+00; -1.6333934E+00;0; -1.6317931E-01;  1.9599495E+03;  0.0000000E+00; -4.3710847E+00;  4.0000000E+04;  0.0000000E+00;  3.8863090E+04; -2.1038632E-01;  0.0000000E+00;  4.7207009E-02;  1.6100856E+04;
  1.2961169E+00;  9.9999998E-03;  2.7397212E-01;8359; -1.5353041E-02;  0.0000000E+00;  1.1295934E-02;  9.9774719E+02;  4.6183050E-01; -1.8664077E+03;3; -1.4110934E+00;  0.0000000E+00; -2.1160026E+00;0; -1.7609799E-01;  1.9264327E+03;  0.0000000E+00; -8.0313082E+00;  4.0000000E+04;  0.0000000E+00;  3.8852922E+04; -2.1796355E-01;  0.0000000E+00;  4.1865561E-02;  2.7423750E+04;
  1.2967471E+00;  9.9999998E-03;  2.8409404E-01;8360; -1.7280037E-02;  0.0000000E+00;  1.1582796E-02;  9.9648547E+02;  4.6274096E-01; -2.9117068E+03;3; -6.5477425E-01;  0.0000000E+00; -2.5972869E+00;0; -1.8729930E-01;  1.9172395E+03;  0.0000000E+00; -1.1101102E+01;  4.0000000E+04;  0.0000000E+00;  3.8860086E+04; -2.2235063E-01;  0.0000000E+00;  3.5051331E-02;  2.5372432E+04;
  1.2969062E+00;  9.9999998E-03;  2.9421726E-01;8361; -1.8743735E-02;  0.0000000E+00;  1.1827474E-02;  9.9482654E+02;  4.6325725E-01; -4.2860811E+03;3;  5.0838470E-02;  0.0000000E+00; -3.1841583E+00;0; -1.9776224E-01;  1.9106530E+03;  0.0000000E+00; -1.2530792E+01;  4.0000000E+04;  0.0000000E+00;  3.8872730E+04; -2.2595260E-01;  0.0000000E+00;  2.8190361E-02;  3.9275854E+03;
  1.2983965E+00;  9.9999998E-03;  3.0435926E-01;8362; -2.0038927E-02;  0.0000000E+00;  1.2256193E-02;  9.9319928E+02;  4.6532911E-01; -5.6342334E+03;3;  8.6170262E-01;  0.0000000E+00; -3.5962276E+00;0; -2.1000490E-01;  1.8919263E+03;  0.0000000E+00; -1.2608244E+01;  4.0000000E+04;  0.0000000E+00;  3.8883062E+04; -2.3081915E-01;  0.0000000E+00;  2.0814255E-02;  3.2131674E+04;
  1.3311752E+00;  9.9999998E-03;  2.4367850E-01;8417; -1.7797317E-02;  0.0000000E+00;  1.5549970E-02;  9.9615088E+02;  4.8584890E-01; -3.1889224E+03;3; -2.9946260E+00;  0.0000000E+00; -4.6779332E+00;0; -1.8605733E-01;  1.7334434E+03;  0.0000000E+00; -1.1089020E+00;  4.0000000E+04;  0.0000000E+00;  3.8829492E+04; -2.2273974E-01;  0.0000000E+00;  3.6682405E-02;  5.4451753E+03;
  1.3341402E+00;  9.9999998E-03;  2.5382790E-01;8418; -2.0644531E-02;  0.0000000E+00;  1.8545829E-02;  9.9584021E+02;  4.8909840E-01; -3.4462944E+03;3; -2.1153460E+00;  0.0000000E+00; -5.3236642E+00;0; -1.8437584E-01;  1.7088165E+03;  0.0000000E+00; -2.7500098E+00;  4.0000000E+04;  0.0000000E+00;  3.8846473E+04; -2.2910304E-01;  0.0000000E+00;  4.4727206E-02;  1.1768779E+04;
  1.3385267E+00;  9.9999998E-03;  2.6403064E-01;8419; -2.4114985E-02;  0.0000000E+00;  2.1112246E-02;  9.9517664E+02;  4.9424446E-01; -3.9960498E+03;3; -1.2723048E+00;  0.0000000E+00; -6.2998695E+00;0; -1.7871109E-01;  1.6710747E+03;  0.0000000E+00; -5.1606374E+00;  4.0000000E+04;  0.0000000E+00;  3.8840750E+04; -2.3236570E-01;  0.0000000E+00;  5.3654619E-02;  2.1289426E+04;
  1.3421279E+00;  9.9999998E-03;  2.7421430E-01;8420; -2.7443919E-02;  0.0000000E+00;  2.2662371E-02;  9.9421057E+02;  4.9865723E-01; -4.7963638E+03;3; -5.0733668E-01;  0.0000000E+00; -7.2917886E+00;0; -1.7545456E-01;  1.6398719E+03;  0.0000000E+00; -8.0921125E+00;  4.0000000E+04;  0.0000000E+00;  3.8832234E+04; -2.3483452E-01;  0.0000000E+00;  5.9379965E-02;  3.5478301E+04;
  1.3428953E+00;  9.9999998E-03;  2.8436178E-01;8421; -2.9529601E-02;  0.0000000E+00;  2.2981785E-02;  9.9298309E+02;  4.9987230E-01; -5.8133130E+03;3;  2.2032653E-01;  0.0000000E+00; -7.6470671E+00;0; -1.8370874E-01;  1.6309336E+03;  0.0000000E+00; -1.0499882E+01;  4.0000000E+04;  0.0000000E+00;  3.8830316E+04; -2.4328806E-01;  0.0000000E+00;  5.9579317E-02;  4.2970652E+04;
  1.3435208E+00;  9.9999998E-03;  2.9450583E-01;8422; -3.1541985E-02;  0.0000000E+00;  2.3084490E-02;  9.9154926E+02;  5.0100511E-01; -7.0012183E+03;3;  9.7584200E-01;  0.0000000E+00; -7.6252451E+00;0; -1.9701558E-01;  1.6224073E+03;  0.0000000E+00; -1.1734329E+01;  4.0000000E+04;  0.0000000E+00;  3.8835570E+04; -2.5171241E-01;  0.0000000E+00;  5.4696836E-02;  3.9147215E+04;
  1.3452524E+00;  9.9999998E-03;  3.0466175E-01;8423; -3.4136098E-02;  0.0000000E+00;  2.3536498E-02;  9.8991010E+02;  5.0353265E-01; -8.3592393E+03;3;  1.7700322E+00;  0.0000000E+00; -7.5281386E+00;0; -2.0872508E-01;  1.6049402E+03;  0.0000000E+00; -1.1668539E+01;  4.0000000E+04;  0.0000000E+00;  3.8844859E+04; -2.5814018E-01;  0.0000000E+00;  4.9415093E-02;  3.0426482E+04;
  1.3802111E+00;  9.9999998E-03;  2.4411353E-01;8478; -3.1525142E-02;  0.0000000E+00;  2.6371902E-02;  9.9363800E+02;  5.2293658E-01; -5.2707290E+03;3; -2.4546535E+00;  0.0000000E+00; -1.1331897E+01;0;  4.0690339E-01;  1.4908082E+03;  0.0000000E+00; -2.4455717E+00;  4.0000000E+04;  0.0000000E+00;  3.8732102E+04;  4.3571228E-01;  0.0000000E+00; -2.8808892E-02;  6.4750210E+03;
  1.3820769E+00;  9.9999998E-03;  2.5422001E-01;8479; -3.4821417E-02;  0.0000000E+00;  2.7169175E-02;  9.9362866E+02;  5.2509004E-01; -5.2784302E+03;3; -1.5345824E+00;  0.0000000E+00; -1.1745959E+01;0;  4.2933747E-01;  1.4778895E+03;  0.0000000E+00; -3.1222808E+00;  4.0000000E+04;  0.0000000E+00;  3.8759672E+04;  4.7119558E-01;  0.0000000E+00; -4.1858103E-02;  1.4402953E+04;
  1.3861524E+00;  9.9999998E-03;  2.6440087E-01;8480; -3.8873740E-02;  0.0000000E+00;  2.8615346E-02;  9.9322253E+02;  5.2975750E-01; -5.6149028E+03;3; -7.6726174E-01;  0.0000000E+00; -1.2335321E+01;0;  5.2515781E-01;  1.4504799E+03;  0.0000000E+00; -4.1621118E+00;  4.0000000E+04;  0.0000000E+00;  3.8764004E+04;  5.8670521E-01;  0.0000000E+00; -6.1547425E-02;  2.6387332E+04;
  1.3918633E+00;  9.9999998E-03;  2.7460524E-01;8481; -4.3542922E-02;  0.0000000E+00;  3.0242844E-02;  9.9253601E+02;  5.3636724E-01; -6.1836572E+03;3; -2.1517436E-01;  0.0000000E+00; -1.2842495E+01;0;  6.9235945E-01;  1.4134292E+03;  0.0000000E+00; -5.7983804E+00;  4.0000000E+04;  0.0000000E+00;  3.8751746E+04;  7.8287834E-01;  0.0000000E+00; -9.0518877E-02;  4.1711402E+04;
  1.3950095E+00;  9.9999998E-03;  2.8477123E-01;8482; -4.7351990E-02;  0.0000000E+00;  3.0681485E-02;  9.9166272E+02;  5.3997707E-01; -6.9071221E+03;3; -7.5236424E-03;  0.0000000E+00; -1.2737023E+01;0;  7.6838332E-01;  1.3938290E+03;  0.0000000E+00; -7.5893717E+00;  4.0000000E+04;  0.0000000E+00;  3.8747031E+04;  8.8388616E-01;  0.0000000E+00; -1.1550286E-01;  5.2093141E+04;
  1.3972688E+00;  9.9999998E-03;  2.9492852E-01;8483; -5.1231489E-02;  0.0000000E+00;  3.0964045E-02;  9.9059637E+02;  5.4251516E-01; -7.7905806E+03;3;  8.8804312E-02;  0.0000000E+00; -1.2210820E+01;0;  8.1700701E-01;  1.3803566E+03;  0.0000000E+00; -8.8897429E+00;  4.0000000E+04;  0.0000000E+00;  3.8749465E+04;  9.4809765E-01;  0.0000000E+00; -1.3109063E-01;  5.4701098E+04;
  1.3997312E+00;  9.9999998E-03;  3.0509418E-01;8484; -5.6181550E-02;  0.0000000E+00;  3.1272687E-02;  9.8930981E+02;  5.4509491E-01; -8.8564463E+03;3;  5.8429056E-01;  0.0000000E+00; -1.1468717E+01;0;  8.8425368E-01;  1.3674817E+03;  0.0000000E+00; -9.1977520E+00;  4.0000000E+04;  0.0000000E+00;  3.8752918E+04;  1.0252079E+00;  0.0000000E+00; -1.4095421E-01;  4.8477863E+04;
  1.4355122E+00;  9.9999998E-03;  2.4467228E-01;8539; -4.0630162E-02;  0.0000000E+00;  4.8028823E-02;  9.9946747E+02;  5.4921091E-01; -4.4115643E+02;3; -2.8508613E+00;  0.0000000E+00; -1.9211882E+01;0;  3.4838896E+00;  1.3708472E+03;  0.0000000E+00; -1.8854965E+00;  4.0000000E+04;  0.0000000E+00;  3.8581527E+04;  3.6657805E+00;  0.0000000E+00; -1.8189107E-01;  1.4039511E+04;
  1.4379395E+00;  9.9999998E-03;  2.5478774E-01;8540; -4.4340342E-02;  0.0000000E+00;  4.7043007E-02;  9.9889771E+02;  5.5016273E-01; -9.1317377E+02;3; -2.0342753E+00;  0.0000000E+00; -1.9818539E+01;0;  3.5815663E+00;  1.3646833E+03;  0.0000000E+00; -2.9921846E+00;  4.0000000E+04;  0.0000000E+00;  3.8574629E+04;  3.8291934E+00;  0.0000000E+00; -2.4762698E-01;  2.0236420E+04;
  1.4422003E+00;  9.9999998E-03;  2.6491696E-01;8541; -4.7923438E-02;  0.0000000E+00;  4.4964954E-02;  9.9810114E+02;  5.5196673E-01; -1.5731260E+03;3; -1.3408935E+00;  0.0000000E+00; -1.9883062E+01;0;  3.7763560E+00;  1.3535540E+03;  0.0000000E+00; -4.7420368E+00;  4.0000000E+04;  0.0000000E+00;  3.8565078E+04;  4.1250734E+00;  0.0000000E+00; -3.4871751E-01;  2.8912525E+04;
  1.4487230E+00;  9.9999998E-03;  2.7495402E-01;8542; -5.5691626E-02;  0.0000000E+00;  5.3242784E-02;  9.9839075E+02;  5.5446464E-01; -1.3331863E+03;3; -1.0546796E+00;  0.0000000E+00; -1.9911549E+01;0;  4.2169256E+00;  1.3388140E+03;  0.0000000E+00; -7.0092244E+00;  4.0000000E+04;  0.0000000E+00;  3.8645340E+04;  4.5865130E+00;  0.0000000E+00; -3.6958748E-01;  3.1729287E+04;
  1.4528413E+00;  9.9999998E-03;  2.8507417E-01;8543; -6.3584216E-02;  0.0000000E+00;  5.8515906E-02;  9.9789502E+02;  5.5545968E-01; -1.7438673E+03;3; -4.0391250E+00;  0.0000000E+00; -1.5214414E+01;0;  4.5134697E+00;  1.3326913E+03;  0.0000000E+00; -9.3085871E+00;  4.0000000E+04;  0.0000000E+00;  3.8669352E+04;  4.8753901E+00;  0.0000000E+00; -3.6192039E-01;  3.0889283E+04;
  1.4559436E+00;  9.9999998E-03;  2.9520580E-01;8544; -6.2568024E-02;  0.0000000E+00;  5.6986358E-02;  9.9712305E+02;  5.5555069E-01; -2.3833687E+03;3; -4.8743587E+01;  0.0000000E+00;  1.1347353E+01;0;  4.6734138E+00;  1.3316021E+03;  0.0000000E+00; -1.0850183E+01;  4.0000000E+04;  0.0000000E+00;  3.8691676E+04;  5.0954251E+00;  0.0000000E+00; -4.2201123E-01;  2.4139789E+04;
  1.4589993E+00;  9.9999998E-03;  3.0534738E-01;8545; -4.6684358E-02;  0.0000000E+00;  5.8405228E-02;  9.9587231E+02;  5.5517799E-01; -3.4195261E+03;3; -1.0657701E+02;  0.0000000E+00;  1.1836230E+01;0;  4.9095340E+00;  1.3333127E+03;  0.0000000E+00; -1.0579430E+01;  4.0000000E+04;  0.0000000E+00;  3.8715809E+04;  5.3107262E+00;  0.0000000E+00; -4.0119219E-01;  1.1127717E+04;
  1.4918233E+00;  9.9999998E-03;  2.4450293E-01;8600;  4.7600362E-01;  0.0000000E+00;  1.4293659E-01;  1.0013983E+03;  5.2785468E-01;  1.1583864E+03;3; -4.1141800E+01;  0.0000000E+00; -7.4458075E-01;0;  5.1648350E+00;  1.4892161E+03;  0.0000000E+00; -1.2689003E+00;  4.0000000E+04;  0.0000000E+00;  3.8584754E+04;  5.0917015E+00;  0.0000000E+00;  7.3133677E-02;  1.4463539E+04;
  1.4941998E+00;  9.9999998E-03;  2.5465468E-01;8601;  4.9137470E-01;  0.0000000E+00;  1.3894124E-01;  1.0011408E+03;  5.2687573E-01;  9.4507440E+02;3; -4.3091518E+01;  0.0000000E+00; -2.2357109E-01;0;  5.2677588E+00;  1.4937191E+03;  0.0000000E+00; -3.1624911E+00;  4.0000000E+04;  0.0000000E+00;  3.8575848E+04;  5.1849589E+00;  0.0000000E+00;  8.2799807E-02;  2.0889654E+04;
  1.4978486E+00;  9.9999998E-03;  2.6479548E-01;8602;  5.1767594E-01;  0.0000000E+00;  1.2895274E-01;  1.0010576E+03;  5.2587485E-01;  8.7613977E+02;3; -4.2320255E+01;  0.0000000E+00; -5.5570662E-01;0;  5.2675929E+00;  1.4985193E+03;  0.0000000E+00; -5.6894040E+00;  4.0000000E+04;  0.0000000E+00;  3.8567742E+04;  5.2153301E+00;  0.0000000E+00;  5.2262776E-02;  2.7809441E+04;
  1.5035179E+00;  9.9999998E-03;  2.7493605E-01;8603;  5.5437911E-01;  0.0000000E+00;  1.0954835E-01;  1.0013063E+03;  5.2465105E-01;  1.0821302E+03;3; -3.3728031E+01;  0.0000000E+00; -3.2790611E+00;0;  5.0128222E+00;  1.5055098E+03;  0.0000000E+00; -8.4524326E+00;  4.0000000E+04;  0.0000000E+00;  3.8553617E+04;  5.1237006E+00;  0.0000000E+00; -1.1087871E-01;  3.1032545E+04;
  1.5079275E+00;  9.9999998E-03;  2.8506479E-01;8604;  5.7381892E-01;  0.0000000E+00;  9.9762455E-02;  1.0014866E+03;  5.2301198E-01;  1.2315342E+03;3; -3.5775791E+01;  0.0000000E+00; -2.4871650E+00;0;  4.8364186E+00;  1.5155543E+03;  0.0000000E+00; -1.0991033E+01;  4.0000000E+04;  0.0000000E+00;  3.8553609E+04;  5.0530987E+00;  0.0000000E+00; -2.1668024E-01;  3.2600406E+04;
  1.5112593E+00;  9.9999998E-03;  2.9519868E-01;8605;  5.8513689E-01;  0.0000000E+00;  9.5249765E-02;  1.0010966E+03;  5.2090949E-01;  9.0841315E+02;3; -4.0214005E+01;  0.0000000E+00; -7.3101443E-01;0;  4.7540483E+00;  1.5286429E+03;  0.0000000E+00; -1.2191315E+01;  4.0000000E+04;  0.0000000E+00;  3.8565086E+04;  5.0120349E+00;  0.0000000E+00; -2.5798631E-01;  2.6953203E+04;
  1.5144182E+00;  9.9999998E-03;  3.0533871E-01;8606;  5.9307355E-01;  0.0000000E+00;  9.3049444E-02;  9.9999432E+02;  5.1868808E-01; -4.6906600E+00;3; -4.5523113E+01;  0.0000000E+00;  1.3886836E+00;0;  4.7049823E+00;  1.5429181E+03;  0.0000000E+00; -1.0125644E+01;  4.0000000E+04;  0.0000000E+00;  3.8588934E+04;  4.9583888E+00;  0.0000000E+00; -2.5340649E-01;  9.5882080E+03;
  1.5423070E+00;  9.9999998E-03;  2.4413566E-01;8661;  6.4461225E-01;  0.0000000E+00;  1.3563190E-01;  1.0051105E+03;  4.8436970E-01;  4.2331797E+03;3;  6.3205322E+01;  0.0000000E+00;  4.8482586E+01;0;  2.6509631E+00;  1.7796461E+03;  0.0000000E+00; -2.2414799E+00;  4.0000000E+04;  0.0000000E+00;  3.8621781E+04;  2.3242421E+00;  0.0000000E+00;  3.2672101E-01;  1.6948578E+04;
  1.5443763E+00;  9.9999998E-03;  2.5429577E-01;8662;  6.6377163E-01;  0.0000000E+00;  1.4297622E-01;  1.0051035E+03;  4.8303539E-01;  4.2273291E+03;3;  5.6173126E+01;  0.0000000E+00;  3.9869171E+01;0;  2.7590218E+00;  1.7882095E+03;  0.0000000E+00; -5.2006674E+00;  4.0000000E+04;  0.0000000E+00;  3.8620129E+04;  2.3475728E+00;  0.0000000E+00;  4.1144890E-01;  2.7383104E+04;
  1.5473609E+00;  9.9999998E-03;  2.6445803E-01;8663;  6.7626894E-01;  0.0000000E+00;  1.4246525E-01;  1.0051939E+03;  4.8163515E-01;  4.3022388E+03;3;  5.0550674E+01;  0.0000000E+00;  3.5271854E+01;0;  2.8041859E+00;  1.7973295E+03;  0.0000000E+00; -8.7724581E+00;  4.0000000E+04;  0.0000000E+00;  3.8616996E+04;  2.3045418E+00;  0.0000000E+00;  4.9964392E-01;  3.9548066E+04;
  1.5522996E+00;  9.9999998E-03;  2.7463463E-01;8664;  6.9839579E-01;  0.0000000E+00;  1.2928167E-01;  1.0052339E+03;  4.7978240E-01;  4.3353506E+03;3;  6.1558197E+01;  0.0000000E+00;  2.8981379E+01;0;  2.6340723E+00;  1.8099434E+03;  0.0000000E+00; -1.2320147E+01;  4.0000000E+04;  0.0000000E+00;  3.8594078E+04;  2.1328113E+00;  0.0000000E+00;  5.0126100E-01;  4.8749707E+04;
  1.5568358E+00;  9.9999998E-03;  2.8480726E-01;8665;  7.2208798E-01;  0.0000000E+00;  1.1363062E-01;  1.0048676E+03;  4.7737005E-01;  4.0317583E+03;3;  7.1853722E+01;  0.0000000E+00;  2.6848108E+01;0;  2.3895843E+00;  1.8277095E+03;  0.0000000E+00; -1.5109428E+01;  4.0000000E+04;  0.0000000E+00;  3.8564641E+04;  1.9716589E+00;  0.0000000E+00;  4.1792542E-01;  5.8678816E+04;
  1.5605628E+00;  9.9999998E-03;  2.9495868E-01;8666;  7.3878175E-01;  0.0000000E+00;  1.0426597E-01;  1.0037100E+03;  4.7432378E-01;  3.0729512E+03;3;  7.1539536E+01;  0.0000000E+00;  2.7433819E+01;0;  2.2040033E+00;  1.8504270E+03;  0.0000000E+00; -1.5325992E+01;  4.0000000E+04;  0.0000000E+00;  3.8564074E+04;  1.8448671E+00;  0.0000000E+00;  3.5913619E-01;  5.4267309E+04;
  1.5643128E+00;  9.9999998E-03;  3.0510440E-01;8667;  7.5439066E-01;  0.0000000E+00;  9.6962936E-02;  1.0016281E+03;  4.7137395E-01;  1.3484580E+03;3;  7.0875816E+01;  0.0000000E+00;  2.8275646E+01;0;  2.0119967E+00;  1.8726151E+03;  0.0000000E+00; -9.8226032E+00;  4.0000000E+04;  0.0000000E+00;  3.8587293E+04;  1.7058578E+00;  0.0000000E+00;  3.0613908E-01;  7.7975732E+03;
  1.5903248E+00;  9.9999998E-03;  2.4382056E-01;8722;  6.4924878E-01;  0.0000000E+00;  4.8561469E-02;  1.0004018E+03;  4.3559486E-01;  3.3270499E+02;3;  8.3754761E+01;  0.0000000E+00;  5.9412579E+01;0;  7.7303660E-01;  2.1732356E+03;  0.0000000E+00; -3.3002899E+00;  4.0000000E+04;  0.0000000E+00;  3.8693766E+04;  4.0526387E-01;  0.0000000E+00;  3.6777276E-01;  2.4330270E+04;
  1.5923713E+00;  9.9999998E-03;  2.5397518E-01;8723;  6.7190516E-01;  0.0000000E+00;  5.8570936E-02;  1.0008962E+03;  4.3409124E-01;  7.4220972E+02;3;  8.8028976E+01;  0.0000000E+00;  5.8802147E+01;0;  8.3760524E-01;  2.1877542E+03;  0.0000000E+00; -6.9165130E+00;  4.0000000E+04;  0.0000000E+00;  3.8700996E+04;  4.0507928E-01;  0.0000000E+00;  4.3252596E-01;  4.2331211E+04;
  1.5940292E+00;  9.9999998E-03;  2.6415795E-01;8724;  6.9218194E-01;  0.0000000E+00;  6.7309089E-02;  1.0016158E+03;  4.3298045E-01;  1.3381956E+03;3;  8.5396446E+01;  0.0000000E+00;  4.3117714E+01;0;  9.3593985E-01;  2.2001133E+03;  0.0000000E+00; -1.1132626E+01;  4.0000000E+04;  0.0000000E+00;  3.8699199E+04;  4.0364963E-01;  0.0000000E+00;  5.3229022E-01;  6.3203328E+04;
  1.5963782E+00;  9.9999998E-03;  2.7435544E-01;8725;  7.0968908E-01;  0.0000000E+00;  6.8256453E-02;  1.0023701E+03;  4.3177456E-01;  1.9627905E+03;3;  8.4800682E+01;  0.0000000E+00;  4.0044067E+01;0;  9.8629129E-01;  2.2145645E+03;  0.0000000E+00; -1.5051985E+01;  4.0000000E+04;  0.0000000E+00;  3.8683340E+04;  3.7831414E-01;  0.0000000E+00;  6.0797715E-01;  8.1017547E+04;
  1.6002998E+00;  9.9999998E-03;  2.8457072E-01;8726;  7.2677720E-01;  0.0000000E+00;  5.5594034E-02;  1.0020510E+03;  4.2923126E-01;  1.6984694E+03;3;  8.6476875E+01;  0.0000000E+00;  3.9262615E+01;0;  8.5072738E-01;  2.2418174E+03;  0.0000000E+00; -1.7966494E+01;  4.0000000E+04;  0.0000000E+00;  3.8634047E+04;  3.1052363E-01;  0.0000000E+00;  5.4020375E-01;  9.8834266E+04;
  1.6048454E+00;  9.9999998E-03;  2.9473996E-01;8727;  7.4352241E-01;  0.0000000E+00;  4.2672280E-02;  1.0002198E+03;  4.2517439E-01;  1.8203320E+02;3;  8.9263306E+01;  0.0000000E+00;  3.8913792E+01;0;  6.5383995E-01;  2.2831052E+03;  0.0000000E+00; -1.7164564E+01;  4.0000000E+04;  0.0000000E+00;  3.8623703E+04;  2.2562018E-01;  0.0000000E+00;  4.2821980E-01;  9.3482312E+04;
  1.6098907E+00;  9.9999998E-03;  3.0488938E-01;8728;  7.6059645E-01;  0.0000000E+00;  3.2346345E-02;  9.9724097E+02;  4.2134932E-01; -2.2846599E+03;3;  9.1051331E+01;  0.0000000E+00;  3.9032047E+01;0;  4.6922225E-01;  2.3214807E+03;  0.0000000E+00; -7.6789718E+00;  4.0000000E+04;  0.0000000E+00;  3.8648785E+04;  1.3234271E-01;  0.0000000E+00;  3.3687955E-01;  2.3096248E+04;
  1.6326572E+00;  9.9999998E-03;  2.7423471E-01;8786;  7.0395863E-01;  0.0000000E+00;  9.1021153E-04;  9.9786310E+02;  3.8482037E-01; -1.7691146E+03;3;  8.9235199E+01;  0.0000000E+00;  4.1291809E+01;0;  5.6042266E-01;  2.7573347E+03;  0.0000000E+00; -1.6587498E+01;  4.0000000E+04;  0.0000000E+00;  3.8749176E+04; -4.8371617E-02;  0.0000000E+00;  6.0879427E-01;  9.9837648E+04;
  1.6349696E+00;  9.9999998E-03;  2.6403293E-01;8785;  6.8332839E-01;  0.0000000E+00; -2.2284651E-02;  9.9678589E+02;  3.8408446E-01; -2.6608843E+03;3;  9.2023300E+01;  0.0000000E+00;  5.8735741E+01;0;  4.0860489E-01;  2.7616697E+03;  0.0000000E+00; -1.3491104E+01;  4.0000000E+04;  0.0000000E+00;  3.8766871E+04; -1.3684303E-02;  0.0000000E+00;  4.2228919E-01;  9.2458945E+04;
  1.6338996E+00;  9.9999998E-03;  2.8444564E-01;8787;  7.2063732E-01;  0.0000000E+00;  1.4527715E-04;  9.9768243E+02;  3.8322774E-01; -1.9186578E+03;3;  8.9628387E+01;  0.0000000E+00;  3.3618332E+01;0;  5.3549713E-01;  2.7833484E+03;  0.0000000E+00; -1.8664373E+01;  4.0000000E+04;  0.0000000E+00;  3.8715645E+04; -8.3393954E-02;  0.0000000E+00;  6.1889106E-01;  1.0174659E+05;
  1.6363884E+00;  9.9999998E-03;  2.4354541E-01;8783;  6.4098841E-01;  0.0000000E+00; -4.4324942E-02;  9.9545764E+02;  3.8383833E-01; -3.7604304E+03;3;  8.6587639E+01;  0.0000000E+00;  4.9272350E+01;0;  3.9656198E-01;  2.7579592E+03;  0.0000000E+00; -4.5182633E+00;  4.0000000E+04;  0.0000000E+00;  3.8811324E+04;  9.0199150E-02;  0.0000000E+00;  3.0636284E-01;  4.3951988E+04;
  1.6370729E+00;  9.9999998E-03;  2.5381467E-01;8784;  6.6196215E-01;  0.0000000E+00; -3.9234132E-02;  9.9590063E+02;  3.8326922E-01; -3.3936775E+03;3;  8.9689682E+01;  0.0000000E+00;  5.2628365E+01;0;  3.7630603E-01;  2.7682300E+03;  0.0000000E+00; -9.0873976E+00;  4.0000000E+04;  0.0000000E+00;  3.8787301E+04;  3.8006585E-02;  0.0000000E+00;  3.3829945E-01;  7.0523102E+04;
  1.6405338E+00;  9.9999998E-03;  2.9463020E-01;8788;  7.3551947E-01;  0.0000000E+00; -1.7378256E-02;  9.9490057E+02;  3.7840387E-01; -4.2213999E+03;3;  9.1118668E+01;  0.0000000E+00;  3.4987911E+01;0;  3.3221063E-01;  2.8504116E+03;  0.0000000E+00; -1.7980780E+01;  4.0000000E+04;  0.0000000E+00;  3.8705910E+04; -1.3446745E-01;  0.0000000E+00;  4.6667808E-01;  1.0141036E+05;
  1.6481338E+00;  9.9999998E-03;  3.0478612E-01;8789;  7.4913049E-01;  0.0000000E+00; -2.9533381E-02;  9.9026526E+02;  3.7420723E-01; -8.0578472E+03;3;  9.3042297E+01;  0.0000000E+00;  3.5596546E+01;0;  2.0268382E-01;  2.9033579E+03;  0.0000000E+00; -5.8536901E+00;  4.0000000E+04;  0.0000000E+00;  3.8736562E+04; -1.7668979E-01;  0.0000000E+00;  3.7937361E-01;  4.3823789E+04;
  1.6659796E+00;  9.9999998E-03;  2.7420676E-01;8847;  6.9210565E-01;  0.0000000E+00; -6.9069438E-02;  9.9372412E+02;  3.4171358E-01; -5.1933882E+03;3;  9.3825211E+01;  0.0000000E+00;  4.9685574E+01;0;  5.7032216E-01;  3.4600886E+03;  0.0000000E+00; -1.7834232E+01;  4.0000000E+04;  0.0000000E+00;  3.8828375E+04;  1.6697997E-01;  0.0000000E+00;  4.0334216E-01;  8.0243578E+04;
  1.6658648E+00;  9.9999998E-03;  2.8441188E-01;8848;  7.0952618E-01;  0.0000000E+00; -4.7760449E-02;  9.9391406E+02;  3.4090400E-01; -5.0362036E+03;3;  9.2467499E+01;  0.0000000E+00;  3.4838268E+01;0;  7.2758579E-01;  3.4828860E+03;  0.0000000E+00; -1.7838318E+01;  4.0000000E+04;  0.0000000E+00;  3.8799742E+04;  6.9886148E-02;  0.0000000E+00;  6.5769964E-01;  6.4173645E+04;
  1.6696283E+00;  9.9999998E-03;  2.6404285E-01;8846;  6.7154205E-01;  0.0000000E+00; -1.0182347E-01;  9.9189160E+02;  3.3992293E-01; -6.7093545E+03;3;  9.2201263E+01;  0.0000000E+00;  3.5707809E+01;0;  5.1496661E-01;  3.4874519E+03;  0.0000000E+00; -1.7705849E+01;  4.0000000E+04;  0.0000000E+00;  3.8824234E+04;  3.5039267E-01;  0.0000000E+00;  1.6457395E-01;  9.5690203E+04;
  1.6738213E+00;  9.9999998E-03;  2.5387710E-01;8845;  6.5247995E-01;  0.0000000E+00; -1.1548677E-01;  9.9080951E+02;  3.3760735E-01; -7.6041597E+03;3;  8.9722778E+01;  0.0000000E+00;  2.9882622E+01;0;  7.1837842E-01;  3.5294592E+03;  0.0000000E+00; -1.4974522E+01;  4.0000000E+04;  0.0000000E+00;  3.8824863E+04;  5.9228718E-01;  0.0000000E+00;  1.2609124E-01;  9.0490711E+04;
  1.6748037E+00;  9.9999998E-03;  2.4368565E-01;8844;  6.3366133E-01;  0.0000000E+00; -1.1819638E-01;  9.9081104E+02;  3.3703831E-01; -7.6027295E+03;3;  8.9921783E+01;  0.0000000E+00;  2.9364769E+01;0;  9.0213084E-01;  3.5409233E+03;  0.0000000E+00; -9.1874838E+00;  4.0000000E+04;  0.0000000E+00;  3.8830000E+04;  7.8372514E-01;  0.0000000E+00;  1.1840572E-01;  6.1113762E+04;
  1.6717876E+00;  9.9999998E-03;  2.9459631E-01;8849;  7.2086525E-01;  0.0000000E+00; -5.1251981E-02;  9.9008368E+02;  3.3670574E-01; -8.2050107E+03;3;  9.5212418E+01;  0.0000000E+00;  2.3247877E+01;0;  7.5733316E-01;  3.5622544E+03;  0.0000000E+00; -1.6618835E+01;  4.0000000E+04;  0.0000000E+00;  3.8802523E+04;  7.0879258E-02;  0.0000000E+00;  6.8645388E-01;  7.0738547E+04;
  1.6793908E+00;  9.9999998E-03;  3.0475229E-01;8850;  7.3142034E-01;  0.0000000E+00; -6.6041060E-02;  9.8301678E+02;  3.3377433E-01; -1.4050193E+04;3;  9.8638649E+01;  0.0000000E+00;  2.2490074E+01;0;  6.2057656E-01;  3.5944243E+03;  0.0000000E+00; -1.0092320E+00;  4.0000000E+04;  0.0000000E+00;  3.8845031E+04;  1.1540493E-01;  0.0000000E+00;  5.0517166E-01;  3.4966508E+04;
  1.6964160E+00;  9.9999998E-03;  2.7426079E-01;8908;  6.7566592E-01;  0.0000000E+00; -1.3148947E-01;  9.9003247E+02;  3.0443540E-01; -8.2426924E+03;3;  9.2369812E+01;  0.0000000E+00;  4.1112358E+01;0;  9.2158026E-01;  4.3216812E+03;  0.0000000E+00; -1.7886198E+01;  4.0000000E+04;  0.0000000E+00;  3.8887430E+04;  9.6687645E-01;  0.0000000E+00; -4.5296215E-02;  4.9804156E+04;
  1.6962218E+00;  9.9999998E-03;  2.8444582E-01;8909;  6.9058067E-01;  0.0000000E+00; -9.8856688E-02;  9.9031921E+02;  3.0396667E-01; -8.0056479E+03;3;  9.7736870E+01;  0.0000000E+00;  4.3288494E+01;0;  1.1237960E+00;  4.3421768E+03;  0.0000000E+00; -1.7538412E+01;  4.0000000E+04;  0.0000000E+00;  3.8877883E+04;  7.8930598E-01;  0.0000000E+00;  3.3449003E-01;  4.2250461E+04;
  1.6996987E+00;  9.9999998E-03;  2.6411077E-01;8907;  6.6041076E-01;  0.0000000E+00; -1.5358061E-01;  9.8825378E+02;  3.0273089E-01; -9.7127168E+03;3;  9.1084801E+01;  0.0000000E+00;  2.3661789E+01;0;  1.1026809E+00;  4.3618403E+03;  0.0000000E+00; -1.9456530E+01;  4.0000000E+04;  0.0000000E+00;  3.8870848E+04;  1.2870884E+00;  0.0000000E+00; -1.8440753E-01;  7.1562898E+04;
  1.7003952E+00;  9.9999998E-03;  2.9462203E-01;8910;  7.0116973E-01;  0.0000000E+00; -9.0106636E-02;  9.8618506E+02;  3.0112100E-01; -1.1423052E+04;3;  9.9401909E+01;  0.0000000E+00;  4.0685608E+01;0;  1.2445362E+00;  4.4141567E+03;  0.0000000E+00; -1.3712338E+01;  4.0000000E+04;  0.0000000E+00;  3.8888656E+04;  7.7393174E-01;  0.0000000E+00;  4.7060439E-01;  4.7440523E+04;
  1.7042575E+00;  9.9999998E-03;  2.5397623E-01;8906;  6.4234054E-01;  0.0000000E+00; -1.6333878E-01;  9.8729803E+02;  3.0012906E-01; -1.0501582E+04;3;  9.3797256E+01;  0.0000000E+00;  1.8291676E+01;0;  1.5067146E+00;  4.4352593E+03;  0.0000000E+00; -1.8990980E+01;  4.0000000E+04;  0.0000000E+00;  3.8849770E+04;  1.7043908E+00;  0.0000000E+00; -1.9767624E-01;  8.4710938E+04;
  1.7053300E+00;  9.9999998E-03;  3.0477071E-01;8911;  7.0837039E-01;  0.0000000E+00; -8.9427702E-02;  9.7874078E+02;  3.0023816E-01; -1.7575805E+04;3;  1.0259973E+02;  0.0000000E+00;  3.1803747E+01;0;  1.2713141E+00;  4.3919546E+03;  0.0000000E+00;  7.9718900E+00;  4.0000000E+04;  0.0000000E+00;  3.8930062E+04;  7.9597366E-01;  0.0000000E+00;  4.7534046E-01;  3.3189367E+04;
  1.7064264E+00;  9.9999998E-03;  2.4380316E-01;8905;  6.2302536E-01;  0.0000000E+00; -1.6503921E-01;  9.8801733E+02;  2.9865423E-01; -9.9062061E+03;3;  9.0034111E+01;  0.0000000E+00;  1.6339569E+01;0;  1.8808107E+00;  4.4849028E+03;  0.0000000E+00; -1.3464298E+01;  4.0000000E+04;  0.0000000E+00;  3.8845742E+04;  2.0539532E+00;  0.0000000E+00; -1.7314249E-01;  6.4689469E+04;
  1.7235968E+00;  9.9999998E-03;  2.8454626E-01;8969;  6.7050272E-01;  0.0000000E+00; -1.5044038E-01;  9.8697217E+02;  2.7293274E-01; -1.0763518E+04;3;  9.5126640E+01;  0.0000000E+00;  2.4590506E+01;0;  1.4938849E+00;  5.3561523E+03;  0.0000000E+00; -1.6315983E+01;  4.0000000E+04;  0.0000000E+00;  3.8900234E+04;  1.8763149E+00;  0.0000000E+00; -3.8242999E-01;  3.3386027E+04;
  1.7240983E+00;  9.9999998E-03;  2.7438143E-01;8968;  6.6030133E-01;  0.0000000E+00; -1.5935913E-01;  9.8701953E+02;  2.7305698E-01; -1.0724145E+04;3;  9.5595352E+01;  0.0000000E+00;  1.3513379E+01;0;  1.6984705E+00;  5.3468535E+03;  0.0000000E+00; -1.7255190E+01;  4.0000000E+04;  0.0000000E+00;  3.8891711E+04;  2.1304188E+00;  0.0000000E+00; -4.3194830E-01;  3.4510035E+04;
  1.7269933E+00;  9.9999998E-03;  2.6424828E-01;8967;  6.4470667E-01;  0.0000000E+00; -1.6728771E-01;  9.8574854E+02;  2.7167338E-01; -1.1772772E+04;3;  9.3170815E+01;  0.0000000E+00;  5.5675879E+00;0;  2.0589225E+00;  5.3975000E+03;  0.0000000E+00; -1.9358858E+01;  4.0000000E+04;  0.0000000E+00;  3.8859312E+04;  2.5171649E+00;  0.0000000E+00; -4.5824242E-01;  5.2361625E+04;
  1.7263157E+00;  9.9999998E-03;  2.9470053E-01;8970;  6.7680168E-01;  0.0000000E+00; -1.3904881E-01;  9.8266840E+02;  2.7139494E-01; -1.4317607E+04;3;  1.0024255E+02;  0.0000000E+00;  3.5371197E+01;0;  1.5249476E+00;  5.3986431E+03;  0.0000000E+00; -8.1741838E+00;  4.0000000E+04;  0.0000000E+00;  3.8929180E+04;  1.7844297E+00;  0.0000000E+00; -2.5948206E-01;  3.4773992E+04;
  1.7307235E+00;  9.9999998E-03;  2.5412419E-01;8966;  6.3976991E-01;  0.0000000E+00; -1.6200115E-01;  9.8553235E+02;  2.6959777E-01; -1.1949366E+04;3;  4.1181583E+01;  0.0000000E+00; -2.3981651E+01;0;  2.5941141E+00;  5.4867285E+03;  0.0000000E+00; -1.9509619E+01;  4.0000000E+04;  0.0000000E+00;  3.8827824E+04;  2.9654169E+00;  0.0000000E+00; -3.7130284E-01;  6.6290422E+04;
  1.7330220E+00;  9.9999998E-03;  2.4395704E-01;8965;  6.6896999E-01;  0.0000000E+00; -1.5314618E-01;  9.8707343E+02;  2.6801181E-01; -1.0675389E+04;3; -4.6011204E+01;  0.0000000E+00; -1.7186083E+01;0;  3.0410824E+00;  5.5674360E+03;  0.0000000E+00; -1.4763673E+01;  4.0000000E+04;  0.0000000E+00;  3.8821699E+04;  3.3475597E+00;  0.0000000E+00; -3.0647719E-01;  5.3740348E+04;
  1.7479529E+00;  9.9999998E-03;  2.8469601E-01;9028;  6.5280098E-01;  0.0000000E+00; -1.5637085E-01;  9.8440625E+02;  2.4753726E-01; -1.2867854E+04;3;  9.3719589E+01;  0.0000000E+00; -2.1989407E+01;0;  2.3488779E+00;  6.4986831E+03;  0.0000000E+00; -1.3271731E+01;  4.0000000E+04;  0.0000000E+00;  3.8859316E+04;  2.9989176E+00;  0.0000000E+00; -6.5003967E-01;  2.6727812E+04;
  1.7486885E+00;  9.9999998E-03;  2.7453309E-01;9027;  6.5105689E-01;  0.0000000E+00; -1.5341941E-01;  9.8520831E+02;  2.4741915E-01; -1.2205434E+04;3;  5.7179317E+01;  0.0000000E+00; -3.4193375E+01;0;  2.7019215E+00;  6.5071812E+03;  0.0000000E+00; -1.5077785E+01;  4.0000000E+04;  0.0000000E+00;  3.8851059E+04;  3.2827330E+00;  0.0000000E+00; -5.8081156E-01;  2.5829816E+04;
  1.7492927E+00;  9.9999998E-03;  2.9483798E-01;9029;  6.5350932E-01;  0.0000000E+00; -1.5340950E-01;  9.8010376E+02;  2.4711211E-01; -1.6416930E+04;3;  1.0658779E+02;  0.0000000E+00; -1.5760317E+01;0;  2.1954045E+00;  6.4886582E+03;  0.0000000E+00;  8.3038640E-01;  4.0000000E+04;  0.0000000E+00;  3.8895043E+04;  2.8167021E+00;  0.0000000E+00; -6.2129766E-01;  2.5320131E+04;
  1.7510984E+00;  9.9999998E-03;  2.6437202E-01;9026;  6.7841899E-01;  0.0000000E+00; -1.4929447E-01;  9.8496118E+02;  2.4632977E-01; -1.2407571E+04;3; -9.0614571E+01;  0.0000000E+00; -2.1967644E+01;0;  3.1252434E+00;  6.5678091E+03;  0.0000000E+00; -1.6272219E+01;  4.0000000E+04;  0.0000000E+00;  3.8839875E+04;  3.6542795E+00;  0.0000000E+00; -5.2903599E-01;  3.3744508E+04;
  1.7540798E+00;  9.9999998E-03;  2.5421330E-01;9025;  7.4997330E-01;  0.0000000E+00; -1.3942870E-01;  9.8562012E+02;  2.4475180E-01; -1.1861635E+04;3; -1.0340804E+02;  0.0000000E+00; -2.9377989E+01;0;  3.5875010E+00;  6.6671899E+03;  0.0000000E+00; -1.6393217E+01;  4.0000000E+04;  0.0000000E+00;  3.8821758E+04;  4.0290527E+00;  0.0000000E+00; -4.4155174E-01;  4.2136828E+04;
  1.7562954E+00;  9.9999998E-03;  2.4403124E-01;9024;  8.0437475E-01;  0.0000000E+00; -1.3066489E-01;  9.8775690E+02;  2.4333602E-01; -1.0097586E+04;3; -1.0247181E+02;  0.0000000E+00; -3.0928373E+01;0;  3.9275665E+00;  6.7714893E+03;  0.0000000E+00; -1.2896267E+01;  4.0000000E+04;  0.0000000E+00;  3.8811062E+04;  4.3205566E+00;  0.0000000E+00; -3.9299011E-01;  3.5665723E+04;
  1.7691313E+00;  9.9999998E-03;  2.9499605E-01;9088;  6.5033656E-01;  0.0000000E+00; -1.3669853E-01;  9.8110938E+02;  2.2736931E-01; -1.5565416E+04;3; -3.9259365E+01;  0.0000000E+00; -1.0579891E+01;0;  3.0293221E+00;  7.6812251E+03;  0.0000000E+00;  1.3161867E+01;  4.0000000E+04;  0.0000000E+00;  3.8835566E+04;  3.6023757E+00;  0.0000000E+00; -5.7305372E-01;  3.9441391E+04;
  1.7694517E+00;  9.9999998E-03;  2.8484872E-01;9087;  6.9592106E-01;  0.0000000E+00; -1.3329417E-01;  9.8391675E+02;  2.2696015E-01; -1.3251858E+04;3; -1.3311662E+02;  0.0000000E+00; -1.4364376E+01;0;  3.3408823E+00;  7.7419238E+03;  0.0000000E+00; -7.2403541E+00;  4.0000000E+04;  0.0000000E+00;  3.8813395E+04;  3.9101391E+00;  0.0000000E+00; -5.6925684E-01;  1.7032875E+04;
  1.7705485E+00;  9.9999998E-03;  2.7467990E-01;9086;  7.6013482E-01;  0.0000000E+00; -1.2847751E-01;  9.8490875E+02;  2.2660822E-01; -1.2433375E+04;3; -1.2911633E+02;  0.0000000E+00; -1.9198734E+01;0;  3.6735353E+00;  7.7723232E+03;  0.0000000E+00; -1.1473137E+01;  4.0000000E+04;  0.0000000E+00;  3.8809711E+04;  4.2180371E+00;  0.0000000E+00; -5.4450190E-01;  1.7076994E+04;
  1.7727094E+00;  9.9999998E-03;  2.6449737E-01;9085;  8.1434834E-01;  0.0000000E+00; -1.2473910E-01;  9.8508905E+02;  2.2569992E-01; -1.2282591E+04;3; -1.3055724E+02;  0.0000000E+00; -2.5141296E+01;0;  3.9456327E+00;  7.8417485E+03;  0.0000000E+00; -1.2104439E+01;  4.0000000E+04;  0.0000000E+00;  3.8812562E+04;  4.4883552E+00;  0.0000000E+00; -5.4272246E-01;  1.8268578E+04;
  1.7751470E+00;  9.9999998E-03;  2.5430688E-01;9084;  8.7640929E-01;  0.0000000E+00; -1.1543711E-01;  9.8621814E+02;  2.2446884E-01; -1.1350115E+04;3; -1.3421074E+02;  0.0000000E+00; -3.3295296E+01;0;  4.2304244E+00;  7.9494360E+03;  0.0000000E+00; -1.1520262E+01;  4.0000000E+04;  0.0000000E+00;  3.8806922E+04;  4.7119722E+00;  0.0000000E+00; -4.8154780E-01;  1.8843650E+04;
  1.7773173E+00;  9.9999998E-03;  2.4410684E-01;9083;  9.3329757E-01;  0.0000000E+00; -1.0422044E-01;  9.8856506E+02;  2.2322904E-01; -9.4154453E+03;3; -1.2584661E+02;  0.0000000E+00; -3.3316509E+01;0;  4.4429746E+00;  8.0734707E+03;  0.0000000E+00; -9.3085423E+00;  4.0000000E+04;  0.0000000E+00;  3.8793055E+04;  4.8685360E+00;  0.0000000E+00; -4.2556131E-01;  1.6604742E+04;
  1.7867285E+00;  9.9999998E-03;  2.9518789E-01;9147;  7.4919528E-01;  0.0000000E+00; -1.1785899E-01;  9.8544379E+02;  2.1103138E-01; -1.1974454E+04;3; -1.7759825E+02;  0.0000000E+00; -1.1523946E+01;0;  3.7147520E+00;  8.9911621E+03;  0.0000000E+00;  2.3361942E+01;  4.0000000E+04;  0.0000000E+00;  3.8740992E+04;  4.2259517E+00;  0.0000000E+00; -5.1119971E-01;  5.3021594E+04;
  1.7884922E+00;  9.9999998E-03;  2.8502339E-01;9146;  8.1972748E-01;  0.0000000E+00; -1.1660735E-01;  9.8556836E+02;  2.1022993E-01; -1.1869747E+04;3; -1.6669977E+02;  0.0000000E+00; -2.0762169E+01;0;  3.9427977E+00;  9.0686992E+03;  0.0000000E+00;  1.8361150E+00;  4.0000000E+04;  0.0000000E+00;  3.8748312E+04;  4.5399833E+00;  0.0000000E+00; -5.9718567E-01;  1.9690971E+04;
  1.7900580E+00;  9.9999998E-03;  2.7484536E-01;9145;  8.8740414E-01;  0.0000000E+00; -1.0816118E-01;  9.8583868E+02;  2.0970637E-01; -1.1645386E+04;3; -1.5203406E+02;  0.0000000E+00; -2.7160282E+01;0;  4.2199616E+00;  9.1129795E+03;  0.0000000E+00; -5.5637507E+00;  4.0000000E+04;  0.0000000E+00;  3.8753891E+04;  4.7713137E+00;  0.0000000E+00; -5.5135220E-01;  1.5205309E+04;
  1.7922441E+00;  9.9999998E-03;  2.6465040E-01;9144;  9.4552732E-01;  0.0000000E+00; -9.8566607E-02;  9.8559821E+02;  2.0890822E-01; -1.1840261E+04;3; -1.4314458E+02;  0.0000000E+00; -3.1041077E+01;0;  4.4179983E+00;  9.1835283E+03;  0.0000000E+00; -6.9180751E+00;  4.0000000E+04;  0.0000000E+00;  3.8764633E+04;  4.9194069E+00;  0.0000000E+00; -5.0140852E-01;  1.5669061E+04;
  1.7945688E+00;  9.9999998E-03;  2.5444362E-01;9143;  1.0018836E+00;  0.0000000E+00; -8.9448050E-02;  9.8643988E+02;  2.0788936E-01; -1.1145281E+04;3; -1.4318216E+02;  0.0000000E+00; -3.6912037E+01;0;  4.5341311E+00;  9.2944561E+03;  0.0000000E+00; -6.5502372E+00;  4.0000000E+04;  0.0000000E+00;  3.8766387E+04;  4.9984641E+00;  0.0000000E+00; -4.6433306E-01;  1.5877779E+04;
  1.7965837E+00;  9.9999998E-03;  2.4422619E-01;9142;  1.0531447E+00;  0.0000000E+00; -7.8349903E-02;  9.8880310E+02;  2.0685345E-01; -9.2007061E+03;3; -1.3203664E+02;  0.0000000E+00; -3.6603985E+01;0;  4.5971375E+00;  9.4298555E+03;  0.0000000E+00; -4.4945936E+00;  4.0000000E+04;  0.0000000E+00;  3.8755723E+04;  5.0135808E+00;  0.0000000E+00; -4.1644329E-01;  1.6453729E+04;
  1.8058027E+00;  9.9999998E-03;  2.8522927E-01;9204;  9.3862593E-01;  0.0000000E+00; -9.6068576E-02;  9.8896155E+02;  1.9644907E-01; -9.0596113E+03;3; -1.7211259E+02;  0.0000000E+00; -2.5901142E+01;0;  4.2715635E+00;  1.0469547E+04;  0.0000000E+00;  1.0332833E+01;  4.0000000E+04;  0.0000000E+00;  3.8658617E+04;  4.8104663E+00;  0.0000000E+00; -5.3890294E-01;  2.7867047E+04;
  1.8078208E+00;  9.9999998E-03;  2.7504045E-01;9203;  1.0037496E+00;  0.0000000E+00; -8.9467637E-02;  9.8780237E+02;  1.9585764E-01; -1.0008152E+04;3; -1.5819098E+02;  0.0000000E+00; -3.4538155E+01;0;  4.3987889E+00;  1.0509297E+04;  0.0000000E+00;  1.2498841E+00;  4.0000000E+04;  0.0000000E+00;  3.8680523E+04;  4.9457989E+00;  0.0000000E+00; -5.4701000E-01;  2.5982766E+04;
  1.8100634E+00;  9.9999998E-03;  2.6483387E-01;9202;  1.0599335E+00;  0.0000000E+00; -7.8705132E-02;  9.8662549E+02;  1.9517915E-01; -1.0970216E+04;3; -1.4436252E+02;  0.0000000E+00; -3.6780842E+01;0;  4.4943986E+00;  1.0564555E+04;  0.0000000E+00; -7.9709280E-01;  4.0000000E+04;  0.0000000E+00;  3.8702824E+04;  4.9853077E+00;  0.0000000E+00; -4.9090892E-01;  2.8868668E+04;
  1.8122959E+00;  9.9999998E-03;  2.5461188E-01;9201;  1.1090487E+00;  0.0000000E+00; -6.9910064E-02;  9.8674731E+02;  1.9436531E-01; -1.0866641E+04;3; -1.3775806E+02;  0.0000000E+00; -3.8580200E+01;0;  4.4870625E+00;  1.0662604E+04;  0.0000000E+00; -1.2281808E-01;  4.0000000E+04;  0.0000000E+00;  3.8715910E+04;  4.9482961E+00;  0.0000000E+00; -4.6123347E-01;  3.3217637E+04;
  1.8142049E+00;  9.9999998E-03;  2.4437657E-01;9200;  1.1545386E+00;  0.0000000E+00; -5.9336927E-02;  9.8870947E+02;  1.9352049E-01; -9.2550439E+03;3; -1.2400224E+02;  0.0000000E+00; -3.8746403E+01;0;  4.4466867E+00;  1.0797218E+04;  0.0000000E+00;  2.3149018E+00;  4.0000000E+04;  0.0000000E+00;  3.8712383E+04;  4.8581905E+00;  0.0000000E+00; -4.1150367E-01;  3.7979102E+04;
  1.8219827E+00;  9.9999998E-03;  2.8546265E-01;9261;  1.0468118E+00;  0.0000000E+00; -7.6681755E-02;  9.9353241E+02;  1.8497252E-01; -5.2947319E+03;3; -1.6869850E+02;  0.0000000E+00; -3.3383865E+01;0;  4.3296218E+00;  1.1929230E+04;  0.0000000E+00;  1.3792953E+01;  4.0000000E+04;  0.0000000E+00;  3.8555984E+04;  4.7979016E+00;  0.0000000E+00; -4.6827999E-01;  1.9100600E+04;
  1.8241881E+00;  9.9999998E-03;  2.7526751E-01;9260;  1.1058279E+00;  0.0000000E+00; -7.0374899E-02;  9.9107300E+02;  1.8442550E-01; -7.3052666E+03;3; -1.5280345E+02;  0.0000000E+00; -3.7961941E+01;0;  4.3488569E+00;  1.1948684E+04;  0.0000000E+00;  7.6612306E+00;  4.0000000E+04;  0.0000000E+00;  3.8592301E+04;  4.8425026E+00;  0.0000000E+00; -4.9364546E-01;  3.3341492E+04;
  1.8265076E+00;  9.9999998E-03;  2.6505154E-01;9259;  1.1589806E+00;  0.0000000E+00; -5.9744451E-02;  9.8853992E+02;  1.8386704E-01; -9.3741611E+03;3; -1.3612894E+02;  0.0000000E+00; -4.1224812E+01;0;  4.3578606E+00;  1.1969625E+04;  0.0000000E+00;  5.9527817E+00;  4.0000000E+04;  0.0000000E+00;  3.8629188E+04;  4.8019400E+00;  0.0000000E+00; -4.4407925E-01;  4.2688504E+04;
  1.8287570E+00;  9.9999998E-03;  2.5481883E-01;9258;  1.2021103E+00;  0.0000000E+00; -5.0723791E-02;  9.8735059E+02;  1.8322268E-01; -1.0342597E+04;3; -1.2451041E+02;  0.0000000E+00; -4.1397449E+01;0;  4.2659106E+00;  1.2035545E+04;  0.0000000E+00;  6.7000780E+00;  4.0000000E+04;  0.0000000E+00;  3.8654410E+04;  4.6810212E+00;  0.0000000E+00; -4.1511068E-01;  5.0129566E+04;
  1.8307182E+00;  9.9999998E-03;  2.4457067E-01;9257;  1.2393963E+00;  0.0000000E+00; -4.0937617E-02;  9.8825287E+02;  1.8253417E-01; -9.6011484E+03;3; -1.0838972E+02;  0.0000000E+00; -4.1213924E+01;0;  4.1384425E+00;  1.2152268E+04;  0.0000000E+00;  9.1026373E+00;  4.0000000E+04;  0.0000000E+00;  3.8659656E+04;  4.5107594E+00;  0.0000000E+00; -3.7231687E-01;  5.6698059E+04;
  1.8376889E+00;  9.9999998E-03;  2.8571796E-01;9318;  1.1508505E+00;  0.0000000E+00; -5.7961553E-02;  9.9760059E+02;  1.7534293E-01; -1.9582003E+03;3; -1.5694835E+02;  0.0000000E+00; -4.0802109E+01;0;  4.2215862E+00;  1.3401284E+04;  0.0000000E+00;  1.1457125E+01;  4.0000000E+04;  0.0000000E+00;  3.8453133E+04;  4.6037641E+00;  0.0000000E+00; -3.8217765E-01;  8.6640283E+03;
  1.8395834E+00;  9.9999998E-03;  2.7553204E-01;9317;  1.1944338E+00;  0.0000000E+00; -5.0580099E-02;  9.9548792E+02;  1.7490484E-01; -3.6808613E+03;3; -1.3893054E+02;  0.0000000E+00; -4.0801388E+01;0;  4.1702828E+00;  1.3423020E+04;  0.0000000E+00;  1.0400275E+01;  4.0000000E+04;  0.0000000E+00;  3.8486477E+04;  4.5563393E+00;  0.0000000E+00; -3.8605630E-01;  2.7084828E+04;
  1.8419197E+00;  9.9999998E-03;  2.6531267E-01;9316;  1.2398827E+00;  0.0000000E+00; -4.1182376E-02;  9.9149860E+02;  1.7446506E-01; -6.9315601E+03;3; -1.2099513E+02;  0.0000000E+00; -4.2342663E+01;0;  4.0949702E+00;  1.3394049E+04;  0.0000000E+00;  1.1466430E+01;  4.0000000E+04;  0.0000000E+00;  3.8536031E+04;  4.4522052E+00;  0.0000000E+00; -3.5723478E-01;  4.9259656E+04;
  1.8442295E+00;  9.9999998E-03;  2.5507507E-01;9315;  1.2771584E+00;  0.0000000E+00; -3.1883620E-02;  9.8849518E+02;  1.7397502E-01; -9.3752207E+03;3; -1.0485513E+02;  0.0000000E+00; -4.0494678E+01;0;  3.9500737E+00;  1.3404371E+04;  0.0000000E+00;  1.2543479E+01;  4.0000000E+04;  0.0000000E+00;  3.8574410E+04;  4.2775183E+00;  0.0000000E+00; -3.2744464E-01;  6.0807078E+04;
  1.8462564E+00;  9.9999998E-03;  2.4482176E-01;9314;  1.3079960E+00;  0.0000000E+00; -2.2850988E-02;  9.8780597E+02;  1.7343660E-01; -9.9319131E+03;3; -8.8333412E+01;  0.0000000E+00; -4.0628265E+01;0;  3.7644205E+00;  1.3479787E+04;  0.0000000E+00;  1.5041237E+01;  4.0000000E+04;  0.0000000E+00;  3.8589992E+04;  4.0599051E+00;  0.0000000E+00; -2.9548463E-01;  6.9836266E+04;
  1.8545467E+00;  9.9999998E-03;  2.7582482E-01;9373;  1.2711899E+00;  0.0000000E+00; -3.2018278E-02;  9.9971649E+02;  1.6691722E-01; -2.3038614E+02;3; -1.1881820E+02;  0.0000000E+00; -4.0770855E+01;0;  3.8971627E+00;  1.4890285E+04;  0.0000000E+00;  7.0439301E+00;  4.0000000E+04;  0.0000000E+00;  3.8376367E+04;  4.1615076E+00;  0.0000000E+00; -2.6434496E-01;  8.2924131E+03;
  1.8565688E+00;  9.9999998E-03;  2.6561794E-01;9372;  1.3049729E+00;  0.0000000E+00; -2.4656514E-02;  9.9559485E+02;  1.6659935E-01; -3.5780369E+03;3; -1.0048380E+02;  0.0000000E+00; -4.0400684E+01;0;  3.7520249E+00;  1.4835152E+04;  0.0000000E+00;  1.3285519E+01;  4.0000000E+04;  0.0000000E+00;  3.8422816E+04;  4.0115952E+00;  0.0000000E+00; -2.5957027E-01;  4.3260164E+04;
  1.8588330E+00;  9.9999998E-03;  2.5538215E-01;9371;  1.3339305E+00;  0.0000000E+00; -1.6990377E-02;  9.9088934E+02;  1.6625273E-01; -7.3951265E+03;3; -8.2913956E+01;  0.0000000E+00; -3.8308167E+01;0;  3.5554481E+00;  1.4775021E+04;  0.0000000E+00;  1.7174925E+01;  4.0000000E+04;  0.0000000E+00;  3.8472816E+04;  3.8031678E+00;  0.0000000E+00; -2.4771972E-01;  6.4983023E+04;
  1.8609052E+00;  9.9999998E-03;  2.4512939E-01;9370;  1.3569232E+00;  0.0000000E+00; -9.5998356E-03;  9.8820325E+02;  1.6586268E-01; -9.5694922E+03;3; -6.8501358E+01;  0.0000000E+00; -3.8144257E+01;0;  3.3293350E+00;  1.4783298E+04;  0.0000000E+00;  2.0268003E+01;  4.0000000E+04;  0.0000000E+00;  3.8500336E+04;  3.5599711E+00;  0.0000000E+00; -2.3063612E-01;  7.8013281E+04;
  1.8692814E+00;  9.9999998E-03;  2.7613795E-01;9428;  1.3380104E+00;  0.0000000E+00; -1.6578887E-02;  1.0025590E+03;  1.6022705E-01;  2.0701658E+03;3; -9.4501038E+01;  0.0000000E+00; -3.8265533E+01;0;  3.5600202E+00;  1.6285604E+04;  0.0000000E+00;  4.1260085E+00;  4.0000000E+04;  0.0000000E+00;  3.8269762E+04;  3.7249713E+00;  0.0000000E+00; -1.6495115E-01;  2.3105174E+04;
  1.8707851E+00;  9.9999998E-03;  2.6595721E-01;9427;  1.3555310E+00;  0.0000000E+00; -1.1188420E-02;  1.0001902E+03;  1.5999210E-01;  1.5383661E+02;3; -7.9109802E+01;  0.0000000E+00; -3.6926487E+01;0;  3.3464646E+00;  1.6267580E+04;  0.0000000E+00;  9.0643835E+00;  4.0000000E+04;  0.0000000E+00;  3.8300145E+04;  3.5222409E+00;  0.0000000E+00; -1.7577621E-01;  2.2212461E+04;
  1.9416331E+00;  9.9999998E-03;  2.3758185E-01;9681;  1.4608866E+00;  0.0000000E+00;  2.7269037E-02;  1.0053836E+03;  1.3986915E-01;  4.1760488E+03;3;  9.1876478E+00;  0.0000000E+00; -1.0518862E+01;0;  1.0554614E+00;  2.1894391E+04;  0.0000000E+00;  6.3307059E-01;  4.0000000E+04;  0.0000000E+00;  3.7643730E+04;  1.0045295E+00;  0.0000000E+00;  5.0931964E-02;  7.0447271E+03;
  1.8728166E+00;  9.9999998E-03;  2.5573489E-01;9426;  1.3753979E+00;  0.0000000E+00; -5.4366686E-03;  9.9468195E+02;  1.5976536E-01; -4.2968906E+03;3; -6.2783176E+01;  0.0000000E+00; -3.4496456E+01;0;  3.1203830E+00;  1.6151827E+04;  0.0000000E+00;  1.8050587E+01;  4.0000000E+04;  0.0000000E+00;  3.8351227E+04;  3.3005166E+00;  0.0000000E+00; -1.8013369E-01;  5.7824992E+04;
  1.8748660E+00;  9.9999998E-03;  2.4548955E-01;9425;  1.3910855E+00;  0.0000000E+00;  2.9135737E-04;  9.8996558E+02;  1.5950833E-01; -8.1015669E+03;3; -4.9288235E+01;  0.0000000E+00; -3.3260685E+01;0;  2.8767905E+00;  1.6075093E+04;  0.0000000E+00;  2.3380203E+01;  4.0000000E+04;  0.0000000E+00;  3.8389570E+04;  3.0518661E+00;  0.0000000E+00; -1.7507544E-01;  7.8184828E+04;
  1.8848621E+00;  9.9999998E-03;  2.6631898E-01;9481;  1.3957117E+00;  0.0000000E+00;  1.0731170E-04;  1.0037404E+03;  1.5444499E-01;  3.0079189E+03;3; -5.7372292E+01;  0.0000000E+00; -3.2798523E+01;0;  2.9276776E+00;  1.7624844E+04;  0.0000000E+00;  2.6457009E+00;  4.0000000E+04;  0.0000000E+00;  3.8177703E+04;  3.0278292E+00;  0.0000000E+00; -1.0015160E-01;  1.2162664E+04;
  1.8864275E+00;  9.9999998E-03;  2.5612611E-01;9480;  1.4058400E+00;  0.0000000E+00;  4.0001920E-03;  9.9942529E+02;  1.5429415E-01; -4.6184750E+02;3; -4.4419155E+01;  0.0000000E+00; -3.0056723E+01;0;  2.6857390E+00;  1.7521936E+04;  0.0000000E+00;  1.2775340E+01;  4.0000000E+04;  0.0000000E+00;  3.8213410E+04;  2.8027966E+00;  0.0000000E+00; -1.1705764E-01;  3.6697258E+04;
  1.8882989E+00;  9.9999998E-03;  2.4589850E-01;9479;  1.4154204E+00;  0.0000000E+00;  7.9345107E-03;  9.9347601E+02;  1.5414605E-01; -5.2384678E+03;3; -3.3075443E+01;  0.0000000E+00; -2.8186745E+01;0;  2.4427133E+00;  1.7372195E+04;  0.0000000E+00;  2.2732237E+01;  4.0000000E+04;  0.0000000E+00;  3.8254695E+04;  2.5674608E+00;  0.0000000E+00; -1.2474763E-01;  6.8253383E+04;
  1.8987499E+00;  9.9999998E-03;  2.6669875E-01;9534;  1.4271386E+00;  0.0000000E+00;  8.5240481E-03;  1.0058734E+03;  1.4980945E-01;  4.6924155E+03;3; -3.8118172E+01;  0.0000000E+00; -2.8592424E+01;0;  2.5228996E+00;  1.8862846E+04;  0.0000000E+00;  7.7953234E+00;  4.0000000E+04;  0.0000000E+00;  3.8053043E+04;  2.5718110E+00;  0.0000000E+00; -4.8911452E-02;  2.1863025E+04;
  1.8999519E+00;  9.9999998E-03;  2.5653923E-01;9533;  1.4289426E+00;  0.0000000E+00;  1.1295753E-02;  1.0036338E+03;  1.4969099E-01;  2.9013176E+03;3; -2.8349083E+01;  0.0000000E+00; -2.5756773E+01;0;  2.2696402E+00;  1.8824561E+04;  0.0000000E+00;  3.6132121E+00;  4.0000000E+04;  0.0000000E+00;  3.8073090E+04;  2.3362699E+00;  0.0000000E+00; -6.6629708E-02;  1.0257131E+04;
  1.9014484E+00;  9.9999998E-03;  2.4634126E-01;9532;  1.4327049E+00;  0.0000000E+00;  1.3591140E-02;  9.9826782E+02;  1.4960434E-01; -1.3819396E+03;3; -1.9994675E+01;  0.0000000E+00; -2.3838593E+01;0;  2.0372500E+00;  1.8666359E+04;  0.0000000E+00;  1.5543036E+01;  4.0000000E+04;  0.0000000E+00;  3.8103887E+04;  2.1211479E+00;  0.0000000E+00; -8.3897755E-02;  4.5515797E+04;
  1.9134374E+00;  9.9999998E-03;  2.5696233E-01;9585;  1.4470869E+00;  0.0000000E+00;  1.7618526E-02;  1.0061954E+03;  1.4583862E-01;  4.9086182E+03;3; -1.5735271E+01;  0.0000000E+00; -2.2032507E+01;0;  1.9134480E+00;  1.9994094E+04;  0.0000000E+00;  5.4567518E+00;  4.0000000E+04;  0.0000000E+00;  3.7934598E+04;  1.9289379E+00;  0.0000000E+00; -1.5489888E-02;  1.4436463E+04;
  1.9145594E+00;  9.9999998E-03;  2.4680036E-01;9584;  1.4459543E+00;  0.0000000E+00;  1.8903833E-02;  1.0029113E+03;  1.4577137E-01;  2.3050100E+03;3; -9.3752928E+00;  0.0000000E+00; -1.9555611E+01;0;  1.6928072E+00;  1.9900885E+04;  0.0000000E+00;  3.6991851E+00;  4.0000000E+04;  0.0000000E+00;  3.7949164E+04;  1.7276947E+00;  0.0000000E+00; -3.4887519E-02;  1.5596266E+04;
  1.9543046E+00;  9.9999998E-03;  2.3804696E-01;9728;  1.4677240E+00;  0.0000000E+00;  2.9783739E-02;  1.0085621E+03;  1.3763785E-01;  6.5612935E+03;3;  1.3969763E+01;  0.0000000E+00; -7.2799468E+00;0;  9.3780613E-01;  2.2828197E+04;  0.0000000E+00;  3.8742996E+01;  4.0000000E+04;  0.0000000E+00;  3.7482637E+04;  8.4694433E-01;  0.0000000E+00;  9.0861820E-02;  1.1645993E+04;
  1.9277157E+00;  9.9999998E-03;  2.4726006E-01;9634;  1.4568075E+00;  0.0000000E+00;  2.3518808E-02;  1.0058843E+03;  1.4256693E-01;  4.6166890E+03;3; -1.0425756E+00;  0.0000000E+00; -1.5877754E+01;0;  1.4181153E+00;  2.0997809E+04;  0.0000000E+00;  3.2506640E+00;  4.0000000E+04;  0.0000000E+00;  3.7798137E+04;  1.4036105E+00;  0.0000000E+00;  1.4504832E-02;  9.5336709E+03;
