TimeStep;Np;Nbound;Nfixed;Nmoving;Nfloat;Nfluid
0.360013;10047;2448;2448;0;0;7599

Pos.x;Pos.y;Pos.z;Idp;Vel.x;Vel.y;Vel.z;Rhop;Mass;Press;Type;Acec.x;Acec.y;Acec.z;CellOffSpring;GradVel;Qfxx;Qfxy;Qfxz;Qfyy;Qfyz;Qfzz;StrainDot.x;StrainDot.y;StrainDot.z;VonMises3D;
 -1.9000000E-01;  9.9999998E-03; -4.4999999E-01;89;  0.0000000E+00;  0.0000000E+00;  0.0000000E+00;  1.0000000E+03;  1.0000000E-01;  0.0000000E+00;0;  0.0000000E+00;  0.0000000E+00;  0.0000000E+00;0;  0.0000000E+00;  4.0000000E+04;  0.0000000E+00;  0.0000000E+00;  4.0000000E+04;  0.0000000E+00;  4.0000000E+04;  0.0000000E+00;  0.0000000E+00;  0.0000000E+00;  0.0000000E+00;
 -1.8000001E-01;  9.9999998E-03; -4.4999999E-01;180;  0.0000000E+00;  0.0000000E+00;  0.0000000E+00;  1.0000000E+03;  1.0000000E-01;  0.0000000E+00;0;  0.0000000E+00;  0.0000000E+00;  0.0000000E+00;0;  0.0000000E+00;  4.0000000E+04;  0.0000000E+00;  0.0000000E+00;  4.0000000E+04;  0.0000000E+00;  4.0000000E+04;  0.0000000E+00;  0.0000000E+00;  0.0000000E+00;  0.0000000E+00;
 -1.7000000E-01;  9.9999998E-03; -4.4999999E-01;271;  0.0000000E+00;  0.0000000E+00;  0.0000000E+00;  1.0000000E+03;  1.0000000E-01;  0.0000000E+00;0;  0.0000000E+00;  0.0000000E+00;  0.0000000E+00;0;  0.0000000E+00;  4.0000000E+04;  0.0000000E+00;  0.0000000E+00;  4.0000000E+04;  0.0000000E+00;  4.0000000E+04;  0.0000000E+00;  0.0000000E+00;  0.0000000E+00;  0.0000000E+00;
 -1.6000000E-01;  9.9999998E-03; -4.4999999E-01;362;  0.0000000E+00;  0.0000000E+00;  0.0000000E+00;  1.0000000E+03;  1.0000000E-01;  0.0000000E+00;0;  0.0000000E+00;  0.0000000E+00;  0.0000000E+00;0;  0.0000000E+00;  4.0000000E+04;  0.0000000E+00;  0.0000000E+00;  4.0000000E+04;  0.0000000E+00;  4.0000000E+04;  0.0000000E+00;  0.0000000E+00;  0.0000000E+00;  0.0000000E+00;
 -1.5000001E-01;  9.9999998E-03; -4.4999999E-01;453;  0.0000000E+00;  0.0000000E+00;  0.0000000E+00;  1.0000000E+03;  1.0000000E-01;  0.0000000E+00;0;  0.0000000E+00;  0.0000000E+00;  0.0000000E+00;0;  0.0000000E+00;  4.0000000E+04;  0.0000000E+00;  0.0000000E+00;  4.0000000E+04;  0.0000000E+00;  4.0000000E+04;  0.0000000E+00;  0.0000000E+00;  0.0000000E+00;  0.0000000E+00;
 -1.4000000E-01;  9.9999998E-03; -4.4999999E-01;544;  0.0000000E+00;  0.0000000E+00;  0.0000000E+00;  1.0000000E+03;  1.0000000E-01;  0.0000000E+00;0;  0.0000000E+00;  0.0000000E+00;  0.0000000E+00;0;  0.0000000E+00;  4.0000000E+04;  0.0000000E+00;  0.0000000E+00;  4.0000000E+04;  0.0000000E+00;  4.0000000E+04;  0.0000000E+00;  0.0000000E+00;  0.0000000E+00;  0.0000000E+00;
 -1.3000000E-01;  9.9999998E-03; -4.4999999E-01;635;  0.0000000E+00;  0.0000000E+00;  0.0000000E+00;  1.0000000E+03;  1.0000000E-01;  0.0000000E+00;0;  0.0000000E+00;  0.0000000E+00;  0.0000000E+00;0;  0.0000000E+00;  4.0000000E+04;  0.0000000E+00;  0.0000000E+00;  4.0000000E+04;  0.0000000E+00;  4.0000000E+04;  0.0000000E+00;  0.0000000E+00;  0.0000000E+00;  0.0000000E+00;
 -1.2000000E-01;  9.9999998E-03; -4.4999999E-01;726;  0.0000000E+00;  0.0000000E+00;  0.0000000E+00;  1.0000000E+03;  1.0000000E-01;  0.0000000E+00;0;  0.0000000E+00;  0.0000000E+00;  0.0000000E+00;0;  0.0000000E+00;  4.0000000E+04;  0.0000000E+00;  0.0000000E+00;  4.0000000E+04;  0.0000000E+00;  4.0000000E+04;  0.0000000E+00;  0.0000000E+00;  0.0000000E+00;  0.0000000E+00;
 -1.1000000E-01;  9.9999998E-03; -4.4999999E-01;817;  0.0000000E+00;  0.0000000E+00;  0.0000000E+00;  1.0000000E+03;  1.0000000E-01;  0.0000000E+00;0;  0.0000000E+00;  0.0000000E+00;  0.0000000E+00;0;  0.0000000E+00;  4.0000000E+04;  0.0000000E+00;  0.0000000E+00;  4.0000000E+04;  0.0000000E+00;  4.0000000E+04;  0.0000000E+00;  0.0000000E+00;  0.0000000E+00;  0.0000000E+00;
 -1.0000000E-01;  9.9999998E-03; -4.4999999E-01;908;  0.0000000E+00;  0.0000000E+00;  0.0000000E+00;  1.0000000E+03;  1.0000000E-01;  0.0000000E+00;0;  0.0000000E+00;  0.0000000E+00;  0.0000000E+00;0;  0.0000000E+00;  4.0000000E+04;  0.0000000E+00;  0.0000000E+00;  4.0000000E+04;  0.0000000E+00;  4.0000000E+04;  0.0000000E+00;  0.0000000E+00;  0.0000000E+00;  0.0000000E+00;
 -9.0000004E-02;  9.9999998E-03; -4.4999999E-01;999;  0.0000000E+00;  0.0000000E+00;  0.0000000E+00;  1.0000000E+03;  1.0000000E-01;  0.0000000E+00;0;  0.0000000E+00;  0.0000000E+00;  0.0000000E+00;0;  0.0000000E+00;  4.0000000E+04;  0.0000000E+00;  0.0000000E+00;  4.0000000E+04;  0.0000000E+00;  4.0000000E+04;  0.0000000E+00;  0.0000000E+00;  0.0000000E+00;  0.0000000E+00;
 -7.9999998E-02;  9.9999998E-03; -4.4999999E-01;1090;  0.0000000E+00;  0.0000000E+00;  0.0000000E+00;  1.0000000E+03;  1.0000000E-01;  0.0000000E+00;0;  0.0000000E+00;  0.0000000E+00;  0.0000000E+00;0;  0.0000000E+00;  4.0000000E+04;  0.0000000E+00;  0.0000000E+00;  4.0000000E+04;  0.0000000E+00;  4.0000000E+04;  0.0000000E+00;  0.0000000E+00;  0.0000000E+00;  0.0000000E+00;
 -7.0000000E-02;  9.9999998E-03; -4.4999999E-01;1181;  0.0000000E+00;  0.0000000E+00;  0.0000000E+00;  1.0000000E+03;  1.0000000E-01;  0.0000000E+00;0;  0.0000000E+00;  0.0000000E+00;  0.0000000E+00;0;  0.0000000E+00;  4.0000000E+04;  0.0000000E+00;  0.0000000E+00;  4.0000000E+04;  0.0000000E+00;  4.0000000E+04;  0.0000000E+00;  0.0000000E+00;  0.0000000E+00;  8.6648275E-12;
 -5.9999999E-02;  9.9999998E-03; -4.4999999E-01;1272;  0.0000000E+00;  0.0000000E+00;  0.0000000E+00;  1.0000000E+03;  1.0000000E-01;  0.0000000E+00;0;  0.0000000E+00;  0.0000000E+00;  0.0000000E+00;0; -1.5112871E-08;  4.0000000E+04;  0.0000000E+00;  0.0000000E+00;  4.0000000E+04;  0.0000000E+00;  4.0000000E+04; -4.4440518E-09;  0.0000000E+00; -1.0668819E-08;  4.2266879E-02;
 -5.0000001E-02;  9.9999998E-03; -4.4999999E-01;1363;  0.0000000E+00;  0.0000000E+00;  0.0000000E+00;  1.0000000E+03;  1.0000000E-01;  0.0000000E+00;0;  0.0000000E+00;  0.0000000E+00;  0.0000000E+00;0; -1.2704120E-07;  4.0000000E+04;  0.0000000E+00;  0.0000000E+00;  4.0000000E+04;  0.0000000E+00;  4.0000000E+04; -3.5805837E-08;  0.0000000E+00; -9.1235364E-08;  3.5963130E-01;
 -3.9999999E-02;  9.9999998E-03; -4.4999999E-01;1454;  0.0000000E+00;  0.0000000E+00;  0.0000000E+00;  1.0000000E+03;  1.0000000E-01;  0.0000000E+00;0;  0.0000000E+00;  0.0000000E+00;  0.0000000E+00;0; -4.4652833E-07;  4.0000000E+04;  0.0000000E+00;  0.0000000E+00;  4.0000000E+04;  0.0000000E+00;  4.0000000E+04; -1.2359533E-07;  0.0000000E+00; -3.2293300E-07;  1.2944406E+00;
 -2.9999999E-02;  9.9999998E-03; -4.4999999E-01;1545;  0.0000000E+00;  0.0000000E+00;  0.0000000E+00;  1.0000000E+03;  1.0000000E-01;  0.0000000E+00;0;  0.0000000E+00;  0.0000000E+00;  0.0000000E+00;0; -1.0385369E-06;  4.0000000E+04;  0.0000000E+00;  0.0000000E+00;  4.0000000E+04;  0.0000000E+00;  4.0000000E+04; -2.8970993E-07;  0.0000000E+00; -7.4882695E-07;  3.0833969E+00;
 -2.0000000E-02;  9.9999998E-03; -4.4999999E-01;1636;  0.0000000E+00;  0.0000000E+00;  0.0000000E+00;  1.0000000E+03;  1.0000000E-01;  0.0000000E+00;0;  0.0000000E+00;  0.0000000E+00;  0.0000000E+00;0; -1.8709924E-06;  4.0000000E+04;  0.0000000E+00;  0.0000000E+00;  4.0000000E+04;  0.0000000E+00;  4.0000000E+04; -5.3695214E-07;  0.0000000E+00; -1.3340402E-06;  5.6655731E+00;
 -9.9999998E-03;  9.9999998E-03; -4.4999999E-01;1727;  0.0000000E+00;  0.0000000E+00;  0.0000000E+00;  1.0000000E+03;  1.0000000E-01;  0.0000000E+00;0;  0.0000000E+00;  0.0000000E+00;  0.0000000E+00;0; -2.8135557E-06;  4.0000000E+04;  0.0000000E+00;  0.0000000E+00;  4.0000000E+04;  0.0000000E+00;  4.0000000E+04; -8.4351080E-07;  0.0000000E+00; -1.9700449E-06;  8.6276426E+00;
  0.0000000E+00;  9.9999998E-03; -4.4999999E-01;1818;  0.0000000E+00;  0.0000000E+00;  0.0000000E+00;  1.0000000E+03;  1.0000000E-01;  0.0000000E+00;0;  0.0000000E+00;  0.0000000E+00;  0.0000000E+00;0; -3.6759607E-06;  4.0000000E+04;  0.0000000E+00;  0.0000000E+00;  4.0000000E+04;  0.0000000E+00;  4.0000000E+04; -1.1651230E-06;  0.0000000E+00; -2.5108377E-06;  1.1301946E+01;
  9.9999998E-03;  9.9999998E-03; -4.4999999E-01;1850;  0.0000000E+00;  0.0000000E+00;  0.0000000E+00;  1.0000000E+03;  1.0000000E-01;  0.0000000E+00;0;  0.0000000E+00;  0.0000000E+00;  0.0000000E+00;0; -4.2696720E-06;  4.0000000E+04;  0.0000000E+00;  0.0000000E+00;  4.0000000E+04;  0.0000000E+00;  4.0000000E+04; -1.4443514E-06;  0.0000000E+00; -2.8253205E-06;  1.2958323E+01;
  2.0000000E-02;  9.9999998E-03; -4.4999999E-01;1880;  0.0000000E+00;  0.0000000E+00;  0.0000000E+00;  1.0000000E+03;  1.0000000E-01;  0.0000000E+00;0;  0.0000000E+00;  0.0000000E+00;  0.0000000E+00;0; -4.4710864E-06;  4.0000000E+04;  0.0000000E+00;  0.0000000E+00;  4.0000000E+04;  0.0000000E+00;  4.0000000E+04; -1.6237143E-06;  0.0000000E+00; -2.8473721E-06;  1.3022905E+01;
  2.9999999E-02;  9.9999998E-03; -4.4999999E-01;1910;  0.0000000E+00;  0.0000000E+00;  0.0000000E+00;  1.0000000E+03;  1.0000000E-01;  0.0000000E+00;0;  0.0000000E+00;  0.0000000E+00;  0.0000000E+00;0; -4.2652700E-06;  4.0000000E+04;  0.0000000E+00;  0.0000000E+00;  4.0000000E+04;  0.0000000E+00;  4.0000000E+04; -1.6573752E-06;  0.0000000E+00; -2.6078947E-06;  1.1262593E+01;
  3.9999999E-02;  9.9999998E-03; -4.4999999E-01;1940;  0.0000000E+00;  0.0000000E+00;  0.0000000E+00;  1.0000000E+03;  1.0000000E-01;  0.0000000E+00;0;  0.0000000E+00;  0.0000000E+00;  0.0000000E+00;0; -3.7550622E-06;  4.0000000E+04;  0.0000000E+00;  0.0000000E+00;  4.0000000E+04;  0.0000000E+00;  4.0000000E+04; -1.5175260E-06;  0.0000000E+00; -2.2375361E-06;  7.9072084E+00;
  5.0000001E-02;  9.9999998E-03; -4.4999999E-01;1970;  0.0000000E+00;  0.0000000E+00;  0.0000000E+00;  1.0000000E+03;  1.0000000E-01;  0.0000000E+00;0;  0.0000000E+00;  0.0000000E+00;  0.0000000E+00;0; -3.1285767E-06;  4.0000000E+04;  0.0000000E+00;  0.0000000E+00;  4.0000000E+04;  0.0000000E+00;  4.0000000E+04; -1.1985574E-06;  0.0000000E+00; -1.9300194E-06;  3.6980669E+00;
  5.9999999E-02;  9.9999998E-03; -4.4999999E-01;2000;  0.0000000E+00;  0.0000000E+00;  0.0000000E+00;  1.0000000E+03;  1.0000000E-01;  0.0000000E+00;0;  0.0000000E+00;  0.0000000E+00;  0.0000000E+00;0; -2.5905970E-06;  4.0000000E+04;  0.0000000E+00;  0.0000000E+00;  4.0000000E+04;  0.0000000E+00;  4.0000000E+04; -7.2192182E-07;  0.0000000E+00; -1.8686752E-06;  2.9130509E-01;
  7.0000000E-02;  9.9999998E-03; -4.4999999E-01;2030;  0.0000000E+00;  0.0000000E+00;  0.0000000E+00;  1.0000000E+03;  1.0000000E-01;  0.0000000E+00;0;  0.0000000E+00;  0.0000000E+00;  0.0000000E+00;0; -2.2963600E-06;  4.0000000E+04;  0.0000000E+00;  0.0000000E+00;  4.0000000E+04;  0.0000000E+00;  4.0000000E+04; -1.3611378E-07;  0.0000000E+00; -2.1602461E-06;  2.3926768E+00;
  7.9999998E-02;  9.9999998E-03; -4.4999999E-01;2060;  0.0000000E+00;  0.0000000E+00;  0.0000000E+00;  1.0000000E+03;  1.0000000E-01;  0.0000000E+00;0;  0.0000000E+00;  0.0000000E+00;  0.0000000E+00;0; -2.3243338E-06;  4.0000000E+04;  0.0000000E+00;  0.0000000E+00;  4.0000000E+04;  0.0000000E+00;  4.0000000E+04;  4.8922527E-07;  0.0000000E+00; -2.8135589E-06;  1.6949087E+00;
  9.0000004E-02;  9.9999998E-03; -4.4999999E-01;2090;  0.0000000E+00;  0.0000000E+00;  0.0000000E+00;  1.0000000E+03;  1.0000000E-01;  0.0000000E+00;0;  0.0000000E+00;  0.0000000E+00;  0.0000000E+00;0; -2.6694443E-06;  4.0000000E+04;  0.0000000E+00;  0.0000000E+00;  4.0000000E+04;  0.0000000E+00;  4.0000000E+04;  1.0701102E-06;  0.0000000E+00; -3.7395546E-06;  3.6513355E+00;
  1.0000000E-01;  9.9999998E-03; -4.4999999E-01;2120;  0.0000000E+00;  0.0000000E+00;  0.0000000E+00;  1.0000000E+03;  1.0000000E-01;  0.0000000E+00;0;  0.0000000E+00;  0.0000000E+00;  0.0000000E+00;0; -3.2858525E-06;  4.0000000E+04;  0.0000000E+00;  0.0000000E+00;  4.0000000E+04;  0.0000000E+00;  4.0000000E+04;  1.5198344E-06;  0.0000000E+00; -4.8056868E-06;  1.2255029E+01;
  1.1000000E-01;  9.9999998E-03; -4.4999999E-01;2150;  0.0000000E+00;  0.0000000E+00;  0.0000000E+00;  1.0000000E+03;  1.0000000E-01;  0.0000000E+00;0;  0.0000000E+00;  0.0000000E+00;  0.0000000E+00;0; -4.1263183E-06;  4.0000000E+04;  0.0000000E+00;  0.0000000E+00;  4.0000000E+04;  0.0000000E+00;  4.0000000E+04;  1.7701365E-06;  0.0000000E+00; -5.8964547E-06;  2.4532841E+01;
  1.2000000E-01;  9.9999998E-03; -4.4999999E-01;2180;  0.0000000E+00;  0.0000000E+00;  0.0000000E+00;  1.0000000E+03;  1.0000000E-01;  0.0000000E+00;0;  0.0000000E+00;  0.0000000E+00;  0.0000000E+00;0; -5.1339257E-06;  4.0000000E+04;  0.0000000E+00;  0.0000000E+00;  4.0000000E+04;  0.0000000E+00;  4.0000000E+04;  1.7183793E-06;  0.0000000E+00; -6.8523050E-06;  4.1496521E+01;
  1.3000000E-01;  9.9999998E-03; -4.4999999E-01;2210;  0.0000000E+00;  0.0000000E+00;  0.0000000E+00;  1.0000000E+03;  1.0000000E-01;  0.0000000E+00;0;  0.0000000E+00;  0.0000000E+00;  0.0000000E+00;0; -6.3897442E-06;  4.0000000E+04;  0.0000000E+00;  0.0000000E+00;  4.0000000E+04;  0.0000000E+00;  4.0000000E+04;  1.1511854E-06;  0.0000000E+00; -7.5409298E-06;  6.8984123E+01;
  1.4000000E-01;  9.9999998E-03; -4.4999999E-01;2240;  0.0000000E+00;  0.0000000E+00;  0.0000000E+00;  1.0000000E+03;  1.0000000E-01;  0.0000000E+00;0;  0.0000000E+00;  0.0000000E+00;  0.0000000E+00;0; -8.1691041E-06;  4.0000000E+04;  0.0000000E+00;  0.0000000E+00;  4.0000000E+04;  0.0000000E+00;  4.0000000E+04; -2.1262821E-07;  0.0000000E+00; -7.9564761E-06;  1.2089485E+02;
  1.5000001E-01;  9.9999998E-03; -4.4999999E-01;2270;  0.0000000E+00;  0.0000000E+00;  0.0000000E+00;  1.0000000E+03;  1.0000000E-01;  0.0000000E+00;0;  0.0000000E+00;  0.0000000E+00;  0.0000000E+00;0; -1.0744932E-05;  4.0000000E+04;  0.0000000E+00;  0.0000000E+00;  4.0000000E+04;  0.0000000E+00;  4.0000000E+04; -2.5435124E-06;  0.0000000E+00; -8.2014194E-06;  2.1996515E+02;
  1.6000000E-01;  9.9999998E-03; -4.4999999E-01;2300;  0.0000000E+00;  0.0000000E+00;  0.0000000E+00;  1.0000000E+03;  1.0000000E-01;  0.0000000E+00;0;  0.0000000E+00;  0.0000000E+00;  0.0000000E+00;0; -1.4199590E-05;  4.0000000E+04;  0.0000000E+00;  0.0000000E+00;  4.0000000E+04;  0.0000000E+00;  4.0000000E+04; -5.7345669E-06;  0.0000000E+00; -8.4650228E-06;  3.9737714E+02;
  1.7000000E-01;  9.9999998E-03; -4.4999999E-01;2330;  0.0000000E+00;  0.0000000E+00;  0.0000000E+00;  1.0000000E+03;  1.0000000E-01;  0.0000000E+00;0;  0.0000000E+00;  0.0000000E+00;  0.0000000E+00;0; -1.8310529E-05;  4.0000000E+04;  0.0000000E+00;  0.0000000E+00;  4.0000000E+04;  0.0000000E+00;  4.0000000E+04; -9.2836563E-06;  0.0000000E+00; -9.0268741E-06;  6.9127893E+02;
  1.8000001E-01;  9.9999998E-03; -4.4999999E-01;2360;  0.0000000E+00;  0.0000000E+00;  0.0000000E+00;  1.0000000E+03;  1.0000000E-01;  0.0000000E+00;0;  0.0000000E+00;  0.0000000E+00;  0.0000000E+00;0; -2.2528555E-05;  4.0000000E+04;  0.0000000E+00;  0.0000000E+00;  4.0000000E+04;  0.0000000E+00;  4.0000000E+04; -1.2265085E-05;  0.0000000E+00; -1.0263469E-05;  1.1384208E+03;
  1.9000000E-01;  9.9999998E-03; -4.4999999E-01;2390;  0.0000000E+00;  0.0000000E+00;  0.0000000E+00;  1.0000000E+03;  1.0000000E-01;  0.0000000E+00;0;  0.0000000E+00;  0.0000000E+00;  0.0000000E+00;0; -2.6142923E-05;  4.0000000E+04;  0.0000000E+00;  0.0000000E+00;  4.0000000E+04;  0.0000000E+00;  4.0000000E+04; -1.3495473E-05;  0.0000000E+00; -1.2647451E-05;  1.7562708E+03;
 -1.9000000E-01;  9.9999998E-03; -4.4000000E-01;90;  0.0000000E+00;  0.0000000E+00;  0.0000000E+00;  1.0000000E+03;  1.0000000E-01;  0.0000000E+00;0;  0.0000000E+00;  0.0000000E+00;  0.0000000E+00;0;  0.0000000E+00;  4.0000000E+04;  0.0000000E+00;  0.0000000E+00;  4.0000000E+04;  0.0000000E+00;  4.0000000E+04;  0.0000000E+00;  0.0000000E+00;  0.0000000E+00;  0.0000000E+00;
 -1.9000000E-01;  9.9999998E-03; -4.3000001E-01;91;  0.0000000E+00;  0.0000000E+00;  0.0000000E+00;  1.0000000E+03;  1.0000000E-01;  0.0000000E+00;0;  0.0000000E+00;  0.0000000E+00;  0.0000000E+00;0;  0.0000000E+00;  4.0000000E+04;  0.0000000E+00;  0.0000000E+00;  4.0000000E+04;  0.0000000E+00;  4.0000000E+04;  0.0000000E+00;  0.0000000E+00;  0.0000000E+00;  0.0000000E+00;
 -1.9000000E-01;  9.9999998E-03; -4.1999999E-01;92;  0.0000000E+00;  0.0000000E+00;  0.0000000E+00;  1.0000000E+03;  1.0000000E-01;  0.0000000E+00;0;  0.0000000E+00;  0.0000000E+00;  0.0000000E+00;0;  0.0000000E+00;  4.0000000E+04;  0.0000000E+00;  0.0000000E+00;  4.0000000E+04;  0.0000000E+00;  4.0000000E+04;  0.0000000E+00;  0.0000000E+00;  0.0000000E+00;  0.0000000E+00;
 -1.9000000E-01;  9.9999998E-03; -4.1000000E-01;93;  0.0000000E+00;  0.0000000E+00;  0.0000000E+00;  1.0000000E+03;  1.0000000E-01;  0.0000000E+00;0;  0.0000000E+00;  0.0000000E+00;  0.0000000E+00;0;  0.0000000E+00;  4.0000000E+04;  0.0000000E+00;  0.0000000E+00;  4.0000000E+04;  0.0000000E+00;  4.0000000E+04;  0.0000000E+00;  0.0000000E+00;  0.0000000E+00;  0.0000000E+00;
 -1.9000000E-01;  9.9999998E-03; -4.0000001E-01;94;  0.0000000E+00;  0.0000000E+00;  0.0000000E+00;  1.0000000E+03;  1.0000000E-01;  0.0000000E+00;0;  0.0000000E+00;  0.0000000E+00;  0.0000000E+00;0;  0.0000000E+00;  4.0000000E+04;  0.0000000E+00;  0.0000000E+00;  4.0000000E+04;  0.0000000E+00;  4.0000000E+04;  0.0000000E+00;  0.0000000E+00;  0.0000000E+00;  0.0000000E+00;
 -1.9000000E-01;  9.9999998E-03; -3.8999999E-01;95;  0.0000000E+00;  0.0000000E+00;  0.0000000E+00;  1.0000000E+03;  1.0000000E-01;  0.0000000E+00;0;  0.0000000E+00;  0.0000000E+00;  0.0000000E+00;0;  0.0000000E+00;  4.0000000E+04;  0.0000000E+00;  0.0000000E+00;  4.0000000E+04;  0.0000000E+00;  4.0000000E+04;  0.0000000E+00;  0.0000000E+00;  0.0000000E+00;  0.0000000E+00;
 -1.9000000E-01;  9.9999998E-03; -3.8000000E-01;96;  0.0000000E+00;  0.0000000E+00;  0.0000000E+00;  1.0000000E+03;  1.0000000E-01;  0.0000000E+00;0;  0.0000000E+00;  0.0000000E+00;  0.0000000E+00;0;  0.0000000E+00;  4.0000000E+04;  0.0000000E+00;  0.0000000E+00;  4.0000000E+04;  0.0000000E+00;  4.0000000E+04;  0.0000000E+00;  0.0000000E+00;  0.0000000E+00;  0.0000000E+00;
 -1.9000000E-01;  9.9999998E-03; -3.7000000E-01;97;  0.0000000E+00;  0.0000000E+00;  0.0000000E+00;  1.0000000E+03;  1.0000000E-01;  0.0000000E+00;0;  0.0000000E+00;  0.0000000E+00;  0.0000000E+00;0;  0.0000000E+00;  4.0000000E+04;  0.0000000E+00;  0.0000000E+00;  4.0000000E+04;  0.0000000E+00;  4.0000000E+04;  0.0000000E+00;  0.0000000E+00;  0.0000000E+00;  0.0000000E+00;
 -1.9000000E-01;  9.9999998E-03; -3.6000001E-01;98;  0.0000000E+00;  0.0000000E+00;  0.0000000E+00;  1.0000000E+03;  1.0000000E-01;  0.0000000E+00;0;  0.0000000E+00;  0.0000000E+00;  0.0000000E+00;0;  0.0000000E+00;  4.0000000E+04;  0.0000000E+00;  0.0000000E+00;  4.0000000E+04;  0.0000000E+00;  4.0000000E+04;  0.0000000E+00;  0.0000000E+00;  0.0000000E+00;  0.0000000E+00;
 -1.9000000E-01;  9.9999998E-03; -3.4999999E-01;99;  0.0000000E+00;  0.0000000E+00;  0.0000000E+00;  1.0000000E+03;  1.0000000E-01;  0.0000000E+00;0;  0.0000000E+00;  0.0000000E+00;  0.0000000E+00;0;  0.0000000E+00;  4.0000000E+04;  0.0000000E+00;  0.0000000E+00;  4.0000000E+04;  0.0000000E+00;  4.0000000E+04;  0.0000000E+00;  0.0000000E+00;  0.0000000E+00;  0.0000000E+00;
 -1.9000000E-01;  9.9999998E-03; -3.4000000E-01;100;  0.0000000E+00;  0.0000000E+00;  0.0000000E+00;  1.0000000E+03;  1.0000000E-01;  0.0000000E+00;0;  0.0000000E+00;  0.0000000E+00;  0.0000000E+00;0;  0.0000000E+00;  4.0000000E+04;  0.0000000E+00;  0.0000000E+00;  4.0000000E+04;  0.0000000E+00;  4.0000000E+04;  0.0000000E+00;  0.0000000E+00;  0.0000000E+00;  0.0000000E+00;
 -1.9000000E-01;  9.9999998E-03; -3.3000001E-01;101;  0.0000000E+00;  0.0000000E+00;  0.0000000E+00;  1.0000000E+03;  1.0000000E-01;  0.0000000E+00;0;  0.0000000E+00;  0.0000000E+00;  0.0000000E+00;0;  0.0000000E+00;  4.0000000E+04;  0.0000000E+00;  0.0000000E+00;  4.0000000E+04;  0.0000000E+00;  4.0000000E+04;  0.0000000E+00;  0.0000000E+00;  0.0000000E+00;  0.0000000E+00;
 -1.9000000E-01;  9.9999998E-03; -3.1999999E-01;102;  0.0000000E+00;  0.0000000E+00;  0.0000000E+00;  1.0000000E+03;  1.0000000E-01;  0.0000000E+00;0;  0.0000000E+00;  0.0000000E+00;  0.0000000E+00;0;  0.0000000E+00;  4.0000000E+04;  0.0000000E+00;  0.0000000E+00;  4.0000000E+04;  0.0000000E+00;  4.0000000E+04;  0.0000000E+00;  0.0000000E+00;  0.0000000E+00;  0.0000000E+00;
 -1.9000000E-01;  9.9999998E-03; -3.1000000E-01;103;  0.0000000E+00;  0.0000000E+00;  0.0000000E+00;  1.0000000E+03;  1.0000000E-01;  0.0000000E+00;0;  0.0000000E+00;  0.0000000E+00;  0.0000000E+00;0;  0.0000000E+00;  4.0000000E+04;  0.0000000E+00;  0.0000000E+00;  4.0000000E+04;  0.0000000E+00;  4.0000000E+04;  0.0000000E+00;  0.0000000E+00;  0.0000000E+00;  0.0000000E+00;
 -1.9000000E-01;  9.9999998E-03; -3.0000001E-01;104;  0.0000000E+00;  0.0000000E+00;  0.0000000E+00;  1.0000000E+03;  1.0000000E-01;  0.0000000E+00;0;  0.0000000E+00;  0.0000000E+00;  0.0000000E+00;0;  0.0000000E+00;  4.0000000E+04;  0.0000000E+00;  0.0000000E+00;  4.0000000E+04;  0.0000000E+00;  4.0000000E+04;  0.0000000E+00;  0.0000000E+00;  0.0000000E+00;  0.0000000E+00;
 -1.9000000E-01;  9.9999998E-03; -2.8999999E-01;105;  0.0000000E+00;  0.0000000E+00;  0.0000000E+00;  1.0000000E+03;  1.0000000E-01;  0.0000000E+00;0;  0.0000000E+00;  0.0000000E+00;  0.0000000E+00;0;  0.0000000E+00;  4.0000000E+04;  0.0000000E+00;  0.0000000E+00;  4.0000000E+04;  0.0000000E+00;  4.0000000E+04;  0.0000000E+00;  0.0000000E+00;  0.0000000E+00;  0.0000000E+00;
 -1.9000000E-01;  9.9999998E-03; -2.8000000E-01;106;  0.0000000E+00;  0.0000000E+00;  0.0000000E+00;  1.0000000E+03;  1.0000000E-01;  0.0000000E+00;0;  0.0000000E+00;  0.0000000E+00;  0.0000000E+00;0;  0.0000000E+00;  4.0000000E+04;  0.0000000E+00;  0.0000000E+00;  4.0000000E+04;  0.0000000E+00;  4.0000000E+04;  0.0000000E+00;  0.0000000E+00;  0.0000000E+00;  0.0000000E+00;
 -1.8000001E-01;  9.9999998E-03; -4.4000000E-01;181;  0.0000000E+00;  0.0000000E+00;  0.0000000E+00;  1.0000000E+03;  1.0000000E-01;  0.0000000E+00;0;  0.0000000E+00;  0.0000000E+00;  0.0000000E+00;0;  0.0000000E+00;  4.0000000E+04;  0.0000000E+00;  0.0000000E+00;  4.0000000E+04;  0.0000000E+00;  4.0000000E+04;  0.0000000E+00;  0.0000000E+00;  0.0000000E+00;  0.0000000E+00;
 -1.8000001E-01;  9.9999998E-03; -4.3000001E-01;182;  0.0000000E+00;  0.0000000E+00;  0.0000000E+00;  1.0000000E+03;  1.0000000E-01;  0.0000000E+00;0;  0.0000000E+00;  0.0000000E+00;  0.0000000E+00;0;  0.0000000E+00;  4.0000000E+04;  0.0000000E+00;  0.0000000E+00;  4.0000000E+04;  0.0000000E+00;  4.0000000E+04;  0.0000000E+00;  0.0000000E+00;  0.0000000E+00;  0.0000000E+00;
 -1.8000001E-01;  9.9999998E-03; -4.1999999E-01;183;  0.0000000E+00;  0.0000000E+00;  0.0000000E+00;  1.0000000E+03;  1.0000000E-01;  0.0000000E+00;0;  0.0000000E+00;  0.0000000E+00;  0.0000000E+00;0;  0.0000000E+00;  4.0000000E+04;  0.0000000E+00;  0.0000000E+00;  4.0000000E+04;  0.0000000E+00;  4.0000000E+04;  0.0000000E+00;  0.0000000E+00;  0.0000000E+00;  0.0000000E+00;
 -1.8000001E-01;  9.9999998E-03; -4.1000000E-01;184;  0.0000000E+00;  0.0000000E+00;  0.0000000E+00;  1.0000000E+03;  1.0000000E-01;  0.0000000E+00;0;  0.0000000E+00;  0.0000000E+00;  0.0000000E+00;0;  0.0000000E+00;  4.0000000E+04;  0.0000000E+00;  0.0000000E+00;  4.0000000E+04;  0.0000000E+00;  4.0000000E+04;  0.0000000E+00;  0.0000000E+00;  0.0000000E+00;  0.0000000E+00;
 -1.8000001E-01;  9.9999998E-03; -4.0000001E-01;185;  0.0000000E+00;  0.0000000E+00;  0.0000000E+00;  1.0000000E+03;  1.0000000E-01;  0.0000000E+00;0;  0.0000000E+00;  0.0000000E+00;  0.0000000E+00;0;  0.0000000E+00;  4.0000000E+04;  0.0000000E+00;  0.0000000E+00;  4.0000000E+04;  0.0000000E+00;  4.0000000E+04;  0.0000000E+00;  0.0000000E+00;  0.0000000E+00;  0.0000000E+00;
 -1.8000001E-01;  9.9999998E-03; -3.8999999E-01;186;  0.0000000E+00;  0.0000000E+00;  0.0000000E+00;  1.0000000E+03;  1.0000000E-01;  0.0000000E+00;0;  0.0000000E+00;  0.0000000E+00;  0.0000000E+00;0;  0.0000000E+00;  4.0000000E+04;  0.0000000E+00;  0.0000000E+00;  4.0000000E+04;  0.0000000E+00;  4.0000000E+04;  0.0000000E+00;  0.0000000E+00;  0.0000000E+00;  0.0000000E+00;
 -1.8000001E-01;  9.9999998E-03; -3.8000000E-01;187;  0.0000000E+00;  0.0000000E+00;  0.0000000E+00;  1.0000000E+03;  1.0000000E-01;  0.0000000E+00;0;  0.0000000E+00;  0.0000000E+00;  0.0000000E+00;0;  0.0000000E+00;  4.0000000E+04;  0.0000000E+00;  0.0000000E+00;  4.0000000E+04;  0.0000000E+00;  4.0000000E+04;  0.0000000E+00;  0.0000000E+00;  0.0000000E+00;  0.0000000E+00;
 -1.8000001E-01;  9.9999998E-03; -3.7000000E-01;188;  0.0000000E+00;  0.0000000E+00;  0.0000000E+00;  1.0000000E+03;  1.0000000E-01;  0.0000000E+00;0;  0.0000000E+00;  0.0000000E+00;  0.0000000E+00;0;  0.0000000E+00;  4.0000000E+04;  0.0000000E+00;  0.0000000E+00;  4.0000000E+04;  0.0000000E+00;  4.0000000E+04;  0.0000000E+00;  0.0000000E+00;  0.0000000E+00;  0.0000000E+00;
 -1.8000001E-01;  9.9999998E-03; -3.6000001E-01;189;  0.0000000E+00;  0.0000000E+00;  0.0000000E+00;  1.0000000E+03;  1.0000000E-01;  0.0000000E+00;0;  0.0000000E+00;  0.0000000E+00;  0.0000000E+00;0;  0.0000000E+00;  4.0000000E+04;  0.0000000E+00;  0.0000000E+00;  4.0000000E+04;  0.0000000E+00;  4.0000000E+04;  0.0000000E+00;  0.0000000E+00;  0.0000000E+00;  0.0000000E+00;
 -1.8000001E-01;  9.9999998E-03; -3.4999999E-01;190;  0.0000000E+00;  0.0000000E+00;  0.0000000E+00;  1.0000000E+03;  1.0000000E-01;  0.0000000E+00;0;  0.0000000E+00;  0.0000000E+00;  0.0000000E+00;0;  0.0000000E+00;  4.0000000E+04;  0.0000000E+00;  0.0000000E+00;  4.0000000E+04;  0.0000000E+00;  4.0000000E+04;  0.0000000E+00;  0.0000000E+00;  0.0000000E+00;  0.0000000E+00;
 -1.8000001E-01;  9.9999998E-03; -3.4000000E-01;191;  0.0000000E+00;  0.0000000E+00;  0.0000000E+00;  1.0000000E+03;  1.0000000E-01;  0.0000000E+00;0;  0.0000000E+00;  0.0000000E+00;  0.0000000E+00;0;  0.0000000E+00;  4.0000000E+04;  0.0000000E+00;  0.0000000E+00;  4.0000000E+04;  0.0000000E+00;  4.0000000E+04;  0.0000000E+00;  0.0000000E+00;  0.0000000E+00;  0.0000000E+00;
 -1.8000001E-01;  9.9999998E-03; -3.3000001E-01;192;  0.0000000E+00;  0.0000000E+00;  0.0000000E+00;  1.0000000E+03;  1.0000000E-01;  0.0000000E+00;0;  0.0000000E+00;  0.0000000E+00;  0.0000000E+00;0;  0.0000000E+00;  4.0000000E+04;  0.0000000E+00;  0.0000000E+00;  4.0000000E+04;  0.0000000E+00;  4.0000000E+04;  0.0000000E+00;  0.0000000E+00;  0.0000000E+00;  0.0000000E+00;
 -1.8000001E-01;  9.9999998E-03; -3.1999999E-01;193;  0.0000000E+00;  0.0000000E+00;  0.0000000E+00;  1.0000000E+03;  1.0000000E-01;  0.0000000E+00;0;  0.0000000E+00;  0.0000000E+00;  0.0000000E+00;0;  0.0000000E+00;  4.0000000E+04;  0.0000000E+00;  0.0000000E+00;  4.0000000E+04;  0.0000000E+00;  4.0000000E+04;  0.0000000E+00;  0.0000000E+00;  0.0000000E+00;  0.0000000E+00;
 -1.8000001E-01;  9.9999998E-03; -3.1000000E-01;194;  0.0000000E+00;  0.0000000E+00;  0.0000000E+00;  1.0000000E+03;  1.0000000E-01;  0.0000000E+00;0;  0.0000000E+00;  0.0000000E+00;  0.0000000E+00;0;  0.0000000E+00;  4.0000000E+04;  0.0000000E+00;  0.0000000E+00;  4.0000000E+04;  0.0000000E+00;  4.0000000E+04;  0.0000000E+00;  0.0000000E+00;  0.0000000E+00;  0.0000000E+00;
 -1.8000001E-01;  9.9999998E-03; -3.0000001E-01;195;  0.0000000E+00;  0.0000000E+00;  0.0000000E+00;  1.0000000E+03;  1.0000000E-01;  0.0000000E+00;0;  0.0000000E+00;  0.0000000E+00;  0.0000000E+00;0;  0.0000000E+00;  4.0000000E+04;  0.0000000E+00;  0.0000000E+00;  4.0000000E+04;  0.0000000E+00;  4.0000000E+04;  0.0000000E+00;  0.0000000E+00;  0.0000000E+00;  0.0000000E+00;
 -1.8000001E-01;  9.9999998E-03; -2.8999999E-01;196;  0.0000000E+00;  0.0000000E+00;  0.0000000E+00;  1.0000000E+03;  1.0000000E-01;  0.0000000E+00;0;  0.0000000E+00;  0.0000000E+00;  0.0000000E+00;0;  0.0000000E+00;  4.0000000E+04;  0.0000000E+00;  0.0000000E+00;  4.0000000E+04;  0.0000000E+00;  4.0000000E+04;  0.0000000E+00;  0.0000000E+00;  0.0000000E+00;  0.0000000E+00;
 -1.8000001E-01;  9.9999998E-03; -2.8000000E-01;197;  0.0000000E+00;  0.0000000E+00;  0.0000000E+00;  1.0000000E+03;  1.0000000E-01;  0.0000000E+00;0;  0.0000000E+00;  0.0000000E+00;  0.0000000E+00;0;  0.0000000E+00;  4.0000000E+04;  0.0000000E+00;  0.0000000E+00;  4.0000000E+04;  0.0000000E+00;  4.0000000E+04;  0.0000000E+00;  0.0000000E+00;  0.0000000E+00;  0.0000000E+00;
 -1.7000000E-01;  9.9999998E-03; -4.4000000E-01;272;  0.0000000E+00;  0.0000000E+00;  0.0000000E+00;  1.0000000E+03;  1.0000000E-01;  0.0000000E+00;0;  0.0000000E+00;  0.0000000E+00;  0.0000000E+00;0;  0.0000000E+00;  4.0000000E+04;  0.0000000E+00;  0.0000000E+00;  4.0000000E+04;  0.0000000E+00;  4.0000000E+04;  0.0000000E+00;  0.0000000E+00;  0.0000000E+00;  0.0000000E+00;
 -1.7000000E-01;  9.9999998E-03; -4.3000001E-01;273;  0.0000000E+00;  0.0000000E+00;  0.0000000E+00;  1.0000000E+03;  1.0000000E-01;  0.0000000E+00;0;  0.0000000E+00;  0.0000000E+00;  0.0000000E+00;0;  0.0000000E+00;  4.0000000E+04;  0.0000000E+00;  0.0000000E+00;  4.0000000E+04;  0.0000000E+00;  4.0000000E+04;  0.0000000E+00;  0.0000000E+00;  0.0000000E+00;  0.0000000E+00;
 -1.7000000E-01;  9.9999998E-03; -4.1999999E-01;274;  0.0000000E+00;  0.0000000E+00;  0.0000000E+00;  1.0000000E+03;  1.0000000E-01;  0.0000000E+00;0;  0.0000000E+00;  0.0000000E+00;  0.0000000E+00;0;  0.0000000E+00;  4.0000000E+04;  0.0000000E+00;  0.0000000E+00;  4.0000000E+04;  0.0000000E+00;  4.0000000E+04;  0.0000000E+00;  0.0000000E+00;  0.0000000E+00;  0.0000000E+00;
 -1.7000000E-01;  9.9999998E-03; -4.1000000E-01;275;  0.0000000E+00;  0.0000000E+00;  0.0000000E+00;  1.0000000E+03;  1.0000000E-01;  0.0000000E+00;0;  0.0000000E+00;  0.0000000E+00;  0.0000000E+00;0;  0.0000000E+00;  4.0000000E+04;  0.0000000E+00;  0.0000000E+00;  4.0000000E+04;  0.0000000E+00;  4.0000000E+04;  0.0000000E+00;  0.0000000E+00;  0.0000000E+00;  0.0000000E+00;
 -1.7000000E-01;  9.9999998E-03; -4.0000001E-01;276;  0.0000000E+00;  0.0000000E+00;  0.0000000E+00;  1.0000000E+03;  1.0000000E-01;  0.0000000E+00;0;  0.0000000E+00;  0.0000000E+00;  0.0000000E+00;0;  0.0000000E+00;  4.0000000E+04;  0.0000000E+00;  0.0000000E+00;  4.0000000E+04;  0.0000000E+00;  4.0000000E+04;  0.0000000E+00;  0.0000000E+00;  0.0000000E+00;  0.0000000E+00;
 -1.7000000E-01;  9.9999998E-03; -3.8999999E-01;277;  0.0000000E+00;  0.0000000E+00;  0.0000000E+00;  1.0000000E+03;  1.0000000E-01;  0.0000000E+00;0;  0.0000000E+00;  0.0000000E+00;  0.0000000E+00;0;  0.0000000E+00;  4.0000000E+04;  0.0000000E+00;  0.0000000E+00;  4.0000000E+04;  0.0000000E+00;  4.0000000E+04;  0.0000000E+00;  0.0000000E+00;  0.0000000E+00;  0.0000000E+00;
 -1.7000000E-01;  9.9999998E-03; -3.8000000E-01;278;  0.0000000E+00;  0.0000000E+00;  0.0000000E+00;  1.0000000E+03;  1.0000000E-01;  0.0000000E+00;0;  0.0000000E+00;  0.0000000E+00;  0.0000000E+00;0;  0.0000000E+00;  4.0000000E+04;  0.0000000E+00;  0.0000000E+00;  4.0000000E+04;  0.0000000E+00;  4.0000000E+04;  0.0000000E+00;  0.0000000E+00;  0.0000000E+00;  0.0000000E+00;
 -1.7000000E-01;  9.9999998E-03; -3.7000000E-01;279;  0.0000000E+00;  0.0000000E+00;  0.0000000E+00;  1.0000000E+03;  1.0000000E-01;  0.0000000E+00;0;  0.0000000E+00;  0.0000000E+00;  0.0000000E+00;0;  0.0000000E+00;  4.0000000E+04;  0.0000000E+00;  0.0000000E+00;  4.0000000E+04;  0.0000000E+00;  4.0000000E+04;  0.0000000E+00;  0.0000000E+00;  0.0000000E+00;  0.0000000E+00;
 -1.7000000E-01;  9.9999998E-03; -3.6000001E-01;280;  0.0000000E+00;  0.0000000E+00;  0.0000000E+00;  1.0000000E+03;  1.0000000E-01;  0.0000000E+00;0;  0.0000000E+00;  0.0000000E+00;  0.0000000E+00;0;  0.0000000E+00;  4.0000000E+04;  0.0000000E+00;  0.0000000E+00;  4.0000000E+04;  0.0000000E+00;  4.0000000E+04;  0.0000000E+00;  0.0000000E+00;  0.0000000E+00;  0.0000000E+00;
 -1.7000000E-01;  9.9999998E-03; -3.4999999E-01;281;  0.0000000E+00;  0.0000000E+00;  0.0000000E+00;  1.0000000E+03;  1.0000000E-01;  0.0000000E+00;0;  0.0000000E+00;  0.0000000E+00;  0.0000000E+00;0;  0.0000000E+00;  4.0000000E+04;  0.0000000E+00;  0.0000000E+00;  4.0000000E+04;  0.0000000E+00;  4.0000000E+04;  0.0000000E+00;  0.0000000E+00;  0.0000000E+00;  0.0000000E+00;
 -1.7000000E-01;  9.9999998E-03; -3.4000000E-01;282;  0.0000000E+00;  0.0000000E+00;  0.0000000E+00;  1.0000000E+03;  1.0000000E-01;  0.0000000E+00;0;  0.0000000E+00;  0.0000000E+00;  0.0000000E+00;0;  0.0000000E+00;  4.0000000E+04;  0.0000000E+00;  0.0000000E+00;  4.0000000E+04;  0.0000000E+00;  4.0000000E+04;  0.0000000E+00;  0.0000000E+00;  0.0000000E+00;  0.0000000E+00;
 -1.7000000E-01;  9.9999998E-03; -3.3000001E-01;283;  0.0000000E+00;  0.0000000E+00;  0.0000000E+00;  1.0000000E+03;  1.0000000E-01;  0.0000000E+00;0;  0.0000000E+00;  0.0000000E+00;  0.0000000E+00;0;  0.0000000E+00;  4.0000000E+04;  0.0000000E+00;  0.0000000E+00;  4.0000000E+04;  0.0000000E+00;  4.0000000E+04;  0.0000000E+00;  0.0000000E+00;  0.0000000E+00;  0.0000000E+00;
 -1.7000000E-01;  9.9999998E-03; -3.1999999E-01;284;  0.0000000E+00;  0.0000000E+00;  0.0000000E+00;  1.0000000E+03;  1.0000000E-01;  0.0000000E+00;0;  0.0000000E+00;  0.0000000E+00;  0.0000000E+00;0;  0.0000000E+00;  4.0000000E+04;  0.0000000E+00;  0.0000000E+00;  4.0000000E+04;  0.0000000E+00;  4.0000000E+04;  0.0000000E+00;  0.0000000E+00;  0.0000000E+00;  0.0000000E+00;
 -1.7000000E-01;  9.9999998E-03; -3.1000000E-01;285;  0.0000000E+00;  0.0000000E+00;  0.0000000E+00;  1.0000000E+03;  1.0000000E-01;  0.0000000E+00;0;  0.0000000E+00;  0.0000000E+00;  0.0000000E+00;0;  0.0000000E+00;  4.0000000E+04;  0.0000000E+00;  0.0000000E+00;  4.0000000E+04;  0.0000000E+00;  4.0000000E+04;  0.0000000E+00;  0.0000000E+00;  0.0000000E+00;  0.0000000E+00;
 -1.7000000E-01;  9.9999998E-03; -3.0000001E-01;286;  0.0000000E+00;  0.0000000E+00;  0.0000000E+00;  1.0000000E+03;  1.0000000E-01;  0.0000000E+00;0;  0.0000000E+00;  0.0000000E+00;  0.0000000E+00;0;  0.0000000E+00;  4.0000000E+04;  0.0000000E+00;  0.0000000E+00;  4.0000000E+04;  0.0000000E+00;  4.0000000E+04;  0.0000000E+00;  0.0000000E+00;  0.0000000E+00;  0.0000000E+00;
 -1.7000000E-01;  9.9999998E-03; -2.8999999E-01;287;  0.0000000E+00;  0.0000000E+00;  0.0000000E+00;  1.0000000E+03;  1.0000000E-01;  0.0000000E+00;0;  0.0000000E+00;  0.0000000E+00;  0.0000000E+00;0;  0.0000000E+00;  4.0000000E+04;  0.0000000E+00;  0.0000000E+00;  4.0000000E+04;  0.0000000E+00;  4.0000000E+04;  0.0000000E+00;  0.0000000E+00;  0.0000000E+00;  6.8926012E-14;
 -1.7000000E-01;  9.9999998E-03; -2.8000000E-01;288;  0.0000000E+00;  0.0000000E+00;  0.0000000E+00;  1.0000000E+03;  1.0000000E-01;  0.0000000E+00;0;  0.0000000E+00;  0.0000000E+00;  0.0000000E+00;0;  0.0000000E+00;  4.0000000E+04;  0.0000000E+00;  0.0000000E+00;  4.0000000E+04;  0.0000000E+00;  4.0000000E+04;  0.0000000E+00;  0.0000000E+00;  0.0000000E+00;  1.4968563E-11;
 -1.6000000E-01;  9.9999998E-03; -4.4000000E-01;363;  0.0000000E+00;  0.0000000E+00;  0.0000000E+00;  1.0000000E+03;  1.0000000E-01;  0.0000000E+00;0;  0.0000000E+00;  0.0000000E+00;  0.0000000E+00;0;  0.0000000E+00;  4.0000000E+04;  0.0000000E+00;  0.0000000E+00;  4.0000000E+04;  0.0000000E+00;  4.0000000E+04;  0.0000000E+00;  0.0000000E+00;  0.0000000E+00;  0.0000000E+00;
 -1.6000000E-01;  9.9999998E-03; -4.3000001E-01;364;  0.0000000E+00;  0.0000000E+00;  0.0000000E+00;  1.0000000E+03;  1.0000000E-01;  0.0000000E+00;0;  0.0000000E+00;  0.0000000E+00;  0.0000000E+00;0;  0.0000000E+00;  4.0000000E+04;  0.0000000E+00;  0.0000000E+00;  4.0000000E+04;  0.0000000E+00;  4.0000000E+04;  0.0000000E+00;  0.0000000E+00;  0.0000000E+00;  0.0000000E+00;
 -1.6000000E-01;  9.9999998E-03; -4.1999999E-01;365;  0.0000000E+00;  0.0000000E+00;  0.0000000E+00;  1.0000000E+03;  1.0000000E-01;  0.0000000E+00;0;  0.0000000E+00;  0.0000000E+00;  0.0000000E+00;0;  0.0000000E+00;  4.0000000E+04;  0.0000000E+00;  0.0000000E+00;  4.0000000E+04;  0.0000000E+00;  4.0000000E+04;  0.0000000E+00;  0.0000000E+00;  0.0000000E+00;  0.0000000E+00;
 -1.6000000E-01;  9.9999998E-03; -4.1000000E-01;366;  0.0000000E+00;  0.0000000E+00;  0.0000000E+00;  1.0000000E+03;  1.0000000E-01;  0.0000000E+00;0;  0.0000000E+00;  0.0000000E+00;  0.0000000E+00;0;  0.0000000E+00;  4.0000000E+04;  0.0000000E+00;  0.0000000E+00;  4.0000000E+04;  0.0000000E+00;  4.0000000E+04;  0.0000000E+00;  0.0000000E+00;  0.0000000E+00;  0.0000000E+00;
 -1.6000000E-01;  9.9999998E-03; -4.0000001E-01;367;  0.0000000E+00;  0.0000000E+00;  0.0000000E+00;  1.0000000E+03;  1.0000000E-01;  0.0000000E+00;0;  0.0000000E+00;  0.0000000E+00;  0.0000000E+00;0;  0.0000000E+00;  4.0000000E+04;  0.0000000E+00;  0.0000000E+00;  4.0000000E+04;  0.0000000E+00;  4.0000000E+04;  0.0000000E+00;  0.0000000E+00;  0.0000000E+00;  0.0000000E+00;
 -1.6000000E-01;  9.9999998E-03; -3.8999999E-01;368;  0.0000000E+00;  0.0000000E+00;  0.0000000E+00;  1.0000000E+03;  1.0000000E-01;  0.0000000E+00;0;  0.0000000E+00;  0.0000000E+00;  0.0000000E+00;0;  0.0000000E+00;  4.0000000E+04;  0.0000000E+00;  0.0000000E+00;  4.0000000E+04;  0.0000000E+00;  4.0000000E+04;  0.0000000E+00;  0.0000000E+00;  0.0000000E+00;  0.0000000E+00;
 -1.6000000E-01;  9.9999998E-03; -3.8000000E-01;369;  0.0000000E+00;  0.0000000E+00;  0.0000000E+00;  1.0000000E+03;  1.0000000E-01;  0.0000000E+00;0;  0.0000000E+00;  0.0000000E+00;  0.0000000E+00;0;  0.0000000E+00;  4.0000000E+04;  0.0000000E+00;  0.0000000E+00;  4.0000000E+04;  0.0000000E+00;  4.0000000E+04;  0.0000000E+00;  0.0000000E+00;  0.0000000E+00;  0.0000000E+00;
 -1.6000000E-01;  9.9999998E-03; -3.7000000E-01;370;  0.0000000E+00;  0.0000000E+00;  0.0000000E+00;  1.0000000E+03;  1.0000000E-01;  0.0000000E+00;0;  0.0000000E+00;  0.0000000E+00;  0.0000000E+00;0;  0.0000000E+00;  4.0000000E+04;  0.0000000E+00;  0.0000000E+00;  4.0000000E+04;  0.0000000E+00;  4.0000000E+04;  0.0000000E+00;  0.0000000E+00;  0.0000000E+00;  0.0000000E+00;
 -1.6000000E-01;  9.9999998E-03; -3.6000001E-01;371;  0.0000000E+00;  0.0000000E+00;  0.0000000E+00;  1.0000000E+03;  1.0000000E-01;  0.0000000E+00;0;  0.0000000E+00;  0.0000000E+00;  0.0000000E+00;0;  0.0000000E+00;  4.0000000E+04;  0.0000000E+00;  0.0000000E+00;  4.0000000E+04;  0.0000000E+00;  4.0000000E+04;  0.0000000E+00;  0.0000000E+00;  0.0000000E+00;  0.0000000E+00;
 -1.6000000E-01;  9.9999998E-03; -3.4999999E-01;372;  0.0000000E+00;  0.0000000E+00;  0.0000000E+00;  1.0000000E+03;  1.0000000E-01;  0.0000000E+00;0;  0.0000000E+00;  0.0000000E+00;  0.0000000E+00;0;  0.0000000E+00;  4.0000000E+04;  0.0000000E+00;  0.0000000E+00;  4.0000000E+04;  0.0000000E+00;  4.0000000E+04;  0.0000000E+00;  0.0000000E+00;  0.0000000E+00;  0.0000000E+00;
 -1.6000000E-01;  9.9999998E-03; -3.4000000E-01;373;  0.0000000E+00;  0.0000000E+00;  0.0000000E+00;  1.0000000E+03;  1.0000000E-01;  0.0000000E+00;0;  0.0000000E+00;  0.0000000E+00;  0.0000000E+00;0; -5.1557097E-10;  4.0000000E+04;  0.0000000E+00;  0.0000000E+00;  4.0000000E+04;  0.0000000E+00;  4.0000000E+04; -2.2696615E-10;  0.0000000E+00; -2.8860483E-10;  1.1670262E-03;
 -1.6000000E-01;  9.9999998E-03; -3.3000001E-01;374;  0.0000000E+00;  0.0000000E+00;  0.0000000E+00;  1.0000000E+03;  1.0000000E-01;  0.0000000E+00;0;  0.0000000E+00;  0.0000000E+00;  0.0000000E+00;0; -6.7785177E-09;  4.0000000E+04;  0.0000000E+00;  0.0000000E+00;  4.0000000E+04;  0.0000000E+00;  4.0000000E+04; -3.2530216E-09;  0.0000000E+00; -3.5254961E-09;  9.7855115E-03;
 -1.6000000E-01;  9.9999998E-03; -3.1999999E-01;375;  0.0000000E+00;  0.0000000E+00;  0.0000000E+00;  1.0000000E+03;  1.0000000E-01;  0.0000000E+00;0;  0.0000000E+00;  0.0000000E+00;  0.0000000E+00;0; -1.8277223E-08;  4.0000000E+04;  0.0000000E+00;  0.0000000E+00;  4.0000000E+04;  0.0000000E+00;  4.0000000E+04; -7.6974649E-09;  0.0000000E+00; -1.0579758E-08;  2.8792975E-02;
 -1.6000000E-01;  9.9999998E-03; -3.1000000E-01;376;  0.0000000E+00;  0.0000000E+00;  0.0000000E+00;  1.0000000E+03;  1.0000000E-01;  0.0000000E+00;0;  0.0000000E+00;  0.0000000E+00;  0.0000000E+00;0; -2.1986605E-08;  4.0000000E+04;  0.0000000E+00;  0.0000000E+00;  4.0000000E+04;  0.0000000E+00;  4.0000000E+04; -3.5877803E-09;  0.0000000E+00; -1.8398824E-08;  5.1745065E-02;
 -1.6000000E-01;  9.9999998E-03; -3.0000001E-01;377;  0.0000000E+00;  0.0000000E+00;  0.0000000E+00;  1.0000000E+03;  1.0000000E-01;  0.0000000E+00;0;  0.0000000E+00;  0.0000000E+00;  0.0000000E+00;0;  1.2663328E-09;  4.0000000E+04;  0.0000000E+00;  0.0000000E+00;  4.0000000E+04;  0.0000000E+00;  4.0000000E+04;  2.3486866E-08;  0.0000000E+00; -2.2220533E-08;  6.4866289E-02;
 -1.6000000E-01;  9.9999998E-03; -2.8999999E-01;378;  0.0000000E+00;  0.0000000E+00;  0.0000000E+00;  1.0000000E+03;  1.0000000E-01;  0.0000000E+00;0;  0.0000000E+00;  0.0000000E+00;  0.0000000E+00;0;  6.5120837E-08;  4.0000000E+04;  0.0000000E+00;  0.0000000E+00;  4.0000000E+04;  0.0000000E+00;  4.0000000E+04;  8.4028315E-08;  0.0000000E+00; -1.8907476E-08;  5.4858308E-02;
 -1.6000000E-01;  9.9999998E-03; -2.8000000E-01;379;  0.0000000E+00;  0.0000000E+00;  0.0000000E+00;  1.0000000E+03;  1.0000000E-01;  0.0000000E+00;0;  0.0000000E+00;  0.0000000E+00;  0.0000000E+00;0;  1.6794098E-07;  4.0000000E+04;  0.0000000E+00;  0.0000000E+00;  4.0000000E+04;  0.0000000E+00;  4.0000000E+04;  1.7714132E-07;  0.0000000E+00; -9.2003312E-09;  1.7489338E-02;
 -1.5000001E-01;  9.9999998E-03; -4.4000000E-01;454;  0.0000000E+00;  0.0000000E+00;  0.0000000E+00;  1.0000000E+03;  1.0000000E-01;  0.0000000E+00;0;  0.0000000E+00;  0.0000000E+00;  0.0000000E+00;0;  0.0000000E+00;  4.0000000E+04;  0.0000000E+00;  0.0000000E+00;  4.0000000E+04;  0.0000000E+00;  4.0000000E+04;  0.0000000E+00;  0.0000000E+00;  0.0000000E+00;  0.0000000E+00;
 -1.5000001E-01;  9.9999998E-03; -4.3000001E-01;455;  0.0000000E+00;  0.0000000E+00;  0.0000000E+00;  1.0000000E+03;  1.0000000E-01;  0.0000000E+00;0;  0.0000000E+00;  0.0000000E+00;  0.0000000E+00;0;  0.0000000E+00;  4.0000000E+04;  0.0000000E+00;  0.0000000E+00;  4.0000000E+04;  0.0000000E+00;  4.0000000E+04;  0.0000000E+00;  0.0000000E+00;  0.0000000E+00;  0.0000000E+00;
 -1.5000001E-01;  9.9999998E-03; -4.1999999E-01;456;  0.0000000E+00;  0.0000000E+00;  0.0000000E+00;  1.0000000E+03;  1.0000000E-01;  0.0000000E+00;0;  0.0000000E+00;  0.0000000E+00;  0.0000000E+00;0;  0.0000000E+00;  4.0000000E+04;  0.0000000E+00;  0.0000000E+00;  4.0000000E+04;  0.0000000E+00;  4.0000000E+04;  0.0000000E+00;  0.0000000E+00;  0.0000000E+00;  0.0000000E+00;
 -1.5000001E-01;  9.9999998E-03; -4.1000000E-01;457;  0.0000000E+00;  0.0000000E+00;  0.0000000E+00;  1.0000000E+03;  1.0000000E-01;  0.0000000E+00;0;  0.0000000E+00;  0.0000000E+00;  0.0000000E+00;0;  0.0000000E+00;  4.0000000E+04;  0.0000000E+00;  0.0000000E+00;  4.0000000E+04;  0.0000000E+00;  4.0000000E+04;  0.0000000E+00;  0.0000000E+00;  0.0000000E+00;  0.0000000E+00;
 -1.5000001E-01;  9.9999998E-03; -4.0000001E-01;458;  0.0000000E+00;  0.0000000E+00;  0.0000000E+00;  1.0000000E+03;  1.0000000E-01;  0.0000000E+00;0;  0.0000000E+00;  0.0000000E+00;  0.0000000E+00;0;  0.0000000E+00;  4.0000000E+04;  0.0000000E+00;  0.0000000E+00;  4.0000000E+04;  0.0000000E+00;  4.0000000E+04;  0.0000000E+00;  0.0000000E+00;  0.0000000E+00;  0.0000000E+00;
 -1.5000001E-01;  9.9999998E-03; -3.8999999E-01;459;  0.0000000E+00;  0.0000000E+00;  0.0000000E+00;  1.0000000E+03;  1.0000000E-01;  0.0000000E+00;0;  0.0000000E+00;  0.0000000E+00;  0.0000000E+00;0;  0.0000000E+00;  4.0000000E+04;  0.0000000E+00;  0.0000000E+00;  4.0000000E+04;  0.0000000E+00;  4.0000000E+04;  0.0000000E+00;  0.0000000E+00;  0.0000000E+00;  0.0000000E+00;
 -1.5000001E-01;  9.9999998E-03; -3.8000000E-01;460;  0.0000000E+00;  0.0000000E+00;  0.0000000E+00;  1.0000000E+03;  1.0000000E-01;  0.0000000E+00;0;  0.0000000E+00;  0.0000000E+00;  0.0000000E+00;0;  0.0000000E+00;  4.0000000E+04;  0.0000000E+00;  0.0000000E+00;  4.0000000E+04;  0.0000000E+00;  4.0000000E+04;  0.0000000E+00;  0.0000000E+00;  0.0000000E+00;  0.0000000E+00;
 -1.5000001E-01;  9.9999998E-03; -3.7000000E-01;461;  0.0000000E+00;  0.0000000E+00;  0.0000000E+00;  1.0000000E+03;  1.0000000E-01;  0.0000000E+00;0;  0.0000000E+00;  0.0000000E+00;  0.0000000E+00;0;  0.0000000E+00;  4.0000000E+04;  0.0000000E+00;  0.0000000E+00;  4.0000000E+04;  0.0000000E+00;  4.0000000E+04;  0.0000000E+00;  0.0000000E+00;  0.0000000E+00;  3.0836722E-09;
 -1.5000001E-01;  9.9999998E-03; -3.6000001E-01;462;  0.0000000E+00;  0.0000000E+00;  0.0000000E+00;  1.0000000E+03;  1.0000000E-01;  0.0000000E+00;0;  0.0000000E+00;  0.0000000E+00;  0.0000000E+00;0; -5.8782561E-09;  4.0000000E+04;  0.0000000E+00;  0.0000000E+00;  4.0000000E+04;  0.0000000E+00;  4.0000000E+04; -1.9352051E-09;  0.0000000E+00; -3.9430508E-09;  1.0888693E-02;
 -1.5000001E-01;  9.9999998E-03; -3.4999999E-01;463;  0.0000000E+00;  0.0000000E+00;  0.0000000E+00;  1.0000000E+03;  1.0000000E-01;  0.0000000E+00;0;  0.0000000E+00;  0.0000000E+00;  0.0000000E+00;0; -4.4464528E-08;  4.0000000E+04;  0.0000000E+00;  0.0000000E+00;  4.0000000E+04;  0.0000000E+00;  4.0000000E+04; -1.5256896E-08;  0.0000000E+00; -2.9207630E-08;  7.0997082E-02;
 -1.5000001E-01;  9.9999998E-03; -3.4000000E-01;464;  0.0000000E+00;  0.0000000E+00;  0.0000000E+00;  1.0000000E+03;  1.0000000E-01;  0.0000000E+00;0;  0.0000000E+00;  0.0000000E+00;  0.0000000E+00;0; -1.3266633E-07;  4.0000000E+04;  0.0000000E+00;  0.0000000E+00;  4.0000000E+04;  0.0000000E+00;  4.0000000E+04; -4.3800032E-08;  0.0000000E+00; -8.8866294E-08;  2.1856152E-01;
 -1.5000001E-01;  9.9999998E-03; -3.3000001E-01;465;  0.0000000E+00;  0.0000000E+00;  0.0000000E+00;  1.0000000E+03;  1.0000000E-01;  0.0000000E+00;0;  0.0000000E+00;  0.0000000E+00;  0.0000000E+00;0; -2.3733125E-07;  4.0000000E+04;  0.0000000E+00;  0.0000000E+00;  4.0000000E+04;  0.0000000E+00;  4.0000000E+04; -5.8745925E-08;  0.0000000E+00; -1.7858532E-07;  4.5380566E-01;
 -1.5000001E-01;  9.9999998E-03; -3.1999999E-01;466;  0.0000000E+00;  0.0000000E+00;  0.0000000E+00;  1.0000000E+03;  1.0000000E-01;  0.0000000E+00;0;  0.0000000E+00;  0.0000000E+00;  0.0000000E+00;0; -2.6632256E-07;  4.0000000E+04;  0.0000000E+00;  0.0000000E+00;  4.0000000E+04;  0.0000000E+00;  4.0000000E+04;  1.0528539E-08;  0.0000000E+00; -2.7685110E-07;  7.2010422E-01;
 -1.5000001E-01;  9.9999998E-03; -3.1000000E-01;467;  0.0000000E+00;  0.0000000E+00;  0.0000000E+00;  1.0000000E+03;  1.0000000E-01;  0.0000000E+00;0;  0.0000000E+00;  0.0000000E+00;  0.0000000E+00;0; -9.5448854E-08;  4.0000000E+04;  0.0000000E+00;  0.0000000E+00;  4.0000000E+04;  0.0000000E+00;  4.0000000E+04;  2.5795674E-07;  0.0000000E+00; -3.5340560E-07;  9.1701233E-01;
 -1.5000001E-01;  9.9999998E-03; -3.0000001E-01;468;  0.0000000E+00;  0.0000000E+00;  0.0000000E+00;  1.0000000E+03;  1.0000000E-01;  0.0000000E+00;0;  0.0000000E+00;  0.0000000E+00;  0.0000000E+00;0;  3.8580171E-07;  4.0000000E+04;  0.0000000E+00;  0.0000000E+00;  4.0000000E+04;  0.0000000E+00;  4.0000000E+04;  7.6652111E-07;  0.0000000E+00; -3.8071940E-07;  9.3698198E-01;
 -1.5000001E-01;  9.9999998E-03; -2.8999999E-01;469;  0.0000000E+00;  0.0000000E+00;  0.0000000E+00;  1.0000000E+03;  1.0000000E-01;  0.0000000E+00;0;  0.0000000E+00;  0.0000000E+00;  0.0000000E+00;0;  1.2275406E-06;  4.0000000E+04;  0.0000000E+00;  0.0000000E+00;  4.0000000E+04;  0.0000000E+00;  4.0000000E+04;  1.5722615E-06;  0.0000000E+00; -3.4472086E-07;  7.0856154E-01;
 -1.5000001E-01;  9.9999998E-03; -2.8000000E-01;470;  0.0000000E+00;  0.0000000E+00;  0.0000000E+00;  1.0000000E+03;  1.0000000E-01;  0.0000000E+00;0;  0.0000000E+00;  0.0000000E+00;  0.0000000E+00;0;  2.3890659E-06;  4.0000000E+04;  0.0000000E+00;  0.0000000E+00;  4.0000000E+04;  0.0000000E+00;  4.0000000E+04;  2.6398250E-06;  0.0000000E+00; -2.5075903E-07;  2.2775985E-01;
 -1.4000000E-01;  9.9999998E-03; -4.4000000E-01;545;  0.0000000E+00;  0.0000000E+00;  0.0000000E+00;  1.0000000E+03;  1.0000000E-01;  0.0000000E+00;0;  0.0000000E+00;  0.0000000E+00;  0.0000000E+00;0;  0.0000000E+00;  4.0000000E+04;  0.0000000E+00;  0.0000000E+00;  4.0000000E+04;  0.0000000E+00;  4.0000000E+04;  0.0000000E+00;  0.0000000E+00;  0.0000000E+00;  0.0000000E+00;
 -1.4000000E-01;  9.9999998E-03; -4.3000001E-01;546;  0.0000000E+00;  0.0000000E+00;  0.0000000E+00;  1.0000000E+03;  1.0000000E-01;  0.0000000E+00;0;  0.0000000E+00;  0.0000000E+00;  0.0000000E+00;0;  0.0000000E+00;  4.0000000E+04;  0.0000000E+00;  0.0000000E+00;  4.0000000E+04;  0.0000000E+00;  4.0000000E+04;  0.0000000E+00;  0.0000000E+00;  0.0000000E+00;  0.0000000E+00;
 -1.4000000E-01;  9.9999998E-03; -4.1999999E-01;547;  0.0000000E+00;  0.0000000E+00;  0.0000000E+00;  1.0000000E+03;  1.0000000E-01;  0.0000000E+00;0;  0.0000000E+00;  0.0000000E+00;  0.0000000E+00;0;  0.0000000E+00;  4.0000000E+04;  0.0000000E+00;  0.0000000E+00;  4.0000000E+04;  0.0000000E+00;  4.0000000E+04;  0.0000000E+00;  0.0000000E+00;  0.0000000E+00;  0.0000000E+00;
 -1.4000000E-01;  9.9999998E-03; -4.1000000E-01;548;  0.0000000E+00;  0.0000000E+00;  0.0000000E+00;  1.0000000E+03;  1.0000000E-01;  0.0000000E+00;0;  0.0000000E+00;  0.0000000E+00;  0.0000000E+00;0;  0.0000000E+00;  4.0000000E+04;  0.0000000E+00;  0.0000000E+00;  4.0000000E+04;  0.0000000E+00;  4.0000000E+04;  0.0000000E+00;  0.0000000E+00;  0.0000000E+00;  0.0000000E+00;
 -1.4000000E-01;  9.9999998E-03; -4.0000001E-01;549;  0.0000000E+00;  0.0000000E+00;  0.0000000E+00;  1.0000000E+03;  1.0000000E-01;  0.0000000E+00;0;  0.0000000E+00;  0.0000000E+00;  0.0000000E+00;0;  0.0000000E+00;  4.0000000E+04;  0.0000000E+00;  0.0000000E+00;  4.0000000E+04;  0.0000000E+00;  4.0000000E+04;  0.0000000E+00;  0.0000000E+00;  0.0000000E+00;  0.0000000E+00;
 -1.4000000E-01;  9.9999998E-03; -3.8999999E-01;550;  0.0000000E+00;  0.0000000E+00;  0.0000000E+00;  1.0000000E+03;  1.0000000E-01;  0.0000000E+00;0;  0.0000000E+00;  0.0000000E+00;  0.0000000E+00;0;  0.0000000E+00;  4.0000000E+04;  0.0000000E+00;  0.0000000E+00;  4.0000000E+04;  0.0000000E+00;  4.0000000E+04;  0.0000000E+00;  0.0000000E+00;  0.0000000E+00;  0.0000000E+00;
 -1.4000000E-01;  9.9999998E-03; -3.8000000E-01;551;  0.0000000E+00;  0.0000000E+00;  0.0000000E+00;  1.0000000E+03;  1.0000000E-01;  0.0000000E+00;0;  0.0000000E+00;  0.0000000E+00;  0.0000000E+00;0; -3.3053051E-09;  4.0000000E+04;  0.0000000E+00;  0.0000000E+00;  4.0000000E+04;  0.0000000E+00;  4.0000000E+04; -7.8486623E-10;  0.0000000E+00; -2.5204390E-09;  8.0325399E-03;
 -1.4000000E-01;  9.9999998E-03; -3.7000000E-01;552;  0.0000000E+00;  0.0000000E+00;  0.0000000E+00;  1.0000000E+03;  1.0000000E-01;  0.0000000E+00;0;  0.0000000E+00;  0.0000000E+00;  0.0000000E+00;0; -6.9999011E-08;  4.0000000E+04;  0.0000000E+00;  0.0000000E+00;  4.0000000E+04;  0.0000000E+00;  4.0000000E+04; -2.3597787E-08;  0.0000000E+00; -4.6401222E-08;  1.1634307E-01;
 -1.4000000E-01;  9.9999998E-03; -3.6000001E-01;553;  0.0000000E+00;  0.0000000E+00;  0.0000000E+00;  1.0000000E+03;  1.0000000E-01;  0.0000000E+00;0;  0.0000000E+00;  0.0000000E+00;  0.0000000E+00;0; -3.0441186E-07;  4.0000000E+04;  0.0000000E+00;  0.0000000E+00;  4.0000000E+04;  0.0000000E+00;  4.0000000E+04; -1.1360008E-07;  0.0000000E+00; -1.9081178E-07;  4.8440337E-01;
 -1.4000000E-01;  9.9999998E-03; -3.4999999E-01;554;  0.0000000E+00;  0.0000000E+00;  0.0000000E+00;  1.0000000E+03;  1.0000000E-01;  0.0000000E+00;0;  0.0000000E+00;  0.0000000E+00;  0.0000000E+00;0; -7.3137278E-07;  4.0000000E+04;  0.0000000E+00;  0.0000000E+00;  4.0000000E+04;  0.0000000E+00;  4.0000000E+04; -2.6907196E-07;  0.0000000E+00; -4.6230079E-07;  1.2125211E+00;
 -1.4000000E-01;  9.9999998E-03; -3.4000000E-01;555;  0.0000000E+00;  0.0000000E+00;  0.0000000E+00;  1.0000000E+03;  1.0000000E-01;  0.0000000E+00;0;  0.0000000E+00;  0.0000000E+00;  0.0000000E+00;0; -1.2530297E-06;  4.0000000E+04;  0.0000000E+00;  0.0000000E+00;  4.0000000E+04;  0.0000000E+00;  4.0000000E+04; -4.1043381E-07;  0.0000000E+00; -8.4259591E-07;  2.2761467E+00;
 -1.4000000E-01;  9.9999998E-03; -3.3000001E-01;556;  0.0000000E+00;  0.0000000E+00;  0.0000000E+00;  1.0000000E+03;  1.0000000E-01;  0.0000000E+00;0;  0.0000000E+00;  0.0000000E+00;  0.0000000E+00;0; -1.6389338E-06;  4.0000000E+04;  0.0000000E+00;  0.0000000E+00;  4.0000000E+04;  0.0000000E+00;  4.0000000E+04; -3.6617473E-07;  0.0000000E+00; -1.2727591E-06;  3.4935117E+00;
 -1.4000000E-01;  9.9999998E-03; -3.1999999E-01;557;  0.0000000E+00;  0.0000000E+00;  0.0000000E+00;  1.0000000E+03;  1.0000000E-01;  0.0000000E+00;0;  0.0000000E+00;  0.0000000E+00;  0.0000000E+00;0; -1.5603323E-06;  4.0000000E+04;  0.0000000E+00;  0.0000000E+00;  4.0000000E+04;  0.0000000E+00;  4.0000000E+04;  1.0653640E-07;  0.0000000E+00; -1.6668687E-06;  4.5446873E+00;
 -1.4000000E-01;  9.9999998E-03; -3.1000000E-01;558;  0.0000000E+00;  0.0000000E+00;  0.0000000E+00;  1.0000000E+03;  1.0000000E-01;  0.0000000E+00;0;  0.0000000E+00;  0.0000000E+00;  0.0000000E+00;0; -6.7177052E-07;  4.0000000E+04;  0.0000000E+00;  0.0000000E+00;  4.0000000E+04;  0.0000000E+00;  4.0000000E+04;  1.2606770E-06;  0.0000000E+00; -1.9324475E-06;  5.0507407E+00;
 -1.4000000E-01;  9.9999998E-03; -3.0000001E-01;559;  0.0000000E+00;  0.0000000E+00;  0.0000000E+00;  1.0000000E+03;  1.0000000E-01;  0.0000000E+00;0;  0.0000000E+00;  0.0000000E+00;  0.0000000E+00;0;  1.2853241E-06;  4.0000000E+04;  0.0000000E+00;  0.0000000E+00;  4.0000000E+04;  0.0000000E+00;  4.0000000E+04;  3.2797507E-06;  0.0000000E+00; -1.9944266E-06;  4.6848888E+00;
 -1.4000000E-01;  9.9999998E-03; -2.8999999E-01;560;  0.0000000E+00;  0.0000000E+00;  0.0000000E+00;  1.0000000E+03;  1.0000000E-01;  0.0000000E+00;0;  0.0000000E+00;  0.0000000E+00;  0.0000000E+00;0;  4.3876935E-06;  4.0000000E+04;  0.0000000E+00;  0.0000000E+00;  4.0000000E+04;  0.0000000E+00;  4.0000000E+04;  6.2055028E-06;  0.0000000E+00; -1.8178096E-06;  3.2808497E+00;
 -1.4000000E-01;  9.9999998E-03; -2.8000000E-01;561;  0.0000000E+00;  0.0000000E+00;  0.0000000E+00;  1.0000000E+03;  1.0000000E-01;  0.0000000E+00;0;  0.0000000E+00;  0.0000000E+00;  0.0000000E+00;0;  8.4753929E-06;  4.0000000E+04;  0.0000000E+00;  0.0000000E+00;  4.0000000E+04;  0.0000000E+00;  4.0000000E+04;  9.8961582E-06;  0.0000000E+00; -1.4207650E-06;  9.0089709E-01;
 -1.3000000E-01;  9.9999998E-03; -4.4000000E-01;636;  0.0000000E+00;  0.0000000E+00;  0.0000000E+00;  1.0000000E+03;  1.0000000E-01;  0.0000000E+00;0;  0.0000000E+00;  0.0000000E+00;  0.0000000E+00;0;  0.0000000E+00;  4.0000000E+04;  0.0000000E+00;  0.0000000E+00;  4.0000000E+04;  0.0000000E+00;  4.0000000E+04;  0.0000000E+00;  0.0000000E+00;  0.0000000E+00;  0.0000000E+00;
 -1.3000000E-01;  9.9999998E-03; -4.3000001E-01;637;  0.0000000E+00;  0.0000000E+00;  0.0000000E+00;  1.0000000E+03;  1.0000000E-01;  0.0000000E+00;0;  0.0000000E+00;  0.0000000E+00;  0.0000000E+00;0;  0.0000000E+00;  4.0000000E+04;  0.0000000E+00;  0.0000000E+00;  4.0000000E+04;  0.0000000E+00;  4.0000000E+04;  0.0000000E+00;  0.0000000E+00;  0.0000000E+00;  0.0000000E+00;
 -1.3000000E-01;  9.9999998E-03; -4.1999999E-01;638;  0.0000000E+00;  0.0000000E+00;  0.0000000E+00;  1.0000000E+03;  1.0000000E-01;  0.0000000E+00;0;  0.0000000E+00;  0.0000000E+00;  0.0000000E+00;0;  0.0000000E+00;  4.0000000E+04;  0.0000000E+00;  0.0000000E+00;  4.0000000E+04;  0.0000000E+00;  4.0000000E+04;  0.0000000E+00;  0.0000000E+00;  0.0000000E+00;  0.0000000E+00;
 -1.3000000E-01;  9.9999998E-03; -4.1000000E-01;639;  0.0000000E+00;  0.0000000E+00;  0.0000000E+00;  1.0000000E+03;  1.0000000E-01;  0.0000000E+00;0;  0.0000000E+00;  0.0000000E+00;  0.0000000E+00;0;  0.0000000E+00;  4.0000000E+04;  0.0000000E+00;  0.0000000E+00;  4.0000000E+04;  0.0000000E+00;  4.0000000E+04;  0.0000000E+00;  0.0000000E+00;  0.0000000E+00;  0.0000000E+00;
 -1.3000000E-01;  9.9999998E-03; -4.0000001E-01;640;  0.0000000E+00;  0.0000000E+00;  0.0000000E+00;  1.0000000E+03;  1.0000000E-01;  0.0000000E+00;0;  0.0000000E+00;  0.0000000E+00;  0.0000000E+00;0;  0.0000000E+00;  4.0000000E+04;  0.0000000E+00;  0.0000000E+00;  4.0000000E+04;  0.0000000E+00;  4.0000000E+04;  0.0000000E+00;  0.0000000E+00;  0.0000000E+00;  0.0000000E+00;
 -1.3000000E-01;  9.9999998E-03; -3.8999999E-01;641;  0.0000000E+00;  0.0000000E+00;  0.0000000E+00;  1.0000000E+03;  1.0000000E-01;  0.0000000E+00;0;  0.0000000E+00;  0.0000000E+00;  0.0000000E+00;0; -2.7252332E-08;  4.0000000E+04;  0.0000000E+00;  0.0000000E+00;  4.0000000E+04;  0.0000000E+00;  4.0000000E+04; -7.7777553E-09;  0.0000000E+00; -1.9474577E-08;  5.3270921E-02;
 -1.3000000E-01;  9.9999998E-03; -3.8000000E-01;642;  0.0000000E+00;  0.0000000E+00;  0.0000000E+00;  1.0000000E+03;  1.0000000E-01;  0.0000000E+00;0;  0.0000000E+00;  0.0000000E+00;  0.0000000E+00;0; -2.7330296E-07;  4.0000000E+04;  0.0000000E+00;  0.0000000E+00;  4.0000000E+04;  0.0000000E+00;  4.0000000E+04; -9.7313354E-08;  0.0000000E+00; -1.7598960E-07;  4.6425161E-01;
 -1.3000000E-01;  9.9999998E-03; -3.7000000E-01;643;  0.0000000E+00;  0.0000000E+00;  0.0000000E+00;  1.0000000E+03;  1.0000000E-01;  0.0000000E+00;0;  0.0000000E+00;  0.0000000E+00;  0.0000000E+00;0; -9.4977543E-07;  4.0000000E+04;  0.0000000E+00;  0.0000000E+00;  4.0000000E+04;  0.0000000E+00;  4.0000000E+04; -3.5777808E-07;  0.0000000E+00; -5.9199738E-07;  1.6099905E+00;
 -1.3000000E-01;  9.9999998E-03; -3.6000001E-01;644;  0.0000000E+00;  0.0000000E+00;  0.0000000E+00;  1.0000000E+03;  1.0000000E-01;  0.0000000E+00;0;  0.0000000E+00;  0.0000000E+00;  0.0000000E+00;0; -2.1497140E-06;  4.0000000E+04;  0.0000000E+00;  0.0000000E+00;  4.0000000E+04;  0.0000000E+00;  4.0000000E+04; -8.2718276E-07;  0.0000000E+00; -1.3225311E-06;  3.7264280E+00;
 -1.3000000E-01;  9.9999998E-03; -3.4999999E-01;645;  0.0000000E+00;  0.0000000E+00;  0.0000000E+00;  1.0000000E+03;  1.0000000E-01;  0.0000000E+00;0;  0.0000000E+00;  0.0000000E+00;  0.0000000E+00;0; -3.7437321E-06;  4.0000000E+04;  0.0000000E+00;  0.0000000E+00;  4.0000000E+04;  0.0000000E+00;  4.0000000E+04; -1.4081969E-06;  0.0000000E+00; -2.3355353E-06;  6.7633514E+00;
 -1.3000000E-01;  9.9999998E-03; -3.4000000E-01;646;  0.0000000E+00;  0.0000000E+00;  0.0000000E+00;  1.0000000E+03;  1.0000000E-01;  0.0000000E+00;0;  0.0000000E+00;  0.0000000E+00;  0.0000000E+00;0; -5.3692047E-06;  4.0000000E+04;  0.0000000E+00;  0.0000000E+00;  4.0000000E+04;  0.0000000E+00;  4.0000000E+04; -1.8471576E-06;  0.0000000E+00; -3.5220471E-06;  1.0341791E+01;
 -1.3000000E-01;  9.9999998E-03; -3.3000001E-01;647;  0.0000000E+00;  0.0000000E+00;  0.0000000E+00;  1.0000000E+03;  1.0000000E-01;  0.0000000E+00;0;  0.0000000E+00;  0.0000000E+00;  0.0000000E+00;0; -6.4599267E-06;  4.0000000E+04;  0.0000000E+00;  0.0000000E+00;  4.0000000E+04;  0.0000000E+00;  4.0000000E+04; -1.7452168E-06;  0.0000000E+00; -4.7147100E-06;  1.3778856E+01;
 -1.3000000E-01;  9.9999998E-03; -3.1999999E-01;648;  0.0000000E+00;  0.0000000E+00;  0.0000000E+00;  1.0000000E+03;  1.0000000E-01;  0.0000000E+00;0;  0.0000000E+00;  0.0000000E+00;  0.0000000E+00;0; -6.3345383E-06;  4.0000000E+04;  0.0000000E+00;  0.0000000E+00;  4.0000000E+04;  0.0000000E+00;  4.0000000E+04; -6.2173848E-07;  0.0000000E+00; -5.7128000E-06;  1.6195837E+01;
 -1.3000000E-01;  9.9999998E-03; -3.1000000E-01;649;  0.0000000E+00;  0.0000000E+00;  0.0000000E+00;  1.0000000E+03;  1.0000000E-01;  0.0000000E+00;0;  0.0000000E+00;  0.0000000E+00;  0.0000000E+00;0; -4.3448858E-06;  4.0000000E+04;  0.0000000E+00;  0.0000000E+00;  4.0000000E+04;  0.0000000E+00;  4.0000000E+04;  1.9711956E-06;  0.0000000E+00; -6.3160815E-06;  1.6704096E+01;
 -1.3000000E-01;  9.9999998E-03; -3.0000001E-01;650;  0.0000000E+00;  0.0000000E+00;  0.0000000E+00;  1.0000000E+03;  1.0000000E-01;  0.0000000E+00;0;  0.0000000E+00;  0.0000000E+00;  0.0000000E+00;0; -4.8831680E-08;  4.0000000E+04;  0.0000000E+00;  0.0000000E+00;  4.0000000E+04;  0.0000000E+00;  4.0000000E+04;  6.3183688E-06;  0.0000000E+00; -6.3672005E-06;  1.4629468E+01;
 -1.3000000E-01;  9.9999998E-03; -2.8999999E-01;651;  0.0000000E+00;  0.0000000E+00;  0.0000000E+00;  1.0000025E+03;  1.0000000E-01;  2.0740154E+00;0;  0.0000000E+00;  0.0000000E+00;  0.0000000E+00;0;  6.6384105E-06;  4.0000000E+04;  0.0000000E+00;  0.0000000E+00;  4.0000000E+04;  0.0000000E+00;  4.0000000E+04;  1.2433669E-05;  0.0000000E+00; -5.7952589E-06;  9.7224627E+00;
 -1.3000000E-01;  9.9999998E-03; -2.8000000E-01;652;  0.0000000E+00;  0.0000000E+00;  0.0000000E+00;  1.0000000E+03;  1.0000000E-01;  0.0000000E+00;0;  0.0000000E+00;  0.0000000E+00;  0.0000000E+00;0;  1.5363668E-05;  4.0000000E+04;  0.0000000E+00;  0.0000000E+00;  4.0000000E+04;  0.0000000E+00;  4.0000000E+04;  2.0006915E-05;  0.0000000E+00; -4.6432469E-06;  2.2771749E+00;
 -1.2000000E-01;  9.9999998E-03; -4.4000000E-01;727;  0.0000000E+00;  0.0000000E+00;  0.0000000E+00;  1.0000000E+03;  1.0000000E-01;  0.0000000E+00;0;  0.0000000E+00;  0.0000000E+00;  0.0000000E+00;0;  0.0000000E+00;  4.0000000E+04;  0.0000000E+00;  0.0000000E+00;  4.0000000E+04;  0.0000000E+00;  4.0000000E+04;  0.0000000E+00;  0.0000000E+00;  0.0000000E+00;  0.0000000E+00;
 -1.2000000E-01;  9.9999998E-03; -4.3000001E-01;728;  0.0000000E+00;  0.0000000E+00;  0.0000000E+00;  1.0000000E+03;  1.0000000E-01;  0.0000000E+00;0;  0.0000000E+00;  0.0000000E+00;  0.0000000E+00;0;  0.0000000E+00;  4.0000000E+04;  0.0000000E+00;  0.0000000E+00;  4.0000000E+04;  0.0000000E+00;  4.0000000E+04;  0.0000000E+00;  0.0000000E+00;  0.0000000E+00;  0.0000000E+00;
 -1.2000000E-01;  9.9999998E-03; -4.1999999E-01;729;  0.0000000E+00;  0.0000000E+00;  0.0000000E+00;  1.0000000E+03;  1.0000000E-01;  0.0000000E+00;0;  0.0000000E+00;  0.0000000E+00;  0.0000000E+00;0;  0.0000000E+00;  4.0000000E+04;  0.0000000E+00;  0.0000000E+00;  4.0000000E+04;  0.0000000E+00;  4.0000000E+04;  0.0000000E+00;  0.0000000E+00;  0.0000000E+00;  0.0000000E+00;
 -1.2000000E-01;  9.9999998E-03; -4.1000000E-01;730;  0.0000000E+00;  0.0000000E+00;  0.0000000E+00;  1.0000000E+03;  1.0000000E-01;  0.0000000E+00;0;  0.0000000E+00;  0.0000000E+00;  0.0000000E+00;0;  0.0000000E+00;  4.0000000E+04;  0.0000000E+00;  0.0000000E+00;  4.0000000E+04;  0.0000000E+00;  4.0000000E+04;  0.0000000E+00;  0.0000000E+00;  0.0000000E+00;  3.0553806E-06;
 -1.2000000E-01;  9.9999998E-03; -4.0000001E-01;731;  0.0000000E+00;  0.0000000E+00;  0.0000000E+00;  1.0000000E+03;  1.0000000E-01;  0.0000000E+00;0;  0.0000000E+00;  0.0000000E+00;  0.0000000E+00;0; -7.6192158E-08;  4.0000000E+04;  0.0000000E+00;  0.0000000E+00;  4.0000000E+04;  0.0000000E+00;  4.0000000E+04; -2.4146853E-08;  0.0000000E+00; -5.2045305E-08;  1.4512986E-01;
 -1.2000000E-01;  9.9999998E-03; -3.8999999E-01;732;  0.0000000E+00;  0.0000000E+00;  0.0000000E+00;  1.0000000E+03;  1.0000000E-01;  0.0000000E+00;0;  0.0000000E+00;  0.0000000E+00;  0.0000000E+00;0; -5.8793285E-07;  4.0000000E+04;  0.0000000E+00;  0.0000000E+00;  4.0000000E+04;  0.0000000E+00;  4.0000000E+04; -2.0206153E-07;  0.0000000E+00; -3.8587135E-07;  1.0662985E+00;
 -1.2000000E-01;  9.9999998E-03; -3.8000000E-01;733;  0.0000000E+00;  0.0000000E+00;  0.0000000E+00;  1.0000000E+03;  1.0000000E-01;  0.0000000E+00;0;  0.0000000E+00;  0.0000000E+00;  0.0000000E+00;0; -1.9502454E-06;  4.0000000E+04;  0.0000000E+00;  0.0000000E+00;  4.0000000E+04;  0.0000000E+00;  4.0000000E+04; -7.1609406E-07;  0.0000000E+00; -1.2341512E-06;  3.5514939E+00;
 -1.2000000E-01;  9.9999998E-03; -3.7000000E-01;734;  0.0000000E+00;  0.0000000E+00;  0.0000000E+00;  1.0000000E+03;  1.0000000E-01;  0.0000000E+00;0;  0.0000000E+00;  0.0000000E+00;  0.0000000E+00;0; -4.4013468E-06;  4.0000000E+04;  0.0000000E+00;  0.0000000E+00;  4.0000000E+04;  0.0000000E+00;  4.0000000E+04; -1.6933595E-06;  0.0000000E+00; -2.7079875E-06;  8.0938101E+00;
 -1.2000000E-01;  9.9999998E-03; -3.6000001E-01;735;  0.0000000E+00;  0.0000000E+00;  0.0000000E+00;  1.0000000E+03;  1.0000000E-01;  0.0000000E+00;0;  0.0000000E+00;  0.0000000E+00;  0.0000000E+00;0; -7.9022057E-06;  4.0000000E+04;  0.0000000E+00;  0.0000000E+00;  4.0000000E+04;  0.0000000E+00;  4.0000000E+04; -3.1269308E-06;  0.0000000E+00; -4.7752746E-06;  1.4671627E+01;
 -1.2000000E-01;  9.9999998E-03; -3.4999999E-01;736;  0.0000000E+00;  0.0000000E+00;  0.0000000E+00;  1.0000000E+03;  1.0000000E-01;  0.0000000E+00;0;  0.0000000E+00;  0.0000000E+00;  0.0000000E+00;0; -1.2060819E-05;  4.0000000E+04;  0.0000000E+00;  0.0000000E+00;  4.0000000E+04;  0.0000000E+00;  4.0000000E+04; -4.7840017E-06;  0.0000000E+00; -7.2768175E-06;  2.2683718E+01;
 -1.2000000E-01;  9.9999998E-03; -3.4000000E-01;737;  0.0000000E+00;  0.0000000E+00;  0.0000000E+00;  1.0000000E+03;  1.0000000E-01;  0.0000000E+00;0;  0.0000000E+00;  0.0000000E+00;  0.0000000E+00;0; -1.6151425E-05;  4.0000000E+04;  0.0000000E+00;  0.0000000E+00;  4.0000000E+04;  0.0000000E+00;  4.0000000E+04; -6.1988244E-06;  0.0000000E+00; -9.9526014E-06;  3.0982954E+01;
 -1.2000000E-01;  9.9999998E-03; -3.3000001E-01;738;  0.0000000E+00;  0.0000000E+00;  0.0000000E+00;  1.0000000E+03;  1.0000000E-01;  0.0000000E+00;0;  0.0000000E+00;  0.0000000E+00;  0.0000000E+00;0; -1.9180219E-05;  4.0000000E+04;  0.0000000E+00;  0.0000000E+00;  4.0000000E+04;  0.0000000E+00;  4.0000000E+04; -6.7127521E-06;  0.0000000E+00; -1.2467467E-05;  3.7999500E+01;
 -1.2000000E-01;  9.9999998E-03; -3.1999999E-01;739;  0.0000000E+00;  0.0000000E+00;  0.0000000E+00;  1.0000133E+03;  1.0000000E-01;  1.1061416E+01;0;  0.0000000E+00;  0.0000000E+00;  0.0000000E+00;0; -2.0027270E-05;  4.0000000E+04;  0.0000000E+00;  0.0000000E+00;  4.0000000E+04;  0.0000000E+00;  4.0000000E+04; -5.5826681E-06;  0.0000000E+00; -1.4444602E-05;  4.1966595E+01;
 -1.2000000E-01;  9.9999998E-03; -3.1000000E-01;740;  0.0000000E+00;  0.0000000E+00;  0.0000000E+00;  1.0000146E+03;  1.0000000E-01;  1.2049042E+01;0;  0.0000000E+00;  0.0000000E+00;  0.0000000E+00;0; -1.7665378E-05;  4.0000000E+04;  0.0000000E+00;  0.0000000E+00;  4.0000000E+04;  0.0000000E+00;  4.0000000E+04; -2.1486355E-06;  0.0000000E+00; -1.5516742E-05;  4.1245697E+01;
 -1.2000000E-01;  9.9999998E-03; -3.0000001E-01;741;  0.0000000E+00;  0.0000000E+00;  0.0000000E+00;  1.0000190E+03;  1.0000000E-01;  1.5802022E+01;0;  0.0000000E+00;  0.0000000E+00;  0.0000000E+00;0; -1.1412567E-05;  4.0000000E+04;  0.0000000E+00;  0.0000000E+00;  4.0000000E+04;  0.0000000E+00;  4.0000000E+04;  3.9857259E-06;  0.0000000E+00; -1.5398293E-05;  3.4714012E+01;
 -1.2000000E-01;  9.9999998E-03; -2.8999999E-01;742;  0.0000000E+00;  0.0000000E+00;  0.0000000E+00;  1.0000233E+03;  1.0000000E-01;  1.9258715E+01;0;  0.0000000E+00;  0.0000000E+00;  0.0000000E+00;0; -1.1544844E-06;  4.0000000E+04;  0.0000000E+00;  0.0000000E+00;  4.0000000E+04;  0.0000000E+00;  4.0000000E+04;  1.2809830E-05;  0.0000000E+00; -1.3964314E-05;  2.2132088E+01;
 -1.2000000E-01;  9.9999998E-03; -2.8000000E-01;743;  0.0000000E+00;  0.0000000E+00;  0.0000000E+00;  1.0000289E+03;  1.0000000E-01;  2.3999321E+01;0;  0.0000000E+00;  0.0000000E+00;  0.0000000E+00;0;  1.2537759E-05;  4.0000000E+04;  0.0000000E+00;  0.0000000E+00;  4.0000000E+04;  0.0000000E+00;  4.0000000E+04;  2.3839328E-05;  0.0000000E+00; -1.1301569E-05;  4.3248887E+00;
 -1.1000000E-01;  9.9999998E-03; -4.4000000E-01;818;  0.0000000E+00;  0.0000000E+00;  0.0000000E+00;  1.0000000E+03;  1.0000000E-01;  0.0000000E+00;0;  0.0000000E+00;  0.0000000E+00;  0.0000000E+00;0;  0.0000000E+00;  4.0000000E+04;  0.0000000E+00;  0.0000000E+00;  4.0000000E+04;  0.0000000E+00;  4.0000000E+04;  0.0000000E+00;  0.0000000E+00;  0.0000000E+00;  0.0000000E+00;
 -1.1000000E-01;  9.9999998E-03; -4.3000001E-01;819;  0.0000000E+00;  0.0000000E+00;  0.0000000E+00;  1.0000000E+03;  1.0000000E-01;  0.0000000E+00;0;  0.0000000E+00;  0.0000000E+00;  0.0000000E+00;0;  0.0000000E+00;  4.0000000E+04;  0.0000000E+00;  0.0000000E+00;  4.0000000E+04;  0.0000000E+00;  4.0000000E+04;  0.0000000E+00;  0.0000000E+00;  0.0000000E+00;  0.0000000E+00;
 -1.1000000E-01;  9.9999998E-03; -4.1999999E-01;820;  0.0000000E+00;  0.0000000E+00;  0.0000000E+00;  1.0000000E+03;  1.0000000E-01;  0.0000000E+00;0;  0.0000000E+00;  0.0000000E+00;  0.0000000E+00;0;  0.0000000E+00;  4.0000000E+04;  0.0000000E+00;  0.0000000E+00;  4.0000000E+04;  0.0000000E+00;  4.0000000E+04;  0.0000000E+00;  0.0000000E+00;  0.0000000E+00;  2.4097387E-06;
 -1.1000000E-01;  9.9999998E-03; -4.1000000E-01;821;  0.0000000E+00;  0.0000000E+00;  0.0000000E+00;  1.0000000E+03;  1.0000000E-01;  0.0000000E+00;0;  0.0000000E+00;  0.0000000E+00;  0.0000000E+00;0; -1.0994076E-07;  4.0000000E+04;  0.0000000E+00;  0.0000000E+00;  4.0000000E+04;  0.0000000E+00;  4.0000000E+04; -3.4424783E-08;  0.0000000E+00; -7.5515970E-08;  2.2101788E-01;
 -1.1000000E-01;  9.9999998E-03; -4.0000001E-01;822;  0.0000000E+00;  0.0000000E+00;  0.0000000E+00;  1.0000000E+03;  1.0000000E-01;  0.0000000E+00;0;  0.0000000E+00;  0.0000000E+00;  0.0000000E+00;0; -8.8159692E-07;  4.0000000E+04;  0.0000000E+00;  0.0000000E+00;  4.0000000E+04;  0.0000000E+00;  4.0000000E+04; -2.8776486E-07;  0.0000000E+00; -5.9383206E-07;  1.7133784E+00;
 -1.1000000E-01;  9.9999998E-03; -3.8999999E-01;823;  0.0000000E+00;  0.0000000E+00;  0.0000000E+00;  1.0000000E+03;  1.0000000E-01;  0.0000000E+00;0;  0.0000000E+00;  0.0000000E+00;  0.0000000E+00;0; -3.0207375E-06;  4.0000000E+04;  0.0000000E+00;  0.0000000E+00;  4.0000000E+04;  0.0000000E+00;  4.0000000E+04; -1.0555881E-06;  0.0000000E+00; -1.9651495E-06;  5.9139514E+00;
 -1.1000000E-01;  9.9999998E-03; -3.8000000E-01;824;  0.0000000E+00;  0.0000000E+00;  0.0000000E+00;  1.0000000E+03;  1.0000000E-01;  0.0000000E+00;0;  0.0000000E+00;  0.0000000E+00;  0.0000000E+00;0; -7.0593251E-06;  4.0000000E+04;  0.0000000E+00;  0.0000000E+00;  4.0000000E+04;  0.0000000E+00;  4.0000000E+04; -2.6433329E-06;  0.0000000E+00; -4.4159924E-06;  1.3828010E+01;
 -1.1000000E-01;  9.9999998E-03; -3.7000000E-01;825;  0.0000000E+00;  0.0000000E+00;  0.0000000E+00;  1.0000000E+03;  1.0000000E-01;  0.0000000E+00;0;  0.0000000E+00;  0.0000000E+00;  0.0000000E+00;0; -1.3180236E-05;  4.0000000E+04;  0.0000000E+00;  0.0000000E+00;  4.0000000E+04;  0.0000000E+00;  4.0000000E+04; -5.2371370E-06;  0.0000000E+00; -7.9430993E-06;  2.5603615E+01;
 -1.1000000E-01;  9.9999998E-03; -3.6000001E-01;826;  0.0000000E+00;  0.0000000E+00;  0.0000000E+00;  1.0000000E+03;  1.0000000E-01;  0.0000000E+00;0;  0.0000000E+00;  0.0000000E+00;  0.0000000E+00;0; -2.1160427E-05;  4.0000000E+04;  0.0000000E+00;  0.0000000E+00;  4.0000000E+04;  0.0000000E+00;  4.0000000E+04; -8.8105835E-06;  0.0000000E+00; -1.2349843E-05;  4.0463539E+01;
 -1.1000000E-01;  9.9999998E-03; -3.4999999E-01;827;  0.0000000E+00;  0.0000000E+00;  0.0000000E+00;  1.0000000E+03;  1.0000000E-01;  0.0000000E+00;0;  0.0000000E+00;  0.0000000E+00;  0.0000000E+00;0; -3.0309677E-05;  4.0000000E+04;  0.0000000E+00;  0.0000000E+00;  4.0000000E+04;  0.0000000E+00;  4.0000000E+04; -1.3021372E-05;  0.0000000E+00; -1.7288305E-05;  5.6775326E+01;
 -1.1000000E-01;  9.9999998E-03; -3.4000000E-01;828;  0.0000000E+00;  0.0000000E+00;  0.0000000E+00;  1.0000266E+03;  1.0000000E-01;  2.2024069E+01;0;  0.0000000E+00;  0.0000000E+00;  0.0000000E+00;0; -3.9500184E-05;  4.0000000E+04;  0.0000000E+00;  0.0000000E+00;  4.0000000E+04;  0.0000000E+00;  4.0000000E+04; -1.7212004E-05;  0.0000000E+00; -2.2288181E-05;  7.2183418E+01;
 -1.1000000E-01;  9.9999998E-03; -3.3000001E-01;829;  0.0000000E+00;  0.0000000E+00;  0.0000000E+00;  1.0000227E+03;  1.0000000E-01;  1.8764902E+01;0;  0.0000000E+00;  0.0000000E+00;  0.0000000E+00;0; -4.7251495E-05;  4.0000000E+04;  0.0000000E+00;  0.0000000E+00;  4.0000000E+04;  0.0000000E+00;  4.0000000E+04; -2.0470903E-05;  0.0000000E+00; -2.6780594E-05;  8.3834946E+01;
 -1.1000000E-01;  9.9999998E-03; -3.1999999E-01;830;  0.0000000E+00;  0.0000000E+00;  0.0000000E+00;  1.0000341E+03;  1.0000000E-01;  2.8246115E+01;0;  0.0000000E+00;  0.0000000E+00;  0.0000000E+00;0; -5.1916657E-05;  4.0000000E+04;  0.0000000E+00;  0.0000000E+00;  4.0000000E+04;  0.0000000E+00;  4.0000000E+04; -2.1778184E-05;  0.0000000E+00; -3.0138473E-05;  8.8733864E+01;
 -1.1000000E-01;  9.9999998E-03; -3.1000000E-01;831;  0.0000000E+00;  0.0000000E+00;  0.0000000E+00;  1.0000446E+03;  1.0000000E-01;  3.6937225E+01;0;  0.0000000E+00;  0.0000000E+00;  0.0000000E+00;0; -5.1977324E-05;  4.0000000E+04;  0.0000000E+00;  0.0000000E+00;  4.0000000E+04;  0.0000000E+00;  4.0000000E+04; -2.0223577E-05;  0.0000000E+00; -3.1753745E-05;  8.4251724E+01;
 -1.1000000E-01;  9.9999998E-03; -3.0000001E-01;832;  0.0000000E+00;  0.0000000E+00;  0.0000000E+00;  1.0000566E+03;  1.0000000E-01;  4.6912254E+01;0;  0.0000000E+00;  0.0000000E+00;  0.0000000E+00;0; -4.6397770E-05;  4.0000000E+04;  0.0000000E+00;  0.0000000E+00;  4.0000000E+04;  0.0000000E+00;  4.0000000E+04; -1.5242033E-05;  0.0000000E+00; -3.1155738E-05;  6.8763939E+01;
 -1.1000000E-01;  9.9999998E-03; -2.8999999E-01;833;  0.0000000E+00;  0.0000000E+00;  0.0000000E+00;  1.0000602E+03;  1.0000000E-01;  4.9875134E+01;0;  0.0000000E+00;  0.0000000E+00;  0.0000000E+00;0; -3.4948160E-05;  4.0000000E+04;  0.0000000E+00;  0.0000000E+00;  4.0000000E+04;  0.0000000E+00;  4.0000000E+04; -6.8033255E-06;  0.0000000E+00; -2.8144836E-05;  4.2241249E+01;
 -1.1000000E-01;  9.9999998E-03; -2.8000000E-01;834;  0.0000000E+00;  0.0000000E+00;  0.0000000E+00;  1.0000612E+03;  1.0000000E-01;  5.0763996E+01;0;  0.0000000E+00;  0.0000000E+00;  0.0000000E+00;0; -1.8377690E-05;  4.0000000E+04;  0.0000000E+00;  0.0000000E+00;  4.0000000E+04;  0.0000000E+00;  4.0000000E+04;  4.4990397E-06;  0.0000000E+00; -2.2876729E-05;  6.7062616E+00;
 -1.0000000E-01;  9.9999998E-03; -4.4000000E-01;909;  0.0000000E+00;  0.0000000E+00;  0.0000000E+00;  1.0000000E+03;  1.0000000E-01;  0.0000000E+00;0;  0.0000000E+00;  0.0000000E+00;  0.0000000E+00;0;  0.0000000E+00;  4.0000000E+04;  0.0000000E+00;  0.0000000E+00;  4.0000000E+04;  0.0000000E+00;  4.0000000E+04;  0.0000000E+00;  0.0000000E+00;  0.0000000E+00;  0.0000000E+00;
 -1.0000000E-01;  9.9999998E-03; -4.3000001E-01;910;  0.0000000E+00;  0.0000000E+00;  0.0000000E+00;  1.0000000E+03;  1.0000000E-01;  0.0000000E+00;0;  0.0000000E+00;  0.0000000E+00;  0.0000000E+00;0;  0.0000000E+00;  4.0000000E+04;  0.0000000E+00;  0.0000000E+00;  4.0000000E+04;  0.0000000E+00;  4.0000000E+04;  0.0000000E+00;  0.0000000E+00;  0.0000000E+00;  0.0000000E+00;
 -1.0000000E-01;  9.9999998E-03; -4.1999999E-01;911;  0.0000000E+00;  0.0000000E+00;  0.0000000E+00;  1.0000000E+03;  1.0000000E-01;  0.0000000E+00;0;  0.0000000E+00;  0.0000000E+00;  0.0000000E+00;0; -9.4218059E-08;  4.0000000E+04;  0.0000000E+00;  0.0000000E+00;  4.0000000E+04;  0.0000000E+00;  4.0000000E+04; -2.9282324E-08;  0.0000000E+00; -6.4935733E-08;  2.0610029E-01;
 -1.0000000E-01;  9.9999998E-03; -4.1000000E-01;912;  0.0000000E+00;  0.0000000E+00;  0.0000000E+00;  1.0000000E+03;  1.0000000E-01;  0.0000000E+00;0;  0.0000000E+00;  0.0000000E+00;  0.0000000E+00;0; -9.8113253E-07;  4.0000000E+04;  0.0000000E+00;  0.0000000E+00;  4.0000000E+04;  0.0000000E+00;  4.0000000E+04; -3.0275459E-07;  0.0000000E+00; -6.7837794E-07;  2.0414619E+00;
 -1.0000000E-01;  9.9999998E-03; -4.0000001E-01;913;  0.0000000E+00;  0.0000000E+00;  0.0000000E+00;  1.0000000E+03;  1.0000000E-01;  0.0000000E+00;0;  0.0000000E+00;  0.0000000E+00;  0.0000000E+00;0; -3.7470281E-06;  4.0000000E+04;  0.0000000E+00;  0.0000000E+00;  4.0000000E+04;  0.0000000E+00;  4.0000000E+04; -1.2350987E-06;  0.0000000E+00; -2.5119296E-06;  7.8478222E+00;
 -1.0000000E-01;  9.9999998E-03; -3.8999999E-01;914;  0.0000000E+00;  0.0000000E+00;  0.0000000E+00;  1.0000000E+03;  1.0000000E-01;  0.0000000E+00;0;  0.0000000E+00;  0.0000000E+00;  0.0000000E+00;0; -9.3569697E-06;  4.0000000E+04;  0.0000000E+00;  0.0000000E+00;  4.0000000E+04;  0.0000000E+00;  4.0000000E+04; -3.3468716E-06;  0.0000000E+00; -6.0100983E-06;  1.9538115E+01;
 -1.0000000E-01;  9.9999998E-03; -3.8000000E-01;915;  0.0000000E+00;  0.0000000E+00;  0.0000000E+00;  1.0000000E+03;  1.0000000E-01;  0.0000000E+00;0;  0.0000000E+00;  0.0000000E+00;  0.0000000E+00;0; -1.8408742E-05;  4.0000000E+04;  0.0000000E+00;  0.0000000E+00;  4.0000000E+04;  0.0000000E+00;  4.0000000E+04; -7.1460522E-06;  0.0000000E+00; -1.1262689E-05;  3.7739838E+01;
 -1.0000000E-01;  9.9999998E-03; -3.7000000E-01;916;  0.0000000E+00;  0.0000000E+00;  0.0000000E+00;  1.0000000E+03;  1.0000000E-01;  0.0000000E+00;0;  0.0000000E+00;  0.0000000E+00;  0.0000000E+00;0; -3.1033152E-05;  4.0000000E+04;  0.0000000E+00;  0.0000000E+00;  4.0000000E+04;  0.0000000E+00;  4.0000000E+04; -1.2971712E-05;  0.0000000E+00; -1.8061441E-05;  6.1660324E+01;
 -1.0000000E-01;  9.9999998E-03; -3.6000001E-01;917;  0.0000000E+00;  0.0000000E+00;  0.0000000E+00;  1.0000137E+03;  1.0000000E-01;  1.1357703E+01;0;  0.0000000E+00;  0.0000000E+00;  0.0000000E+00;0; -4.6862217E-05;  4.0000000E+04;  0.0000000E+00;  0.0000000E+00;  4.0000000E+04;  0.0000000E+00;  4.0000000E+04; -2.0877194E-05;  0.0000000E+00; -2.5985020E-05;  8.9245995E+01;
 -1.0000000E-01;  9.9999998E-03; -3.4999999E-01;918;  0.0000000E+00;  0.0000000E+00;  0.0000000E+00;  1.0000374E+03;  1.0000000E-01;  3.0912706E+01;0;  0.0000000E+00;  0.0000000E+00;  0.0000000E+00;0; -6.4949287E-05;  4.0000000E+04;  0.0000000E+00;  0.0000000E+00;  4.0000000E+04;  0.0000000E+00;  4.0000000E+04; -3.0502732E-05;  0.0000000E+00; -3.4446555E-05;  1.1737585E+02;
 -1.0000000E-01;  9.9999998E-03; -3.4000000E-01;919;  0.0000000E+00;  0.0000000E+00;  0.0000000E+00;  1.0000380E+03;  1.0000000E-01;  3.1505281E+01;0;  0.0000000E+00;  0.0000000E+00;  0.0000000E+00;0; -8.3772888E-05;  4.0000000E+04;  0.0000000E+00;  0.0000000E+00;  4.0000000E+04;  0.0000000E+00;  4.0000000E+04; -4.1064653E-05;  0.0000000E+00; -4.2708234E-05;  1.4206871E+02;
 -1.0000000E-01;  9.9999998E-03; -3.3000001E-01;920;  0.0000000E+00;  0.0000000E+00;  0.0000000E+00;  1.0000598E+03;  1.0000000E-01;  4.9480083E+01;0;  0.0000000E+00;  0.0000000E+00;  0.0000000E+00;0; -1.0131403E-04;  4.0000000E+04;  0.0000000E+00;  0.0000000E+00;  4.0000000E+04;  0.0000000E+00;  4.0000000E+04; -5.1420218E-05;  0.0000000E+00; -4.9893806E-05;  1.5878615E+02;
 -1.0000000E-01;  9.9999998E-03; -3.1999999E-01;921;  0.0000000E+00;  0.0000000E+00;  0.0000000E+00;  1.0000825E+03;  1.0000000E-01;  6.8343742E+01;0;  0.0000000E+00;  0.0000000E+00;  0.0000000E+00;0; -1.1527722E-04;  4.0000000E+04;  0.0000000E+00;  0.0000000E+00;  4.0000000E+04;  0.0000000E+00;  4.0000000E+04; -6.0239778E-05;  0.0000000E+00; -5.5037443E-05;  1.6293857E+02;
 -1.0000000E-01;  9.9999998E-03; -3.1000000E-01;922;  0.0000000E+00;  0.0000000E+00;  0.0000000E+00;  1.0000936E+03;  1.0000000E-01;  7.7528671E+01;0;  0.0000000E+00;  0.0000000E+00;  0.0000000E+00;0; -1.2347690E-04;  4.0000000E+04;  0.0000000E+00;  0.0000000E+00;  4.0000000E+04;  0.0000000E+00;  4.0000000E+04; -6.6277709E-05;  0.0000000E+00; -5.7199195E-05;  1.5067996E+02;
 -1.0000000E-01;  9.9999998E-03; -3.0000001E-01;923;  0.0000000E+00;  0.0000000E+00;  0.0000000E+00;  1.0001349E+03;  1.0000000E-01;  1.1179931E+02;0;  0.0000000E+00;  0.0000000E+00;  0.0000000E+00;0; -1.2432999E-04;  4.0000000E+04;  0.0000000E+00;  0.0000000E+00;  4.0000000E+04;  0.0000000E+00;  4.0000000E+04; -6.8677138E-05;  0.0000000E+00; -5.5652854E-05;  1.1988567E+02;
 -1.0000000E-01;  9.9999998E-03; -2.8999999E-01;924;  0.0000000E+00;  0.0000000E+00;  0.0000000E+00;  1.0001330E+03;  1.0000000E-01;  1.1021911E+02;0;  0.0000000E+00;  0.0000000E+00;  0.0000000E+00;0; -1.1732205E-04;  4.0000000E+04;  0.0000000E+00;  0.0000000E+00;  4.0000000E+04;  0.0000000E+00;  4.0000000E+04; -6.7225184E-05;  0.0000000E+00; -5.0096867E-05;  7.1093719E+01;
 -1.0000000E-01;  9.9999998E-03; -2.8000000E-01;925;  0.0000000E+00;  0.0000000E+00;  0.0000000E+00;  1.0001607E+03;  1.0000000E-01;  1.3313203E+02;0;  0.0000000E+00;  0.0000000E+00;  0.0000000E+00;0; -1.0326714E-04;  4.0000000E+04;  0.0000000E+00;  0.0000000E+00;  4.0000000E+04;  0.0000000E+00;  4.0000000E+04; -6.2479528E-05;  0.0000000E+00; -4.0787614E-05;  9.9997015E+00;
 -9.0000004E-02;  9.9999998E-03; -4.4000000E-01;1000;  0.0000000E+00;  0.0000000E+00;  0.0000000E+00;  1.0000000E+03;  1.0000000E-01;  0.0000000E+00;0;  0.0000000E+00;  0.0000000E+00;  0.0000000E+00;0;  0.0000000E+00;  4.0000000E+04;  0.0000000E+00;  0.0000000E+00;  4.0000000E+04;  0.0000000E+00;  4.0000000E+04;  0.0000000E+00;  0.0000000E+00;  0.0000000E+00;  0.0000000E+00;
 -9.0000004E-02;  9.9999998E-03; -4.3000001E-01;1001;  0.0000000E+00;  0.0000000E+00;  0.0000000E+00;  1.0000000E+03;  1.0000000E-01;  0.0000000E+00;0;  0.0000000E+00;  0.0000000E+00;  0.0000000E+00;0; -4.3357158E-08;  4.0000000E+04;  0.0000000E+00;  0.0000000E+00;  4.0000000E+04;  0.0000000E+00;  4.0000000E+04; -1.4286008E-08;  0.0000000E+00; -2.9071151E-08;  1.0565287E-01;
 -9.0000004E-02;  9.9999998E-03; -4.1999999E-01;1002;  0.0000000E+00;  0.0000000E+00;  0.0000000E+00;  1.0000000E+03;  1.0000000E-01;  0.0000000E+00;0;  0.0000000E+00;  0.0000000E+00;  0.0000000E+00;0; -8.0765466E-07;  4.0000000E+04;  0.0000000E+00;  0.0000000E+00;  4.0000000E+04;  0.0000000E+00;  4.0000000E+04; -2.3813574E-07;  0.0000000E+00; -5.6951893E-07;  1.7912762E+00;
 -9.0000004E-02;  9.9999998E-03; -4.1000000E-01;1003;  0.0000000E+00;  0.0000000E+00;  0.0000000E+00;  1.0000000E+03;  1.0000000E-01;  0.0000000E+00;0;  0.0000000E+00;  0.0000000E+00;  0.0000000E+00;0; -3.7671502E-06;  4.0000000E+04;  0.0000000E+00;  0.0000000E+00;  4.0000000E+04;  0.0000000E+00;  4.0000000E+04; -1.1695309E-06;  0.0000000E+00; -2.5976192E-06;  8.3880186E+00;
 -9.0000004E-02;  9.9999998E-03; -4.0000001E-01;1004;  0.0000000E+00;  0.0000000E+00;  0.0000000E+00;  1.0000000E+03;  1.0000000E-01;  0.0000000E+00;0;  0.0000000E+00;  0.0000000E+00;  0.0000000E+00;0; -1.0479749E-05;  4.0000000E+04;  0.0000000E+00;  0.0000000E+00;  4.0000000E+04;  0.0000000E+00;  4.0000000E+04; -3.5471162E-06;  0.0000000E+00; -6.9326334E-06;  2.3248510E+01;
 -9.0000004E-02;  9.9999998E-03; -3.8999999E-01;1005;  0.0000000E+00;  0.0000000E+00;  0.0000000E+00;  1.0000000E+03;  1.0000000E-01;  0.0000000E+00;0;  0.0000000E+00;  0.0000000E+00;  0.0000000E+00;0; -2.2133052E-05;  4.0000000E+04;  0.0000000E+00;  0.0000000E+00;  4.0000000E+04;  0.0000000E+00;  4.0000000E+04; -8.2443248E-06;  0.0000000E+00; -1.3888728E-05;  4.8046032E+01;
 -9.0000004E-02;  9.9999998E-03; -3.8000000E-01;1006;  0.0000000E+00;  0.0000000E+00;  0.0000000E+00;  1.0000000E+03;  1.0000000E-01;  0.0000000E+00;0;  0.0000000E+00;  0.0000000E+00;  0.0000000E+00;0; -3.9432380E-05;  4.0000000E+04;  0.0000000E+00;  0.0000000E+00;  4.0000000E+04;  0.0000000E+00;  4.0000000E+04; -1.6126827E-05;  0.0000000E+00; -2.3305554E-05;  8.2327202E+01;
 -9.0000004E-02;  9.9999998E-03; -3.7000000E-01;1007;  0.0000000E+00;  0.0000000E+00;  0.0000000E+00;  1.0000407E+03;  1.0000000E-01;  3.3776821E+01;0;  0.0000000E+00;  0.0000000E+00;  0.0000000E+00;0; -6.2567451E-05;  4.0000000E+04;  0.0000000E+00;  0.0000000E+00;  4.0000000E+04;  0.0000000E+00;  4.0000000E+04; -2.7860029E-05;  0.0000000E+00; -3.4707424E-05;  1.2379494E+02;
 -9.0000004E-02;  9.9999998E-03; -3.6000001E-01;1008;  0.0000000E+00;  0.0000000E+00;  0.0000000E+00;  1.0000438E+03;  1.0000000E-01;  3.6245888E+01;0;  0.0000000E+00;  0.0000000E+00;  0.0000000E+00;0; -9.1164038E-05;  4.0000000E+04;  0.0000000E+00;  0.0000000E+00;  4.0000000E+04;  0.0000000E+00;  4.0000000E+04; -4.3751683E-05;  0.0000000E+00; -4.7412355E-05;  1.6867389E+02;
 -9.0000004E-02;  9.9999998E-03; -3.4999999E-01;1009;  0.0000000E+00;  0.0000000E+00;  0.0000000E+00;  1.0000566E+03;  1.0000000E-01;  4.6912254E+01;0;  0.0000000E+00;  0.0000000E+00;  0.0000000E+00;0; -1.2413427E-04;  4.0000000E+04;  0.0000000E+00;  0.0000000E+00;  4.0000000E+04;  0.0000000E+00;  4.0000000E+04; -6.3576357E-05;  0.0000000E+00; -6.0557912E-05;  2.1195901E+02;
 -9.0000004E-02;  9.9999998E-03; -3.4000000E-01;1010;  0.0000000E+00;  0.0000000E+00;  0.0000000E+00;  1.0000945E+03;  1.0000000E-01;  7.8318771E+01;0;  0.0000000E+00;  0.0000000E+00;  0.0000000E+00;0; -1.5960663E-04;  4.0000000E+04;  0.0000000E+00;  0.0000000E+00;  4.0000000E+04;  0.0000000E+00;  4.0000000E+04; -8.6523498E-05;  0.0000000E+00; -7.3083131E-05;  2.4764021E+02;
 -9.0000004E-02;  9.9999998E-03; -3.3000001E-01;1011;  0.0000000E+00;  0.0000000E+00;  0.0000000E+00;  1.0001245E+03;  1.0000000E-01;  1.0310819E+02;0;  0.0000000E+00;  0.0000000E+00;  0.0000000E+00;0; -1.9496171E-04;  4.0000000E+04;  0.0000000E+00;  0.0000000E+00;  4.0000000E+04;  0.0000000E+00;  4.0000000E+04; -1.1124097E-04;  0.0000000E+00; -8.3720741E-05;  2.6907532E+02;
 -9.0000004E-02;  9.9999998E-03; -3.1999999E-01;1012;  0.0000000E+00;  0.0000000E+00;  0.0000000E+00;  1.0001687E+03;  1.0000000E-01;  1.3974913E+02;0;  0.0000000E+00;  0.0000000E+00;  0.0000000E+00;0; -2.2708115E-04;  4.0000000E+04;  0.0000000E+00;  0.0000000E+00;  4.0000000E+04;  0.0000000E+00;  4.0000000E+04; -1.3602297E-04;  0.0000000E+00; -9.1058180E-05;  2.6970828E+02;
 -9.0000004E-02;  9.9999998E-03; -3.1000000E-01;1013;  0.0000000E+00;  0.0000000E+00;  0.0000000E+00;  1.0002062E+03;  1.0000000E-01;  1.7085936E+02;0;  0.0000000E+00;  0.0000000E+00;  0.0000000E+00;0; -2.5284907E-04;  4.0000000E+04;  0.0000000E+00;  0.0000000E+00;  4.0000000E+04;  0.0000000E+00;  4.0000000E+04; -1.5913973E-04;  0.0000000E+00; -9.3709335E-05;  2.4423576E+02;
 -9.0000004E-02;  9.9999998E-03; -3.0000001E-01;1014;  0.0000000E+00;  0.0000000E+00;  0.0000000E+00;  1.0002485E+03;  1.0000000E-01;  2.0582133E+02;0;  0.0000000E+00;  0.0000000E+00;  0.0000000E+00;0; -2.6983698E-04;  4.0000000E+04;  0.0000000E+00;  0.0000000E+00;  4.0000000E+04;  0.0000000E+00;  4.0000000E+04; -1.7923534E-04;  0.0000000E+00; -9.0601643E-05;  1.9010533E+02;
 -9.0000004E-02;  9.9999998E-03; -2.8999999E-01;1015;  0.0000000E+00;  0.0000000E+00;  0.0000000E+00;  1.0002761E+03;  1.0000000E-01;  2.2873427E+02;0;  0.0000000E+00;  0.0000000E+00;  0.0000000E+00;0; -2.7697464E-04;  4.0000000E+04;  0.0000000E+00;  0.0000000E+00;  4.0000000E+04;  0.0000000E+00;  4.0000000E+04; -1.9567706E-04;  0.0000000E+00; -8.1297570E-05;  1.0901076E+02;
 -9.0000004E-02;  9.9999998E-03; -2.8000000E-01;1016;  0.0000000E+00;  0.0000000E+00;  0.0000000E+00;  1.0003128E+03;  1.0000000E-01;  2.5915317E+02;0;  0.0000000E+00;  0.0000000E+00;  0.0000000E+00;0; -2.7495081E-04;  4.0000000E+04;  0.0000000E+00;  0.0000000E+00;  4.0000000E+04;  0.0000000E+00;  4.0000000E+04; -2.0875188E-04;  0.0000000E+00; -6.6198925E-05;  1.8509588E+01;
 -7.9999998E-02;  9.9999998E-03; -4.4000000E-01;1091;  0.0000000E+00;  0.0000000E+00;  0.0000000E+00;  1.0000000E+03;  1.0000000E-01;  0.0000000E+00;0;  0.0000000E+00;  0.0000000E+00;  0.0000000E+00;0; -7.2145721E-09;  4.0000000E+04;  0.0000000E+00;  0.0000000E+00;  4.0000000E+04;  0.0000000E+00;  4.0000000E+04; -2.4549458E-09;  0.0000000E+00; -4.7596260E-09;  1.9386625E-02;
 -7.9999998E-02;  9.9999998E-03; -4.3000001E-01;1092;  0.0000000E+00;  0.0000000E+00;  0.0000000E+00;  1.0000000E+03;  1.0000000E-01;  0.0000000E+00;0;  0.0000000E+00;  0.0000000E+00;  0.0000000E+00;0; -4.5844916E-07;  4.0000000E+04;  0.0000000E+00;  0.0000000E+00;  4.0000000E+04;  0.0000000E+00;  4.0000000E+04; -1.3215688E-07;  0.0000000E+00; -3.2629228E-07;  1.0851104E+00;
 -7.9999998E-02;  9.9999998E-03; -4.1999999E-01;1093;  0.0000000E+00;  0.0000000E+00;  0.0000000E+00;  1.0000000E+03;  1.0000000E-01;  0.0000000E+00;0;  0.0000000E+00;  0.0000000E+00;  0.0000000E+00;0; -3.0070873E-06;  4.0000000E+04;  0.0000000E+00;  0.0000000E+00;  4.0000000E+04;  0.0000000E+00;  4.0000000E+04; -8.8668173E-07;  0.0000000E+00; -2.1204055E-06;  7.0707927E+00;
 -7.9999998E-02;  9.9999998E-03; -4.1000000E-01;1094;  0.0000000E+00;  0.0000000E+00;  0.0000000E+00;  1.0000000E+03;  1.0000000E-01;  0.0000000E+00;0;  0.0000000E+00;  0.0000000E+00;  0.0000000E+00;0; -9.8900746E-06;  4.0000000E+04;  0.0000000E+00;  0.0000000E+00;  4.0000000E+04;  0.0000000E+00;  4.0000000E+04; -3.1613274E-06;  0.0000000E+00; -6.7287469E-06;  2.3184393E+01;
 -7.9999998E-02;  9.9999998E-03; -4.0000001E-01;1095;  0.0000000E+00;  0.0000000E+00;  0.0000000E+00;  1.0000000E+03;  1.0000000E-01;  0.0000000E+00;0;  0.0000000E+00;  0.0000000E+00;  0.0000000E+00;0; -2.3104159E-05;  4.0000000E+04;  0.0000000E+00;  0.0000000E+00;  4.0000000E+04;  0.0000000E+00;  4.0000000E+04; -8.1779144E-06;  0.0000000E+00; -1.4926244E-05;  5.3038780E+01;
 -7.9999998E-02;  9.9999998E-03; -3.8999999E-01;1096;  0.0000000E+00;  0.0000000E+00;  0.0000000E+00;  1.0000000E+03;  1.0000000E-01;  0.0000000E+00;0;  0.0000000E+00;  0.0000000E+00;  0.0000000E+00;0; -4.4111723E-05;  4.0000000E+04;  0.0000000E+00;  0.0000000E+00;  4.0000000E+04;  0.0000000E+00;  4.0000000E+04; -1.7363123E-05;  0.0000000E+00; -2.6748598E-05;  9.7247406E+01;
 -7.9999998E-02;  9.9999998E-03; -3.8000000E-01;1097;  0.0000000E+00;  0.0000000E+00;  0.0000000E+00;  1.0000444E+03;  1.0000000E-01;  3.6739700E+01;0;  0.0000000E+00;  0.0000000E+00;  0.0000000E+00;0; -7.3884301E-05;  4.0000000E+04;  0.0000000E+00;  0.0000000E+00;  4.0000000E+04;  0.0000000E+00;  4.0000000E+04; -3.2174328E-05;  0.0000000E+00; -4.1709973E-05;  1.5364323E+02;
 -7.9999998E-02;  9.9999998E-03; -3.7000000E-01;1098;  0.0000000E+00;  0.0000000E+00;  0.0000000E+00;  1.0000494E+03;  1.0000000E-01;  4.0986496E+01;0;  0.0000000E+00;  0.0000000E+00;  0.0000000E+00;0; -1.1290041E-04;  4.0000000E+04;  0.0000000E+00;  0.0000000E+00;  4.0000000E+04;  0.0000000E+00;  4.0000000E+04; -5.3857580E-05;  0.0000000E+00; -5.9042824E-05;  2.1798605E+02;
 -7.9999998E-02;  9.9999998E-03; -3.6000001E-01;1099;  0.0000000E+00;  0.0000000E+00;  0.0000000E+00;  1.0000746E+03;  1.0000000E-01;  6.1825413E+01;0;  0.0000000E+00;  0.0000000E+00;  0.0000000E+00;0; -1.6102014E-04;  4.0000000E+04;  0.0000000E+00;  0.0000000E+00;  4.0000000E+04;  0.0000000E+00;  4.0000000E+04; -8.3224353E-05;  0.0000000E+00; -7.7795790E-05;  2.8443503E+02;
 -7.9999998E-02;  9.9999998E-03; -3.4999999E-01;1100;  0.0000000E+00;  0.0000000E+00;  0.0000000E+00;  1.0001246E+03;  1.0000000E-01;  1.0320695E+02;0;  0.0000000E+00;  0.0000000E+00;  0.0000000E+00;0; -2.1720209E-04;  4.0000000E+04;  0.0000000E+00;  0.0000000E+00;  4.0000000E+04;  0.0000000E+00;  4.0000000E+04; -1.2039460E-04;  0.0000000E+00; -9.6807496E-05;  3.4577399E+02;
 -7.9999998E-02;  9.9999998E-03; -3.4000000E-01;1101;  0.0000000E+00;  0.0000000E+00;  0.0000000E+00;  1.0001824E+03;  1.0000000E-01;  1.5110684E+02;0;  0.0000000E+00;  0.0000000E+00;  0.0000000E+00;0; -2.7929910E-04;  4.0000000E+04;  0.0000000E+00;  0.0000000E+00;  4.0000000E+04;  0.0000000E+00;  4.0000000E+04; -1.6466265E-04;  0.0000000E+00; -1.1463645E-04;  3.9357977E+02;
 -7.9999998E-02;  9.9999998E-03; -3.3000001E-01;1102;  0.0000000E+00;  0.0000000E+00;  0.0000000E+00;  1.0002448E+03;  1.0000000E-01;  2.0275970E+02;0;  0.0000000E+00;  0.0000000E+00;  0.0000000E+00;0; -3.4401356E-04;  4.0000000E+04;  0.0000000E+00;  0.0000000E+00;  4.0000000E+04;  0.0000000E+00;  4.0000000E+04; -2.1448743E-04;  0.0000000E+00; -1.2952615E-04;  4.1867432E+02;
 -7.9999998E-02;  9.9999998E-03; -3.1999999E-01;1103;  0.0000000E+00;  0.0000000E+00;  0.0000000E+00;  1.0003014E+03;  1.0000000E-01;  2.4967195E+02;0;  0.0000000E+00;  0.0000000E+00;  0.0000000E+00;0; -4.0716067E-04;  4.0000000E+04;  0.0000000E+00;  0.0000000E+00;  4.0000000E+04;  0.0000000E+00;  4.0000000E+04; -2.6767750E-04;  0.0000000E+00; -1.3948316E-04;  4.1211462E+02;
 -7.9999998E-02;  9.9999998E-03; -3.1000000E-01;1104;  0.0000000E+00;  0.0000000E+00;  0.0000000E+00;  1.0003582E+03;  1.0000000E-01;  2.9678174E+02;0;  0.0000000E+00;  0.0000000E+00;  0.0000000E+00;0; -4.6432210E-04;  4.0000000E+04;  0.0000000E+00;  0.0000000E+00;  4.0000000E+04;  0.0000000E+00;  4.0000000E+04; -3.2179066E-04;  0.0000000E+00; -1.4253143E-04;  3.6689740E+02;
 -7.9999998E-02;  9.9999998E-03; -3.0000001E-01;1105;  0.0000000E+00;  0.0000000E+00;  0.0000000E+00;  1.0004335E+03;  1.0000000E-01;  3.5919971E+02;0;  0.0000000E+00;  0.0000000E+00;  0.0000000E+00;0; -5.1179226E-04;  4.0000000E+04;  0.0000000E+00;  0.0000000E+00;  4.0000000E+04;  0.0000000E+00;  4.0000000E+04; -3.7465387E-04;  0.0000000E+00; -1.3713836E-04;  2.8015784E+02;
 -7.9999998E-02;  9.9999998E-03; -2.8999999E-01;1106;  0.0000000E+00;  0.0000000E+00;  0.0000000E+00;  1.0005007E+03;  1.0000000E-01;  4.1480307E+02;0;  0.0000000E+00;  0.0000000E+00;  0.0000000E+00;0; -5.4755597E-04;  4.0000000E+04;  0.0000000E+00;  0.0000000E+00;  4.0000000E+04;  0.0000000E+00;  4.0000000E+04; -4.2486112E-04;  0.0000000E+00; -1.2269482E-04;  1.5573283E+02;
 -7.9999998E-02;  9.9999998E-03; -2.8000000E-01;1107;  0.0000000E+00;  0.0000000E+00;  0.0000000E+00;  1.0005610E+03;  1.0000000E-01;  4.6477698E+02;0;  0.0000000E+00;  0.0000000E+00;  0.0000000E+00;0; -5.7190028E-04;  4.0000000E+04;  0.0000000E+00;  0.0000000E+00;  4.0000000E+04;  0.0000000E+00;  4.0000000E+04; -4.7208506E-04;  0.0000000E+00; -9.9815225E-05;  3.8258488E+01;
 -7.0000000E-02;  9.9999998E-03; -4.4000000E-01;1182;  0.0000000E+00;  0.0000000E+00;  0.0000000E+00;  1.0000000E+03;  1.0000000E-01;  0.0000000E+00;0;  0.0000000E+00;  0.0000000E+00;  0.0000000E+00;0; -1.4558667E-07;  4.0000000E+04;  0.0000000E+00;  0.0000000E+00;  4.0000000E+04;  0.0000000E+00;  4.0000000E+04; -4.3207784E-08;  0.0000000E+00; -1.0237888E-07;  3.7569845E-01;
 -7.0000000E-02;  9.9999998E-03; -4.3000001E-01;1183;  0.0000000E+00;  0.0000000E+00;  0.0000000E+00;  1.0000000E+03;  1.0000000E-01;  0.0000000E+00;0;  0.0000000E+00;  0.0000000E+00;  0.0000000E+00;0; -1.7922525E-06;  4.0000000E+04;  0.0000000E+00;  0.0000000E+00;  4.0000000E+04;  0.0000000E+00;  4.0000000E+04; -5.1218115E-07;  0.0000000E+00; -1.2800714E-06;  4.4301310E+00;
 -7.0000000E-02;  9.9999998E-03; -4.1999999E-01;1184;  0.0000000E+00;  0.0000000E+00;  0.0000000E+00;  1.0000000E+03;  1.0000000E-01;  0.0000000E+00;0;  0.0000000E+00;  0.0000000E+00;  0.0000000E+00;0; -7.6683991E-06;  4.0000000E+04;  0.0000000E+00;  0.0000000E+00;  4.0000000E+04;  0.0000000E+00;  4.0000000E+04; -2.3307296E-06;  0.0000000E+00; -5.3376698E-06;  1.8866966E+01;
 -7.0000000E-02;  9.9999998E-03; -4.1000000E-01;1185;  0.0000000E+00;  0.0000000E+00;  0.0000000E+00;  1.0000000E+03;  1.0000000E-01;  0.0000000E+00;0;  0.0000000E+00;  0.0000000E+00;  0.0000000E+00;0; -2.0754967E-05;  4.0000000E+04;  0.0000000E+00;  0.0000000E+00;  4.0000000E+04;  0.0000000E+00;  4.0000000E+04; -6.9618859E-06;  0.0000000E+00; -1.3793082E-05;  5.0164455E+01;
 -7.0000000E-02;  9.9999998E-03; -4.0000001E-01;1186;  0.0000000E+00;  0.0000000E+00;  0.0000000E+00;  1.0000000E+03;  1.0000000E-01;  0.0000000E+00;0;  0.0000000E+00;  0.0000000E+00;  0.0000000E+00;0; -4.3524658E-05;  4.0000000E+04;  0.0000000E+00;  0.0000000E+00;  4.0000000E+04;  0.0000000E+00;  4.0000000E+04; -1.6332435E-05;  0.0000000E+00; -2.7192224E-05;  1.0130318E+02;
 -7.0000000E-02;  9.9999998E-03; -3.8999999E-01;1187;  0.0000000E+00;  0.0000000E+00;  0.0000000E+00;  1.0000443E+03;  1.0000000E-01;  3.6739700E+01;0;  0.0000000E+00;  0.0000000E+00;  0.0000000E+00;0; -7.7880075E-05;  4.0000000E+04;  0.0000000E+00;  0.0000000E+00;  4.0000000E+04;  0.0000000E+00;  4.0000000E+04; -3.2691401E-05;  0.0000000E+00; -4.5188670E-05;  1.7110367E+02;
 -7.0000000E-02;  9.9999998E-03; -3.8000000E-01;1188;  0.0000000E+00;  0.0000000E+00;  0.0000000E+00;  1.0000561E+03;  1.0000000E-01;  4.6517204E+01;0;  0.0000000E+00;  0.0000000E+00;  0.0000000E+00;0; -1.2534428E-04;  4.0000000E+04;  0.0000000E+00;  0.0000000E+00;  4.0000000E+04;  0.0000000E+00;  4.0000000E+04; -5.8396596E-05;  0.0000000E+00; -6.6947679E-05;  2.5522188E+02;
 -7.0000000E-02;  9.9999998E-03; -3.7000000E-01;1189;  0.0000000E+00;  0.0000000E+00;  0.0000000E+00;  1.0000962E+03;  1.0000000E-01;  7.9701447E+01;0;  0.0000000E+00;  0.0000000E+00;  0.0000000E+00;0; -1.8703271E-04;  4.0000000E+04;  0.0000000E+00;  0.0000000E+00;  4.0000000E+04;  0.0000000E+00;  4.0000000E+04; -9.5606993E-05;  0.0000000E+00; -9.1425711E-05;  3.4718607E+02;
 -7.0000000E-02;  9.9999998E-03; -3.6000001E-01;1190;  0.0000000E+00;  0.0000000E+00;  0.0000000E+00;  1.0001446E+03;  1.0000000E-01;  1.1979908E+02;0;  0.0000000E+00;  0.0000000E+00;  0.0000000E+00;0; -2.6338027E-04;  4.0000000E+04;  0.0000000E+00;  0.0000000E+00;  4.0000000E+04;  0.0000000E+00;  4.0000000E+04; -1.4596249E-04;  0.0000000E+00; -1.1741778E-04;  4.3886823E+02;
 -7.0000000E-02;  9.9999998E-03; -3.4999999E-01;1191;  0.0000000E+00;  0.0000000E+00;  0.0000000E+00;  1.0002142E+03;  1.0000000E-01;  1.7747646E+02;0;  0.0000000E+00;  0.0000000E+00;  0.0000000E+00;0; -3.5365258E-04;  4.0000000E+04;  0.0000000E+00;  0.0000000E+00;  4.0000000E+04;  0.0000000E+00;  4.0000000E+04; -2.1020260E-04;  0.0000000E+00; -1.4344997E-04;  5.2057867E+02;
 -7.0000000E-02;  9.9999998E-03; -3.4000000E-01;1192;  0.0000000E+00;  0.0000000E+00;  0.0000000E+00;  1.0003095E+03;  1.0000000E-01;  2.5638782E+02;0;  0.0000000E+00;  0.0000000E+00;  0.0000000E+00;0; -4.5553775E-04;  4.0000000E+04;  0.0000000E+00;  0.0000000E+00;  4.0000000E+04;  0.0000000E+00;  4.0000000E+04; -2.8789774E-04;  0.0000000E+00; -1.6764003E-04;  5.8112646E+02;
 -7.0000000E-02;  9.9999998E-03; -3.3000001E-01;1193;  0.0000000E+00;  0.0000000E+00;  0.0000000E+00;  1.0003967E+03;  1.0000000E-01;  3.2858331E+02;0;  0.0000000E+00;  0.0000000E+00;  0.0000000E+00;0; -5.6496460E-04;  4.0000000E+04;  0.0000000E+00;  0.0000000E+00;  4.0000000E+04;  0.0000000E+00;  4.0000000E+04; -3.7733887E-04;  0.0000000E+00; -1.8762573E-04;  6.0835815E+02;
 -7.0000000E-02;  9.9999998E-03; -3.1999999E-01;1194;  0.0000000E+00;  0.0000000E+00;  0.0000000E+00;  1.0005058E+03;  1.0000000E-01;  4.1904987E+02;0;  0.0000000E+00;  0.0000000E+00;  0.0000000E+00;0; -6.7636749E-04;  4.0000000E+04;  0.0000000E+00;  0.0000000E+00;  4.0000000E+04;  0.0000000E+00;  4.0000000E+04; -4.7569611E-04;  0.0000000E+00; -2.0067139E-04;  5.9047766E+02;
 -7.0000000E-02;  9.9999998E-03; -3.1000000E-01;1195;  0.0000000E+00;  0.0000000E+00;  0.0000000E+00;  1.0005992E+03;  1.0000000E-01;  4.9647980E+02;0;  0.0000000E+00;  0.0000000E+00;  0.0000000E+00;0; -7.8352215E-04;  4.0000000E+04;  0.0000000E+00;  0.0000000E+00;  4.0000000E+04;  0.0000000E+00;  4.0000000E+04; -5.7948817E-04;  0.0000000E+00; -2.0403400E-04;  5.1846454E+02;
 -7.0000000E-02;  9.9999998E-03; -3.0000001E-01;1196;  0.0000000E+00;  0.0000000E+00;  0.0000000E+00;  1.0007081E+03;  1.0000000E-01;  5.8665009E+02;0;  0.0000000E+00;  0.0000000E+00;  0.0000000E+00;0; -8.8085502E-04;  4.0000000E+04;  0.0000000E+00;  0.0000000E+00;  4.0000000E+04;  0.0000000E+00;  4.0000000E+04; -6.8527181E-04;  0.0000000E+00; -1.9558318E-04;  3.8928372E+02;
 -7.0000000E-02;  9.9999998E-03; -2.8999999E-01;1197;  0.0000000E+00;  0.0000000E+00;  0.0000000E+00;  1.0008145E+03;  1.0000000E-01;  6.7484509E+02;0;  0.0000000E+00;  0.0000000E+00;  0.0000000E+00;0; -9.6486829E-04;  4.0000000E+04;  0.0000000E+00;  0.0000000E+00;  4.0000000E+04;  0.0000000E+00;  4.0000000E+04; -7.9036690E-04;  0.0000000E+00; -1.7450137E-04;  2.1043785E+02;
 -7.0000000E-02;  9.9999998E-03; -2.8000000E-01;1198;  0.0000000E+00;  0.0000000E+00;  0.0000000E+00;  1.0009236E+03;  1.0000000E-01;  7.6521295E+02;0;  0.0000000E+00;  0.0000000E+00;  0.0000000E+00;0; -1.0350731E-03;  4.0000000E+04;  0.0000000E+00;  0.0000000E+00;  4.0000000E+04;  0.0000000E+00;  4.0000000E+04; -8.9335884E-04;  0.0000000E+00; -1.4171429E-04;  7.3027954E+01;
 -5.9999999E-02;  9.9999998E-03; -4.4000000E-01;1273;  0.0000000E+00;  0.0000000E+00;  0.0000000E+00;  1.0000000E+03;  1.0000000E-01;  0.0000000E+00;0;  0.0000000E+00;  0.0000000E+00;  0.0000000E+00;0; -6.9819919E-07;  4.0000000E+04;  0.0000000E+00;  0.0000000E+00;  4.0000000E+04;  0.0000000E+00;  4.0000000E+04; -1.9725567E-07;  0.0000000E+00; -5.0094354E-07;  1.8259147E+00;
 -5.9999999E-02;  9.9999998E-03; -4.3000001E-01;1274;  0.0000000E+00;  0.0000000E+00;  0.0000000E+00;  1.0000000E+03;  1.0000000E-01;  0.0000000E+00;0;  0.0000000E+00;  0.0000000E+00;  0.0000000E+00;0; -4.6276759E-06;  4.0000000E+04;  0.0000000E+00;  0.0000000E+00;  4.0000000E+04;  0.0000000E+00;  4.0000000E+04; -1.3539415E-06;  0.0000000E+00; -3.2737344E-06;  1.1895596E+01;
 -5.9999999E-02;  9.9999998E-03; -4.1999999E-01;1275;  0.0000000E+00;  0.0000000E+00;  0.0000000E+00;  1.0000000E+03;  1.0000000E-01;  0.0000000E+00;0;  0.0000000E+00;  0.0000000E+00;  0.0000000E+00;0; -1.5624948E-05;  4.0000000E+04;  0.0000000E+00;  0.0000000E+00;  4.0000000E+04;  0.0000000E+00;  4.0000000E+04; -4.9854912E-06;  0.0000000E+00; -1.0639457E-05;  3.9534954E+01;
 -5.9999999E-02;  9.9999998E-03; -4.1000000E-01;1276;  0.0000000E+00;  0.0000000E+00;  0.0000000E+00;  1.0000000E+03;  1.0000000E-01;  0.0000000E+00;0;  0.0000000E+00;  0.0000000E+00;  0.0000000E+00;0; -3.7430502E-05;  4.0000000E+04;  0.0000000E+00;  0.0000000E+00;  4.0000000E+04;  0.0000000E+00;  4.0000000E+04; -1.3339397E-05;  0.0000000E+00; -2.4091103E-05;  9.1659523E+01;
 -5.9999999E-02;  9.9999998E-03; -4.0000001E-01;1277;  0.0000000E+00;  0.0000000E+00;  0.0000000E+00;  1.0000315E+03;  1.0000000E-01;  2.6073338E+01;0;  0.0000000E+00;  0.0000000E+00;  0.0000000E+00;0; -7.3123090E-05;  4.0000000E+04;  0.0000000E+00;  0.0000000E+00;  4.0000000E+04;  0.0000000E+00;  4.0000000E+04; -2.9317251E-05;  0.0000000E+00; -4.3805838E-05;  1.6980450E+02;
 -5.9999999E-02;  9.9999998E-03; -3.8999999E-01;1278;  0.0000000E+00;  0.0000000E+00;  0.0000000E+00;  1.0000620E+03;  1.0000000E-01;  5.1356571E+01;0;  0.0000000E+00;  0.0000000E+00;  0.0000000E+00;0; -1.2532820E-04;  4.0000000E+04;  0.0000000E+00;  0.0000000E+00;  4.0000000E+04;  0.0000000E+00;  4.0000000E+04; -5.6312321E-05;  0.0000000E+00; -6.9015878E-05;  2.7046890E+02;
 -5.9999999E-02;  9.9999998E-03; -3.8000000E-01;1279;  0.0000000E+00;  0.0000000E+00;  0.0000000E+00;  1.0000936E+03;  1.0000000E-01;  7.7528671E+01;0;  0.0000000E+00;  0.0000000E+00;  0.0000000E+00;0; -1.9651763E-04;  4.0000000E+04;  0.0000000E+00;  0.0000000E+00;  4.0000000E+04;  0.0000000E+00;  4.0000000E+04; -9.7950891E-05;  0.0000000E+00; -9.8566743E-05;  3.8685669E+02;
 -5.9999999E-02;  9.9999998E-03; -3.7000000E-01;1280;  0.0000000E+00;  0.0000000E+00;  0.0000000E+00;  1.0001605E+03;  1.0000000E-01;  1.3303328E+02;0;  0.0000000E+00;  0.0000000E+00;  0.0000000E+00;0; -2.8889196E-04;  4.0000000E+04;  0.0000000E+00;  0.0000000E+00;  4.0000000E+04;  0.0000000E+00;  4.0000000E+04; -1.5770271E-04;  0.0000000E+00; -1.3118926E-04;  5.1014294E+02;
 -5.9999999E-02;  9.9999998E-03; -3.6000001E-01;1281;  0.0000000E+00;  0.0000000E+00;  0.0000000E+00;  1.0002529E+03;  1.0000000E-01;  2.0947556E+02;0;  0.0000000E+00;  0.0000000E+00;  0.0000000E+00;0; -4.0388748E-04;  4.0000000E+04;  0.0000000E+00;  0.0000000E+00;  4.0000000E+04;  0.0000000E+00;  4.0000000E+04; -2.3842767E-04;  0.0000000E+00; -1.6545980E-04;  6.2981891E+02;
 -5.9999999E-02;  9.9999998E-03; -3.4999999E-01;1282;  0.0000000E+00;  0.0000000E+00;  0.0000000E+00;  1.0003604E+03;  1.0000000E-01;  2.9855945E+02;0;  0.0000000E+00;  0.0000000E+00;  0.0000000E+00;0; -5.4141041E-04;  4.0000000E+04;  0.0000000E+00;  0.0000000E+00;  4.0000000E+04;  0.0000000E+00;  4.0000000E+04; -3.4182321E-04;  0.0000000E+00; -1.9958719E-04;  7.3355609E+02;
 -5.9999999E-02;  9.9999998E-03; -3.4000000E-01;1283;  0.0000000E+00;  0.0000000E+00;  0.0000000E+00;  1.0004855E+03;  1.0000000E-01;  4.0216147E+02;0;  0.0000000E+00;  0.0000000E+00;  0.0000000E+00;0; -6.9914409E-04;  4.0000000E+04;  0.0000000E+00;  0.0000000E+00;  4.0000000E+04;  0.0000000E+00;  4.0000000E+04; -4.6795723E-04;  0.0000000E+00; -2.3118689E-04;  8.0712067E+02;
 -5.9999999E-02;  9.9999998E-03; -3.3000001E-01;1284;  0.0000000E+00;  0.0000000E+00;  0.0000000E+00;  1.0006155E+03;  1.0000000E-01;  5.0991150E+02;0;  0.0000000E+00;  0.0000000E+00;  0.0000000E+00;0; -8.7216101E-04;  4.0000000E+04;  0.0000000E+00;  0.0000000E+00;  4.0000000E+04;  0.0000000E+00;  4.0000000E+04; -6.1499490E-04;  0.0000000E+00; -2.5716607E-04;  8.3491290E+02;
 -5.9999999E-02;  9.9999998E-03; -3.1999999E-01;1285;  0.0000000E+00;  0.0000000E+00;  0.0000000E+00;  1.0007610E+03;  1.0000000E-01;  6.3050067E+02;0;  0.0000000E+00;  0.0000000E+00;  0.0000000E+00;0; -1.0531378E-03;  4.0000000E+04;  0.0000000E+00;  0.0000000E+00;  4.0000000E+04;  0.0000000E+00;  4.0000000E+04; -7.7927898E-04;  0.0000000E+00; -2.7385884E-04;  8.0175720E+02;
 -5.9999999E-02;  9.9999998E-03; -3.1000000E-01;1286;  0.0000000E+00;  0.0000000E+00;  0.0000000E+00;  1.0009269E+03;  1.0000000E-01;  7.6797827E+02;0;  0.0000000E+00;  0.0000000E+00;  0.0000000E+00;0; -1.2333996E-03;  4.0000000E+04;  0.0000000E+00;  0.0000000E+00;  4.0000000E+04;  0.0000000E+00;  4.0000000E+04; -9.5586129E-04;  0.0000000E+00; -2.7753826E-04;  6.9614124E+02;
 -5.9999999E-02;  9.9999998E-03; -3.0000001E-01;1287;  0.0000000E+00;  0.0000000E+00;  0.0000000E+00;  1.0010886E+03;  1.0000000E-01;  9.0190039E+02;0;  0.0000000E+00;  0.0000000E+00;  0.0000000E+00;0; -1.4047239E-03;  4.0000000E+04;  0.0000000E+00;  0.0000000E+00;  4.0000000E+04;  0.0000000E+00;  4.0000000E+04; -1.1394218E-03;  0.0000000E+00; -2.6530199E-04;  5.1496185E+02;
 -5.9999999E-02;  9.9999998E-03; -2.8999999E-01;1288;  0.0000000E+00;  0.0000000E+00;  0.0000000E+00;  1.0012618E+03;  1.0000000E-01;  1.0454026E+03;0;  0.0000000E+00;  0.0000000E+00;  0.0000000E+00;0; -1.5614136E-03;  4.0000000E+04;  0.0000000E+00;  0.0000000E+00;  4.0000000E+04;  0.0000000E+00;  4.0000000E+04; -1.3253303E-03;  0.0000000E+00; -2.3608333E-04;  2.7148981E+02;
 -5.9999999E-02;  9.9999998E-03; -2.8000000E-01;1289;  0.0000000E+00;  0.0000000E+00;  0.0000000E+00;  1.0014288E+03;  1.0000000E-01;  1.1837690E+03;0;  0.0000000E+00;  0.0000000E+00;  0.0000000E+00;0; -1.7017236E-03;  4.0000000E+04;  0.0000000E+00;  0.0000000E+00;  4.0000000E+04;  0.0000000E+00;  4.0000000E+04; -1.5104647E-03;  0.0000000E+00; -1.9125880E-04;  1.2472812E+02;
 -5.0000001E-02;  9.9999998E-03; -4.4000000E-01;1364;  0.0000000E+00;  0.0000000E+00;  0.0000000E+00;  1.0000000E+03;  1.0000000E-01;  0.0000000E+00;0;  0.0000000E+00;  0.0000000E+00;  0.0000000E+00;0; -1.9506474E-06;  4.0000000E+04;  0.0000000E+00;  0.0000000E+00;  4.0000000E+04;  0.0000000E+00;  4.0000000E+04; -5.5610838E-07;  0.0000000E+00; -1.3945389E-06;  5.2604122E+00;
 -5.0000001E-02;  9.9999998E-03; -4.3000001E-01;1365;  0.0000000E+00;  0.0000000E+00;  0.0000000E+00;  1.0000000E+03;  1.0000000E-01;  0.0000000E+00;0;  0.0000000E+00;  0.0000000E+00;  0.0000000E+00;0; -9.3693816E-06;  4.0000000E+04;  0.0000000E+00;  0.0000000E+00;  4.0000000E+04;  0.0000000E+00;  4.0000000E+04; -2.8672534E-06;  0.0000000E+00; -6.5021286E-06;  2.4723150E+01;
 -5.0000001E-02;  9.9999998E-03; -4.1999999E-01;1366;  0.0000000E+00;  0.0000000E+00;  0.0000000E+00;  1.0000000E+03;  1.0000000E-01;  0.0000000E+00;0;  0.0000000E+00;  0.0000000E+00;  0.0000000E+00;0; -2.7300626E-05;  4.0000000E+04;  0.0000000E+00;  0.0000000E+00;  4.0000000E+04;  0.0000000E+00;  4.0000000E+04; -9.2563942E-06;  0.0000000E+00; -1.8044233E-05;  6.9989807E+01;
 -5.0000001E-02;  9.9999998E-03; -4.1000000E-01;1367;  0.0000000E+00;  0.0000000E+00;  0.0000000E+00;  1.0000088E+03;  1.0000000E-01;  7.3084354E+00;0;  0.0000000E+00;  0.0000000E+00;  0.0000000E+00;0; -6.0315080E-05;  4.0000000E+04;  0.0000000E+00;  0.0000000E+00;  4.0000000E+04;  0.0000000E+00;  4.0000000E+04; -2.2994602E-05;  0.0000000E+00; -3.7320478E-05;  1.4760133E+02;
 -5.0000001E-02;  9.9999998E-03; -4.0000001E-01;1368;  0.0000000E+00;  0.0000000E+00;  0.0000000E+00;  1.0000590E+03;  1.0000000E-01;  4.8887505E+01;0;  0.0000000E+00;  0.0000000E+00;  0.0000000E+00;0; -1.1231931E-04;  4.0000000E+04;  0.0000000E+00;  0.0000000E+00;  4.0000000E+04;  0.0000000E+00;  4.0000000E+04; -4.8247399E-05;  0.0000000E+00; -6.4071915E-05;  2.5704715E+02;
 -5.0000001E-02;  9.9999998E-03; -3.8999999E-01;1369;  0.0000000E+00;  0.0000000E+00;  0.0000000E+00;  1.0000916E+03;  1.0000000E-01;  7.5849709E+01;0;  0.0000000E+00;  0.0000000E+00;  0.0000000E+00;0; -1.8703117E-04;  4.0000000E+04;  0.0000000E+00;  0.0000000E+00;  4.0000000E+04;  0.0000000E+00;  4.0000000E+04; -8.9895038E-05;  0.0000000E+00; -9.7136137E-05;  3.9220343E+02;
 -5.0000001E-02;  9.9999998E-03; -3.8000000E-01;1370;  0.0000000E+00;  0.0000000E+00;  0.0000000E+00;  1.0001566E+03;  1.0000000E-01;  1.2977411E+02;0;  0.0000000E+00;  0.0000000E+00;  0.0000000E+00;0; -2.8833616E-04;  4.0000000E+04;  0.0000000E+00;  0.0000000E+00;  4.0000000E+04;  0.0000000E+00;  4.0000000E+04; -1.5322419E-04;  0.0000000E+00; -1.3511197E-04;  5.4375732E+02;
 -5.0000001E-02;  9.9999998E-03; -3.7000000E-01;1371;  0.0000000E+00;  0.0000000E+00;  0.0000000E+00;  1.0002610E+03;  1.0000000E-01;  2.1629018E+02;0;  0.0000000E+00;  0.0000000E+00;  0.0000000E+00;0; -4.2002252E-04;  4.0000000E+04;  0.0000000E+00;  0.0000000E+00;  4.0000000E+04;  0.0000000E+00;  4.0000000E+04; -2.4344353E-04;  0.0000000E+00; -1.7657901E-04;  7.0056689E+02;
 -5.0000001E-02;  9.9999998E-03; -3.6000001E-01;1372;  0.0000000E+00;  0.0000000E+00;  0.0000000E+00;  1.0003843E+03;  1.0000000E-01;  3.1841074E+02;0;  0.0000000E+00;  0.0000000E+00;  0.0000000E+00;0; -5.8501121E-04;  4.0000000E+04;  0.0000000E+00;  0.0000000E+00;  4.0000000E+04;  0.0000000E+00;  4.0000000E+04; -3.6506762E-04;  0.0000000E+00; -2.1994361E-04;  8.4980890E+02;
 -5.0000001E-02;  9.9999998E-03; -3.4999999E-01;1373;  0.0000000E+00;  0.0000000E+00;  0.0000000E+00;  1.0005288E+03;  1.0000000E-01;  4.3811105E+02;0;  0.0000000E+00;  0.0000000E+00;  0.0000000E+00;0; -7.8425574E-04;  4.0000000E+04;  0.0000000E+00;  0.0000000E+00;  4.0000000E+04;  0.0000000E+00;  4.0000000E+04; -5.2115083E-04;  0.0000000E+00; -2.6310491E-04;  9.7650024E+02;
 -5.0000001E-02;  9.9999998E-03; -3.4000000E-01;1374;  0.0000000E+00;  0.0000000E+00;  0.0000000E+00;  1.0006949E+03;  1.0000000E-01;  5.7578619E+02;0;  0.0000000E+00;  0.0000000E+00;  0.0000000E+00;0; -1.0156805E-03;  4.0000000E+04;  0.0000000E+00;  0.0000000E+00;  4.0000000E+04;  0.0000000E+00;  4.0000000E+04; -7.1255281E-04;  0.0000000E+00; -3.0312766E-04;  1.0631716E+03;
 -5.0000001E-02;  9.9999998E-03; -3.3000001E-01;1375;  0.0000000E+00;  0.0000000E+00;  0.0000000E+00;  1.0008939E+03;  1.0000000E-01;  7.4052228E+02;0;  0.0000000E+00;  0.0000000E+00;  0.0000000E+00;0; -1.2734807E-03;  4.0000000E+04;  0.0000000E+00;  0.0000000E+00;  4.0000000E+04;  0.0000000E+00;  4.0000000E+04; -9.3741599E-04;  0.0000000E+00; -3.3606475E-04;  1.0903964E+03;
 -5.0000001E-02;  9.9999998E-03; -3.1999999E-01;1376;  0.0000000E+00;  0.0000000E+00;  0.0000000E+00;  1.0011160E+03;  1.0000000E-01;  9.2451709E+02;0;  0.0000000E+00;  0.0000000E+00;  0.0000000E+00;0; -1.5481885E-03;  4.0000000E+04;  0.0000000E+00;  0.0000000E+00;  4.0000000E+04;  0.0000000E+00;  4.0000000E+04; -1.1910773E-03;  0.0000000E+00; -3.5711128E-04;  1.0389155E+03;
 -5.0000001E-02;  9.9999998E-03; -3.1000000E-01;1377;  0.0000000E+00;  0.0000000E+00;  0.0000000E+00;  1.0013621E+03;  1.0000000E-01;  1.1284619E+03;0;  0.0000000E+00;  0.0000000E+00;  0.0000000E+00;0; -1.8279107E-03;  4.0000000E+04;  0.0000000E+00;  0.0000000E+00;  4.0000000E+04;  0.0000000E+00;  4.0000000E+04; -1.4666219E-03;  0.0000000E+00; -3.6128878E-04;  8.9410925E+02;
 -5.0000001E-02;  9.9999998E-03; -3.0000001E-01;1378;  0.0000000E+00;  0.0000000E+00;  0.0000000E+00;  1.0016105E+03;  1.0000000E-01;  1.3342832E+03;0;  0.0000000E+00;  0.0000000E+00;  0.0000000E+00;0; -2.1007829E-03;  4.0000000E+04;  0.0000000E+00;  0.0000000E+00;  4.0000000E+04;  0.0000000E+00;  4.0000000E+04; -1.7560908E-03;  0.0000000E+00; -3.4469215E-04;  6.5267212E+02;
 -5.0000001E-02;  9.9999998E-03; -2.8999999E-01;1379;  0.0000000E+00;  0.0000000E+00;  0.0000000E+00;  1.0018552E+03;  1.0000000E-01;  1.5369442E+03;0;  0.0000000E+00;  0.0000000E+00;  0.0000000E+00;0; -2.3579840E-03;  4.0000000E+04;  0.0000000E+00;  0.0000000E+00;  4.0000000E+04;  0.0000000E+00;  4.0000000E+04; -2.0520354E-03;  0.0000000E+00; -3.0594843E-04;  3.3609647E+02;
 -5.0000001E-02;  9.9999998E-03; -2.8000000E-01;1380;  0.0000000E+00;  0.0000000E+00;  0.0000000E+00;  1.0021047E+03;  1.0000000E-01;  1.7437532E+03;0;  0.0000000E+00;  0.0000000E+00;  0.0000000E+00;0; -2.5959262E-03;  4.0000000E+04;  0.0000000E+00;  0.0000000E+00;  4.0000000E+04;  0.0000000E+00;  4.0000000E+04; -2.3488437E-03;  0.0000000E+00; -2.4708256E-04;  1.9357878E+02;
 -3.9999999E-02;  9.9999998E-03; -4.4000000E-01;1455;  0.0000000E+00;  0.0000000E+00;  0.0000000E+00;  1.0000000E+03;  1.0000000E-01;  0.0000000E+00;0;  0.0000000E+00;  0.0000000E+00;  0.0000000E+00;0; -4.0673881E-06;  4.0000000E+04;  0.0000000E+00;  0.0000000E+00;  4.0000000E+04;  0.0000000E+00;  4.0000000E+04; -1.1999767E-06;  0.0000000E+00; -2.8674112E-06;  1.1247389E+01;
 -3.9999999E-02;  9.9999998E-03; -4.3000001E-01;1456;  0.0000000E+00;  0.0000000E+00;  0.0000000E+00;  1.0000000E+03;  1.0000000E-01;  0.0000000E+00;0;  0.0000000E+00;  0.0000000E+00;  0.0000000E+00;0; -1.6080776E-05;  4.0000000E+04;  0.0000000E+00;  0.0000000E+00;  4.0000000E+04;  0.0000000E+00;  4.0000000E+04; -5.2120795E-06;  0.0000000E+00; -1.0868696E-05;  4.3032635E+01;
 -3.9999999E-02;  9.9999998E-03; -4.1999999E-01;1457;  0.0000000E+00;  0.0000000E+00;  0.0000000E+00;  1.0000000E+03;  1.0000000E-01;  0.0000000E+00;0;  0.0000000E+00;  0.0000000E+00;  0.0000000E+00;0; -4.2505795E-05;  4.0000000E+04;  0.0000000E+00;  0.0000000E+00;  4.0000000E+04;  0.0000000E+00;  4.0000000E+04; -1.5410855E-05;  0.0000000E+00; -2.7094942E-05;  1.0911811E+02;
 -3.9999999E-02;  9.9999998E-03; -4.1000000E-01;1458;  0.0000000E+00;  0.0000000E+00;  0.0000000E+00;  1.0000480E+03;  1.0000000E-01;  3.9801342E+01;0;  0.0000000E+00;  0.0000000E+00;  0.0000000E+00;0; -8.8866960E-05;  4.0000000E+04;  0.0000000E+00;  0.0000000E+00;  4.0000000E+04;  0.0000000E+00;  4.0000000E+04; -3.6313933E-05;  0.0000000E+00; -5.2553027E-05;  2.1503677E+02;
 -3.9999999E-02;  9.9999998E-03; -4.0000001E-01;1459;  0.0000000E+00;  0.0000000E+00;  0.0000000E+00;  1.0000756E+03;  1.0000000E-01;  6.2615513E+01;0;  0.0000000E+00;  0.0000000E+00;  0.0000000E+00;0; -1.6017405E-04;  4.0000000E+04;  0.0000000E+00;  0.0000000E+00;  4.0000000E+04;  0.0000000E+00;  4.0000000E+04; -7.3613504E-05;  0.0000000E+00; -8.6560547E-05;  3.5790176E+02;
 -3.9999999E-02;  9.9999998E-03; -3.8999999E-01;1460;  0.0000000E+00;  0.0000000E+00;  0.0000000E+00;  1.0001362E+03;  1.0000000E-01;  1.1278693E+02;0;  0.0000000E+00;  0.0000000E+00;  0.0000000E+00;0; -2.6162842E-04;  4.0000000E+04;  0.0000000E+00;  0.0000000E+00;  4.0000000E+04;  0.0000000E+00;  4.0000000E+04; -1.3398381E-04;  0.0000000E+00; -1.2764463E-04;  5.2890863E+02;
 -3.9999999E-02;  9.9999998E-03; -3.8000000E-01;1461;  0.0000000E+00;  0.0000000E+00;  0.0000000E+00;  1.0002475E+03;  1.0000000E-01;  2.0503123E+02;0;  0.0000000E+00;  0.0000000E+00;  0.0000000E+00;0; -3.9898194E-04;  4.0000000E+04;  0.0000000E+00;  0.0000000E+00;  4.0000000E+04;  0.0000000E+00;  4.0000000E+04; -2.2472379E-04;  0.0000000E+00; -1.7425815E-04;  7.1633124E+02;
 -3.9999999E-02;  9.9999998E-03; -3.7000000E-01;1462;  0.0000000E+00;  0.0000000E+00;  0.0000000E+00;  1.0003863E+03;  1.0000000E-01;  3.1999094E+02;0;  0.0000000E+00;  0.0000000E+00;  0.0000000E+00;0; -5.7809730E-04;  4.0000000E+04;  0.0000000E+00;  0.0000000E+00;  4.0000000E+04;  0.0000000E+00;  4.0000000E+04; -3.5318363E-04;  0.0000000E+00; -2.2491370E-04;  9.0694086E+02;
 -3.9999999E-02;  9.9999998E-03; -3.6000001E-01;1463;  0.0000000E+00;  0.0000000E+00;  0.0000000E+00;  1.0005438E+03;  1.0000000E-01;  4.5055515E+02;0;  0.0000000E+00;  0.0000000E+00;  0.0000000E+00;0; -8.0387841E-04;  4.0000000E+04;  0.0000000E+00;  0.0000000E+00;  4.0000000E+04;  0.0000000E+00;  4.0000000E+04; -5.2597572E-04;  0.0000000E+00; -2.7790270E-04;  1.0858246E+03;
 -3.9999999E-02;  9.9999998E-03; -3.4999999E-01;1464;  0.0000000E+00;  0.0000000E+00;  0.0000000E+00;  1.0007311E+03;  1.0000000E-01;  6.0571124E+02;0;  0.0000000E+00;  0.0000000E+00;  0.0000000E+00;0; -1.0788039E-03;  4.0000000E+04;  0.0000000E+00;  0.0000000E+00;  4.0000000E+04;  0.0000000E+00;  4.0000000E+04; -7.4796734E-04;  0.0000000E+00; -3.3083654E-04;  1.2355479E+03;
 -3.9999999E-02;  9.9999998E-03; -3.4000000E-01;1465;  0.0000000E+00;  0.0000000E+00;  0.0000000E+00;  1.0009709E+03;  1.0000000E-01;  8.0432294E+02;0;  0.0000000E+00;  0.0000000E+00;  0.0000000E+00;0; -1.4014184E-03;  4.0000000E+04;  0.0000000E+00;  0.0000000E+00;  4.0000000E+04;  0.0000000E+00;  4.0000000E+04; -1.0212130E-03;  0.0000000E+00; -3.8020537E-04;  1.3353826E+03;
 -3.9999999E-02;  9.9999998E-03; -3.3000001E-01;1466;  0.0000000E+00;  0.0000000E+00;  0.0000000E+00;  1.0012606E+03;  1.0000000E-01;  1.0443162E+03;0;  0.0000000E+00;  0.0000000E+00;  0.0000000E+00;0; -1.7651739E-03;  4.0000000E+04;  0.0000000E+00;  0.0000000E+00;  4.0000000E+04;  0.0000000E+00;  4.0000000E+04; -1.3440672E-03;  0.0000000E+00; -4.2110673E-04;  1.3617601E+03;
 -3.9999999E-02;  9.9999998E-03; -3.1999999E-01;1467;  0.0000000E+00;  0.0000000E+00;  0.0000000E+00;  1.0015665E+03;  1.0000000E-01;  1.2978398E+03;0;  0.0000000E+00;  0.0000000E+00;  0.0000000E+00;0; -2.1581708E-03;  4.0000000E+04;  0.0000000E+00;  0.0000000E+00;  4.0000000E+04;  0.0000000E+00;  4.0000000E+04; -1.7107860E-03;  0.0000000E+00; -4.4738484E-04;  1.2906904E+03;
 -3.9999999E-02;  9.9999998E-03; -3.1000000E-01;1468;  0.0000000E+00;  0.0000000E+00;  0.0000000E+00;  1.0019029E+03;  1.0000000E-01;  1.5765480E+03;0;  0.0000000E+00;  0.0000000E+00;  0.0000000E+00;0; -2.5644968E-03;  4.0000000E+04;  0.0000000E+00;  0.0000000E+00;  4.0000000E+04;  0.0000000E+00;  4.0000000E+04; -2.1120026E-03;  0.0000000E+00; -4.5249413E-04;  1.1034233E+03;
 -3.9999999E-02;  9.9999998E-03; -3.0000001E-01;1469;  0.0000000E+00;  0.0000000E+00;  0.0000000E+00;  1.0022531E+03;  1.0000000E-01;  1.8666139E+03;0;  0.0000000E+00;  0.0000000E+00;  0.0000000E+00;0; -2.9674293E-03;  4.0000000E+04;  0.0000000E+00;  0.0000000E+00;  4.0000000E+04;  0.0000000E+00;  4.0000000E+04; -2.5362214E-03;  0.0000000E+00; -4.3120797E-04;  7.9588287E+02;
 -3.9999999E-02;  9.9999998E-03; -2.8999999E-01;1470;  0.0000000E+00;  0.0000000E+00;  0.0000000E+00;  1.0026050E+03;  1.0000000E-01;  2.1582600E+03;0;  0.0000000E+00;  0.0000000E+00;  0.0000000E+00;0; -3.3538351E-03;  4.0000000E+04;  0.0000000E+00;  0.0000000E+00;  4.0000000E+04;  0.0000000E+00;  4.0000000E+04; -2.9720876E-03;  0.0000000E+00; -3.8174752E-04;  4.0051923E+02;
 -3.9999999E-02;  9.9999998E-03; -2.8000000E-01;1471;  0.0000000E+00;  0.0000000E+00;  0.0000000E+00;  1.0029565E+03;  1.0000000E-01;  2.4494121E+03;0;  0.0000000E+00;  0.0000000E+00;  0.0000000E+00;0; -3.7176339E-03;  4.0000000E+04;  0.0000000E+00;  0.0000000E+00;  4.0000000E+04;  0.0000000E+00;  4.0000000E+04; -3.4105615E-03;  0.0000000E+00; -3.0707242E-04;  2.7923743E+02;
 -2.9999999E-02;  9.9999998E-03; -4.4000000E-01;1546;  0.0000000E+00;  0.0000000E+00;  0.0000000E+00;  1.0000000E+03;  1.0000000E-01;  0.0000000E+00;0;  0.0000000E+00;  0.0000000E+00;  0.0000000E+00;0; -7.0027536E-06;  4.0000000E+04;  0.0000000E+00;  0.0000000E+00;  4.0000000E+04;  0.0000000E+00;  4.0000000E+04; -2.1679109E-06;  0.0000000E+00; -4.8348429E-06;  1.9672070E+01;
 -2.9999999E-02;  9.9999998E-03; -4.3000001E-01;1547;  0.0000000E+00;  0.0000000E+00;  0.0000000E+00;  1.0000000E+03;  1.0000000E-01;  0.0000000E+00;0;  0.0000000E+00;  0.0000000E+00;  0.0000000E+00;0; -2.4394129E-05;  4.0000000E+04;  0.0000000E+00;  0.0000000E+00;  4.0000000E+04;  0.0000000E+00;  4.0000000E+04; -8.4281137E-06;  0.0000000E+00; -1.5966014E-05;  6.5519058E+01;
 -2.9999999E-02;  9.9999998E-03; -4.1999999E-01;1548;  0.0000000E+00;  0.0000000E+00;  0.0000000E+00;  1.0000106E+03;  1.0000000E-01;  8.7898750E+00;0;  0.0000000E+00;  0.0000000E+00;  0.0000000E+00;0; -6.0344042E-05;  4.0000000E+04;  0.0000000E+00;  0.0000000E+00;  4.0000000E+04;  0.0000000E+00;  4.0000000E+04; -2.3431874E-05;  0.0000000E+00; -3.6912166E-05;  1.5364359E+02;
 -2.9999999E-02;  9.9999998E-03; -4.1000000E-01;1549;  0.0000000E+00;  0.0000000E+00;  0.0000000E+00;  1.0000668E+03;  1.0000000E-01;  5.5307079E+01;0;  0.0000000E+00;  0.0000000E+00;  0.0000000E+00;0; -1.2147579E-04;  4.0000000E+04;  0.0000000E+00;  0.0000000E+00;  4.0000000E+04;  0.0000000E+00;  4.0000000E+04; -5.3101674E-05;  0.0000000E+00; -6.8374124E-05;  2.8820303E+02;
 -2.9999999E-02;  9.9999998E-03; -4.0000001E-01;1550;  0.0000000E+00;  0.0000000E+00;  0.0000000E+00;  1.0001212E+03;  1.0000000E-01;  1.0034284E+02;0;  0.0000000E+00;  0.0000000E+00;  0.0000000E+00;0; -2.1416374E-04;  4.0000000E+04;  0.0000000E+00;  0.0000000E+00;  4.0000000E+04;  0.0000000E+00;  4.0000000E+04; -1.0482939E-04;  0.0000000E+00; -1.0933436E-04;  4.6387820E+02;
 -2.9999999E-02;  9.9999998E-03; -3.8999999E-01;1551;  0.0000000E+00;  0.0000000E+00;  0.0000000E+00;  1.0002258E+03;  1.0000000E-01;  1.8705644E+02;0;  0.0000000E+00;  0.0000000E+00;  0.0000000E+00;0; -3.4541177E-04;  4.0000000E+04;  0.0000000E+00;  0.0000000E+00;  4.0000000E+04;  0.0000000E+00;  4.0000000E+04; -1.8727881E-04;  0.0000000E+00; -1.5813297E-04;  6.6933826E+02;
 -2.9999999E-02;  9.9999998E-03; -3.8000000E-01;1552;  0.0000000E+00;  0.0000000E+00;  0.0000000E+00;  1.0003640E+03;  1.0000000E-01;  3.0152234E+02;0;  0.0000000E+00;  0.0000000E+00;  0.0000000E+00;0; -5.2318623E-04;  4.0000000E+04;  0.0000000E+00;  0.0000000E+00;  4.0000000E+04;  0.0000000E+00;  4.0000000E+04; -3.1000457E-04;  0.0000000E+00; -2.1318167E-04;  8.9075812E+02;
 -2.9999999E-02;  9.9999998E-03; -3.7000000E-01;1553;  0.0000000E+00;  0.0000000E+00;  0.0000000E+00;  1.0005193E+03;  1.0000000E-01;  4.3030881E+02;0;  0.0000000E+00;  0.0000000E+00;  0.0000000E+00;0; -7.5580977E-04;  4.0000000E+04;  0.0000000E+00;  0.0000000E+00;  4.0000000E+04;  0.0000000E+00;  4.0000000E+04; -4.8281476E-04;  0.0000000E+00; -2.7299501E-04;  1.1131915E+03;
 -2.9999999E-02;  9.9999998E-03; -3.6000001E-01;1554;  0.0000000E+00;  0.0000000E+00;  0.0000000E+00;  1.0007341E+03;  1.0000000E-01;  6.0818036E+02;0;  0.0000000E+00;  0.0000000E+00;  0.0000000E+00;0; -1.0506294E-03;  4.0000000E+04;  0.0000000E+00;  0.0000000E+00;  4.0000000E+04;  0.0000000E+00;  4.0000000E+04; -7.1483670E-04;  0.0000000E+00; -3.3579272E-04;  1.3200605E+03;
 -2.9999999E-02;  9.9999998E-03; -3.4999999E-01;1555;  0.0000000E+00;  0.0000000E+00;  0.0000000E+00;  1.0009987E+03;  1.0000000E-01;  8.2743341E+02;0;  0.0000000E+00;  0.0000000E+00;  0.0000000E+00;0; -1.4121815E-03;  4.0000000E+04;  0.0000000E+00;  0.0000000E+00;  4.0000000E+04;  0.0000000E+00;  4.0000000E+04; -1.0132536E-03;  0.0000000E+00; -3.9892795E-04;  1.4918265E+03;
 -2.9999999E-02;  9.9999998E-03; -3.4000000E-01;1556;  0.0000000E+00;  0.0000000E+00;  0.0000000E+00;  1.0013187E+03;  1.0000000E-01;  1.0925123E+03;0;  0.0000000E+00;  0.0000000E+00;  0.0000000E+00;0; -1.8401864E-03;  4.0000000E+04;  0.0000000E+00;  0.0000000E+00;  4.0000000E+04;  0.0000000E+00;  4.0000000E+04; -1.3818601E-03;  0.0000000E+00; -4.5832628E-04;  1.6048073E+03;
 -2.9999999E-02;  9.9999998E-03; -3.3000001E-01;1557;  0.0000000E+00;  0.0000000E+00;  0.0000000E+00;  1.0016914E+03;  1.0000000E-01;  1.4013431E+03;0;  0.0000000E+00;  0.0000000E+00;  0.0000000E+00;0; -2.3277560E-03;  4.0000000E+04;  0.0000000E+00;  0.0000000E+00;  4.0000000E+04;  0.0000000E+00;  4.0000000E+04; -1.8196700E-03;  0.0000000E+00; -5.0808617E-04;  1.6311927E+03;
 -2.9999999E-02;  9.9999998E-03; -3.1999999E-01;1558;  0.0000000E+00;  0.0000000E+00;  0.0000000E+00;  1.0021086E+03;  1.0000000E-01;  1.7469136E+03;0;  0.0000000E+00;  0.0000000E+00;  0.0000000E+00;0; -2.8605703E-03;  4.0000000E+04;  0.0000000E+00;  0.0000000E+00;  4.0000000E+04;  0.0000000E+00;  4.0000000E+04; -2.3200265E-03;  0.0000000E+00; -5.4054370E-04;  1.5416168E+03;
 -2.9999999E-02;  9.9999998E-03; -3.1000000E-01;1559;  0.0000000E+00;  0.0000000E+00;  0.0000000E+00;  1.0025571E+03;  1.0000000E-01;  2.1185574E+03;0;  0.0000000E+00;  0.0000000E+00;  0.0000000E+00;0; -3.4180093E-03;  4.0000000E+04;  0.0000000E+00;  0.0000000E+00;  4.0000000E+04;  0.0000000E+00;  4.0000000E+04; -2.8707574E-03;  0.0000000E+00; -5.4725190E-04;  1.3119882E+03;
 -2.9999999E-02;  9.9999998E-03; -3.0000001E-01;1560;  0.0000000E+00;  0.0000000E+00;  0.0000000E+00;  1.0030319E+03;  1.0000000E-01;  2.5119290E+03;0;  0.0000000E+00;  0.0000000E+00;  0.0000000E+00;0; -3.9771209E-03;  4.0000000E+04;  0.0000000E+00;  0.0000000E+00;  4.0000000E+04;  0.0000000E+00;  4.0000000E+04; -3.4558903E-03;  0.0000000E+00; -5.2123045E-04;  9.3638824E+02;
 -2.9999999E-02;  9.9999998E-03; -2.8999999E-01;1561;  0.0000000E+00;  0.0000000E+00;  0.0000000E+00;  1.0035029E+03;  1.0000000E-01;  2.9020413E+03;0;  0.0000000E+00;  0.0000000E+00;  0.0000000E+00;0; -4.5189844E-03;  4.0000000E+04;  0.0000000E+00;  0.0000000E+00;  4.0000000E+04;  0.0000000E+00;  4.0000000E+04; -4.0588770E-03;  0.0000000E+00; -4.6010720E-04;  4.6145206E+02;
 -2.9999999E-02;  9.9999998E-03; -2.8000000E-01;1562;  0.0000000E+00;  0.0000000E+00;  0.0000000E+00;  1.0039705E+03;  1.0000000E-01;  3.2894873E+03;0;  0.0000000E+00;  0.0000000E+00;  0.0000000E+00;0; -5.0343014E-03;  4.0000000E+04;  0.0000000E+00;  0.0000000E+00;  4.0000000E+04;  0.0000000E+00;  4.0000000E+04; -4.6660993E-03;  0.0000000E+00; -3.6820193E-04;  3.8327158E+02;
 -2.0000000E-02;  9.9999998E-03; -4.4000000E-01;1637;  0.0000000E+00;  0.0000000E+00;  0.0000000E+00;  1.0000000E+03;  1.0000000E-01;  0.0000000E+00;0;  0.0000000E+00;  0.0000000E+00;  0.0000000E+00;0; -1.0469184E-05;  4.0000000E+04;  0.0000000E+00;  0.0000000E+00;  4.0000000E+04;  0.0000000E+00;  4.0000000E+04; -3.4317727E-06;  0.0000000E+00; -7.0374122E-06;  2.9609125E+01;
 -2.0000000E-02;  9.9999998E-03; -4.3000001E-01;1638;  0.0000000E+00;  0.0000000E+00;  0.0000000E+00;  1.0000000E+03;  1.0000000E-01;  0.0000000E+00;0;  0.0000000E+00;  0.0000000E+00;  0.0000000E+00;0; -3.3520282E-05;  4.0000000E+04;  0.0000000E+00;  0.0000000E+00;  4.0000000E+04;  0.0000000E+00;  4.0000000E+04; -1.2377940E-05;  0.0000000E+00; -2.1142341E-05;  8.9521378E+01;
 -2.0000000E-02;  9.9999998E-03; -4.1999999E-01;1639;  0.0000000E+00;  0.0000000E+00;  0.0000000E+00;  1.0000462E+03;  1.0000000E-01;  3.8319904E+01;0;  0.0000000E+00;  0.0000000E+00;  0.0000000E+00;0; -7.9269652E-05;  4.0000000E+04;  0.0000000E+00;  0.0000000E+00;  4.0000000E+04;  0.0000000E+00;  4.0000000E+04; -3.2912092E-05;  0.0000000E+00; -4.6357556E-05;  1.9846829E+02;
 -2.0000000E-02;  9.9999998E-03; -4.1000000E-01;1640;  0.0000000E+00;  0.0000000E+00;  0.0000000E+00;  1.0000828E+03;  1.0000000E-01;  6.8541275E+01;0;  0.0000000E+00;  0.0000000E+00;  0.0000000E+00;0; -1.5555506E-04;  4.0000000E+04;  0.0000000E+00;  0.0000000E+00;  4.0000000E+04;  0.0000000E+00;  4.0000000E+04; -7.2400726E-05;  0.0000000E+00; -8.3154329E-05;  3.5915695E+02;
 -2.0000000E-02;  9.9999998E-03; -4.0000001E-01;1641;  0.0000000E+00;  0.0000000E+00;  0.0000000E+00;  1.0001624E+03;  1.0000000E-01;  1.3451471E+02;0;  0.0000000E+00;  0.0000000E+00;  0.0000000E+00;0; -2.7028209E-04;  4.0000000E+04;  0.0000000E+00;  0.0000000E+00;  4.0000000E+04;  0.0000000E+00;  4.0000000E+04; -1.3995411E-04;  0.0000000E+00; -1.3032799E-04;  5.6407294E+02;
 -2.0000000E-02;  9.9999998E-03; -3.8999999E-01;1642;  0.0000000E+00;  0.0000000E+00;  0.0000000E+00;  1.0002960E+03;  1.0000000E-01;  2.4522763E+02;0;  0.0000000E+00;  0.0000000E+00;  0.0000000E+00;0; -4.3241470E-04;  4.0000000E+04;  0.0000000E+00;  0.0000000E+00;  4.0000000E+04;  0.0000000E+00;  4.0000000E+04; -2.4625193E-04;  0.0000000E+00; -1.8616275E-04;  7.9975836E+02;
 -2.0000000E-02;  9.9999998E-03; -3.8000000E-01;1643;  0.0000000E+00;  0.0000000E+00;  0.0000000E+00;  1.0004619E+03;  1.0000000E-01;  3.8260648E+02;0;  0.0000000E+00;  0.0000000E+00;  0.0000000E+00;0; -6.5228710E-04;  4.0000000E+04;  0.0000000E+00;  0.0000000E+00;  4.0000000E+04;  0.0000000E+00;  4.0000000E+04; -4.0318866E-04;  0.0000000E+00; -2.4909843E-04;  1.0507303E+03;
 -2.0000000E-02;  9.9999998E-03; -3.7000000E-01;1644;  0.0000000E+00;  0.0000000E+00;  0.0000000E+00;  1.0006802E+03;  1.0000000E-01;  5.6353961E+02;0;  0.0000000E+00;  0.0000000E+00;  0.0000000E+00;0; -9.4090169E-04;  4.0000000E+04;  0.0000000E+00;  0.0000000E+00;  4.0000000E+04;  0.0000000E+00;  4.0000000E+04; -6.2322960E-04;  0.0000000E+00; -3.1767209E-04;  1.3007327E+03;
 -2.0000000E-02;  9.9999998E-03; -3.6000001E-01;1645;  0.0000000E+00;  0.0000000E+00;  0.0000000E+00;  1.0009501E+03;  1.0000000E-01;  7.8713824E+02;0;  0.0000000E+00;  0.0000000E+00;  0.0000000E+00;0; -1.3083973E-03;  4.0000000E+04;  0.0000000E+00;  0.0000000E+00;  4.0000000E+04;  0.0000000E+00;  4.0000000E+04; -9.1836270E-04;  0.0000000E+00; -3.9003455E-04;  1.5320125E+03;
 -2.0000000E-02;  9.9999998E-03; -3.4999999E-01;1646;  0.0000000E+00;  0.0000000E+00;  0.0000000E+00;  1.0012997E+03;  1.0000000E-01;  1.0768091E+03;0;  0.0000000E+00;  0.0000000E+00;  0.0000000E+00;0; -1.7619092E-03;  4.0000000E+04;  0.0000000E+00;  0.0000000E+00;  4.0000000E+04;  0.0000000E+00;  4.0000000E+04; -1.2986098E-03;  0.0000000E+00; -4.6329948E-04;  1.7234413E+03;
 -2.0000000E-02;  9.9999998E-03; -3.4000000E-01;1647;  0.0000000E+00;  0.0000000E+00;  0.0000000E+00;  1.0017051E+03;  1.0000000E-01;  1.4127008E+03;0;  0.0000000E+00;  0.0000000E+00;  0.0000000E+00;0; -2.3030229E-03;  4.0000000E+04;  0.0000000E+00;  0.0000000E+00;  4.0000000E+04;  0.0000000E+00;  4.0000000E+04; -1.7701506E-03;  0.0000000E+00; -5.3287216E-04;  1.8489860E+03;
 -2.0000000E-02;  9.9999998E-03; -3.3000001E-01;1648;  0.0000000E+00;  0.0000000E+00;  0.0000000E+00;  1.0021923E+03;  1.0000000E-01;  1.8162449E+03;0;  0.0000000E+00;  0.0000000E+00;  0.0000000E+00;0; -2.9252670E-03;  4.0000000E+04;  0.0000000E+00;  0.0000000E+00;  4.0000000E+04;  0.0000000E+00;  4.0000000E+04; -2.3333605E-03;  0.0000000E+00; -5.9190660E-04;  1.8770126E+03;
 -2.0000000E-02;  9.9999998E-03; -3.1999999E-01;1649;  0.0000000E+00;  0.0000000E+00;  0.0000000E+00;  1.0027305E+03;  1.0000000E-01;  2.2621582E+03;0;  0.0000000E+00;  0.0000000E+00;  0.0000000E+00;0; -3.6124038E-03;  4.0000000E+04;  0.0000000E+00;  0.0000000E+00;  4.0000000E+04;  0.0000000E+00;  4.0000000E+04; -2.9811980E-03;  0.0000000E+00; -6.3120580E-04;  1.7724846E+03;
 -2.0000000E-02;  9.9999998E-03; -3.1000000E-01;1650;  0.0000000E+00;  0.0000000E+00;  0.0000000E+00;  1.0033073E+03;  1.0000000E-01;  2.7400706E+03;0;  0.0000000E+00;  0.0000000E+00;  0.0000000E+00;0; -4.3388931E-03;  4.0000000E+04;  0.0000000E+00;  0.0000000E+00;  4.0000000E+04;  0.0000000E+00;  4.0000000E+04; -3.6987036E-03;  0.0000000E+00; -6.4018962E-04;  1.5047446E+03;
 -2.0000000E-02;  9.9999998E-03; -3.0000001E-01;1651;  0.0000000E+00;  0.0000000E+00;  0.0000000E+00;  1.0039119E+03;  1.0000000E-01;  3.2409949E+03;0;  0.0000000E+00;  0.0000000E+00;  0.0000000E+00;0; -5.0742431E-03;  4.0000000E+04;  0.0000000E+00;  0.0000000E+00;  4.0000000E+04;  0.0000000E+00;  4.0000000E+04; -4.4646212E-03;  0.0000000E+00; -6.0962175E-04;  1.0646350E+03;
 -2.0000000E-02;  9.9999998E-03; -2.8999999E-01;1652;  0.0000000E+00;  0.0000000E+00;  0.0000000E+00;  1.0045233E+03;  1.0000000E-01;  3.7474495E+03;0;  0.0000000E+00;  0.0000000E+00;  0.0000000E+00;0; -5.7919077E-03;  4.0000000E+04;  0.0000000E+00;  0.0000000E+00;  4.0000000E+04;  0.0000000E+00;  4.0000000E+04; -5.2557588E-03;  0.0000000E+00; -5.3614879E-04;  5.1856860E+02;
 -2.0000000E-02;  9.9999998E-03; -2.8000000E-01;1653;  0.0000000E+00;  0.0000000E+00;  0.0000000E+00;  1.0051245E+03;  1.0000000E-01;  4.2456084E+03;0;  0.0000000E+00;  0.0000000E+00;  0.0000000E+00;0; -6.4787893E-03;  4.0000000E+04;  0.0000000E+00;  0.0000000E+00;  4.0000000E+04;  0.0000000E+00;  4.0000000E+04; -6.0526682E-03;  0.0000000E+00; -4.2612129E-04;  5.1189392E+02;
 -9.9999998E-03;  9.9999998E-03; -4.4000000E-01;1728;  0.0000000E+00;  0.0000000E+00;  0.0000000E+00;  1.0000000E+03;  1.0000000E-01;  0.0000000E+00;0;  0.0000000E+00;  0.0000000E+00;  0.0000000E+00;0; -1.3989652E-05;  4.0000000E+04;  0.0000000E+00;  0.0000000E+00;  4.0000000E+04;  0.0000000E+00;  4.0000000E+04; -4.8840111E-06;  0.0000000E+00; -9.1056409E-06;  3.9448994E+01;
 -9.9999998E-03;  9.9999998E-03; -4.3000001E-01;1729;  0.0000000E+00;  0.0000000E+00;  0.0000000E+00;  1.0000000E+03;  1.0000000E-01;  0.0000000E+00;0;  0.0000000E+00;  0.0000000E+00;  0.0000000E+00;0; -4.2382038E-05;  4.0000000E+04;  0.0000000E+00;  0.0000000E+00;  4.0000000E+04;  0.0000000E+00;  4.0000000E+04; -1.6724631E-05;  0.0000000E+00; -2.5657409E-05;  1.1144597E+02;
 -9.9999998E-03;  9.9999998E-03; -4.1999999E-01;1730;  0.0000000E+00;  0.0000000E+00;  0.0000000E+00;  1.0000550E+03;  1.0000000E-01;  4.5529575E+01;0;  0.0000000E+00;  0.0000000E+00;  0.0000000E+00;0; -9.7317868E-05;  4.0000000E+04;  0.0000000E+00;  0.0000000E+00;  4.0000000E+04;  0.0000000E+00;  4.0000000E+04; -4.3018841E-05;  0.0000000E+00; -5.4299027E-05;  2.3745488E+02;
 -9.9999998E-03;  9.9999998E-03; -4.1000000E-01;1731;  0.0000000E+00;  0.0000000E+00;  0.0000000E+00;  1.0001279E+03;  1.0000000E-01;  1.0597231E+02;0;  0.0000000E+00;  0.0000000E+00;  0.0000000E+00;0; -1.8787905E-04;  4.0000000E+04;  0.0000000E+00;  0.0000000E+00;  4.0000000E+04;  0.0000000E+00;  4.0000000E+04; -9.2449634E-05;  0.0000000E+00; -9.5429423E-05;  4.1901288E+02;
 -9.9999998E-03;  9.9999998E-03; -4.0000001E-01;1732;  0.0000000E+00;  0.0000000E+00;  0.0000000E+00;  1.0002291E+03;  1.0000000E-01;  1.8982179E+02;0;  0.0000000E+00;  0.0000000E+00;  0.0000000E+00;0; -3.2350252E-04;  4.0000000E+04;  0.0000000E+00;  0.0000000E+00;  4.0000000E+04;  0.0000000E+00;  4.0000000E+04; -1.7567514E-04;  0.0000000E+00; -1.4782736E-04;  6.4698016E+02;
 -9.9999998E-03;  9.9999998E-03; -3.8999999E-01;1733;  0.0000000E+00;  0.0000000E+00;  0.0000000E+00;  1.0003945E+03;  1.0000000E-01;  3.2690433E+02;0;  0.0000000E+00;  0.0000000E+00;  0.0000000E+00;0; -5.1504606E-04;  4.0000000E+04;  0.0000000E+00;  0.0000000E+00;  4.0000000E+04;  0.0000000E+00;  4.0000000E+04; -3.0523475E-04;  0.0000000E+00; -2.0981129E-04;  9.0634979E+02;
 -9.9999998E-03;  9.9999998E-03; -3.8000000E-01;1734;  0.0000000E+00;  0.0000000E+00;  0.0000000E+00;  1.0005881E+03;  1.0000000E-01;  4.8729486E+02;0;  0.0000000E+00;  0.0000000E+00;  0.0000000E+00;0; -7.7513128E-04;  4.0000000E+04;  0.0000000E+00;  0.0000000E+00;  4.0000000E+04;  0.0000000E+00;  4.0000000E+04; -4.9528561E-04;  0.0000000E+00; -2.7984564E-04;  1.1803519E+03;
 -9.9999998E-03;  9.9999998E-03; -3.7000000E-01;1735;  0.0000000E+00;  0.0000000E+00;  0.0000000E+00;  1.0008439E+03;  1.0000000E-01;  6.9914075E+02;0;  0.0000000E+00;  0.0000000E+00;  0.0000000E+00;0; -1.1174305E-03;  4.0000000E+04;  0.0000000E+00;  0.0000000E+00;  4.0000000E+04;  0.0000000E+00;  4.0000000E+04; -7.6099829E-04;  0.0000000E+00; -3.5643223E-04;  1.4517522E+03;
 -9.9999998E-03;  9.9999998E-03; -3.6000001E-01;1736;  0.0000000E+00;  0.0000000E+00;  0.0000000E+00;  1.0011924E+03;  1.0000000E-01;  9.8782391E+02;0;  0.0000000E+00;  0.0000000E+00;  0.0000000E+00;0; -1.5550421E-03;  4.0000000E+04;  0.0000000E+00;  0.0000000E+00;  4.0000000E+04;  0.0000000E+00;  4.0000000E+04; -1.1174498E-03;  0.0000000E+00; -4.3759224E-04;  1.7019264E+03;
 -9.9999998E-03;  9.9999998E-03; -3.4999999E-01;1737;  0.0000000E+00;  0.0000000E+00;  0.0000000E+00;  1.0016174E+03;  1.0000000E-01;  1.3399127E+03;0;  0.0000000E+00;  0.0000000E+00;  0.0000000E+00;0; -2.0980961E-03;  4.0000000E+04;  0.0000000E+00;  0.0000000E+00;  4.0000000E+04;  0.0000000E+00;  4.0000000E+04; -1.5779207E-03;  0.0000000E+00; -5.2017544E-04;  1.9088716E+03;
 -9.9999998E-03;  9.9999998E-03; -3.4000000E-01;1738;  0.0000000E+00;  0.0000000E+00;  0.0000000E+00;  1.0021356E+03;  1.0000000E-01;  1.7692339E+03;0;  0.0000000E+00;  0.0000000E+00;  0.0000000E+00;0; -2.7507413E-03;  4.0000000E+04;  0.0000000E+00;  0.0000000E+00;  4.0000000E+04;  0.0000000E+00;  4.0000000E+04; -2.1516201E-03;  0.0000000E+00; -5.9912121E-04;  2.0450006E+03;
 -9.9999998E-03;  9.9999998E-03; -3.3000001E-01;1739;  0.0000000E+00;  0.0000000E+00;  0.0000000E+00;  1.0027253E+03;  1.0000000E-01;  2.2579114E+03;0;  0.0000000E+00;  0.0000000E+00;  0.0000000E+00;0; -3.5078970E-03;  4.0000000E+04;  0.0000000E+00;  0.0000000E+00;  4.0000000E+04;  0.0000000E+00;  4.0000000E+04; -2.8411150E-03;  0.0000000E+00; -6.6678197E-04;  2.0758965E+03;
 -9.9999998E-03;  9.9999998E-03; -3.1999999E-01;1740;  0.0000000E+00;  0.0000000E+00;  0.0000000E+00;  1.0033989E+03;  1.0000000E-01;  2.8159204E+03;0;  0.0000000E+00;  0.0000000E+00;  0.0000000E+00;0; -4.3524979E-03;  4.0000000E+04;  0.0000000E+00;  0.0000000E+00;  4.0000000E+04;  0.0000000E+00;  4.0000000E+04; -3.6398885E-03;  0.0000000E+00; -7.1260962E-04;  1.9614808E+03;
 -9.9999998E-03;  9.9999998E-03; -3.1000000E-01;1741;  0.0000000E+00;  0.0000000E+00;  0.0000000E+00;  1.0041265E+03;  1.0000000E-01;  3.4187676E+03;0;  0.0000000E+00;  0.0000000E+00;  0.0000000E+00;0; -5.2547469E-03;  4.0000000E+04;  0.0000000E+00;  0.0000000E+00;  4.0000000E+04;  0.0000000E+00;  4.0000000E+04; -4.5308345E-03;  0.0000000E+00; -7.2391256E-04;  1.6637844E+03;
 -9.9999998E-03;  9.9999998E-03; -3.0000001E-01;1742;  0.0000000E+00;  0.0000000E+00;  0.0000000E+00;  1.0048770E+03;  1.0000000E-01;  4.0404783E+03;0;  0.0000000E+00;  0.0000000E+00;  0.0000000E+00;0; -6.1760326E-03;  4.0000000E+04;  0.0000000E+00;  0.0000000E+00;  4.0000000E+04;  0.0000000E+00;  4.0000000E+04; -5.4871244E-03;  0.0000000E+00; -6.8890821E-04;  1.1696447E+03;
 -9.9999998E-03;  9.9999998E-03; -2.8999999E-01;1743;  0.0000000E+00;  0.0000000E+00;  0.0000000E+00;  1.0056286E+03;  1.0000000E-01;  4.6631768E+03;0;  0.0000000E+00;  0.0000000E+00;  0.0000000E+00;0; -7.0803845E-03;  4.0000000E+04;  0.0000000E+00;  0.0000000E+00;  4.0000000E+04;  0.0000000E+00;  4.0000000E+04; -6.4777080E-03;  0.0000000E+00; -6.0267665E-04;  5.7734644E+02;
 -9.9999998E-03;  9.9999998E-03; -2.8000000E-01;1744;  0.0000000E+00;  0.0000000E+00;  0.0000000E+00;  1.0063726E+03;  1.0000000E-01;  5.2795542E+03;0;  0.0000000E+00;  0.0000000E+00;  0.0000000E+00;0; -7.9508545E-03;  4.0000000E+04;  0.0000000E+00;  0.0000000E+00;  4.0000000E+04;  0.0000000E+00;  4.0000000E+04; -7.4761896E-03;  0.0000000E+00; -4.7466444E-04;  6.7575610E+02;
  0.0000000E+00;  9.9999998E-03; -4.4000000E-01;1819;  0.0000000E+00;  0.0000000E+00;  0.0000000E+00;  1.0000000E+03;  1.0000000E-01;  0.0000000E+00;0;  0.0000000E+00;  0.0000000E+00;  0.0000000E+00;0; -1.7009348E-05;  4.0000000E+04;  0.0000000E+00;  0.0000000E+00;  4.0000000E+04;  0.0000000E+00;  4.0000000E+04; -6.3423881E-06;  0.0000000E+00; -1.0666960E-05;  4.7242527E+01;
  0.0000000E+00;  9.9999998E-03; -4.3000001E-01;1820;  0.0000000E+00;  0.0000000E+00;  0.0000000E+00;  1.0000084E+03;  1.0000000E-01;  6.9133849E+00;0;  0.0000000E+00;  0.0000000E+00;  0.0000000E+00;0; -4.9822640E-05;  4.0000000E+04;  0.0000000E+00;  0.0000000E+00;  4.0000000E+04;  0.0000000E+00;  4.0000000E+04; -2.0939880E-05;  0.0000000E+00; -2.8882760E-05;  1.2745493E+02;
  0.0000000E+00;  9.9999998E-03; -4.1999999E-01;1821;  0.0000000E+00;  0.0000000E+00;  0.0000000E+00;  1.0000707E+03;  1.0000000E-01;  5.8566246E+01;0;  0.0000000E+00;  0.0000000E+00;  0.0000000E+00;0; -1.1242530E-04;  4.0000000E+04;  0.0000000E+00;  0.0000000E+00;  4.0000000E+04;  0.0000000E+00;  4.0000000E+04; -5.2510568E-05;  0.0000000E+00; -5.9914739E-05;  2.6459750E+02;
  0.0000000E+00;  9.9999998E-03; -4.1000000E-01;1822;  0.0000000E+00;  0.0000000E+00;  0.0000000E+00;  1.0001492E+03;  1.0000000E-01;  1.2355206E+02;0;  0.0000000E+00;  0.0000000E+00;  0.0000000E+00;0; -2.1503486E-04;  4.0000000E+04;  0.0000000E+00;  0.0000000E+00;  4.0000000E+04;  0.0000000E+00;  4.0000000E+04; -1.1074526E-04;  0.0000000E+00; -1.0428960E-04;  4.5976199E+02;
  0.0000000E+00;  9.9999998E-03; -4.0000001E-01;1823;  0.0000000E+00;  0.0000000E+00;  0.0000000E+00;  1.0002874E+03;  1.0000000E-01;  2.3811673E+02;0;  0.0000000E+00;  0.0000000E+00;  0.0000000E+00;0; -3.6841829E-04;  4.0000000E+04;  0.0000000E+00;  0.0000000E+00;  4.0000000E+04;  0.0000000E+00;  4.0000000E+04; -2.0750971E-04;  0.0000000E+00; -1.6090856E-04;  7.0307538E+02;
  0.0000000E+00;  9.9999998E-03; -3.8999999E-01;1824;  0.0000000E+00;  0.0000000E+00;  0.0000000E+00;  1.0004813E+03;  1.0000000E-01;  3.9880353E+02;0;  0.0000000E+00;  0.0000000E+00;  0.0000000E+00;0; -5.8502494E-04;  4.0000000E+04;  0.0000000E+00;  0.0000000E+00;  4.0000000E+04;  0.0000000E+00;  4.0000000E+04; -3.5689148E-04;  0.0000000E+00; -2.2813349E-04;  9.7846112E+02;
  0.0000000E+00;  9.9999998E-03; -3.8000000E-01;1825;  0.0000000E+00;  0.0000000E+00;  0.0000000E+00;  1.0007203E+03;  1.0000000E-01;  5.9672388E+02;0;  0.0000000E+00;  0.0000000E+00;  0.0000000E+00;0; -8.7943487E-04;  4.0000000E+04;  0.0000000E+00;  0.0000000E+00;  4.0000000E+04;  0.0000000E+00;  4.0000000E+04; -5.7507423E-04;  0.0000000E+00; -3.0436067E-04;  1.2680194E+03;
  0.0000000E+00;  9.9999998E-03; -3.7000000E-01;1826;  0.0000000E+00;  0.0000000E+00;  0.0000000E+00;  1.0010305E+03;  1.0000000E-01;  8.5380304E+02;0;  0.0000000E+00;  0.0000000E+00;  0.0000000E+00;0; -1.2677235E-03;  4.0000000E+04;  0.0000000E+00;  0.0000000E+00;  4.0000000E+04;  0.0000000E+00;  4.0000000E+04; -8.7980652E-04;  0.0000000E+00; -3.8791692E-04;  1.5535555E+03;
  0.0000000E+00;  9.9999998E-03; -3.6000001E-01;1827;  0.0000000E+00;  0.0000000E+00;  0.0000000E+00;  1.0014482E+03;  1.0000000E-01;  1.1997686E+03;0;  0.0000000E+00;  0.0000000E+00;  0.0000000E+00;0; -1.7658186E-03;  4.0000000E+04;  0.0000000E+00;  0.0000000E+00;  4.0000000E+04;  0.0000000E+00;  4.0000000E+04; -1.2892606E-03;  0.0000000E+00; -4.7655797E-04;  1.8157142E+03;
  0.0000000E+00;  9.9999998E-03; -3.4999999E-01;1828;  0.0000000E+00;  0.0000000E+00;  0.0000000E+00;  1.0019485E+03;  1.0000000E-01;  1.6142754E+03;0;  0.0000000E+00;  0.0000000E+00;  0.0000000E+00;0; -2.3869267E-03;  4.0000000E+04;  0.0000000E+00;  0.0000000E+00;  4.0000000E+04;  0.0000000E+00;  4.0000000E+04; -1.8201492E-03;  0.0000000E+00; -5.6677748E-04;  2.0320131E+03;
  0.0000000E+00;  9.9999998E-03; -3.4000000E-01;1829;  0.0000000E+00;  0.0000000E+00;  0.0000000E+00;  1.0025601E+03;  1.0000000E-01;  2.1210264E+03;0;  0.0000000E+00;  0.0000000E+00;  0.0000000E+00;0; -3.1381459E-03;  4.0000000E+04;  0.0000000E+00;  0.0000000E+00;  4.0000000E+04;  0.0000000E+00;  4.0000000E+04; -2.4851006E-03;  0.0000000E+00; -6.5304531E-04;  2.1742556E+03;
  0.0000000E+00;  9.9999998E-03; -3.3000001E-01;1830;  0.0000000E+00;  0.0000000E+00;  0.0000000E+00;  1.0032765E+03;  1.0000000E-01;  2.7144912E+03;0;  0.0000000E+00;  0.0000000E+00;  0.0000000E+00;0; -4.0165926E-03;  4.0000000E+04;  0.0000000E+00;  0.0000000E+00;  4.0000000E+04;  0.0000000E+00;  4.0000000E+04; -3.2895380E-03;  0.0000000E+00; -7.2705460E-04;  2.2067781E+03;
  0.0000000E+00;  9.9999998E-03; -3.1999999E-01;1831;  0.0000000E+00;  0.0000000E+00;  0.0000000E+00;  1.0040882E+03;  1.0000000E-01;  3.3869658E+03;0;  0.0000000E+00;  0.0000000E+00;  0.0000000E+00;0; -5.0057154E-03;  4.0000000E+04;  0.0000000E+00;  0.0000000E+00;  4.0000000E+04;  0.0000000E+00;  4.0000000E+04; -4.2284834E-03;  0.0000000E+00; -7.7723223E-04;  2.0863875E+03;
  0.0000000E+00;  9.9999998E-03; -3.1000000E-01;1832;  0.0000000E+00;  0.0000000E+00;  0.0000000E+00;  1.0049644E+03;  1.0000000E-01;  4.1128711E+03;0;  0.0000000E+00;  0.0000000E+00;  0.0000000E+00;0; -6.0730944E-03;  4.0000000E+04;  0.0000000E+00;  0.0000000E+00;  4.0000000E+04;  0.0000000E+00;  4.0000000E+04; -5.2839890E-03;  0.0000000E+00; -7.8910525E-04;  1.7689014E+03;
  0.0000000E+00;  9.9999998E-03; -3.0000001E-01;1833;  0.0000000E+00;  0.0000000E+00;  0.0000000E+00;  1.0058745E+03;  1.0000000E-01;  4.8668252E+03;0;  0.0000000E+00;  0.0000000E+00;  0.0000000E+00;0; -7.1727014E-03;  4.0000000E+04;  0.0000000E+00;  0.0000000E+00;  4.0000000E+04;  0.0000000E+00;  4.0000000E+04; -6.4244014E-03;  0.0000000E+00; -7.4829988E-04;  1.2373842E+03;
  9.9999998E-03;  9.9999998E-03; -4.4000000E-01;1851;  0.0000000E+00;  0.0000000E+00;  0.0000000E+00;  1.0000000E+03;  1.0000000E-01;  0.0000000E+00;0;  0.0000000E+00;  0.0000000E+00;  0.0000000E+00;0; -1.9035551E-05;  4.0000000E+04;  0.0000000E+00;  0.0000000E+00;  4.0000000E+04;  0.0000000E+00;  4.0000000E+04; -7.5726180E-06;  0.0000000E+00; -1.1462933E-05;  5.1162376E+01;
  9.9999998E-03;  9.9999998E-03; -4.3000001E-01;1852;  0.0000000E+00;  0.0000000E+00;  0.0000000E+00;  1.0000317E+03;  1.0000000E-01;  2.6270863E+01;0;  0.0000000E+00;  0.0000000E+00;  0.0000000E+00;0; -5.4848992E-05;  4.0000000E+04;  0.0000000E+00;  0.0000000E+00;  4.0000000E+04;  0.0000000E+00;  4.0000000E+04; -2.4351537E-05;  0.0000000E+00; -3.0497453E-05;  1.3433888E+02;
  9.9999998E-03;  9.9999998E-03; -4.1999999E-01;1853;  0.0000000E+00;  0.0000000E+00;  0.0000000E+00;  1.0000889E+03;  1.0000000E-01;  7.3676926E+01;0;  0.0000000E+00;  0.0000000E+00;  0.0000000E+00;0; -1.2280581E-04;  4.0000000E+04;  0.0000000E+00;  0.0000000E+00;  4.0000000E+04;  0.0000000E+00;  4.0000000E+04; -5.9857044E-05;  0.0000000E+00; -6.2948769E-05;  2.7554077E+02;
  9.9999998E-03;  9.9999998E-03; -4.1000000E-01;1854;  0.0000000E+00;  0.0000000E+00;  0.0000000E+00;  1.0001854E+03;  1.0000000E-01;  1.5357590E+02;0;  0.0000000E+00;  0.0000000E+00;  0.0000000E+00;0; -2.3399550E-04;  4.0000000E+04;  0.0000000E+00;  0.0000000E+00;  4.0000000E+04;  0.0000000E+00;  4.0000000E+04; -1.2434175E-04;  0.0000000E+00; -1.0965374E-04;  4.7660480E+02;
  9.9999998E-03;  9.9999998E-03; -4.0000001E-01;1855;  0.0000000E+00;  0.0000000E+00;  0.0000000E+00;  1.0003432E+03;  1.0000000E-01;  2.8433765E+02;0;  0.0000000E+00;  0.0000000E+00;  0.0000000E+00;0; -4.0012226E-04;  4.0000000E+04;  0.0000000E+00;  0.0000000E+00;  4.0000000E+04;  0.0000000E+00;  4.0000000E+04; -2.3042585E-04;  0.0000000E+00; -1.6969642E-04;  7.2777246E+02;
  9.9999998E-03;  9.9999998E-03; -3.8999999E-01;1856;  0.0000000E+00;  0.0000000E+00;  0.0000000E+00;  1.0005619E+03;  1.0000000E-01;  4.6546832E+02;0;  0.0000000E+00;  0.0000000E+00;  0.0000000E+00;0; -6.3472905E-04;  4.0000000E+04;  0.0000000E+00;  0.0000000E+00;  4.0000000E+04;  0.0000000E+00;  4.0000000E+04; -3.9332398E-04;  0.0000000E+00; -2.4140510E-04;  1.0121851E+03;
  9.9999998E-03;  9.9999998E-03; -3.8000000E-01;1857;  0.0000000E+00;  0.0000000E+00;  0.0000000E+00;  1.0008400E+03;  1.0000000E-01;  6.9598029E+02;0;  0.0000000E+00;  0.0000000E+00;  0.0000000E+00;0; -9.5381454E-04;  4.0000000E+04;  0.0000000E+00;  0.0000000E+00;  4.0000000E+04;  0.0000000E+00;  4.0000000E+04; -6.3086476E-04;  0.0000000E+00; -3.2294978E-04;  1.3105819E+03;
  9.9999998E-03;  9.9999998E-03; -3.7000000E-01;1858;  0.0000000E+00;  0.0000000E+00;  0.0000000E+00;  1.0012056E+03;  1.0000000E-01;  9.9878656E+02;0;  0.0000000E+00;  0.0000000E+00;  0.0000000E+00;0; -1.3753222E-03;  4.0000000E+04;  0.0000000E+00;  0.0000000E+00;  4.0000000E+04;  0.0000000E+00;  4.0000000E+04; -9.6302520E-04;  0.0000000E+00; -4.1229700E-04;  1.6033860E+03;
  9.9999998E-03;  9.9999998E-03; -3.6000001E-01;1859;  0.0000000E+00;  0.0000000E+00;  0.0000000E+00;  1.0016859E+03;  1.0000000E-01;  1.3967013E+03;0;  0.0000000E+00;  0.0000000E+00;  0.0000000E+00;0; -1.9175073E-03;  4.0000000E+04;  0.0000000E+00;  0.0000000E+00;  4.0000000E+04;  0.0000000E+00;  4.0000000E+04; -1.4107585E-03;  0.0000000E+00; -5.0674874E-04;  1.8702382E+03;
  9.9999998E-03;  9.9999998E-03; -3.4999999E-01;1860;  0.0000000E+00;  0.0000000E+00;  0.0000000E+00;  1.0022640E+03;  1.0000000E-01;  1.8757001E+03;0;  0.0000000E+00;  0.0000000E+00;  0.0000000E+00;0; -2.5962370E-03;  4.0000000E+04;  0.0000000E+00;  0.0000000E+00;  4.0000000E+04;  0.0000000E+00;  4.0000000E+04; -1.9939728E-03;  0.0000000E+00; -6.0226419E-04;  2.0881575E+03;
  9.9999998E-03;  9.9999998E-03; -3.4000000E-01;1861;  0.0000000E+00;  0.0000000E+00;  0.0000000E+00;  1.0029776E+03;  1.0000000E-01;  2.4668933E+03;0;  0.0000000E+00;  0.0000000E+00;  0.0000000E+00;0; -3.4213613E-03;  4.0000000E+04;  0.0000000E+00;  0.0000000E+00;  4.0000000E+04;  0.0000000E+00;  4.0000000E+04; -2.7286555E-03;  0.0000000E+00; -6.9270591E-04;  2.2289971E+03;
  9.9999998E-03;  9.9999998E-03; -3.3000001E-01;1862;  0.0000000E+00;  0.0000000E+00;  0.0000000E+00;  1.0038146E+03;  1.0000000E-01;  3.1603057E+03;0;  0.0000000E+00;  0.0000000E+00;  0.0000000E+00;0; -4.3923925E-03;  4.0000000E+04;  0.0000000E+00;  0.0000000E+00;  4.0000000E+04;  0.0000000E+00;  4.0000000E+04; -3.6232881E-03;  0.0000000E+00; -7.6910446E-04;  2.2573584E+03;
  9.9999998E-03;  9.9999998E-03; -3.1999999E-01;1863;  0.0000000E+00;  0.0000000E+00;  0.0000000E+00;  1.0047554E+03;  1.0000000E-01;  3.9397405E+03;0;  0.0000000E+00;  0.0000000E+00;  0.0000000E+00;0; -5.4941340E-03;  4.0000000E+04;  0.0000000E+00;  0.0000000E+00;  4.0000000E+04;  0.0000000E+00;  4.0000000E+04; -4.6749692E-03;  0.0000000E+00; -8.1916479E-04;  2.1298823E+03;
  9.9999998E-03;  9.9999998E-03; -3.1000000E-01;1864;  0.0000000E+00;  0.0000000E+00;  0.0000000E+00;  1.0057770E+03;  1.0000000E-01;  4.7861362E+03;0;  0.0000000E+00;  0.0000000E+00;  0.0000000E+00;0; -6.6932780E-03;  4.0000000E+04;  0.0000000E+00;  0.0000000E+00;  4.0000000E+04;  0.0000000E+00;  4.0000000E+04; -5.8658822E-03;  0.0000000E+00; -8.2739594E-04;  1.8007170E+03;
  2.0000000E-02;  9.9999998E-03; -4.4000000E-01;1881;  0.0000000E+00;  0.0000000E+00;  0.0000000E+00;  1.0000000E+03;  1.0000000E-01;  0.0000000E+00;0;  0.0000000E+00;  0.0000000E+00;  0.0000000E+00;0; -1.9769061E-05;  4.0000000E+04;  0.0000000E+00;  0.0000000E+00;  4.0000000E+04;  0.0000000E+00;  4.0000000E+04; -8.3226587E-06;  0.0000000E+00; -1.1446403E-05;  4.9988998E+01;
  2.0000000E-02;  9.9999998E-03; -4.3000001E-01;1882;  0.0000000E+00;  0.0000000E+00;  0.0000000E+00;  1.0000461E+03;  1.0000000E-01;  3.8221142E+01;0;  0.0000000E+00;  0.0000000E+00;  0.0000000E+00;0; -5.6853358E-05;  4.0000000E+04;  0.0000000E+00;  0.0000000E+00;  4.0000000E+04;  0.0000000E+00;  4.0000000E+04; -2.6237931E-05;  0.0000000E+00; -3.0615425E-05;  1.3050642E+02;
  2.0000000E-02;  9.9999998E-03; -4.1999999E-01;1883;  0.0000000E+00;  0.0000000E+00;  0.0000000E+00;  1.0001116E+03;  1.0000000E-01;  9.2441833E+01;0;  0.0000000E+00;  0.0000000E+00;  0.0000000E+00;0; -1.2730950E-04;  4.0000000E+04;  0.0000000E+00;  0.0000000E+00;  4.0000000E+04;  0.0000000E+00;  4.0000000E+04; -6.3488318E-05;  0.0000000E+00; -6.3821186E-05;  2.6921317E+02;
  2.0000000E-02;  9.9999998E-03; -4.1000000E-01;1884;  0.0000000E+00;  0.0000000E+00;  0.0000000E+00;  1.0002181E+03;  1.0000000E-01;  1.8063687E+02;0;  0.0000000E+00;  0.0000000E+00;  0.0000000E+00;0; -2.4270357E-04;  4.0000000E+04;  0.0000000E+00;  0.0000000E+00;  4.0000000E+04;  0.0000000E+00;  4.0000000E+04; -1.3038263E-04;  0.0000000E+00; -1.1232094E-04;  4.7004013E+02;
  2.0000000E-02;  9.9999998E-03; -4.0000001E-01;1885;  0.0000000E+00;  0.0000000E+00;  0.0000000E+00;  1.0004037E+03;  1.0000000E-01;  3.3450906E+02;0;  0.0000000E+00;  0.0000000E+00;  0.0000000E+00;0; -4.1516006E-04;  4.0000000E+04;  0.0000000E+00;  0.0000000E+00;  4.0000000E+04;  0.0000000E+00;  4.0000000E+04; -2.3980367E-04;  0.0000000E+00; -1.7535638E-04;  7.2401123E+02;
  2.0000000E-02;  9.9999998E-03; -3.8999999E-01;1886;  0.0000000E+00;  0.0000000E+00;  0.0000000E+00;  1.0006456E+03;  1.0000000E-01;  5.3479968E+02;0;  0.0000000E+00;  0.0000000E+00;  0.0000000E+00;0; -6.5871014E-04;  4.0000000E+04;  0.0000000E+00;  0.0000000E+00;  4.0000000E+04;  0.0000000E+00;  4.0000000E+04; -4.0760584E-04;  0.0000000E+00; -2.5110433E-04;  1.0132836E+03;
  2.0000000E-02;  9.9999998E-03; -3.8000000E-01;1887;  0.0000000E+00;  0.0000000E+00;  0.0000000E+00;  1.0009551E+03;  1.0000000E-01;  7.9128625E+02;0;  0.0000000E+00;  0.0000000E+00;  0.0000000E+00;0; -9.9007715E-04;  4.0000000E+04;  0.0000000E+00;  0.0000000E+00;  4.0000000E+04;  0.0000000E+00;  4.0000000E+04; -6.5272517E-04;  0.0000000E+00; -3.3735204E-04;  1.3165040E+03;
  2.0000000E-02;  9.9999998E-03; -3.7000000E-01;1888;  0.0000000E+00;  0.0000000E+00;  0.0000000E+00;  1.0013690E+03;  1.0000000E-01;  1.1341902E+03;0;  0.0000000E+00;  0.0000000E+00;  0.0000000E+00;0; -1.4282770E-03;  4.0000000E+04;  0.0000000E+00;  0.0000000E+00;  4.0000000E+04;  0.0000000E+00;  4.0000000E+04; -9.9675229E-04;  0.0000000E+00; -4.3152468E-04;  1.6118875E+03;
  2.0000000E-02;  9.9999998E-03; -3.6000001E-01;1889;  0.0000000E+00;  0.0000000E+00;  0.0000000E+00;  1.0018983E+03;  1.0000000E-01;  1.5726963E+03;0;  0.0000000E+00;  0.0000000E+00;  0.0000000E+00;0; -1.9929998E-03;  4.0000000E+04;  0.0000000E+00;  0.0000000E+00;  4.0000000E+04;  0.0000000E+00;  4.0000000E+04; -1.4627583E-03;  0.0000000E+00; -5.3024146E-04;  1.8773053E+03;
  2.0000000E-02;  9.9999998E-03; -3.4999999E-01;1890;  0.0000000E+00;  0.0000000E+00;  0.0000000E+00;  1.0025567E+03;  1.0000000E-01;  2.1181624E+03;0;  0.0000000E+00;  0.0000000E+00;  0.0000000E+00;0; -2.7018744E-03;  4.0000000E+04;  0.0000000E+00;  0.0000000E+00;  4.0000000E+04;  0.0000000E+00;  4.0000000E+04; -2.0732044E-03;  0.0000000E+00; -6.2867004E-04;  2.0888787E+03;
  2.0000000E-02;  9.9999998E-03; -3.4000000E-01;1891;  0.0000000E+00;  0.0000000E+00;  0.0000000E+00;  1.0033563E+03;  1.0000000E-01;  2.7806621E+03;0;  0.0000000E+00;  0.0000000E+00;  0.0000000E+00;0; -3.5667096E-03;  4.0000000E+04;  0.0000000E+00;  0.0000000E+00;  4.0000000E+04;  0.0000000E+00;  4.0000000E+04; -2.8468892E-03;  0.0000000E+00; -7.1982044E-04;  2.2187310E+03;
  2.0000000E-02;  9.9999998E-03; -3.3000001E-01;1892;  0.0000000E+00;  0.0000000E+00;  0.0000000E+00;  1.0042913E+03;  1.0000000E-01;  3.5552576E+03;0;  0.0000000E+00;  0.0000000E+00;  0.0000000E+00;0; -4.5889704E-03;  4.0000000E+04;  0.0000000E+00;  0.0000000E+00;  4.0000000E+04;  0.0000000E+00;  4.0000000E+04; -3.7950242E-03;  0.0000000E+00; -7.9394627E-04;  2.2329851E+03;
  2.0000000E-02;  9.9999998E-03; -3.1999999E-01;1893;  0.0000000E+00;  0.0000000E+00;  0.0000000E+00;  1.0053513E+03;  1.0000000E-01;  4.4334551E+03;0;  0.0000000E+00;  0.0000000E+00;  0.0000000E+00;0; -5.7550366E-03;  4.0000000E+04;  0.0000000E+00;  0.0000000E+00;  4.0000000E+04;  0.0000000E+00;  4.0000000E+04; -4.9167885E-03;  0.0000000E+00; -8.3824800E-04;  2.0912832E+03;
  2.0000000E-02;  9.9999998E-03; -3.1000000E-01;1894;  0.0000000E+00;  0.0000000E+00;  0.0000000E+00;  1.0064974E+03;  1.0000000E-01;  5.3829590E+03;0;  0.0000000E+00;  0.0000000E+00;  0.0000000E+00;0; -7.0323534E-03;  4.0000000E+04;  0.0000000E+00;  0.0000000E+00;  4.0000000E+04;  0.0000000E+00;  4.0000000E+04; -6.1950549E-03;  0.0000000E+00; -8.3729852E-04;  1.7539014E+03;
  2.9999999E-02;  9.9999998E-03; -4.4000000E-01;1911;  0.0000000E+00;  0.0000000E+00;  0.0000000E+00;  1.0000000E+03;  1.0000000E-01;  0.0000000E+00;0;  0.0000000E+00;  0.0000000E+00;  0.0000000E+00;0; -1.9188668E-05;  4.0000000E+04;  0.0000000E+00;  0.0000000E+00;  4.0000000E+04;  0.0000000E+00;  4.0000000E+04; -8.3656159E-06;  0.0000000E+00; -1.0823052E-05;  4.3578022E+01;
  2.9999999E-02;  9.9999998E-03; -4.3000001E-01;1912;  0.0000000E+00;  0.0000000E+00;  0.0000000E+00;  1.0000506E+03;  1.0000000E-01;  4.1875359E+01;0;  0.0000000E+00;  0.0000000E+00;  0.0000000E+00;0; -5.5761790E-05;  4.0000000E+04;  0.0000000E+00;  0.0000000E+00;  4.0000000E+04;  0.0000000E+00;  4.0000000E+04; -2.5973510E-05;  0.0000000E+00; -2.9788280E-05;  1.1690015E+02;
  2.9999999E-02;  9.9999998E-03; -4.1999999E-01;1913;  0.0000000E+00;  0.0000000E+00;  0.0000000E+00;  1.0001301E+03;  1.0000000E-01;  1.0775004E+02;0;  0.0000000E+00;  0.0000000E+00;  0.0000000E+00;0; -1.2568777E-04;  4.0000000E+04;  0.0000000E+00;  0.0000000E+00;  4.0000000E+04;  0.0000000E+00;  4.0000000E+04; -6.2144049E-05;  0.0000000E+00; -6.3543732E-05;  2.4908614E+02;
  2.9999999E-02;  9.9999998E-03; -4.1000000E-01;1914;  0.0000000E+00;  0.0000000E+00;  0.0000000E+00;  1.0002547E+03;  1.0000000E-01;  2.1105576E+02;0;  0.0000000E+00;  0.0000000E+00;  0.0000000E+00;0; -2.4055480E-04;  4.0000000E+04;  0.0000000E+00;  0.0000000E+00;  4.0000000E+04;  0.0000000E+00;  4.0000000E+04; -1.2676323E-04;  0.0000000E+00; -1.1379156E-04;  4.4735745E+02;
  2.9999999E-02;  9.9999998E-03; -4.0000001E-01;1915;  0.0000000E+00;  0.0000000E+00;  0.0000000E+00;  1.0004472E+03;  1.0000000E-01;  3.7045865E+02;0;  0.0000000E+00;  0.0000000E+00;  0.0000000E+00;0; -4.1237974E-04;  4.0000000E+04;  0.0000000E+00;  0.0000000E+00;  4.0000000E+04;  0.0000000E+00;  4.0000000E+04; -2.3250285E-04;  0.0000000E+00; -1.7987691E-04;  7.0363989E+02;
  2.9999999E-02;  9.9999998E-03; -3.8999999E-01;1916;  0.0000000E+00;  0.0000000E+00;  0.0000000E+00;  1.0007135E+03;  1.0000000E-01;  5.9109442E+02;0;  0.0000000E+00;  0.0000000E+00;  0.0000000E+00;0; -6.5504207E-04;  4.0000000E+04;  0.0000000E+00;  0.0000000E+00;  4.0000000E+04;  0.0000000E+00;  4.0000000E+04; -3.9529926E-04;  0.0000000E+00; -2.5974281E-04;  9.9825702E+02;
  2.9999999E-02;  9.9999998E-03; -3.8000000E-01;1917;  0.0000000E+00;  0.0000000E+00;  0.0000000E+00;  1.0010516E+03;  1.0000000E-01;  8.7118524E+02;0;  0.0000000E+00;  0.0000000E+00;  0.0000000E+00;0; -9.8517141E-04;  4.0000000E+04;  0.0000000E+00;  0.0000000E+00;  4.0000000E+04;  0.0000000E+00;  4.0000000E+04; -6.3450827E-04;  0.0000000E+00; -3.5066312E-04;  1.3066453E+03;
  2.9999999E-02;  9.9999998E-03; -3.7000000E-01;1918;  0.0000000E+00;  0.0000000E+00;  0.0000000E+00;  1.0015070E+03;  1.0000000E-01;  1.2485573E+03;0;  0.0000000E+00;  0.0000000E+00;  0.0000000E+00;0; -1.4218525E-03;  4.0000000E+04;  0.0000000E+00;  0.0000000E+00;  4.0000000E+04;  0.0000000E+00;  4.0000000E+04; -9.7252219E-04;  0.0000000E+00; -4.4933034E-04;  1.6036591E+03;
  2.9999999E-02;  9.9999998E-03; -3.6000001E-01;1919;  0.0000000E+00;  0.0000000E+00;  0.0000000E+00;  1.0020726E+03;  1.0000000E-01;  1.7170873E+03;0;  0.0000000E+00;  0.0000000E+00;  0.0000000E+00;0; -1.9851066E-03;  4.0000000E+04;  0.0000000E+00;  0.0000000E+00;  4.0000000E+04;  0.0000000E+00;  4.0000000E+04; -1.4336674E-03;  0.0000000E+00; -5.5143918E-04;  1.8645632E+03;
  2.9999999E-02;  9.9999998E-03; -3.4999999E-01;1920;  0.0000000E+00;  0.0000000E+00;  0.0000000E+00;  1.0027965E+03;  1.0000000E-01;  2.3168728E+03;0;  0.0000000E+00;  0.0000000E+00;  0.0000000E+00;0; -2.6931609E-03;  4.0000000E+04;  0.0000000E+00;  0.0000000E+00;  4.0000000E+04;  0.0000000E+00;  4.0000000E+04; -2.0420535E-03;  0.0000000E+00; -6.5110734E-04;  2.0639043E+03;
  2.9999999E-02;  9.9999998E-03; -3.4000000E-01;1921;  0.0000000E+00;  0.0000000E+00;  0.0000000E+00;  1.0036698E+03;  1.0000000E-01;  3.0404080E+03;0;  0.0000000E+00;  0.0000000E+00;  0.0000000E+00;0; -3.5586827E-03;  4.0000000E+04;  0.0000000E+00;  0.0000000E+00;  4.0000000E+04;  0.0000000E+00;  4.0000000E+04; -2.8183861E-03;  0.0000000E+00; -7.4029673E-04;  2.1740464E+03;
  2.9999999E-02;  9.9999998E-03; -3.3000001E-01;1922;  0.0000000E+00;  0.0000000E+00;  0.0000000E+00;  1.0046919E+03;  1.0000000E-01;  3.8870999E+03;0;  0.0000000E+00;  0.0000000E+00;  0.0000000E+00;0; -4.5843069E-03;  4.0000000E+04;  0.0000000E+00;  0.0000000E+00;  4.0000000E+04;  0.0000000E+00;  4.0000000E+04; -3.7758676E-03;  0.0000000E+00; -8.0843933E-04;  2.1638838E+03;
  2.9999999E-02;  9.9999998E-03; -3.1999999E-01;1923;  0.0000000E+00;  0.0000000E+00;  0.0000000E+00;  1.0058470E+03;  1.0000000E-01;  4.8442085E+03;0;  0.0000000E+00;  0.0000000E+00;  0.0000000E+00;0; -5.7579796E-03;  4.0000000E+04;  0.0000000E+00;  0.0000000E+00;  4.0000000E+04;  0.0000000E+00;  4.0000000E+04; -4.9153864E-03;  0.0000000E+00; -8.4259326E-04;  2.0001907E+03;
  2.9999999E-02;  9.9999998E-03; -3.1000000E-01;1924;  0.0000000E+00;  0.0000000E+00;  0.0000000E+00;  1.0070947E+03;  1.0000000E-01;  5.8778584E+03;0;  0.0000000E+00;  0.0000000E+00;  0.0000000E+00;0; -7.0497221E-03;  4.0000000E+04;  0.0000000E+00;  0.0000000E+00;  4.0000000E+04;  0.0000000E+00;  4.0000000E+04; -6.2209223E-03;  0.0000000E+00; -8.2879985E-04;  1.6607043E+03;
  3.9999999E-02;  9.9999998E-03; -4.4000000E-01;1941;  0.0000000E+00;  0.0000000E+00;  0.0000000E+00;  1.0000000E+03;  1.0000000E-01;  0.0000000E+00;0;  0.0000000E+00;  0.0000000E+00;  0.0000000E+00;0; -1.7565129E-05;  4.0000000E+04;  0.0000000E+00;  0.0000000E+00;  4.0000000E+04;  0.0000000E+00;  4.0000000E+04; -7.5536595E-06;  0.0000000E+00; -1.0011470E-05;  3.3221291E+01;
  3.9999999E-02;  9.9999998E-03; -4.3000001E-01;1942;  0.0000000E+00;  0.0000000E+00;  0.0000000E+00;  1.0000569E+03;  1.0000000E-01;  4.7109779E+01;0;  0.0000000E+00;  0.0000000E+00;  0.0000000E+00;0; -5.2072101E-05;  4.0000000E+04;  0.0000000E+00;  0.0000000E+00;  4.0000000E+04;  0.0000000E+00;  4.0000000E+04; -2.3201950E-05;  0.0000000E+00; -2.8870150E-05;  9.7515846E+01;
  3.9999999E-02;  9.9999998E-03; -4.1999999E-01;1943;  0.0000000E+00;  0.0000000E+00;  0.0000000E+00;  1.0001376E+03;  1.0000000E-01;  1.1407085E+02;0;  0.0000000E+00;  0.0000000E+00;  0.0000000E+00;0; -1.1871505E-04;  4.0000000E+04;  0.0000000E+00;  0.0000000E+00;  4.0000000E+04;  0.0000000E+00;  4.0000000E+04; -5.5240205E-05;  0.0000000E+00; -6.3474843E-05;  2.2360297E+02;
  3.9999999E-02;  9.9999998E-03; -4.1000000E-01;1944;  0.0000000E+00;  0.0000000E+00;  0.0000000E+00;  1.0002783E+03;  1.0000000E-01;  2.3061076E+02;0;  0.0000000E+00;  0.0000000E+00;  0.0000000E+00;0; -2.2870523E-04;  4.0000000E+04;  0.0000000E+00;  0.0000000E+00;  4.0000000E+04;  0.0000000E+00;  4.0000000E+04; -1.1273524E-04;  0.0000000E+00; -1.1597000E-04;  4.2261121E+02;
  3.9999999E-02;  9.9999998E-03; -4.0000001E-01;1945;  0.0000000E+00;  0.0000000E+00;  0.0000000E+00;  1.0004854E+03;  1.0000000E-01;  4.0216147E+02;0;  0.0000000E+00;  0.0000000E+00;  0.0000000E+00;0; -3.9347797E-04;  4.0000000E+04;  0.0000000E+00;  0.0000000E+00;  4.0000000E+04;  0.0000000E+00;  4.0000000E+04; -2.0768181E-04;  0.0000000E+00; -1.8579615E-04;  6.8653564E+02;
  3.9999999E-02;  9.9999998E-03; -3.8999999E-01;1946;  0.0000000E+00;  0.0000000E+00;  0.0000000E+00;  1.0007648E+03;  1.0000000E-01;  6.3366107E+02;0;  0.0000000E+00;  0.0000000E+00;  0.0000000E+00;0; -6.2608637E-04;  4.0000000E+04;  0.0000000E+00;  0.0000000E+00;  4.0000000E+04;  0.0000000E+00;  4.0000000E+04; -3.5550460E-04;  0.0000000E+00; -2.7058178E-04;  9.9250159E+02;
  3.9999999E-02;  9.9999998E-03; -3.8000000E-01;1947;  0.0000000E+00;  0.0000000E+00;  0.0000000E+00;  1.0011207E+03;  1.0000000E-01;  9.2846759E+02;0;  0.0000000E+00;  0.0000000E+00;  0.0000000E+00;0; -9.4223593E-04;  4.0000000E+04;  0.0000000E+00;  0.0000000E+00;  4.0000000E+04;  0.0000000E+00;  4.0000000E+04; -5.7530939E-04;  0.0000000E+00; -3.6692651E-04;  1.3115872E+03;
  3.9999999E-02;  9.9999998E-03; -3.7000000E-01;1948;  0.0000000E+00;  0.0000000E+00;  0.0000000E+00;  1.0016066E+03;  1.0000000E-01;  1.3310240E+03;0;  0.0000000E+00;  0.0000000E+00;  0.0000000E+00;0; -1.3601296E-03;  4.0000000E+04;  0.0000000E+00;  0.0000000E+00;  4.0000000E+04;  0.0000000E+00;  4.0000000E+04; -8.8954263E-04;  0.0000000E+00; -4.7058699E-04;  1.6143868E+03;
  3.9999999E-02;  9.9999998E-03; -3.6000001E-01;1949;  0.0000000E+00;  0.0000000E+00;  0.0000000E+00;  1.0022239E+03;  1.0000000E-01;  1.8424170E+03;0;  0.0000000E+00;  0.0000000E+00;  0.0000000E+00;0; -1.8990638E-03;  4.0000000E+04;  0.0000000E+00;  0.0000000E+00;  4.0000000E+04;  0.0000000E+00;  4.0000000E+04; -1.3228813E-03;  0.0000000E+00; -5.7618256E-04;  1.8725924E+03;
  3.9999999E-02;  9.9999998E-03; -3.4999999E-01;1950;  0.0000000E+00;  0.0000000E+00;  0.0000000E+00;  1.0029896E+03;  1.0000000E-01;  2.4768682E+03;0;  0.0000000E+00;  0.0000000E+00;  0.0000000E+00;0; -2.5766899E-03;  4.0000000E+04;  0.0000000E+00;  0.0000000E+00;  4.0000000E+04;  0.0000000E+00;  4.0000000E+04; -1.9000277E-03;  0.0000000E+00; -6.7666225E-04;  2.0584871E+03;
  3.9999999E-02;  9.9999998E-03; -3.4000000E-01;1951;  0.0000000E+00;  0.0000000E+00;  0.0000000E+00;  1.0039188E+03;  1.0000000E-01;  3.2466243E+03;0;  0.0000000E+00;  0.0000000E+00;  0.0000000E+00;0; -3.4053002E-03;  4.0000000E+04;  0.0000000E+00;  0.0000000E+00;  4.0000000E+04;  0.0000000E+00;  4.0000000E+04; -2.6424269E-03;  0.0000000E+00; -7.6287339E-04;  2.1443875E+03;
  3.9999999E-02;  9.9999998E-03; -3.3000001E-01;1952;  0.0000000E+00;  0.0000000E+00;  0.0000000E+00;  1.0050046E+03;  1.0000000E-01;  4.1461543E+03;0;  0.0000000E+00;  0.0000000E+00;  0.0000000E+00;0; -4.3875976E-03;  4.0000000E+04;  0.0000000E+00;  0.0000000E+00;  4.0000000E+04;  0.0000000E+00;  4.0000000E+04; -3.5641324E-03;  0.0000000E+00; -8.2346500E-04;  2.1031609E+03;
  3.9999999E-02;  9.9999998E-03; -3.1999999E-01;1953;  0.0000000E+00;  0.0000000E+00;  0.0000000E+00;  1.0062257E+03;  1.0000000E-01;  5.1578789E+03;0;  0.0000000E+00;  0.0000000E+00;  0.0000000E+00;0; -5.5127060E-03;  4.0000000E+04;  0.0000000E+00;  0.0000000E+00;  4.0000000E+04;  0.0000000E+00;  4.0000000E+04; -4.6670670E-03;  0.0000000E+00; -8.4563886E-04;  1.9128174E+03;
  3.9999999E-02;  9.9999998E-03; -3.1000000E-01;1954;  0.0000000E+00;  0.0000000E+00;  0.0000000E+00;  1.0075493E+03;  1.0000000E-01;  6.2544404E+03;0;  0.0000000E+00;  0.0000000E+00;  0.0000000E+00;0; -6.7538451E-03;  4.0000000E+04;  0.0000000E+00;  0.0000000E+00;  4.0000000E+04;  0.0000000E+00;  4.0000000E+04; -5.9363302E-03;  0.0000000E+00; -8.1751496E-04;  1.5776046E+03;
  5.0000001E-02;  9.9999998E-03; -4.4000000E-01;1971;  0.0000000E+00;  0.0000000E+00;  0.0000000E+00;  1.0000000E+03;  1.0000000E-01;  0.0000000E+00;0;  0.0000000E+00;  0.0000000E+00;  0.0000000E+00;0; -1.5396787E-05;  4.0000000E+04;  0.0000000E+00;  0.0000000E+00;  4.0000000E+04;  0.0000000E+00;  4.0000000E+04; -5.8731607E-06;  0.0000000E+00; -9.5236255E-06;  2.1734570E+01;
  5.0000001E-02;  9.9999998E-03; -4.3000001E-01;1972;  0.0000000E+00;  0.0000000E+00;  0.0000000E+00;  1.0000646E+03;  1.0000000E-01;  5.3529350E+01;0;  0.0000000E+00;  0.0000000E+00;  0.0000000E+00;0; -4.6779962E-05;  4.0000000E+04;  0.0000000E+00;  0.0000000E+00;  4.0000000E+04;  0.0000000E+00;  4.0000000E+04; -1.7989125E-05;  0.0000000E+00; -2.8790837E-05;  7.9254028E+01;
  5.0000001E-02;  9.9999998E-03; -4.1999999E-01;1973;  0.0000000E+00;  0.0000000E+00;  0.0000000E+00;  1.0001482E+03;  1.0000000E-01;  1.2276196E+02;0;  0.0000000E+00;  0.0000000E+00;  0.0000000E+00;0; -1.0817386E-04;  4.0000000E+04;  0.0000000E+00;  0.0000000E+00;  4.0000000E+04;  0.0000000E+00;  4.0000000E+04; -4.3135180E-05;  0.0000000E+00; -6.5038679E-05;  2.0536662E+02;
  5.0000001E-02;  9.9999998E-03; -4.1000000E-01;1974;  0.0000000E+00;  0.0000000E+00;  0.0000000E+00;  1.0002839E+03;  1.0000000E-01;  2.3525261E+02;0;  0.0000000E+00;  0.0000000E+00;  0.0000000E+00;0; -2.1012401E-04;  4.0000000E+04;  0.0000000E+00;  0.0000000E+00;  4.0000000E+04;  0.0000000E+00;  4.0000000E+04; -8.9228917E-05;  0.0000000E+00; -1.2089509E-04;  4.1449210E+02;
  5.0000001E-02;  9.9999998E-03; -4.0000001E-01;1975;  0.0000000E+00;  0.0000000E+00;  0.0000000E+00;  1.0005021E+03;  1.0000000E-01;  4.1598822E+02;0;  0.0000000E+00;  0.0000000E+00;  0.0000000E+00;0; -3.6301897E-04;  4.0000000E+04;  0.0000000E+00;  0.0000000E+00;  4.0000000E+04;  0.0000000E+00;  4.0000000E+04; -1.6717955E-04;  0.0000000E+00; -1.9583943E-04;  6.9709094E+02;
  5.0000001E-02;  9.9999998E-03; -3.8999999E-01;1976;  0.0000000E+00;  0.0000000E+00;  0.0000000E+00;  1.0007965E+03;  1.0000000E-01;  6.5993195E+02;0;  0.0000000E+00;  0.0000000E+00;  0.0000000E+00;0; -5.7853042E-04;  4.0000000E+04;  0.0000000E+00;  0.0000000E+00;  4.0000000E+04;  0.0000000E+00;  4.0000000E+04; -2.9153173E-04;  0.0000000E+00; -2.8699869E-04;  1.0258696E+03;
  5.0000001E-02;  9.9999998E-03; -3.8000000E-01;1977;  0.0000000E+00;  0.0000000E+00;  0.0000000E+00;  1.0011761E+03;  1.0000000E-01;  9.7439221E+02;0;  0.0000000E+00;  0.0000000E+00;  0.0000000E+00;0; -8.7087858E-04;  4.0000000E+04;  0.0000000E+00;  0.0000000E+00;  4.0000000E+04;  0.0000000E+00;  4.0000000E+04; -4.8072232E-04;  0.0000000E+00; -3.9015623E-04;  1.3666550E+03;
  5.0000001E-02;  9.9999998E-03; -3.7000000E-01;1978;  0.0000000E+00;  0.0000000E+00;  0.0000000E+00;  1.0016785E+03;  1.0000000E-01;  1.3905780E+03;0;  0.0000000E+00;  0.0000000E+00;  0.0000000E+00;0; -1.2567651E-03;  4.0000000E+04;  0.0000000E+00;  0.0000000E+00;  4.0000000E+04;  0.0000000E+00;  4.0000000E+04; -7.5668818E-04;  0.0000000E+00; -5.0007692E-04;  1.6850580E+03;
  5.0000001E-02;  9.9999998E-03; -3.6000001E-01;1979;  0.0000000E+00;  0.0000000E+00;  0.0000000E+00;  1.0023247E+03;  1.0000000E-01;  1.9259702E+03;0;  0.0000000E+00;  0.0000000E+00;  0.0000000E+00;0; -1.7538251E-03;  4.0000000E+04;  0.0000000E+00;  0.0000000E+00;  4.0000000E+04;  0.0000000E+00;  4.0000000E+04; -1.1435634E-03;  0.0000000E+00; -6.1026169E-04;  1.9483508E+03;
  5.0000001E-02;  9.9999998E-03; -3.4999999E-01;1980;  0.0000000E+00;  0.0000000E+00;  0.0000000E+00;  1.0031264E+03;  1.0000000E-01;  2.5901489E+03;0;  0.0000000E+00;  0.0000000E+00;  0.0000000E+00;0; -2.3779194E-03;  4.0000000E+04;  0.0000000E+00;  0.0000000E+00;  4.0000000E+04;  0.0000000E+00;  4.0000000E+04; -1.6654183E-03;  0.0000000E+00; -7.1250106E-04;  2.1257544E+03;
  5.0000001E-02;  9.9999998E-03; -3.4000000E-01;1981;  0.0000000E+00;  0.0000000E+00;  0.0000000E+00;  1.0040926E+03;  1.0000000E-01;  3.3906201E+03;0;  0.0000000E+00;  0.0000000E+00;  0.0000000E+00;0; -3.1395783E-03;  4.0000000E+04;  0.0000000E+00;  0.0000000E+00;  4.0000000E+04;  0.0000000E+00;  4.0000000E+04; -2.3430337E-03;  0.0000000E+00; -7.9654466E-04;  2.1889124E+03;
  5.0000001E-02;  9.9999998E-03; -3.3000001E-01;1982;  0.0000000E+00;  0.0000000E+00;  0.0000000E+00;  1.0052239E+03;  1.0000000E-01;  4.3279766E+03;0;  0.0000000E+00;  0.0000000E+00;  0.0000000E+00;0; -4.0402608E-03;  4.0000000E+04;  0.0000000E+00;  0.0000000E+00;  4.0000000E+04;  0.0000000E+00;  4.0000000E+04; -3.1899896E-03;  0.0000000E+00; -8.5027120E-04;  2.1145259E+03;
  5.0000001E-02;  9.9999998E-03; -3.1999999E-01;1983;  0.0000000E+00;  0.0000000E+00;  0.0000000E+00;  1.0064951E+03;  1.0000000E-01;  5.3809834E+03;0;  0.0000000E+00;  0.0000000E+00;  0.0000000E+00;0; -5.0692284E-03;  4.0000000E+04;  0.0000000E+00;  0.0000000E+00;  4.0000000E+04;  0.0000000E+00;  4.0000000E+04; -4.2082816E-03;  0.0000000E+00; -8.6094678E-04;  1.8926331E+03;
  5.0000001E-02;  9.9999998E-03; -3.1000000E-01;1984;  0.0000000E+00;  0.0000000E+00;  0.0000000E+00;  1.0078588E+03;  1.0000000E-01;  6.5109268E+03;0;  0.0000000E+00;  0.0000000E+00;  0.0000000E+00;0; -6.2024076E-03;  4.0000000E+04;  0.0000000E+00;  0.0000000E+00;  4.0000000E+04;  0.0000000E+00;  4.0000000E+04; -5.3840871E-03;  0.0000000E+00; -8.1832061E-04;  1.5539829E+03;
  5.9999999E-02;  9.9999998E-03; -4.4000000E-01;2001;  0.0000000E+00;  0.0000000E+00;  0.0000000E+00;  1.0000000E+03;  1.0000000E-01;  0.0000000E+00;0;  0.0000000E+00;  0.0000000E+00;  0.0000000E+00;0; -1.3278776E-05;  4.0000000E+04;  0.0000000E+00;  0.0000000E+00;  4.0000000E+04;  0.0000000E+00;  4.0000000E+04; -3.4771792E-06;  0.0000000E+00; -9.8015971E-06;  1.3131257E+01;
  5.9999999E-02;  9.9999998E-03; -4.3000001E-01;2002;  0.0000000E+00;  0.0000000E+00;  0.0000000E+00;  1.0000660E+03;  1.0000000E-01;  5.4615738E+01;0;  0.0000000E+00;  0.0000000E+00;  0.0000000E+00;0; -4.1221909E-05;  4.0000000E+04;  0.0000000E+00;  0.0000000E+00;  4.0000000E+04;  0.0000000E+00;  4.0000000E+04; -1.0879984E-05;  0.0000000E+00; -3.0341924E-05;  7.0880615E+01;
  5.9999999E-02;  9.9999998E-03; -4.1999999E-01;2003;  0.0000000E+00;  0.0000000E+00;  0.0000000E+00;  1.0001510E+03;  1.0000000E-01;  1.2513226E+02;0;  0.0000000E+00;  0.0000000E+00;  0.0000000E+00;0; -9.6659212E-05;  4.0000000E+04;  0.0000000E+00;  0.0000000E+00;  4.0000000E+04;  0.0000000E+00;  4.0000000E+04; -2.7139833E-05;  0.0000000E+00; -6.9519381E-05;  2.0863567E+02;
  5.9999999E-02;  9.9999998E-03; -4.1000000E-01;2004;  0.0000000E+00;  0.0000000E+00;  0.0000000E+00;  1.0002894E+03;  1.0000000E-01;  2.3979568E+02;0;  0.0000000E+00;  0.0000000E+00;  0.0000000E+00;0; -1.8922138E-04;  4.0000000E+04;  0.0000000E+00;  0.0000000E+00;  4.0000000E+04;  0.0000000E+00;  4.0000000E+04; -5.8824280E-05;  0.0000000E+00; -1.3039709E-04;  4.4236777E+02;
  5.9999999E-02;  9.9999998E-03; -4.0000001E-01;2005;  0.0000000E+00;  0.0000000E+00;  0.0000000E+00;  1.0005151E+03;  1.0000000E-01;  4.2675336E+02;0;  0.0000000E+00;  0.0000000E+00;  0.0000000E+00;0; -3.2796123E-04;  4.0000000E+04;  0.0000000E+00;  0.0000000E+00;  4.0000000E+04;  0.0000000E+00;  4.0000000E+04; -1.1571679E-04;  0.0000000E+00; -2.1224446E-04;  7.5939398E+02;
  5.9999999E-02;  9.9999998E-03; -3.8999999E-01;2006;  0.0000000E+00;  0.0000000E+00;  0.0000000E+00;  1.0008202E+03;  1.0000000E-01;  6.7948694E+02;0;  0.0000000E+00;  0.0000000E+00;  0.0000000E+00;0; -5.2308536E-04;  4.0000000E+04;  0.0000000E+00;  0.0000000E+00;  4.0000000E+04;  0.0000000E+00;  4.0000000E+04; -2.1150339E-04;  0.0000000E+00; -3.1158197E-04;  1.1270245E+03;
  5.9999999E-02;  9.9999998E-03; -3.8000000E-01;2007;  0.0000000E+00;  0.0000000E+00;  0.0000000E+00;  1.0012146E+03;  1.0000000E-01;  1.0062925E+03;0;  0.0000000E+00;  0.0000000E+00;  0.0000000E+00;0; -7.8715826E-04;  4.0000000E+04;  0.0000000E+00;  0.0000000E+00;  4.0000000E+04;  0.0000000E+00;  4.0000000E+04; -3.6380603E-04;  0.0000000E+00; -4.2335223E-04;  1.5051647E+03;
  5.9999999E-02;  9.9999998E-03; -3.7000000E-01;2008;  0.0000000E+00;  0.0000000E+00;  0.0000000E+00;  1.0017266E+03;  1.0000000E-01;  1.4303793E+03;0;  0.0000000E+00;  0.0000000E+00;  0.0000000E+00;0; -1.1348369E-03;  4.0000000E+04;  0.0000000E+00;  0.0000000E+00;  4.0000000E+04;  0.0000000E+00;  4.0000000E+04; -5.9350015E-04;  0.0000000E+00; -5.4133678E-04;  1.8538412E+03;
  5.9999999E-02;  9.9999998E-03; -3.6000001E-01;2009;  0.0000000E+00;  0.0000000E+00;  0.0000000E+00;  1.0023872E+03;  1.0000000E-01;  1.9777218E+03;0;  0.0000000E+00;  0.0000000E+00;  0.0000000E+00;0; -1.5812148E-03;  4.0000000E+04;  0.0000000E+00;  0.0000000E+00;  4.0000000E+04;  0.0000000E+00;  4.0000000E+04; -9.2325336E-04;  0.0000000E+00; -6.5796147E-04;  2.1355654E+03;
  5.9999999E-02;  9.9999998E-03; -3.4999999E-01;2010;  0.0000000E+00;  0.0000000E+00;  0.0000000E+00;  1.0032103E+03;  1.0000000E-01;  2.6596780E+03;0;  0.0000000E+00;  0.0000000E+00;  0.0000000E+00;0; -2.1391655E-03;  4.0000000E+04;  0.0000000E+00;  0.0000000E+00;  4.0000000E+04;  0.0000000E+00;  4.0000000E+04; -1.3752447E-03;  0.0000000E+00; -7.6392083E-04;  2.3154705E+03;
  5.9999999E-02;  9.9999998E-03; -3.4000000E-01;2011;  0.0000000E+00;  0.0000000E+00;  0.0000000E+00;  1.0042090E+03;  1.0000000E-01;  3.4871113E+03;0;  0.0000000E+00;  0.0000000E+00;  0.0000000E+00;0; -2.8160978E-03;  4.0000000E+04;  0.0000000E+00;  0.0000000E+00;  4.0000000E+04;  0.0000000E+00;  4.0000000E+04; -1.9681801E-03;  0.0000000E+00; -8.4791763E-04;  2.3624087E+03;
  5.9999999E-02;  9.9999998E-03; -3.3000001E-01;2012;  0.0000000E+00;  0.0000000E+00;  0.0000000E+00;  1.0053667E+03;  1.0000000E-01;  4.4461953E+03;0;  0.0000000E+00;  0.0000000E+00;  0.0000000E+00;0; -3.6108219E-03;  4.0000000E+04;  0.0000000E+00;  0.0000000E+00;  4.0000000E+04;  0.0000000E+00;  4.0000000E+04; -2.7138346E-03;  0.0000000E+00; -8.9698727E-04;  2.2531326E+03;
  5.9999999E-02;  9.9999998E-03; -3.1999999E-01;2013;  0.0000000E+00;  0.0000000E+00;  0.0000000E+00;  1.0066639E+03;  1.0000000E-01;  5.5209302E+03;0;  0.0000000E+00;  0.0000000E+00;  0.0000000E+00;0; -4.5113643E-03;  4.0000000E+04;  0.0000000E+00;  0.0000000E+00;  4.0000000E+04;  0.0000000E+00;  4.0000000E+04; -3.6133414E-03;  0.0000000E+00; -8.9802279E-04;  1.9829003E+03;
  5.9999999E-02;  9.9999998E-03; -3.1000000E-01;2014;  0.0000000E+00;  0.0000000E+00;  0.0000000E+00;  1.0080481E+03;  1.0000000E-01;  6.6676631E+03;0;  0.0000000E+00;  0.0000000E+00;  0.0000000E+00;0; -5.4950784E-03;  4.0000000E+04;  0.0000000E+00;  0.0000000E+00;  4.0000000E+04;  0.0000000E+00;  4.0000000E+04; -4.6538198E-03;  0.0000000E+00; -8.4125873E-04;  1.5964392E+03;
  7.0000000E-02;  9.9999998E-03; -4.4000000E-01;2031;  0.0000000E+00;  0.0000000E+00;  0.0000000E+00;  1.0000000E+03;  1.0000000E-01;  0.0000000E+00;0;  0.0000000E+00;  0.0000000E+00;  0.0000000E+00;0; -1.1765367E-05;  4.0000000E+04;  0.0000000E+00;  0.0000000E+00;  4.0000000E+04;  0.0000000E+00;  4.0000000E+04; -6.6494164E-07;  0.0000000E+00; -1.1100426E-05;  1.1886292E+01;
  7.0000000E-02;  9.9999998E-03; -4.3000001E-01;2032;  0.0000000E+00;  0.0000000E+00;  0.0000000E+00;  1.0000672E+03;  1.0000000E-01;  5.5702129E+01;0;  0.0000000E+00;  0.0000000E+00;  0.0000000E+00;0; -3.6837951E-05;  4.0000000E+04;  0.0000000E+00;  0.0000000E+00;  4.0000000E+04;  0.0000000E+00;  4.0000000E+04; -2.7659471E-06;  0.0000000E+00; -3.4072003E-05;  8.0965927E+01;
  7.0000000E-02;  9.9999998E-03; -4.1999999E-01;2033;  0.0000000E+00;  0.0000000E+00;  0.0000000E+00;  1.0001518E+03;  1.0000000E-01;  1.2572484E+02;0;  0.0000000E+00;  0.0000000E+00;  0.0000000E+00;0; -8.7040942E-05;  4.0000000E+04;  0.0000000E+00;  0.0000000E+00;  4.0000000E+04;  0.0000000E+00;  4.0000000E+04; -9.2236914E-06;  0.0000000E+00; -7.7817254E-05;  2.4578523E+02;
  7.0000000E-02;  9.9999998E-03; -4.1000000E-01;2034;  0.0000000E+00;  0.0000000E+00;  0.0000000E+00;  1.0002938E+03;  1.0000000E-01;  2.4344991E+02;0;  0.0000000E+00;  0.0000000E+00;  0.0000000E+00;0; -1.7101414E-04;  4.0000000E+04;  0.0000000E+00;  0.0000000E+00;  4.0000000E+04;  0.0000000E+00;  4.0000000E+04; -2.5484589E-05;  0.0000000E+00; -1.4552954E-04;  5.2190698E+02;
  7.0000000E-02;  9.9999998E-03; -4.0000001E-01;2035;  0.0000000E+00;  0.0000000E+00;  0.0000000E+00;  1.0005143E+03;  1.0000000E-01;  4.2606201E+02;0;  0.0000000E+00;  0.0000000E+00;  0.0000000E+00;0; -2.9680022E-04;  4.0000000E+04;  0.0000000E+00;  0.0000000E+00;  4.0000000E+04;  0.0000000E+00;  4.0000000E+04; -6.0646627E-05;  0.0000000E+00; -2.3615360E-04;  8.9208563E+02;
  7.0000000E-02;  9.9999998E-03; -3.8999999E-01;2036;  0.0000000E+00;  0.0000000E+00;  0.0000000E+00;  1.0008249E+03;  1.0000000E-01;  6.8343744E+02;0;  0.0000000E+00;  0.0000000E+00;  0.0000000E+00;0; -4.7336175E-04;  4.0000000E+04;  0.0000000E+00;  0.0000000E+00;  4.0000000E+04;  0.0000000E+00;  4.0000000E+04; -1.2777931E-04;  0.0000000E+00; -3.4558243E-04;  1.3171910E+03;
  7.0000000E-02;  9.9999998E-03; -3.8000000E-01;2037;  0.0000000E+00;  0.0000000E+00;  0.0000000E+00;  1.0012247E+03;  1.0000000E-01;  1.0146874E+03;0;  0.0000000E+00;  0.0000000E+00;  0.0000000E+00;0; -7.1142119E-04;  4.0000000E+04;  0.0000000E+00;  0.0000000E+00;  4.0000000E+04;  0.0000000E+00;  4.0000000E+04; -2.4352282E-04;  0.0000000E+00; -4.6789838E-04;  1.7507831E+03;
  7.0000000E-02;  9.9999998E-03; -3.7000000E-01;2038;  0.0000000E+00;  0.0000000E+00;  0.0000000E+00;  1.0017506E+03;  1.0000000E-01;  1.4503293E+03;0;  0.0000000E+00;  0.0000000E+00;  0.0000000E+00;0; -1.0230233E-03;  4.0000000E+04;  0.0000000E+00;  0.0000000E+00;  4.0000000E+04;  0.0000000E+00;  4.0000000E+04; -4.2713707E-04;  0.0000000E+00; -5.9588620E-04;  2.1473792E+03;
  7.0000000E-02;  9.9999998E-03; -3.6000001E-01;2039;  0.0000000E+00;  0.0000000E+00;  0.0000000E+00;  1.0024271E+03;  1.0000000E-01;  2.0108074E+03;0;  0.0000000E+00;  0.0000000E+00;  0.0000000E+00;0; -1.4199689E-03;  4.0000000E+04;  0.0000000E+00;  0.0000000E+00;  4.0000000E+04;  0.0000000E+00;  4.0000000E+04; -6.9899694E-04;  0.0000000E+00; -7.2097202E-04;  2.4644011E+03;
  7.0000000E-02;  9.9999998E-03; -3.4999999E-01;2040;  0.0000000E+00;  0.0000000E+00;  0.0000000E+00;  1.0032723E+03;  1.0000000E-01;  2.7110344E+03;0;  0.0000000E+00;  0.0000000E+00;  0.0000000E+00;0; -1.9112946E-03;  4.0000000E+04;  0.0000000E+00;  0.0000000E+00;  4.0000000E+04;  0.0000000E+00;  4.0000000E+04; -1.0784202E-03;  0.0000000E+00; -8.3287450E-04;  2.6613391E+03;
  7.0000000E-02;  9.9999998E-03; -3.4000000E-01;2041;  0.0000000E+00;  0.0000000E+00;  0.0000000E+00;  1.0042813E+03;  1.0000000E-01;  3.5469614E+03;0;  0.0000000E+00;  0.0000000E+00;  0.0000000E+00;0; -2.5002784E-03;  4.0000000E+04;  0.0000000E+00;  0.0000000E+00;  4.0000000E+04;  0.0000000E+00;  4.0000000E+04; -1.5809586E-03;  0.0000000E+00; -9.1931975E-04;  2.6997690E+03;
  7.0000000E-02;  9.9999998E-03; -3.3000001E-01;2042;  0.0000000E+00;  0.0000000E+00;  0.0000000E+00;  1.0054621E+03;  1.0000000E-01;  4.5252056E+03;0;  0.0000000E+00;  0.0000000E+00;  0.0000000E+00;0; -3.1818212E-03;  4.0000000E+04;  0.0000000E+00;  0.0000000E+00;  4.0000000E+04;  0.0000000E+00;  4.0000000E+04; -2.2154767E-03;  0.0000000E+00; -9.6634438E-04;  2.5474341E+03;
  7.0000000E-02;  9.9999998E-03; -3.1999999E-01;2043;  0.0000000E+00;  0.0000000E+00;  0.0000000E+00;  1.0067728E+03;  1.0000000E-01;  5.6111992E+03;0;  0.0000000E+00;  0.0000000E+00;  0.0000000E+00;0; -3.9412547E-03;  4.0000000E+04;  0.0000000E+00;  0.0000000E+00;  4.0000000E+04;  0.0000000E+00;  4.0000000E+04; -2.9813859E-03;  0.0000000E+00; -9.5986895E-04;  2.1897136E+03;
  7.0000000E-02;  9.9999998E-03; -3.1000000E-01;2044;  0.0000000E+00;  0.0000000E+00;  0.0000000E+00;  1.0081588E+03;  1.0000000E-01;  6.7594136E+03;0;  0.0000000E+00;  0.0000000E+00;  0.0000000E+00;0; -4.7557186E-03;  4.0000000E+04;  0.0000000E+00;  0.0000000E+00;  4.0000000E+04;  0.0000000E+00;  4.0000000E+04; -3.8664967E-03;  0.0000000E+00; -8.8922202E-04;  1.6605865E+03;
  7.9999998E-02;  9.9999998E-03; -4.4000000E-01;2061;  0.0000000E+00;  0.0000000E+00;  0.0000000E+00;  1.0000000E+03;  1.0000000E-01;  0.0000000E+00;0;  0.0000000E+00;  0.0000000E+00;  0.0000000E+00;0; -1.1286112E-05;  4.0000000E+04;  0.0000000E+00;  0.0000000E+00;  4.0000000E+04;  0.0000000E+00;  4.0000000E+04;  2.1930530E-06;  0.0000000E+00; -1.3479164E-05;  2.1622303E+01;
  7.9999998E-02;  9.9999998E-03; -4.3000001E-01;2062;  0.0000000E+00;  0.0000000E+00;  0.0000000E+00;  1.0000687E+03;  1.0000000E-01;  5.6887280E+01;0;  0.0000000E+00;  0.0000000E+00;  0.0000000E+00;0; -3.4856814E-05;  4.0000000E+04;  0.0000000E+00;  0.0000000E+00;  4.0000000E+04;  0.0000000E+00;  4.0000000E+04;  5.3287276E-06;  0.0000000E+00; -4.0185543E-05;  1.1532032E+02;
  7.9999998E-02;  9.9999998E-03; -4.1999999E-01;2063;  0.0000000E+00;  0.0000000E+00;  0.0000000E+00;  1.0001441E+03;  1.0000000E-01;  1.1940403E+02;0;  0.0000000E+00;  0.0000000E+00;  0.0000000E+00;0; -8.1899896E-05;  4.0000000E+04;  0.0000000E+00;  0.0000000E+00;  4.0000000E+04;  0.0000000E+00;  4.0000000E+04;  8.1692042E-06;  0.0000000E+00; -9.0069101E-05;  3.2415952E+02;
  7.9999998E-02;  9.9999998E-03; -4.1000000E-01;2064;  0.0000000E+00;  0.0000000E+00;  0.0000000E+00;  1.0002914E+03;  1.0000000E-01;  2.4147466E+02;0;  0.0000000E+00;  0.0000000E+00;  0.0000000E+00;0; -1.6064379E-04;  4.0000000E+04;  0.0000000E+00;  0.0000000E+00;  4.0000000E+04;  0.0000000E+00;  4.0000000E+04;  5.6569143E-06;  0.0000000E+00; -1.6630070E-04;  6.6143195E+02;
  7.9999998E-02;  9.9999998E-03; -4.0000001E-01;2065;  0.0000000E+00;  0.0000000E+00;  0.0000000E+00;  1.0005187E+03;  1.0000000E-01;  4.2971625E+02;0;  0.0000000E+00;  0.0000000E+00;  0.0000000E+00;0; -2.7864403E-04;  4.0000000E+04;  0.0000000E+00;  0.0000000E+00;  4.0000000E+04;  0.0000000E+00;  4.0000000E+04; -1.1169743E-05;  0.0000000E+00; -2.6747430E-04;  1.1036554E+03;
  7.9999998E-02;  9.9999998E-03; -3.8999999E-01;2066;  0.0000000E+00;  0.0000000E+00;  0.0000000E+00;  1.0008237E+03;  1.0000000E-01;  6.8244983E+02;0;  0.0000000E+00;  0.0000000E+00;  0.0000000E+00;0; -4.4366100E-04;  4.0000000E+04;  0.0000000E+00;  0.0000000E+00;  4.0000000E+04;  0.0000000E+00;  4.0000000E+04; -5.4899734E-05;  0.0000000E+00; -3.8876128E-04;  1.6046084E+03;
  7.9999998E-02;  9.9999998E-03; -3.8000000E-01;2067;  0.0000000E+00;  0.0000000E+00;  0.0000000E+00;  1.0012328E+03;  1.0000000E-01;  1.0214032E+03;0;  0.0000000E+00;  0.0000000E+00;  0.0000000E+00;0; -6.6431070E-04;  4.0000000E+04;  0.0000000E+00;  0.0000000E+00;  4.0000000E+04;  0.0000000E+00;  4.0000000E+04; -1.4102440E-04;  0.0000000E+00; -5.2328629E-04;  2.1116946E+03;
  7.9999998E-02;  9.9999998E-03; -3.7000000E-01;2068;  0.0000000E+00;  0.0000000E+00;  0.0000000E+00;  1.0017715E+03;  1.0000000E-01;  1.4677115E+03;0;  0.0000000E+00;  0.0000000E+00;  0.0000000E+00;0; -9.4972423E-04;  4.0000000E+04;  0.0000000E+00;  0.0000000E+00;  4.0000000E+04;  0.0000000E+00;  4.0000000E+04; -2.8687139E-04;  0.0000000E+00; -6.6285284E-04;  2.5740947E+03;
  7.9999998E-02;  9.9999998E-03; -3.6000001E-01;2069;  0.0000000E+00;  0.0000000E+00;  0.0000000E+00;  1.0024568E+03;  1.0000000E-01;  2.0353992E+03;0;  0.0000000E+00;  0.0000000E+00;  0.0000000E+00;0; -1.3080633E-03;  4.0000000E+04;  0.0000000E+00;  0.0000000E+00;  4.0000000E+04;  0.0000000E+00;  4.0000000E+04; -5.1008962E-04;  0.0000000E+00; -7.9797371E-04;  2.9436716E+03;
  7.9999998E-02;  9.9999998E-03; -3.4999999E-01;2070;  0.0000000E+00;  0.0000000E+00;  0.0000000E+00;  1.0033199E+03;  1.0000000E-01;  2.7505396E+03;0;  0.0000000E+00;  0.0000000E+00;  0.0000000E+00;0; -1.7440770E-03;  4.0000000E+04;  0.0000000E+00;  0.0000000E+00;  4.0000000E+04;  0.0000000E+00;  4.0000000E+04; -8.2658336E-04;  0.0000000E+00; -9.1749360E-04;  3.1721924E+03;
  7.9999998E-02;  9.9999998E-03; -3.4000000E-01;2071;  0.0000000E+00;  0.0000000E+00;  0.0000000E+00;  1.0043501E+03;  1.0000000E-01;  3.6039475E+03;0;  0.0000000E+00;  0.0000000E+00;  0.0000000E+00;0; -2.2563026E-03;  4.0000000E+04;  0.0000000E+00;  0.0000000E+00;  4.0000000E+04;  0.0000000E+00;  4.0000000E+04; -1.2480863E-03;  0.0000000E+00; -1.0082164E-03;  3.2089062E+03;
  7.9999998E-02;  9.9999998E-03; -3.3000001E-01;2072;  0.0000000E+00;  0.0000000E+00;  0.0000000E+00;  1.0055427E+03;  1.0000000E-01;  4.5920679E+03;0;  0.0000000E+00;  0.0000000E+00;  0.0000000E+00;0; -2.8348686E-03;  4.0000000E+04;  0.0000000E+00;  0.0000000E+00;  4.0000000E+04;  0.0000000E+00;  4.0000000E+04; -1.7798250E-03;  0.0000000E+00; -1.0550435E-03;  3.0034819E+03;
  7.9999998E-02;  9.9999998E-03; -3.1999999E-01;2073;  0.0000000E+00;  0.0000000E+00;  0.0000000E+00;  1.0068609E+03;  1.0000000E-01;  5.6840859E+03;0;  0.0000000E+00;  0.0000000E+00;  0.0000000E+00;0; -3.4611002E-03;  4.0000000E+04;  0.0000000E+00;  0.0000000E+00;  4.0000000E+04;  0.0000000E+00;  4.0000000E+04; -2.4187507E-03;  0.0000000E+00; -1.0423496E-03;  2.5179351E+03;
  7.9999998E-02;  9.9999998E-03; -3.1000000E-01;2074;  0.0000000E+00;  0.0000000E+00;  0.0000000E+00;  1.0082430E+03;  1.0000000E-01;  6.8292388E+03;0;  0.0000000E+00;  0.0000000E+00;  0.0000000E+00;0; -4.1102665E-03;  4.0000000E+04;  0.0000000E+00;  0.0000000E+00;  4.0000000E+04;  0.0000000E+00;  4.0000000E+04; -3.1529162E-03;  0.0000000E+00; -9.5735036E-04;  1.7493683E+03;
  9.0000004E-02;  9.9999998E-03; -4.4000000E-01;2091;  0.0000000E+00;  0.0000000E+00;  0.0000000E+00;  1.0000000E+03;  1.0000000E-01;  0.0000000E+00;0;  0.0000000E+00;  0.0000000E+00;  0.0000000E+00;0; -1.2058962E-05;  4.0000000E+04;  0.0000000E+00;  0.0000000E+00;  4.0000000E+04;  0.0000000E+00;  4.0000000E+04;  4.7455660E-06;  0.0000000E+00; -1.6804528E-05;  4.3794273E+01;
  9.0000004E-02;  9.9999998E-03; -4.3000001E-01;2092;  0.0000000E+00;  0.0000000E+00;  0.0000000E+00;  1.0000709E+03;  1.0000000E-01;  5.8763771E+01;0;  0.0000000E+00;  0.0000000E+00;  0.0000000E+00;0; -3.6034457E-05;  4.0000000E+04;  0.0000000E+00;  0.0000000E+00;  4.0000000E+04;  0.0000000E+00;  4.0000000E+04;  1.2276570E-05;  0.0000000E+00; -4.8311027E-05;  1.7522572E+02;
  9.0000004E-02;  9.9999998E-03; -4.1999999E-01;2093;  0.0000000E+00;  0.0000000E+00;  0.0000000E+00;  1.0001380E+03;  1.0000000E-01;  1.1436713E+02;0;  0.0000000E+00;  0.0000000E+00;  0.0000000E+00;0; -8.3503117E-05;  4.0000000E+04;  0.0000000E+00;  0.0000000E+00;  4.0000000E+04;  0.0000000E+00;  4.0000000E+04;  2.2088037E-05;  0.0000000E+00; -1.0559116E-04;  4.4409973E+02;
  9.0000004E-02;  9.9999998E-03; -4.1000000E-01;2094;  0.0000000E+00;  0.0000000E+00;  0.0000000E+00;  1.0002817E+03;  1.0000000E-01;  2.3337611E+02;0;  0.0000000E+00;  0.0000000E+00;  0.0000000E+00;0; -1.6306352E-04;  4.0000000E+04;  0.0000000E+00;  0.0000000E+00;  4.0000000E+04;  0.0000000E+00;  4.0000000E+04;  2.8723272E-05;  0.0000000E+00; -1.9178679E-04;  8.5925226E+02;
  9.0000004E-02;  9.9999998E-03; -4.0000001E-01;2095;  0.0000000E+00;  0.0000000E+00;  0.0000000E+00;  1.0005145E+03;  1.0000000E-01;  4.2625955E+02;0;  0.0000000E+00;  0.0000000E+00;  0.0000000E+00;0; -2.8195317E-04;  4.0000000E+04;  0.0000000E+00;  0.0000000E+00;  4.0000000E+04;  0.0000000E+00;  4.0000000E+04;  2.3030218E-05;  0.0000000E+00; -3.0498338E-04;  1.3896012E+03;
  9.0000004E-02;  9.9999998E-03; -3.8999999E-01;2096;  0.0000000E+00;  0.0000000E+00;  0.0000000E+00;  1.0008218E+03;  1.0000000E-01;  6.8086963E+02;0;  0.0000000E+00;  0.0000000E+00;  0.0000000E+00;0; -4.4662680E-04;  4.0000000E+04;  0.0000000E+00;  0.0000000E+00;  4.0000000E+04;  0.0000000E+00;  4.0000000E+04; -7.1879117E-06;  0.0000000E+00; -4.3943888E-04;  1.9817059E+03;
  9.0000004E-02;  9.9999998E-03; -3.8000000E-01;2097;  0.0000000E+00;  0.0000000E+00;  0.0000000E+00;  1.0012430E+03;  1.0000000E-01;  1.0297981E+03;0;  0.0000000E+00;  0.0000000E+00;  0.0000000E+00;0; -6.6354737E-04;  4.0000000E+04;  0.0000000E+00;  0.0000000E+00;  4.0000000E+04;  0.0000000E+00;  4.0000000E+04; -7.6314325E-05;  0.0000000E+00; -5.8723305E-04;  2.5773516E+03;
  9.0000004E-02;  9.9999998E-03; -3.7000000E-01;2098;  0.0000000E+00;  0.0000000E+00;  0.0000000E+00;  1.0017902E+03;  1.0000000E-01;  1.4831185E+03;0;  0.0000000E+00;  0.0000000E+00;  0.0000000E+00;0; -9.3897036E-04;  4.0000000E+04;  0.0000000E+00;  0.0000000E+00;  4.0000000E+04;  0.0000000E+00;  4.0000000E+04; -1.9977796E-04;  0.0000000E+00; -7.3919242E-04;  3.1209387E+03;
  9.0000004E-02;  9.9999998E-03; -3.6000001E-01;2099;  0.0000000E+00;  0.0000000E+00;  0.0000000E+00;  1.0024958E+03;  1.0000000E-01;  2.0676946E+03;0;  0.0000000E+00;  0.0000000E+00;  0.0000000E+00;0; -1.2774612E-03;  4.0000000E+04;  0.0000000E+00;  0.0000000E+00;  4.0000000E+04;  0.0000000E+00;  4.0000000E+04; -3.9248844E-04;  0.0000000E+00; -8.8497280E-04;  3.5587517E+03;
  9.0000004E-02;  9.9999998E-03; -3.4999999E-01;2100;  0.0000000E+00;  0.0000000E+00;  0.0000000E+00;  1.0033842E+03;  1.0000000E-01;  2.8036738E+03;0;  0.0000000E+00;  0.0000000E+00;  0.0000000E+00;0; -1.6794126E-03;  4.0000000E+04;  0.0000000E+00;  0.0000000E+00;  4.0000000E+04;  0.0000000E+00;  4.0000000E+04; -6.6680874E-04;  0.0000000E+00; -1.0126039E-03;  3.8345654E+03;
  9.0000004E-02;  9.9999998E-03; -3.4000000E-01;2101;  0.0000000E+00;  0.0000000E+00;  0.0000000E+00;  1.0044373E+03;  1.0000000E-01;  3.6762417E+03;0;  0.0000000E+00;  0.0000000E+00;  0.0000000E+00;0; -2.1383567E-03;  4.0000000E+04;  0.0000000E+00;  0.0000000E+00;  4.0000000E+04;  0.0000000E+00;  4.0000000E+04; -1.0303844E-03;  0.0000000E+00; -1.1079723E-03;  3.8872329E+03;
  9.0000004E-02;  9.9999998E-03; -3.3000001E-01;2102;  0.0000000E+00;  0.0000000E+00;  0.0000000E+00;  1.0056508E+03;  1.0000000E-01;  4.6815464E+03;0;  0.0000000E+00;  0.0000000E+00;  0.0000000E+00;0; -2.6391384E-03;  4.0000000E+04;  0.0000000E+00;  0.0000000E+00;  4.0000000E+04;  0.0000000E+00;  4.0000000E+04; -1.4844011E-03;  0.0000000E+00; -1.1547373E-03;  3.6552209E+03;
  9.0000004E-02;  9.9999998E-03; -3.1999999E-01;2103;  0.0000000E+00;  0.0000000E+00;  0.0000000E+00;  1.0069806E+03;  1.0000000E-01;  5.7832437E+03;0;  0.0000000E+00;  0.0000000E+00;  0.0000000E+00;0; -3.1582168E-03;  4.0000000E+04;  0.0000000E+00;  0.0000000E+00;  4.0000000E+04;  0.0000000E+00;  4.0000000E+04; -2.0228294E-03;  0.0000000E+00; -1.1353875E-03;  3.0958032E+03;
  9.0000004E-02;  9.9999998E-03; -3.1000000E-01;2104;  0.0000000E+00;  0.0000000E+00;  0.0000000E+00;  1.0083597E+03;  1.0000000E-01;  6.9258286E+03;0;  0.0000000E+00;  0.0000000E+00;  0.0000000E+00;0; -3.6674808E-03;  4.0000000E+04;  0.0000000E+00;  0.0000000E+00;  4.0000000E+04;  0.0000000E+00;  4.0000000E+04; -2.6331961E-03;  0.0000000E+00; -1.0342846E-03;  2.2285845E+03;
  1.0000000E-01;  9.9999998E-03; -4.4000000E-01;2121;  0.0000000E+00;  0.0000000E+00;  0.0000000E+00;  1.0000000E+03;  1.0000000E-01;  0.0000000E+00;0;  0.0000000E+00;  0.0000000E+00;  0.0000000E+00;0; -1.4090185E-05;  4.0000000E+04;  0.0000000E+00;  0.0000000E+00;  4.0000000E+04;  0.0000000E+00;  4.0000000E+04;  6.6376674E-06;  0.0000000E+00; -2.0727852E-05;  7.7450584E+01;
  1.0000000E-01;  9.9999998E-03; -4.3000001E-01;2122;  0.0000000E+00;  0.0000000E+00;  0.0000000E+00;  1.0000734E+03;  1.0000000E-01;  6.0837784E+01;0;  0.0000000E+00;  0.0000000E+00;  0.0000000E+00;0; -4.0931947E-05;  4.0000000E+04;  0.0000000E+00;  0.0000000E+00;  4.0000000E+04;  0.0000000E+00;  4.0000000E+04;  1.6679222E-05;  0.0000000E+00; -5.7611171E-05;  2.5763315E+02;
  1.0000000E-01;  9.9999998E-03; -4.1999999E-01;2123;  0.0000000E+00;  0.0000000E+00;  0.0000000E+00;  1.0001300E+03;  1.0000000E-01;  1.0775004E+02;0;  0.0000000E+00;  0.0000000E+00;  0.0000000E+00;0; -9.3990267E-05;  4.0000000E+04;  0.0000000E+00;  0.0000000E+00;  4.0000000E+04;  0.0000000E+00;  4.0000000E+04;  2.9201223E-05;  0.0000000E+00; -1.2319149E-04;  5.9912274E+02;
  1.0000000E-01;  9.9999998E-03; -4.1000000E-01;2124;  0.0000000E+00;  0.0000000E+00;  0.0000000E+00;  1.0002731E+03;  1.0000000E-01;  2.2626521E+02;0;  0.0000000E+00;  0.0000000E+00;  0.0000000E+00;0; -1.8256629E-04;  4.0000000E+04;  0.0000000E+00;  0.0000000E+00;  4.0000000E+04;  0.0000000E+00;  4.0000000E+04;  3.7857433E-05;  0.0000000E+00; -2.2042372E-04;  1.1042573E+03;
  1.0000000E-01;  9.9999998E-03; -4.0000001E-01;2125;  0.0000000E+00;  0.0000000E+00;  0.0000000E+00;  1.0005148E+03;  1.0000000E-01;  4.2655585E+02;0;  0.0000000E+00;  0.0000000E+00;  0.0000000E+00;0; -3.1353440E-04;  4.0000000E+04;  0.0000000E+00;  0.0000000E+00;  4.0000000E+04;  0.0000000E+00;  4.0000000E+04;  3.3081611E-05;  0.0000000E+00; -3.4661600E-04;  1.7331903E+03;
  1.0000000E-01;  9.9999998E-03; -3.8999999E-01;2126;  0.0000000E+00;  0.0000000E+00;  0.0000000E+00;  1.0008289E+03;  1.0000000E-01;  6.8669666E+02;0;  0.0000000E+00;  0.0000000E+00;  0.0000000E+00;0; -4.9204176E-04;  4.0000000E+04;  0.0000000E+00;  0.0000000E+00;  4.0000000E+04;  0.0000000E+00;  4.0000000E+04;  2.8616280E-06;  0.0000000E+00; -4.9490336E-04;  2.4254226E+03;
  1.0000000E-01;  9.9999998E-03; -3.8000000E-01;2127;  0.0000000E+00;  0.0000000E+00;  0.0000000E+00;  1.0012621E+03;  1.0000000E-01;  1.0456989E+03;0;  0.0000000E+00;  0.0000000E+00;  0.0000000E+00;0; -7.2256324E-04;  4.0000000E+04;  0.0000000E+00;  0.0000000E+00;  4.0000000E+04;  0.0000000E+00;  4.0000000E+04; -6.6339177E-05;  0.0000000E+00; -6.5622409E-04;  3.1184590E+03;
  1.0000000E-01;  9.9999998E-03; -3.7000000E-01;2128;  0.0000000E+00;  0.0000000E+00;  0.0000000E+00;  1.0018334E+03;  1.0000000E-01;  1.5188706E+03;0;  0.0000000E+00;  0.0000000E+00;  0.0000000E+00;0; -1.0087482E-03;  4.0000000E+04;  0.0000000E+00;  0.0000000E+00;  4.0000000E+04;  0.0000000E+00;  4.0000000E+04; -1.8833663E-04;  0.0000000E+00; -8.2041154E-04;  3.7545410E+03;
  1.0000000E-01;  9.9999998E-03; -3.6000001E-01;2129;  0.0000000E+00;  0.0000000E+00;  0.0000000E+00;  1.0025704E+03;  1.0000000E-01;  2.1295200E+03;0;  0.0000000E+00;  0.0000000E+00;  0.0000000E+00;0; -1.3518253E-03;  4.0000000E+04;  0.0000000E+00;  0.0000000E+00;  4.0000000E+04;  0.0000000E+00;  4.0000000E+04; -3.7554686E-04;  0.0000000E+00; -9.7627845E-04;  4.2790806E+03;
  1.0000000E-01;  9.9999998E-03; -3.4999999E-01;2130;  0.0000000E+00;  0.0000000E+00;  0.0000000E+00;  1.0034880E+03;  1.0000000E-01;  2.8897949E+03;0;  0.0000000E+00;  0.0000000E+00;  0.0000000E+00;0; -1.7480101E-03;  4.0000000E+04;  0.0000000E+00;  0.0000000E+00;  4.0000000E+04;  0.0000000E+00;  4.0000000E+04; -6.3695473E-04;  0.0000000E+00; -1.1110553E-03;  4.6380620E+03;
  1.0000000E-01;  9.9999998E-03; -3.4000000E-01;2131;  0.0000000E+00;  0.0000000E+00;  0.0000000E+00;  1.0045779E+03;  1.0000000E-01;  3.7927817E+03;0;  0.0000000E+00;  0.0000000E+00;  0.0000000E+00;0; -2.1858260E-03;  4.0000000E+04;  0.0000000E+00;  0.0000000E+00;  4.0000000E+04;  0.0000000E+00;  4.0000000E+04; -9.7615836E-04;  0.0000000E+00; -1.2096675E-03;  4.7810283E+03;
  1.0000000E-01;  9.9999998E-03; -3.3000001E-01;2132;  0.0000000E+00;  0.0000000E+00;  0.0000000E+00;  1.0058208E+03;  1.0000000E-01;  4.8223823E+03;0;  0.0000000E+00;  0.0000000E+00;  0.0000000E+00;0; -2.6445892E-03;  4.0000000E+04;  0.0000000E+00;  0.0000000E+00;  4.0000000E+04;  0.0000000E+00;  4.0000000E+04; -1.3901512E-03;  0.0000000E+00; -1.2544378E-03;  4.6756201E+03;
  1.0000000E-01;  9.9999998E-03; -3.1999999E-01;2133;  0.0000000E+00;  0.0000000E+00;  0.0000000E+00;  1.0071727E+03;  1.0000000E-01;  5.9424492E+03;0;  0.0000000E+00;  0.0000000E+00;  0.0000000E+00;0; -3.0952916E-03;  4.0000000E+04;  0.0000000E+00;  0.0000000E+00;  4.0000000E+04;  0.0000000E+00;  4.0000000E+04; -1.8694571E-03;  0.0000000E+00; -1.2258344E-03;  4.3413511E+03;
  1.0000000E-01;  9.9999998E-03; -3.1000000E-01;2134;  0.0000000E+00;  0.0000000E+00;  0.0000000E+00;  1.0085539E+03;  1.0000000E-01;  7.0867134E+03;0;  0.0000000E+00;  0.0000000E+00;  0.0000000E+00;0; -3.5053489E-03;  4.0000000E+04;  0.0000000E+00;  0.0000000E+00;  4.0000000E+04;  0.0000000E+00;  4.0000000E+04; -2.4000707E-03;  0.0000000E+00; -1.1052783E-03;  3.9084055E+03;
  1.1000000E-01;  9.9999998E-03; -4.4000000E-01;2151;  0.0000000E+00;  0.0000000E+00;  0.0000000E+00;  1.0000000E+03;  1.0000000E-01;  0.0000000E+00;0;  0.0000000E+00;  0.0000000E+00;  0.0000000E+00;0; -1.7351456E-05;  4.0000000E+04;  0.0000000E+00;  0.0000000E+00;  4.0000000E+04;  0.0000000E+00;  4.0000000E+04;  7.3537076E-06;  0.0000000E+00; -2.4705165E-05;  1.2108105E+02;
  1.1000000E-01;  9.9999998E-03; -4.3000001E-01;2152;  0.0000000E+00;  0.0000000E+00;  0.0000000E+00;  1.0000651E+03;  1.0000000E-01;  5.3924400E+01;0;  0.0000000E+00;  0.0000000E+00;  0.0000000E+00;0; -5.0285933E-05;  4.0000000E+04;  0.0000000E+00;  0.0000000E+00;  4.0000000E+04;  0.0000000E+00;  4.0000000E+04;  1.6850745E-05;  0.0000000E+00; -6.7136680E-05;  3.5885703E+02;
  1.1000000E-01;  9.9999998E-03; -4.1999999E-01;2153;  0.0000000E+00;  0.0000000E+00;  0.0000000E+00;  1.0001285E+03;  1.0000000E-01;  1.0646613E+02;0;  0.0000000E+00;  0.0000000E+00;  0.0000000E+00;0; -1.1524817E-04;  4.0000000E+04;  0.0000000E+00;  0.0000000E+00;  4.0000000E+04;  0.0000000E+00;  4.0000000E+04;  2.6241223E-05;  0.0000000E+00; -1.4148939E-04;  7.8171936E+02;
  1.1000000E-01;  9.9999998E-03; -4.1000000E-01;2154;  0.0000000E+00;  0.0000000E+00;  0.0000000E+00;  1.0002769E+03;  1.0000000E-01;  2.2942561E+02;0;  0.0000000E+00;  0.0000000E+00;  0.0000000E+00;0; -2.2238580E-04;  4.0000000E+04;  0.0000000E+00;  0.0000000E+00;  4.0000000E+04;  0.0000000E+00;  4.0000000E+04;  2.7963362E-05;  0.0000000E+00; -2.5034917E-04;  1.3826882E+03;
  1.1000000E-01;  9.9999998E-03; -4.0000001E-01;2155;  0.0000000E+00;  0.0000000E+00;  0.0000000E+00;  1.0005265E+03;  1.0000000E-01;  4.3623459E+02;0;  0.0000000E+00;  0.0000000E+00;  0.0000000E+00;0; -3.7815084E-04;  4.0000000E+04;  0.0000000E+00;  0.0000000E+00;  4.0000000E+04;  0.0000000E+00;  4.0000000E+04;  1.1764209E-05;  0.0000000E+00; -3.8991505E-04;  2.1114526E+03;
  1.1000000E-01;  9.9999998E-03; -3.8999999E-01;2156;  0.0000000E+00;  0.0000000E+00;  0.0000000E+00;  1.0008548E+03;  1.0000000E-01;  7.0822687E+02;0;  0.0000000E+00;  0.0000000E+00;  0.0000000E+00;0; -5.8647728E-04;  4.0000000E+04;  0.0000000E+00;  0.0000000E+00;  4.0000000E+04;  0.0000000E+00;  4.0000000E+04; -3.4503464E-05;  0.0000000E+00; -5.5197382E-04;  2.9012925E+03;
  1.1000000E-01;  9.9999998E-03; -3.8000000E-01;2157;  0.0000000E+00;  0.0000000E+00;  0.0000000E+00;  1.0013001E+03;  1.0000000E-01;  1.0771053E+03;0;  0.0000000E+00;  0.0000000E+00;  0.0000000E+00;0; -8.5008924E-04;  4.0000000E+04;  0.0000000E+00;  0.0000000E+00;  4.0000000E+04;  0.0000000E+00;  4.0000000E+04; -1.2387788E-04;  0.0000000E+00; -7.2621135E-04;  3.6901714E+03;
  1.1000000E-01;  9.9999998E-03; -3.7000000E-01;2158;  0.0000000E+00;  0.0000000E+00;  0.0000000E+00;  1.0019088E+03;  1.0000000E-01;  1.5813873E+03;0;  0.0000000E+00;  0.0000000E+00;  0.0000000E+00;0; -1.1703691E-03;  4.0000000E+04;  0.0000000E+00;  0.0000000E+00;  4.0000000E+04;  0.0000000E+00;  4.0000000E+04; -2.6891020E-04;  0.0000000E+00; -9.0145884E-04;  4.4287759E+03;
  1.1000000E-01;  9.9999998E-03; -3.6000001E-01;2159;  0.0000000E+00;  0.0000000E+00;  0.0000000E+00;  1.0026931E+03;  1.0000000E-01;  2.2311467E+03;0;  0.0000000E+00;  0.0000000E+00;  0.0000000E+00;0; -1.5455595E-03;  4.0000000E+04;  0.0000000E+00;  0.0000000E+00;  4.0000000E+04;  0.0000000E+00;  4.0000000E+04; -4.7984559E-04;  0.0000000E+00; -1.0657139E-03;  5.0820806E+03;
  1.1000000E-01;  9.9999998E-03; -3.4999999E-01;2160;  0.0000000E+00;  0.0000000E+00;  0.0000000E+00;  1.0036548E+03;  1.0000000E-01;  3.0279636E+03;0;  0.0000000E+00;  0.0000000E+00;  0.0000000E+00;0; -1.9679465E-03;  4.0000000E+04;  0.0000000E+00;  0.0000000E+00;  4.0000000E+04;  0.0000000E+00;  4.0000000E+04; -7.6254131E-04;  0.0000000E+00; -1.2054052E-03;  5.6328457E+03;
  1.1000000E-01;  9.9999998E-03; -3.4000000E-01;2161;  0.0000000E+00;  0.0000000E+00;  0.0000000E+00;  1.0047955E+03;  1.0000000E-01;  3.9730234E+03;0;  0.0000000E+00;  0.0000000E+00;  0.0000000E+00;0; -2.4210885E-03;  4.0000000E+04;  0.0000000E+00;  0.0000000E+00;  4.0000000E+04;  0.0000000E+00;  4.0000000E+04; -1.1166404E-03;  0.0000000E+00; -1.3044480E-03;  6.0897217E+03;
  1.1000000E-01;  9.9999998E-03; -3.3000001E-01;2162;  0.0000000E+00;  0.0000000E+00;  0.0000000E+00;  1.0060900E+03;  1.0000000E-01;  5.0453882E+03;0;  0.0000000E+00;  0.0000000E+00;  0.0000000E+00;0; -2.8784450E-03;  4.0000000E+04;  0.0000000E+00;  0.0000000E+00;  4.0000000E+04;  0.0000000E+00;  4.0000000E+04; -1.5347615E-03;  0.0000000E+00; -1.3436835E-03;  6.4921313E+03;
  1.1000000E-01;  9.9999998E-03; -3.1999999E-01;2163;  0.0000000E+00;  0.0000000E+00;  0.0000000E+00;  1.0074731E+03;  1.0000000E-01;  6.1913311E+03;0;  0.0000000E+00;  0.0000000E+00;  0.0000000E+00;0; -3.3048531E-03;  4.0000000E+04;  0.0000000E+00;  0.0000000E+00;  4.0000000E+04;  0.0000000E+00;  4.0000000E+04; -2.0033447E-03;  0.0000000E+00; -1.3015085E-03;  6.8961274E+03;
  1.1000000E-01;  9.9999998E-03; -3.1000000E-01;2164;  0.0000000E+00;  0.0000000E+00;  0.0000000E+00;  1.0088750E+03;  1.0000000E-01;  7.3527798E+03;0;  0.0000000E+00;  0.0000000E+00;  0.0000000E+00;0; -3.6622216E-03;  4.0000000E+04;  0.0000000E+00;  0.0000000E+00;  4.0000000E+04;  0.0000000E+00;  4.0000000E+04; -2.5054214E-03;  0.0000000E+00; -1.1568001E-03;  7.3364121E+03;
  1.2000000E-01;  9.9999998E-03; -4.4000000E-01;2181;  0.0000000E+00;  0.0000000E+00;  0.0000000E+00;  1.0000000E+03;  1.0000000E-01;  0.0000000E+00;0;  0.0000000E+00;  0.0000000E+00;  0.0000000E+00;0; -2.2109516E-05;  4.0000000E+04;  0.0000000E+00;  0.0000000E+00;  4.0000000E+04;  0.0000000E+00;  4.0000000E+04;  6.1349529E-06;  0.0000000E+00; -2.8244469E-05;  1.7859114E+02;
  1.2000000E-01;  9.9999998E-03; -4.3000001E-01;2182;  0.0000000E+00;  0.0000000E+00;  0.0000000E+00;  1.0000621E+03;  1.0000000E-01;  5.1455334E+01;0;  0.0000000E+00;  0.0000000E+00;  0.0000000E+00;0; -6.5025743E-05;  4.0000000E+04;  0.0000000E+00;  0.0000000E+00;  4.0000000E+04;  0.0000000E+00;  4.0000000E+04;  1.1092900E-05;  0.0000000E+00; -7.6118638E-05;  4.8683847E+02;
  1.2000000E-01;  9.9999998E-03; -4.1999999E-01;2183;  0.0000000E+00;  0.0000000E+00;  0.0000000E+00;  1.0001284E+03;  1.0000000E-01;  1.0636736E+02;0;  0.0000000E+00;  0.0000000E+00;  0.0000000E+00;0; -1.4880035E-04;  4.0000000E+04;  0.0000000E+00;  0.0000000E+00;  4.0000000E+04;  0.0000000E+00;  4.0000000E+04;  1.0487445E-05;  0.0000000E+00; -1.5928780E-04;  1.0010797E+03;
  1.2000000E-01;  9.9999998E-03; -4.1000000E-01;2184;  0.0000000E+00;  0.0000000E+00;  0.0000000E+00;  1.0002946E+03;  1.0000000E-01;  2.4404248E+02;0;  0.0000000E+00;  0.0000000E+00;  0.0000000E+00;0; -2.8457417E-04;  4.0000000E+04;  0.0000000E+00;  0.0000000E+00;  4.0000000E+04;  0.0000000E+00;  4.0000000E+04; -4.7394747E-06;  0.0000000E+00; -2.7983470E-04;  1.6973077E+03;
  1.2000000E-01;  9.9999998E-03; -4.0000001E-01;2185;  0.0000000E+00;  0.0000000E+00;  0.0000000E+00;  1.0005477E+03;  1.0000000E-01;  4.5371558E+02;0;  0.0000000E+00;  0.0000000E+00;  0.0000000E+00;0; -4.7836287E-04;  4.0000000E+04;  0.0000000E+00;  0.0000000E+00;  4.0000000E+04;  0.0000000E+00;  4.0000000E+04; -4.5835368E-05;  0.0000000E+00; -4.3252751E-04;  2.5106902E+03;
  1.2000000E-01;  9.9999998E-03; -3.8999999E-01;2186;  0.0000000E+00;  0.0000000E+00;  0.0000000E+00;  1.0008910E+03;  1.0000000E-01;  7.3815198E+02;0;  0.0000000E+00;  0.0000000E+00;  0.0000000E+00;0; -7.3293044E-04;  4.0000000E+04;  0.0000000E+00;  0.0000000E+00;  4.0000000E+04;  0.0000000E+00;  4.0000000E+04; -1.2538033E-04;  0.0000000E+00; -6.0755009E-04;  3.3723806E+03;
  1.2000000E-01;  9.9999998E-03; -3.8000000E-01;2187;  0.0000000E+00;  0.0000000E+00;  0.0000000E+00;  1.0013776E+03;  1.0000000E-01;  1.1413010E+03;0;  0.0000000E+00;  0.0000000E+00;  0.0000000E+00;0; -1.0494774E-03;  4.0000000E+04;  0.0000000E+00;  0.0000000E+00;  4.0000000E+04;  0.0000000E+00;  4.0000000E+04; -2.5620079E-04;  0.0000000E+00; -7.9327665E-04;  4.2377373E+03;
  1.2000000E-01;  9.9999998E-03; -3.7000000E-01;2188;  0.0000000E+00;  0.0000000E+00;  0.0000000E+00;  1.0020405E+03;  1.0000000E-01;  1.6905201E+03;0;  0.0000000E+00;  0.0000000E+00;  0.0000000E+00;0; -1.4274737E-03;  4.0000000E+04;  0.0000000E+00;  0.0000000E+00;  4.0000000E+04;  0.0000000E+00;  4.0000000E+04; -4.4987700E-04;  0.0000000E+00; -9.7759673E-04;  5.1006680E+03;
  1.2000000E-01;  9.9999998E-03; -3.6000001E-01;2189;  0.0000000E+00;  0.0000000E+00;  0.0000000E+00;  1.0028760E+03;  1.0000000E-01;  2.3826487E+03;0;  0.0000000E+00;  0.0000000E+00;  0.0000000E+00;0; -1.8625315E-03;  4.0000000E+04;  0.0000000E+00;  0.0000000E+00;  4.0000000E+04;  0.0000000E+00;  4.0000000E+04; -7.1475166E-04;  0.0000000E+00; -1.1477799E-03;  6.0007178E+03;
  1.2000000E-01;  9.9999998E-03; -3.4999999E-01;2190;  0.0000000E+00;  0.0000000E+00;  0.0000000E+00;  1.0039109E+03;  1.0000000E-01;  3.2401060E+03;0;  0.0000000E+00;  0.0000000E+00;  0.0000000E+00;0; -2.3431643E-03;  4.0000000E+04;  0.0000000E+00;  0.0000000E+00;  4.0000000E+04;  0.0000000E+00;  4.0000000E+04; -1.0536471E-03;  0.0000000E+00; -1.2895170E-03;  7.0197280E+03;
  1.2000000E-01;  9.9999998E-03; -3.4000000E-01;2191;  0.0000000E+00;  0.0000000E+00;  0.0000000E+00;  1.0051235E+03;  1.0000000E-01;  4.2447192E+03;0;  0.0000000E+00;  0.0000000E+00;  0.0000000E+00;0; -2.8476878E-03;  4.0000000E+04;  0.0000000E+00;  0.0000000E+00;  4.0000000E+04;  0.0000000E+00;  4.0000000E+04; -1.4620203E-03;  0.0000000E+00; -1.3856674E-03;  8.2501260E+03;
  1.2000000E-01;  9.9999998E-03; -3.3000001E-01;2192;  0.0000000E+00;  0.0000000E+00;  0.0000000E+00;  1.0064799E+03;  1.0000000E-01;  5.3685396E+03;0;  0.0000000E+00;  0.0000000E+00;  0.0000000E+00;0; -3.3429109E-03;  4.0000000E+04;  0.0000000E+00;  0.0000000E+00;  4.0000000E+04;  0.0000000E+00;  4.0000000E+04; -1.9274373E-03;  0.0000000E+00; -1.4154736E-03;  9.7251143E+03;
  1.2000000E-01;  9.9999998E-03; -3.1999999E-01;2193;  0.0000000E+00;  0.0000000E+00;  0.0000000E+00;  1.0079152E+03;  1.0000000E-01;  6.5576416E+03;0;  0.0000000E+00;  0.0000000E+00;  0.0000000E+00;0; -3.7862069E-03;  4.0000000E+04;  0.0000000E+00;  0.0000000E+00;  4.0000000E+04;  0.0000000E+00;  4.0000000E+04; -2.4310073E-03;  0.0000000E+00; -1.3551996E-03;  1.1344350E+04;
  1.2000000E-01;  9.9999998E-03; -3.1000000E-01;2194;  0.0000000E+00;  0.0000000E+00;  0.0000000E+00;  1.0093422E+03;  1.0000000E-01;  7.7398306E+03;0;  0.0000000E+00;  0.0000000E+00;  0.0000000E+00;0; -4.1324426E-03;  4.0000000E+04;  0.0000000E+00;  0.0000000E+00;  4.0000000E+04;  0.0000000E+00;  4.0000000E+04; -2.9507896E-03;  0.0000000E+00; -1.1816529E-03;  1.2857421E+04;
  1.3000000E-01;  9.9999998E-03; -4.4000000E-01;2211;  0.0000000E+00;  0.0000000E+00;  0.0000000E+00;  1.0000000E+03;  1.0000000E-01;  0.0000000E+00;0;  0.0000000E+00;  0.0000000E+00;  0.0000000E+00;0; -2.8934124E-05;  4.0000000E+04;  0.0000000E+00;  0.0000000E+00;  4.0000000E+04;  0.0000000E+00;  4.0000000E+04;  2.1869405E-06;  0.0000000E+00; -3.1121064E-05;  2.7164178E+02;
  1.3000000E-01;  9.9999998E-03; -4.3000001E-01;2212;  0.0000000E+00;  0.0000000E+00;  0.0000000E+00;  1.0000629E+03;  1.0000000E-01;  5.2146675E+01;0;  0.0000000E+00;  0.0000000E+00;  0.0000000E+00;0; -8.6070511E-05;  4.0000000E+04;  0.0000000E+00;  0.0000000E+00;  4.0000000E+04;  0.0000000E+00;  4.0000000E+04; -1.9402287E-06;  0.0000000E+00; -8.4130283E-05;  6.8656104E+02;
  1.3000000E-01;  9.9999998E-03; -4.1999999E-01;2213;  0.0000000E+00;  0.0000000E+00;  0.0000000E+00;  1.0001295E+03;  1.0000000E-01;  1.0725623E+02;0;  0.0000000E+00;  0.0000000E+00;  0.0000000E+00;0; -1.9564209E-04;  4.0000000E+04;  0.0000000E+00;  0.0000000E+00;  4.0000000E+04;  0.0000000E+00;  4.0000000E+04; -1.9737365E-05;  0.0000000E+00; -1.7590473E-04;  1.3207126E+03;
  1.3000000E-01;  9.9999998E-03; -4.1000000E-01;2214;  0.0000000E+00;  0.0000000E+00;  0.0000000E+00;  1.0003256E+03;  1.0000000E-01;  2.6981952E+02;0;  0.0000000E+00;  0.0000000E+00;  0.0000000E+00;0; -3.6972342E-04;  4.0000000E+04;  0.0000000E+00;  0.0000000E+00;  4.0000000E+04;  0.0000000E+00;  4.0000000E+04; -6.2043597E-05;  0.0000000E+00; -3.0767982E-04;  2.1093511E+03;
  1.3000000E-01;  9.9999998E-03; -4.0000001E-01;2215;  0.0000000E+00;  0.0000000E+00;  0.0000000E+00;  1.0005834E+03;  1.0000000E-01;  4.8334436E+02;0;  0.0000000E+00;  0.0000000E+00;  0.0000000E+00;0; -6.1382173E-04;  4.0000000E+04;  0.0000000E+00;  0.0000000E+00;  4.0000000E+04;  0.0000000E+00;  4.0000000E+04; -1.4123885E-04;  0.0000000E+00; -4.7258288E-04;  2.9605452E+03;
  1.3000000E-01;  9.9999998E-03; -3.8999999E-01;2216;  0.0000000E+00;  0.0000000E+00;  0.0000000E+00;  1.0009585E+03;  1.0000000E-01;  7.9405164E+02;0;  0.0000000E+00;  0.0000000E+00;  0.0000000E+00;0; -9.2952664E-04;  4.0000000E+04;  0.0000000E+00;  0.0000000E+00;  4.0000000E+04;  0.0000000E+00;  4.0000000E+04; -2.7048209E-04;  0.0000000E+00; -6.5904454E-04;  3.8166914E+03;
  1.3000000E-01;  9.9999998E-03; -3.8000000E-01;2217;  0.0000000E+00;  0.0000000E+00;  0.0000000E+00;  1.0015049E+03;  1.0000000E-01;  1.2467795E+03;0;  0.0000000E+00;  0.0000000E+00;  0.0000000E+00;0; -1.3167893E-03;  4.0000000E+04;  0.0000000E+00;  0.0000000E+00;  4.0000000E+04;  0.0000000E+00;  4.0000000E+04; -4.6261118E-04;  0.0000000E+00; -8.5417816E-04;  4.7038096E+03;
  1.3000000E-01;  9.9999998E-03; -3.7000000E-01;2218;  0.0000000E+00;  0.0000000E+00;  0.0000000E+00;  1.0022208E+03;  1.0000000E-01;  1.8398492E+03;0;  0.0000000E+00;  0.0000000E+00;  0.0000000E+00;0; -1.7735906E-03;  4.0000000E+04;  0.0000000E+00;  0.0000000E+00;  4.0000000E+04;  0.0000000E+00;  4.0000000E+04; -7.2850112E-04;  0.0000000E+00; -1.0450894E-03;  5.7566631E+03;
  1.3000000E-01;  9.9999998E-03; -3.6000001E-01;2219;  0.0000000E+00;  0.0000000E+00;  0.0000000E+00;  1.0031429E+03;  1.0000000E-01;  2.6038770E+03;0;  0.0000000E+00;  0.0000000E+00;  0.0000000E+00;0; -2.2931802E-03;  4.0000000E+04;  0.0000000E+00;  0.0000000E+00;  4.0000000E+04;  0.0000000E+00;  4.0000000E+04; -1.0746771E-03;  0.0000000E+00; -1.2185031E-03;  7.1934785E+03;
  1.3000000E-01;  9.9999998E-03; -3.4999999E-01;2220;  0.0000000E+00;  0.0000000E+00;  0.0000000E+00;  1.0042634E+03;  1.0000000E-01;  3.5321470E+03;0;  0.0000000E+00;  0.0000000E+00;  0.0000000E+00;0; -2.8601410E-03;  4.0000000E+04;  0.0000000E+00;  0.0000000E+00;  4.0000000E+04;  0.0000000E+00;  4.0000000E+04; -1.5006324E-03;  0.0000000E+00; -1.3595087E-03;  9.2143389E+03;
  1.3000000E-01;  9.9999998E-03; -3.4000000E-01;2221;  0.0000000E+00;  0.0000000E+00;  0.0000000E+00;  1.0055657E+03;  1.0000000E-01;  4.6111289E+03;0;  0.0000000E+00;  0.0000000E+00;  0.0000000E+00;0; -3.4467790E-03;  4.0000000E+04;  0.0000000E+00;  0.0000000E+00;  4.0000000E+04;  0.0000000E+00;  4.0000000E+04; -1.9967847E-03;  0.0000000E+00; -1.4499943E-03;  1.1869521E+04;
  1.3000000E-01;  9.9999998E-03; -3.3000001E-01;2222;  0.0000000E+00;  0.0000000E+00;  0.0000000E+00;  1.0070059E+03;  1.0000000E-01;  5.8041816E+03;0;  0.0000000E+00;  0.0000000E+00;  0.0000000E+00;0; -4.0118098E-03;  4.0000000E+04;  0.0000000E+00;  0.0000000E+00;  4.0000000E+04;  0.0000000E+00;  4.0000000E+04; -2.5441649E-03;  0.0000000E+00; -1.4676451E-03;  1.4983336E+04;
  1.3000000E-01;  9.9999998E-03; -3.1999999E-01;2223;  0.0000000E+00;  0.0000000E+00;  0.0000000E+00;  1.0085054E+03;  1.0000000E-01;  7.0465166E+03;0;  0.0000000E+00;  0.0000000E+00;  0.0000000E+00;0; -4.5031179E-03;  4.0000000E+04;  0.0000000E+00;  0.0000000E+00;  4.0000000E+04;  0.0000000E+00;  4.0000000E+04; -3.1165043E-03;  0.0000000E+00; -1.3866137E-03;  1.8149059E+04;
  1.3000000E-01;  9.9999998E-03; -3.1000000E-01;2224;  0.0000000E+00;  0.0000000E+00;  0.0000000E+00;  1.0099734E+03;  1.0000000E-01;  8.2627783E+03;0;  0.0000000E+00;  0.0000000E+00;  0.0000000E+00;0; -4.8661688E-03;  4.0000000E+04;  0.0000000E+00;  0.0000000E+00;  4.0000000E+04;  0.0000000E+00;  4.0000000E+04; -3.6843729E-03;  0.0000000E+00; -1.1817961E-03;  2.0794344E+04;
  1.4000000E-01;  9.9999998E-03; -4.4000000E-01;2241;  0.0000000E+00;  0.0000000E+00;  0.0000000E+00;  1.0000000E+03;  1.0000000E-01;  0.0000000E+00;0;  0.0000000E+00;  0.0000000E+00;  0.0000000E+00;0; -3.8437065E-05;  4.0000000E+04;  0.0000000E+00;  0.0000000E+00;  4.0000000E+04;  0.0000000E+00;  4.0000000E+04; -5.0230242E-06;  0.0000000E+00; -3.3414042E-05;  4.5024200E+02;
  1.4000000E-01;  9.9999998E-03; -4.3000001E-01;2242;  0.0000000E+00;  0.0000000E+00;  0.0000000E+00;  1.0000658E+03;  1.0000000E-01;  5.4516975E+01;0;  0.0000000E+00;  0.0000000E+00;  0.0000000E+00;0; -1.1403648E-04;  4.0000000E+04;  0.0000000E+00;  0.0000000E+00;  4.0000000E+04;  0.0000000E+00;  4.0000000E+04; -2.2749617E-05;  0.0000000E+00; -9.1286856E-05;  1.0639248E+03;
  1.4000000E-01;  9.9999998E-03; -4.1999999E-01;2243;  0.0000000E+00;  0.0000000E+00;  0.0000000E+00;  1.0001382E+03;  1.0000000E-01;  1.1446590E+02;0;  0.0000000E+00;  0.0000000E+00;  0.0000000E+00;0; -2.5566880E-04;  4.0000000E+04;  0.0000000E+00;  0.0000000E+00;  4.0000000E+04;  0.0000000E+00;  4.0000000E+04; -6.4392698E-05;  0.0000000E+00; -1.9127611E-04;  1.9000994E+03;
  1.4000000E-01;  9.9999998E-03; -4.1000000E-01;2244;  0.0000000E+00;  0.0000000E+00;  0.0000000E+00;  1.0003663E+03;  1.0000000E-01;  3.0349759E+02;0;  0.0000000E+00;  0.0000000E+00;  0.0000000E+00;0; -4.7594466E-04;  4.0000000E+04;  0.0000000E+00;  0.0000000E+00;  4.0000000E+04;  0.0000000E+00;  4.0000000E+04; -1.4250564E-04;  0.0000000E+00; -3.3343903E-04;  2.7964160E+03;
  1.4000000E-01;  9.9999998E-03; -4.0000001E-01;2245;  0.0000000E+00;  0.0000000E+00;  0.0000000E+00;  1.0006296E+03;  1.0000000E-01;  5.2156549E+02;0;  0.0000000E+00;  0.0000000E+00;  0.0000000E+00;0; -7.7949755E-04;  4.0000000E+04;  0.0000000E+00;  0.0000000E+00;  4.0000000E+04;  0.0000000E+00;  4.0000000E+04; -2.7051204E-04;  0.0000000E+00; -5.0898548E-04;  3.5923450E+03;
  1.4000000E-01;  9.9999998E-03; -3.8999999E-01;2246;  0.0000000E+00;  0.0000000E+00;  0.0000000E+00;  1.0010660E+03;  1.0000000E-01;  8.8323425E+02;0;  0.0000000E+00;  0.0000000E+00;  0.0000000E+00;0; -1.1669223E-03;  4.0000000E+04;  0.0000000E+00;  0.0000000E+00;  4.0000000E+04;  0.0000000E+00;  4.0000000E+04; -4.6217401E-04;  0.0000000E+00; -7.0474832E-04;  4.2596338E+03;
  1.4000000E-01;  9.9999998E-03; -3.8000000E-01;2247;  0.0000000E+00;  0.0000000E+00;  0.0000000E+00;  1.0016711E+03;  1.0000000E-01;  1.3845535E+03;0;  0.0000000E+00;  0.0000000E+00;  0.0000000E+00;0; -1.6373898E-03;  4.0000000E+04;  0.0000000E+00;  0.0000000E+00;  4.0000000E+04;  0.0000000E+00;  4.0000000E+04; -7.3060492E-04;  0.0000000E+00; -9.0678484E-04;  5.0361494E+03;
  1.4000000E-01;  9.9999998E-03; -3.7000000E-01;2248;  0.0000000E+00;  0.0000000E+00;  0.0000000E+00;  1.0024717E+03;  1.0000000E-01;  2.0477445E+03;0;  0.0000000E+00;  0.0000000E+00;  0.0000000E+00;0; -2.1878113E-03;  4.0000000E+04;  0.0000000E+00;  0.0000000E+00;  4.0000000E+04;  0.0000000E+00;  4.0000000E+04; -1.0861726E-03;  0.0000000E+00; -1.1016385E-03;  6.4475962E+03;
  1.4000000E-01;  9.9999998E-03; -3.6000001E-01;2249;  0.0000000E+00;  0.0000000E+00;  0.0000000E+00;  1.0034881E+03;  1.0000000E-01;  2.8897949E+03;0;  0.0000000E+00;  0.0000000E+00;  0.0000000E+00;0; -2.8091865E-03;  4.0000000E+04;  0.0000000E+00;  0.0000000E+00;  4.0000000E+04;  0.0000000E+00;  4.0000000E+04; -1.5334355E-03;  0.0000000E+00; -1.2757508E-03;  8.9874668E+03;
  1.4000000E-01;  9.9999998E-03; -3.4999999E-01;2250;  0.0000000E+00;  0.0000000E+00;  0.0000000E+00;  1.0047162E+03;  1.0000000E-01;  3.9073462E+03;0;  0.0000000E+00;  0.0000000E+00;  0.0000000E+00;0; -3.4816836E-03;  4.0000000E+04;  0.0000000E+00;  0.0000000E+00;  4.0000000E+04;  0.0000000E+00;  4.0000000E+04; -2.0678497E-03;  0.0000000E+00; -1.4138338E-03;  1.2767275E+04;
  1.4000000E-01;  9.9999998E-03; -3.4000000E-01;2251;  0.0000000E+00;  0.0000000E+00;  0.0000000E+00;  1.0061282E+03;  1.0000000E-01;  5.0770908E+03;0;  0.0000000E+00;  0.0000000E+00;  0.0000000E+00;0; -4.1705221E-03;  4.0000000E+04;  0.0000000E+00;  0.0000000E+00;  4.0000000E+04;  0.0000000E+00;  4.0000000E+04; -2.6734546E-03;  0.0000000E+00; -1.4970676E-03;  1.7536568E+04;
  1.4000000E-01;  9.9999998E-03; -3.3000001E-01;2252;  0.0000000E+00;  0.0000000E+00;  0.0000000E+00;  1.0076640E+03;  1.0000000E-01;  6.3494502E+03;0;  0.0000000E+00;  0.0000000E+00;  0.0000000E+00;0; -4.8246626E-03;  4.0000000E+04;  0.0000000E+00;  0.0000000E+00;  4.0000000E+04;  0.0000000E+00;  4.0000000E+04; -3.3227415E-03;  0.0000000E+00; -1.5019211E-03;  2.2768072E+04;
  1.4000000E-01;  9.9999998E-03; -3.1999999E-01;2253;  0.0000000E+00;  0.0000000E+00;  0.0000000E+00;  1.0092378E+03;  1.0000000E-01;  7.6533145E+03;0;  0.0000000E+00;  0.0000000E+00;  0.0000000E+00;0; -5.3801741E-03;  4.0000000E+04;  0.0000000E+00;  0.0000000E+00;  4.0000000E+04;  0.0000000E+00;  4.0000000E+04; -3.9794357E-03;  0.0000000E+00; -1.4007383E-03;  2.7688439E+04;
  1.4000000E-01;  9.9999998E-03; -3.1000000E-01;2254;  0.0000000E+00;  0.0000000E+00;  0.0000000E+00;  1.0107451E+03;  1.0000000E-01;  8.9021680E+03;0;  0.0000000E+00;  0.0000000E+00;  0.0000000E+00;0; -5.7702078E-03;  4.0000000E+04;  0.0000000E+00;  0.0000000E+00;  4.0000000E+04;  0.0000000E+00;  4.0000000E+04; -4.6038134E-03;  0.0000000E+00; -1.1663943E-03;  3.1380594E+04;
  1.5000001E-01;  9.9999998E-03; -4.4000000E-01;2271;  0.0000000E+00;  0.0000000E+00;  0.0000000E+00;  1.0000000E+03;  1.0000000E-01;  0.0000000E+00;0;  0.0000000E+00;  0.0000000E+00;  0.0000000E+00;0; -5.0943385E-05;  4.0000000E+04;  0.0000000E+00;  0.0000000E+00;  4.0000000E+04;  0.0000000E+00;  4.0000000E+04; -1.5450285E-05;  0.0000000E+00; -3.5493100E-05;  7.8818695E+02;
  1.5000001E-01;  9.9999998E-03; -4.3000001E-01;2272;  0.0000000E+00;  0.0000000E+00;  0.0000000E+00;  1.0000737E+03;  1.0000000E-01;  6.1035313E+01;0;  0.0000000E+00;  0.0000000E+00;  0.0000000E+00;0; -1.4861881E-04;  4.0000000E+04;  0.0000000E+00;  0.0000000E+00;  4.0000000E+04;  0.0000000E+00;  4.0000000E+04; -5.0399653E-05;  0.0000000E+00; -9.8219163E-05;  1.7712651E+03;
  1.5000001E-01;  9.9999998E-03; -4.1999999E-01;2273;  0.0000000E+00;  0.0000000E+00;  0.0000000E+00;  1.0001498E+03;  1.0000000E-01;  1.2404588E+02;0;  0.0000000E+00;  0.0000000E+00;  0.0000000E+00;0; -3.2652231E-04;  4.0000000E+04;  0.0000000E+00;  0.0000000E+00;  4.0000000E+04;  0.0000000E+00;  4.0000000E+04; -1.2051239E-04;  0.0000000E+00; -2.0600992E-04;  2.9766885E+03;
  1.5000001E-01;  9.9999998E-03; -4.1000000E-01;2274;  0.0000000E+00;  0.0000000E+00;  0.0000000E+00;  1.0003983E+03;  1.0000000E-01;  3.2996597E+02;0;  0.0000000E+00;  0.0000000E+00;  0.0000000E+00;0; -5.9681194E-04;  4.0000000E+04;  0.0000000E+00;  0.0000000E+00;  4.0000000E+04;  0.0000000E+00;  4.0000000E+04; -2.3943740E-04;  0.0000000E+00; -3.5737452E-04;  4.0530205E+03;
  1.5000001E-01;  9.9999998E-03; -4.0000001E-01;2275;  0.0000000E+00;  0.0000000E+00;  0.0000000E+00;  1.0007147E+03;  1.0000000E-01;  5.9218079E+02;0;  0.0000000E+00;  0.0000000E+00;  0.0000000E+00;0; -9.6292223E-04;  4.0000000E+04;  0.0000000E+00;  0.0000000E+00;  4.0000000E+04;  0.0000000E+00;  4.0000000E+04; -4.2130481E-04;  0.0000000E+00; -5.4161740E-04;  4.6800967E+03;
  1.5000001E-01;  9.9999998E-03; -3.8999999E-01;2276;  0.0000000E+00;  0.0000000E+00;  0.0000000E+00;  1.0011991E+03;  1.0000000E-01;  9.9345337E+02;0;  0.0000000E+00;  0.0000000E+00;  0.0000000E+00;0; -1.4247792E-03;  4.0000000E+04;  0.0000000E+00;  0.0000000E+00;  4.0000000E+04;  0.0000000E+00;  4.0000000E+04; -6.8062980E-04;  0.0000000E+00; -7.4414932E-04;  4.8246357E+03;
  1.5000001E-01;  9.9999998E-03; -3.8000000E-01;2277;  0.0000000E+00;  0.0000000E+00;  0.0000000E+00;  1.0018741E+03;  1.0000000E-01;  1.5526475E+03;0;  0.0000000E+00;  0.0000000E+00;  0.0000000E+00;0; -1.9813823E-03;  4.0000000E+04;  0.0000000E+00;  0.0000000E+00;  4.0000000E+04;  0.0000000E+00;  4.0000000E+04; -1.0310652E-03;  0.0000000E+00; -9.5031690E-04;  5.1944819E+03;
  1.5000001E-01;  9.9999998E-03; -3.7000000E-01;2278;  0.0000000E+00;  0.0000000E+00;  0.0000000E+00;  1.0027773E+03;  1.0000000E-01;  2.3009719E+03;0;  0.0000000E+00;  0.0000000E+00;  0.0000000E+00;0; -2.6290258E-03;  4.0000000E+04;  0.0000000E+00;  0.0000000E+00;  4.0000000E+04;  0.0000000E+00;  4.0000000E+04; -1.4825322E-03;  0.0000000E+00; -1.1464937E-03;  7.3119204E+03;
  1.5000001E-01;  9.9999998E-03; -3.6000001E-01;2279;  0.0000000E+00;  0.0000000E+00;  0.0000000E+00;  1.0039067E+03;  1.0000000E-01;  3.2366492E+03;0;  0.0000000E+00;  0.0000000E+00;  0.0000000E+00;0; -3.3564353E-03;  4.0000000E+04;  0.0000000E+00;  0.0000000E+00;  4.0000000E+04;  0.0000000E+00;  4.0000000E+04; -2.0373317E-03;  0.0000000E+00; -1.3191038E-03;  1.1791390E+04;
  1.5000001E-01;  9.9999998E-03; -3.4999999E-01;2280;  0.0000000E+00;  0.0000000E+00;  0.0000000E+00;  1.0052612E+03;  1.0000000E-01;  4.3587905E+03;0;  0.0000000E+00;  0.0000000E+00;  0.0000000E+00;0; -4.1388865E-03;  4.0000000E+04;  0.0000000E+00;  0.0000000E+00;  4.0000000E+04;  0.0000000E+00;  4.0000000E+04; -2.6861490E-03;  0.0000000E+00; -1.4527376E-03;  1.8151230E+04;
  1.5000001E-01;  9.9999998E-03; -3.4000000E-01;2281;  0.0000000E+00;  0.0000000E+00;  0.0000000E+00;  1.0067883E+03;  1.0000000E-01;  5.6240386E+03;0;  0.0000000E+00;  0.0000000E+00;  0.0000000E+00;0; -4.9336711E-03;  4.0000000E+04;  0.0000000E+00;  0.0000000E+00;  4.0000000E+04;  0.0000000E+00;  4.0000000E+04; -3.4054706E-03;  0.0000000E+00; -1.5282007E-03;  2.5680436E+04;
  1.5000001E-01;  9.9999998E-03; -3.3000001E-01;2282;  0.0000000E+00;  0.0000000E+00;  0.0000000E+00;  1.0084268E+03;  1.0000000E-01;  6.9814321E+03;0;  0.0000000E+00;  0.0000000E+00;  0.0000000E+00;0; -5.6789434E-03;  4.0000000E+04;  0.0000000E+00;  0.0000000E+00;  4.0000000E+04;  0.0000000E+00;  4.0000000E+04; -4.1576670E-03;  0.0000000E+00; -1.5212761E-03;  3.3441371E+04;
  1.5000001E-01;  9.9999998E-03; -3.1999999E-01;2283;  0.0000000E+00;  0.0000000E+00;  0.0000000E+00;  1.0100707E+03;  1.0000000E-01;  8.3433691E+03;0;  0.0000000E+00;  0.0000000E+00;  0.0000000E+00;0; -6.2975534E-03;  4.0000000E+04;  0.0000000E+00;  0.0000000E+00;  4.0000000E+04;  0.0000000E+00;  4.0000000E+04; -4.8942701E-03;  0.0000000E+00; -1.4032833E-03;  4.0221637E+04;
  1.5000001E-01;  9.9999998E-03; -3.1000000E-01;2284;  0.0000000E+00;  0.0000000E+00;  0.0000000E+00;  1.0116099E+03;  1.0000000E-01;  9.6185918E+03;0;  0.0000000E+00;  0.0000000E+00;  0.0000000E+00;0; -6.7079528E-03;  4.0000000E+04;  0.0000000E+00;  0.0000000E+00;  4.0000000E+04;  0.0000000E+00;  4.0000000E+04; -5.5625690E-03;  0.0000000E+00; -1.1453838E-03;  4.4709543E+04;
  1.6000000E-01;  9.9999998E-03; -4.4000000E-01;2301;  0.0000000E+00;  0.0000000E+00;  0.0000000E+00;  1.0000000E+03;  1.0000000E-01;  0.0000000E+00;0;  0.0000000E+00;  0.0000000E+00;  0.0000000E+00;0; -6.6099652E-05;  4.0000000E+04;  0.0000000E+00;  0.0000000E+00;  4.0000000E+04;  0.0000000E+00;  4.0000000E+04; -2.8138962E-05;  0.0000000E+00; -3.7960690E-05;  1.3744641E+03;
  1.6000000E-01;  9.9999998E-03; -4.3000001E-01;2302;  0.0000000E+00;  0.0000000E+00;  0.0000000E+00;  1.0000867E+03;  1.0000000E-01;  7.1800438E+01;0;  0.0000000E+00;  0.0000000E+00;  0.0000000E+00;0; -1.8769289E-04;  4.0000000E+04;  0.0000000E+00;  0.0000000E+00;  4.0000000E+04;  0.0000000E+00;  4.0000000E+04; -8.1778315E-05;  0.0000000E+00; -1.0591457E-04;  2.9744128E+03;
  1.6000000E-01;  9.9999998E-03; -4.1999999E-01;2303;  0.0000000E+00;  0.0000000E+00;  0.0000000E+00;  1.0001853E+03;  1.0000000E-01;  1.5347714E+02;0;  0.0000000E+00;  0.0000000E+00;  0.0000000E+00;0; -4.0193330E-04;  4.0000000E+04;  0.0000000E+00;  0.0000000E+00;  4.0000000E+04;  0.0000000E+00;  4.0000000E+04; -1.8073028E-04;  0.0000000E+00; -2.2120302E-04;  4.7904551E+03;
  1.6000000E-01;  9.9999998E-03; -4.1000000E-01;2304;  0.0000000E+00;  0.0000000E+00;  0.0000000E+00;  1.0004581E+03;  1.0000000E-01;  3.7954483E+02;0;  0.0000000E+00;  0.0000000E+00;  0.0000000E+00;0; -7.1921211E-04;  4.0000000E+04;  0.0000000E+00;  0.0000000E+00;  4.0000000E+04;  0.0000000E+00;  4.0000000E+04; -3.3872819E-04;  0.0000000E+00; -3.8048395E-04;  6.1781494E+03;
  1.6000000E-01;  9.9999998E-03; -4.0000001E-01;2305;  0.0000000E+00;  0.0000000E+00;  0.0000000E+00;  1.0008104E+03;  1.0000000E-01;  6.7138843E+02;0;  0.0000000E+00;  0.0000000E+00;  0.0000000E+00;0; -1.1415742E-03;  4.0000000E+04;  0.0000000E+00;  0.0000000E+00;  4.0000000E+04;  0.0000000E+00;  4.0000000E+04; -5.7030242E-04;  0.0000000E+00; -5.7127187E-04;  6.5558462E+03;
  1.6000000E-01;  9.9999998E-03; -3.8999999E-01;2306;  0.0000000E+00;  0.0000000E+00;  0.0000000E+00;  1.0013553E+03;  1.0000000E-01;  1.1228324E+03;0;  0.0000000E+00;  0.0000000E+00;  0.0000000E+00;0; -1.6687519E-03;  4.0000000E+04;  0.0000000E+00;  0.0000000E+00;  4.0000000E+04;  0.0000000E+00;  4.0000000E+04; -8.9088135E-04;  0.0000000E+00; -7.7787059E-04;  5.7591592E+03;
  1.6000000E-01;  9.9999998E-03; -3.8000000E-01;2307;  0.0000000E+00;  0.0000000E+00;  0.0000000E+00;  1.0021124E+03;  1.0000000E-01;  1.7500740E+03;0;  0.0000000E+00;  0.0000000E+00;  0.0000000E+00;0; -2.3001807E-03;  4.0000000E+04;  0.0000000E+00;  0.0000000E+00;  4.0000000E+04;  0.0000000E+00;  4.0000000E+04; -1.3148311E-03;  0.0000000E+00; -9.8534964E-04;  5.1574453E+03;
  1.6000000E-01;  9.9999998E-03; -3.7000000E-01;2308;  0.0000000E+00;  0.0000000E+00;  0.0000000E+00;  1.0031032E+03;  1.0000000E-01;  2.5709890E+03;0;  0.0000000E+00;  0.0000000E+00;  0.0000000E+00;0; -3.0319248E-03;  4.0000000E+04;  0.0000000E+00;  0.0000000E+00;  4.0000000E+04;  0.0000000E+00;  4.0000000E+04; -1.8516040E-03;  0.0000000E+00; -1.1803207E-03;  8.5311670E+03;
  1.6000000E-01;  9.9999998E-03; -3.6000001E-01;2309;  0.0000000E+00;  0.0000000E+00;  0.0000000E+00;  1.0043604E+03;  1.0000000E-01;  3.6125398E+03;0;  0.0000000E+00;  0.0000000E+00;  0.0000000E+00;0; -3.8505266E-03;  4.0000000E+04;  0.0000000E+00;  0.0000000E+00;  4.0000000E+04;  0.0000000E+00;  4.0000000E+04; -2.5010111E-03;  0.0000000E+00; -1.3495154E-03;  1.5866756E+04;
  1.6000000E-01;  9.9999998E-03; -3.4999999E-01;2310;  0.0000000E+00;  0.0000000E+00;  0.0000000E+00;  1.0058412E+03;  1.0000000E-01;  4.8393691E+03;0;  0.0000000E+00;  0.0000000E+00;  0.0000000E+00;0; -4.7263680E-03;  4.0000000E+04;  0.0000000E+00;  0.0000000E+00;  4.0000000E+04;  0.0000000E+00;  4.0000000E+04; -3.2487616E-03;  0.0000000E+00; -1.4776064E-03;  2.5560811E+04;
  1.6000000E-01;  9.9999998E-03; -3.4000000E-01;2311;  0.0000000E+00;  0.0000000E+00;  0.0000000E+00;  1.0074912E+03;  1.0000000E-01;  6.2063428E+03;0;  0.0000000E+00;  0.0000000E+00;  0.0000000E+00;0; -5.6090225E-03;  4.0000000E+04;  0.0000000E+00;  0.0000000E+00;  4.0000000E+04;  0.0000000E+00;  4.0000000E+04; -4.0638139E-03;  0.0000000E+00; -1.5452087E-03;  3.6445098E+04;
  1.6000000E-01;  9.9999998E-03; -3.3000001E-01;2312;  0.0000000E+00;  0.0000000E+00;  0.0000000E+00;  1.0092281E+03;  1.0000000E-01;  7.6453145E+03;0;  0.0000000E+00;  0.0000000E+00;  0.0000000E+00;0; -6.4264238E-03;  4.0000000E+04;  0.0000000E+00;  0.0000000E+00;  4.0000000E+04;  0.0000000E+00;  4.0000000E+04; -4.8986166E-03;  0.0000000E+00; -1.5278072E-03;  4.7102012E+04;
  1.6000000E-01;  9.9999998E-03; -3.1999999E-01;2313;  0.0000000E+00;  0.0000000E+00;  0.0000000E+00;  1.0109385E+03;  1.0000000E-01;  9.0623613E+03;0;  0.0000000E+00;  0.0000000E+00;  0.0000000E+00;0; -7.0890384E-03;  4.0000000E+04;  0.0000000E+00;  0.0000000E+00;  4.0000000E+04;  0.0000000E+00;  4.0000000E+04; -5.6924927E-03;  0.0000000E+00; -1.3965456E-03;  5.5776008E+04;
  1.6000000E-01;  9.9999998E-03; -3.1000000E-01;2314;  0.0000000E+00;  0.0000000E+00;  0.0000000E+00;  1.0124885E+03;  1.0000000E-01;  1.0346473E+04;0;  0.0000000E+00;  0.0000000E+00;  0.0000000E+00;0; -7.5009288E-03;  4.0000000E+04;  0.0000000E+00;  0.0000000E+00;  4.0000000E+04;  0.0000000E+00;  4.0000000E+04; -6.3786269E-03;  0.0000000E+00; -1.1223020E-03;  6.0693180E+04;
  1.7000000E-01;  9.9999998E-03; -4.4000000E-01;2331;  0.0000000E+00;  0.0000000E+00;  0.0000000E+00;  1.0000000E+03;  1.0000000E-01;  0.0000000E+00;0;  0.0000000E+00;  0.0000000E+00;  0.0000000E+00;0; -8.2511709E-05;  4.0000000E+04;  0.0000000E+00;  0.0000000E+00;  4.0000000E+04;  0.0000000E+00;  4.0000000E+04; -4.0939867E-05;  0.0000000E+00; -4.1571842E-05;  2.3058635E+03;
  1.7000000E-01;  9.9999998E-03; -4.3000001E-01;2332;  0.0000000E+00;  0.0000000E+00;  0.0000000E+00;  1.0000942E+03;  1.0000000E-01;  7.8022484E+01;0;  0.0000000E+00;  0.0000000E+00;  0.0000000E+00;0; -2.2649685E-04;  4.0000000E+04;  0.0000000E+00;  0.0000000E+00;  4.0000000E+04;  0.0000000E+00;  4.0000000E+04; -1.1099469E-04;  0.0000000E+00; -1.1550216E-04;  4.8275088E+03;
  1.7000000E-01;  9.9999998E-03; -4.1999999E-01;2333;  0.0000000E+00;  0.0000000E+00;  0.0000000E+00;  1.0002502E+03;  1.0000000E-01;  2.0730278E+02;0;  0.0000000E+00;  0.0000000E+00;  0.0000000E+00;0; -4.7087594E-04;  4.0000000E+04;  0.0000000E+00;  0.0000000E+00;  4.0000000E+04;  0.0000000E+00;  4.0000000E+04; -2.3266072E-04;  0.0000000E+00; -2.3821522E-04;  7.5222593E+03;
  1.7000000E-01;  9.9999998E-03; -4.1000000E-01;2334;  0.0000000E+00;  0.0000000E+00;  0.0000000E+00;  1.0005081E+03;  1.0000000E-01;  4.2092636E+02;0;  0.0000000E+00;  0.0000000E+00;  0.0000000E+00;0; -8.2302128E-04;  4.0000000E+04;  0.0000000E+00;  0.0000000E+00;  4.0000000E+04;  0.0000000E+00;  4.0000000E+04; -4.1879024E-04;  0.0000000E+00; -4.0423105E-04;  9.3525039E+03;
  1.7000000E-01;  9.9999998E-03; -4.0000001E-01;2335;  0.0000000E+00;  0.0000000E+00;  0.0000000E+00;  1.0009047E+03;  1.0000000E-01;  7.4950964E+02;0;  0.0000000E+00;  0.0000000E+00;  0.0000000E+00;0; -1.2835281E-03;  4.0000000E+04;  0.0000000E+00;  0.0000000E+00;  4.0000000E+04;  0.0000000E+00;  4.0000000E+04; -6.8414246E-04;  0.0000000E+00; -5.9938559E-04;  9.4194150E+03;
  1.7000000E-01;  9.9999998E-03; -3.8999999E-01;2336;  0.0000000E+00;  0.0000000E+00;  0.0000000E+00;  1.0015051E+03;  1.0000000E-01;  1.2468783E+03;0;  0.0000000E+00;  0.0000000E+00;  0.0000000E+00;0; -1.8523537E-03;  4.0000000E+04;  0.0000000E+00;  0.0000000E+00;  4.0000000E+04;  0.0000000E+00;  4.0000000E+04; -1.0450560E-03;  0.0000000E+00; -8.0729765E-04;  7.3298726E+03;
  1.7000000E-01;  9.9999998E-03; -3.8000000E-01;2337;  0.0000000E+00;  0.0000000E+00;  0.0000000E+00;  1.0023409E+03;  1.0000000E-01;  1.9394020E+03;0;  0.0000000E+00;  0.0000000E+00;  0.0000000E+00;0; -2.5297736E-03;  4.0000000E+04;  0.0000000E+00;  0.0000000E+00;  4.0000000E+04;  0.0000000E+00;  4.0000000E+04; -1.5164553E-03;  0.0000000E+00; -1.0133183E-03;  4.9336665E+03;
  1.7000000E-01;  9.9999998E-03; -3.7000000E-01;2338;  0.0000000E+00;  0.0000000E+00;  0.0000000E+00;  1.0034378E+03;  1.0000000E-01;  2.8481169E+03;0;  0.0000000E+00;  0.0000000E+00;  0.0000000E+00;0; -3.3119321E-03;  4.0000000E+04;  0.0000000E+00;  0.0000000E+00;  4.0000000E+04;  0.0000000E+00;  4.0000000E+04; -2.1071974E-03;  0.0000000E+00; -1.2047346E-03;  1.0188299E+04;
  1.7000000E-01;  9.9999998E-03; -3.6000001E-01;2339;  0.0000000E+00;  0.0000000E+00;  0.0000000E+00;  1.0047944E+03;  1.0000000E-01;  3.9721345E+03;0;  0.0000000E+00;  0.0000000E+00;  0.0000000E+00;0; -4.1836291E-03;  4.0000000E+04;  0.0000000E+00;  0.0000000E+00;  4.0000000E+04;  0.0000000E+00;  4.0000000E+04; -2.8147928E-03;  0.0000000E+00; -1.3688363E-03;  2.1121215E+04;
  1.7000000E-01;  9.9999998E-03; -3.4999999E-01;2340;  0.0000000E+00;  0.0000000E+00;  0.0000000E+00;  1.0063866E+03;  1.0000000E-01;  5.2912085E+03;0;  0.0000000E+00;  0.0000000E+00;  0.0000000E+00;0; -5.1113064E-03;  4.0000000E+04;  0.0000000E+00;  0.0000000E+00;  4.0000000E+04;  0.0000000E+00;  4.0000000E+04; -3.6208052E-03;  0.0000000E+00; -1.4905011E-03;  3.4745758E+04;
  1.7000000E-01;  9.9999998E-03; -3.4000000E-01;2341;  0.0000000E+00;  0.0000000E+00;  0.0000000E+00;  1.0081503E+03;  1.0000000E-01;  6.7523027E+03;0;  0.0000000E+00;  0.0000000E+00;  0.0000000E+00;0; -6.0385815E-03;  4.0000000E+04;  0.0000000E+00;  0.0000000E+00;  4.0000000E+04;  0.0000000E+00;  4.0000000E+04; -4.4883951E-03;  0.0000000E+00; -1.5501865E-03;  4.9475211E+04;
  1.7000000E-01;  9.9999998E-03; -3.3000001E-01;2342;  0.0000000E+00;  0.0000000E+00;  0.0000000E+00;  1.0099738E+03;  1.0000000E-01;  8.2630752E+03;0;  0.0000000E+00;  0.0000000E+00;  0.0000000E+00;0; -6.8858541E-03;  4.0000000E+04;  0.0000000E+00;  0.0000000E+00;  4.0000000E+04;  0.0000000E+00;  4.0000000E+04; -5.3628264E-03;  0.0000000E+00; -1.5230275E-03;  6.3330691E+04;
  1.7000000E-01;  9.9999998E-03; -3.1999999E-01;2343;  0.0000000E+00;  0.0000000E+00;  0.0000000E+00;  1.0117297E+03;  1.0000000E-01;  9.7178486E+03;0;  0.0000000E+00;  0.0000000E+00;  0.0000000E+00;0; -7.5549833E-03;  4.0000000E+04;  0.0000000E+00;  0.0000000E+00;  4.0000000E+04;  0.0000000E+00;  4.0000000E+04; -6.1747879E-03;  0.0000000E+00; -1.3801955E-03;  7.3911500E+04;
  1.7000000E-01;  9.9999998E-03; -3.1000000E-01;2344;  0.0000000E+00;  0.0000000E+00;  0.0000000E+00;  1.0132823E+03;  1.0000000E-01;  1.1004133E+04;0;  0.0000000E+00;  0.0000000E+00;  0.0000000E+00;0; -7.9401899E-03;  4.0000000E+04;  0.0000000E+00;  0.0000000E+00;  4.0000000E+04;  0.0000000E+00;  4.0000000E+04; -6.8461872E-03;  0.0000000E+00; -1.0940024E-03;  7.8901688E+04;
  1.8000001E-01;  9.9999998E-03; -4.4000000E-01;2361;  0.0000000E+00;  0.0000000E+00;  0.0000000E+00;  1.0000000E+03;  1.0000000E-01;  0.0000000E+00;0;  0.0000000E+00;  0.0000000E+00;  0.0000000E+00;0; -9.7627293E-05;  4.0000000E+04;  0.0000000E+00;  0.0000000E+00;  4.0000000E+04;  0.0000000E+00;  4.0000000E+04; -5.0507264E-05;  0.0000000E+00; -4.7120029E-05;  3.6616992E+03;
  1.8000001E-01;  9.9999998E-03; -4.3000001E-01;2362;  0.0000000E+00;  0.0000000E+00;  0.0000000E+00;  1.0000967E+03;  1.0000000E-01;  8.0096497E+01;0;  0.0000000E+00;  0.0000000E+00;  0.0000000E+00;0; -2.5794946E-04;  4.0000000E+04;  0.0000000E+00;  0.0000000E+00;  4.0000000E+04;  0.0000000E+00;  4.0000000E+04; -1.2989073E-04;  0.0000000E+00; -1.2805875E-04;  7.4219102E+03;
  1.8000001E-01;  9.9999998E-03; -4.1999999E-01;2363;  0.0000000E+00;  0.0000000E+00;  0.0000000E+00;  1.0002914E+03;  1.0000000E-01;  2.4147466E+02;0;  0.0000000E+00;  0.0000000E+00;  0.0000000E+00;0; -5.1941595E-04;  4.0000000E+04;  0.0000000E+00;  0.0000000E+00;  4.0000000E+04;  0.0000000E+00;  4.0000000E+04; -2.6108956E-04;  0.0000000E+00; -2.5832638E-04;  1.1220378E+04;
  1.8000001E-01;  9.9999998E-03; -4.1000000E-01;2364;  0.0000000E+00;  0.0000000E+00;  0.0000000E+00;  1.0005596E+03;  1.0000000E-01;  4.6369058E+02;0;  0.0000000E+00;  0.0000000E+00;  0.0000000E+00;0; -8.8554597E-04;  4.0000000E+04;  0.0000000E+00;  0.0000000E+00;  4.0000000E+04;  0.0000000E+00;  4.0000000E+04; -4.5555519E-04;  0.0000000E+00; -4.2999076E-04;  1.3553102E+04;
  1.8000001E-01;  9.9999998E-03; -4.0000001E-01;2365;  0.0000000E+00;  0.0000000E+00;  0.0000000E+00;  1.0009985E+03;  1.0000000E-01;  8.2723584E+02;0;  0.0000000E+00;  0.0000000E+00;  0.0000000E+00;0; -1.3553840E-03;  4.0000000E+04;  0.0000000E+00;  0.0000000E+00;  4.0000000E+04;  0.0000000E+00;  4.0000000E+04; -7.2802178E-04;  0.0000000E+00; -6.2736223E-04;  1.3215653E+04;
  1.8000001E-01;  9.9999998E-03; -3.8999999E-01;2366;  0.0000000E+00;  0.0000000E+00;  0.0000000E+00;  1.0016411E+03;  1.0000000E-01;  1.3596653E+03;0;  0.0000000E+00;  0.0000000E+00;  0.0000000E+00;0; -1.9290764E-03;  4.0000000E+04;  0.0000000E+00;  0.0000000E+00;  4.0000000E+04;  0.0000000E+00;  4.0000000E+04; -1.0951816E-03;  0.0000000E+00; -8.3389482E-04;  9.6101680E+03;
  1.8000001E-01;  9.9999998E-03; -3.8000000E-01;2367;  0.0000000E+00;  0.0000000E+00;  0.0000000E+00;  1.0025338E+03;  1.0000000E-01;  2.0992000E+03;0;  0.0000000E+00;  0.0000000E+00;  0.0000000E+00;0; -2.6076229E-03;  4.0000000E+04;  0.0000000E+00;  0.0000000E+00;  4.0000000E+04;  0.0000000E+00;  4.0000000E+04; -1.5718652E-03;  0.0000000E+00; -1.0357577E-03;  4.5837437E+03;
  1.8000001E-01;  9.9999998E-03; -3.7000000E-01;2368;  0.0000000E+00;  0.0000000E+00;  0.0000000E+00;  1.0036995E+03;  1.0000000E-01;  3.0649009E+03;0;  0.0000000E+00;  0.0000000E+00;  0.0000000E+00;0; -3.3873664E-03;  4.0000000E+04;  0.0000000E+00;  0.0000000E+00;  4.0000000E+04;  0.0000000E+00;  4.0000000E+04; -2.1660372E-03;  0.0000000E+00; -1.2213291E-03;  1.2134170E+04;
  1.8000001E-01;  9.9999998E-03; -3.6000001E-01;2369;  0.0000000E+00;  0.0000000E+00;  0.0000000E+00;  1.0051394E+03;  1.0000000E-01;  4.2578550E+03;0;  0.0000000E+00;  0.0000000E+00;  0.0000000E+00;0; -4.2522168E-03;  4.0000000E+04;  0.0000000E+00;  0.0000000E+00;  4.0000000E+04;  0.0000000E+00;  4.0000000E+04; -2.8734619E-03;  0.0000000E+00; -1.3787547E-03;  2.7037037E+04;
  1.8000001E-01;  9.9999998E-03; -3.4999999E-01;2370;  0.0000000E+00;  0.0000000E+00;  0.0000000E+00;  1.0068205E+03;  1.0000000E-01;  5.6506055E+03;0;  0.0000000E+00;  0.0000000E+00;  0.0000000E+00;0; -5.1666871E-03;  4.0000000E+04;  0.0000000E+00;  0.0000000E+00;  4.0000000E+04;  0.0000000E+00;  4.0000000E+04; -3.6733651E-03;  0.0000000E+00; -1.4933220E-03;  4.4884867E+04;
  1.8000001E-01;  9.9999998E-03; -3.4000000E-01;2371;  0.0000000E+00;  0.0000000E+00;  0.0000000E+00;  1.0086648E+03;  1.0000000E-01;  7.1786611E+03;0;  0.0000000E+00;  0.0000000E+00;  0.0000000E+00;0; -6.0717226E-03;  4.0000000E+04;  0.0000000E+00;  0.0000000E+00;  4.0000000E+04;  0.0000000E+00;  4.0000000E+04; -4.5263176E-03;  0.0000000E+00; -1.5454049E-03;  6.3701359E+04;
  1.8000001E-01;  9.9999998E-03; -3.3000001E-01;2372;  0.0000000E+00;  0.0000000E+00;  0.0000000E+00;  1.0105526E+03;  1.0000000E-01;  8.7426660E+03;0;  0.0000000E+00;  0.0000000E+00;  0.0000000E+00;0; -6.8847132E-03;  4.0000000E+04;  0.0000000E+00;  0.0000000E+00;  4.0000000E+04;  0.0000000E+00;  4.0000000E+04; -5.3750421E-03;  0.0000000E+00; -1.5096711E-03;  8.0910359E+04;
  1.8000001E-01;  9.9999998E-03; -3.1999999E-01;2373;  0.0000000E+00;  0.0000000E+00;  0.0000000E+00;  1.0123395E+03;  1.0000000E-01;  1.0223020E+04;0;  0.0000000E+00;  0.0000000E+00;  0.0000000E+00;0; -7.5046602E-03;  4.0000000E+04;  0.0000000E+00;  0.0000000E+00;  4.0000000E+04;  0.0000000E+00;  4.0000000E+04; -6.1477283E-03;  0.0000000E+00; -1.3569318E-03;  9.3409578E+04;
  1.8000001E-01;  9.9999998E-03; -3.1000000E-01;2374;  0.0000000E+00;  0.0000000E+00;  0.0000000E+00;  1.0138818E+03;  1.0000000E-01;  1.1500811E+04;0;  0.0000000E+00;  0.0000000E+00;  0.0000000E+00;0; -7.8233741E-03;  4.0000000E+04;  0.0000000E+00;  0.0000000E+00;  4.0000000E+04;  0.0000000E+00;  4.0000000E+04; -6.7622848E-03;  0.0000000E+00; -1.0610889E-03;  9.8268414E+04;
  1.9000000E-01;  9.9999998E-03; -4.4000000E-01;2391;  0.0000000E+00;  0.0000000E+00;  0.0000000E+00;  1.0000082E+03;  1.0000000E-01;  6.8146219E+00;0;  0.0000000E+00;  0.0000000E+00;  0.0000000E+00;0; -1.0836009E-04;  4.0000000E+04;  0.0000000E+00;  0.0000000E+00;  4.0000000E+04;  0.0000000E+00;  4.0000000E+04; -5.3039788E-05;  0.0000000E+00; -5.5320299E-05;  5.4594839E+03;
  1.9000000E-01;  9.9999998E-03; -4.3000001E-01;2392;  0.0000000E+00;  0.0000000E+00;  0.0000000E+00;  1.0001141E+03;  1.0000000E-01;  9.4515846E+01;0;  0.0000000E+00;  0.0000000E+00;  0.0000000E+00;0; -2.7504264E-04;  4.0000000E+04;  0.0000000E+00;  0.0000000E+00;  4.0000000E+04;  0.0000000E+00;  4.0000000E+04; -1.3068225E-04;  0.0000000E+00; -1.4436038E-04;  1.0715979E+04;
  1.9000000E-01;  9.9999998E-03; -4.1999999E-01;2393;  0.0000000E+00;  0.0000000E+00;  0.0000000E+00;  1.0003323E+03;  1.0000000E-01;  2.7535025E+02;0;  0.0000000E+00;  0.0000000E+00;  0.0000000E+00;0; -5.3618511E-04;  4.0000000E+04;  0.0000000E+00;  0.0000000E+00;  4.0000000E+04;  0.0000000E+00;  4.0000000E+04; -2.5397231E-04;  0.0000000E+00; -2.8221283E-04;  1.5726983E+04;
  1.9000000E-01;  9.9999998E-03; -4.1000000E-01;2394;  0.0000000E+00;  0.0000000E+00;  0.0000000E+00;  1.0006120E+03;  1.0000000E-01;  5.0704739E+02;0;  0.0000000E+00;  0.0000000E+00;  0.0000000E+00;0; -8.9115062E-04;  4.0000000E+04;  0.0000000E+00;  0.0000000E+00;  4.0000000E+04;  0.0000000E+00;  4.0000000E+04; -4.3285050E-04;  0.0000000E+00; -4.5830011E-04;  1.8508984E+04;
  1.9000000E-01;  9.9999998E-03; -4.0000001E-01;2395;  0.0000000E+00;  0.0000000E+00;  0.0000000E+00;  1.0010746E+03;  1.0000000E-01;  8.9024640E+02;0;  0.0000000E+00;  0.0000000E+00;  0.0000000E+00;0; -1.3369656E-03;  4.0000000E+04;  0.0000000E+00;  0.0000000E+00;  4.0000000E+04;  0.0000000E+00;  4.0000000E+04; -6.8129797E-04;  0.0000000E+00; -6.5566762E-04;  1.7631896E+04;
  1.9000000E-01;  9.9999998E-03; -3.8999999E-01;2396;  0.0000000E+00;  0.0000000E+00;  0.0000000E+00;  1.0017416E+03;  1.0000000E-01;  1.4428234E+03;0;  0.0000000E+00;  0.0000000E+00;  0.0000000E+00;0; -1.8731277E-03;  4.0000000E+04;  0.0000000E+00;  0.0000000E+00;  4.0000000E+04;  0.0000000E+00;  4.0000000E+04; -1.0150366E-03;  0.0000000E+00; -8.5809111E-04;  1.2404808E+04;
  1.9000000E-01;  9.9999998E-03; -3.8000000E-01;2397;  0.0000000E+00;  0.0000000E+00;  0.0000000E+00;  1.0026683E+03;  1.0000000E-01;  2.2107029E+03;0;  0.0000000E+00;  0.0000000E+00;  0.0000000E+00;0; -2.5004712E-03;  4.0000000E+04;  0.0000000E+00;  0.0000000E+00;  4.0000000E+04;  0.0000000E+00;  4.0000000E+04; -1.4474682E-03;  0.0000000E+00; -1.0530029E-03;  4.2480293E+03;
  1.9000000E-01;  9.9999998E-03; -3.7000000E-01;2398;  0.0000000E+00;  0.0000000E+00;  0.0000000E+00;  1.0038738E+03;  1.0000000E-01;  3.2093906E+03;0;  0.0000000E+00;  0.0000000E+00;  0.0000000E+00;0; -3.2152166E-03;  4.0000000E+04;  0.0000000E+00;  0.0000000E+00;  4.0000000E+04;  0.0000000E+00;  4.0000000E+04; -1.9849574E-03;  0.0000000E+00; -1.2302592E-03;  1.4021715E+04;
  1.9000000E-01;  9.9999998E-03; -3.6000001E-01;2399;  0.0000000E+00;  0.0000000E+00;  0.0000000E+00;  1.0053597E+03;  1.0000000E-01;  4.4404668E+03;0;  0.0000000E+00;  0.0000000E+00;  0.0000000E+00;0; -4.0012961E-03;  4.0000000E+04;  0.0000000E+00;  0.0000000E+00;  4.0000000E+04;  0.0000000E+00;  4.0000000E+04; -2.6220414E-03;  0.0000000E+00; -1.3792546E-03;  3.2778602E+04;
  1.9000000E-01;  9.9999998E-03; -3.4999999E-01;2400;  0.0000000E+00;  0.0000000E+00;  0.0000000E+00;  1.0070894E+03;  1.0000000E-01;  5.8734141E+03;0;  0.0000000E+00;  0.0000000E+00;  0.0000000E+00;0; -4.8238235E-03;  4.0000000E+04;  0.0000000E+00;  0.0000000E+00;  4.0000000E+04;  0.0000000E+00;  4.0000000E+04; -3.3376988E-03;  0.0000000E+00; -1.4861245E-03;  5.4665035E+04;
  1.9000000E-01;  9.9999998E-03; -3.4000000E-01;2401;  0.0000000E+00;  0.0000000E+00;  0.0000000E+00;  1.0089746E+03;  1.0000000E-01;  7.4352466E+03;0;  0.0000000E+00;  0.0000000E+00;  0.0000000E+00;0; -5.6253430E-03;  4.0000000E+04;  0.0000000E+00;  0.0000000E+00;  4.0000000E+04;  0.0000000E+00;  4.0000000E+04; -4.0936568E-03;  0.0000000E+00; -1.5316859E-03;  7.7376875E+04;
  1.9000000E-01;  9.9999998E-03; -3.3000001E-01;2402;  0.0000000E+00;  0.0000000E+00;  0.0000000E+00;  1.0108878E+03;  1.0000000E-01;  9.0203867E+03;0;  0.0000000E+00;  0.0000000E+00;  0.0000000E+00;0; -6.3260142E-03;  4.0000000E+04;  0.0000000E+00;  0.0000000E+00;  4.0000000E+04;  0.0000000E+00;  4.0000000E+04; -4.8353989E-03;  0.0000000E+00; -1.4906152E-03;  9.7805562E+04;
  1.9000000E-01;  9.9999998E-03; -3.1999999E-01;2403;  0.0000000E+00;  0.0000000E+00;  0.0000000E+00;  1.0126826E+03;  1.0000000E-01;  1.0507357E+04;0;  0.0000000E+00;  0.0000000E+00;  0.0000000E+00;0; -6.8286993E-03;  4.0000000E+04;  0.0000000E+00;  0.0000000E+00;  4.0000000E+04;  0.0000000E+00;  4.0000000E+04; -5.4952335E-03;  0.0000000E+00; -1.3334656E-03;  1.1217908E+05;
  1.9000000E-01;  9.9999998E-03; -3.1000000E-01;2404;  0.0000000E+00;  0.0000000E+00;  0.0000000E+00;  1.0141952E+03;  1.0000000E-01;  1.1760457E+04;0;  0.0000000E+00;  0.0000000E+00;  0.0000000E+00;0; -7.0308615E-03;  4.0000000E+04;  0.0000000E+00;  0.0000000E+00;  4.0000000E+04;  0.0000000E+00;  4.0000000E+04; -5.9961705E-03;  0.0000000E+00; -1.0346910E-03;  1.1691777E+05;
  2.0000000E-01;  9.9999998E-03; -4.4000000E-01;2420;  0.0000000E+00;  0.0000000E+00;  0.0000000E+00;  1.0000304E+03;  1.0000000E-01;  2.5184473E+01;0;  0.0000000E+00;  0.0000000E+00;  0.0000000E+00;0; -1.1262623E-04;  4.0000000E+04;  0.0000000E+00;  0.0000000E+00;  4.0000000E+04;  0.0000000E+00;  4.0000000E+04; -4.5932793E-05;  0.0000000E+00; -6.6693436E-05;  7.6263057E+03;
  2.0000000E-01;  9.9999998E-03; -4.3000001E-01;2421;  0.0000000E+00;  0.0000000E+00;  0.0000000E+00;  1.0001296E+03;  1.0000000E-01;  1.0735499E+02;0;  0.0000000E+00;  0.0000000E+00;  0.0000000E+00;0; -2.7449543E-04;  4.0000000E+04;  0.0000000E+00;  0.0000000E+00;  4.0000000E+04;  0.0000000E+00;  4.0000000E+04; -1.0996654E-04;  0.0000000E+00; -1.6452889E-04;  1.4519222E+04;
  2.0000000E-01;  9.9999998E-03; -4.1999999E-01;2422;  0.0000000E+00;  0.0000000E+00;  0.0000000E+00;  1.0003512E+03;  1.0000000E-01;  2.9095474E+02;0;  0.0000000E+00;  0.0000000E+00;  0.0000000E+00;0; -5.1846210E-04;  4.0000000E+04;  0.0000000E+00;  0.0000000E+00;  4.0000000E+04;  0.0000000E+00;  4.0000000E+04; -2.0911857E-04;  0.0000000E+00; -3.0934351E-04;  2.0709385E+04;
  2.0000000E-01;  9.9999998E-03; -4.1000000E-01;2423;  0.0000000E+00;  0.0000000E+00;  0.0000000E+00;  1.0006510E+03;  1.0000000E-01;  5.3934277E+02;0;  0.0000000E+00;  0.0000000E+00;  0.0000000E+00;0; -8.3967176E-04;  4.0000000E+04;  0.0000000E+00;  0.0000000E+00;  4.0000000E+04;  0.0000000E+00;  4.0000000E+04; -3.5166380E-04;  0.0000000E+00; -4.8800797E-04;  2.3787570E+04;
  2.0000000E-01;  9.9999998E-03; -4.0000001E-01;2424;  0.0000000E+00;  0.0000000E+00;  0.0000000E+00;  1.0011334E+03;  1.0000000E-01;  9.3903516E+02;0;  0.0000000E+00;  0.0000000E+00;  0.0000000E+00;0; -1.2321481E-03;  4.0000000E+04;  0.0000000E+00;  0.0000000E+00;  4.0000000E+04;  0.0000000E+00;  4.0000000E+04; -5.4950482E-04;  0.0000000E+00; -6.8264338E-04;  2.2225643E+04;
  2.0000000E-01;  9.9999998E-03; -3.8999999E-01;2425;  0.0000000E+00;  0.0000000E+00;  0.0000000E+00;  1.0018162E+03;  1.0000000E-01;  1.5047476E+03;0;  0.0000000E+00;  0.0000000E+00;  0.0000000E+00;0; -1.6932385E-03;  4.0000000E+04;  0.0000000E+00;  0.0000000E+00;  4.0000000E+04;  0.0000000E+00;  4.0000000E+04; -8.1548502E-04;  0.0000000E+00; -8.7775354E-04;  1.5379477E+04;
  2.0000000E-01;  9.9999998E-03; -3.8000000E-01;2426;  0.0000000E+00;  0.0000000E+00;  0.0000000E+00;  1.0027448E+03;  1.0000000E-01;  2.2740098E+03;0;  0.0000000E+00;  0.0000000E+00;  0.0000000E+00;0; -2.2221748E-03;  4.0000000E+04;  0.0000000E+00;  0.0000000E+00;  4.0000000E+04;  0.0000000E+00;  4.0000000E+04; -1.1597679E-03;  0.0000000E+00; -1.0624069E-03;  4.1347373E+03;
  2.0000000E-01;  9.9999998E-03; -3.7000000E-01;2427;  0.0000000E+00;  0.0000000E+00;  0.0000000E+00;  1.0039620E+03;  1.0000000E-01;  3.2823762E+03;0;  0.0000000E+00;  0.0000000E+00;  0.0000000E+00;0; -2.8142831E-03;  4.0000000E+04;  0.0000000E+00;  0.0000000E+00;  4.0000000E+04;  0.0000000E+00;  4.0000000E+04; -1.5859845E-03;  0.0000000E+00; -1.2282986E-03;  1.5496709E+04;
  2.0000000E-01;  9.9999998E-03; -3.6000001E-01;2428;  0.0000000E+00;  0.0000000E+00;  0.0000000E+00;  1.0054594E+03;  1.0000000E-01;  4.5229336E+03;0;  0.0000000E+00;  0.0000000E+00;  0.0000000E+00;0; -3.4540710E-03;  4.0000000E+04;  0.0000000E+00;  0.0000000E+00;  4.0000000E+04;  0.0000000E+00;  4.0000000E+04; -2.0875356E-03;  0.0000000E+00; -1.3665353E-03;  3.7509266E+04;
  2.0000000E-01;  9.9999998E-03; -3.4999999E-01;2429;  0.0000000E+00;  0.0000000E+00;  0.0000000E+00;  1.0071923E+03;  1.0000000E-01;  5.9587451E+03;0;  0.0000000E+00;  0.0000000E+00;  0.0000000E+00;0; -4.1096183E-03;  4.0000000E+04;  0.0000000E+00;  0.0000000E+00;  4.0000000E+04;  0.0000000E+00;  4.0000000E+04; -2.6448250E-03;  0.0000000E+00; -1.4647930E-03;  6.2714355E+04;
  2.0000000E-01;  9.9999998E-03; -3.4000000E-01;2430;  0.0000000E+00;  0.0000000E+00;  0.0000000E+00;  1.0090735E+03;  1.0000000E-01;  7.5172197E+03;0;  0.0000000E+00;  0.0000000E+00;  0.0000000E+00;0; -4.7294828E-03;  4.0000000E+04;  0.0000000E+00;  0.0000000E+00;  4.0000000E+04;  0.0000000E+00;  4.0000000E+04; -3.2242087E-03;  0.0000000E+00; -1.5052742E-03;  8.8593422E+04;
  2.0000000E-01;  9.9999998E-03; -3.3000001E-01;2431;  0.0000000E+00;  0.0000000E+00;  0.0000000E+00;  1.0109764E+03;  1.0000000E-01;  9.0937676E+03;0;  0.0000000E+00;  0.0000000E+00;  0.0000000E+00;0; -5.2428441E-03;  4.0000000E+04;  0.0000000E+00;  0.0000000E+00;  4.0000000E+04;  0.0000000E+00;  4.0000000E+04; -3.7791026E-03;  0.0000000E+00; -1.4637414E-03;  1.1166123E+05;
  2.0000000E-01;  9.9999998E-03; -3.1999999E-01;2432;  0.0000000E+00;  0.0000000E+00;  0.0000000E+00;  1.0127416E+03;  1.0000000E-01;  1.0556245E+04;0;  0.0000000E+00;  0.0000000E+00;  0.0000000E+00;0; -5.5640703E-03;  4.0000000E+04;  0.0000000E+00;  0.0000000E+00;  4.0000000E+04;  0.0000000E+00;  4.0000000E+04; -4.2529348E-03;  0.0000000E+00; -1.3111356E-03;  1.2765002E+05;
  2.0000000E-01;  9.9999998E-03; -3.1000000E-01;2433;  0.0000000E+00;  0.0000000E+00;  0.0000000E+00;  1.0142109E+03;  1.0000000E-01;  1.1773396E+04;0;  0.0000000E+00;  0.0000000E+00;  0.0000000E+00;0; -5.6043663E-03;  4.0000000E+04;  0.0000000E+00;  0.0000000E+00;  4.0000000E+04;  0.0000000E+00;  4.0000000E+04; -4.5835888E-03;  0.0000000E+00; -1.0207774E-03;  1.3244441E+05;
 -1.9000000E-01;  9.9999998E-03; -2.7000001E-01;107;  0.0000000E+00;  0.0000000E+00;  0.0000000E+00;  1.0000000E+03;  1.0000000E-01;  0.0000000E+00;0;  0.0000000E+00;  0.0000000E+00;  0.0000000E+00;0;  0.0000000E+00;  4.0000000E+04;  0.0000000E+00;  0.0000000E+00;  4.0000000E+04;  0.0000000E+00;  4.0000000E+04;  0.0000000E+00;  0.0000000E+00;  0.0000000E+00;  0.0000000E+00;
 -1.9000000E-01;  9.9999998E-03; -2.5999999E-01;108;  0.0000000E+00;  0.0000000E+00;  0.0000000E+00;  1.0000000E+03;  1.0000000E-01;  0.0000000E+00;0;  0.0000000E+00;  0.0000000E+00;  0.0000000E+00;0;  0.0000000E+00;  4.0000000E+04;  0.0000000E+00;  0.0000000E+00;  4.0000000E+04;  0.0000000E+00;  4.0000000E+04;  0.0000000E+00;  0.0000000E+00;  0.0000000E+00;  0.0000000E+00;
 -1.9000000E-01;  9.9999998E-03; -2.5000000E-01;109;  0.0000000E+00;  0.0000000E+00;  0.0000000E+00;  1.0000000E+03;  1.0000000E-01;  0.0000000E+00;0;  0.0000000E+00;  0.0000000E+00;  0.0000000E+00;0;  0.0000000E+00;  4.0000000E+04;  0.0000000E+00;  0.0000000E+00;  4.0000000E+04;  0.0000000E+00;  4.0000000E+04;  0.0000000E+00;  0.0000000E+00;  0.0000000E+00;  0.0000000E+00;
 -1.9000000E-01;  9.9999998E-03; -2.3999999E-01;110;  0.0000000E+00;  0.0000000E+00;  0.0000000E+00;  1.0000000E+03;  1.0000000E-01;  0.0000000E+00;0;  0.0000000E+00;  0.0000000E+00;  0.0000000E+00;0;  0.0000000E+00;  4.0000000E+04;  0.0000000E+00;  0.0000000E+00;  4.0000000E+04;  0.0000000E+00;  4.0000000E+04;  0.0000000E+00;  0.0000000E+00;  0.0000000E+00;  0.0000000E+00;
 -1.9000000E-01;  9.9999998E-03; -2.3000000E-01;111;  0.0000000E+00;  0.0000000E+00;  0.0000000E+00;  1.0000000E+03;  1.0000000E-01;  0.0000000E+00;0;  0.0000000E+00;  0.0000000E+00;  0.0000000E+00;0;  0.0000000E+00;  4.0000000E+04;  0.0000000E+00;  0.0000000E+00;  4.0000000E+04;  0.0000000E+00;  4.0000000E+04;  0.0000000E+00;  0.0000000E+00;  0.0000000E+00;  0.0000000E+00;
 -1.9000000E-01;  9.9999998E-03; -2.2000000E-01;112;  0.0000000E+00;  0.0000000E+00;  0.0000000E+00;  1.0000000E+03;  1.0000000E-01;  0.0000000E+00;0;  0.0000000E+00;  0.0000000E+00;  0.0000000E+00;0;  0.0000000E+00;  4.0000000E+04;  0.0000000E+00;  0.0000000E+00;  4.0000000E+04;  0.0000000E+00;  4.0000000E+04;  0.0000000E+00;  0.0000000E+00;  0.0000000E+00;  0.0000000E+00;
 -1.9000000E-01;  9.9999998E-03; -2.0999999E-01;113;  0.0000000E+00;  0.0000000E+00;  0.0000000E+00;  1.0000000E+03;  1.0000000E-01;  0.0000000E+00;0;  0.0000000E+00;  0.0000000E+00;  0.0000000E+00;0;  0.0000000E+00;  4.0000000E+04;  0.0000000E+00;  0.0000000E+00;  4.0000000E+04;  0.0000000E+00;  4.0000000E+04;  0.0000000E+00;  0.0000000E+00;  0.0000000E+00;  0.0000000E+00;
 -1.9000000E-01;  9.9999998E-03; -2.0000000E-01;114;  0.0000000E+00;  0.0000000E+00;  0.0000000E+00;  1.0000000E+03;  1.0000000E-01;  0.0000000E+00;0;  0.0000000E+00;  0.0000000E+00;  0.0000000E+00;0;  0.0000000E+00;  4.0000000E+04;  0.0000000E+00;  0.0000000E+00;  4.0000000E+04;  0.0000000E+00;  4.0000000E+04;  0.0000000E+00;  0.0000000E+00;  0.0000000E+00;  0.0000000E+00;
 -1.9000000E-01;  9.9999998E-03; -1.9000000E-01;115;  0.0000000E+00;  0.0000000E+00;  0.0000000E+00;  1.0000000E+03;  1.0000000E-01;  0.0000000E+00;0;  0.0000000E+00;  0.0000000E+00;  0.0000000E+00;0;  0.0000000E+00;  4.0000000E+04;  0.0000000E+00;  0.0000000E+00;  4.0000000E+04;  0.0000000E+00;  4.0000000E+04;  0.0000000E+00;  0.0000000E+00;  0.0000000E+00;  0.0000000E+00;
 -1.9000000E-01;  9.9999998E-03; -1.8000001E-01;116;  0.0000000E+00;  0.0000000E+00;  0.0000000E+00;  1.0000000E+03;  1.0000000E-01;  0.0000000E+00;0;  0.0000000E+00;  0.0000000E+00;  0.0000000E+00;0;  0.0000000E+00;  4.0000000E+04;  0.0000000E+00;  0.0000000E+00;  4.0000000E+04;  0.0000000E+00;  4.0000000E+04;  0.0000000E+00;  0.0000000E+00;  0.0000000E+00;  0.0000000E+00;
 -1.9000000E-01;  9.9999998E-03; -1.7000000E-01;117;  0.0000000E+00;  0.0000000E+00;  0.0000000E+00;  1.0000000E+03;  1.0000000E-01;  0.0000000E+00;0;  0.0000000E+00;  0.0000000E+00;  0.0000000E+00;0;  0.0000000E+00;  4.0000000E+04;  0.0000000E+00;  0.0000000E+00;  4.0000000E+04;  0.0000000E+00;  4.0000000E+04;  0.0000000E+00;  0.0000000E+00;  0.0000000E+00;  0.0000000E+00;
 -1.9000000E-01;  9.9999998E-03; -1.6000000E-01;118;  0.0000000E+00;  0.0000000E+00;  0.0000000E+00;  1.0000000E+03;  1.0000000E-01;  0.0000000E+00;0;  0.0000000E+00;  0.0000000E+00;  0.0000000E+00;0;  0.0000000E+00;  4.0000000E+04;  0.0000000E+00;  0.0000000E+00;  4.0000000E+04;  0.0000000E+00;  4.0000000E+04;  0.0000000E+00;  0.0000000E+00;  0.0000000E+00;  0.0000000E+00;
 -1.9000000E-01;  9.9999998E-03; -1.5000001E-01;119;  0.0000000E+00;  0.0000000E+00;  0.0000000E+00;  1.0000000E+03;  1.0000000E-01;  0.0000000E+00;0;  0.0000000E+00;  0.0000000E+00;  0.0000000E+00;0;  0.0000000E+00;  4.0000000E+04;  0.0000000E+00;  0.0000000E+00;  4.0000000E+04;  0.0000000E+00;  4.0000000E+04;  0.0000000E+00;  0.0000000E+00;  0.0000000E+00;  0.0000000E+00;
 -1.9000000E-01;  9.9999998E-03; -1.4000000E-01;120;  0.0000000E+00;  0.0000000E+00;  0.0000000E+00;  1.0000000E+03;  1.0000000E-01;  0.0000000E+00;0;  0.0000000E+00;  0.0000000E+00;  0.0000000E+00;0;  0.0000000E+00;  4.0000000E+04;  0.0000000E+00;  0.0000000E+00;  4.0000000E+04;  0.0000000E+00;  4.0000000E+04;  0.0000000E+00;  0.0000000E+00;  0.0000000E+00;  0.0000000E+00;
 -1.9000000E-01;  9.9999998E-03; -1.3000000E-01;121;  0.0000000E+00;  0.0000000E+00;  0.0000000E+00;  1.0000000E+03;  1.0000000E-01;  0.0000000E+00;0;  0.0000000E+00;  0.0000000E+00;  0.0000000E+00;0;  0.0000000E+00;  4.0000000E+04;  0.0000000E+00;  0.0000000E+00;  4.0000000E+04;  0.0000000E+00;  4.0000000E+04;  0.0000000E+00;  0.0000000E+00;  0.0000000E+00;  0.0000000E+00;
 -1.9000000E-01;  9.9999998E-03; -1.2000000E-01;122;  0.0000000E+00;  0.0000000E+00;  0.0000000E+00;  1.0000000E+03;  1.0000000E-01;  0.0000000E+00;0;  0.0000000E+00;  0.0000000E+00;  0.0000000E+00;0;  0.0000000E+00;  4.0000000E+04;  0.0000000E+00;  0.0000000E+00;  4.0000000E+04;  0.0000000E+00;  4.0000000E+04;  0.0000000E+00;  0.0000000E+00;  0.0000000E+00;  0.0000000E+00;
 -1.9000000E-01;  9.9999998E-03; -1.1000000E-01;123;  0.0000000E+00;  0.0000000E+00;  0.0000000E+00;  1.0000000E+03;  1.0000000E-01;  0.0000000E+00;0;  0.0000000E+00;  0.0000000E+00;  0.0000000E+00;0;  0.0000000E+00;  4.0000000E+04;  0.0000000E+00;  0.0000000E+00;  4.0000000E+04;  0.0000000E+00;  4.0000000E+04;  0.0000000E+00;  0.0000000E+00;  0.0000000E+00;  0.0000000E+00;
 -1.8000001E-01;  9.9999998E-03; -2.7000001E-01;198;  0.0000000E+00;  0.0000000E+00;  0.0000000E+00;  1.0000000E+03;  1.0000000E-01;  0.0000000E+00;0;  0.0000000E+00;  0.0000000E+00;  0.0000000E+00;0;  0.0000000E+00;  4.0000000E+04;  0.0000000E+00;  0.0000000E+00;  4.0000000E+04;  0.0000000E+00;  4.0000000E+04;  0.0000000E+00;  0.0000000E+00;  0.0000000E+00;  0.0000000E+00;
 -1.8000001E-01;  9.9999998E-03; -2.5999999E-01;199;  0.0000000E+00;  0.0000000E+00;  0.0000000E+00;  1.0000000E+03;  1.0000000E-01;  0.0000000E+00;0;  0.0000000E+00;  0.0000000E+00;  0.0000000E+00;0;  0.0000000E+00;  4.0000000E+04;  0.0000000E+00;  0.0000000E+00;  4.0000000E+04;  0.0000000E+00;  4.0000000E+04;  0.0000000E+00;  0.0000000E+00;  0.0000000E+00;  0.0000000E+00;
 -1.8000001E-01;  9.9999998E-03; -2.5000000E-01;200;  0.0000000E+00;  0.0000000E+00;  0.0000000E+00;  1.0000000E+03;  1.0000000E-01;  0.0000000E+00;0;  0.0000000E+00;  0.0000000E+00;  0.0000000E+00;0;  0.0000000E+00;  4.0000000E+04;  0.0000000E+00;  0.0000000E+00;  4.0000000E+04;  0.0000000E+00;  4.0000000E+04;  0.0000000E+00;  0.0000000E+00;  0.0000000E+00;  0.0000000E+00;
 -1.8000001E-01;  9.9999998E-03; -2.3999999E-01;201;  0.0000000E+00;  0.0000000E+00;  0.0000000E+00;  1.0000000E+03;  1.0000000E-01;  0.0000000E+00;0;  0.0000000E+00;  0.0000000E+00;  0.0000000E+00;0;  0.0000000E+00;  4.0000000E+04;  0.0000000E+00;  0.0000000E+00;  4.0000000E+04;  0.0000000E+00;  4.0000000E+04;  0.0000000E+00;  0.0000000E+00;  0.0000000E+00;  0.0000000E+00;
 -1.8000001E-01;  9.9999998E-03; -2.3000000E-01;202;  0.0000000E+00;  0.0000000E+00;  0.0000000E+00;  1.0000000E+03;  1.0000000E-01;  0.0000000E+00;0;  0.0000000E+00;  0.0000000E+00;  0.0000000E+00;0;  0.0000000E+00;  4.0000000E+04;  0.0000000E+00;  0.0000000E+00;  4.0000000E+04;  0.0000000E+00;  4.0000000E+04;  0.0000000E+00;  0.0000000E+00;  0.0000000E+00;  0.0000000E+00;
 -1.8000001E-01;  9.9999998E-03; -2.2000000E-01;203;  0.0000000E+00;  0.0000000E+00;  0.0000000E+00;  1.0000000E+03;  1.0000000E-01;  0.0000000E+00;0;  0.0000000E+00;  0.0000000E+00;  0.0000000E+00;0;  0.0000000E+00;  4.0000000E+04;  0.0000000E+00;  0.0000000E+00;  4.0000000E+04;  0.0000000E+00;  4.0000000E+04;  0.0000000E+00;  0.0000000E+00;  0.0000000E+00;  0.0000000E+00;
 -1.8000001E-01;  9.9999998E-03; -2.0999999E-01;204;  0.0000000E+00;  0.0000000E+00;  0.0000000E+00;  1.0000000E+03;  1.0000000E-01;  0.0000000E+00;0;  0.0000000E+00;  0.0000000E+00;  0.0000000E+00;0;  0.0000000E+00;  4.0000000E+04;  0.0000000E+00;  0.0000000E+00;  4.0000000E+04;  0.0000000E+00;  4.0000000E+04;  0.0000000E+00;  0.0000000E+00;  0.0000000E+00;  0.0000000E+00;
 -1.8000001E-01;  9.9999998E-03; -2.0000000E-01;205;  0.0000000E+00;  0.0000000E+00;  0.0000000E+00;  1.0000000E+03;  1.0000000E-01;  0.0000000E+00;0;  0.0000000E+00;  0.0000000E+00;  0.0000000E+00;0;  0.0000000E+00;  4.0000000E+04;  0.0000000E+00;  0.0000000E+00;  4.0000000E+04;  0.0000000E+00;  4.0000000E+04;  0.0000000E+00;  0.0000000E+00;  0.0000000E+00;  0.0000000E+00;
 -1.8000001E-01;  9.9999998E-03; -1.9000000E-01;206;  0.0000000E+00;  0.0000000E+00;  0.0000000E+00;  1.0000000E+03;  1.0000000E-01;  0.0000000E+00;0;  0.0000000E+00;  0.0000000E+00;  0.0000000E+00;0;  0.0000000E+00;  4.0000000E+04;  0.0000000E+00;  0.0000000E+00;  4.0000000E+04;  0.0000000E+00;  4.0000000E+04;  0.0000000E+00;  0.0000000E+00;  0.0000000E+00;  0.0000000E+00;
 -1.8000001E-01;  9.9999998E-03; -1.8000001E-01;207;  0.0000000E+00;  0.0000000E+00;  0.0000000E+00;  1.0000000E+03;  1.0000000E-01;  0.0000000E+00;0;  0.0000000E+00;  0.0000000E+00;  0.0000000E+00;0;  0.0000000E+00;  4.0000000E+04;  0.0000000E+00;  0.0000000E+00;  4.0000000E+04;  0.0000000E+00;  4.0000000E+04;  0.0000000E+00;  0.0000000E+00;  0.0000000E+00;  0.0000000E+00;
 -1.8000001E-01;  9.9999998E-03; -1.7000000E-01;208;  0.0000000E+00;  0.0000000E+00;  0.0000000E+00;  1.0000000E+03;  1.0000000E-01;  0.0000000E+00;0;  0.0000000E+00;  0.0000000E+00;  0.0000000E+00;0;  0.0000000E+00;  4.0000000E+04;  0.0000000E+00;  0.0000000E+00;  4.0000000E+04;  0.0000000E+00;  4.0000000E+04;  0.0000000E+00;  0.0000000E+00;  0.0000000E+00;  0.0000000E+00;
 -1.8000001E-01;  9.9999998E-03; -1.6000000E-01;209;  0.0000000E+00;  0.0000000E+00;  0.0000000E+00;  1.0000000E+03;  1.0000000E-01;  0.0000000E+00;0;  0.0000000E+00;  0.0000000E+00;  0.0000000E+00;0;  0.0000000E+00;  4.0000000E+04;  0.0000000E+00;  0.0000000E+00;  4.0000000E+04;  0.0000000E+00;  4.0000000E+04;  0.0000000E+00;  0.0000000E+00;  0.0000000E+00;  0.0000000E+00;
 -1.8000001E-01;  9.9999998E-03; -1.5000001E-01;210;  0.0000000E+00;  0.0000000E+00;  0.0000000E+00;  1.0000000E+03;  1.0000000E-01;  0.0000000E+00;0;  0.0000000E+00;  0.0000000E+00;  0.0000000E+00;0;  0.0000000E+00;  4.0000000E+04;  0.0000000E+00;  0.0000000E+00;  4.0000000E+04;  0.0000000E+00;  4.0000000E+04;  0.0000000E+00;  0.0000000E+00;  0.0000000E+00;  0.0000000E+00;
 -1.8000001E-01;  9.9999998E-03; -1.4000000E-01;211;  0.0000000E+00;  0.0000000E+00;  0.0000000E+00;  1.0000000E+03;  1.0000000E-01;  0.0000000E+00;0;  0.0000000E+00;  0.0000000E+00;  0.0000000E+00;0;  0.0000000E+00;  4.0000000E+04;  0.0000000E+00;  0.0000000E+00;  4.0000000E+04;  0.0000000E+00;  4.0000000E+04;  0.0000000E+00;  0.0000000E+00;  0.0000000E+00;  0.0000000E+00;
 -1.8000001E-01;  9.9999998E-03; -1.3000000E-01;212;  0.0000000E+00;  0.0000000E+00;  0.0000000E+00;  1.0000000E+03;  1.0000000E-01;  0.0000000E+00;0;  0.0000000E+00;  0.0000000E+00;  0.0000000E+00;0;  0.0000000E+00;  4.0000000E+04;  0.0000000E+00;  0.0000000E+00;  4.0000000E+04;  0.0000000E+00;  4.0000000E+04;  0.0000000E+00;  0.0000000E+00;  0.0000000E+00;  0.0000000E+00;
 -1.8000001E-01;  9.9999998E-03; -1.2000000E-01;213;  0.0000000E+00;  0.0000000E+00;  0.0000000E+00;  1.0000000E+03;  1.0000000E-01;  0.0000000E+00;0;  0.0000000E+00;  0.0000000E+00;  0.0000000E+00;0;  0.0000000E+00;  4.0000000E+04;  0.0000000E+00;  0.0000000E+00;  4.0000000E+04;  0.0000000E+00;  4.0000000E+04;  0.0000000E+00;  0.0000000E+00;  0.0000000E+00;  0.0000000E+00;
 -1.8000001E-01;  9.9999998E-03; -1.1000000E-01;214;  0.0000000E+00;  0.0000000E+00;  0.0000000E+00;  1.0000000E+03;  1.0000000E-01;  0.0000000E+00;0;  0.0000000E+00;  0.0000000E+00;  0.0000000E+00;0;  0.0000000E+00;  4.0000000E+04;  0.0000000E+00;  0.0000000E+00;  4.0000000E+04;  0.0000000E+00;  4.0000000E+04;  0.0000000E+00;  0.0000000E+00;  0.0000000E+00;  0.0000000E+00;
 -1.7000000E-01;  9.9999998E-03; -2.7000001E-01;289;  0.0000000E+00;  0.0000000E+00;  0.0000000E+00;  1.0000000E+03;  1.0000000E-01;  0.0000000E+00;0;  0.0000000E+00;  0.0000000E+00;  0.0000000E+00;0;  0.0000000E+00;  4.0000000E+04;  0.0000000E+00;  0.0000000E+00;  4.0000000E+04;  0.0000000E+00;  4.0000000E+04;  0.0000000E+00;  0.0000000E+00;  0.0000000E+00;  9.0627929E-11;
 -1.7000000E-01;  9.9999998E-03; -2.5999999E-01;290;  0.0000000E+00;  0.0000000E+00;  0.0000000E+00;  1.0000000E+03;  1.0000000E-01;  0.0000000E+00;0;  0.0000000E+00;  0.0000000E+00;  0.0000000E+00;0;  0.0000000E+00;  4.0000000E+04;  0.0000000E+00;  0.0000000E+00;  4.0000000E+04;  0.0000000E+00;  4.0000000E+04;  0.0000000E+00;  0.0000000E+00;  0.0000000E+00;  2.4658295E-10;
 -1.7000000E-01;  9.9999998E-03; -2.5000000E-01;291;  0.0000000E+00;  0.0000000E+00;  0.0000000E+00;  1.0000000E+03;  1.0000000E-01;  0.0000000E+00;0;  0.0000000E+00;  0.0000000E+00;  0.0000000E+00;0;  0.0000000E+00;  4.0000000E+04;  0.0000000E+00;  0.0000000E+00;  4.0000000E+04;  0.0000000E+00;  4.0000000E+04;  0.0000000E+00;  0.0000000E+00;  0.0000000E+00;  4.6683907E-10;
 -1.7000000E-01;  9.9999998E-03; -2.3999999E-01;292;  0.0000000E+00;  0.0000000E+00;  0.0000000E+00;  1.0000000E+03;  1.0000000E-01;  0.0000000E+00;0;  0.0000000E+00;  0.0000000E+00;  0.0000000E+00;0;  0.0000000E+00;  4.0000000E+04;  0.0000000E+00;  0.0000000E+00;  4.0000000E+04;  0.0000000E+00;  4.0000000E+04;  0.0000000E+00;  0.0000000E+00;  0.0000000E+00;  7.1558121E-10;
 -1.7000000E-01;  9.9999998E-03; -2.3000000E-01;293;  0.0000000E+00;  0.0000000E+00;  0.0000000E+00;  1.0000000E+03;  1.0000000E-01;  0.0000000E+00;0;  0.0000000E+00;  0.0000000E+00;  0.0000000E+00;0;  0.0000000E+00;  4.0000000E+04;  0.0000000E+00;  0.0000000E+00;  4.0000000E+04;  0.0000000E+00;  4.0000000E+04;  0.0000000E+00;  0.0000000E+00;  0.0000000E+00;  9.6112662E-10;
 -1.7000000E-01;  9.9999998E-03; -2.2000000E-01;294;  0.0000000E+00;  0.0000000E+00;  0.0000000E+00;  1.0000000E+03;  1.0000000E-01;  0.0000000E+00;0;  0.0000000E+00;  0.0000000E+00;  0.0000000E+00;0;  0.0000000E+00;  4.0000000E+04;  0.0000000E+00;  0.0000000E+00;  4.0000000E+04;  0.0000000E+00;  4.0000000E+04;  0.0000000E+00;  0.0000000E+00;  0.0000000E+00;  1.1699183E-09;
 -1.7000000E-01;  9.9999998E-03; -2.0999999E-01;295;  0.0000000E+00;  0.0000000E+00;  0.0000000E+00;  1.0000000E+03;  1.0000000E-01;  0.0000000E+00;0;  0.0000000E+00;  0.0000000E+00;  0.0000000E+00;0;  0.0000000E+00;  4.0000000E+04;  0.0000000E+00;  0.0000000E+00;  4.0000000E+04;  0.0000000E+00;  4.0000000E+04;  0.0000000E+00;  0.0000000E+00;  0.0000000E+00;  1.3086691E-09;
 -1.7000000E-01;  9.9999998E-03; -2.0000000E-01;296;  0.0000000E+00;  0.0000000E+00;  0.0000000E+00;  1.0000000E+03;  1.0000000E-01;  0.0000000E+00;0;  0.0000000E+00;  0.0000000E+00;  0.0000000E+00;0;  0.0000000E+00;  4.0000000E+04;  0.0000000E+00;  0.0000000E+00;  4.0000000E+04;  0.0000000E+00;  4.0000000E+04;  0.0000000E+00;  0.0000000E+00;  0.0000000E+00;  1.3572687E-09;
 -1.7000000E-01;  9.9999998E-03; -1.9000000E-01;297;  0.0000000E+00;  0.0000000E+00;  0.0000000E+00;  1.0000000E+03;  1.0000000E-01;  0.0000000E+00;0;  0.0000000E+00;  0.0000000E+00;  0.0000000E+00;0;  0.0000000E+00;  4.0000000E+04;  0.0000000E+00;  0.0000000E+00;  4.0000000E+04;  0.0000000E+00;  4.0000000E+04;  0.0000000E+00;  0.0000000E+00;  0.0000000E+00;  1.3804570E-09;
 -1.7000000E-01;  9.9999998E-03; -1.8000001E-01;298;  0.0000000E+00;  0.0000000E+00;  0.0000000E+00;  1.0000000E+03;  1.0000000E-01;  0.0000000E+00;0;  0.0000000E+00;  0.0000000E+00;  0.0000000E+00;0;  0.0000000E+00;  4.0000000E+04;  0.0000000E+00;  0.0000000E+00;  4.0000000E+04;  0.0000000E+00;  4.0000000E+04;  0.0000000E+00;  0.0000000E+00;  0.0000000E+00;  1.4541069E-09;
 -1.7000000E-01;  9.9999998E-03; -1.7000000E-01;299;  0.0000000E+00;  0.0000000E+00;  0.0000000E+00;  1.0000000E+03;  1.0000000E-01;  0.0000000E+00;0;  0.0000000E+00;  0.0000000E+00;  0.0000000E+00;0;  0.0000000E+00;  4.0000000E+04;  0.0000000E+00;  0.0000000E+00;  4.0000000E+04;  0.0000000E+00;  4.0000000E+04;  0.0000000E+00;  0.0000000E+00;  0.0000000E+00;  1.5733465E-09;
 -1.7000000E-01;  9.9999998E-03; -1.6000000E-01;300;  0.0000000E+00;  0.0000000E+00;  0.0000000E+00;  1.0000000E+03;  1.0000000E-01;  0.0000000E+00;0;  0.0000000E+00;  0.0000000E+00;  0.0000000E+00;0;  0.0000000E+00;  4.0000000E+04;  0.0000000E+00;  0.0000000E+00;  4.0000000E+04;  0.0000000E+00;  4.0000000E+04;  0.0000000E+00;  0.0000000E+00;  0.0000000E+00;  1.7068523E-09;
 -1.7000000E-01;  9.9999998E-03; -1.5000001E-01;301;  0.0000000E+00;  0.0000000E+00;  0.0000000E+00;  1.0000000E+03;  1.0000000E-01;  0.0000000E+00;0;  0.0000000E+00;  0.0000000E+00;  0.0000000E+00;0;  0.0000000E+00;  4.0000000E+04;  0.0000000E+00;  0.0000000E+00;  4.0000000E+04;  0.0000000E+00;  4.0000000E+04;  0.0000000E+00;  0.0000000E+00;  0.0000000E+00;  1.8278684E-09;
 -1.7000000E-01;  9.9999998E-03; -1.4000000E-01;302;  0.0000000E+00;  0.0000000E+00;  0.0000000E+00;  1.0000000E+03;  1.0000000E-01;  0.0000000E+00;0;  0.0000000E+00;  0.0000000E+00;  0.0000000E+00;0;  0.0000000E+00;  4.0000000E+04;  0.0000000E+00;  0.0000000E+00;  4.0000000E+04;  0.0000000E+00;  4.0000000E+04;  0.0000000E+00;  0.0000000E+00;  0.0000000E+00;  1.9071082E-09;
 -1.7000000E-01;  9.9999998E-03; -1.3000000E-01;303;  0.0000000E+00;  0.0000000E+00;  0.0000000E+00;  1.0000000E+03;  1.0000000E-01;  0.0000000E+00;0;  0.0000000E+00;  0.0000000E+00;  0.0000000E+00;0;  0.0000000E+00;  4.0000000E+04;  0.0000000E+00;  0.0000000E+00;  4.0000000E+04;  0.0000000E+00;  4.0000000E+04;  0.0000000E+00;  0.0000000E+00;  0.0000000E+00;  1.9297872E-09;
 -1.7000000E-01;  9.9999998E-03; -1.2000000E-01;304;  0.0000000E+00;  0.0000000E+00;  0.0000000E+00;  1.0000000E+03;  1.0000000E-01;  0.0000000E+00;0;  0.0000000E+00;  0.0000000E+00;  0.0000000E+00;0;  0.0000000E+00;  4.0000000E+04;  0.0000000E+00;  0.0000000E+00;  4.0000000E+04;  0.0000000E+00;  4.0000000E+04;  0.0000000E+00;  0.0000000E+00;  0.0000000E+00;  1.9547151E-09;
 -1.7000000E-01;  9.9999998E-03; -1.1000000E-01;305;  0.0000000E+00;  0.0000000E+00;  0.0000000E+00;  1.0000000E+03;  1.0000000E-01;  0.0000000E+00;0;  0.0000000E+00;  0.0000000E+00;  0.0000000E+00;0;  0.0000000E+00;  4.0000000E+04;  0.0000000E+00;  0.0000000E+00;  4.0000000E+04;  0.0000000E+00;  4.0000000E+04;  0.0000000E+00;  0.0000000E+00;  0.0000000E+00;  1.9624904E-09;
 -1.6000000E-01;  9.9999998E-03; -2.7000001E-01;380;  0.0000000E+00;  0.0000000E+00;  0.0000000E+00;  1.0000000E+03;  1.0000000E-01;  0.0000000E+00;0;  0.0000000E+00;  0.0000000E+00;  0.0000000E+00;0;  2.9034092E-07;  4.0000000E+04;  0.0000000E+00;  0.0000000E+00;  4.0000000E+04;  0.0000000E+00;  4.0000000E+04;  2.8782995E-07;  0.0000000E+00;  2.5109637E-09;  3.9116822E-02;
 -1.6000000E-01;  9.9999998E-03; -2.5999999E-01;381;  0.0000000E+00;  0.0000000E+00;  0.0000000E+00;  1.0000000E+03;  1.0000000E-01;  0.0000000E+00;0;  0.0000000E+00;  0.0000000E+00;  0.0000000E+00;0;  4.0175081E-07;  4.0000000E+04;  0.0000000E+00;  0.0000000E+00;  4.0000000E+04;  0.0000000E+00;  4.0000000E+04;  3.9084216E-07;  0.0000000E+00;  1.0908649E-08;  9.8379038E-02;
 -1.6000000E-01;  9.9999998E-03; -2.5000000E-01;382;  0.0000000E+00;  0.0000000E+00;  0.0000000E+00;  1.0000000E+03;  1.0000000E-01;  0.0000000E+00;0;  0.0000000E+00;  0.0000000E+00;  0.0000000E+00;0;  4.7355488E-07;  4.0000000E+04;  0.0000000E+00;  0.0000000E+00;  4.0000000E+04;  0.0000000E+00;  4.0000000E+04;  4.6018081E-07;  0.0000000E+00;  1.3374068E-08;  1.4594114E-01;
 -1.6000000E-01;  9.9999998E-03; -2.3999999E-01;383;  0.0000000E+00;  0.0000000E+00;  0.0000000E+00;  1.0000000E+03;  1.0000000E-01;  0.0000000E+00;0;  0.0000000E+00;  0.0000000E+00;  0.0000000E+00;0;  4.9254641E-07;  4.0000000E+04;  0.0000000E+00;  0.0000000E+00;  4.0000000E+04;  0.0000000E+00;  4.0000000E+04;  4.8067108E-07;  0.0000000E+00;  1.1875319E-08;  1.7826231E-01;
 -1.6000000E-01;  9.9999998E-03; -2.3000000E-01;384;  0.0000000E+00;  0.0000000E+00;  0.0000000E+00;  1.0000000E+03;  1.0000000E-01;  0.0000000E+00;0;  0.0000000E+00;  0.0000000E+00;  0.0000000E+00;0;  4.6607855E-07;  4.0000000E+04;  0.0000000E+00;  0.0000000E+00;  4.0000000E+04;  0.0000000E+00;  4.0000000E+04;  4.5621874E-07;  0.0000000E+00;  9.8598010E-09;  2.0159414E-01;
 -1.6000000E-01;  9.9999998E-03; -2.2000000E-01;385;  0.0000000E+00;  0.0000000E+00;  0.0000000E+00;  1.0000000E+03;  1.0000000E-01;  0.0000000E+00;0;  0.0000000E+00;  0.0000000E+00;  0.0000000E+00;0;  4.1305782E-07;  4.0000000E+04;  0.0000000E+00;  0.0000000E+00;  4.0000000E+04;  0.0000000E+00;  4.0000000E+04;  4.0511600E-07;  0.0000000E+00;  7.9418241E-09;  2.2073412E-01;
 -1.6000000E-01;  9.9999998E-03; -2.0999999E-01;386;  0.0000000E+00;  0.0000000E+00;  0.0000000E+00;  1.0000000E+03;  1.0000000E-01;  0.0000000E+00;0;  0.0000000E+00;  0.0000000E+00;  0.0000000E+00;0;  3.5177530E-07;  4.0000000E+04;  0.0000000E+00;  0.0000000E+00;  4.0000000E+04;  0.0000000E+00;  4.0000000E+04;  3.4548256E-07;  0.0000000E+00;  6.2927472E-09;  2.3795679E-01;
 -1.6000000E-01;  9.9999998E-03; -2.0000000E-01;387;  0.0000000E+00;  0.0000000E+00;  0.0000000E+00;  1.0000000E+03;  1.0000000E-01;  0.0000000E+00;0;  0.0000000E+00;  0.0000000E+00;  0.0000000E+00;0;  2.9533055E-07;  4.0000000E+04;  0.0000000E+00;  0.0000000E+00;  4.0000000E+04;  0.0000000E+00;  4.0000000E+04;  2.9035400E-07;  0.0000000E+00;  4.9765481E-09;  2.5343603E-01;
 -1.6000000E-01;  9.9999998E-03; -1.9000000E-01;388;  0.0000000E+00;  0.0000000E+00;  0.0000000E+00;  1.0000000E+03;  1.0000000E-01;  0.0000000E+00;0;  0.0000000E+00;  0.0000000E+00;  0.0000000E+00;0;  2.5110245E-07;  4.0000000E+04;  0.0000000E+00;  0.0000000E+00;  4.0000000E+04;  0.0000000E+00;  4.0000000E+04;  2.4712273E-07;  0.0000000E+00;  3.9797139E-09;  2.6629853E-01;
 -1.6000000E-01;  9.9999998E-03; -1.8000001E-01;389;  0.0000000E+00;  0.0000000E+00;  0.0000000E+00;  1.0000000E+03;  1.0000000E-01;  0.0000000E+00;0;  0.0000000E+00;  0.0000000E+00;  0.0000000E+00;0;  2.2193232E-07;  4.0000000E+04;  0.0000000E+00;  0.0000000E+00;  4.0000000E+04;  0.0000000E+00;  4.0000000E+04;  2.1869562E-07;  0.0000000E+00;  3.2367111E-09;  2.7571920E-01;
 -1.6000000E-01;  9.9999998E-03; -1.7000000E-01;390;  0.0000000E+00;  0.0000000E+00;  0.0000000E+00;  1.0000000E+03;  1.0000000E-01;  0.0000000E+00;0;  0.0000000E+00;  0.0000000E+00;  0.0000000E+00;0;  2.0767050E-07;  4.0000000E+04;  0.0000000E+00;  0.0000000E+00;  4.0000000E+04;  0.0000000E+00;  4.0000000E+04;  2.0502161E-07;  0.0000000E+00;  2.6488856E-09;  2.8138003E-01;
 -1.6000000E-01;  9.9999998E-03; -1.6000000E-01;391;  0.0000000E+00;  0.0000000E+00;  0.0000000E+00;  1.0000000E+03;  1.0000000E-01;  0.0000000E+00;0;  0.0000000E+00;  0.0000000E+00;  0.0000000E+00;0;  2.0636628E-07;  4.0000000E+04;  0.0000000E+00;  0.0000000E+00;  4.0000000E+04;  0.0000000E+00;  4.0000000E+04;  2.0424469E-07;  0.0000000E+00;  2.1215933E-09;  2.8347862E-01;
 -1.6000000E-01;  9.9999998E-03; -1.5000001E-01;392;  0.0000000E+00;  0.0000000E+00;  0.0000000E+00;  1.0000000E+03;  1.0000000E-01;  0.0000000E+00;0;  0.0000000E+00;  0.0000000E+00;  0.0000000E+00;0;  2.1506813E-07;  4.0000000E+04;  0.0000000E+00;  0.0000000E+00;  4.0000000E+04;  0.0000000E+00;  4.0000000E+04;  2.1346550E-07;  0.0000000E+00;  1.6026259E-09;  2.8258231E-01;
 -1.6000000E-01;  9.9999998E-03; -1.4000000E-01;393;  0.0000000E+00;  0.0000000E+00;  0.0000000E+00;  1.0000000E+03;  1.0000000E-01;  0.0000000E+00;0;  0.0000000E+00;  0.0000000E+00;  0.0000000E+00;0;  2.3037268E-07;  4.0000000E+04;  0.0000000E+00;  0.0000000E+00;  4.0000000E+04;  0.0000000E+00;  4.0000000E+04;  2.2927941E-07;  0.0000000E+00;  1.0932667E-09;  2.7943438E-01;
 -1.6000000E-01;  9.9999998E-03; -1.3000000E-01;394;  0.0000000E+00;  0.0000000E+00;  0.0000000E+00;  1.0000000E+03;  1.0000000E-01;  0.0000000E+00;0;  0.0000000E+00;  0.0000000E+00;  0.0000000E+00;0;  2.4886364E-07;  4.0000000E+04;  0.0000000E+00;  0.0000000E+00;  4.0000000E+04;  0.0000000E+00;  4.0000000E+04;  2.4823788E-07;  0.0000000E+00;  6.2576144E-10;  2.7486259E-01;
 -1.6000000E-01;  9.9999998E-03; -1.2000000E-01;395;  0.0000000E+00;  0.0000000E+00;  0.0000000E+00;  1.0000000E+03;  1.0000000E-01;  0.0000000E+00;0;  0.0000000E+00;  0.0000000E+00;  0.0000000E+00;0;  2.6748467E-07;  4.0000000E+04;  0.0000000E+00;  0.0000000E+00;  4.0000000E+04;  0.0000000E+00;  4.0000000E+04;  2.6725613E-07;  0.0000000E+00;  2.2854102E-10;  2.6974598E-01;
 -1.6000000E-01;  9.9999998E-03; -1.1000000E-01;396;  0.0000000E+00;  0.0000000E+00;  0.0000000E+00;  1.0000000E+03;  1.0000000E-01;  0.0000000E+00;0;  0.0000000E+00;  0.0000000E+00;  0.0000000E+00;0;  2.8382607E-07;  4.0000000E+04;  0.0000000E+00;  0.0000000E+00;  4.0000000E+04;  0.0000000E+00;  4.0000000E+04;  2.8391418E-07;  0.0000000E+00; -8.8095073E-11;  2.6495039E-01;
 -1.5000001E-01;  9.9999998E-03; -2.7000001E-01;471;  0.0000000E+00;  0.0000000E+00;  0.0000000E+00;  1.0000000E+03;  1.0000000E-01;  0.0000000E+00;0;  0.0000000E+00;  0.0000000E+00;  0.0000000E+00;0;  3.7370733E-06;  4.0000000E+04;  0.0000000E+00;  0.0000000E+00;  4.0000000E+04;  0.0000000E+00;  4.0000000E+04;  3.8586932E-06;  0.0000000E+00; -1.2162000E-07;  4.4187766E-01;
 -1.5000001E-01;  9.9999998E-03; -2.5999999E-01;472;  0.0000000E+00;  0.0000000E+00;  0.0000000E+00;  1.0000000E+03;  1.0000000E-01;  0.0000000E+00;0;  0.0000000E+00;  0.0000000E+00;  0.0000000E+00;0;  5.0749077E-06;  4.0000000E+04;  0.0000000E+00;  0.0000000E+00;  4.0000000E+04;  0.0000000E+00;  4.0000000E+04;  5.0633516E-06;  0.0000000E+00;  1.1555835E-08;  1.1884453E+00;
 -1.5000001E-01;  9.9999998E-03; -2.5000000E-01;473;  0.0000000E+00;  0.0000000E+00;  0.0000000E+00;  1.0000000E+03;  1.0000000E-01;  0.0000000E+00;0;  0.0000000E+00;  0.0000000E+00;  0.0000000E+00;0;  6.1953424E-06;  4.0000000E+04;  0.0000000E+00;  0.0000000E+00;  4.0000000E+04;  0.0000000E+00;  4.0000000E+04;  6.0746484E-06;  0.0000000E+00;  1.2069411E-07;  1.9019600E+00;
 -1.5000001E-01;  9.9999998E-03; -2.3999999E-01;474;  0.0000000E+00;  0.0000000E+00;  0.0000000E+00;  1.0000000E+03;  1.0000000E-01;  0.0000000E+00;0;  0.0000000E+00;  0.0000000E+00;  0.0000000E+00;0;  6.9425755E-06;  4.0000000E+04;  0.0000000E+00;  0.0000000E+00;  4.0000000E+04;  0.0000000E+00;  4.0000000E+04;  6.7533551E-06;  0.0000000E+00;  1.8922051E-07;  2.5009212E+00;
 -1.5000001E-01;  9.9999998E-03; -2.3000000E-01;475;  0.0000000E+00;  0.0000000E+00;  0.0000000E+00;  1.0000000E+03;  1.0000000E-01;  0.0000000E+00;0;  0.0000000E+00;  0.0000000E+00;  0.0000000E+00;0;  7.2552580E-06;  4.0000000E+04;  0.0000000E+00;  0.0000000E+00;  4.0000000E+04;  0.0000000E+00;  4.0000000E+04;  7.0394876E-06;  0.0000000E+00;  2.1577034E-07;  2.9499884E+00;
 -1.5000001E-01;  9.9999998E-03; -2.2000000E-01;476;  0.0000000E+00;  0.0000000E+00;  0.0000000E+00;  1.0000000E+03;  1.0000000E-01;  0.0000000E+00;0;  0.0000000E+00;  0.0000000E+00;  0.0000000E+00;0;  7.1705281E-06;  4.0000000E+04;  0.0000000E+00;  0.0000000E+00;  4.0000000E+04;  0.0000000E+00;  4.0000000E+04;  6.9550306E-06;  0.0000000E+00;  2.1549747E-07;  3.2691257E+00;
 -1.5000001E-01;  9.9999998E-03; -2.0999999E-01;477;  0.0000000E+00;  0.0000000E+00;  0.0000000E+00;  1.0000000E+03;  1.0000000E-01;  0.0000000E+00;0;  0.0000000E+00;  0.0000000E+00;  0.0000000E+00;0;  6.8071677E-06;  4.0000000E+04;  0.0000000E+00;  0.0000000E+00;  4.0000000E+04;  0.0000000E+00;  4.0000000E+04;  6.5999025E-06;  0.0000000E+00;  2.0726506E-07;  3.5091517E+00;
 -1.5000001E-01;  9.9999998E-03; -2.0000000E-01;478;  0.0000000E+00;  0.0000000E+00;  0.0000000E+00;  1.0000000E+03;  1.0000000E-01;  0.0000000E+00;0;  0.0000000E+00;  0.0000000E+00;  0.0000000E+00;0;  6.3180441E-06;  4.0000000E+04;  0.0000000E+00;  0.0000000E+00;  4.0000000E+04;  0.0000000E+00;  4.0000000E+04;  6.1221722E-06;  0.0000000E+00;  1.9587205E-07;  3.7027469E+00;
 -1.5000001E-01;  9.9999998E-03; -1.9000000E-01;479;  0.0000000E+00;  0.0000000E+00;  0.0000000E+00;  1.0000000E+03;  1.0000000E-01;  0.0000000E+00;0;  0.0000000E+00;  0.0000000E+00;  0.0000000E+00;0;  5.8434598E-06;  4.0000000E+04;  0.0000000E+00;  0.0000000E+00;  4.0000000E+04;  0.0000000E+00;  4.0000000E+04;  5.6615695E-06;  0.0000000E+00;  1.8189053E-07;  3.8605602E+00;
 -1.5000001E-01;  9.9999998E-03; -1.8000001E-01;480;  0.0000000E+00;  0.0000000E+00;  0.0000000E+00;  1.0000000E+03;  1.0000000E-01;  0.0000000E+00;0;  0.0000000E+00;  0.0000000E+00;  0.0000000E+00;0;  5.4865777E-06;  4.0000000E+04;  0.0000000E+00;  0.0000000E+00;  4.0000000E+04;  0.0000000E+00;  4.0000000E+04;  5.3212088E-06;  0.0000000E+00;  1.6536879E-07;  3.9813113E+00;
 -1.5000001E-01;  9.9999998E-03; -1.7000000E-01;481;  0.0000000E+00;  0.0000000E+00;  0.0000000E+00;  1.0000000E+03;  1.0000000E-01;  0.0000000E+00;0;  0.0000000E+00;  0.0000000E+00;  0.0000000E+00;0;  5.3050953E-06;  4.0000000E+04;  0.0000000E+00;  0.0000000E+00;  4.0000000E+04;  0.0000000E+00;  4.0000000E+04;  5.1591237E-06;  0.0000000E+00;  1.4597184E-07;  4.0599852E+00;
 -1.5000001E-01;  9.9999998E-03; -1.6000000E-01;482;  0.0000000E+00;  0.0000000E+00;  0.0000000E+00;  1.0000000E+03;  1.0000000E-01;  0.0000000E+00;0;  0.0000000E+00;  0.0000000E+00;  0.0000000E+00;0;  5.3134040E-06;  4.0000000E+04;  0.0000000E+00;  0.0000000E+00;  4.0000000E+04;  0.0000000E+00;  4.0000000E+04;  5.1898542E-06;  0.0000000E+00;  1.2354991E-07;  4.0942249E+00;
 -1.5000001E-01;  9.9999998E-03; -1.5000001E-01;483;  0.0000000E+00;  0.0000000E+00;  0.0000000E+00;  1.0000000E+03;  1.0000000E-01;  0.0000000E+00;0;  0.0000000E+00;  0.0000000E+00;  0.0000000E+00;0;  5.4909056E-06;  4.0000000E+04;  0.0000000E+00;  0.0000000E+00;  4.0000000E+04;  0.0000000E+00;  4.0000000E+04;  5.3923782E-06;  0.0000000E+00;  9.8527210E-08;  4.0867338E+00;
 -1.5000001E-01;  9.9999998E-03; -1.4000000E-01;484;  0.0000000E+00;  0.0000000E+00;  0.0000000E+00;  1.0000000E+03;  1.0000000E-01;  0.0000000E+00;0;  0.0000000E+00;  0.0000000E+00;  0.0000000E+00;0;  5.7933084E-06;  4.0000000E+04;  0.0000000E+00;  0.0000000E+00;  4.0000000E+04;  0.0000000E+00;  4.0000000E+04;  5.7212601E-06;  0.0000000E+00;  7.2048287E-08;  4.0453329E+00;
 -1.5000001E-01;  9.9999998E-03; -1.3000000E-01;485;  0.0000000E+00;  0.0000000E+00;  0.0000000E+00;  1.0000000E+03;  1.0000000E-01;  0.0000000E+00;0;  0.0000000E+00;  0.0000000E+00;  0.0000000E+00;0;  6.1646429E-06;  4.0000000E+04;  0.0000000E+00;  0.0000000E+00;  4.0000000E+04;  0.0000000E+00;  4.0000000E+04;  6.1188275E-06;  0.0000000E+00;  4.5815391E-08;  3.9819300E+00;
 -1.5000001E-01;  9.9999998E-03; -1.2000000E-01;486;  0.0000000E+00;  0.0000000E+00;  0.0000000E+00;  1.0000000E+03;  1.0000000E-01;  0.0000000E+00;0;  0.0000000E+00;  0.0000000E+00;  0.0000000E+00;0;  6.5481472E-06;  4.0000000E+04;  0.0000000E+00;  0.0000000E+00;  4.0000000E+04;  0.0000000E+00;  4.0000000E+04;  6.5264503E-06;  0.0000000E+00;  2.1697071E-08;  3.9107525E+00;
 -1.5000001E-01;  9.9999998E-03; -1.1000000E-01;487;  0.0000000E+00;  0.0000000E+00;  0.0000000E+00;  1.0000000E+03;  1.0000000E-01;  0.0000000E+00;0;  0.0000000E+00;  0.0000000E+00;  0.0000000E+00;0;  6.8949716E-06;  4.0000000E+04;  0.0000000E+00;  0.0000000E+00;  4.0000000E+04;  0.0000000E+00;  4.0000000E+04;  6.8936697E-06;  0.0000000E+00;  1.3021618E-09;  3.8457808E+00;
 -1.4000000E-01;  9.9999998E-03; -2.7000001E-01;562;  0.0000000E+00;  0.0000000E+00;  0.0000000E+00;  1.0000000E+03;  1.0000000E-01;  0.0000000E+00;0;  0.0000000E+00;  0.0000000E+00;  0.0000000E+00;0;  1.3159567E-05;  4.0000000E+04;  0.0000000E+00;  0.0000000E+00;  4.0000000E+04;  0.0000000E+00;  4.0000000E+04;  1.4029446E-05;  0.0000000E+00; -8.6987893E-07;  2.1890888E+00;
 -1.4000000E-01;  9.9999998E-03; -2.5999999E-01;563;  0.0000000E+00;  0.0000000E+00;  0.0000000E+00;  1.0000000E+03;  1.0000000E-01;  0.0000000E+00;0;  0.0000000E+00;  0.0000000E+00;  0.0000000E+00;0;  1.7893703E-05;  4.0000000E+04;  0.0000000E+00;  0.0000000E+00;  4.0000000E+04;  0.0000000E+00;  4.0000000E+04;  1.8153247E-05;  0.0000000E+00; -2.5954495E-07;  5.5723963E+00;
 -1.4000000E-01;  9.9999998E-03; -2.5000000E-01;564;  0.0000000E+00;  0.0000000E+00;  0.0000000E+00;  1.0000000E+03;  1.0000000E-01;  0.0000000E+00;0;  0.0000000E+00;  0.0000000E+00;  0.0000000E+00;0;  2.2090522E-05;  4.0000000E+04;  0.0000000E+00;  0.0000000E+00;  4.0000000E+04;  0.0000000E+00;  4.0000000E+04;  2.1776490E-05;  0.0000000E+00;  3.1403167E-07;  8.8378563E+00;
 -1.4000000E-01;  9.9999998E-03; -2.3999999E-01;565;  0.0000000E+00;  0.0000000E+00;  0.0000000E+00;  1.0000000E+03;  1.0000000E-01;  0.0000000E+00;0;  0.0000000E+00;  0.0000000E+00;  0.0000000E+00;0;  2.5261257E-05;  4.0000000E+04;  0.0000000E+00;  0.0000000E+00;  4.0000000E+04;  0.0000000E+00;  4.0000000E+04;  2.4484412E-05;  0.0000000E+00;  7.7684416E-07;  1.1658410E+01;
 -1.4000000E-01;  9.9999998E-03; -2.3000000E-01;566;  0.0000000E+00;  0.0000000E+00;  0.0000000E+00;  1.0000000E+03;  1.0000000E-01;  0.0000000E+00;0;  0.0000000E+00;  0.0000000E+00;  0.0000000E+00;0;  2.7131606E-05;  4.0000000E+04;  0.0000000E+00;  0.0000000E+00;  4.0000000E+04;  0.0000000E+00;  4.0000000E+04;  2.6039223E-05;  0.0000000E+00;  1.0923826E-06;  1.3860753E+01;
 -1.4000000E-01;  9.9999998E-03; -2.2000000E-01;567;  0.0000000E+00;  0.0000000E+00;  0.0000000E+00;  1.0000000E+03;  1.0000000E-01;  0.0000000E+00;0;  0.0000000E+00;  0.0000000E+00;  0.0000000E+00;0;  2.7691927E-05;  4.0000000E+04;  0.0000000E+00;  0.0000000E+00;  4.0000000E+04;  0.0000000E+00;  4.0000000E+04;  2.6427497E-05;  0.0000000E+00;  1.2644311E-06;  1.5436601E+01;
 -1.4000000E-01;  9.9999998E-03; -2.0999999E-01;568;  0.0000000E+00;  0.0000000E+00;  0.0000000E+00;  1.0000000E+03;  1.0000000E-01;  0.0000000E+00;0;  0.0000000E+00;  0.0000000E+00;  0.0000000E+00;0;  2.7193420E-05;  4.0000000E+04;  0.0000000E+00;  0.0000000E+00;  4.0000000E+04;  0.0000000E+00;  4.0000000E+04;  2.5870781E-05;  0.0000000E+00;  1.3226406E-06;  1.6484383E+01;
 -1.4000000E-01;  9.9999998E-03; -2.0000000E-01;569;  0.0000000E+00;  0.0000000E+00;  0.0000000E+00;  1.0000000E+03;  1.0000000E-01;  0.0000000E+00;0;  0.0000000E+00;  0.0000000E+00;  0.0000000E+00;0;  2.6055603E-05;  4.0000000E+04;  0.0000000E+00;  0.0000000E+00;  4.0000000E+04;  0.0000000E+00;  4.0000000E+04;  2.4742587E-05;  0.0000000E+00;  1.3130150E-06;  1.7170311E+01;
 -1.4000000E-01;  9.9999998E-03; -1.9000000E-01;570;  0.0000000E+00;  0.0000000E+00;  0.0000000E+00;  1.0000000E+03;  1.0000000E-01;  0.0000000E+00;0;  0.0000000E+00;  0.0000000E+00;  0.0000000E+00;0;  2.4749792E-05;  4.0000000E+04;  0.0000000E+00;  0.0000000E+00;  4.0000000E+04;  0.0000000E+00;  4.0000000E+04;  2.3484456E-05;  0.0000000E+00;  1.2653367E-06;  1.7642206E+01;
 -1.4000000E-01;  9.9999998E-03; -1.8000001E-01;571;  0.0000000E+00;  0.0000000E+00;  0.0000000E+00;  1.0000000E+03;  1.0000000E-01;  0.0000000E+00;0;  0.0000000E+00;  0.0000000E+00;  0.0000000E+00;0;  2.3682333E-05;  4.0000000E+04;  0.0000000E+00;  0.0000000E+00;  4.0000000E+04;  0.0000000E+00;  4.0000000E+04;  2.2500481E-05;  0.0000000E+00;  1.1818518E-06;  1.7962955E+01;
 -1.4000000E-01;  9.9999998E-03; -1.7000000E-01;572;  0.0000000E+00;  0.0000000E+00;  0.0000000E+00;  1.0000000E+03;  1.0000000E-01;  0.0000000E+00;0;  0.0000000E+00;  0.0000000E+00;  0.0000000E+00;0;  2.3128894E-05;  4.0000000E+04;  0.0000000E+00;  0.0000000E+00;  4.0000000E+04;  0.0000000E+00;  4.0000000E+04;  2.2064154E-05;  0.0000000E+00;  1.0647400E-06;  1.8145372E+01;
 -1.4000000E-01;  9.9999998E-03; -1.6000000E-01;573;  0.0000000E+00;  0.0000000E+00;  0.0000000E+00;  1.0000000E+03;  1.0000000E-01;  0.0000000E+00;0;  0.0000000E+00;  0.0000000E+00;  0.0000000E+00;0;  2.3211473E-05;  4.0000000E+04;  0.0000000E+00;  0.0000000E+00;  4.0000000E+04;  0.0000000E+00;  4.0000000E+04;  2.2293498E-05;  0.0000000E+00;  9.1797529E-07;  1.8185204E+01;
 -1.4000000E-01;  9.9999998E-03; -1.5000001E-01;574;  0.0000000E+00;  0.0000000E+00;  0.0000000E+00;  1.0000000E+03;  1.0000000E-01;  0.0000000E+00;0;  0.0000000E+00;  0.0000000E+00;  0.0000000E+00;0;  2.3911098E-05;  4.0000000E+04;  0.0000000E+00;  0.0000000E+00;  4.0000000E+04;  0.0000000E+00;  4.0000000E+04;  2.3163058E-05;  0.0000000E+00;  7.4803944E-07;  1.8087246E+01;
 -1.4000000E-01;  9.9999998E-03; -1.4000000E-01;575;  0.0000000E+00;  0.0000000E+00;  0.0000000E+00;  1.0000000E+03;  1.0000000E-01;  0.0000000E+00;0;  0.0000000E+00;  0.0000000E+00;  0.0000000E+00;0;  2.5101655E-05;  4.0000000E+04;  0.0000000E+00;  0.0000000E+00;  4.0000000E+04;  0.0000000E+00;  4.0000000E+04;  2.4537332E-05;  0.0000000E+00;  5.6432265E-07;  1.7876871E+01;
 -1.4000000E-01;  9.9999998E-03; -1.3000000E-01;576;  0.0000000E+00;  0.0000000E+00;  0.0000000E+00;  1.0000000E+03;  1.0000000E-01;  0.0000000E+00;0;  0.0000000E+00;  0.0000000E+00;  0.0000000E+00;0;  2.6592792E-05;  4.0000000E+04;  0.0000000E+00;  0.0000000E+00;  4.0000000E+04;  0.0000000E+00;  4.0000000E+04;  2.6214248E-05;  0.0000000E+00;  3.7854483E-07;  1.7599318E+01;
 -1.4000000E-01;  9.9999998E-03; -1.2000000E-01;577;  0.0000000E+00;  0.0000000E+00;  0.0000000E+00;  1.0000000E+03;  1.0000000E-01;  0.0000000E+00;0;  0.0000000E+00;  0.0000000E+00;  0.0000000E+00;0;  2.8173326E-05;  4.0000000E+04;  0.0000000E+00;  0.0000000E+00;  4.0000000E+04;  0.0000000E+00;  4.0000000E+04;  2.7969880E-05;  0.0000000E+00;  2.0344642E-07;  1.7310715E+01;
 -1.4000000E-01;  9.9999998E-03; -1.1000000E-01;578;  0.0000000E+00;  0.0000000E+00;  0.0000000E+00;  1.0000000E+03;  1.0000000E-01;  0.0000000E+00;0;  0.0000000E+00;  0.0000000E+00;  0.0000000E+00;0;  2.9649287E-05;  4.0000000E+04;  0.0000000E+00;  0.0000000E+00;  4.0000000E+04;  0.0000000E+00;  4.0000000E+04;  2.9598095E-05;  0.0000000E+00;  5.1191293E-08;  1.7065941E+01;
 -1.3000000E-01;  9.9999998E-03; -2.7000001E-01;653;  0.0000000E+00;  0.0000000E+00;  0.0000000E+00;  1.0000000E+03;  1.0000000E-01;  0.0000000E+00;0;  0.0000000E+00;  0.0000000E+00;  0.0000000E+00;0;  2.5361294E-05;  4.0000000E+04;  0.0000000E+00;  0.0000000E+00;  4.0000000E+04;  0.0000000E+00;  4.0000000E+04;  2.8420855E-05;  0.0000000E+00; -3.0595606E-06;  6.9381380E+00;
 -1.3000000E-01;  9.9999998E-03; -2.5999999E-01;654;  0.0000000E+00;  0.0000000E+00;  0.0000000E+00;  1.0000023E+03;  1.0000000E-01;  1.8764901E+00;0;  0.0000000E+00;  0.0000000E+00;  0.0000000E+00;0;  3.5582110E-05;  4.0000000E+04;  0.0000000E+00;  0.0000000E+00;  4.0000000E+04;  0.0000000E+00;  4.0000000E+04;  3.6840549E-05;  0.0000000E+00; -1.2584391E-06;  1.6848185E+01;
 -1.3000000E-01;  9.9999998E-03; -2.5000000E-01;655;  0.0000000E+00;  0.0000000E+00;  0.0000000E+00;  1.0000066E+03;  1.0000000E-01;  5.4319453E+00;0;  0.0000000E+00;  0.0000000E+00;  0.0000000E+00;0;  4.4891643E-05;  4.0000000E+04;  0.0000000E+00;  0.0000000E+00;  4.0000000E+04;  0.0000000E+00;  4.0000000E+04;  4.4363045E-05;  0.0000000E+00;  5.2859872E-07;  2.6359783E+01;
 -1.3000000E-01;  9.9999998E-03; -2.3999999E-01;656;  0.0000000E+00;  0.0000000E+00;  0.0000000E+00;  1.0000064E+03;  1.0000000E-01;  5.3331823E+00;0;  0.0000000E+00;  0.0000000E+00;  0.0000000E+00;0;  5.2305593E-05;  4.0000000E+04;  0.0000000E+00;  0.0000000E+00;  4.0000000E+04;  0.0000000E+00;  4.0000000E+04;  5.0204671E-05;  0.0000000E+00;  2.1009223E-06;  3.4577690E+01;
 -1.3000000E-01;  9.9999998E-03; -2.3000000E-01;657;  0.0000000E+00;  0.0000000E+00;  0.0000000E+00;  1.0000078E+03;  1.0000000E-01;  6.4195714E+00;0;  0.0000000E+00;  0.0000000E+00;  0.0000000E+00;0;  5.7197703E-05;  4.0000000E+04;  0.0000000E+00;  0.0000000E+00;  4.0000000E+04;  0.0000000E+00;  4.0000000E+04;  5.3872511E-05;  0.0000000E+00;  3.3251918E-06;  4.0977581E+01;
 -1.3000000E-01;  9.9999998E-03; -2.2000000E-01;658;  0.0000000E+00;  0.0000000E+00;  0.0000000E+00;  1.0000148E+03;  1.0000000E-01;  1.2246567E+01;0;  0.0000000E+00;  0.0000000E+00;  0.0000000E+00;0;  5.9415892E-05;  4.0000000E+04;  0.0000000E+00;  0.0000000E+00;  4.0000000E+04;  0.0000000E+00;  4.0000000E+04;  5.5264609E-05;  0.0000000E+00;  4.1512812E-06;  4.5458130E+01;
 -1.3000000E-01;  9.9999998E-03; -2.0999999E-01;659;  0.0000000E+00;  0.0000000E+00;  0.0000000E+00;  1.0000168E+03;  1.0000000E-01;  1.3925532E+01;0;  0.0000000E+00;  0.0000000E+00;  0.0000000E+00;0;  5.9313596E-05;  4.0000000E+04;  0.0000000E+00;  0.0000000E+00;  4.0000000E+04;  0.0000000E+00;  4.0000000E+04;  5.4713058E-05;  0.0000000E+00;  4.6005357E-06;  4.8250080E+01;
 -1.3000000E-01;  9.9999998E-03; -2.0000000E-01;660;  0.0000000E+00;  0.0000000E+00;  0.0000000E+00;  1.0000192E+03;  1.0000000E-01;  1.5900784E+01;0;  0.0000000E+00;  0.0000000E+00;  0.0000000E+00;0;  5.7634468E-05;  4.0000000E+04;  0.0000000E+00;  0.0000000E+00;  4.0000000E+04;  0.0000000E+00;  4.0000000E+04;  5.2895153E-05;  0.0000000E+00;  4.7393155E-06;  4.9768295E+01;
 -1.3000000E-01;  9.9999998E-03; -1.9000000E-01;661;  0.0000000E+00;  0.0000000E+00;  0.0000000E+00;  1.0000222E+03;  1.0000000E-01;  1.8369850E+01;0;  0.0000000E+00;  0.0000000E+00;  0.0000000E+00;0;  5.5320706E-05;  4.0000000E+04;  0.0000000E+00;  0.0000000E+00;  4.0000000E+04;  0.0000000E+00;  4.0000000E+04;  5.0672894E-05;  0.0000000E+00;  4.6478112E-06;  5.0447086E+01;
 -1.3000000E-01;  9.9999998E-03; -1.8000001E-01;662;  0.0000000E+00;  0.0000000E+00;  0.0000000E+00;  1.0000242E+03;  1.0000000E-01;  2.0048815E+01;0;  0.0000000E+00;  0.0000000E+00;  0.0000000E+00;0;  5.3280568E-05;  4.0000000E+04;  0.0000000E+00;  0.0000000E+00;  4.0000000E+04;  0.0000000E+00;  4.0000000E+04;  4.8885569E-05;  0.0000000E+00;  4.3949976E-06;  5.0646263E+01;
 -1.3000000E-01;  9.9999998E-03; -1.7000000E-01;663;  0.0000000E+00;  0.0000000E+00;  0.0000000E+00;  1.0000256E+03;  1.0000000E-01;  2.1233967E+01;0;  0.0000000E+00;  0.0000000E+00;  0.0000000E+00;0;  5.2197105E-05;  4.0000000E+04;  0.0000000E+00;  0.0000000E+00;  4.0000000E+04;  0.0000000E+00;  4.0000000E+04;  4.8195579E-05;  0.0000000E+00;  4.0015252E-06;  5.0541489E+01;
 -1.3000000E-01;  9.9999998E-03; -1.6000000E-01;664;  0.0000000E+00;  0.0000000E+00;  0.0000000E+00;  1.0000266E+03;  1.0000000E-01;  2.2024069E+01;0;  0.0000000E+00;  0.0000000E+00;  0.0000000E+00;0;  5.2442847E-05;  4.0000000E+04;  0.0000000E+00;  0.0000000E+00;  4.0000000E+04;  0.0000000E+00;  4.0000000E+04;  4.8955921E-05;  0.0000000E+00;  3.4869279E-06;  5.0192257E+01;
 -1.3000000E-01;  9.9999998E-03; -1.5000001E-01;665;  0.0000000E+00;  0.0000000E+00;  0.0000000E+00;  1.0000271E+03;  1.0000000E-01;  2.2419119E+01;0;  0.0000000E+00;  0.0000000E+00;  0.0000000E+00;0;  5.4069842E-05;  4.0000000E+04;  0.0000000E+00;  0.0000000E+00;  4.0000000E+04;  0.0000000E+00;  4.0000000E+04;  5.1189945E-05;  0.0000000E+00;  2.8798959E-06;  4.9628265E+01;
 -1.3000000E-01;  9.9999998E-03; -1.4000000E-01;666;  0.0000000E+00;  0.0000000E+00;  0.0000000E+00;  1.0000283E+03;  1.0000000E-01;  2.3406746E+01;0;  0.0000000E+00;  0.0000000E+00;  0.0000000E+00;0;  5.6862187E-05;  4.0000000E+04;  0.0000000E+00;  0.0000000E+00;  4.0000000E+04;  0.0000000E+00;  4.0000000E+04;  5.4645607E-05;  0.0000000E+00;  2.2165814E-06;  4.8903641E+01;
 -1.3000000E-01;  9.9999998E-03; -1.3000000E-01;667;  0.0000000E+00;  0.0000000E+00;  0.0000000E+00;  1.0000285E+03;  1.0000000E-01;  2.3604271E+01;0;  0.0000000E+00;  0.0000000E+00;  0.0000000E+00;0;  6.0426159E-05;  4.0000000E+04;  0.0000000E+00;  0.0000000E+00;  4.0000000E+04;  0.0000000E+00;  4.0000000E+04;  5.8886882E-05;  0.0000000E+00;  1.5392745E-06;  4.8113308E+01;
 -1.3000000E-01;  9.9999998E-03; -1.2000000E-01;668;  0.0000000E+00;  0.0000000E+00;  0.0000000E+00;  1.0000282E+03;  1.0000000E-01;  2.3406746E+01;0;  0.0000000E+00;  0.0000000E+00;  0.0000000E+00;0;  6.4291271E-05;  4.0000000E+04;  0.0000000E+00;  0.0000000E+00;  4.0000000E+04;  0.0000000E+00;  4.0000000E+04;  6.3397543E-05;  0.0000000E+00;  8.9372782E-07;  4.7379314E+01;
 -1.3000000E-01;  9.9999998E-03; -1.1000000E-01;669;  0.0000000E+00;  0.0000000E+00;  0.0000000E+00;  1.0000276E+03;  1.0000000E-01;  2.2912931E+01;0;  0.0000000E+00;  0.0000000E+00;  0.0000000E+00;0;  6.8002002E-05;  4.0000000E+04;  0.0000000E+00;  0.0000000E+00;  4.0000000E+04;  0.0000000E+00;  4.0000000E+04;  6.7676767E-05;  0.0000000E+00;  3.2523633E-07;  4.6821747E+01;
 -1.2000000E-01;  9.9999998E-03; -2.7000001E-01;744;  0.0000000E+00;  0.0000000E+00;  0.0000000E+00;  1.0000247E+03;  1.0000000E-01;  2.0443867E+01;0;  0.0000000E+00;  0.0000000E+00;  0.0000000E+00;0;  2.8454626E-05;  4.0000000E+04;  0.0000000E+00;  0.0000000E+00;  4.0000000E+04;  0.0000000E+00;  4.0000000E+04;  3.6147394E-05;  0.0000000E+00; -7.6927672E-06;  1.6986837E+01;
 -1.2000000E-01;  9.9999998E-03; -2.5999999E-01;745;  0.0000000E+00;  0.0000000E+00;  0.0000000E+00;  1.0000195E+03;  1.0000000E-01;  1.6098310E+01;0;  0.0000000E+00;  0.0000000E+00;  0.0000000E+00;0;  4.4947832E-05;  4.0000000E+04;  0.0000000E+00;  0.0000000E+00;  4.0000000E+04;  0.0000000E+00;  4.0000000E+04;  4.8495498E-05;  0.0000000E+00; -3.5476662E-06;  3.9524734E+01;
 -1.2000000E-01;  9.9999998E-03; -2.5000000E-01;746;  0.0000000E+00;  0.0000000E+00;  0.0000000E+00;  1.0000235E+03;  1.0000000E-01;  1.9456240E+01;0;  0.0000000E+00;  0.0000000E+00;  0.0000000E+00;0;  6.0223865E-05;  4.0000000E+04;  0.0000000E+00;  0.0000000E+00;  4.0000000E+04;  0.0000000E+00;  4.0000000E+04;  5.9547459E-05;  0.0000000E+00;  6.7640542E-07;  6.0977932E+01;
 -1.2000000E-01;  9.9999998E-03; -2.3999999E-01;747;  0.0000000E+00;  0.0000000E+00;  0.0000000E+00;  1.0000269E+03;  1.0000000E-01;  2.2221594E+01;0;  0.0000000E+00;  0.0000000E+00;  0.0000000E+00;0;  7.2688745E-05;  4.0000000E+04;  0.0000000E+00;  0.0000000E+00;  4.0000000E+04;  0.0000000E+00;  4.0000000E+04;  6.8133340E-05;  0.0000000E+00;  4.5554066E-06;  7.9418327E+01;
 -1.2000000E-01;  9.9999998E-03; -2.3000000E-01;748;  0.0000000E+00;  0.0000000E+00;  0.0000000E+00;  1.0000310E+03;  1.0000000E-01;  2.5678286E+01;0;  0.0000000E+00;  0.0000000E+00;  0.0000000E+00;0;  8.1260994E-05;  4.0000000E+04;  0.0000000E+00;  0.0000000E+00;  4.0000000E+04;  0.0000000E+00;  4.0000000E+04;  7.3495168E-05;  0.0000000E+00;  7.7658278E-06;  9.3646706E+01;
 -1.2000000E-01;  9.9999998E-03; -2.2000000E-01;749;  0.0000000E+00;  0.0000000E+00;  0.0000000E+00;  1.0000410E+03;  1.0000000E-01;  3.3974346E+01;0;  0.0000000E+00;  0.0000000E+00;  0.0000000E+00;0;  8.5566491E-05;  4.0000000E+04;  0.0000000E+00;  0.0000000E+00;  4.0000000E+04;  0.0000000E+00;  4.0000000E+04;  7.5441676E-05;  0.0000000E+00;  1.0124818E-05;  1.0332521E+02;
 -1.2000000E-01;  9.9999998E-03; -2.0999999E-01;750;  0.0000000E+00;  0.0000000E+00;  0.0000000E+00;  1.0000439E+03;  1.0000000E-01;  3.6344650E+01;0;  0.0000000E+00;  0.0000000E+00;  0.0000000E+00;0;  8.6017295E-05;  4.0000000E+04;  0.0000000E+00;  0.0000000E+00;  4.0000000E+04;  0.0000000E+00;  4.0000000E+04;  7.4423988E-05;  0.0000000E+00;  1.1593308E-05;  1.0888175E+02;
 -1.2000000E-01;  9.9999998E-03; -2.0000000E-01;751;  0.0000000E+00;  0.0000000E+00;  0.0000000E+00;  1.0000474E+03;  1.0000000E-01;  3.9307529E+01;0;  0.0000000E+00;  0.0000000E+00;  0.0000000E+00;0;  8.3687526E-05;  4.0000000E+04;  0.0000000E+00;  0.0000000E+00;  4.0000000E+04;  0.0000000E+00;  4.0000000E+04;  7.1440518E-05;  0.0000000E+00;  1.2247007E-05;  1.1123331E+02;
 -1.2000000E-01;  9.9999998E-03; -1.9000000E-01;752;  0.0000000E+00;  0.0000000E+00;  0.0000000E+00;  1.0000543E+03;  1.0000000E-01;  4.4937000E+01;0;  0.0000000E+00;  0.0000000E+00;  0.0000000E+00;0;  8.0060301E-05;  4.0000000E+04;  0.0000000E+00;  0.0000000E+00;  4.0000000E+04;  0.0000000E+00;  4.0000000E+04;  6.7839210E-05;  0.0000000E+00;  1.2221089E-05;  1.1142577E+02;
 -1.2000000E-01;  9.9999998E-03; -1.8000001E-01;753;  0.0000000E+00;  0.0000000E+00;  0.0000000E+00;  1.0000614E+03;  1.0000000E-01;  5.0862759E+01;0;  0.0000000E+00;  0.0000000E+00;  0.0000000E+00;0;  7.6674856E-05;  4.0000000E+04;  0.0000000E+00;  0.0000000E+00;  4.0000000E+04;  0.0000000E+00;  4.0000000E+04;  6.5014712E-05;  0.0000000E+00;  1.1660141E-05;  1.1036363E+02;
 -1.2000000E-01;  9.9999998E-03; -1.7000000E-01;754;  0.0000000E+00;  0.0000000E+00;  0.0000000E+00;  1.0000712E+03;  1.0000000E-01;  5.8961296E+01;0;  0.0000000E+00;  0.0000000E+00;  0.0000000E+00;0;  7.4796335E-05;  4.0000000E+04;  0.0000000E+00;  0.0000000E+00;  4.0000000E+04;  0.0000000E+00;  4.0000000E+04;  6.4101085E-05;  0.0000000E+00;  1.0695248E-05;  1.0871697E+02;
 -1.2000000E-01;  9.9999998E-03; -1.6000000E-01;755;  0.0000000E+00;  0.0000000E+00;  0.0000000E+00;  1.0000796E+03;  1.0000000E-01;  6.5973442E+01;0;  0.0000000E+00;  0.0000000E+00;  0.0000000E+00;0;  7.5183059E-05;  4.0000000E+04;  0.0000000E+00;  0.0000000E+00;  4.0000000E+04;  0.0000000E+00;  4.0000000E+04;  6.5785403E-05;  0.0000000E+00;  9.3976541E-06;  1.0682912E+02;
 -1.2000000E-01;  9.9999998E-03; -1.5000001E-01;756;  0.0000000E+00;  0.0000000E+00;  0.0000000E+00;  1.0000903E+03;  1.0000000E-01;  7.4862083E+01;0;  0.0000000E+00;  0.0000000E+00;  0.0000000E+00;0;  7.8042554E-05;  4.0000000E+04;  0.0000000E+00;  0.0000000E+00;  4.0000000E+04;  0.0000000E+00;  4.0000000E+04;  7.0199188E-05;  0.0000000E+00;  7.8433668E-06;  1.0485095E+02;
 -1.2000000E-01;  9.9999998E-03; -1.4000000E-01;757;  0.0000000E+00;  0.0000000E+00;  0.0000000E+00;  1.0000942E+03;  1.0000000E-01;  7.8022484E+01;0;  0.0000000E+00;  0.0000000E+00;  0.0000000E+00;0;  8.3089813E-05;  4.0000000E+04;  0.0000000E+00;  0.0000000E+00;  4.0000000E+04;  0.0000000E+00;  4.0000000E+04;  7.6960001E-05;  0.0000000E+00;  6.1298092E-06;  1.0288915E+02;
 -1.2000000E-01;  9.9999998E-03; -1.3000000E-01;758;  0.0000000E+00;  0.0000000E+00;  0.0000000E+00;  1.0000935E+03;  1.0000000E-01;  7.7429909E+01;0;  0.0000000E+00;  0.0000000E+00;  0.0000000E+00;0;  8.9682406E-05;  4.0000000E+04;  0.0000000E+00;  0.0000000E+00;  4.0000000E+04;  0.0000000E+00;  4.0000000E+04;  8.5313637E-05;  0.0000000E+00;  4.3687651E-06;  1.0108316E+02;
 -1.2000000E-01;  9.9999998E-03; -1.2000000E-01;759;  0.0000000E+00;  0.0000000E+00;  0.0000000E+00;  1.0000923E+03;  1.0000000E-01;  7.6442284E+01;0;  0.0000000E+00;  0.0000000E+00;  0.0000000E+00;0;  9.6995434E-05;  4.0000000E+04;  0.0000000E+00;  0.0000000E+00;  4.0000000E+04;  0.0000000E+00;  4.0000000E+04;  9.4315437E-05;  0.0000000E+00;  2.6799994E-06;  9.9610733E+01;
 -1.2000000E-01;  9.9999998E-03; -1.1000000E-01;760;  0.0000000E+00;  0.0000000E+00;  0.0000000E+00;  1.0000908E+03;  1.0000000E-01;  7.5158371E+01;0;  0.0000000E+00;  0.0000000E+00;  0.0000000E+00;0;  1.0419443E-04;  4.0000000E+04;  0.0000000E+00;  0.0000000E+00;  4.0000000E+04;  0.0000000E+00;  4.0000000E+04;  1.0301191E-04;  0.0000000E+00;  1.1825147E-06;  9.8649574E+01;
 -1.1000000E-01;  9.9999998E-03; -2.7000001E-01;835;  0.0000000E+00;  0.0000000E+00;  0.0000000E+00;  1.0000669E+03;  1.0000000E-01;  5.5405842E+01;0;  0.0000000E+00;  0.0000000E+00;  0.0000000E+00;0;  1.6536978E-06;  4.0000000E+04;  0.0000000E+00;  0.0000000E+00;  4.0000000E+04;  0.0000000E+00;  4.0000000E+04;  1.7489465E-05;  0.0000000E+00; -1.5835767E-05;  3.5357471E+01;
 -1.1000000E-01;  9.9999998E-03; -2.5999999E-01;836;  0.0000000E+00;  0.0000000E+00;  0.0000000E+00;  1.0000767E+03;  1.0000000E-01;  6.3603138E+01;0;  0.0000000E+00;  0.0000000E+00;  0.0000000E+00;0;  2.2859160E-05;  4.0000000E+04;  0.0000000E+00;  0.0000000E+00;  4.0000000E+04;  0.0000000E+00;  4.0000000E+04;  3.0583025E-05;  0.0000000E+00; -7.7238656E-06;  7.8792709E+01;
 -1.1000000E-01;  9.9999998E-03; -2.5000000E-01;837;  0.0000000E+00;  0.0000000E+00;  0.0000000E+00;  1.0000839E+03;  1.0000000E-01;  6.9430138E+01;0;  0.0000000E+00;  0.0000000E+00;  0.0000000E+00;0;  4.2727006E-05;  4.0000000E+04;  0.0000000E+00;  0.0000000E+00;  4.0000000E+04;  0.0000000E+00;  4.0000000E+04;  4.2066775E-05;  0.0000000E+00;  6.6023091E-07;  1.1978726E+02;
 -1.1000000E-01;  9.9999998E-03; -2.3999999E-01;838;  0.0000000E+00;  0.0000000E+00;  0.0000000E+00;  1.0000883E+03;  1.0000000E-01;  7.3183113E+01;0;  0.0000000E+00;  0.0000000E+00;  0.0000000E+00;0;  5.8988851E-05;  4.0000000E+04;  0.0000000E+00;  0.0000000E+00;  4.0000000E+04;  0.0000000E+00;  4.0000000E+04;  5.0442799E-05;  0.0000000E+00;  8.5460524E-06;  1.5479439E+02;
 -1.1000000E-01;  9.9999998E-03; -2.3000000E-01;839;  0.0000000E+00;  0.0000000E+00;  0.0000000E+00;  1.0001089E+03;  1.0000000E-01;  9.0269051E+01;0;  0.0000000E+00;  0.0000000E+00;  0.0000000E+00;0;  7.0050533E-05;  4.0000000E+04;  0.0000000E+00;  0.0000000E+00;  4.0000000E+04;  0.0000000E+00;  4.0000000E+04;  5.4749780E-05;  0.0000000E+00;  1.5300753E-05;  1.8153241E+02;
 -1.1000000E-01;  9.9999998E-03; -2.2000000E-01;840;  0.0000000E+00;  0.0000000E+00;  0.0000000E+00;  1.0001178E+03;  1.0000000E-01;  9.7577484E+01;0;  0.0000000E+00;  0.0000000E+00;  0.0000000E+00;0;  7.5274977E-05;  4.0000000E+04;  0.0000000E+00;  0.0000000E+00;  4.0000000E+04;  0.0000000E+00;  4.0000000E+04;  5.4770913E-05;  0.0000000E+00;  2.0504060E-05;  1.9923012E+02;
 -1.1000000E-01;  9.9999998E-03; -2.0999999E-01;841;  0.0000000E+00;  0.0000000E+00;  0.0000000E+00;  1.0001382E+03;  1.0000000E-01;  1.1456466E+02;0;  0.0000000E+00;  0.0000000E+00;  0.0000000E+00;0;  7.5113465E-05;  4.0000000E+04;  0.0000000E+00;  0.0000000E+00;  4.0000000E+04;  0.0000000E+00;  4.0000000E+04;  5.1137369E-05;  0.0000000E+00;  2.3976092E-05;  2.0853659E+02;
 -1.1000000E-01;  9.9999998E-03; -2.0000000E-01;842;  0.0000000E+00;  0.0000000E+00;  0.0000000E+00;  1.0001517E+03;  1.0000000E-01;  1.2572484E+02;0;  0.0000000E+00;  0.0000000E+00;  0.0000000E+00;0;  7.0976545E-05;  4.0000000E+04;  0.0000000E+00;  0.0000000E+00;  4.0000000E+04;  0.0000000E+00;  4.0000000E+04;  4.5219647E-05;  0.0000000E+00;  2.5756899E-05;  2.1113493E+02;
 -1.1000000E-01;  9.9999998E-03; -1.9000000E-01;843;  0.0000000E+00;  0.0000000E+00;  0.0000000E+00;  1.0001736E+03;  1.0000000E-01;  1.4389717E+02;0;  0.0000000E+00;  0.0000000E+00;  0.0000000E+00;0;  6.4928157E-05;  4.0000000E+04;  0.0000000E+00;  0.0000000E+00;  4.0000000E+04;  0.0000000E+00;  4.0000000E+04;  3.8887225E-05;  0.0000000E+00;  2.6040934E-05;  2.0915529E+02;
 -1.1000000E-01;  9.9999998E-03; -1.8000001E-01;844;  0.0000000E+00;  0.0000000E+00;  0.0000000E+00;  1.0001846E+03;  1.0000000E-01;  1.5298332E+02;0;  0.0000000E+00;  0.0000000E+00;  0.0000000E+00;0;  5.9220853E-05;  4.0000000E+04;  0.0000000E+00;  0.0000000E+00;  4.0000000E+04;  0.0000000E+00;  4.0000000E+04;  3.4132143E-05;  0.0000000E+00;  2.5088710E-05;  2.0460133E+02;
 -1.1000000E-01;  9.9999998E-03; -1.7000000E-01;845;  0.0000000E+00;  0.0000000E+00;  0.0000000E+00;  1.0002034E+03;  1.0000000E-01;  1.6848906E+02;0;  0.0000000E+00;  0.0000000E+00;  0.0000000E+00;0;  5.5806293E-05;  4.0000000E+04;  0.0000000E+00;  0.0000000E+00;  4.0000000E+04;  0.0000000E+00;  4.0000000E+04;  3.2647251E-05;  0.0000000E+00;  2.3159042E-05;  1.9900136E+02;
 -1.1000000E-01;  9.9999998E-03; -1.6000000E-01;846;  0.0000000E+00;  0.0000000E+00;  0.0000000E+00;  1.0002122E+03;  1.0000000E-01;  1.7579750E+02;0;  0.0000000E+00;  0.0000000E+00;  0.0000000E+00;0;  5.5962784E-05;  4.0000000E+04;  0.0000000E+00;  0.0000000E+00;  4.0000000E+04;  0.0000000E+00;  4.0000000E+04;  3.5473433E-05;  0.0000000E+00;  2.0489351E-05;  1.9337564E+02;
 -1.1000000E-01;  9.9999998E-03; -1.5000001E-01;847;  0.0000000E+00;  0.0000000E+00;  0.0000000E+00;  1.0002193E+03;  1.0000000E-01;  1.8172325E+02;0;  0.0000000E+00;  0.0000000E+00;  0.0000000E+00;0;  6.0112423E-05;  4.0000000E+04;  0.0000000E+00;  0.0000000E+00;  4.0000000E+04;  0.0000000E+00;  4.0000000E+04;  4.2856853E-05;  0.0000000E+00;  1.7255570E-05;  1.8821948E+02;
 -1.1000000E-01;  9.9999998E-03; -1.4000000E-01;848;  0.0000000E+00;  0.0000000E+00;  0.0000000E+00;  1.0002278E+03;  1.0000000E-01;  1.8873540E+02;0;  0.0000000E+00;  0.0000000E+00;  0.0000000E+00;0;  6.7905603E-05;  4.0000000E+04;  0.0000000E+00;  0.0000000E+00;  4.0000000E+04;  0.0000000E+00;  4.0000000E+04;  5.4244108E-05;  0.0000000E+00;  1.3661493E-05;  1.8375714E+02;
 -1.1000000E-01;  9.9999998E-03; -1.3000000E-01;849;  0.0000000E+00;  0.0000000E+00;  0.0000000E+00;  1.0002418E+03;  1.0000000E-01;  2.0029063E+02;0;  0.0000000E+00;  0.0000000E+00;  0.0000000E+00;0;  7.8405166E-05;  4.0000000E+04;  0.0000000E+00;  0.0000000E+00;  4.0000000E+04;  0.0000000E+00;  4.0000000E+04;  6.8458910E-05;  0.0000000E+00;  9.9462559E-06;  1.8014613E+02;
 -1.1000000E-01;  9.9999998E-03; -1.2000000E-01;850;  0.0000000E+00;  0.0000000E+00;  0.0000000E+00;  1.0002448E+03;  1.0000000E-01;  2.0285846E+02;0;  0.0000000E+00;  0.0000000E+00;  0.0000000E+00;0;  9.0338515E-05;  4.0000000E+04;  0.0000000E+00;  0.0000000E+00;  4.0000000E+04;  0.0000000E+00;  4.0000000E+04;  8.3972191E-05;  0.0000000E+00;  6.3663274E-06;  1.7755870E+02;
 -1.1000000E-01;  9.9999998E-03; -1.1000000E-01;851;  0.0000000E+00;  0.0000000E+00;  0.0000000E+00;  1.0002435E+03;  1.0000000E-01;  2.0167331E+02;0;  0.0000000E+00;  0.0000000E+00;  0.0000000E+00;0;  1.0236832E-04;  4.0000000E+04;  0.0000000E+00;  0.0000000E+00;  4.0000000E+04;  0.0000000E+00;  4.0000000E+04;  9.9192257E-05;  0.0000000E+00;  3.1760633E-06;  1.7616974E+02;
 -1.0000000E-01;  9.9999998E-03; -2.7000001E-01;926;  0.0000000E+00;  0.0000000E+00;  0.0000000E+00;  1.0001760E+03;  1.0000000E-01;  1.4577365E+02;0;  0.0000000E+00;  0.0000000E+00;  0.0000000E+00;0; -8.4224332E-05;  4.0000000E+04;  0.0000000E+00;  0.0000000E+00;  4.0000000E+04;  0.0000000E+00;  4.0000000E+04; -5.5726618E-05;  0.0000000E+00; -2.8497716E-05;  6.5915649E+01;
 -1.0000000E-01;  9.9999998E-03; -2.5999999E-01;927;  0.0000000E+00;  0.0000000E+00;  0.0000000E+00;  1.0001891E+03;  1.0000000E-01;  1.5663754E+02;0;  0.0000000E+00;  0.0000000E+00;  0.0000000E+00;0; -6.3112624E-05;  4.0000000E+04;  0.0000000E+00;  0.0000000E+00;  4.0000000E+04;  0.0000000E+00;  4.0000000E+04; -4.8767844E-05;  0.0000000E+00; -1.4344782E-05;  1.4039117E+02;
 -1.0000000E-01;  9.9999998E-03; -2.5000000E-01;928;  0.0000000E+00;  0.0000000E+00;  0.0000000E+00;  1.0002124E+03;  1.0000000E-01;  1.7599503E+02;0;  0.0000000E+00;  0.0000000E+00;  0.0000000E+00;0; -4.3178992E-05;  4.0000000E+04;  0.0000000E+00;  0.0000000E+00;  4.0000000E+04;  0.0000000E+00;  4.0000000E+04; -4.3566877E-05;  0.0000000E+00;  3.8788465E-07;  2.1012163E+02;
 -1.0000000E-01;  9.9999998E-03; -2.3999999E-01;929;  0.0000000E+00;  0.0000000E+00;  0.0000000E+00;  1.0002162E+03;  1.0000000E-01;  1.7915543E+02;0;  0.0000000E+00;  0.0000000E+00;  0.0000000E+00;0; -2.7383272E-05;  4.0000000E+04;  0.0000000E+00;  0.0000000E+00;  4.0000000E+04;  0.0000000E+00;  4.0000000E+04; -4.1819781E-05;  0.0000000E+00;  1.4436509E-05;  2.6921652E+02;
 -1.0000000E-01;  9.9999998E-03; -2.3000000E-01;930;  0.0000000E+00;  0.0000000E+00;  0.0000000E+00;  1.0002474E+03;  1.0000000E-01;  2.0503123E+02;0;  0.0000000E+00;  0.0000000E+00;  0.0000000E+00;0; -1.7834043E-05;  4.0000000E+04;  0.0000000E+00;  0.0000000E+00;  4.0000000E+04;  0.0000000E+00;  4.0000000E+04; -4.4555600E-05;  0.0000000E+00;  2.6721556E-05;  3.1385855E+02;
 -1.0000000E-01;  9.9999998E-03; -2.2000000E-01;931;  0.0000000E+00;  0.0000000E+00;  0.0000000E+00;  1.0002637E+03;  1.0000000E-01;  2.1846295E+02;0;  0.0000000E+00;  0.0000000E+00;  0.0000000E+00;0; -1.5411442E-05;  4.0000000E+04;  0.0000000E+00;  0.0000000E+00;  4.0000000E+04;  0.0000000E+00;  4.0000000E+04; -5.1878123E-05;  0.0000000E+00;  3.6466681E-05;  3.4264258E+02;
 -1.0000000E-01;  9.9999998E-03; -2.0999999E-01;932;  0.0000000E+00;  0.0000000E+00;  0.0000000E+00;  1.0002906E+03;  1.0000000E-01;  2.4078331E+02;0;  0.0000000E+00;  0.0000000E+00;  0.0000000E+00;0; -1.9588388E-05;  4.0000000E+04;  0.0000000E+00;  0.0000000E+00;  4.0000000E+04;  0.0000000E+00;  4.0000000E+04; -6.2845669E-05;  0.0000000E+00;  4.3257282E-05;  3.5647528E+02;
 -1.0000000E-01;  9.9999998E-03; -2.0000000E-01;933;  0.0000000E+00;  0.0000000E+00;  0.0000000E+00;  1.0003175E+03;  1.0000000E-01;  2.6300491E+02;0;  0.0000000E+00;  0.0000000E+00;  0.0000000E+00;0; -2.8572005E-05;  4.0000000E+04;  0.0000000E+00;  0.0000000E+00;  4.0000000E+04;  0.0000000E+00;  4.0000000E+04; -7.5606753E-05;  0.0000000E+00;  4.7034748E-05;  3.5808060E+02;
 -1.0000000E-01;  9.9999998E-03; -1.9000000E-01;934;  0.0000000E+00;  0.0000000E+00;  0.0000000E+00;  1.0003487E+03;  1.0000000E-01;  2.8888071E+02;0;  0.0000000E+00;  0.0000000E+00;  0.0000000E+00;0; -3.9667073E-05;  4.0000000E+04;  0.0000000E+00;  0.0000000E+00;  4.0000000E+04;  0.0000000E+00;  4.0000000E+04; -8.7696921E-05;  0.0000000E+00;  4.8029848E-05;  3.5117990E+02;
 -1.0000000E-01;  9.9999998E-03; -1.8000001E-01;935;  0.0000000E+00;  0.0000000E+00;  0.0000000E+00;  1.0003865E+03;  1.0000000E-01;  3.2018848E+02;0;  0.0000000E+00;  0.0000000E+00;  0.0000000E+00;0; -4.9847924E-05;  4.0000000E+04;  0.0000000E+00;  0.0000000E+00;  4.0000000E+04;  0.0000000E+00;  4.0000000E+04; -9.6498137E-05;  0.0000000E+00;  4.6650213E-05;  3.3957199E+02;
 -1.0000000E-01;  9.9999998E-03; -1.7000000E-01;936;  0.0000000E+00;  0.0000000E+00;  0.0000000E+00;  1.0004139E+03;  1.0000000E-01;  3.4290387E+02;0;  0.0000000E+00;  0.0000000E+00;  0.0000000E+00;0; -5.6400171E-05;  4.0000000E+04;  0.0000000E+00;  0.0000000E+00;  4.0000000E+04;  0.0000000E+00;  4.0000000E+04; -9.9756238E-05;  0.0000000E+00;  4.3356067E-05;  3.2634869E+02;
 -1.0000000E-01;  9.9999998E-03; -1.6000000E-01;937;  0.0000000E+00;  0.0000000E+00;  0.0000000E+00;  1.0004329E+03;  1.0000000E-01;  3.5860715E+02;0;  0.0000000E+00;  0.0000000E+00;  0.0000000E+00;0; -5.7470526E-05;  4.0000000E+04;  0.0000000E+00;  0.0000000E+00;  4.0000000E+04;  0.0000000E+00;  4.0000000E+04; -9.6058655E-05;  0.0000000E+00;  3.8588129E-05;  3.1361133E+02;
 -1.0000000E-01;  9.9999998E-03; -1.5000001E-01;938;  0.0000000E+00;  0.0000000E+00;  0.0000000E+00;  1.0004576E+03;  1.0000000E-01;  3.7914978E+02;0;  0.0000000E+00;  0.0000000E+00;  0.0000000E+00;0; -5.2362720E-05;  4.0000000E+04;  0.0000000E+00;  0.0000000E+00;  4.0000000E+04;  0.0000000E+00;  4.0000000E+04; -8.5120737E-05;  0.0000000E+00;  3.2758016E-05;  3.0256161E+02;
 -1.0000000E-01;  9.9999998E-03; -1.4000000E-01;939;  0.0000000E+00;  0.0000000E+00;  0.0000000E+00;  1.0004683E+03;  1.0000000E-01;  3.8793964E+02;0;  0.0000000E+00;  0.0000000E+00;  0.0000000E+00;0; -4.1538206E-05;  4.0000000E+04;  0.0000000E+00;  0.0000000E+00;  4.0000000E+04;  0.0000000E+00;  4.0000000E+04; -6.7775567E-05;  0.0000000E+00;  2.6237361E-05;  2.9367456E+02;
 -1.0000000E-01;  9.9999998E-03; -1.3000000E-01;940;  0.0000000E+00;  0.0000000E+00;  0.0000000E+00;  1.0004753E+03;  1.0000000E-01;  3.9376663E+02;0;  0.0000000E+00;  0.0000000E+00;  0.0000000E+00;0; -2.6322634E-05;  4.0000000E+04;  0.0000000E+00;  0.0000000E+00;  4.0000000E+04;  0.0000000E+00;  4.0000000E+04; -4.5783061E-05;  0.0000000E+00;  1.9460427E-05;  2.8709702E+02;
 -1.0000000E-01;  9.9999998E-03; -1.2000000E-01;941;  0.0000000E+00;  0.0000000E+00;  0.0000000E+00;  1.0004769E+03;  1.0000000E-01;  3.9505057E+02;0;  0.0000000E+00;  0.0000000E+00;  0.0000000E+00;0; -8.5623196E-06;  4.0000000E+04;  0.0000000E+00;  0.0000000E+00;  4.0000000E+04;  0.0000000E+00;  4.0000000E+04; -2.1462001E-05;  0.0000000E+00;  1.2899682E-05;  2.8288397E+02;
 -1.0000000E-01;  9.9999998E-03; -1.1000000E-01;942;  0.0000000E+00;  0.0000000E+00;  0.0000000E+00;  1.0004789E+03;  1.0000000E-01;  3.9682828E+02;0;  0.0000000E+00;  0.0000000E+00;  0.0000000E+00;0;  9.7538914E-06;  4.0000000E+04;  0.0000000E+00;  0.0000000E+00;  4.0000000E+04;  0.0000000E+00;  4.0000000E+04;  2.7287065E-06;  0.0000000E+00;  7.0251849E-06;  2.8108990E+02;
 -9.0000004E-02;  9.9999998E-03; -2.7000001E-01;1017;  0.0000000E+00;  0.0000000E+00;  0.0000000E+00;  1.0003521E+03;  1.0000000E-01;  2.9164609E+02;0;  0.0000000E+00;  0.0000000E+00;  0.0000000E+00;0; -2.6612153E-04;  4.0000000E+04;  0.0000000E+00;  0.0000000E+00;  4.0000000E+04;  0.0000000E+00;  4.0000000E+04; -2.1963904E-04;  0.0000000E+00; -4.6482499E-05;  1.1334045E+02;
 -9.0000004E-02;  9.9999998E-03; -2.5999999E-01;1018;  0.0000000E+00;  0.0000000E+00;  0.0000000E+00;  1.0003806E+03;  1.0000000E-01;  3.1534912E+02;0;  0.0000000E+00;  0.0000000E+00;  0.0000000E+00;0; -2.5399422E-04;  4.0000000E+04;  0.0000000E+00;  0.0000000E+00;  4.0000000E+04;  0.0000000E+00;  4.0000000E+04; -2.3015555E-04;  0.0000000E+00; -2.3838680E-05;  2.3036584E+02;
 -9.0000004E-02;  9.9999998E-03; -2.5000000E-01;1019;  0.0000000E+00;  0.0000000E+00;  0.0000000E+00;  1.0004093E+03;  1.0000000E-01;  3.3905212E+02;0;  0.0000000E+00;  0.0000000E+00;  0.0000000E+00;0; -2.4253064E-04;  4.0000000E+04;  0.0000000E+00;  0.0000000E+00;  4.0000000E+04;  0.0000000E+00;  4.0000000E+04; -2.4232302E-04;  0.0000000E+00; -2.0762444E-07;  3.3911221E+02;
 -9.0000004E-02;  9.9999998E-03; -2.3999999E-01;1020;  0.0000000E+00;  0.0000000E+00;  0.0000000E+00;  1.0004493E+03;  1.0000000E-01;  3.7223639E+02;0;  0.0000000E+00;  0.0000000E+00;  0.0000000E+00;0; -2.3534942E-04;  4.0000000E+04;  0.0000000E+00;  0.0000000E+00;  4.0000000E+04;  0.0000000E+00;  4.0000000E+04; -2.5783785E-04;  0.0000000E+00;  2.2488428E-05;  4.3044870E+02;
 -9.0000004E-02;  9.9999998E-03; -2.3000000E-01;1021;  0.0000000E+00;  0.0000000E+00;  0.0000000E+00;  1.0004897E+03;  1.0000000E-01;  4.0571692E+02;0;  0.0000000E+00;  0.0000000E+00;  0.0000000E+00;0; -2.3500704E-04;  4.0000000E+04;  0.0000000E+00;  0.0000000E+00;  4.0000000E+04;  0.0000000E+00;  4.0000000E+04; -2.7758634E-04;  0.0000000E+00;  4.2579300E-05;  4.9857303E+02;
 -9.0000004E-02;  9.9999998E-03; -2.2000000E-01;1022;  0.0000000E+00;  0.0000000E+00;  0.0000000E+00;  1.0005345E+03;  1.0000000E-01;  4.4285168E+02;0;  0.0000000E+00;  0.0000000E+00;  0.0000000E+00;0; -2.4252411E-04;  4.0000000E+04;  0.0000000E+00;  0.0000000E+00;  4.0000000E+04;  0.0000000E+00;  4.0000000E+04; -3.0133972E-04;  0.0000000E+00;  5.8815607E-05;  5.4129865E+02;
 -9.0000004E-02;  9.9999998E-03; -2.0999999E-01;1023;  0.0000000E+00;  0.0000000E+00;  0.0000000E+00;  1.0005754E+03;  1.0000000E-01;  4.7672726E+02;0;  0.0000000E+00;  0.0000000E+00;  0.0000000E+00;0; -2.5717524E-04;  4.0000000E+04;  0.0000000E+00;  0.0000000E+00;  4.0000000E+04;  0.0000000E+00;  4.0000000E+04; -3.2763436E-04;  0.0000000E+00;  7.0459115E-05;  5.5992450E+02;
 -9.0000004E-02;  9.9999998E-03; -2.0000000E-01;1024;  0.0000000E+00;  0.0000000E+00;  0.0000000E+00;  1.0006264E+03;  1.0000000E-01;  5.1899768E+02;0;  0.0000000E+00;  0.0000000E+00;  0.0000000E+00;0; -2.7666477E-04;  4.0000000E+04;  0.0000000E+00;  0.0000000E+00;  4.0000000E+04;  0.0000000E+00;  4.0000000E+04; -3.5395526E-04;  0.0000000E+00;  7.7290490E-05;  5.5855847E+02;
 -9.0000004E-02;  9.9999998E-03; -1.9000000E-01;1025;  0.0000000E+00;  0.0000000E+00;  0.0000000E+00;  1.0006837E+03;  1.0000000E-01;  5.6640375E+02;0;  0.0000000E+00;  0.0000000E+00;  0.0000000E+00;0; -2.9757124E-04;  4.0000000E+04;  0.0000000E+00;  0.0000000E+00;  4.0000000E+04;  0.0000000E+00;  4.0000000E+04; -3.7711600E-04;  0.0000000E+00;  7.9544756E-05;  5.4302954E+02;
 -9.0000004E-02;  9.9999998E-03; -1.8000001E-01;1026;  0.0000000E+00;  0.0000000E+00;  0.0000000E+00;  1.0007309E+03;  1.0000000E-01;  6.0551373E+02;0;  0.0000000E+00;  0.0000000E+00;  0.0000000E+00;0; -3.1603343E-04;  4.0000000E+04;  0.0000000E+00;  0.0000000E+00;  4.0000000E+04;  0.0000000E+00;  4.0000000E+04; -3.9381726E-04;  0.0000000E+00;  7.7783836E-05;  5.1962799E+02;
 -9.0000004E-02;  9.9999998E-03; -1.7000000E-01;1027;  0.0000000E+00;  0.0000000E+00;  0.0000000E+00;  1.0007725E+03;  1.0000000E-01;  6.3998187E+02;0;  0.0000000E+00;  0.0000000E+00;  0.0000000E+00;0; -3.2853516E-04;  4.0000000E+04;  0.0000000E+00;  0.0000000E+00;  4.0000000E+04;  0.0000000E+00;  4.0000000E+04; -4.0126845E-04;  0.0000000E+00;  7.2733281E-05;  4.9383560E+02;
 -9.0000004E-02;  9.9999998E-03; -1.6000000E-01;1028;  0.0000000E+00;  0.0000000E+00;  0.0000000E+00;  1.0008112E+03;  1.0000000E-01;  6.7198102E+02;0;  0.0000000E+00;  0.0000000E+00;  0.0000000E+00;0; -3.3262876E-04;  4.0000000E+04;  0.0000000E+00;  0.0000000E+00;  4.0000000E+04;  0.0000000E+00;  4.0000000E+04; -3.9776121E-04;  0.0000000E+00;  6.5132444E-05;  4.6951459E+02;
 -9.0000004E-02;  9.9999998E-03; -1.5000001E-01;1029;  0.0000000E+00;  0.0000000E+00;  0.0000000E+00;  1.0008448E+03;  1.0000000E-01;  6.9993085E+02;0;  0.0000000E+00;  0.0000000E+00;  0.0000000E+00;0; -3.2738116E-04;  4.0000000E+04;  0.0000000E+00;  0.0000000E+00;  4.0000000E+04;  0.0000000E+00;  4.0000000E+04; -3.8307390E-04;  0.0000000E+00;  5.5692737E-05;  4.4890787E+02;
 -9.0000004E-02;  9.9999998E-03; -1.4000000E-01;1030;  0.0000000E+00;  0.0000000E+00;  0.0000000E+00;  1.0008676E+03;  1.0000000E-01;  7.1879449E+02;0;  0.0000000E+00;  0.0000000E+00;  0.0000000E+00;0; -3.1343644E-04;  4.0000000E+04;  0.0000000E+00;  0.0000000E+00;  4.0000000E+04;  0.0000000E+00;  4.0000000E+04; -3.5852692E-04;  0.0000000E+00;  4.5090474E-05;  4.3296704E+02;
 -9.0000004E-02;  9.9999998E-03; -1.3000000E-01;1031;  0.0000000E+00;  0.0000000E+00;  0.0000000E+00;  1.0008857E+03;  1.0000000E-01;  7.3380640E+02;0;  0.0000000E+00;  0.0000000E+00;  0.0000000E+00;0; -2.9268800E-04;  4.0000000E+04;  0.0000000E+00;  0.0000000E+00;  4.0000000E+04;  0.0000000E+00;  4.0000000E+04; -3.2670848E-04;  0.0000000E+00;  3.4020486E-05;  4.2181485E+02;
 -9.0000004E-02;  9.9999998E-03; -1.2000000E-01;1032;  0.0000000E+00;  0.0000000E+00;  0.0000000E+00;  1.0008911E+03;  1.0000000E-01;  7.3825073E+02;0;  0.0000000E+00;  0.0000000E+00;  0.0000000E+00;0; -2.6775873E-04;  4.0000000E+04;  0.0000000E+00;  0.0000000E+00;  4.0000000E+04;  0.0000000E+00;  4.0000000E+04; -2.9101194E-04;  0.0000000E+00;  2.3253204E-05;  4.1525870E+02;
 -9.0000004E-02;  9.9999998E-03; -1.1000000E-01;1033;  0.0000000E+00;  0.0000000E+00;  0.0000000E+00;  1.0008896E+03;  1.0000000E-01;  7.3706555E+02;0;  0.0000000E+00;  0.0000000E+00;  0.0000000E+00;0; -2.4149488E-04;  4.0000000E+04;  0.0000000E+00;  0.0000000E+00;  4.0000000E+04;  0.0000000E+00;  4.0000000E+04; -2.5505768E-04;  0.0000000E+00;  1.3562786E-05;  4.1305112E+02;
 -7.9999998E-02;  9.9999998E-03; -2.7000001E-01;1108;  0.0000000E+00;  0.0000000E+00;  0.0000000E+00;  1.0006218E+03;  1.0000000E-01;  5.1514594E+02;0;  0.0000000E+00;  0.0000000E+00;  0.0000000E+00;0; -5.8732519E-04;  4.0000000E+04;  0.0000000E+00;  0.0000000E+00;  4.0000000E+04;  0.0000000E+00;  4.0000000E+04; -5.1708985E-04;  0.0000000E+00; -7.0235314E-05;  1.8273311E+02;
 -7.9999998E-02;  9.9999998E-03; -2.5999999E-01;1109;  0.0000000E+00;  0.0000000E+00;  0.0000000E+00;  1.0006801E+03;  1.0000000E-01;  5.6344086E+02;0;  0.0000000E+00;  0.0000000E+00;  0.0000000E+00;0; -5.9785275E-04;  4.0000000E+04;  0.0000000E+00;  0.0000000E+00;  4.0000000E+04;  0.0000000E+00;  4.0000000E+04; -5.6143641E-04;  0.0000000E+00; -3.6416357E-05;  3.5453458E+02;
 -7.9999998E-02;  9.9999998E-03; -2.5000000E-01;1110;  0.0000000E+00;  0.0000000E+00;  0.0000000E+00;  1.0007405E+03;  1.0000000E-01;  6.1351349E+02;0;  0.0000000E+00;  0.0000000E+00;  0.0000000E+00;0; -6.0810946E-04;  4.0000000E+04;  0.0000000E+00;  0.0000000E+00;  4.0000000E+04;  0.0000000E+00;  4.0000000E+04; -6.0695288E-04;  0.0000000E+00; -1.1565721E-06;  5.1294806E+02;
 -7.9999998E-02;  9.9999998E-03; -2.3999999E-01;1111;  0.0000000E+00;  0.0000000E+00;  0.0000000E+00;  1.0008067E+03;  1.0000000E-01;  6.6832678E+02;0;  0.0000000E+00;  0.0000000E+00;  0.0000000E+00;0; -6.2228733E-04;  4.0000000E+04;  0.0000000E+00;  0.0000000E+00;  4.0000000E+04;  0.0000000E+00;  4.0000000E+04; -6.5507530E-04;  0.0000000E+00;  3.2787990E-05;  6.4456549E+02;
 -7.9999998E-02;  9.9999998E-03; -2.3000000E-01;1112;  0.0000000E+00;  0.0000000E+00;  0.0000000E+00;  1.0008806E+03;  1.0000000E-01;  7.2955963E+02;0;  0.0000000E+00;  0.0000000E+00;  0.0000000E+00;0; -6.4324599E-04;  4.0000000E+04;  0.0000000E+00;  0.0000000E+00;  4.0000000E+04;  0.0000000E+00;  4.0000000E+04; -7.0626714E-04;  0.0000000E+00;  6.3021165E-05;  7.4118726E+02;
 -7.9999998E-02;  9.9999998E-03; -2.2000000E-01;1113;  0.0000000E+00;  0.0000000E+00;  0.0000000E+00;  1.0009503E+03;  1.0000000E-01;  7.8723700E+02;0;  0.0000000E+00;  0.0000000E+00;  0.0000000E+00;0; -6.7193870E-04;  4.0000000E+04;  0.0000000E+00;  0.0000000E+00;  4.0000000E+04;  0.0000000E+00;  4.0000000E+04; -7.5966539E-04;  0.0000000E+00;  8.7726679E-05;  7.9988202E+02;
 -7.9999998E-02;  9.9999998E-03; -2.0999999E-01;1114;  0.0000000E+00;  0.0000000E+00;  0.0000000E+00;  1.0010289E+03;  1.0000000E-01;  8.5242035E+02;0;  0.0000000E+00;  0.0000000E+00;  0.0000000E+00;0; -7.0720585E-04;  4.0000000E+04;  0.0000000E+00;  0.0000000E+00;  4.0000000E+04;  0.0000000E+00;  4.0000000E+04; -8.1298663E-04;  0.0000000E+00;  1.0578076E-04;  8.2263013E+02;
 -7.9999998E-02;  9.9999998E-03; -2.0000000E-01;1115;  0.0000000E+00;  0.0000000E+00;  0.0000000E+00;  1.0011075E+03;  1.0000000E-01;  9.1750494E+02;0;  0.0000000E+00;  0.0000000E+00;  0.0000000E+00;0; -7.4602570E-04;  4.0000000E+04;  0.0000000E+00;  0.0000000E+00;  4.0000000E+04;  0.0000000E+00;  4.0000000E+04; -8.6279120E-04;  0.0000000E+00;  1.1676553E-04;  8.1539581E+02;
 -7.9999998E-02;  9.9999998E-03; -1.9000000E-01;1116;  0.0000000E+00;  0.0000000E+00;  0.0000000E+00;  1.0011917E+03;  1.0000000E-01;  9.8723132E+02;0;  0.0000000E+00;  0.0000000E+00;  0.0000000E+00;0; -7.8408199E-04;  4.0000000E+04;  0.0000000E+00;  0.0000000E+00;  4.0000000E+04;  0.0000000E+00;  4.0000000E+04; -9.0498151E-04;  0.0000000E+00;  1.2089955E-04;  7.8669916E+02;
 -7.9999998E-02;  9.9999998E-03; -1.8000001E-01;1117;  0.0000000E+00;  0.0000000E+00;  0.0000000E+00;  1.0012687E+03;  1.0000000E-01;  1.0511307E+03;0;  0.0000000E+00;  0.0000000E+00;  0.0000000E+00;0; -8.1659225E-04;  4.0000000E+04;  0.0000000E+00;  0.0000000E+00;  4.0000000E+04;  0.0000000E+00;  4.0000000E+04; -9.3549094E-04;  0.0000000E+00;  1.1889867E-04;  7.4592126E+02;
 -7.9999998E-02;  9.9999998E-03; -1.7000000E-01;1118;  0.0000000E+00;  0.0000000E+00;  0.0000000E+00;  1.0013394E+03;  1.0000000E-01;  1.1096970E+03;0;  0.0000000E+00;  0.0000000E+00;  0.0000000E+00;0; -8.3923189E-04;  4.0000000E+04;  0.0000000E+00;  0.0000000E+00;  4.0000000E+04;  0.0000000E+00;  4.0000000E+04; -9.5102191E-04;  0.0000000E+00;  1.1179000E-04;  7.0166357E+02;
 -7.9999998E-02;  9.9999998E-03; -1.6000000E-01;1119;  0.0000000E+00;  0.0000000E+00;  0.0000000E+00;  1.0014014E+03;  1.0000000E-01;  1.1610536E+03;0;  0.0000000E+00;  0.0000000E+00;  0.0000000E+00;0; -8.4900495E-04;  4.0000000E+04;  0.0000000E+00;  0.0000000E+00;  4.0000000E+04;  0.0000000E+00;  4.0000000E+04; -9.4971072E-04;  0.0000000E+00;  1.0070576E-04;  6.6037549E+02;
 -7.9999998E-02;  9.9999998E-03; -1.5000001E-01;1120;  0.0000000E+00;  0.0000000E+00;  0.0000000E+00;  1.0014531E+03;  1.0000000E-01;  1.2039166E+03;0;  0.0000000E+00;  0.0000000E+00;  0.0000000E+00;0; -8.4485806E-04;  4.0000000E+04;  0.0000000E+00;  0.0000000E+00;  4.0000000E+04;  0.0000000E+00;  4.0000000E+04; -9.3159807E-04;  0.0000000E+00;  8.6739987E-05;  6.2579620E+02;
 -7.9999998E-02;  9.9999998E-03; -1.4000000E-01;1121;  0.0000000E+00;  0.0000000E+00;  0.0000000E+00;  1.0014849E+03;  1.0000000E-01;  1.2301874E+03;0;  0.0000000E+00;  0.0000000E+00;  0.0000000E+00;0; -8.2779292E-04;  4.0000000E+04;  0.0000000E+00;  0.0000000E+00;  4.0000000E+04;  0.0000000E+00;  4.0000000E+04; -8.9876080E-04;  0.0000000E+00;  7.0967864E-05;  5.9954224E+02;
 -7.9999998E-02;  9.9999998E-03; -1.3000000E-01;1122;  0.0000000E+00;  0.0000000E+00;  0.0000000E+00;  1.0015137E+03;  1.0000000E-01;  1.2540880E+03;0;  0.0000000E+00;  0.0000000E+00;  0.0000000E+00;0; -8.0053054E-04;  4.0000000E+04;  0.0000000E+00;  0.0000000E+00;  4.0000000E+04;  0.0000000E+00;  4.0000000E+04; -8.5496745E-04;  0.0000000E+00;  5.4436932E-05;  5.8174896E+02;
 -7.9999998E-02;  9.9999998E-03; -1.2000000E-01;1123;  0.0000000E+00;  0.0000000E+00;  0.0000000E+00;  1.0015244E+03;  1.0000000E-01;  1.2628778E+03;0;  0.0000000E+00;  0.0000000E+00;  0.0000000E+00;0; -7.6678162E-04;  4.0000000E+04;  0.0000000E+00;  0.0000000E+00;  4.0000000E+04;  0.0000000E+00;  4.0000000E+04; -8.0506131E-04;  0.0000000E+00;  3.8279682E-05;  5.7182599E+02;
 -7.9999998E-02;  9.9999998E-03; -1.1000000E-01;1124;  0.0000000E+00;  0.0000000E+00;  0.0000000E+00;  1.0015251E+03;  1.0000000E-01;  1.2635692E+03;0;  0.0000000E+00;  0.0000000E+00;  0.0000000E+00;0; -7.3054765E-04;  4.0000000E+04;  0.0000000E+00;  0.0000000E+00;  4.0000000E+04;  0.0000000E+00;  4.0000000E+04; -7.5420266E-04;  0.0000000E+00;  2.3655026E-05;  5.6903400E+02;
 -7.0000000E-02;  9.9999998E-03; -2.7000001E-01;1199;  0.0000000E+00;  0.0000000E+00;  0.0000000E+00;  1.0010289E+03;  1.0000000E-01;  8.5242035E+02;0;  0.0000000E+00;  0.0000000E+00;  0.0000000E+00;0; -1.0939157E-03;  4.0000000E+04;  0.0000000E+00;  0.0000000E+00;  4.0000000E+04;  0.0000000E+00;  4.0000000E+04; -9.9419279E-04;  0.0000000E+00; -9.9722914E-05;  2.7875885E+02;
 -7.0000000E-02;  9.9999998E-03; -2.5999999E-01;1200;  0.0000000E+00;  0.0000000E+00;  0.0000000E+00;  1.0011290E+03;  1.0000000E-01;  9.3538098E+02;0;  0.0000000E+00;  0.0000000E+00;  0.0000000E+00;0; -1.1458514E-03;  4.0000000E+04;  0.0000000E+00;  0.0000000E+00;  4.0000000E+04;  0.0000000E+00;  4.0000000E+04; -1.0938441E-03;  0.0000000E+00; -5.2007326E-05;  5.1756067E+02;
 -7.0000000E-02;  9.9999998E-03; -2.5000000E-01;1201;  0.0000000E+00;  0.0000000E+00;  0.0000000E+00;  1.0012307E+03;  1.0000000E-01;  1.0195267E+03;0;  0.0000000E+00;  0.0000000E+00;  0.0000000E+00;0; -1.1960990E-03;  4.0000000E+04;  0.0000000E+00;  0.0000000E+00;  4.0000000E+04;  0.0000000E+00;  4.0000000E+04; -1.1936445E-03;  0.0000000E+00; -2.4545461E-06;  7.3576404E+02;
 -7.0000000E-02;  9.9999998E-03; -2.3999999E-01;1202;  0.0000000E+00;  0.0000000E+00;  0.0000000E+00;  1.0013419E+03;  1.0000000E-01;  1.1116722E+03;0;  0.0000000E+00;  0.0000000E+00;  0.0000000E+00;0; -1.2492960E-03;  4.0000000E+04;  0.0000000E+00;  0.0000000E+00;  4.0000000E+04;  0.0000000E+00;  4.0000000E+04; -1.2944669E-03;  0.0000000E+00;  4.5170942E-05;  9.1461285E+02;
 -7.0000000E-02;  9.9999998E-03; -2.3000000E-01;1203;  0.0000000E+00;  0.0000000E+00;  0.0000000E+00;  1.0014543E+03;  1.0000000E-01;  1.2048054E+03;0;  0.0000000E+00;  0.0000000E+00;  0.0000000E+00;0; -1.3083669E-03;  4.0000000E+04;  0.0000000E+00;  0.0000000E+00;  4.0000000E+04;  0.0000000E+00;  4.0000000E+04; -1.3960068E-03;  0.0000000E+00;  8.7639957E-05;  1.0432687E+03;
 -7.0000000E-02;  9.9999998E-03; -2.2000000E-01;1204;  0.0000000E+00;  0.0000000E+00;  0.0000000E+00;  1.0015684E+03;  1.0000000E-01;  1.2994200E+03;0;  0.0000000E+00;  0.0000000E+00;  0.0000000E+00;0; -1.3738683E-03;  4.0000000E+04;  0.0000000E+00;  0.0000000E+00;  4.0000000E+04;  0.0000000E+00;  4.0000000E+04; -1.4963903E-03;  0.0000000E+00;  1.2252203E-04;  1.1183015E+03;
 -7.0000000E-02;  9.9999998E-03; -2.0999999E-01;1205;  0.0000000E+00;  0.0000000E+00;  0.0000000E+00;  1.0016900E+03;  1.0000000E-01;  1.4001580E+03;0;  0.0000000E+00;  0.0000000E+00;  0.0000000E+00;0; -1.4438282E-03;  4.0000000E+04;  0.0000000E+00;  0.0000000E+00;  4.0000000E+04;  0.0000000E+00;  4.0000000E+04; -1.5921290E-03;  0.0000000E+00;  1.4830078E-04;  1.1429835E+03;
 -7.0000000E-02;  9.9999998E-03; -2.0000000E-01;1206;  0.0000000E+00;  0.0000000E+00;  0.0000000E+00;  1.0018143E+03;  1.0000000E-01;  1.5031674E+03;0;  0.0000000E+00;  0.0000000E+00;  0.0000000E+00;0; -1.5141499E-03;  4.0000000E+04;  0.0000000E+00;  0.0000000E+00;  4.0000000E+04;  0.0000000E+00;  4.0000000E+04; -1.6785215E-03;  0.0000000E+00;  1.6437155E-04;  1.1258087E+03;
 -7.0000000E-02;  9.9999998E-03; -1.9000000E-01;1207;  0.0000000E+00;  0.0000000E+00;  0.0000000E+00;  1.0019374E+03;  1.0000000E-01;  1.6050905E+03;0;  0.0000000E+00;  0.0000000E+00;  0.0000000E+00;0; -1.5793638E-03;  4.0000000E+04;  0.0000000E+00;  0.0000000E+00;  4.0000000E+04;  0.0000000E+00;  4.0000000E+04; -1.7503154E-03;  0.0000000E+00;  1.7095162E-04;  1.0785948E+03;
 -7.0000000E-02;  9.9999998E-03; -1.8000001E-01;1208;  0.0000000E+00;  0.0000000E+00;  0.0000000E+00;  1.0020521E+03;  1.0000000E-01;  1.7001001E+03;0;  0.0000000E+00;  0.0000000E+00;  0.0000000E+00;0; -1.6336410E-03;  4.0000000E+04;  0.0000000E+00;  0.0000000E+00;  4.0000000E+04;  0.0000000E+00;  4.0000000E+04; -1.8025668E-03;  0.0000000E+00;  1.6892588E-04;  1.0144099E+03;
 -7.0000000E-02;  9.9999998E-03; -1.7000000E-01;1209;  0.0000000E+00;  0.0000000E+00;  0.0000000E+00;  1.0021559E+03;  1.0000000E-01;  1.7861223E+03;0;  0.0000000E+00;  0.0000000E+00;  0.0000000E+00;0; -1.6718698E-03;  4.0000000E+04;  0.0000000E+00;  0.0000000E+00;  4.0000000E+04;  0.0000000E+00;  4.0000000E+04; -1.8315103E-03;  0.0000000E+00;  1.5964055E-04;  9.4546375E+02;
 -7.0000000E-02;  9.9999998E-03; -1.6000000E-01;1210;  0.0000000E+00;  0.0000000E+00;  0.0000000E+00;  1.0022510E+03;  1.0000000E-01;  1.8649349E+03;0;  0.0000000E+00;  0.0000000E+00;  0.0000000E+00;0; -1.6906493E-03;  4.0000000E+04;  0.0000000E+00;  0.0000000E+00;  4.0000000E+04;  0.0000000E+00;  4.0000000E+04; -1.8353146E-03;  0.0000000E+00;  1.4466520E-04;  8.8137476E+02;
 -7.0000000E-02;  9.9999998E-03; -1.5000001E-01;1211;  0.0000000E+00;  0.0000000E+00;  0.0000000E+00;  1.0023202E+03;  1.0000000E-01;  1.9222173E+03;0;  0.0000000E+00;  0.0000000E+00;  0.0000000E+00;0; -1.6890176E-03;  4.0000000E+04;  0.0000000E+00;  0.0000000E+00;  4.0000000E+04;  0.0000000E+00;  4.0000000E+04; -1.8145867E-03;  0.0000000E+00;  1.2556901E-04;  8.2800903E+02;
 -7.0000000E-02;  9.9999998E-03; -1.4000000E-01;1212;  0.0000000E+00;  0.0000000E+00;  0.0000000E+00;  1.0023782E+03;  1.0000000E-01;  1.9703147E+03;0;  0.0000000E+00;  0.0000000E+00;  0.0000000E+00;0; -1.6686594E-03;  4.0000000E+04;  0.0000000E+00;  0.0000000E+00;  4.0000000E+04;  0.0000000E+00;  4.0000000E+04; -1.7725114E-03;  0.0000000E+00;  1.0385198E-04;  7.8777496E+02;
 -7.0000000E-02;  9.9999998E-03; -1.3000000E-01;1213;  0.0000000E+00;  0.0000000E+00;  0.0000000E+00;  1.0024197E+03;  1.0000000E-01;  2.0046841E+03;0;  0.0000000E+00;  0.0000000E+00;  0.0000000E+00;0; -1.6334780E-03;  4.0000000E+04;  0.0000000E+00;  0.0000000E+00;  4.0000000E+04;  0.0000000E+00;  4.0000000E+04; -1.7144817E-03;  0.0000000E+00;  8.1003796E-05;  7.6085938E+02;
 -7.0000000E-02;  9.9999998E-03; -1.2000000E-01;1214;  0.0000000E+00;  0.0000000E+00;  0.0000000E+00;  1.0024364E+03;  1.0000000E-01;  2.0185109E+03;0;  0.0000000E+00;  0.0000000E+00;  0.0000000E+00;0; -1.5887130E-03;  4.0000000E+04;  0.0000000E+00;  0.0000000E+00;  4.0000000E+04;  0.0000000E+00;  4.0000000E+04; -1.6472655E-03;  0.0000000E+00;  5.8552458E-05;  7.4617029E+02;
 -7.0000000E-02;  9.9999998E-03; -1.1000000E-01;1215;  0.0000000E+00;  0.0000000E+00;  0.0000000E+00;  1.0024457E+03;  1.0000000E-01;  2.0262144E+03;0;  0.0000000E+00;  0.0000000E+00;  0.0000000E+00;0; -1.5399334E-03;  4.0000000E+04;  0.0000000E+00;  0.0000000E+00;  4.0000000E+04;  0.0000000E+00;  4.0000000E+04; -1.5780288E-03;  0.0000000E+00;  3.8095368E-05;  7.4228894E+02;
 -5.9999999E-02;  9.9999998E-03; -2.7000001E-01;1290;  0.0000000E+00;  0.0000000E+00;  0.0000000E+00;  1.0015921E+03;  1.0000000E-01;  1.3190739E+03;0;  0.0000000E+00;  0.0000000E+00;  0.0000000E+00;0; -1.8278318E-03;  4.0000000E+04;  0.0000000E+00;  0.0000000E+00;  4.0000000E+04;  0.0000000E+00;  4.0000000E+04; -1.6934599E-03;  0.0000000E+00; -1.3437192E-04;  4.0446484E+02;
 -5.9999999E-02;  9.9999998E-03; -2.5999999E-01;1291;  0.0000000E+00;  0.0000000E+00;  0.0000000E+00;  1.0017589E+03;  1.0000000E-01;  1.4572427E+03;0;  0.0000000E+00;  0.0000000E+00;  0.0000000E+00;0; -1.9445607E-03;  4.0000000E+04;  0.0000000E+00;  0.0000000E+00;  4.0000000E+04;  0.0000000E+00;  4.0000000E+04; -1.8743270E-03;  0.0000000E+00; -7.0233713E-05;  7.2171570E+02;
 -5.9999999E-02;  9.9999998E-03; -2.5000000E-01;1292;  0.0000000E+00;  0.0000000E+00;  0.0000000E+00;  1.0019213E+03;  1.0000000E-01;  1.5917574E+03;0;  0.0000000E+00;  0.0000000E+00;  0.0000000E+00;0; -2.0576646E-03;  4.0000000E+04;  0.0000000E+00;  0.0000000E+00;  4.0000000E+04;  0.0000000E+00;  4.0000000E+04; -2.0535872E-03;  0.0000000E+00; -4.0774389E-06;  1.0082403E+03;
 -5.9999999E-02;  9.9999998E-03; -2.3999999E-01;1293;  0.0000000E+00;  0.0000000E+00;  0.0000000E+00;  1.0020900E+03;  1.0000000E-01;  1.7315066E+03;0;  0.0000000E+00;  0.0000000E+00;  0.0000000E+00;0; -2.1720489E-03;  4.0000000E+04;  0.0000000E+00;  0.0000000E+00;  4.0000000E+04;  0.0000000E+00;  4.0000000E+04; -2.2312140E-03;  0.0000000E+00;  5.9165021E-05;  1.2390221E+03;
 -5.9999999E-02;  9.9999998E-03; -2.3000000E-01;1294;  0.0000000E+00;  0.0000000E+00;  0.0000000E+00;  1.0022594E+03;  1.0000000E-01;  1.8718483E+03;0;  0.0000000E+00;  0.0000000E+00;  0.0000000E+00;0; -2.2903632E-03;  4.0000000E+04;  0.0000000E+00;  0.0000000E+00;  4.0000000E+04;  0.0000000E+00;  4.0000000E+04; -2.4057387E-03;  0.0000000E+00;  1.1537547E-04;  1.4006198E+03;
 -5.9999999E-02;  9.9999998E-03; -2.2000000E-01;1295;  0.0000000E+00;  0.0000000E+00;  0.0000000E+00;  1.0024360E+03;  1.0000000E-01;  2.0182145E+03;0;  0.0000000E+00;  0.0000000E+00;  0.0000000E+00;0; -2.4123078E-03;  4.0000000E+04;  0.0000000E+00;  0.0000000E+00;  4.0000000E+04;  0.0000000E+00;  4.0000000E+04; -2.5738401E-03;  0.0000000E+00;  1.6153237E-04;  1.4897675E+03;
 -5.9999999E-02;  9.9999998E-03; -2.0999999E-01;1296;  0.0000000E+00;  0.0000000E+00;  0.0000000E+00;  1.0026146E+03;  1.0000000E-01;  2.1661609E+03;0;  0.0000000E+00;  0.0000000E+00;  0.0000000E+00;0; -2.5345748E-03;  4.0000000E+04;  0.0000000E+00;  0.0000000E+00;  4.0000000E+04;  0.0000000E+00;  4.0000000E+04; -2.7303733E-03;  0.0000000E+00;  1.9579844E-04;  1.5119551E+03;
 -5.9999999E-02;  9.9999998E-03; -2.0000000E-01;1297;  0.0000000E+00;  0.0000000E+00;  0.0000000E+00;  1.0027948E+03;  1.0000000E-01;  2.3153914E+03;0;  0.0000000E+00;  0.0000000E+00;  0.0000000E+00;0; -2.6515000E-03;  4.0000000E+04;  0.0000000E+00;  0.0000000E+00;  4.0000000E+04;  0.0000000E+00;  4.0000000E+04; -2.8689741E-03;  0.0000000E+00;  2.1747402E-04;  1.4791694E+03;
 -5.9999999E-02;  9.9999998E-03; -1.9000000E-01;1298;  0.0000000E+00;  0.0000000E+00;  0.0000000E+00;  1.0029689E+03;  1.0000000E-01;  2.4596836E+03;0;  0.0000000E+00;  0.0000000E+00;  0.0000000E+00;0; -2.7561055E-03;  4.0000000E+04;  0.0000000E+00;  0.0000000E+00;  4.0000000E+04;  0.0000000E+00;  4.0000000E+04; -2.9829629E-03;  0.0000000E+00;  2.2685740E-04;  1.4073182E+03;
 -5.9999999E-02;  9.9999998E-03; -1.8000001E-01;1299;  0.0000000E+00;  0.0000000E+00;  0.0000000E+00;  1.0031351E+03;  1.0000000E-01;  2.5973586E+03;0;  0.0000000E+00;  0.0000000E+00;  0.0000000E+00;0; -2.8413450E-03;  4.0000000E+04;  0.0000000E+00;  0.0000000E+00;  4.0000000E+04;  0.0000000E+00;  4.0000000E+04; -3.0663954E-03;  0.0000000E+00;  2.2505046E-04;  1.3135867E+03;
 -5.9999999E-02;  9.9999998E-03; -1.7000000E-01;1300;  0.0000000E+00;  0.0000000E+00;  0.0000000E+00;  1.0032834E+03;  1.0000000E-01;  2.7202195E+03;0;  0.0000000E+00;  0.0000000E+00;  0.0000000E+00;0; -2.9013755E-03;  4.0000000E+04;  0.0000000E+00;  0.0000000E+00;  4.0000000E+04;  0.0000000E+00;  4.0000000E+04; -3.1151064E-03;  0.0000000E+00;  2.1373075E-04;  1.2140706E+03;
 -5.9999999E-02;  9.9999998E-03; -1.6000000E-01;1301;  0.0000000E+00;  0.0000000E+00;  0.0000000E+00;  1.0034152E+03;  1.0000000E-01;  2.8293521E+03;0;  0.0000000E+00;  0.0000000E+00;  0.0000000E+00;0; -2.9326482E-03;  4.0000000E+04;  0.0000000E+00;  0.0000000E+00;  4.0000000E+04;  0.0000000E+00;  4.0000000E+04; -3.1275442E-03;  0.0000000E+00;  1.9489603E-04;  1.1217510E+03;
 -5.9999999E-02;  9.9999998E-03; -1.5000001E-01;1302;  0.0000000E+00;  0.0000000E+00;  0.0000000E+00;  1.0035202E+03;  1.0000000E-01;  2.9164607E+03;0;  0.0000000E+00;  0.0000000E+00;  0.0000000E+00;0; -2.9346573E-03;  4.0000000E+04;  0.0000000E+00;  0.0000000E+00;  4.0000000E+04;  0.0000000E+00;  4.0000000E+04; -3.1052586E-03;  0.0000000E+00;  1.7060123E-04;  1.0449343E+03;
 -5.9999999E-02;  9.9999998E-03; -1.4000000E-01;1303;  0.0000000E+00;  0.0000000E+00;  0.0000000E+00;  1.0036015E+03;  1.0000000E-01;  2.9838169E+03;0;  0.0000000E+00;  0.0000000E+00;  0.0000000E+00;0; -2.9102259E-03;  4.0000000E+04;  0.0000000E+00;  0.0000000E+00;  4.0000000E+04;  0.0000000E+00;  4.0000000E+04; -3.0530104E-03;  0.0000000E+00;  1.4278461E-04;  9.8711084E+02;
 -5.9999999E-02;  9.9999998E-03; -1.3000000E-01;1304;  0.0000000E+00;  0.0000000E+00;  0.0000000E+00;  1.0036541E+03;  1.0000000E-01;  3.0272725E+03;0;  0.0000000E+00;  0.0000000E+00;  0.0000000E+00;0; -2.8649734E-03;  4.0000000E+04;  0.0000000E+00;  0.0000000E+00;  4.0000000E+04;  0.0000000E+00;  4.0000000E+04; -2.9783302E-03;  0.0000000E+00;  1.1335685E-04;  9.4841101E+02;
 -5.9999999E-02;  9.9999998E-03; -1.2000000E-01;1305;  0.0000000E+00;  0.0000000E+00;  0.0000000E+00;  1.0036872E+03;  1.0000000E-01;  3.0547285E+03;0;  0.0000000E+00;  0.0000000E+00;  0.0000000E+00;0; -2.8062118E-03;  4.0000000E+04;  0.0000000E+00;  0.0000000E+00;  4.0000000E+04;  0.0000000E+00;  4.0000000E+04; -2.8904609E-03;  0.0000000E+00;  8.4249157E-05;  9.2716650E+02;
 -5.9999999E-02;  9.9999998E-03; -1.1000000E-01;1306;  0.0000000E+00;  0.0000000E+00;  0.0000000E+00;  1.0037028E+03;  1.0000000E-01;  3.0677651E+03;0;  0.0000000E+00;  0.0000000E+00;  0.0000000E+00;0; -2.7415962E-03;  4.0000000E+04;  0.0000000E+00;  0.0000000E+00;  4.0000000E+04;  0.0000000E+00;  4.0000000E+04; -2.7991049E-03;  0.0000000E+00;  5.7508656E-05;  9.2118164E+02;
 -5.0000001E-02;  9.9999998E-03; -2.7000001E-01;1381;  0.0000000E+00;  0.0000000E+00;  0.0000000E+00;  1.0023489E+03;  1.0000000E-01;  1.9460190E+03;0;  0.0000000E+00;  0.0000000E+00;  0.0000000E+00;0; -2.8163299E-03;  4.0000000E+04;  0.0000000E+00;  0.0000000E+00;  4.0000000E+04;  0.0000000E+00;  4.0000000E+04; -2.6432693E-03;  0.0000000E+00; -1.7306060E-04;  5.6038348E+02;
 -5.0000001E-02;  9.9999998E-03; -2.5999999E-01;1382;  0.0000000E+00;  0.0000000E+00;  0.0000000E+00;  1.0025892E+03;  1.0000000E-01;  2.1451245E+03;0;  0.0000000E+00;  0.0000000E+00;  0.0000000E+00;0; -3.0243909E-03;  4.0000000E+04;  0.0000000E+00;  0.0000000E+00;  4.0000000E+04;  0.0000000E+00;  4.0000000E+04; -2.9339737E-03;  0.0000000E+00; -9.0417314E-05;  9.6576215E+02;
 -5.0000001E-02;  9.9999998E-03; -2.5000000E-01;1383;  0.0000000E+00;  0.0000000E+00;  0.0000000E+00;  1.0028340E+03;  1.0000000E-01;  2.3479829E+03;0;  0.0000000E+00;  0.0000000E+00;  0.0000000E+00;0; -3.2263619E-03;  4.0000000E+04;  0.0000000E+00;  0.0000000E+00;  4.0000000E+04;  0.0000000E+00;  4.0000000E+04; -3.2203549E-03;  0.0000000E+00; -6.0069942E-06;  1.3263148E+03;
 -5.0000001E-02;  9.9999998E-03; -2.3999999E-01;1384;  0.0000000E+00;  0.0000000E+00;  0.0000000E+00;  1.0030748E+03;  1.0000000E-01;  2.5473848E+03;0;  0.0000000E+00;  0.0000000E+00;  0.0000000E+00;0; -3.4271921E-03;  4.0000000E+04;  0.0000000E+00;  0.0000000E+00;  4.0000000E+04;  0.0000000E+00;  4.0000000E+04; -3.5011463E-03;  0.0000000E+00;  7.3954216E-05;  1.6101580E+03;
 -5.0000001E-02;  9.9999998E-03; -2.3000000E-01;1385;  0.0000000E+00;  0.0000000E+00;  0.0000000E+00;  1.0033242E+03;  1.0000000E-01;  2.7539961E+03;0;  0.0000000E+00;  0.0000000E+00;  0.0000000E+00;0; -3.6288255E-03;  4.0000000E+04;  0.0000000E+00;  0.0000000E+00;  4.0000000E+04;  0.0000000E+00;  4.0000000E+04; -3.7733035E-03;  0.0000000E+00;  1.4447795E-04;  1.8016956E+03;
 -5.0000001E-02;  9.9999998E-03; -2.2000000E-01;1386;  0.0000000E+00;  0.0000000E+00;  0.0000000E+00;  1.0035764E+03;  1.0000000E-01;  2.9629780E+03;0;  0.0000000E+00;  0.0000000E+00;  0.0000000E+00;0; -3.8294892E-03;  4.0000000E+04;  0.0000000E+00;  0.0000000E+00;  4.0000000E+04;  0.0000000E+00;  4.0000000E+04; -4.0315581E-03;  0.0000000E+00;  2.0206888E-04;  1.8989926E+03;
 -5.0000001E-02;  9.9999998E-03; -2.0999999E-01;1387;  0.0000000E+00;  0.0000000E+00;  0.0000000E+00;  1.0038263E+03;  1.0000000E-01;  3.1699844E+03;0;  0.0000000E+00;  0.0000000E+00;  0.0000000E+00;0; -4.0238891E-03;  4.0000000E+04;  0.0000000E+00;  0.0000000E+00;  4.0000000E+04;  0.0000000E+00;  4.0000000E+04; -4.2686346E-03;  0.0000000E+00;  2.4474540E-04;  1.9112314E+03;
 -5.0000001E-02;  9.9999998E-03; -2.0000000E-01;1388;  0.0000000E+00;  0.0000000E+00;  0.0000000E+00;  1.0040802E+03;  1.0000000E-01;  3.3803489E+03;0;  0.0000000E+00;  0.0000000E+00;  0.0000000E+00;0; -4.2041894E-03;  4.0000000E+04;  0.0000000E+00;  0.0000000E+00;  4.0000000E+04;  0.0000000E+00;  4.0000000E+04; -4.4760965E-03;  0.0000000E+00;  2.7190719E-04;  1.8551924E+03;
 -5.0000001E-02;  9.9999998E-03; -1.9000000E-01;1389;  0.0000000E+00;  0.0000000E+00;  0.0000000E+00;  1.0043231E+03;  1.0000000E-01;  3.5816272E+03;0;  0.0000000E+00;  0.0000000E+00;  0.0000000E+00;0; -4.3614614E-03;  4.0000000E+04;  0.0000000E+00;  0.0000000E+00;  4.0000000E+04;  0.0000000E+00;  4.0000000E+04; -4.6455618E-03;  0.0000000E+00;  2.8410056E-04;  1.7517385E+03;
 -5.0000001E-02;  9.9999998E-03; -1.8000001E-01;1390;  0.0000000E+00;  0.0000000E+00;  0.0000000E+00;  1.0045485E+03;  1.0000000E-01;  3.7682886E+03;0;  0.0000000E+00;  0.0000000E+00;  0.0000000E+00;0; -4.4872682E-03;  4.0000000E+04;  0.0000000E+00;  0.0000000E+00;  4.0000000E+04;  0.0000000E+00;  4.0000000E+04; -4.7700158E-03;  0.0000000E+00;  2.8274761E-04;  1.6225975E+03;
 -5.0000001E-02;  9.9999998E-03; -1.7000000E-01;1391;  0.0000000E+00;  0.0000000E+00;  0.0000000E+00;  1.0047540E+03;  1.0000000E-01;  3.9385552E+03;0;  0.0000000E+00;  0.0000000E+00;  0.0000000E+00;0; -4.5751370E-03;  4.0000000E+04;  0.0000000E+00;  0.0000000E+00;  4.0000000E+04;  0.0000000E+00;  4.0000000E+04; -4.8450050E-03;  0.0000000E+00;  2.6986792E-04;  1.4876943E+03;
 -5.0000001E-02;  9.9999998E-03; -1.6000000E-01;1392;  0.0000000E+00;  0.0000000E+00;  0.0000000E+00;  1.0049323E+03;  1.0000000E-01;  4.0863042E+03;0;  0.0000000E+00;  0.0000000E+00;  0.0000000E+00;0; -4.6217507E-03;  4.0000000E+04;  0.0000000E+00;  0.0000000E+00;  4.0000000E+04;  0.0000000E+00;  4.0000000E+04; -4.8695700E-03;  0.0000000E+00;  2.4781944E-04;  1.3630419E+03;
 -5.0000001E-02;  9.9999998E-03; -1.5000001E-01;1393;  0.0000000E+00;  0.0000000E+00;  0.0000000E+00;  1.0050754E+03;  1.0000000E-01;  4.2049180E+03;0;  0.0000000E+00;  0.0000000E+00;  0.0000000E+00;0; -4.6276045E-03;  4.0000000E+04;  0.0000000E+00;  0.0000000E+00;  4.0000000E+04;  0.0000000E+00;  4.0000000E+04; -4.8466469E-03;  0.0000000E+00;  2.1904228E-04;  1.2592374E+03;
 -5.0000001E-02;  9.9999998E-03; -1.4000000E-01;1394;  0.0000000E+00;  0.0000000E+00;  0.0000000E+00;  1.0051853E+03;  1.0000000E-01;  4.2958784E+03;0;  0.0000000E+00;  0.0000000E+00;  0.0000000E+00;0; -4.5972937E-03;  4.0000000E+04;  0.0000000E+00;  0.0000000E+00;  4.0000000E+04;  0.0000000E+00;  4.0000000E+04; -4.7831344E-03;  0.0000000E+00;  1.8584068E-04;  1.1808784E+03;
 -5.0000001E-02;  9.9999998E-03; -1.3000000E-01;1395;  0.0000000E+00;  0.0000000E+00;  0.0000000E+00;  1.0052643E+03;  1.0000000E-01;  4.3614570E+03;0;  0.0000000E+00;  0.0000000E+00;  0.0000000E+00;0; -4.5388113E-03;  4.0000000E+04;  0.0000000E+00;  0.0000000E+00;  4.0000000E+04;  0.0000000E+00;  4.0000000E+04; -4.6892357E-03;  0.0000000E+00;  1.5042459E-04;  1.1279186E+03;
 -5.0000001E-02;  9.9999998E-03; -1.2000000E-01;1396;  0.0000000E+00;  0.0000000E+00;  0.0000000E+00;  1.0053108E+03;  1.0000000E-01;  4.3998755E+03;0;  0.0000000E+00;  0.0000000E+00;  0.0000000E+00;0; -4.4621881E-03;  4.0000000E+04;  0.0000000E+00;  0.0000000E+00;  4.0000000E+04;  0.0000000E+00;  4.0000000E+04; -4.5772651E-03;  0.0000000E+00;  1.1507705E-04;  1.0980500E+03;
 -5.0000001E-02;  9.9999998E-03; -1.1000000E-01;1397;  0.0000000E+00;  0.0000000E+00;  0.0000000E+00;  1.0053376E+03;  1.0000000E-01;  4.4220972E+03;0;  0.0000000E+00;  0.0000000E+00;  0.0000000E+00;0; -4.3777241E-03;  4.0000000E+04;  0.0000000E+00;  0.0000000E+00;  4.0000000E+04;  0.0000000E+00;  4.0000000E+04; -4.4599781E-03;  0.0000000E+00;  8.2253828E-05;  1.0883000E+03;
 -3.9999999E-02;  9.9999998E-03; -2.7000001E-01;1472;  0.0000000E+00;  0.0000000E+00;  0.0000000E+00;  1.0032965E+03;  1.0000000E-01;  2.7310833E+03;0;  0.0000000E+00;  0.0000000E+00;  0.0000000E+00;0; -4.0599862E-03;  4.0000000E+04;  0.0000000E+00;  0.0000000E+00;  4.0000000E+04;  0.0000000E+00;  4.0000000E+04; -3.8458763E-03;  0.0000000E+00; -2.1410992E-04;  7.4467999E+02;
 -3.9999999E-02;  9.9999998E-03; -2.5999999E-01;1473;  0.0000000E+00;  0.0000000E+00;  0.0000000E+00;  1.0036349E+03;  1.0000000E-01;  3.0114705E+03;0;  0.0000000E+00;  0.0000000E+00;  0.0000000E+00;0; -4.3865885E-03;  4.0000000E+04;  0.0000000E+00;  0.0000000E+00;  4.0000000E+04;  0.0000000E+00;  4.0000000E+04; -4.2749885E-03;  0.0000000E+00; -1.1160013E-04;  1.2446785E+03;
 -3.9999999E-02;  9.9999998E-03; -2.5000000E-01;1474;  0.0000000E+00;  0.0000000E+00;  0.0000000E+00;  1.0039724E+03;  1.0000000E-01;  3.2909688E+03;0;  0.0000000E+00;  0.0000000E+00;  0.0000000E+00;0; -4.7041625E-03;  4.0000000E+04;  0.0000000E+00;  0.0000000E+00;  4.0000000E+04;  0.0000000E+00;  4.0000000E+04; -4.6958900E-03;  0.0000000E+00; -8.2726201E-06;  1.6805958E+03;
 -3.9999999E-02;  9.9999998E-03; -2.3999999E-01;1475;  0.0000000E+00;  0.0000000E+00;  0.0000000E+00;  1.0043109E+03;  1.0000000E-01;  3.5714546E+03;0;  0.0000000E+00;  0.0000000E+00;  0.0000000E+00;0; -5.0174068E-03;  4.0000000E+04;  0.0000000E+00;  0.0000000E+00;  4.0000000E+04;  0.0000000E+00;  4.0000000E+04; -5.1057492E-03;  0.0000000E+00;  8.8342516E-05;  2.0135524E+03;
 -3.9999999E-02;  9.9999998E-03; -2.3000000E-01;1476;  0.0000000E+00;  0.0000000E+00;  0.0000000E+00;  1.0046548E+03;  1.0000000E-01;  3.8564836E+03;0;  0.0000000E+00;  0.0000000E+00;  0.0000000E+00;0; -5.3269905E-03;  4.0000000E+04;  0.0000000E+00;  0.0000000E+00;  4.0000000E+04;  0.0000000E+00;  4.0000000E+04; -5.4995068E-03;  0.0000000E+00;  1.7251653E-04;  2.2267893E+03;
 -3.9999999E-02;  9.9999998E-03; -2.2000000E-01;1477;  0.0000000E+00;  0.0000000E+00;  0.0000000E+00;  1.0049999E+03;  1.0000000E-01;  4.1423027E+03;0;  0.0000000E+00;  0.0000000E+00;  0.0000000E+00;0; -5.6289644E-03;  4.0000000E+04;  0.0000000E+00;  0.0000000E+00;  4.0000000E+04;  0.0000000E+00;  4.0000000E+04; -5.8694771E-03;  0.0000000E+00;  2.4051283E-04;  2.3215657E+03;
 -3.9999999E-02;  9.9999998E-03; -2.0999999E-01;1478;  0.0000000E+00;  0.0000000E+00;  0.0000000E+00;  1.0053417E+03;  1.0000000E-01;  4.4255537E+03;0;  0.0000000E+00;  0.0000000E+00;  0.0000000E+00;0; -5.9152972E-03;  4.0000000E+04;  0.0000000E+00;  0.0000000E+00;  4.0000000E+04;  0.0000000E+00;  4.0000000E+04; -6.2057953E-03;  0.0000000E+00;  2.9049790E-04;  2.3127056E+03;
 -3.9999999E-02;  9.9999998E-03; -2.0000000E-01;1479;  0.0000000E+00;  0.0000000E+00;  0.0000000E+00;  1.0056768E+03;  1.0000000E-01;  4.7031758E+03;0;  0.0000000E+00;  0.0000000E+00;  0.0000000E+00;0; -6.1753192E-03;  4.0000000E+04;  0.0000000E+00;  0.0000000E+00;  4.0000000E+04;  0.0000000E+00;  4.0000000E+04; -6.4975880E-03;  0.0000000E+00;  3.2226875E-04;  2.2234897E+03;
 -3.9999999E-02;  9.9999998E-03; -1.9000000E-01;1480;  0.0000000E+00;  0.0000000E+00;  0.0000000E+00;  1.0059989E+03;  1.0000000E-01;  4.9699336E+03;0;  0.0000000E+00;  0.0000000E+00;  0.0000000E+00;0; -6.3977134E-03;  4.0000000E+04;  0.0000000E+00;  0.0000000E+00;  4.0000000E+04;  0.0000000E+00;  4.0000000E+04; -6.7345873E-03;  0.0000000E+00;  3.3687381E-04;  2.0807715E+03;
 -3.9999999E-02;  9.9999998E-03; -1.8000001E-01;1481;  0.0000000E+00;  0.0000000E+00;  0.0000000E+00;  1.0063017E+03;  1.0000000E-01;  5.2207905E+03;0;  0.0000000E+00;  0.0000000E+00;  0.0000000E+00;0; -6.5725120E-03;  4.0000000E+04;  0.0000000E+00;  0.0000000E+00;  4.0000000E+04;  0.0000000E+00;  4.0000000E+04; -6.9087110E-03;  0.0000000E+00;  3.3619924E-04;  1.9110459E+03;
 -3.9999999E-02;  9.9999998E-03; -1.7000000E-01;1482;  0.0000000E+00;  0.0000000E+00;  0.0000000E+00;  1.0065704E+03;  1.0000000E-01;  5.4434014E+03;0;  0.0000000E+00;  0.0000000E+00;  0.0000000E+00;0; -6.6928267E-03;  4.0000000E+04;  0.0000000E+00;  0.0000000E+00;  4.0000000E+04;  0.0000000E+00;  4.0000000E+04; -7.0154425E-03;  0.0000000E+00;  3.2261555E-04;  1.7376389E+03;
 -3.9999999E-02;  9.9999998E-03; -1.6000000E-01;1483;  0.0000000E+00;  0.0000000E+00;  0.0000000E+00;  1.0067996E+03;  1.0000000E-01;  5.6333223E+03;0;  0.0000000E+00;  0.0000000E+00;  0.0000000E+00;0; -6.7560659E-03;  4.0000000E+04;  0.0000000E+00;  0.0000000E+00;  4.0000000E+04;  0.0000000E+00;  4.0000000E+04; -7.0547787E-03;  0.0000000E+00;  2.9871266E-04;  1.5788010E+03;
 -3.9999999E-02;  9.9999998E-03; -1.5000001E-01;1484;  0.0000000E+00;  0.0000000E+00;  0.0000000E+00;  1.0069906E+03;  1.0000000E-01;  5.7915400E+03;0;  0.0000000E+00;  0.0000000E+00;  0.0000000E+00;0; -6.7644864E-03;  4.0000000E+04;  0.0000000E+00;  0.0000000E+00;  4.0000000E+04;  0.0000000E+00;  4.0000000E+04; -7.0315874E-03;  0.0000000E+00;  2.6710090E-04;  1.4465195E+03;
 -3.9999999E-02;  9.9999998E-03; -1.4000000E-01;1485;  0.0000000E+00;  0.0000000E+00;  0.0000000E+00;  1.0071379E+03;  1.0000000E-01;  5.9136104E+03;0;  0.0000000E+00;  0.0000000E+00;  0.0000000E+00;0; -6.7251888E-03;  4.0000000E+04;  0.0000000E+00;  0.0000000E+00;  4.0000000E+04;  0.0000000E+00;  4.0000000E+04; -6.9554383E-03;  0.0000000E+00;  2.3024970E-04;  1.3461039E+03;
 -3.9999999E-02;  9.9999998E-03; -1.3000000E-01;1486;  0.0000000E+00;  0.0000000E+00;  0.0000000E+00;  1.0072459E+03;  1.0000000E-01;  6.0030894E+03;0;  0.0000000E+00;  0.0000000E+00;  0.0000000E+00;0; -6.6493009E-03;  4.0000000E+04;  0.0000000E+00;  0.0000000E+00;  4.0000000E+04;  0.0000000E+00;  4.0000000E+04; -6.8397801E-03;  0.0000000E+00;  1.9047935E-04;  1.2771302E+03;
 -3.9999999E-02;  9.9999998E-03; -1.2000000E-01;1487;  0.0000000E+00;  0.0000000E+00;  0.0000000E+00;  1.0073110E+03;  1.0000000E-01;  6.0570137E+03;0;  0.0000000E+00;  0.0000000E+00;  0.0000000E+00;0; -6.5502301E-03;  4.0000000E+04;  0.0000000E+00;  0.0000000E+00;  4.0000000E+04;  0.0000000E+00;  4.0000000E+04; -6.7004939E-03;  0.0000000E+00;  1.5026394E-04;  1.2365830E+03;
 -3.9999999E-02;  9.9999998E-03; -1.1000000E-01;1488;  0.0000000E+00;  0.0000000E+00;  0.0000000E+00;  1.0073417E+03;  1.0000000E-01;  6.0824946E+03;0;  0.0000000E+00;  0.0000000E+00;  0.0000000E+00;0; -6.4414805E-03;  4.0000000E+04;  0.0000000E+00;  0.0000000E+00;  4.0000000E+04;  0.0000000E+00;  4.0000000E+04; -6.5538539E-03;  0.0000000E+00;  1.1237351E-04;  1.2208303E+03;
 -2.9999999E-02;  9.9999998E-03; -2.7000001E-01;1563;  0.0000000E+00;  0.0000000E+00;  0.0000000E+00;  1.0044305E+03;  1.0000000E-01;  3.6706123E+03;0;  0.0000000E+00;  0.0000000E+00;  0.0000000E+00;0; -5.5238190E-03;  4.0000000E+04;  0.0000000E+00;  0.0000000E+00;  4.0000000E+04;  0.0000000E+00;  4.0000000E+04; -5.2686329E-03;  0.0000000E+00; -2.5518602E-04;  9.5454089E+02;
 -2.9999999E-02;  9.9999998E-03; -2.5999999E-01;1564;  0.0000000E+00;  0.0000000E+00;  0.0000000E+00;  1.0048845E+03;  1.0000000E-01;  4.0467004E+03;0;  0.0000000E+00;  0.0000000E+00;  0.0000000E+00;0; -5.9939451E-03;  4.0000000E+04;  0.0000000E+00;  0.0000000E+00;  4.0000000E+04;  0.0000000E+00;  4.0000000E+04; -5.8614057E-03;  0.0000000E+00; -1.3253948E-04;  1.5503577E+03;
 -2.9999999E-02;  9.9999998E-03; -2.5000000E-01;1565;  0.0000000E+00;  0.0000000E+00;  0.0000000E+00;  1.0053305E+03;  1.0000000E-01;  4.4162700E+03;0;  0.0000000E+00;  0.0000000E+00;  0.0000000E+00;0; -6.4517697E-03;  4.0000000E+04;  0.0000000E+00;  0.0000000E+00;  4.0000000E+04;  0.0000000E+00;  4.0000000E+04; -6.4407759E-03;  0.0000000E+00; -1.0993576E-05;  2.0567620E+03;
 -2.9999999E-02;  9.9999998E-03; -2.3999999E-01;1566;  0.0000000E+00;  0.0000000E+00;  0.0000000E+00;  1.0057791E+03;  1.0000000E-01;  4.7879141E+03;0;  0.0000000E+00;  0.0000000E+00;  0.0000000E+00;0; -6.9012274E-03;  4.0000000E+04;  0.0000000E+00;  0.0000000E+00;  4.0000000E+04;  0.0000000E+00;  4.0000000E+04; -7.0019672E-03;  0.0000000E+00;  1.0073997E-04;  2.4282551E+03;
 -2.9999999E-02;  9.9999998E-03; -2.3000000E-01;1567;  0.0000000E+00;  0.0000000E+00;  0.0000000E+00;  1.0062326E+03;  1.0000000E-01;  5.1636069E+03;0;  0.0000000E+00;  0.0000000E+00;  0.0000000E+00;0; -7.3410734E-03;  4.0000000E+04;  0.0000000E+00;  0.0000000E+00;  4.0000000E+04;  0.0000000E+00;  4.0000000E+04; -7.5375307E-03;  0.0000000E+00;  1.9645753E-04;  2.6487002E+03;
 -2.9999999E-02;  9.9999998E-03; -2.2000000E-01;1568;  0.0000000E+00;  0.0000000E+00;  0.0000000E+00;  1.0066793E+03;  1.0000000E-01;  5.5336709E+03;0;  0.0000000E+00;  0.0000000E+00;  0.0000000E+00;0; -7.7643832E-03;  4.0000000E+04;  0.0000000E+00;  0.0000000E+00;  4.0000000E+04;  0.0000000E+00;  4.0000000E+04; -8.0369087E-03;  0.0000000E+00;  2.7252536E-04;  2.7250283E+03;
 -2.9999999E-02;  9.9999998E-03; -2.0999999E-01;1569;  0.0000000E+00;  0.0000000E+00;  0.0000000E+00;  1.0071259E+03;  1.0000000E-01;  5.9036357E+03;0;  0.0000000E+00;  0.0000000E+00;  0.0000000E+00;0; -8.1596347E-03;  4.0000000E+04;  0.0000000E+00;  0.0000000E+00;  4.0000000E+04;  0.0000000E+00;  4.0000000E+04; -8.4872786E-03;  0.0000000E+00;  3.2764437E-04;  2.6801721E+03;
 -2.9999999E-02;  9.9999998E-03; -2.0000000E-01;1570;  0.0000000E+00;  0.0000000E+00;  0.0000000E+00;  1.0075604E+03;  1.0000000E-01;  6.2636255E+03;0;  0.0000000E+00;  0.0000000E+00;  0.0000000E+00;0; -8.5127540E-03;  4.0000000E+04;  0.0000000E+00;  0.0000000E+00;  4.0000000E+04;  0.0000000E+00;  4.0000000E+04; -8.8751493E-03;  0.0000000E+00;  3.6239531E-04;  2.5458518E+03;
 -2.9999999E-02;  9.9999998E-03; -1.9000000E-01;1571;  0.0000000E+00;  0.0000000E+00;  0.0000000E+00;  1.0079747E+03;  1.0000000E-01;  6.6068257E+03;0;  0.0000000E+00;  0.0000000E+00;  0.0000000E+00;0; -8.8096978E-03;  4.0000000E+04;  0.0000000E+00;  0.0000000E+00;  4.0000000E+04;  0.0000000E+00;  4.0000000E+04; -9.1883279E-03;  0.0000000E+00;  3.7863056E-04;  2.3559438E+03;
 -2.9999999E-02;  9.9999998E-03; -1.8000001E-01;1572;  0.0000000E+00;  0.0000000E+00;  0.0000000E+00;  1.0083542E+03;  1.0000000E-01;  6.9213843E+03;0;  0.0000000E+00;  0.0000000E+00;  0.0000000E+00;0; -9.0390155E-03;  4.0000000E+04;  0.0000000E+00;  0.0000000E+00;  4.0000000E+04;  0.0000000E+00;  4.0000000E+04; -9.4178794E-03;  0.0000000E+00;  3.7886424E-04;  2.1416538E+03;
 -2.9999999E-02;  9.9999998E-03; -1.7000000E-01;1573;  0.0000000E+00;  0.0000000E+00;  0.0000000E+00;  1.0086977E+03;  1.0000000E-01;  7.2059194E+03;0;  0.0000000E+00;  0.0000000E+00;  0.0000000E+00;0; -9.1937520E-03;  4.0000000E+04;  0.0000000E+00;  0.0000000E+00;  4.0000000E+04;  0.0000000E+00;  4.0000000E+04; -9.5595606E-03;  0.0000000E+00;  3.6580832E-04;  1.9289142E+03;
 -2.9999999E-02;  9.9999998E-03; -1.6000000E-01;1574;  0.0000000E+00;  0.0000000E+00;  0.0000000E+00;  1.0089899E+03;  1.0000000E-01;  7.4479868E+03;0;  0.0000000E+00;  0.0000000E+00;  0.0000000E+00;0; -9.2726927E-03;  4.0000000E+04;  0.0000000E+00;  0.0000000E+00;  4.0000000E+04;  0.0000000E+00;  4.0000000E+04; -9.6148057E-03;  0.0000000E+00;  3.4211320E-04;  1.7368237E+03;
 -2.9999999E-02;  9.9999998E-03; -1.5000001E-01;1575;  0.0000000E+00;  0.0000000E+00;  0.0000000E+00;  1.0092350E+03;  1.0000000E-01;  7.6510430E+03;0;  0.0000000E+00;  0.0000000E+00;  0.0000000E+00;0; -9.2806267E-03;  4.0000000E+04;  0.0000000E+00;  0.0000000E+00;  4.0000000E+04;  0.0000000E+00;  4.0000000E+04; -9.5909005E-03;  0.0000000E+00;  3.1027393E-04;  1.5773447E+03;
 -2.9999999E-02;  9.9999998E-03; -1.4000000E-01;1576;  0.0000000E+00;  0.0000000E+00;  0.0000000E+00;  1.0094246E+03;  1.0000000E-01;  7.8080757E+03;0;  0.0000000E+00;  0.0000000E+00;  0.0000000E+00;0; -9.2280051E-03;  4.0000000E+04;  0.0000000E+00;  0.0000000E+00;  4.0000000E+04;  0.0000000E+00;  4.0000000E+04; -9.5006088E-03;  0.0000000E+00;  2.7260376E-04;  1.4555140E+03;
 -2.9999999E-02;  9.9999998E-03; -1.3000000E-01;1577;  0.0000000E+00;  0.0000000E+00;  0.0000000E+00;  1.0095562E+03;  1.0000000E-01;  7.9171094E+03;0;  0.0000000E+00;  0.0000000E+00;  0.0000000E+00;0; -9.1298120E-03;  4.0000000E+04;  0.0000000E+00;  0.0000000E+00;  4.0000000E+04;  0.0000000E+00;  4.0000000E+04; -9.3610687E-03;  0.0000000E+00;  2.3125636E-04;  1.3701836E+03;
 -2.9999999E-02;  9.9999998E-03; -1.2000000E-01;1578;  0.0000000E+00;  0.0000000E+00;  0.0000000E+00;  1.0096354E+03;  1.0000000E-01;  7.9827866E+03;0;  0.0000000E+00;  0.0000000E+00;  0.0000000E+00;0; -9.0034213E-03;  4.0000000E+04;  0.0000000E+00;  0.0000000E+00;  4.0000000E+04;  0.0000000E+00;  4.0000000E+04; -9.1920476E-03;  0.0000000E+00;  1.8862594E-04;  1.3174769E+03;
 -2.9999999E-02;  9.9999998E-03; -1.1000000E-01;1579;  0.0000000E+00;  0.0000000E+00;  0.0000000E+00;  1.0096661E+03;  1.0000000E-01;  8.0081685E+03;0;  0.0000000E+00;  0.0000000E+00;  0.0000000E+00;0; -8.8659953E-03;  4.0000000E+04;  0.0000000E+00;  0.0000000E+00;  4.0000000E+04;  0.0000000E+00;  4.0000000E+04; -9.0136211E-03;  0.0000000E+00;  1.4762556E-04;  1.2932885E+03;
 -2.0000000E-02;  9.9999998E-03; -2.7000001E-01;1654;  0.0000000E+00;  0.0000000E+00;  0.0000000E+00;  1.0057140E+03;  1.0000000E-01;  4.7338906E+03;0;  0.0000000E+00;  0.0000000E+00;  0.0000000E+00;0; -7.1357586E-03;  4.0000000E+04;  0.0000000E+00;  0.0000000E+00;  4.0000000E+04;  0.0000000E+00;  4.0000000E+04; -6.8426593E-03;  0.0000000E+00; -2.9309929E-04;  1.1879196E+03;
 -2.0000000E-02;  9.9999998E-03; -2.5999999E-01;1655;  0.0000000E+00;  0.0000000E+00;  0.0000000E+00;  1.0062960E+03;  1.0000000E-01;  5.2161489E+03;0;  0.0000000E+00;  0.0000000E+00;  0.0000000E+00;0; -7.7699716E-03;  4.0000000E+04;  0.0000000E+00;  0.0000000E+00;  4.0000000E+04;  0.0000000E+00;  4.0000000E+04; -7.6182936E-03;  0.0000000E+00; -1.5167815E-04;  1.8725764E+03;
 -2.0000000E-02;  9.9999998E-03; -2.5000000E-01;1656;  0.0000000E+00;  0.0000000E+00;  0.0000000E+00;  1.0068685E+03;  1.0000000E-01;  5.6904067E+03;0;  0.0000000E+00;  0.0000000E+00;  0.0000000E+00;0; -8.3882678E-03;  4.0000000E+04;  0.0000000E+00;  0.0000000E+00;  4.0000000E+04;  0.0000000E+00;  4.0000000E+04; -8.3738668E-03;  0.0000000E+00; -1.4401429E-05;  2.4362229E+03;
 -2.0000000E-02;  9.9999998E-03; -2.3999999E-01;1657;  0.0000000E+00;  0.0000000E+00;  0.0000000E+00;  1.0074375E+03;  1.0000000E-01;  6.1618013E+03;0;  0.0000000E+00;  0.0000000E+00;  0.0000000E+00;0; -8.9930687E-03;  4.0000000E+04;  0.0000000E+00;  0.0000000E+00;  4.0000000E+04;  0.0000000E+00;  4.0000000E+04; -9.1022551E-03;  0.0000000E+00;  1.0918612E-04;  2.8279055E+03;
 -2.0000000E-02;  9.9999998E-03; -2.3000000E-01;1658;  0.0000000E+00;  0.0000000E+00;  0.0000000E+00;  1.0080084E+03;  1.0000000E-01;  6.6347754E+03;0;  0.0000000E+00;  0.0000000E+00;  0.0000000E+00;0; -9.5803598E-03;  4.0000000E+04;  0.0000000E+00;  0.0000000E+00;  4.0000000E+04;  0.0000000E+00;  4.0000000E+04; -9.7931474E-03;  0.0000000E+00;  2.1278784E-04;  3.0346240E+03;
 -2.0000000E-02;  9.9999998E-03; -2.2000000E-01;1659;  0.0000000E+00;  0.0000000E+00;  0.0000000E+00;  1.0085708E+03;  1.0000000E-01;  7.1007373E+03;0;  0.0000000E+00;  0.0000000E+00;  0.0000000E+00;0; -1.0139601E-02;  4.0000000E+04;  0.0000000E+00;  0.0000000E+00;  4.0000000E+04;  0.0000000E+00;  4.0000000E+04; -1.0432886E-02;  0.0000000E+00;  2.9328442E-04;  3.0718901E+03;
 -2.0000000E-02;  9.9999998E-03; -2.0999999E-01;1660;  0.0000000E+00;  0.0000000E+00;  0.0000000E+00;  1.0091298E+03;  1.0000000E-01;  7.5638354E+03;0;  0.0000000E+00;  0.0000000E+00;  0.0000000E+00;0; -1.0655214E-02;  4.0000000E+04;  0.0000000E+00;  0.0000000E+00;  4.0000000E+04;  0.0000000E+00;  4.0000000E+04; -1.1005566E-02;  0.0000000E+00;  3.5035153E-04;  2.9735085E+03;
 -2.0000000E-02;  9.9999998E-03; -2.0000000E-01;1661;  0.0000000E+00;  0.0000000E+00;  0.0000000E+00;  1.0096656E+03;  1.0000000E-01;  8.0077734E+03;0;  0.0000000E+00;  0.0000000E+00;  0.0000000E+00;0; -1.1109427E-02;  4.0000000E+04;  0.0000000E+00;  0.0000000E+00;  4.0000000E+04;  0.0000000E+00;  4.0000000E+04; -1.1495192E-02;  0.0000000E+00;  3.8576487E-04;  2.7813884E+03;
 -2.0000000E-02;  9.9999998E-03; -1.9000000E-01;1662;  0.0000000E+00;  0.0000000E+00;  0.0000000E+00;  1.0101775E+03;  1.0000000E-01;  8.4318604E+03;0;  0.0000000E+00;  0.0000000E+00;  0.0000000E+00;0; -1.1485441E-02;  4.0000000E+04;  0.0000000E+00;  0.0000000E+00;  4.0000000E+04;  0.0000000E+00;  4.0000000E+04; -1.1887940E-02;  0.0000000E+00;  4.0249931E-04;  2.5369976E+03;
 -2.0000000E-02;  9.9999998E-03; -1.8000001E-01;1663;  0.0000000E+00;  0.0000000E+00;  0.0000000E+00;  1.0106432E+03;  1.0000000E-01;  8.8177256E+03;0;  0.0000000E+00;  0.0000000E+00;  0.0000000E+00;0; -1.1770526E-02;  4.0000000E+04;  0.0000000E+00;  0.0000000E+00;  4.0000000E+04;  0.0000000E+00;  4.0000000E+04; -1.2174395E-02;  0.0000000E+00;  4.0386873E-04;  2.2760466E+03;
 -2.0000000E-02;  9.9999998E-03; -1.7000000E-01;1664;  0.0000000E+00;  0.0000000E+00;  0.0000000E+00;  1.0110646E+03;  1.0000000E-01;  9.1667529E+03;0;  0.0000000E+00;  0.0000000E+00;  0.0000000E+00;0; -1.1958214E-02;  4.0000000E+04;  0.0000000E+00;  0.0000000E+00;  4.0000000E+04;  0.0000000E+00;  4.0000000E+04; -1.2351131E-02;  0.0000000E+00;  3.9291792E-04;  2.0257760E+03;
 -2.0000000E-02;  9.9999998E-03; -1.6000000E-01;1665;  0.0000000E+00;  0.0000000E+00;  0.0000000E+00;  1.0114290E+03;  1.0000000E-01;  9.4686709E+03;0;  0.0000000E+00;  0.0000000E+00;  0.0000000E+00;0; -1.2049318E-02;  4.0000000E+04;  0.0000000E+00;  0.0000000E+00;  4.0000000E+04;  0.0000000E+00;  4.0000000E+04; -1.2421483E-02;  0.0000000E+00;  3.7216523E-04;  1.8044629E+03;
 -2.0000000E-02;  9.9999998E-03; -1.5000001E-01;1666;  0.0000000E+00;  0.0000000E+00;  0.0000000E+00;  1.0117257E+03;  1.0000000E-01;  9.7144902E+03;0;  0.0000000E+00;  0.0000000E+00;  0.0000000E+00;0; -1.2051988E-02;  4.0000000E+04;  0.0000000E+00;  0.0000000E+00;  4.0000000E+04;  0.0000000E+00;  4.0000000E+04; -1.2395643E-02;  0.0000000E+00;  3.4365442E-04;  1.6223140E+03;
 -2.0000000E-02;  9.9999998E-03; -1.4000000E-01;1667;  0.0000000E+00;  0.0000000E+00;  0.0000000E+00;  1.0119495E+03;  1.0000000E-01;  9.8999668E+03;0;  0.0000000E+00;  0.0000000E+00;  0.0000000E+00;0; -1.1980791E-02;  4.0000000E+04;  0.0000000E+00;  0.0000000E+00;  4.0000000E+04;  0.0000000E+00;  4.0000000E+04; -1.2289917E-02;  0.0000000E+00;  3.0912634E-04;  1.4825604E+03;
 -2.0000000E-02;  9.9999998E-03; -1.3000000E-01;1668;  0.0000000E+00;  0.0000000E+00;  0.0000000E+00;  1.0121010E+03;  1.0000000E-01;  1.0025396E+04;0;  0.0000000E+00;  0.0000000E+00;  0.0000000E+00;0; -1.1855088E-02;  4.0000000E+04;  0.0000000E+00;  0.0000000E+00;  4.0000000E+04;  0.0000000E+00;  4.0000000E+04; -1.2125268E-02;  0.0000000E+00;  2.7017941E-04;  1.3826270E+03;
 -2.0000000E-02;  9.9999998E-03; -1.2000000E-01;1669;  0.0000000E+00;  0.0000000E+00;  0.0000000E+00;  1.0121882E+03;  1.0000000E-01;  1.0097689E+04;0;  0.0000000E+00;  0.0000000E+00;  0.0000000E+00;0; -1.1696769E-02;  4.0000000E+04;  0.0000000E+00;  0.0000000E+00;  4.0000000E+04;  0.0000000E+00;  4.0000000E+04; -1.1925518E-02;  0.0000000E+00;  2.2874874E-04;  1.3174154E+03;
 -2.0000000E-02;  9.9999998E-03; -1.1000000E-01;1670;  0.0000000E+00;  0.0000000E+00;  0.0000000E+00;  1.0122210E+03;  1.0000000E-01;  1.0124850E+04;0;  0.0000000E+00;  0.0000000E+00;  0.0000000E+00;0; -1.1526859E-02;  4.0000000E+04;  0.0000000E+00;  0.0000000E+00;  4.0000000E+04;  0.0000000E+00;  4.0000000E+04; -1.1714482E-02;  0.0000000E+00;  1.8762227E-04;  1.2825795E+03;
 -9.9999998E-03;  9.9999998E-03; -2.7000001E-01;1745;  0.0000000E+00;  0.0000000E+00;  0.0000000E+00;  1.0071036E+03;  1.0000000E-01;  5.8851670E+03;0;  0.0000000E+00;  0.0000000E+00;  0.0000000E+00;0; -8.7893484E-03;  4.0000000E+04;  0.0000000E+00;  0.0000000E+00;  4.0000000E+04;  0.0000000E+00;  4.0000000E+04; -8.4656011E-03;  0.0000000E+00; -3.2374720E-04;  1.4432803E+03;
 -9.9999998E-03;  9.9999998E-03; -2.5999999E-01;1746;  0.0000000E+00;  0.0000000E+00;  0.0000000E+00;  1.0078196E+03;  1.0000000E-01;  6.4783354E+03;0;  0.0000000E+00;  0.0000000E+00;  0.0000000E+00;0; -9.6025756E-03;  4.0000000E+04;  0.0000000E+00;  0.0000000E+00;  4.0000000E+04;  0.0000000E+00;  4.0000000E+04; -9.4353259E-03;  0.0000000E+00; -1.6724979E-04;  2.1982085E+03;
 -9.9999998E-03;  9.9999998E-03; -2.5000000E-01;1747;  0.0000000E+00;  0.0000000E+00;  0.0000000E+00;  1.0085225E+03;  1.0000000E-01;  7.0607388E+03;0;  0.0000000E+00;  0.0000000E+00;  0.0000000E+00;0; -1.0395536E-02;  4.0000000E+04;  0.0000000E+00;  0.0000000E+00;  4.0000000E+04;  0.0000000E+00;  4.0000000E+04; -1.0376639E-02;  0.0000000E+00; -1.8897672E-05;  2.7956008E+03;
 -9.9999998E-03;  9.9999998E-03; -2.3999999E-01;1748;  0.0000000E+00;  0.0000000E+00;  0.0000000E+00;  1.0092192E+03;  1.0000000E-01;  7.6379072E+03;0;  0.0000000E+00;  0.0000000E+00;  0.0000000E+00;0; -1.1167859E-02;  4.0000000E+04;  0.0000000E+00;  0.0000000E+00;  4.0000000E+04;  0.0000000E+00;  4.0000000E+04; -1.1279268E-02;  0.0000000E+00;  1.1140956E-04;  3.1811208E+03;
 -9.9999998E-03;  9.9999998E-03; -2.3000000E-01;1749;  0.0000000E+00;  0.0000000E+00;  0.0000000E+00;  1.0099123E+03;  1.0000000E-01;  8.2121133E+03;0;  0.0000000E+00;  0.0000000E+00;  0.0000000E+00;0; -1.1912087E-02;  4.0000000E+04;  0.0000000E+00;  0.0000000E+00;  4.0000000E+04;  0.0000000E+00;  4.0000000E+04; -1.2129775E-02;  0.0000000E+00;  2.1768868E-04;  3.3480518E+03;
 -9.9999998E-03;  9.9999998E-03; -2.2000000E-01;1750;  0.0000000E+00;  0.0000000E+00;  0.0000000E+00;  1.0105930E+03;  1.0000000E-01;  8.7760479E+03;0;  0.0000000E+00;  0.0000000E+00;  0.0000000E+00;0; -1.2613643E-02;  4.0000000E+04;  0.0000000E+00;  0.0000000E+00;  4.0000000E+04;  0.0000000E+00;  4.0000000E+04; -1.2911389E-02;  0.0000000E+00;  2.9774525E-04;  3.3234678E+03;
 -9.9999998E-03;  9.9999998E-03; -2.0999999E-01;1751;  0.0000000E+00;  0.0000000E+00;  0.0000000E+00;  1.0112630E+03;  1.0000000E-01;  9.3311934E+03;0;  0.0000000E+00;  0.0000000E+00;  0.0000000E+00;0; -1.3252902E-02;  4.0000000E+04;  0.0000000E+00;  0.0000000E+00;  4.0000000E+04;  0.0000000E+00;  4.0000000E+04; -1.3605553E-02;  0.0000000E+00;  3.5265117E-04;  3.1541409E+03;
 -9.9999998E-03;  9.9999998E-03; -2.0000000E-01;1752;  0.0000000E+00;  0.0000000E+00;  0.0000000E+00;  1.0119084E+03;  1.0000000E-01;  9.8658936E+03;0;  0.0000000E+00;  0.0000000E+00;  0.0000000E+00;0; -1.3808583E-02;  4.0000000E+04;  0.0000000E+00;  0.0000000E+00;  4.0000000E+04;  0.0000000E+00;  4.0000000E+04; -1.4194357E-02;  0.0000000E+00;  3.8577395E-04;  2.8930911E+03;
 -9.9999998E-03;  9.9999998E-03; -1.9000000E-01;1753;  0.0000000E+00;  0.0000000E+00;  0.0000000E+00;  1.0125162E+03;  1.0000000E-01;  1.0369386E+04;0;  0.0000000E+00;  0.0000000E+00;  0.0000000E+00;0; -1.4261481E-02;  4.0000000E+04;  0.0000000E+00;  0.0000000E+00;  4.0000000E+04;  0.0000000E+00;  4.0000000E+04; -1.4663023E-02;  0.0000000E+00;  4.0154153E-04;  2.5894922E+03;
 -9.9999998E-03;  9.9999998E-03; -1.8000001E-01;1754;  0.0000000E+00;  0.0000000E+00;  0.0000000E+00;  1.0130763E+03;  1.0000000E-01;  1.0833472E+04;0;  0.0000000E+00;  0.0000000E+00;  0.0000000E+00;0; -1.4598169E-02;  4.0000000E+04;  0.0000000E+00;  0.0000000E+00;  4.0000000E+04;  0.0000000E+00;  4.0000000E+04; -1.5002437E-02;  0.0000000E+00;  4.0426737E-04;  2.2825979E+03;
 -9.9999998E-03;  9.9999998E-03; -1.7000000E-01;1755;  0.0000000E+00;  0.0000000E+00;  0.0000000E+00;  1.0135732E+03;  1.0000000E-01;  1.1245114E+04;0;  0.0000000E+00;  0.0000000E+00;  0.0000000E+00;0; -1.4813213E-02;  4.0000000E+04;  0.0000000E+00;  0.0000000E+00;  4.0000000E+04;  0.0000000E+00;  4.0000000E+04; -1.5210552E-02;  0.0000000E+00;  3.9733929E-04;  1.9995664E+03;
 -9.9999998E-03;  9.9999998E-03; -1.6000000E-01;1756;  0.0000000E+00;  0.0000000E+00;  0.0000000E+00;  1.0139993E+03;  1.0000000E-01;  1.1598092E+04;0;  0.0000000E+00;  0.0000000E+00;  0.0000000E+00;0; -1.4910219E-02;  4.0000000E+04;  0.0000000E+00;  0.0000000E+00;  4.0000000E+04;  0.0000000E+00;  4.0000000E+04; -1.5293165E-02;  0.0000000E+00;  3.8294593E-04;  1.7562006E+03;
 -9.9999998E-03;  9.9999998E-03; -1.5000001E-01;1757;  0.0000000E+00;  0.0000000E+00;  0.0000000E+00;  1.0143391E+03;  1.0000000E-01;  1.1879664E+04;0;  0.0000000E+00;  0.0000000E+00;  0.0000000E+00;0; -1.4901338E-02;  4.0000000E+04;  0.0000000E+00;  0.0000000E+00;  4.0000000E+04;  0.0000000E+00;  4.0000000E+04; -1.5263629E-02;  0.0000000E+00;  3.6229109E-04;  1.5590344E+03;
 -9.9999998E-03;  9.9999998E-03; -1.4000000E-01;1758;  0.0000000E+00;  0.0000000E+00;  0.0000000E+00;  1.0145872E+03;  1.0000000E-01;  1.2085189E+04;0;  0.0000000E+00;  0.0000000E+00;  0.0000000E+00;0; -1.4805781E-02;  4.0000000E+04;  0.0000000E+00;  0.0000000E+00;  4.0000000E+04;  0.0000000E+00;  4.0000000E+04; -1.5141819E-02;  0.0000000E+00;  3.3603836E-04;  1.4077832E+03;
 -9.9999998E-03;  9.9999998E-03; -1.3000000E-01;1759;  0.0000000E+00;  0.0000000E+00;  0.0000000E+00;  1.0147549E+03;  1.0000000E-01;  1.2224148E+04;0;  0.0000000E+00;  0.0000000E+00;  0.0000000E+00;0; -1.4647756E-02;  4.0000000E+04;  0.0000000E+00;  0.0000000E+00;  4.0000000E+04;  0.0000000E+00;  4.0000000E+04; -1.4952467E-02;  0.0000000E+00;  3.0471085E-04;  1.2972821E+03;
 -9.9999998E-03;  9.9999998E-03; -1.2000000E-01;1760;  0.0000000E+00;  0.0000000E+00;  0.0000000E+00;  1.0148430E+03;  1.0000000E-01;  1.2297134E+04;0;  0.0000000E+00;  0.0000000E+00;  0.0000000E+00;0; -1.4453753E-02;  4.0000000E+04;  0.0000000E+00;  0.0000000E+00;  4.0000000E+04;  0.0000000E+00;  4.0000000E+04; -1.4723053E-02;  0.0000000E+00;  2.6930074E-04;  1.2206998E+03;
 -9.9999998E-03;  9.9999998E-03; -1.1000000E-01;1761;  0.0000000E+00;  0.0000000E+00;  0.0000000E+00;  1.0148626E+03;  1.0000000E-01;  1.2313430E+04;0;  0.0000000E+00;  0.0000000E+00;  0.0000000E+00;0; -1.4248735E-02;  4.0000000E+04;  0.0000000E+00;  0.0000000E+00;  4.0000000E+04;  0.0000000E+00;  4.0000000E+04; -1.4480807E-02;  0.0000000E+00;  2.3207164E-04;  1.1734144E+03;
 -1.9000000E-01;  9.9999998E-03; -1.0000000E-01;124;  0.0000000E+00;  0.0000000E+00;  0.0000000E+00;  1.0000000E+03;  1.0000000E-01;  0.0000000E+00;0;  0.0000000E+00;  0.0000000E+00;  0.0000000E+00;0;  0.0000000E+00;  4.0000000E+04;  0.0000000E+00;  0.0000000E+00;  4.0000000E+04;  0.0000000E+00;  4.0000000E+04;  0.0000000E+00;  0.0000000E+00;  0.0000000E+00;  0.0000000E+00;
 -1.9000000E-01;  9.9999998E-03; -9.0000004E-02;125;  0.0000000E+00;  0.0000000E+00;  0.0000000E+00;  1.0000000E+03;  1.0000000E-01;  0.0000000E+00;0;  0.0000000E+00;  0.0000000E+00;  0.0000000E+00;0;  0.0000000E+00;  4.0000000E+04;  0.0000000E+00;  0.0000000E+00;  4.0000000E+04;  0.0000000E+00;  4.0000000E+04;  0.0000000E+00;  0.0000000E+00;  0.0000000E+00;  0.0000000E+00;
 -1.9000000E-01;  9.9999998E-03; -7.9999998E-02;126;  0.0000000E+00;  0.0000000E+00;  0.0000000E+00;  1.0000000E+03;  1.0000000E-01;  0.0000000E+00;0;  0.0000000E+00;  0.0000000E+00;  0.0000000E+00;0;  0.0000000E+00;  4.0000000E+04;  0.0000000E+00;  0.0000000E+00;  4.0000000E+04;  0.0000000E+00;  4.0000000E+04;  0.0000000E+00;  0.0000000E+00;  0.0000000E+00;  0.0000000E+00;
 -1.9000000E-01;  9.9999998E-03; -7.0000000E-02;127;  0.0000000E+00;  0.0000000E+00;  0.0000000E+00;  1.0000000E+03;  1.0000000E-01;  0.0000000E+00;0;  0.0000000E+00;  0.0000000E+00;  0.0000000E+00;0;  0.0000000E+00;  4.0000000E+04;  0.0000000E+00;  0.0000000E+00;  4.0000000E+04;  0.0000000E+00;  4.0000000E+04;  0.0000000E+00;  0.0000000E+00;  0.0000000E+00;  0.0000000E+00;
 -1.9000000E-01;  9.9999998E-03; -5.9999999E-02;128;  0.0000000E+00;  0.0000000E+00;  0.0000000E+00;  1.0000000E+03;  1.0000000E-01;  0.0000000E+00;0;  0.0000000E+00;  0.0000000E+00;  0.0000000E+00;0;  0.0000000E+00;  4.0000000E+04;  0.0000000E+00;  0.0000000E+00;  4.0000000E+04;  0.0000000E+00;  4.0000000E+04;  0.0000000E+00;  0.0000000E+00;  0.0000000E+00;  0.0000000E+00;
 -1.9000000E-01;  9.9999998E-03; -5.0000001E-02;129;  0.0000000E+00;  0.0000000E+00;  0.0000000E+00;  1.0000000E+03;  1.0000000E-01;  0.0000000E+00;0;  0.0000000E+00;  0.0000000E+00;  0.0000000E+00;0;  0.0000000E+00;  4.0000000E+04;  0.0000000E+00;  0.0000000E+00;  4.0000000E+04;  0.0000000E+00;  4.0000000E+04;  0.0000000E+00;  0.0000000E+00;  0.0000000E+00;  0.0000000E+00;
 -1.9000000E-01;  9.9999998E-03; -3.9999999E-02;130;  0.0000000E+00;  0.0000000E+00;  0.0000000E+00;  1.0000000E+03;  1.0000000E-01;  0.0000000E+00;0;  0.0000000E+00;  0.0000000E+00;  0.0000000E+00;0;  0.0000000E+00;  4.0000000E+04;  0.0000000E+00;  0.0000000E+00;  4.0000000E+04;  0.0000000E+00;  4.0000000E+04;  0.0000000E+00;  0.0000000E+00;  0.0000000E+00;  0.0000000E+00;
 -1.9000000E-01;  9.9999998E-03; -2.9999999E-02;131;  0.0000000E+00;  0.0000000E+00;  0.0000000E+00;  1.0000000E+03;  1.0000000E-01;  0.0000000E+00;0;  0.0000000E+00;  0.0000000E+00;  0.0000000E+00;0;  0.0000000E+00;  4.0000000E+04;  0.0000000E+00;  0.0000000E+00;  4.0000000E+04;  0.0000000E+00;  4.0000000E+04;  0.0000000E+00;  0.0000000E+00;  0.0000000E+00;  0.0000000E+00;
 -1.9000000E-01;  9.9999998E-03; -2.0000000E-02;132;  0.0000000E+00;  0.0000000E+00;  0.0000000E+00;  1.0000000E+03;  1.0000000E-01;  0.0000000E+00;0;  0.0000000E+00;  0.0000000E+00;  0.0000000E+00;0;  0.0000000E+00;  4.0000000E+04;  0.0000000E+00;  0.0000000E+00;  4.0000000E+04;  0.0000000E+00;  4.0000000E+04;  0.0000000E+00;  0.0000000E+00;  0.0000000E+00;  0.0000000E+00;
 -1.9000000E-01;  9.9999998E-03; -9.9999998E-03;133;  0.0000000E+00;  0.0000000E+00;  0.0000000E+00;  1.0000000E+03;  1.0000000E-01;  0.0000000E+00;0;  0.0000000E+00;  0.0000000E+00;  0.0000000E+00;0;  0.0000000E+00;  4.0000000E+04;  0.0000000E+00;  0.0000000E+00;  4.0000000E+04;  0.0000000E+00;  4.0000000E+04;  0.0000000E+00;  0.0000000E+00;  0.0000000E+00;  0.0000000E+00;
 -1.9000000E-01;  9.9999998E-03;  0.0000000E+00;134;  0.0000000E+00;  0.0000000E+00;  0.0000000E+00;  1.0000000E+03;  1.0000000E-01;  0.0000000E+00;0;  0.0000000E+00;  0.0000000E+00;  0.0000000E+00;0;  0.0000000E+00;  4.0000000E+04;  0.0000000E+00;  0.0000000E+00;  4.0000000E+04;  0.0000000E+00;  4.0000000E+04;  0.0000000E+00;  0.0000000E+00;  0.0000000E+00;  0.0000000E+00;
 -1.9000000E-01;  9.9999998E-03;  9.9999998E-03;135;  0.0000000E+00;  0.0000000E+00;  0.0000000E+00;  1.0000000E+03;  1.0000000E-01;  0.0000000E+00;0;  0.0000000E+00;  0.0000000E+00;  0.0000000E+00;0;  0.0000000E+00;  4.0000000E+04;  0.0000000E+00;  0.0000000E+00;  4.0000000E+04;  0.0000000E+00;  4.0000000E+04;  0.0000000E+00;  0.0000000E+00;  0.0000000E+00;  0.0000000E+00;
 -1.9000000E-01;  9.9999998E-03;  2.0000000E-02;136;  0.0000000E+00;  0.0000000E+00;  0.0000000E+00;  1.0000000E+03;  1.0000000E-01;  0.0000000E+00;0;  0.0000000E+00;  0.0000000E+00;  0.0000000E+00;0;  0.0000000E+00;  4.0000000E+04;  0.0000000E+00;  0.0000000E+00;  4.0000000E+04;  0.0000000E+00;  4.0000000E+04;  0.0000000E+00;  0.0000000E+00;  0.0000000E+00;  0.0000000E+00;
 -1.9000000E-01;  9.9999998E-03;  2.9999999E-02;137;  0.0000000E+00;  0.0000000E+00;  0.0000000E+00;  1.0000000E+03;  1.0000000E-01;  0.0000000E+00;0;  0.0000000E+00;  0.0000000E+00;  0.0000000E+00;0;  0.0000000E+00;  4.0000000E+04;  0.0000000E+00;  0.0000000E+00;  4.0000000E+04;  0.0000000E+00;  4.0000000E+04;  0.0000000E+00;  0.0000000E+00;  0.0000000E+00;  0.0000000E+00;
 -1.9000000E-01;  9.9999998E-03;  3.9999999E-02;138;  0.0000000E+00;  0.0000000E+00;  0.0000000E+00;  1.0000000E+03;  1.0000000E-01;  0.0000000E+00;0;  0.0000000E+00;  0.0000000E+00;  0.0000000E+00;0;  0.0000000E+00;  4.0000000E+04;  0.0000000E+00;  0.0000000E+00;  4.0000000E+04;  0.0000000E+00;  4.0000000E+04;  0.0000000E+00;  0.0000000E+00;  0.0000000E+00;  0.0000000E+00;
 -1.9000000E-01;  9.9999998E-03;  5.0000001E-02;139;  0.0000000E+00;  0.0000000E+00;  0.0000000E+00;  1.0000000E+03;  1.0000000E-01;  0.0000000E+00;0;  0.0000000E+00;  0.0000000E+00;  0.0000000E+00;0;  0.0000000E+00;  4.0000000E+04;  0.0000000E+00;  0.0000000E+00;  4.0000000E+04;  0.0000000E+00;  4.0000000E+04;  0.0000000E+00;  0.0000000E+00;  0.0000000E+00;  0.0000000E+00;
 -1.9000000E-01;  9.9999998E-03;  5.9999999E-02;140;  0.0000000E+00;  0.0000000E+00;  0.0000000E+00;  1.0000000E+03;  1.0000000E-01;  0.0000000E+00;0;  0.0000000E+00;  0.0000000E+00;  0.0000000E+00;0;  0.0000000E+00;  4.0000000E+04;  0.0000000E+00;  0.0000000E+00;  4.0000000E+04;  0.0000000E+00;  4.0000000E+04;  0.0000000E+00;  0.0000000E+00;  0.0000000E+00;  0.0000000E+00;
 -1.8000001E-01;  9.9999998E-03; -1.0000000E-01;215;  0.0000000E+00;  0.0000000E+00;  0.0000000E+00;  1.0000000E+03;  1.0000000E-01;  0.0000000E+00;0;  0.0000000E+00;  0.0000000E+00;  0.0000000E+00;0;  0.0000000E+00;  4.0000000E+04;  0.0000000E+00;  0.0000000E+00;  4.0000000E+04;  0.0000000E+00;  4.0000000E+04;  0.0000000E+00;  0.0000000E+00;  0.0000000E+00;  0.0000000E+00;
 -1.8000001E-01;  9.9999998E-03; -9.0000004E-02;216;  0.0000000E+00;  0.0000000E+00;  0.0000000E+00;  1.0000000E+03;  1.0000000E-01;  0.0000000E+00;0;  0.0000000E+00;  0.0000000E+00;  0.0000000E+00;0;  0.0000000E+00;  4.0000000E+04;  0.0000000E+00;  0.0000000E+00;  4.0000000E+04;  0.0000000E+00;  4.0000000E+04;  0.0000000E+00;  0.0000000E+00;  0.0000000E+00;  0.0000000E+00;
 -1.8000001E-01;  9.9999998E-03; -7.9999998E-02;217;  0.0000000E+00;  0.0000000E+00;  0.0000000E+00;  1.0000000E+03;  1.0000000E-01;  0.0000000E+00;0;  0.0000000E+00;  0.0000000E+00;  0.0000000E+00;0;  0.0000000E+00;  4.0000000E+04;  0.0000000E+00;  0.0000000E+00;  4.0000000E+04;  0.0000000E+00;  4.0000000E+04;  0.0000000E+00;  0.0000000E+00;  0.0000000E+00;  0.0000000E+00;
 -1.8000001E-01;  9.9999998E-03; -7.0000000E-02;218;  0.0000000E+00;  0.0000000E+00;  0.0000000E+00;  1.0000000E+03;  1.0000000E-01;  0.0000000E+00;0;  0.0000000E+00;  0.0000000E+00;  0.0000000E+00;0;  0.0000000E+00;  4.0000000E+04;  0.0000000E+00;  0.0000000E+00;  4.0000000E+04;  0.0000000E+00;  4.0000000E+04;  0.0000000E+00;  0.0000000E+00;  0.0000000E+00;  0.0000000E+00;
 -1.8000001E-01;  9.9999998E-03; -5.9999999E-02;219;  0.0000000E+00;  0.0000000E+00;  0.0000000E+00;  1.0000000E+03;  1.0000000E-01;  0.0000000E+00;0;  0.0000000E+00;  0.0000000E+00;  0.0000000E+00;0;  0.0000000E+00;  4.0000000E+04;  0.0000000E+00;  0.0000000E+00;  4.0000000E+04;  0.0000000E+00;  4.0000000E+04;  0.0000000E+00;  0.0000000E+00;  0.0000000E+00;  0.0000000E+00;
 -1.8000001E-01;  9.9999998E-03; -5.0000001E-02;220;  0.0000000E+00;  0.0000000E+00;  0.0000000E+00;  1.0000000E+03;  1.0000000E-01;  0.0000000E+00;0;  0.0000000E+00;  0.0000000E+00;  0.0000000E+00;0;  0.0000000E+00;  4.0000000E+04;  0.0000000E+00;  0.0000000E+00;  4.0000000E+04;  0.0000000E+00;  4.0000000E+04;  0.0000000E+00;  0.0000000E+00;  0.0000000E+00;  0.0000000E+00;
 -1.8000001E-01;  9.9999998E-03; -3.9999999E-02;221;  0.0000000E+00;  0.0000000E+00;  0.0000000E+00;  1.0000000E+03;  1.0000000E-01;  0.0000000E+00;0;  0.0000000E+00;  0.0000000E+00;  0.0000000E+00;0;  0.0000000E+00;  4.0000000E+04;  0.0000000E+00;  0.0000000E+00;  4.0000000E+04;  0.0000000E+00;  4.0000000E+04;  0.0000000E+00;  0.0000000E+00;  0.0000000E+00;  0.0000000E+00;
 -1.8000001E-01;  9.9999998E-03; -2.9999999E-02;222;  0.0000000E+00;  0.0000000E+00;  0.0000000E+00;  1.0000000E+03;  1.0000000E-01;  0.0000000E+00;0;  0.0000000E+00;  0.0000000E+00;  0.0000000E+00;0;  0.0000000E+00;  4.0000000E+04;  0.0000000E+00;  0.0000000E+00;  4.0000000E+04;  0.0000000E+00;  4.0000000E+04;  0.0000000E+00;  0.0000000E+00;  0.0000000E+00;  0.0000000E+00;
 -1.8000001E-01;  9.9999998E-03; -2.0000000E-02;223;  0.0000000E+00;  0.0000000E+00;  0.0000000E+00;  1.0000000E+03;  1.0000000E-01;  0.0000000E+00;0;  0.0000000E+00;  0.0000000E+00;  0.0000000E+00;0;  0.0000000E+00;  4.0000000E+04;  0.0000000E+00;  0.0000000E+00;  4.0000000E+04;  0.0000000E+00;  4.0000000E+04;  0.0000000E+00;  0.0000000E+00;  0.0000000E+00;  0.0000000E+00;
 -1.8000001E-01;  9.9999998E-03; -9.9999998E-03;224;  0.0000000E+00;  0.0000000E+00;  0.0000000E+00;  1.0000000E+03;  1.0000000E-01;  0.0000000E+00;0;  0.0000000E+00;  0.0000000E+00;  0.0000000E+00;0;  0.0000000E+00;  4.0000000E+04;  0.0000000E+00;  0.0000000E+00;  4.0000000E+04;  0.0000000E+00;  4.0000000E+04;  0.0000000E+00;  0.0000000E+00;  0.0000000E+00;  0.0000000E+00;
 -1.8000001E-01;  9.9999998E-03;  0.0000000E+00;225;  0.0000000E+00;  0.0000000E+00;  0.0000000E+00;  1.0000000E+03;  1.0000000E-01;  0.0000000E+00;0;  0.0000000E+00;  0.0000000E+00;  0.0000000E+00;0;  0.0000000E+00;  4.0000000E+04;  0.0000000E+00;  0.0000000E+00;  4.0000000E+04;  0.0000000E+00;  4.0000000E+04;  0.0000000E+00;  0.0000000E+00;  0.0000000E+00;  0.0000000E+00;
 -1.8000001E-01;  9.9999998E-03;  9.9999998E-03;226;  0.0000000E+00;  0.0000000E+00;  0.0000000E+00;  1.0000000E+03;  1.0000000E-01;  0.0000000E+00;0;  0.0000000E+00;  0.0000000E+00;  0.0000000E+00;0;  0.0000000E+00;  4.0000000E+04;  0.0000000E+00;  0.0000000E+00;  4.0000000E+04;  0.0000000E+00;  4.0000000E+04;  0.0000000E+00;  0.0000000E+00;  0.0000000E+00;  0.0000000E+00;
 -1.8000001E-01;  9.9999998E-03;  2.0000000E-02;227;  0.0000000E+00;  0.0000000E+00;  0.0000000E+00;  1.0000000E+03;  1.0000000E-01;  0.0000000E+00;0;  0.0000000E+00;  0.0000000E+00;  0.0000000E+00;0;  0.0000000E+00;  4.0000000E+04;  0.0000000E+00;  0.0000000E+00;  4.0000000E+04;  0.0000000E+00;  4.0000000E+04;  0.0000000E+00;  0.0000000E+00;  0.0000000E+00;  0.0000000E+00;
 -1.8000001E-01;  9.9999998E-03;  2.9999999E-02;228;  0.0000000E+00;  0.0000000E+00;  0.0000000E+00;  1.0000000E+03;  1.0000000E-01;  0.0000000E+00;0;  0.0000000E+00;  0.0000000E+00;  0.0000000E+00;0;  0.0000000E+00;  4.0000000E+04;  0.0000000E+00;  0.0000000E+00;  4.0000000E+04;  0.0000000E+00;  4.0000000E+04;  0.0000000E+00;  0.0000000E+00;  0.0000000E+00;  0.0000000E+00;
 -1.8000001E-01;  9.9999998E-03;  3.9999999E-02;229;  0.0000000E+00;  0.0000000E+00;  0.0000000E+00;  1.0000000E+03;  1.0000000E-01;  0.0000000E+00;0;  0.0000000E+00;  0.0000000E+00;  0.0000000E+00;0;  0.0000000E+00;  4.0000000E+04;  0.0000000E+00;  0.0000000E+00;  4.0000000E+04;  0.0000000E+00;  4.0000000E+04;  0.0000000E+00;  0.0000000E+00;  0.0000000E+00;  0.0000000E+00;
 -1.8000001E-01;  9.9999998E-03;  5.0000001E-02;230;  0.0000000E+00;  0.0000000E+00;  0.0000000E+00;  1.0000000E+03;  1.0000000E-01;  0.0000000E+00;0;  0.0000000E+00;  0.0000000E+00;  0.0000000E+00;0;  0.0000000E+00;  4.0000000E+04;  0.0000000E+00;  0.0000000E+00;  4.0000000E+04;  0.0000000E+00;  4.0000000E+04;  0.0000000E+00;  0.0000000E+00;  0.0000000E+00;  0.0000000E+00;
 -1.8000001E-01;  9.9999998E-03;  5.9999999E-02;231;  0.0000000E+00;  0.0000000E+00;  0.0000000E+00;  1.0000000E+03;  1.0000000E-01;  0.0000000E+00;0;  0.0000000E+00;  0.0000000E+00;  0.0000000E+00;0;  0.0000000E+00;  4.0000000E+04;  0.0000000E+00;  0.0000000E+00;  4.0000000E+04;  0.0000000E+00;  4.0000000E+04;  0.0000000E+00;  0.0000000E+00;  0.0000000E+00;  0.0000000E+00;
 -1.7000000E-01;  9.9999998E-03; -1.0000000E-01;306;  0.0000000E+00;  0.0000000E+00;  0.0000000E+00;  1.0000000E+03;  1.0000000E-01;  0.0000000E+00;0;  0.0000000E+00;  0.0000000E+00;  0.0000000E+00;0;  0.0000000E+00;  4.0000000E+04;  0.0000000E+00;  0.0000000E+00;  4.0000000E+04;  0.0000000E+00;  4.0000000E+04;  0.0000000E+00;  0.0000000E+00;  0.0000000E+00;  1.9801023E-09;
 -1.7000000E-01;  9.9999998E-03; -9.0000004E-02;307;  0.0000000E+00;  0.0000000E+00;  0.0000000E+00;  1.0000000E+03;  1.0000000E-01;  0.0000000E+00;0;  0.0000000E+00;  0.0000000E+00;  0.0000000E+00;0;  0.0000000E+00;  4.0000000E+04;  0.0000000E+00;  0.0000000E+00;  4.0000000E+04;  0.0000000E+00;  4.0000000E+04;  0.0000000E+00;  0.0000000E+00;  0.0000000E+00;  1.9974504E-09;
 -1.7000000E-01;  9.9999998E-03; -7.9999998E-02;308;  0.0000000E+00;  0.0000000E+00;  0.0000000E+00;  1.0000000E+03;  1.0000000E-01;  0.0000000E+00;0;  0.0000000E+00;  0.0000000E+00;  0.0000000E+00;0;  0.0000000E+00;  4.0000000E+04;  0.0000000E+00;  0.0000000E+00;  4.0000000E+04;  0.0000000E+00;  4.0000000E+04;  0.0000000E+00;  0.0000000E+00;  0.0000000E+00;  2.0288866E-09;
 -1.7000000E-01;  9.9999998E-03; -7.0000000E-02;309;  0.0000000E+00;  0.0000000E+00;  0.0000000E+00;  1.0000000E+03;  1.0000000E-01;  0.0000000E+00;0;  0.0000000E+00;  0.0000000E+00;  0.0000000E+00;0;  0.0000000E+00;  4.0000000E+04;  0.0000000E+00;  0.0000000E+00;  4.0000000E+04;  0.0000000E+00;  4.0000000E+04;  0.0000000E+00;  0.0000000E+00;  0.0000000E+00;  2.0664868E-09;
 -1.7000000E-01;  9.9999998E-03; -5.9999999E-02;310;  0.0000000E+00;  0.0000000E+00;  0.0000000E+00;  1.0000000E+03;  1.0000000E-01;  0.0000000E+00;0;  0.0000000E+00;  0.0000000E+00;  0.0000000E+00;0;  0.0000000E+00;  4.0000000E+04;  0.0000000E+00;  0.0000000E+00;  4.0000000E+04;  0.0000000E+00;  4.0000000E+04;  0.0000000E+00;  0.0000000E+00;  0.0000000E+00;  2.0963358E-09;
 -1.7000000E-01;  9.9999998E-03; -5.0000001E-02;311;  0.0000000E+00;  0.0000000E+00;  0.0000000E+00;  1.0000000E+03;  1.0000000E-01;  0.0000000E+00;0;  0.0000000E+00;  0.0000000E+00;  0.0000000E+00;0;  0.0000000E+00;  4.0000000E+04;  0.0000000E+00;  0.0000000E+00;  4.0000000E+04;  0.0000000E+00;  4.0000000E+04;  0.0000000E+00;  0.0000000E+00;  0.0000000E+00;  2.0985100E-09;
 -1.7000000E-01;  9.9999998E-03; -3.9999999E-02;312;  0.0000000E+00;  0.0000000E+00;  0.0000000E+00;  1.0000000E+03;  1.0000000E-01;  0.0000000E+00;0;  0.0000000E+00;  0.0000000E+00;  0.0000000E+00;0;  0.0000000E+00;  4.0000000E+04;  0.0000000E+00;  0.0000000E+00;  4.0000000E+04;  0.0000000E+00;  4.0000000E+04;  0.0000000E+00;  0.0000000E+00;  0.0000000E+00;  2.0709305E-09;
 -1.7000000E-01;  9.9999998E-03; -2.9999999E-02;313;  0.0000000E+00;  0.0000000E+00;  0.0000000E+00;  1.0000000E+03;  1.0000000E-01;  0.0000000E+00;0;  0.0000000E+00;  0.0000000E+00;  0.0000000E+00;0;  0.0000000E+00;  4.0000000E+04;  0.0000000E+00;  0.0000000E+00;  4.0000000E+04;  0.0000000E+00;  4.0000000E+04;  0.0000000E+00;  0.0000000E+00;  0.0000000E+00;  2.0022204E-09;
 -1.7000000E-01;  9.9999998E-03; -2.0000000E-02;314;  0.0000000E+00;  0.0000000E+00;  0.0000000E+00;  1.0000000E+03;  1.0000000E-01;  0.0000000E+00;0;  0.0000000E+00;  0.0000000E+00;  0.0000000E+00;0;  0.0000000E+00;  4.0000000E+04;  0.0000000E+00;  0.0000000E+00;  4.0000000E+04;  0.0000000E+00;  4.0000000E+04;  0.0000000E+00;  0.0000000E+00;  0.0000000E+00;  1.8807096E-09;
 -1.7000000E-01;  9.9999998E-03; -9.9999998E-03;315;  0.0000000E+00;  0.0000000E+00;  0.0000000E+00;  1.0000000E+03;  1.0000000E-01;  0.0000000E+00;0;  0.0000000E+00;  0.0000000E+00;  0.0000000E+00;0;  0.0000000E+00;  4.0000000E+04;  0.0000000E+00;  0.0000000E+00;  4.0000000E+04;  0.0000000E+00;  4.0000000E+04;  0.0000000E+00;  0.0000000E+00;  0.0000000E+00;  1.7538491E-09;
 -1.7000000E-01;  9.9999998E-03;  0.0000000E+00;316;  0.0000000E+00;  0.0000000E+00;  0.0000000E+00;  1.0000000E+03;  1.0000000E-01;  0.0000000E+00;0;  0.0000000E+00;  0.0000000E+00;  0.0000000E+00;0;  0.0000000E+00;  4.0000000E+04;  0.0000000E+00;  0.0000000E+00;  4.0000000E+04;  0.0000000E+00;  4.0000000E+04;  0.0000000E+00;  0.0000000E+00;  0.0000000E+00;  1.6940426E-09;
 -1.7000000E-01;  9.9999998E-03;  9.9999998E-03;317;  0.0000000E+00;  0.0000000E+00;  0.0000000E+00;  1.0000000E+03;  1.0000000E-01;  0.0000000E+00;0;  0.0000000E+00;  0.0000000E+00;  0.0000000E+00;0;  0.0000000E+00;  4.0000000E+04;  0.0000000E+00;  0.0000000E+00;  4.0000000E+04;  0.0000000E+00;  4.0000000E+04;  0.0000000E+00;  0.0000000E+00;  0.0000000E+00;  1.7541210E-09;
 -1.7000000E-01;  9.9999998E-03;  2.0000000E-02;318;  0.0000000E+00;  0.0000000E+00;  0.0000000E+00;  1.0000000E+03;  1.0000000E-01;  0.0000000E+00;0;  0.0000000E+00;  0.0000000E+00;  0.0000000E+00;0;  0.0000000E+00;  4.0000000E+04;  0.0000000E+00;  0.0000000E+00;  4.0000000E+04;  0.0000000E+00;  4.0000000E+04;  0.0000000E+00;  0.0000000E+00;  0.0000000E+00;  1.8806892E-09;
 -1.7000000E-01;  9.9999998E-03;  2.9999999E-02;319;  0.0000000E+00;  0.0000000E+00;  0.0000000E+00;  1.0000000E+03;  1.0000000E-01;  0.0000000E+00;0;  0.0000000E+00;  0.0000000E+00;  0.0000000E+00;0;  0.0000000E+00;  4.0000000E+04;  0.0000000E+00;  0.0000000E+00;  4.0000000E+04;  0.0000000E+00;  4.0000000E+04;  0.0000000E+00;  0.0000000E+00;  0.0000000E+00;  2.0024555E-09;
 -1.7000000E-01;  9.9999998E-03;  3.9999999E-02;320;  0.0000000E+00;  0.0000000E+00;  0.0000000E+00;  1.0000000E+03;  1.0000000E-01;  0.0000000E+00;0;  0.0000000E+00;  0.0000000E+00;  0.0000000E+00;0;  0.0000000E+00;  4.0000000E+04;  0.0000000E+00;  0.0000000E+00;  4.0000000E+04;  0.0000000E+00;  4.0000000E+04;  0.0000000E+00;  0.0000000E+00;  0.0000000E+00;  2.0701814E-09;
 -1.7000000E-01;  9.9999998E-03;  5.0000001E-02;321;  0.0000000E+00;  0.0000000E+00;  0.0000000E+00;  1.0000000E+03;  1.0000000E-01;  0.0000000E+00;0;  0.0000000E+00;  0.0000000E+00;  0.0000000E+00;0;  0.0000000E+00;  4.0000000E+04;  0.0000000E+00;  0.0000000E+00;  4.0000000E+04;  0.0000000E+00;  4.0000000E+04;  0.0000000E+00;  0.0000000E+00;  0.0000000E+00;  2.0988598E-09;
 -1.7000000E-01;  9.9999998E-03;  5.9999999E-02;322;  0.0000000E+00;  0.0000000E+00;  0.0000000E+00;  1.0000000E+03;  1.0000000E-01;  0.0000000E+00;0;  0.0000000E+00;  0.0000000E+00;  0.0000000E+00;0;  0.0000000E+00;  4.0000000E+04;  0.0000000E+00;  0.0000000E+00;  4.0000000E+04;  0.0000000E+00;  4.0000000E+04;  0.0000000E+00;  0.0000000E+00;  0.0000000E+00;  2.0959194E-09;
 -1.6000000E-01;  9.9999998E-03; -1.0000000E-01;397;  0.0000000E+00;  0.0000000E+00;  0.0000000E+00;  1.0000000E+03;  1.0000000E-01;  0.0000000E+00;0;  0.0000000E+00;  0.0000000E+00;  0.0000000E+00;0;  2.9631167E-07;  4.0000000E+04;  0.0000000E+00;  0.0000000E+00;  4.0000000E+04;  0.0000000E+00;  4.0000000E+04;  2.9663587E-07;  0.0000000E+00; -3.2421896E-10;  2.6114777E-01;
 -1.6000000E-01;  9.9999998E-03; -9.0000004E-02;398;  0.0000000E+00;  0.0000000E+00;  0.0000000E+00;  1.0000000E+03;  1.0000000E-01;  0.0000000E+00;0;  0.0000000E+00;  0.0000000E+00;  0.0000000E+00;0;  3.0425522E-07;  4.0000000E+04;  0.0000000E+00;  0.0000000E+00;  4.0000000E+04;  0.0000000E+00;  4.0000000E+04;  3.0473655E-07;  0.0000000E+00; -4.8130810E-10;  2.5866097E-01;
 -1.6000000E-01;  9.9999998E-03; -7.9999998E-02;399;  0.0000000E+00;  0.0000000E+00;  0.0000000E+00;  1.0000000E+03;  1.0000000E-01;  0.0000000E+00;0;  0.0000000E+00;  0.0000000E+00;  0.0000000E+00;0;  3.0776499E-07;  4.0000000E+04;  0.0000000E+00;  0.0000000E+00;  4.0000000E+04;  0.0000000E+00;  4.0000000E+04;  3.0832183E-07;  0.0000000E+00; -5.5684679E-10;  2.5742641E-01;
 -1.6000000E-01;  9.9999998E-03; -7.0000000E-02;400;  0.0000000E+00;  0.0000000E+00;  0.0000000E+00;  1.0000000E+03;  1.0000000E-01;  0.0000000E+00;0;  0.0000000E+00;  0.0000000E+00;  0.0000000E+00;0;  3.0756058E-07;  4.0000000E+04;  0.0000000E+00;  0.0000000E+00;  4.0000000E+04;  0.0000000E+00;  4.0000000E+04;  3.0810520E-07;  0.0000000E+00; -5.4462701E-10;  2.5712344E-01;
 -1.6000000E-01;  9.9999998E-03; -5.9999999E-02;401;  0.0000000E+00;  0.0000000E+00;  0.0000000E+00;  1.0000000E+03;  1.0000000E-01;  0.0000000E+00;0;  0.0000000E+00;  0.0000000E+00;  0.0000000E+00;0;  3.0471665E-07;  4.0000000E+04;  0.0000000E+00;  0.0000000E+00;  4.0000000E+04;  0.0000000E+00;  4.0000000E+04;  3.0515560E-07;  0.0000000E+00; -4.3895479E-10;  2.5732869E-01;
 -1.6000000E-01;  9.9999998E-03; -5.0000001E-02;402;  0.0000000E+00;  0.0000000E+00;  0.0000000E+00;  1.0000000E+03;  1.0000000E-01;  0.0000000E+00;0;  0.0000000E+00;  0.0000000E+00;  0.0000000E+00;0;  3.0041005E-07;  4.0000000E+04;  0.0000000E+00;  0.0000000E+00;  4.0000000E+04;  0.0000000E+00;  4.0000000E+04;  3.0065095E-07;  0.0000000E+00; -2.4090865E-10;  2.5766036E-01;
 -1.6000000E-01;  9.9999998E-03; -3.9999999E-02;403;  0.0000000E+00;  0.0000000E+00;  0.0000000E+00;  1.0000000E+03;  1.0000000E-01;  0.0000000E+00;0;  0.0000000E+00;  0.0000000E+00;  0.0000000E+00;0;  2.9570234E-07;  4.0000000E+04;  0.0000000E+00;  0.0000000E+00;  4.0000000E+04;  0.0000000E+00;  4.0000000E+04;  2.9566914E-07;  0.0000000E+00;  3.3190391E-11;  2.5786516E-01;
 -1.6000000E-01;  9.9999998E-03; -2.9999999E-02;404;  0.0000000E+00;  0.0000000E+00;  0.0000000E+00;  1.0000000E+03;  1.0000000E-01;  0.0000000E+00;0;  0.0000000E+00;  0.0000000E+00;  0.0000000E+00;0;  2.9141620E-07;  4.0000000E+04;  0.0000000E+00;  0.0000000E+00;  4.0000000E+04;  0.0000000E+00;  4.0000000E+04;  2.9107022E-07;  0.0000000E+00;  3.4597394E-10;  2.5785023E-01;
 -1.6000000E-01;  9.9999998E-03; -2.0000000E-02;405;  0.0000000E+00;  0.0000000E+00;  0.0000000E+00;  1.0000000E+03;  1.0000000E-01;  0.0000000E+00;0;  0.0000000E+00;  0.0000000E+00;  0.0000000E+00;0;  2.8808907E-07;  4.0000000E+04;  0.0000000E+00;  0.0000000E+00;  4.0000000E+04;  0.0000000E+00;  4.0000000E+04;  2.8744859E-07;  0.0000000E+00;  6.4049704E-10;  2.5767136E-01;
 -1.6000000E-01;  9.9999998E-03; -9.9999998E-03;406;  0.0000000E+00;  0.0000000E+00;  0.0000000E+00;  1.0000000E+03;  1.0000000E-01;  0.0000000E+00;0;  0.0000000E+00;  0.0000000E+00;  0.0000000E+00;0;  2.8601227E-07;  4.0000000E+04;  0.0000000E+00;  0.0000000E+00;  4.0000000E+04;  0.0000000E+00;  4.0000000E+04;  2.8516018E-07;  0.0000000E+00;  8.5209423E-10;  2.5746614E-01;
 -1.6000000E-01;  9.9999998E-03;  0.0000000E+00;407;  0.0000000E+00;  0.0000000E+00;  0.0000000E+00;  1.0000000E+03;  1.0000000E-01;  0.0000000E+00;0;  0.0000000E+00;  0.0000000E+00;  0.0000000E+00;0;  2.8530928E-07;  4.0000000E+04;  0.0000000E+00;  0.0000000E+00;  4.0000000E+04;  0.0000000E+00;  4.0000000E+04;  2.8438012E-07;  0.0000000E+00;  9.2916352E-10;  2.5737950E-01;
 -1.6000000E-01;  9.9999998E-03;  9.9999998E-03;408;  0.0000000E+00;  0.0000000E+00;  0.0000000E+00;  1.0000000E+03;  1.0000000E-01;  0.0000000E+00;0;  0.0000000E+00;  0.0000000E+00;  0.0000000E+00;0;  2.8601198E-07;  4.0000000E+04;  0.0000000E+00;  0.0000000E+00;  4.0000000E+04;  0.0000000E+00;  4.0000000E+04;  2.8515990E-07;  0.0000000E+00;  8.5208052E-10;  2.5746596E-01;
 -1.6000000E-01;  9.9999998E-03;  2.0000000E-02;409;  0.0000000E+00;  0.0000000E+00;  0.0000000E+00;  1.0000000E+03;  1.0000000E-01;  0.0000000E+00;0;  0.0000000E+00;  0.0000000E+00;  0.0000000E+00;0;  2.8808901E-07;  4.0000000E+04;  0.0000000E+00;  0.0000000E+00;  4.0000000E+04;  0.0000000E+00;  4.0000000E+04;  2.8744853E-07;  0.0000000E+00;  6.4048783E-10;  2.5767124E-01;
 -1.6000000E-01;  9.9999998E-03;  2.9999999E-02;410;  0.0000000E+00;  0.0000000E+00;  0.0000000E+00;  1.0000000E+03;  1.0000000E-01;  0.0000000E+00;0;  0.0000000E+00;  0.0000000E+00;  0.0000000E+00;0;  2.9141646E-07;  4.0000000E+04;  0.0000000E+00;  0.0000000E+00;  4.0000000E+04;  0.0000000E+00;  4.0000000E+04;  2.9107048E-07;  0.0000000E+00;  3.4598296E-10;  2.5785011E-01;
 -1.6000000E-01;  9.9999998E-03;  3.9999999E-02;411;  0.0000000E+00;  0.0000000E+00;  0.0000000E+00;  1.0000000E+03;  1.0000000E-01;  0.0000000E+00;0;  0.0000000E+00;  0.0000000E+00;  0.0000000E+00;0;  2.9570276E-07;  4.0000000E+04;  0.0000000E+00;  0.0000000E+00;  4.0000000E+04;  0.0000000E+00;  4.0000000E+04;  2.9566957E-07;  0.0000000E+00;  3.3204259E-11;  2.5786504E-01;
 -1.6000000E-01;  9.9999998E-03;  5.0000001E-02;412;  0.0000000E+00;  0.0000000E+00;  0.0000000E+00;  1.0000000E+03;  1.0000000E-01;  0.0000000E+00;0;  0.0000000E+00;  0.0000000E+00;  0.0000000E+00;0;  3.0041028E-07;  4.0000000E+04;  0.0000000E+00;  0.0000000E+00;  4.0000000E+04;  0.0000000E+00;  4.0000000E+04;  3.0065118E-07;  0.0000000E+00; -2.4090860E-10;  2.5766015E-01;
 -1.6000000E-01;  9.9999998E-03;  5.9999999E-02;413;  0.0000000E+00;  0.0000000E+00;  0.0000000E+00;  1.0000000E+03;  1.0000000E-01;  0.0000000E+00;0;  0.0000000E+00;  0.0000000E+00;  0.0000000E+00;0;  3.0471639E-07;  4.0000000E+04;  0.0000000E+00;  0.0000000E+00;  4.0000000E+04;  0.0000000E+00;  4.0000000E+04;  3.0515537E-07;  0.0000000E+00; -4.3896739E-10;  2.5732857E-01;
 -1.5000001E-01;  9.9999998E-03; -1.0000000E-01;488;  0.0000000E+00;  0.0000000E+00;  0.0000000E+00;  1.0000000E+03;  1.0000000E-01;  0.0000000E+00;0;  0.0000000E+00;  0.0000000E+00;  0.0000000E+00;0;  7.1701184E-06;  4.0000000E+04;  0.0000000E+00;  0.0000000E+00;  4.0000000E+04;  0.0000000E+00;  4.0000000E+04;  7.1843938E-06;  0.0000000E+00; -1.4275207E-08;  3.7980175E+00;
 -1.5000001E-01;  9.9999998E-03; -9.0000004E-02;489;  0.0000000E+00;  0.0000000E+00;  0.0000000E+00;  1.0000000E+03;  1.0000000E-01;  0.0000000E+00;0;  0.0000000E+00;  0.0000000E+00;  0.0000000E+00;0;  7.3551191E-06;  4.0000000E+04;  0.0000000E+00;  0.0000000E+00;  4.0000000E+04;  0.0000000E+00;  4.0000000E+04;  7.3795600E-06;  0.0000000E+00; -2.4440638E-08;  3.7733026E+00;
 -1.5000001E-01;  9.9999998E-03; -7.9999998E-02;490;  0.0000000E+00;  0.0000000E+00;  0.0000000E+00;  1.0000000E+03;  1.0000000E-01;  0.0000000E+00;0;  0.0000000E+00;  0.0000000E+00;  0.0000000E+00;0;  7.4476861E-06;  4.0000000E+04;  0.0000000E+00;  0.0000000E+00;  4.0000000E+04;  0.0000000E+00;  4.0000000E+04;  7.4765967E-06;  0.0000000E+00; -2.8910373E-08;  3.7712557E+00;
 -1.5000001E-01;  9.9999998E-03; -7.0000000E-02;491;  0.0000000E+00;  0.0000000E+00;  0.0000000E+00;  1.0000000E+03;  1.0000000E-01;  0.0000000E+00;0;  0.0000000E+00;  0.0000000E+00;  0.0000000E+00;0;  7.4588488E-06;  4.0000000E+04;  0.0000000E+00;  0.0000000E+00;  4.0000000E+04;  0.0000000E+00;  4.0000000E+04;  7.4864674E-06;  0.0000000E+00; -2.7618752E-08;  3.7860329E+00;
 -1.5000001E-01;  9.9999998E-03; -5.9999999E-02;492;  0.0000000E+00;  0.0000000E+00;  0.0000000E+00;  1.0000000E+03;  1.0000000E-01;  0.0000000E+00;0;  0.0000000E+00;  0.0000000E+00;  0.0000000E+00;0;  7.4084242E-06;  4.0000000E+04;  0.0000000E+00;  0.0000000E+00;  4.0000000E+04;  0.0000000E+00;  4.0000000E+04;  7.4292457E-06;  0.0000000E+00; -2.0821428E-08;  3.8089070E+00;
 -1.5000001E-01;  9.9999998E-03; -5.0000001E-02;493;  0.0000000E+00;  0.0000000E+00;  0.0000000E+00;  1.0000000E+03;  1.0000000E-01;  0.0000000E+00;0;  0.0000000E+00;  0.0000000E+00;  0.0000000E+00;0;  7.3200808E-06;  4.0000000E+04;  0.0000000E+00;  0.0000000E+00;  4.0000000E+04;  0.0000000E+00;  4.0000000E+04;  7.3293895E-06;  0.0000000E+00; -9.3087733E-09;  3.8314700E+00;
 -1.5000001E-01;  9.9999998E-03; -3.9999999E-02;494;  0.0000000E+00;  0.0000000E+00;  0.0000000E+00;  1.0000000E+03;  1.0000000E-01;  0.0000000E+00;0;  0.0000000E+00;  0.0000000E+00;  0.0000000E+00;0;  7.2169269E-06;  4.0000000E+04;  0.0000000E+00;  0.0000000E+00;  4.0000000E+04;  0.0000000E+00;  4.0000000E+04;  7.2115208E-06;  0.0000000E+00;  5.4061409E-09;  3.8481576E+00;
 -1.5000001E-01;  9.9999998E-03; -2.9999999E-02;495;  0.0000000E+00;  0.0000000E+00;  0.0000000E+00;  1.0000000E+03;  1.0000000E-01;  0.0000000E+00;0;  0.0000000E+00;  0.0000000E+00;  0.0000000E+00;0;  7.1184345E-06;  4.0000000E+04;  0.0000000E+00;  0.0000000E+00;  4.0000000E+04;  0.0000000E+00;  4.0000000E+04;  7.0973460E-06;  0.0000000E+00;  2.1088482E-08;  3.8572614E+00;
 -1.5000001E-01;  9.9999998E-03; -2.0000000E-02;496;  0.0000000E+00;  0.0000000E+00;  0.0000000E+00;  1.0000000E+03;  1.0000000E-01;  0.0000000E+00;0;  0.0000000E+00;  0.0000000E+00;  0.0000000E+00;0;  7.0390706E-06;  4.0000000E+04;  0.0000000E+00;  0.0000000E+00;  4.0000000E+04;  0.0000000E+00;  4.0000000E+04;  7.0040096E-06;  0.0000000E+00;  3.5061220E-08;  3.8602021E+00;
 -1.5000001E-01;  9.9999998E-03; -9.9999998E-03;497;  0.0000000E+00;  0.0000000E+00;  0.0000000E+00;  1.0000000E+03;  1.0000000E-01;  0.0000000E+00;0;  0.0000000E+00;  0.0000000E+00;  0.0000000E+00;0;  6.9881339E-06;  4.0000000E+04;  0.0000000E+00;  0.0000000E+00;  4.0000000E+04;  0.0000000E+00;  4.0000000E+04;  6.9434091E-06;  0.0000000E+00;  4.4724985E-08;  3.8600750E+00;
 -1.5000001E-01;  9.9999998E-03;  0.0000000E+00;498;  0.0000000E+00;  0.0000000E+00;  0.0000000E+00;  1.0000000E+03;  1.0000000E-01;  0.0000000E+00;0;  0.0000000E+00;  0.0000000E+00;  0.0000000E+00;0;  6.9706525E-06;  4.0000000E+04;  0.0000000E+00;  0.0000000E+00;  4.0000000E+04;  0.0000000E+00;  4.0000000E+04;  6.9224734E-06;  0.0000000E+00;  4.8178958E-08;  3.8596604E+00;
 -1.5000001E-01;  9.9999998E-03;  9.9999998E-03;499;  0.0000000E+00;  0.0000000E+00;  0.0000000E+00;  1.0000000E+03;  1.0000000E-01;  0.0000000E+00;0;  0.0000000E+00;  0.0000000E+00;  0.0000000E+00;0;  6.9881403E-06;  4.0000000E+04;  0.0000000E+00;  0.0000000E+00;  4.0000000E+04;  0.0000000E+00;  4.0000000E+04;  6.9434154E-06;  0.0000000E+00;  4.4724988E-08;  3.8600764E+00;
 -1.5000001E-01;  9.9999998E-03;  2.0000000E-02;500;  0.0000000E+00;  0.0000000E+00;  0.0000000E+00;  1.0000000E+03;  1.0000000E-01;  0.0000000E+00;0;  0.0000000E+00;  0.0000000E+00;  0.0000000E+00;0;  7.0390738E-06;  4.0000000E+04;  0.0000000E+00;  0.0000000E+00;  4.0000000E+04;  0.0000000E+00;  4.0000000E+04;  7.0040128E-06;  0.0000000E+00;  3.5061198E-08;  3.8602033E+00;
 -1.5000001E-01;  9.9999998E-03;  2.9999999E-02;501;  0.0000000E+00;  0.0000000E+00;  0.0000000E+00;  1.0000000E+03;  1.0000000E-01;  0.0000000E+00;0;  0.0000000E+00;  0.0000000E+00;  0.0000000E+00;0;  7.1184372E-06;  4.0000000E+04;  0.0000000E+00;  0.0000000E+00;  4.0000000E+04;  0.0000000E+00;  4.0000000E+04;  7.0973488E-06;  0.0000000E+00;  2.1088391E-08;  3.8572626E+00;
 -1.5000001E-01;  9.9999998E-03;  3.9999999E-02;502;  0.0000000E+00;  0.0000000E+00;  0.0000000E+00;  1.0000000E+03;  1.0000000E-01;  0.0000000E+00;0;  0.0000000E+00;  0.0000000E+00;  0.0000000E+00;0;  7.2169269E-06;  4.0000000E+04;  0.0000000E+00;  0.0000000E+00;  4.0000000E+04;  0.0000000E+00;  4.0000000E+04;  7.2115208E-06;  0.0000000E+00;  5.4060458E-09;  3.8481562E+00;
 -1.5000001E-01;  9.9999998E-03;  5.0000001E-02;503;  0.0000000E+00;  0.0000000E+00;  0.0000000E+00;  1.0000000E+03;  1.0000000E-01;  0.0000000E+00;0;  0.0000000E+00;  0.0000000E+00;  0.0000000E+00;0;  7.3200767E-06;  4.0000000E+04;  0.0000000E+00;  0.0000000E+00;  4.0000000E+04;  0.0000000E+00;  4.0000000E+04;  7.3293854E-06;  0.0000000E+00; -9.3087360E-09;  3.8314691E+00;
 -1.5000001E-01;  9.9999998E-03;  5.9999999E-02;504;  0.0000000E+00;  0.0000000E+00;  0.0000000E+00;  1.0000000E+03;  1.0000000E-01;  0.0000000E+00;0;  0.0000000E+00;  0.0000000E+00;  0.0000000E+00;0;  7.4084137E-06;  4.0000000E+04;  0.0000000E+00;  0.0000000E+00;  4.0000000E+04;  0.0000000E+00;  4.0000000E+04;  7.4292348E-06;  0.0000000E+00; -2.0821142E-08;  3.8089063E+00;
 -1.4000000E-01;  9.9999998E-03; -1.0000000E-01;579;  0.0000000E+00;  0.0000000E+00;  0.0000000E+00;  1.0000000E+03;  1.0000000E-01;  0.0000000E+00;0;  0.0000000E+00;  0.0000000E+00;  0.0000000E+00;0;  3.0871346E-05;  4.0000000E+04;  0.0000000E+00;  0.0000000E+00;  4.0000000E+04;  0.0000000E+00;  4.0000000E+04;  3.0939402E-05;  0.0000000E+00; -6.8055421E-08;  1.6907169E+01;
 -1.4000000E-01;  9.9999998E-03; -9.0000004E-02;580;  0.0000000E+00;  0.0000000E+00;  0.0000000E+00;  1.0000000E+03;  1.0000000E-01;  0.0000000E+00;0;  0.0000000E+00;  0.0000000E+00;  0.0000000E+00;0;  3.1750165E-05;  4.0000000E+04;  0.0000000E+00;  0.0000000E+00;  4.0000000E+04;  0.0000000E+00;  4.0000000E+04;  3.1897271E-05;  0.0000000E+00; -1.4710406E-07;  1.6854820E+01;
 -1.4000000E-01;  9.9999998E-03; -7.9999998E-02;581;  0.0000000E+00;  0.0000000E+00;  0.0000000E+00;  1.0000000E+03;  1.0000000E-01;  0.0000000E+00;0;  0.0000000E+00;  0.0000000E+00;  0.0000000E+00;0;  3.2259060E-05;  4.0000000E+04;  0.0000000E+00;  0.0000000E+00;  4.0000000E+04;  0.0000000E+00;  4.0000000E+04;  3.2441330E-05;  0.0000000E+00; -1.8227090E-07;  1.6905182E+01;
 -1.4000000E-01;  9.9999998E-03; -7.0000000E-02;582;  0.0000000E+00;  0.0000000E+00;  0.0000000E+00;  1.0000000E+03;  1.0000000E-01;  0.0000000E+00;0;  0.0000000E+00;  0.0000000E+00;  0.0000000E+00;0;  3.2426266E-05;  4.0000000E+04;  0.0000000E+00;  0.0000000E+00;  4.0000000E+04;  0.0000000E+00;  4.0000000E+04;  3.2599859E-05;  0.0000000E+00; -1.7359376E-07;  1.7033037E+01;
 -1.4000000E-01;  9.9999998E-03; -5.9999999E-02;583;  0.0000000E+00;  0.0000000E+00;  0.0000000E+00;  1.0000000E+03;  1.0000000E-01;  0.0000000E+00;0;  0.0000000E+00;  0.0000000E+00;  0.0000000E+00;0;  3.2319844E-05;  4.0000000E+04;  0.0000000E+00;  0.0000000E+00;  4.0000000E+04;  0.0000000E+00;  4.0000000E+04;  3.2444885E-05;  0.0000000E+00; -1.2504061E-07;  1.7200815E+01;
 -1.4000000E-01;  9.9999998E-03; -5.0000001E-02;584;  0.0000000E+00;  0.0000000E+00;  0.0000000E+00;  1.0000000E+03;  1.0000000E-01;  0.0000000E+00;0;  0.0000000E+00;  0.0000000E+00;  0.0000000E+00;0;  3.2029453E-05;  4.0000000E+04;  0.0000000E+00;  0.0000000E+00;  4.0000000E+04;  0.0000000E+00;  4.0000000E+04;  3.2074306E-05;  0.0000000E+00; -4.4852218E-08;  1.7370075E+01;
 -1.4000000E-01;  9.9999998E-03; -3.9999999E-02;585;  0.0000000E+00;  0.0000000E+00;  0.0000000E+00;  1.0000000E+03;  1.0000000E-01;  0.0000000E+00;0;  0.0000000E+00;  0.0000000E+00;  0.0000000E+00;0;  3.1648971E-05;  4.0000000E+04;  0.0000000E+00;  0.0000000E+00;  4.0000000E+04;  0.0000000E+00;  4.0000000E+04;  3.1594467E-05;  0.0000000E+00;  5.4505712E-08;  1.7511349E+01;
 -1.4000000E-01;  9.9999998E-03; -2.9999999E-02;586;  0.0000000E+00;  0.0000000E+00;  0.0000000E+00;  1.0000000E+03;  1.0000000E-01;  0.0000000E+00;0;  0.0000000E+00;  0.0000000E+00;  0.0000000E+00;0;  3.1263389E-05;  4.0000000E+04;  0.0000000E+00;  0.0000000E+00;  4.0000000E+04;  0.0000000E+00;  4.0000000E+04;  3.1106076E-05;  0.0000000E+00;  1.5731410E-07;  1.7611109E+01;
 -1.4000000E-01;  9.9999998E-03; -2.0000000E-02;587;  0.0000000E+00;  0.0000000E+00;  0.0000000E+00;  1.0000000E+03;  1.0000000E-01;  0.0000000E+00;0;  0.0000000E+00;  0.0000000E+00;  0.0000000E+00;0;  3.0940551E-05;  4.0000000E+04;  0.0000000E+00;  0.0000000E+00;  4.0000000E+04;  0.0000000E+00;  4.0000000E+04;  3.0693871E-05;  0.0000000E+00;  2.4667943E-07;  1.7670465E+01;
 -1.4000000E-01;  9.9999998E-03; -9.9999998E-03;588;  0.0000000E+00;  0.0000000E+00;  0.0000000E+00;  1.0000000E+03;  1.0000000E-01;  0.0000000E+00;0;  0.0000000E+00;  0.0000000E+00;  0.0000000E+00;0;  3.0728312E-05;  4.0000000E+04;  0.0000000E+00;  0.0000000E+00;  4.0000000E+04;  0.0000000E+00;  4.0000000E+04;  3.0420908E-05;  0.0000000E+00;  3.0740321E-07;  1.7699125E+01;
 -1.4000000E-01;  9.9999998E-03;  0.0000000E+00;589;  0.0000000E+00;  0.0000000E+00;  0.0000000E+00;  1.0000000E+03;  1.0000000E-01;  0.0000000E+00;0;  0.0000000E+00;  0.0000000E+00;  0.0000000E+00;0;  3.0654533E-05;  4.0000000E+04;  0.0000000E+00;  0.0000000E+00;  4.0000000E+04;  0.0000000E+00;  4.0000000E+04;  3.0325627E-05;  0.0000000E+00;  3.2890773E-07;  1.7707285E+01;
 -1.4000000E-01;  9.9999998E-03;  9.9999998E-03;590;  0.0000000E+00;  0.0000000E+00;  0.0000000E+00;  1.0000000E+03;  1.0000000E-01;  0.0000000E+00;0;  0.0000000E+00;  0.0000000E+00;  0.0000000E+00;0;  3.0728330E-05;  4.0000000E+04;  0.0000000E+00;  0.0000000E+00;  4.0000000E+04;  0.0000000E+00;  4.0000000E+04;  3.0420928E-05;  0.0000000E+00;  3.0740244E-07;  1.7699135E+01;
 -1.4000000E-01;  9.9999998E-03;  2.0000000E-02;591;  0.0000000E+00;  0.0000000E+00;  0.0000000E+00;  1.0000000E+03;  1.0000000E-01;  0.0000000E+00;0;  0.0000000E+00;  0.0000000E+00;  0.0000000E+00;0;  3.0940566E-05;  4.0000000E+04;  0.0000000E+00;  0.0000000E+00;  4.0000000E+04;  0.0000000E+00;  4.0000000E+04;  3.0693889E-05;  0.0000000E+00;  2.4667821E-07;  1.7670471E+01;
 -1.4000000E-01;  9.9999998E-03;  2.9999999E-02;592;  0.0000000E+00;  0.0000000E+00;  0.0000000E+00;  1.0000000E+03;  1.0000000E-01;  0.0000000E+00;0;  0.0000000E+00;  0.0000000E+00;  0.0000000E+00;0;  3.1263422E-05;  4.0000000E+04;  0.0000000E+00;  0.0000000E+00;  4.0000000E+04;  0.0000000E+00;  4.0000000E+04;  3.1106109E-05;  0.0000000E+00;  1.5731294E-07;  1.7611130E+01;
 -1.4000000E-01;  9.9999998E-03;  3.9999999E-02;593;  0.0000000E+00;  0.0000000E+00;  0.0000000E+00;  1.0000000E+03;  1.0000000E-01;  0.0000000E+00;0;  0.0000000E+00;  0.0000000E+00;  0.0000000E+00;0;  3.1648968E-05;  4.0000000E+04;  0.0000000E+00;  0.0000000E+00;  4.0000000E+04;  0.0000000E+00;  4.0000000E+04;  3.1594464E-05;  0.0000000E+00;  5.4505012E-08;  1.7511364E+01;
 -1.4000000E-01;  9.9999998E-03;  5.0000001E-02;594;  0.0000000E+00;  0.0000000E+00;  0.0000000E+00;  1.0000000E+03;  1.0000000E-01;  0.0000000E+00;0;  0.0000000E+00;  0.0000000E+00;  0.0000000E+00;0;  3.2029413E-05;  4.0000000E+04;  0.0000000E+00;  0.0000000E+00;  4.0000000E+04;  0.0000000E+00;  4.0000000E+04;  3.2074266E-05;  0.0000000E+00; -4.4851493E-08;  1.7370092E+01;
 -1.4000000E-01;  9.9999998E-03;  5.9999999E-02;595;  0.0000000E+00;  0.0000000E+00;  0.0000000E+00;  1.0000000E+03;  1.0000000E-01;  0.0000000E+00;0;  0.0000000E+00;  0.0000000E+00;  0.0000000E+00;0;  3.2319778E-05;  4.0000000E+04;  0.0000000E+00;  0.0000000E+00;  4.0000000E+04;  0.0000000E+00;  4.0000000E+04;  3.2444816E-05;  0.0000000E+00; -1.2503773E-07;  1.7200819E+01;
 -1.3000000E-01;  9.9999998E-03; -1.0000000E-01;670;  0.0000000E+00;  0.0000000E+00;  0.0000000E+00;  1.0000269E+03;  1.0000000E-01;  2.2320356E+01;0;  0.0000000E+00;  0.0000000E+00;  0.0000000E+00;0;  7.1188522E-05;  4.0000000E+04;  0.0000000E+00;  0.0000000E+00;  4.0000000E+04;  0.0000000E+00;  4.0000000E+04;  7.1314651E-05;  0.0000000E+00; -1.2612843E-07;  4.6530193E+01;
 -1.3000000E-01;  9.9999998E-03; -9.0000004E-02;671;  0.0000000E+00;  0.0000000E+00;  0.0000000E+00;  1.0000262E+03;  1.0000000E-01;  2.1727781E+01;0;  0.0000000E+00;  0.0000000E+00;  0.0000000E+00;0;  7.3609175E-05;  4.0000000E+04;  0.0000000E+00;  0.0000000E+00;  4.0000000E+04;  0.0000000E+00;  4.0000000E+04;  7.4039344E-05;  0.0000000E+00; -4.3016883E-07;  4.6543236E+01;
 -1.3000000E-01;  9.9999998E-03; -7.9999998E-02;672;  0.0000000E+00;  0.0000000E+00;  0.0000000E+00;  1.0000253E+03;  1.0000000E-01;  2.0937679E+01;0;  0.0000000E+00;  0.0000000E+00;  0.0000000E+00;0;  7.5165175E-05;  4.0000000E+04;  0.0000000E+00;  0.0000000E+00;  4.0000000E+04;  0.0000000E+00;  4.0000000E+04;  7.5735668E-05;  0.0000000E+00; -5.7049687E-07;  4.6842167E+01;
 -1.3000000E-01;  9.9999998E-03; -7.0000000E-02;673;  0.0000000E+00;  0.0000000E+00;  0.0000000E+00;  1.0000246E+03;  1.0000000E-01;  2.0345104E+01;0;  0.0000000E+00;  0.0000000E+00;  0.0000000E+00;0;  7.5888856E-05;  4.0000000E+04;  0.0000000E+00;  0.0000000E+00;  4.0000000E+04;  0.0000000E+00;  4.0000000E+04;  7.6436118E-05;  0.0000000E+00; -5.4725837E-07;  4.7358410E+01;
 -1.3000000E-01;  9.9999998E-03; -5.9999999E-02;674;  0.0000000E+00;  0.0000000E+00;  0.0000000E+00;  1.0000239E+03;  1.0000000E-01;  1.9851290E+01;0;  0.0000000E+00;  0.0000000E+00;  0.0000000E+00;0;  7.5914184E-05;  4.0000000E+04;  0.0000000E+00;  0.0000000E+00;  4.0000000E+04;  0.0000000E+00;  4.0000000E+04;  7.6292345E-05;  0.0000000E+00; -3.7816389E-07;  4.7993778E+01;
 -1.3000000E-01;  9.9999998E-03; -5.0000001E-02;675;  0.0000000E+00;  0.0000000E+00;  0.0000000E+00;  1.0000235E+03;  1.0000000E-01;  1.9456240E+01;0;  0.0000000E+00;  0.0000000E+00;  0.0000000E+00;0;  7.5437791E-05;  4.0000000E+04;  0.0000000E+00;  0.0000000E+00;  4.0000000E+04;  0.0000000E+00;  4.0000000E+04;  7.5535259E-05;  0.0000000E+00; -9.7469474E-08;  4.8644749E+01;
 -1.3000000E-01;  9.9999998E-03; -3.9999999E-02;676;  0.0000000E+00;  0.0000000E+00;  0.0000000E+00;  1.0000233E+03;  1.0000000E-01;  1.9357477E+01;0;  0.0000000E+00;  0.0000000E+00;  0.0000000E+00;0;  7.4679774E-05;  4.0000000E+04;  0.0000000E+00;  0.0000000E+00;  4.0000000E+04;  0.0000000E+00;  4.0000000E+04;  7.4432726E-05;  0.0000000E+00;  2.4704926E-07;  4.9225552E+01;
 -1.3000000E-01;  9.9999998E-03; -2.9999999E-02;677;  0.0000000E+00;  0.0000000E+00;  0.0000000E+00;  1.0000228E+03;  1.0000000E-01;  1.8863665E+01;0;  0.0000000E+00;  0.0000000E+00;  0.0000000E+00;0;  7.3850337E-05;  4.0000000E+04;  0.0000000E+00;  0.0000000E+00;  4.0000000E+04;  0.0000000E+00;  4.0000000E+04;  7.3251031E-05;  0.0000000E+00;  5.9930522E-07;  4.9682285E+01;
 -1.3000000E-01;  9.9999998E-03; -2.0000000E-02;678;  0.0000000E+00;  0.0000000E+00;  0.0000000E+00;  1.0000228E+03;  1.0000000E-01;  1.8863665E+01;0;  0.0000000E+00;  0.0000000E+00;  0.0000000E+00;0;  7.3126619E-05;  4.0000000E+04;  0.0000000E+00;  0.0000000E+00;  4.0000000E+04;  0.0000000E+00;  4.0000000E+04;  7.2224342E-05;  0.0000000E+00;  9.0227559E-07;  4.9996681E+01;
 -1.3000000E-01;  9.9999998E-03; -9.9999998E-03;679;  0.0000000E+00;  0.0000000E+00;  0.0000000E+00;  1.0000226E+03;  1.0000000E-01;  1.8764902E+01;0;  0.0000000E+00;  0.0000000E+00;  0.0000000E+00;0;  7.2639545E-05;  4.0000000E+04;  0.0000000E+00;  0.0000000E+00;  4.0000000E+04;  0.0000000E+00;  4.0000000E+04;  7.1532959E-05;  0.0000000E+00;  1.1065828E-06;  5.0175411E+01;
 -1.3000000E-01;  9.9999998E-03;  0.0000000E+00;680;  0.0000000E+00;  0.0000000E+00;  0.0000000E+00;  1.0000227E+03;  1.0000000E-01;  1.8764902E+01;0;  0.0000000E+00;  0.0000000E+00;  0.0000000E+00;0;  7.2468407E-05;  4.0000000E+04;  0.0000000E+00;  0.0000000E+00;  4.0000000E+04;  0.0000000E+00;  4.0000000E+04;  7.1289753E-05;  0.0000000E+00;  1.1786537E-06;  5.0232655E+01;
 -1.3000000E-01;  9.9999998E-03;  9.9999998E-03;681;  0.0000000E+00;  0.0000000E+00;  0.0000000E+00;  1.0000226E+03;  1.0000000E-01;  1.8764902E+01;0;  0.0000000E+00;  0.0000000E+00;  0.0000000E+00;0;  7.2639588E-05;  4.0000000E+04;  0.0000000E+00;  0.0000000E+00;  4.0000000E+04;  0.0000000E+00;  4.0000000E+04;  7.1533010E-05;  0.0000000E+00;  1.1065794E-06;  5.0175430E+01;
 -1.3000000E-01;  9.9999998E-03;  2.0000000E-02;682;  0.0000000E+00;  0.0000000E+00;  0.0000000E+00;  1.0000228E+03;  1.0000000E-01;  1.8863665E+01;0;  0.0000000E+00;  0.0000000E+00;  0.0000000E+00;0;  7.3126634E-05;  4.0000000E+04;  0.0000000E+00;  0.0000000E+00;  4.0000000E+04;  0.0000000E+00;  4.0000000E+04;  7.2224364E-05;  0.0000000E+00;  9.0226996E-07;  4.9996719E+01;
 -1.3000000E-01;  9.9999998E-03;  2.9999999E-02;683;  0.0000000E+00;  0.0000000E+00;  0.0000000E+00;  1.0000228E+03;  1.0000000E-01;  1.8863665E+01;0;  0.0000000E+00;  0.0000000E+00;  0.0000000E+00;0;  7.3850322E-05;  4.0000000E+04;  0.0000000E+00;  0.0000000E+00;  4.0000000E+04;  0.0000000E+00;  4.0000000E+04;  7.3251023E-05;  0.0000000E+00;  5.9930045E-07;  4.9682350E+01;
 -1.3000000E-01;  9.9999998E-03;  3.9999999E-02;684;  0.0000000E+00;  0.0000000E+00;  0.0000000E+00;  1.0000233E+03;  1.0000000E-01;  1.9357477E+01;0;  0.0000000E+00;  0.0000000E+00;  0.0000000E+00;0;  7.4679716E-05;  4.0000000E+04;  0.0000000E+00;  0.0000000E+00;  4.0000000E+04;  0.0000000E+00;  4.0000000E+04;  7.4432668E-05;  0.0000000E+00;  2.4704784E-07;  4.9225643E+01;
 -1.3000000E-01;  9.9999998E-03;  5.0000001E-02;685;  0.0000000E+00;  0.0000000E+00;  0.0000000E+00;  1.0000235E+03;  1.0000000E-01;  1.9456240E+01;0;  0.0000000E+00;  0.0000000E+00;  0.0000000E+00;0;  7.5437689E-05;  4.0000000E+04;  0.0000000E+00;  0.0000000E+00;  4.0000000E+04;  0.0000000E+00;  4.0000000E+04;  7.5535150E-05;  0.0000000E+00; -9.7464792E-08;  4.8644852E+01;
 -1.3000000E-01;  9.9999998E-03;  5.9999999E-02;686;  0.0000000E+00;  0.0000000E+00;  0.0000000E+00;  1.0000239E+03;  1.0000000E-01;  1.9851290E+01;0;  0.0000000E+00;  0.0000000E+00;  0.0000000E+00;0;  7.5913958E-05;  4.0000000E+04;  0.0000000E+00;  0.0000000E+00;  4.0000000E+04;  0.0000000E+00;  4.0000000E+04;  7.6292112E-05;  0.0000000E+00; -3.7815096E-07;  4.7993839E+01;
 -1.2000000E-01;  9.9999998E-03; -1.0000000E-01;761;  0.0000000E+00;  0.0000000E+00;  0.0000000E+00;  1.0000890E+03;  1.0000000E-01;  7.3676926E+01;0;  0.0000000E+00;  0.0000000E+00;  0.0000000E+00;0;  1.1057249E-04;  4.0000000E+04;  0.0000000E+00;  0.0000000E+00;  4.0000000E+04;  0.0000000E+00;  4.0000000E+04;  1.1058919E-04;  0.0000000E+00; -1.6699632E-08;  9.8328827E+01;
 -1.2000000E-01;  9.9999998E-03; -9.0000004E-02;762;  0.0000000E+00;  0.0000000E+00;  0.0000000E+00;  1.0000881E+03;  1.0000000E-01;  7.2985588E+01;0;  0.0000000E+00;  0.0000000E+00;  0.0000000E+00;0;  1.1563859E-04;  4.0000000E+04;  0.0000000E+00;  0.0000000E+00;  4.0000000E+04;  0.0000000E+00;  4.0000000E+04;  1.1647413E-04;  0.0000000E+00; -8.3554454E-07;  9.8688789E+01;
 -1.2000000E-01;  9.9999998E-03; -7.9999998E-02;763;  0.0000000E+00;  0.0000000E+00;  0.0000000E+00;  1.0000864E+03;  1.0000000E-01;  7.1504150E+01;0;  0.0000000E+00;  0.0000000E+00;  0.0000000E+00;0;  1.1915338E-04;  4.0000000E+04;  0.0000000E+00;  0.0000000E+00;  4.0000000E+04;  0.0000000E+00;  4.0000000E+04;  1.2038215E-04;  0.0000000E+00; -1.2287724E-06;  9.9670601E+01;
 -1.2000000E-01;  9.9999998E-03; -7.0000000E-02;764;  0.0000000E+00;  0.0000000E+00;  0.0000000E+00;  1.0000827E+03;  1.0000000E-01;  6.8541275E+01;0;  0.0000000E+00;  0.0000000E+00;  0.0000000E+00;0;  1.2111903E-04;  4.0000000E+04;  0.0000000E+00;  0.0000000E+00;  4.0000000E+04;  0.0000000E+00;  4.0000000E+04;  1.2231541E-04;  0.0000000E+00; -1.1963778E-06;  1.0112541E+02;
 -1.2000000E-01;  9.9999998E-03; -5.9999999E-02;765;  0.0000000E+00;  0.0000000E+00;  0.0000000E+00;  1.0000813E+03;  1.0000000E-01;  6.7356117E+01;0;  0.0000000E+00;  0.0000000E+00;  0.0000000E+00;0;  1.2173350E-04;  4.0000000E+04;  0.0000000E+00;  0.0000000E+00;  4.0000000E+04;  0.0000000E+00;  4.0000000E+04;  1.2251991E-04;  0.0000000E+00; -7.8640801E-07;  1.0285119E+02;
 -1.2000000E-01;  9.9999998E-03; -5.0000001E-02;766;  0.0000000E+00;  0.0000000E+00;  0.0000000E+00;  1.0000800E+03;  1.0000000E-01;  6.6269730E+01;0;  0.0000000E+00;  0.0000000E+00;  0.0000000E+00;0;  1.2132653E-04;  4.0000000E+04;  0.0000000E+00;  0.0000000E+00;  4.0000000E+04;  0.0000000E+00;  4.0000000E+04;  1.2141754E-04;  0.0000000E+00; -9.1012780E-08;  1.0463098E+02;
 -1.2000000E-01;  9.9999998E-03; -3.9999999E-02;767;  0.0000000E+00;  0.0000000E+00;  0.0000000E+00;  1.0000787E+03;  1.0000000E-01;  6.5183342E+01;0;  0.0000000E+00;  0.0000000E+00;  0.0000000E+00;0;  1.2028885E-04;  4.0000000E+04;  0.0000000E+00;  0.0000000E+00;  4.0000000E+04;  0.0000000E+00;  4.0000000E+04;  1.1952462E-04;  0.0000000E+00;  7.6423703E-07;  1.0627345E+02;
 -1.2000000E-01;  9.9999998E-03; -2.9999999E-02;768;  0.0000000E+00;  0.0000000E+00;  0.0000000E+00;  1.0000781E+03;  1.0000000E-01;  6.4689529E+01;0;  0.0000000E+00;  0.0000000E+00;  0.0000000E+00;0;  1.1901151E-04;  4.0000000E+04;  0.0000000E+00;  0.0000000E+00;  4.0000000E+04;  0.0000000E+00;  4.0000000E+04;  1.1737526E-04;  0.0000000E+00;  1.6362454E-06;  1.0763532E+02;
 -1.2000000E-01;  9.9999998E-03; -2.0000000E-02;769;  0.0000000E+00;  0.0000000E+00;  0.0000000E+00;  1.0000776E+03;  1.0000000E-01;  6.4294479E+01;0;  0.0000000E+00;  0.0000000E+00;  0.0000000E+00;0;  1.1783599E-04;  4.0000000E+04;  0.0000000E+00;  0.0000000E+00;  4.0000000E+04;  0.0000000E+00;  4.0000000E+04;  1.1545257E-04;  0.0000000E+00;  2.3834173E-06;  1.0863388E+02;
 -1.2000000E-01;  9.9999998E-03; -9.9999998E-03;770;  0.0000000E+00;  0.0000000E+00;  0.0000000E+00;  1.0000773E+03;  1.0000000E-01;  6.4096954E+01;0;  0.0000000E+00;  0.0000000E+00;  0.0000000E+00;0;  1.1702306E-04;  4.0000000E+04;  0.0000000E+00;  0.0000000E+00;  4.0000000E+04;  0.0000000E+00;  4.0000000E+04;  1.1413737E-04;  0.0000000E+00;  2.8856966E-06;  1.0923624E+02;
 -1.2000000E-01;  9.9999998E-03;  0.0000000E+00;771;  0.0000000E+00;  0.0000000E+00;  0.0000000E+00;  1.0000771E+03;  1.0000000E-01;  6.3899426E+01;0;  0.0000000E+00;  0.0000000E+00;  0.0000000E+00;0;  1.1673379E-04;  4.0000000E+04;  0.0000000E+00;  0.0000000E+00;  4.0000000E+04;  0.0000000E+00;  4.0000000E+04;  1.1367122E-04;  0.0000000E+00;  3.0625704E-06;  1.0943614E+02;
 -1.2000000E-01;  9.9999998E-03;  9.9999998E-03;772;  0.0000000E+00;  0.0000000E+00;  0.0000000E+00;  1.0000773E+03;  1.0000000E-01;  6.4096954E+01;0;  0.0000000E+00;  0.0000000E+00;  0.0000000E+00;0;  1.1702301E-04;  4.0000000E+04;  0.0000000E+00;  0.0000000E+00;  4.0000000E+04;  0.0000000E+00;  4.0000000E+04;  1.1413732E-04;  0.0000000E+00;  2.8856887E-06;  1.0923630E+02;
 -1.2000000E-01;  9.9999998E-03;  2.0000000E-02;773;  0.0000000E+00;  0.0000000E+00;  0.0000000E+00;  1.0000776E+03;  1.0000000E-01;  6.4294479E+01;0;  0.0000000E+00;  0.0000000E+00;  0.0000000E+00;0;  1.1783601E-04;  4.0000000E+04;  0.0000000E+00;  0.0000000E+00;  4.0000000E+04;  0.0000000E+00;  4.0000000E+04;  1.1545260E-04;  0.0000000E+00;  2.3834059E-06;  1.0863399E+02;
 -1.2000000E-01;  9.9999998E-03;  2.9999999E-02;774;  0.0000000E+00;  0.0000000E+00;  0.0000000E+00;  1.0000781E+03;  1.0000000E-01;  6.4689529E+01;0;  0.0000000E+00;  0.0000000E+00;  0.0000000E+00;0;  1.1901152E-04;  4.0000000E+04;  0.0000000E+00;  0.0000000E+00;  4.0000000E+04;  0.0000000E+00;  4.0000000E+04;  1.1737528E-04;  0.0000000E+00;  1.6362364E-06;  1.0763544E+02;
 -1.2000000E-01;  9.9999998E-03;  3.9999999E-02;775;  0.0000000E+00;  0.0000000E+00;  0.0000000E+00;  1.0000787E+03;  1.0000000E-01;  6.5183342E+01;0;  0.0000000E+00;  0.0000000E+00;  0.0000000E+00;0;  1.2028877E-04;  4.0000000E+04;  0.0000000E+00;  0.0000000E+00;  4.0000000E+04;  0.0000000E+00;  4.0000000E+04;  1.1952453E-04;  0.0000000E+00;  7.6423754E-07;  1.0627364E+02;
 -1.2000000E-01;  9.9999998E-03;  5.0000001E-02;776;  0.0000000E+00;  0.0000000E+00;  0.0000000E+00;  1.0000800E+03;  1.0000000E-01;  6.6269730E+01;0;  0.0000000E+00;  0.0000000E+00;  0.0000000E+00;0;  1.2132614E-04;  4.0000000E+04;  0.0000000E+00;  0.0000000E+00;  4.0000000E+04;  0.0000000E+00;  4.0000000E+04;  1.2141714E-04;  0.0000000E+00; -9.0996046E-08;  1.0463119E+02;
 -1.2000000E-01;  9.9999998E-03;  5.9999999E-02;777;  0.0000000E+00;  0.0000000E+00;  0.0000000E+00;  1.0000813E+03;  1.0000000E-01;  6.7356117E+01;0;  0.0000000E+00;  0.0000000E+00;  0.0000000E+00;0;  1.2173304E-04;  4.0000000E+04;  0.0000000E+00;  0.0000000E+00;  4.0000000E+04;  0.0000000E+00;  4.0000000E+04;  1.2251941E-04;  0.0000000E+00; -7.8636992E-07;  1.0285143E+02;
 -1.1000000E-01;  9.9999998E-03; -1.0000000E-01;852;  0.0000000E+00;  0.0000000E+00;  0.0000000E+00;  1.0002377E+03;  1.0000000E-01;  1.9693271E+02;0;  0.0000000E+00;  0.0000000E+00;  0.0000000E+00;0;  1.1332134E-04;  4.0000000E+04;  0.0000000E+00;  0.0000000E+00;  4.0000000E+04;  0.0000000E+00;  4.0000000E+04;  1.1271729E-04;  0.0000000E+00;  6.0404284E-07;  1.7609753E+02;
 -1.1000000E-01;  9.9999998E-03; -9.0000004E-02;853;  0.0000000E+00;  0.0000000E+00;  0.0000000E+00;  1.0002326E+03;  1.0000000E-01;  1.9268591E+02;0;  0.0000000E+00;  0.0000000E+00;  0.0000000E+00;0;  1.2234341E-04;  4.0000000E+04;  0.0000000E+00;  0.0000000E+00;  4.0000000E+04;  0.0000000E+00;  4.0000000E+04;  1.2351696E-04;  0.0000000E+00; -1.1735559E-06;  1.7733859E+02;
 -1.1000000E-01;  9.9999998E-03; -7.9999998E-02;854;  0.0000000E+00;  0.0000000E+00;  0.0000000E+00;  1.0002282E+03;  1.0000000E-01;  1.8903169E+02;0;  0.0000000E+00;  0.0000000E+00;  0.0000000E+00;0;  1.2897023E-04;  4.0000000E+04;  0.0000000E+00;  0.0000000E+00;  4.0000000E+04;  0.0000000E+00;  4.0000000E+04;  1.3102879E-04;  0.0000000E+00; -2.0585533E-06;  1.7974571E+02;
 -1.1000000E-01;  9.9999998E-03; -7.0000000E-02;855;  0.0000000E+00;  0.0000000E+00;  0.0000000E+00;  1.0002220E+03;  1.0000000E-01;  1.8389603E+02;0;  0.0000000E+00;  0.0000000E+00;  0.0000000E+00;0;  1.3312242E-04;  4.0000000E+04;  0.0000000E+00;  0.0000000E+00;  4.0000000E+04;  0.0000000E+00;  4.0000000E+04;  1.3517162E-04;  0.0000000E+00; -2.0491980E-06;  1.8304102E+02;
 -1.1000000E-01;  9.9999998E-03; -5.9999999E-02;856;  0.0000000E+00;  0.0000000E+00;  0.0000000E+00;  1.0002171E+03;  1.0000000E-01;  1.7984677E+02;0;  0.0000000E+00;  0.0000000E+00;  0.0000000E+00;0;  1.3504457E-04;  4.0000000E+04;  0.0000000E+00;  0.0000000E+00;  4.0000000E+04;  0.0000000E+00;  4.0000000E+04;  1.3629074E-04;  0.0000000E+00; -1.2461612E-06;  1.8685608E+02;
 -1.1000000E-01;  9.9999998E-03; -5.0000001E-02;857;  0.0000000E+00;  0.0000000E+00;  0.0000000E+00;  1.0002133E+03;  1.0000000E-01;  1.7668636E+02;0;  0.0000000E+00;  0.0000000E+00;  0.0000000E+00;0;  1.3521004E-04;  4.0000000E+04;  0.0000000E+00;  0.0000000E+00;  4.0000000E+04;  0.0000000E+00;  4.0000000E+04;  1.3505355E-04;  0.0000000E+00;  1.5648446E-07;  1.9079472E+02;
 -1.1000000E-01;  9.9999998E-03; -3.9999999E-02;858;  0.0000000E+00;  0.0000000E+00;  0.0000000E+00;  1.0002107E+03;  1.0000000E-01;  1.7451358E+02;0;  0.0000000E+00;  0.0000000E+00;  0.0000000E+00;0;  1.3421255E-04;  4.0000000E+04;  0.0000000E+00;  0.0000000E+00;  4.0000000E+04;  0.0000000E+00;  4.0000000E+04;  1.3231760E-04;  0.0000000E+00;  1.8949444E-06;  1.9448868E+02;
 -1.1000000E-01;  9.9999998E-03; -2.9999999E-02;859;  0.0000000E+00;  0.0000000E+00;  0.0000000E+00;  1.0002072E+03;  1.0000000E-01;  1.7164946E+02;0;  0.0000000E+00;  0.0000000E+00;  0.0000000E+00;0;  1.3266708E-04;  4.0000000E+04;  0.0000000E+00;  0.0000000E+00;  4.0000000E+04;  0.0000000E+00;  4.0000000E+04;  1.2899624E-04;  0.0000000E+00;  3.6708313E-06;  1.9763289E+02;
 -1.1000000E-01;  9.9999998E-03; -2.0000000E-02;860;  0.0000000E+00;  0.0000000E+00;  0.0000000E+00;  1.0002060E+03;  1.0000000E-01;  1.7066183E+02;0;  0.0000000E+00;  0.0000000E+00;  0.0000000E+00;0;  1.3112585E-04;  4.0000000E+04;  0.0000000E+00;  0.0000000E+00;  4.0000000E+04;  0.0000000E+00;  4.0000000E+04;  1.2593369E-04;  0.0000000E+00;  5.1921720E-06;  2.0000986E+02;
 -1.1000000E-01;  9.9999998E-03; -9.9999998E-03;861;  0.0000000E+00;  0.0000000E+00;  0.0000000E+00;  1.0002055E+03;  1.0000000E-01;  1.7026678E+02;0;  0.0000000E+00;  0.0000000E+00;  0.0000000E+00;0;  1.3002008E-04;  4.0000000E+04;  0.0000000E+00;  0.0000000E+00;  4.0000000E+04;  0.0000000E+00;  4.0000000E+04;  1.2380601E-04;  0.0000000E+00;  6.2140812E-06;  2.0148270E+02;
 -1.1000000E-01;  9.9999998E-03;  0.0000000E+00;862;  0.0000000E+00;  0.0000000E+00;  0.0000000E+00;  1.0002053E+03;  1.0000000E-01;  1.7006926E+02;0;  0.0000000E+00;  0.0000000E+00;  0.0000000E+00;0;  1.2962057E-04;  4.0000000E+04;  0.0000000E+00;  0.0000000E+00;  4.0000000E+04;  0.0000000E+00;  4.0000000E+04;  1.2304683E-04;  0.0000000E+00;  6.5737386E-06;  2.0197945E+02;
 -1.1000000E-01;  9.9999998E-03;  9.9999998E-03;863;  0.0000000E+00;  0.0000000E+00;  0.0000000E+00;  1.0002055E+03;  1.0000000E-01;  1.7026678E+02;0;  0.0000000E+00;  0.0000000E+00;  0.0000000E+00;0;  1.3002011E-04;  4.0000000E+04;  0.0000000E+00;  0.0000000E+00;  4.0000000E+04;  0.0000000E+00;  4.0000000E+04;  1.2380604E-04;  0.0000000E+00;  6.2140703E-06;  2.0148279E+02;
 -1.1000000E-01;  9.9999998E-03;  2.0000000E-02;864;  0.0000000E+00;  0.0000000E+00;  0.0000000E+00;  1.0002060E+03;  1.0000000E-01;  1.7066183E+02;0;  0.0000000E+00;  0.0000000E+00;  0.0000000E+00;0;  1.3112595E-04;  4.0000000E+04;  0.0000000E+00;  0.0000000E+00;  4.0000000E+04;  0.0000000E+00;  4.0000000E+04;  1.2593380E-04;  0.0000000E+00;  5.1921566E-06;  2.0001010E+02;
 -1.1000000E-01;  9.9999998E-03;  2.9999999E-02;865;  0.0000000E+00;  0.0000000E+00;  0.0000000E+00;  1.0002072E+03;  1.0000000E-01;  1.7164946E+02;0;  0.0000000E+00;  0.0000000E+00;  0.0000000E+00;0;  1.3266702E-04;  4.0000000E+04;  0.0000000E+00;  0.0000000E+00;  4.0000000E+04;  0.0000000E+00;  4.0000000E+04;  1.2899619E-04;  0.0000000E+00;  3.6708259E-06;  1.9763335E+02;
 -1.1000000E-01;  9.9999998E-03;  3.9999999E-02;866;  0.0000000E+00;  0.0000000E+00;  0.0000000E+00;  1.0002107E+03;  1.0000000E-01;  1.7451358E+02;0;  0.0000000E+00;  0.0000000E+00;  0.0000000E+00;0;  1.3421224E-04;  4.0000000E+04;  0.0000000E+00;  0.0000000E+00;  4.0000000E+04;  0.0000000E+00;  4.0000000E+04;  1.3231729E-04;  0.0000000E+00;  1.8949563E-06;  1.9448901E+02;
 -1.1000000E-01;  9.9999998E-03;  5.0000001E-02;867;  0.0000000E+00;  0.0000000E+00;  0.0000000E+00;  1.0002133E+03;  1.0000000E-01;  1.7668636E+02;0;  0.0000000E+00;  0.0000000E+00;  0.0000000E+00;0;  1.3520943E-04;  4.0000000E+04;  0.0000000E+00;  0.0000000E+00;  4.0000000E+04;  0.0000000E+00;  4.0000000E+04;  1.3505289E-04;  0.0000000E+00;  1.5653305E-07;  1.9079523E+02;
 -1.1000000E-01;  9.9999998E-03;  5.9999999E-02;868;  0.0000000E+00;  0.0000000E+00;  0.0000000E+00;  1.0002171E+03;  1.0000000E-01;  1.7984677E+02;0;  0.0000000E+00;  0.0000000E+00;  0.0000000E+00;0;  1.3504359E-04;  4.0000000E+04;  0.0000000E+00;  0.0000000E+00;  4.0000000E+04;  0.0000000E+00;  4.0000000E+04;  1.3628966E-04;  0.0000000E+00; -1.2460697E-06;  1.8685681E+02;
 -1.0000000E-01;  9.9999998E-03; -1.0000000E-01;943;  0.0000000E+00;  0.0000000E+00;  0.0000000E+00;  1.0004766E+03;  1.0000000E-01;  3.9485303E+02;0;  0.0000000E+00;  0.0000000E+00;  0.0000000E+00;0;  2.6833261E-05;  4.0000000E+04;  0.0000000E+00;  0.0000000E+00;  4.0000000E+04;  0.0000000E+00;  4.0000000E+04;  2.4573863E-05;  0.0000000E+00;  2.2593974E-06;  2.8171503E+02;
 -1.0000000E-01;  9.9999998E-03; -9.0000004E-02;944;  0.0000000E+00;  0.0000000E+00;  0.0000000E+00;  1.0004702E+03;  1.0000000E-01;  3.8951984E+02;0;  0.0000000E+00;  0.0000000E+00;  0.0000000E+00;0;  4.1322812E-05;  4.0000000E+04;  0.0000000E+00;  0.0000000E+00;  4.0000000E+04;  0.0000000E+00;  4.0000000E+04;  4.2394127E-05;  0.0000000E+00; -1.0713140E-06;  2.8463449E+02;
 -1.0000000E-01;  9.9999998E-03; -7.9999998E-02;945;  0.0000000E+00;  0.0000000E+00;  0.0000000E+00;  1.0004607E+03;  1.0000000E-01;  3.8171759E+02;0;  0.0000000E+00;  0.0000000E+00;  0.0000000E+00;0;  5.2430230E-05;  4.0000000E+04;  0.0000000E+00;  0.0000000E+00;  4.0000000E+04;  0.0000000E+00;  4.0000000E+04;  5.5212462E-05;  0.0000000E+00; -2.7822309E-06;  2.8954001E+02;
 -1.0000000E-01;  9.9999998E-03; -7.0000000E-02;946;  0.0000000E+00;  0.0000000E+00;  0.0000000E+00;  1.0004534E+03;  1.0000000E-01;  3.7569308E+02;0;  0.0000000E+00;  0.0000000E+00;  0.0000000E+00;0;  5.9931666E-05;  4.0000000E+04;  0.0000000E+00;  0.0000000E+00;  4.0000000E+04;  0.0000000E+00;  4.0000000E+04;  6.2795632E-05;  0.0000000E+00; -2.8639656E-06;  2.9595303E+02;
 -1.0000000E-01;  9.9999998E-03; -5.9999999E-02;947;  0.0000000E+00;  0.0000000E+00;  0.0000000E+00;  1.0004455E+03;  1.0000000E-01;  3.6907599E+02;0;  0.0000000E+00;  0.0000000E+00;  0.0000000E+00;0;  6.4091444E-05;  4.0000000E+04;  0.0000000E+00;  0.0000000E+00;  4.0000000E+04;  0.0000000E+00;  4.0000000E+04;  6.5585955E-05;  0.0000000E+00; -1.4945090E-06;  3.0325937E+02;
 -1.0000000E-01;  9.9999998E-03; -5.0000001E-02;948;  0.0000000E+00;  0.0000000E+00;  0.0000000E+00;  1.0004397E+03;  1.0000000E-01;  3.6423660E+02;0;  0.0000000E+00;  0.0000000E+00;  0.0000000E+00;0;  6.5530345E-05;  4.0000000E+04;  0.0000000E+00;  0.0000000E+00;  4.0000000E+04;  0.0000000E+00;  4.0000000E+04;  6.4553955E-05;  0.0000000E+00;  9.7638781E-07;  3.1079446E+02;
 -1.0000000E-01;  9.9999998E-03; -3.9999999E-02;949;  0.0000000E+00;  0.0000000E+00;  0.0000000E+00;  1.0004345E+03;  1.0000000E-01;  3.5998981E+02;0;  0.0000000E+00;  0.0000000E+00;  0.0000000E+00;0;  6.5070024E-05;  4.0000000E+04;  0.0000000E+00;  0.0000000E+00;  4.0000000E+04;  0.0000000E+00;  4.0000000E+04;  6.0999690E-05;  0.0000000E+00;  4.0703362E-06;  3.1791299E+02;
 -1.0000000E-01;  9.9999998E-03; -2.9999999E-02;950;  0.0000000E+00;  0.0000000E+00;  0.0000000E+00;  1.0004302E+03;  1.0000000E-01;  3.5643436E+02;0;  0.0000000E+00;  0.0000000E+00;  0.0000000E+00;0;  6.3584659E-05;  4.0000000E+04;  0.0000000E+00;  0.0000000E+00;  4.0000000E+04;  0.0000000E+00;  4.0000000E+04;  5.6339704E-05;  0.0000000E+00;  7.2449579E-06;  3.2404688E+02;
 -1.0000000E-01;  9.9999998E-03; -2.0000000E-02;951;  0.0000000E+00;  0.0000000E+00;  0.0000000E+00;  1.0004280E+03;  1.0000000E-01;  3.5465665E+02;0;  0.0000000E+00;  0.0000000E+00;  0.0000000E+00;0;  6.1876883E-05;  4.0000000E+04;  0.0000000E+00;  0.0000000E+00;  4.0000000E+04;  0.0000000E+00;  4.0000000E+04;  5.1906987E-05;  0.0000000E+00;  9.9698991E-06;  3.2874966E+02;
 -1.0000000E-01;  9.9999998E-03; -9.9999998E-03;952;  0.0000000E+00;  0.0000000E+00;  0.0000000E+00;  1.0004266E+03;  1.0000000E-01;  3.5337271E+02;0;  0.0000000E+00;  0.0000000E+00;  0.0000000E+00;0;  6.0581668E-05;  4.0000000E+04;  0.0000000E+00;  0.0000000E+00;  4.0000000E+04;  0.0000000E+00;  4.0000000E+04;  4.8779904E-05;  0.0000000E+00;  1.1801764E-05;  3.3169693E+02;
 -1.0000000E-01;  9.9999998E-03;  0.0000000E+00;953;  0.0000000E+00;  0.0000000E+00;  0.0000000E+00;  1.0004260E+03;  1.0000000E-01;  3.5287891E+02;0;  0.0000000E+00;  0.0000000E+00;  0.0000000E+00;0;  6.0103710E-05;  4.0000000E+04;  0.0000000E+00;  0.0000000E+00;  4.0000000E+04;  0.0000000E+00;  4.0000000E+04;  4.7657064E-05;  0.0000000E+00;  1.2446648E-05;  3.3270142E+02;
 -1.0000000E-01;  9.9999998E-03;  9.9999998E-03;954;  0.0000000E+00;  0.0000000E+00;  0.0000000E+00;  1.0004266E+03;  1.0000000E-01;  3.5337271E+02;0;  0.0000000E+00;  0.0000000E+00;  0.0000000E+00;0;  6.0581449E-05;  4.0000000E+04;  0.0000000E+00;  0.0000000E+00;  4.0000000E+04;  0.0000000E+00;  4.0000000E+04;  4.8779697E-05;  0.0000000E+00;  1.1801752E-05;  3.3169717E+02;
 -1.0000000E-01;  9.9999998E-03;  2.0000000E-02;955;  0.0000000E+00;  0.0000000E+00;  0.0000000E+00;  1.0004280E+03;  1.0000000E-01;  3.5465665E+02;0;  0.0000000E+00;  0.0000000E+00;  0.0000000E+00;0;  6.1876730E-05;  4.0000000E+04;  0.0000000E+00;  0.0000000E+00;  4.0000000E+04;  0.0000000E+00;  4.0000000E+04;  5.1906853E-05;  0.0000000E+00;  9.9698791E-06;  3.2875012E+02;
 -1.0000000E-01;  9.9999998E-03;  2.9999999E-02;956;  0.0000000E+00;  0.0000000E+00;  0.0000000E+00;  1.0004302E+03;  1.0000000E-01;  3.5643436E+02;0;  0.0000000E+00;  0.0000000E+00;  0.0000000E+00;0;  6.3584259E-05;  4.0000000E+04;  0.0000000E+00;  0.0000000E+00;  4.0000000E+04;  0.0000000E+00;  4.0000000E+04;  5.6339290E-05;  0.0000000E+00;  7.2449679E-06;  3.2404761E+02;
 -1.0000000E-01;  9.9999998E-03;  3.9999999E-02;957;  0.0000000E+00;  0.0000000E+00;  0.0000000E+00;  1.0004345E+03;  1.0000000E-01;  3.5998981E+02;0;  0.0000000E+00;  0.0000000E+00;  0.0000000E+00;0;  6.5069275E-05;  4.0000000E+04;  0.0000000E+00;  0.0000000E+00;  4.0000000E+04;  0.0000000E+00;  4.0000000E+04;  6.0998886E-05;  0.0000000E+00;  4.0703871E-06;  3.1791400E+02;
 -1.0000000E-01;  9.9999998E-03;  5.0000001E-02;958;  0.0000000E+00;  0.0000000E+00;  0.0000000E+00;  1.0004397E+03;  1.0000000E-01;  3.6423660E+02;0;  0.0000000E+00;  0.0000000E+00;  0.0000000E+00;0;  6.5529202E-05;  4.0000000E+04;  0.0000000E+00;  0.0000000E+00;  4.0000000E+04;  0.0000000E+00;  4.0000000E+04;  6.4552696E-05;  0.0000000E+00;  9.7650297E-07;  3.1079547E+02;
 -1.0000000E-01;  9.9999998E-03;  5.9999999E-02;959;  0.0000000E+00;  0.0000000E+00;  0.0000000E+00;  1.0004455E+03;  1.0000000E-01;  3.6907599E+02;0;  0.0000000E+00;  0.0000000E+00;  0.0000000E+00;0;  6.4089589E-05;  4.0000000E+04;  0.0000000E+00;  0.0000000E+00;  4.0000000E+04;  0.0000000E+00;  4.0000000E+04;  6.5583903E-05;  0.0000000E+00; -1.4943136E-06;  3.0326050E+02;
 -9.0000004E-02;  9.9999998E-03; -1.0000000E-01;1034;  0.0000000E+00;  0.0000000E+00;  0.0000000E+00;  1.0008867E+03;  1.0000000E-01;  7.3459650E+02;0;  0.0000000E+00;  0.0000000E+00;  0.0000000E+00;0; -2.1650209E-04;  4.0000000E+04;  0.0000000E+00;  0.0000000E+00;  4.0000000E+04;  0.0000000E+00;  4.0000000E+04; -2.2215147E-04;  0.0000000E+00;  5.6493836E-06;  4.1492993E+02;
 -9.0000004E-02;  9.9999998E-03; -9.0000004E-02;1035;  0.0000000E+00;  0.0000000E+00;  0.0000000E+00;  1.0008798E+03;  1.0000000E-01;  7.2886829E+02;0;  0.0000000E+00;  0.0000000E+00;  0.0000000E+00;0; -1.9479766E-04;  4.0000000E+04;  0.0000000E+00;  0.0000000E+00;  4.0000000E+04;  0.0000000E+00;  4.0000000E+04; -1.9485637E-04;  0.0000000E+00;  5.8717379E-08;  4.2052066E+02;
 -9.0000004E-02;  9.9999998E-03; -7.9999998E-02;1036;  0.0000000E+00;  0.0000000E+00;  0.0000000E+00;  1.0008692E+03;  1.0000000E-01;  7.2007843E+02;0;  0.0000000E+00;  0.0000000E+00;  0.0000000E+00;0; -1.7762433E-04;  4.0000000E+04;  0.0000000E+00;  0.0000000E+00;  4.0000000E+04;  0.0000000E+00;  4.0000000E+04; -1.7473174E-04;  0.0000000E+00; -2.8925922E-06;  4.2926999E+02;
 -9.0000004E-02;  9.9999998E-03; -7.0000000E-02;1037;  0.0000000E+00;  0.0000000E+00;  0.0000000E+00;  1.0008583E+03;  1.0000000E-01;  7.1109100E+02;0;  0.0000000E+00;  0.0000000E+00;  0.0000000E+00;0; -1.6542258E-04;  4.0000000E+04;  0.0000000E+00;  0.0000000E+00;  4.0000000E+04;  0.0000000E+00;  4.0000000E+04; -1.6225003E-04;  0.0000000E+00; -3.1725453E-06;  4.4040262E+02;
 -9.0000004E-02;  9.9999998E-03; -5.9999999E-02;1038;  0.0000000E+00;  0.0000000E+00;  0.0000000E+00;  1.0008488E+03;  1.0000000E-01;  7.0319000E+02;0;  0.0000000E+00;  0.0000000E+00;  0.0000000E+00;0; -1.5793559E-04;  4.0000000E+04;  0.0000000E+00;  0.0000000E+00;  4.0000000E+04;  0.0000000E+00;  4.0000000E+04; -1.5687903E-04;  0.0000000E+00; -1.0565601E-06;  4.5296088E+02;
 -9.0000004E-02;  9.9999998E-03; -5.0000001E-02;1039;  0.0000000E+00;  0.0000000E+00;  0.0000000E+00;  1.0008383E+03;  1.0000000E-01;  6.9449890E+02;0;  0.0000000E+00;  0.0000000E+00;  0.0000000E+00;0; -1.5438857E-04;  4.0000000E+04;  0.0000000E+00;  0.0000000E+00;  4.0000000E+04;  0.0000000E+00;  4.0000000E+04; -1.5728240E-04;  0.0000000E+00;  2.8938250E-06;  4.6589664E+02;
 -9.0000004E-02;  9.9999998E-03; -3.9999999E-02;1040;  0.0000000E+00;  0.0000000E+00;  0.0000000E+00;  1.0008300E+03;  1.0000000E-01;  6.8758551E+02;0;  0.0000000E+00;  0.0000000E+00;  0.0000000E+00;0; -1.5370404E-04;  4.0000000E+04;  0.0000000E+00;  0.0000000E+00;  4.0000000E+04;  0.0000000E+00;  4.0000000E+04; -1.6160258E-04;  0.0000000E+00;  7.8985486E-06;  4.7815546E+02;
 -9.0000004E-02;  9.9999998E-03; -2.9999999E-02;1041;  0.0000000E+00;  0.0000000E+00;  0.0000000E+00;  1.0008235E+03;  1.0000000E-01;  6.8225232E+02;0;  0.0000000E+00;  0.0000000E+00;  0.0000000E+00;0; -1.5471008E-04;  4.0000000E+04;  0.0000000E+00;  0.0000000E+00;  4.0000000E+04;  0.0000000E+00;  4.0000000E+04; -1.6777488E-04;  0.0000000E+00;  1.3064792E-05;  4.8878445E+02;
 -9.0000004E-02;  9.9999998E-03; -2.0000000E-02;1042;  0.0000000E+00;  0.0000000E+00;  0.0000000E+00;  1.0008193E+03;  1.0000000E-01;  6.7879559E+02;0;  0.0000000E+00;  0.0000000E+00;  0.0000000E+00;0; -1.5631733E-04;  4.0000000E+04;  0.0000000E+00;  0.0000000E+00;  4.0000000E+04;  0.0000000E+00;  4.0000000E+04; -1.7383177E-04;  0.0000000E+00;  1.7514432E-05;  4.9697882E+02;
 -9.0000004E-02;  9.9999998E-03; -9.9999998E-03;1043;  0.0000000E+00;  0.0000000E+00;  0.0000000E+00;  1.0008162E+03;  1.0000000E-01;  6.7622778E+02;0;  0.0000000E+00;  0.0000000E+00;  0.0000000E+00;0; -1.5765493E-04;  4.0000000E+04;  0.0000000E+00;  0.0000000E+00;  4.0000000E+04;  0.0000000E+00;  4.0000000E+04; -1.7816627E-04;  0.0000000E+00;  2.0511345E-05;  5.0214514E+02;
 -9.0000004E-02;  9.9999998E-03;  0.0000000E+00;1044;  0.0000000E+00;  0.0000000E+00;  0.0000000E+00;  1.0008148E+03;  1.0000000E-01;  6.7504266E+02;0;  0.0000000E+00;  0.0000000E+00;  0.0000000E+00;0; -1.5816504E-04;  4.0000000E+04;  0.0000000E+00;  0.0000000E+00;  4.0000000E+04;  0.0000000E+00;  4.0000000E+04; -1.7973228E-04;  0.0000000E+00;  2.1567239E-05;  5.0390948E+02;
 -9.0000004E-02;  9.9999998E-03;  9.9999998E-03;1045;  0.0000000E+00;  0.0000000E+00;  0.0000000E+00;  1.0008162E+03;  1.0000000E-01;  6.7622778E+02;0;  0.0000000E+00;  0.0000000E+00;  0.0000000E+00;0; -1.5765503E-04;  4.0000000E+04;  0.0000000E+00;  0.0000000E+00;  4.0000000E+04;  0.0000000E+00;  4.0000000E+04; -1.7816636E-04;  0.0000000E+00;  2.0511337E-05;  5.0214575E+02;
 -9.0000004E-02;  9.9999998E-03;  2.0000000E-02;1046;  0.0000000E+00;  0.0000000E+00;  0.0000000E+00;  1.0008193E+03;  1.0000000E-01;  6.7879559E+02;0;  0.0000000E+00;  0.0000000E+00;  0.0000000E+00;0; -1.5631756E-04;  4.0000000E+04;  0.0000000E+00;  0.0000000E+00;  4.0000000E+04;  0.0000000E+00;  4.0000000E+04; -1.7383201E-04;  0.0000000E+00;  1.7514451E-05;  4.9697922E+02;
 -9.0000004E-02;  9.9999998E-03;  2.9999999E-02;1047;  0.0000000E+00;  0.0000000E+00;  0.0000000E+00;  1.0008235E+03;  1.0000000E-01;  6.8225232E+02;0;  0.0000000E+00;  0.0000000E+00;  0.0000000E+00;0; -1.5471072E-04;  4.0000000E+04;  0.0000000E+00;  0.0000000E+00;  4.0000000E+04;  0.0000000E+00;  4.0000000E+04; -1.6777556E-04;  0.0000000E+00;  1.3064846E-05;  4.8878598E+02;
 -9.0000004E-02;  9.9999998E-03;  3.9999999E-02;1048;  0.0000000E+00;  0.0000000E+00;  0.0000000E+00;  1.0008299E+03;  1.0000000E-01;  6.8758551E+02;0;  0.0000000E+00;  0.0000000E+00;  0.0000000E+00;0; -1.5370542E-04;  4.0000000E+04;  0.0000000E+00;  0.0000000E+00;  4.0000000E+04;  0.0000000E+00;  4.0000000E+04; -1.6160410E-04;  0.0000000E+00;  7.8986759E-06;  4.7815680E+02;
 -9.0000004E-02;  9.9999998E-03;  5.0000001E-02;1049;  0.0000000E+00;  0.0000000E+00;  0.0000000E+00;  1.0008383E+03;  1.0000000E-01;  6.9449890E+02;0;  0.0000000E+00;  0.0000000E+00;  0.0000000E+00;0; -1.5439045E-04;  4.0000000E+04;  0.0000000E+00;  0.0000000E+00;  4.0000000E+04;  0.0000000E+00;  4.0000000E+04; -1.5728451E-04;  0.0000000E+00;  2.8940626E-06;  4.6589795E+02;
 -9.0000004E-02;  9.9999998E-03;  5.9999999E-02;1050;  0.0000000E+00;  0.0000000E+00;  0.0000000E+00;  1.0008488E+03;  1.0000000E-01;  7.0319000E+02;0;  0.0000000E+00;  0.0000000E+00;  0.0000000E+00;0; -1.5793847E-04;  4.0000000E+04;  0.0000000E+00;  0.0000000E+00;  4.0000000E+04;  0.0000000E+00;  4.0000000E+04; -1.5688228E-04;  0.0000000E+00; -1.0561938E-06;  4.5296118E+02;
 -7.9999998E-02;  9.9999998E-03; -1.0000000E-01;1125;  0.0000000E+00;  0.0000000E+00;  0.0000000E+00;  1.0015173E+03;  1.0000000E-01;  1.2570509E+03;0;  0.0000000E+00;  0.0000000E+00;  0.0000000E+00;0; -6.9550518E-04;  4.0000000E+04;  0.0000000E+00;  0.0000000E+00;  4.0000000E+04;  0.0000000E+00;  4.0000000E+04; -7.0713088E-04;  0.0000000E+00;  1.1625684E-05;  5.7266260E+02;
 -7.9999998E-02;  9.9999998E-03; -9.0000004E-02;1126;  0.0000000E+00;  0.0000000E+00;  0.0000000E+00;  1.0015080E+03;  1.0000000E-01;  1.2493474E+03;0;  0.0000000E+00;  0.0000000E+00;  0.0000000E+00;0; -6.6453859E-04;  4.0000000E+04;  0.0000000E+00;  0.0000000E+00;  4.0000000E+04;  0.0000000E+00;  4.0000000E+04; -6.6757336E-04;  0.0000000E+00;  3.0347910E-06;  5.8196106E+02;
 -7.9999998E-02;  9.9999998E-03; -7.9999998E-02;1127;  0.0000000E+00;  0.0000000E+00;  0.0000000E+00;  1.0014956E+03;  1.0000000E-01;  1.2390760E+03;0;  0.0000000E+00;  0.0000000E+00;  0.0000000E+00;0; -6.3947804E-04;  4.0000000E+04;  0.0000000E+00;  0.0000000E+00;  4.0000000E+04;  0.0000000E+00;  4.0000000E+04; -6.3786830E-04;  0.0000000E+00; -1.6097233E-06;  5.9601208E+02;
 -7.9999998E-02;  9.9999998E-03; -7.0000000E-02;1128;  0.0000000E+00;  0.0000000E+00;  0.0000000E+00;  1.0014814E+03;  1.0000000E-01;  1.2273234E+03;0;  0.0000000E+00;  0.0000000E+00;  0.0000000E+00;0; -6.2105525E-04;  4.0000000E+04;  0.0000000E+00;  0.0000000E+00;  4.0000000E+04;  0.0000000E+00;  4.0000000E+04; -6.1883160E-04;  0.0000000E+00; -2.2236366E-06;  6.1364795E+02;
 -7.9999998E-02;  9.9999998E-03; -5.9999999E-02;1129;  0.0000000E+00;  0.0000000E+00;  0.0000000E+00;  1.0014670E+03;  1.0000000E-01;  1.2153730E+03;0;  0.0000000E+00;  0.0000000E+00;  0.0000000E+00;0; -6.0903671E-04;  4.0000000E+04;  0.0000000E+00;  0.0000000E+00;  4.0000000E+04;  0.0000000E+00;  4.0000000E+04; -6.0984906E-04;  0.0000000E+00;  8.1236828E-07;  6.3344476E+02;
 -7.9999998E-02;  9.9999998E-03; -5.0000001E-02;1130;  0.0000000E+00;  0.0000000E+00;  0.0000000E+00;  1.0014534E+03;  1.0000000E-01;  1.2041141E+03;0;  0.0000000E+00;  0.0000000E+00;  0.0000000E+00;0; -6.0247036E-04;  4.0000000E+04;  0.0000000E+00;  0.0000000E+00;  4.0000000E+04;  0.0000000E+00;  4.0000000E+04; -6.0914614E-04;  0.0000000E+00;  6.6757907E-06;  6.5383618E+02;
 -7.9999998E-02;  9.9999998E-03; -3.9999999E-02;1131;  0.0000000E+00;  0.0000000E+00;  0.0000000E+00;  1.0014422E+03;  1.0000000E-01;  1.1948304E+03;0;  0.0000000E+00;  0.0000000E+00;  0.0000000E+00;0; -5.9997954E-04;  4.0000000E+04;  0.0000000E+00;  0.0000000E+00;  4.0000000E+04;  0.0000000E+00;  4.0000000E+04; -6.1417645E-04;  0.0000000E+00;  1.4196889E-05;  6.7320483E+02;
 -7.9999998E-02;  9.9999998E-03; -2.9999999E-02;1132;  0.0000000E+00;  0.0000000E+00;  0.0000000E+00;  1.0014335E+03;  1.0000000E-01;  1.1876207E+03;0;  0.0000000E+00;  0.0000000E+00;  0.0000000E+00;0; -6.0004607E-04;  4.0000000E+04;  0.0000000E+00;  0.0000000E+00;  4.0000000E+04;  0.0000000E+00;  4.0000000E+04; -6.2206248E-04;  0.0000000E+00;  2.2016429E-05;  6.9005188E+02;
 -7.9999998E-02;  9.9999998E-03; -2.0000000E-02;1133;  0.0000000E+00;  0.0000000E+00;  0.0000000E+00;  1.0014260E+03;  1.0000000E-01;  1.1813987E+03;0;  0.0000000E+00;  0.0000000E+00;  0.0000000E+00;0; -6.0125260E-04;  4.0000000E+04;  0.0000000E+00;  0.0000000E+00;  4.0000000E+04;  0.0000000E+00;  4.0000000E+04; -6.3003512E-04;  0.0000000E+00;  2.8782497E-05;  7.0308575E+02;
 -7.9999998E-02;  9.9999998E-03; -9.9999998E-03;1134;  0.0000000E+00;  0.0000000E+00;  0.0000000E+00;  1.0014219E+03;  1.0000000E-01;  1.1780408E+03;0;  0.0000000E+00;  0.0000000E+00;  0.0000000E+00;0; -6.0246338E-04;  4.0000000E+04;  0.0000000E+00;  0.0000000E+00;  4.0000000E+04;  0.0000000E+00;  4.0000000E+04; -6.3581573E-04;  0.0000000E+00;  3.3352342E-05;  7.1131543E+02;
 -7.9999998E-02;  9.9999998E-03;  0.0000000E+00;1135;  0.0000000E+00;  0.0000000E+00;  0.0000000E+00;  1.0014207E+03;  1.0000000E-01;  1.1770531E+03;0;  0.0000000E+00;  0.0000000E+00;  0.0000000E+00;0; -6.0295104E-04;  4.0000000E+04;  0.0000000E+00;  0.0000000E+00;  4.0000000E+04;  0.0000000E+00;  4.0000000E+04; -6.3791568E-04;  0.0000000E+00;  3.4964636E-05;  7.1413184E+02;
 -7.9999998E-02;  9.9999998E-03;  9.9999998E-03;1136;  0.0000000E+00;  0.0000000E+00;  0.0000000E+00;  1.0014219E+03;  1.0000000E-01;  1.1780408E+03;0;  0.0000000E+00;  0.0000000E+00;  0.0000000E+00;0; -6.0246390E-04;  4.0000000E+04;  0.0000000E+00;  0.0000000E+00;  4.0000000E+04;  0.0000000E+00;  4.0000000E+04; -6.3581631E-04;  0.0000000E+00;  3.3352382E-05;  7.1131598E+02;
 -7.9999998E-02;  9.9999998E-03;  2.0000000E-02;1137;  0.0000000E+00;  0.0000000E+00;  0.0000000E+00;  1.0014260E+03;  1.0000000E-01;  1.1813987E+03;0;  0.0000000E+00;  0.0000000E+00;  0.0000000E+00;0; -6.0125330E-04;  4.0000000E+04;  0.0000000E+00;  0.0000000E+00;  4.0000000E+04;  0.0000000E+00;  4.0000000E+04; -6.3003588E-04;  0.0000000E+00;  2.8782555E-05;  7.0308740E+02;
 -7.9999998E-02;  9.9999998E-03;  2.9999999E-02;1138;  0.0000000E+00;  0.0000000E+00;  0.0000000E+00;  1.0014335E+03;  1.0000000E-01;  1.1876207E+03;0;  0.0000000E+00;  0.0000000E+00;  0.0000000E+00;0; -6.0004665E-04;  4.0000000E+04;  0.0000000E+00;  0.0000000E+00;  4.0000000E+04;  0.0000000E+00;  4.0000000E+04; -6.2206323E-04;  0.0000000E+00;  2.2016577E-05;  6.9005353E+02;
 -7.9999998E-02;  9.9999998E-03;  3.9999999E-02;1139;  0.0000000E+00;  0.0000000E+00;  0.0000000E+00;  1.0014422E+03;  1.0000000E-01;  1.1948304E+03;0;  0.0000000E+00;  0.0000000E+00;  0.0000000E+00;0; -5.9998163E-04;  4.0000000E+04;  0.0000000E+00;  0.0000000E+00;  4.0000000E+04;  0.0000000E+00;  4.0000000E+04; -6.1417877E-04;  0.0000000E+00;  1.4197162E-05;  6.7320569E+02;
 -7.9999998E-02;  9.9999998E-03;  5.0000001E-02;1140;  0.0000000E+00;  0.0000000E+00;  0.0000000E+00;  1.0014534E+03;  1.0000000E-01;  1.2041141E+03;0;  0.0000000E+00;  0.0000000E+00;  0.0000000E+00;0; -6.0247316E-04;  4.0000000E+04;  0.0000000E+00;  0.0000000E+00;  4.0000000E+04;  0.0000000E+00;  4.0000000E+04; -6.0914940E-04;  0.0000000E+00;  6.6762295E-06;  6.5383771E+02;
 -7.9999998E-02;  9.9999998E-03;  5.9999999E-02;1141;  0.0000000E+00;  0.0000000E+00;  0.0000000E+00;  1.0014670E+03;  1.0000000E-01;  1.2153730E+03;0;  0.0000000E+00;  0.0000000E+00;  0.0000000E+00;0; -6.0904055E-04;  4.0000000E+04;  0.0000000E+00;  0.0000000E+00;  4.0000000E+04;  0.0000000E+00;  4.0000000E+04; -6.0985354E-04;  0.0000000E+00;  8.1300578E-07;  6.3344794E+02;
 -7.0000000E-02;  9.9999998E-03; -1.0000000E-01;1216;  0.0000000E+00;  0.0000000E+00;  0.0000000E+00;  1.0024418E+03;  1.0000000E-01;  2.0230540E+03;0;  0.0000000E+00;  0.0000000E+00;  0.0000000E+00;0; -1.4922214E-03;  4.0000000E+04;  0.0000000E+00;  0.0000000E+00;  4.0000000E+04;  0.0000000E+00;  4.0000000E+04; -1.5133532E-03;  0.0000000E+00;  2.1131835E-05;  7.4788348E+02;
 -7.0000000E-02;  9.9999998E-03; -9.0000004E-02;1217;  0.0000000E+00;  0.0000000E+00;  0.0000000E+00;  1.0024269E+03;  1.0000000E-01;  2.0107086E+03;0;  0.0000000E+00;  0.0000000E+00;  0.0000000E+00;0; -1.4495685E-03;  4.0000000E+04;  0.0000000E+00;  0.0000000E+00;  4.0000000E+04;  0.0000000E+00;  4.0000000E+04; -1.4584522E-03;  0.0000000E+00;  8.8836532E-06;  7.6169806E+02;
 -7.0000000E-02;  9.9999998E-03; -7.9999998E-02;1218;  0.0000000E+00;  0.0000000E+00;  0.0000000E+00;  1.0024077E+03;  1.0000000E-01;  1.9947090E+03;0;  0.0000000E+00;  0.0000000E+00;  0.0000000E+00;0; -1.4145415E-03;  4.0000000E+04;  0.0000000E+00;  0.0000000E+00;  4.0000000E+04;  0.0000000E+00;  4.0000000E+04; -1.4166657E-03;  0.0000000E+00;  2.1242465E-06;  7.8235590E+02;
 -7.0000000E-02;  9.9999998E-03; -7.0000000E-02;1219;  0.0000000E+00;  0.0000000E+00;  0.0000000E+00;  1.0023857E+03;  1.0000000E-01;  1.9765367E+03;0;  0.0000000E+00;  0.0000000E+00;  0.0000000E+00;0; -1.3882202E-03;  4.0000000E+04;  0.0000000E+00;  0.0000000E+00;  4.0000000E+04;  0.0000000E+00;  4.0000000E+04; -1.3892606E-03;  0.0000000E+00;  1.0404576E-06;  8.0819824E+02;
 -7.0000000E-02;  9.9999998E-03; -5.9999999E-02;1220;  0.0000000E+00;  0.0000000E+00;  0.0000000E+00;  1.0023665E+03;  1.0000000E-01;  1.9606359E+03;0;  0.0000000E+00;  0.0000000E+00;  0.0000000E+00;0; -1.3703856E-03;  4.0000000E+04;  0.0000000E+00;  0.0000000E+00;  4.0000000E+04;  0.0000000E+00;  4.0000000E+04; -1.3755449E-03;  0.0000000E+00;  5.1593338E-06;  8.3722168E+02;
 -7.0000000E-02;  9.9999998E-03; -5.0000001E-02;1221;  0.0000000E+00;  0.0000000E+00;  0.0000000E+00;  1.0023477E+03;  1.0000000E-01;  1.9450314E+03;0;  0.0000000E+00;  0.0000000E+00;  0.0000000E+00;0; -1.3598537E-03;  4.0000000E+04;  0.0000000E+00;  0.0000000E+00;  4.0000000E+04;  0.0000000E+00;  4.0000000E+04; -1.3732185E-03;  0.0000000E+00;  1.3364811E-05;  8.6717645E+02;
 -7.0000000E-02;  9.9999998E-03; -3.9999999E-02;1222;  0.0000000E+00;  0.0000000E+00;  0.0000000E+00;  1.0023295E+03;  1.0000000E-01;  1.9299208E+03;0;  0.0000000E+00;  0.0000000E+00;  0.0000000E+00;0; -1.3548802E-03;  4.0000000E+04;  0.0000000E+00;  0.0000000E+00;  4.0000000E+04;  0.0000000E+00;  4.0000000E+04; -1.3788993E-03;  0.0000000E+00;  2.4019189E-05;  8.9572009E+02;
 -7.0000000E-02;  9.9999998E-03; -2.9999999E-02;1223;  0.0000000E+00;  0.0000000E+00;  0.0000000E+00;  1.0023165E+03;  1.0000000E-01;  1.9191556E+03;0;  0.0000000E+00;  0.0000000E+00;  0.0000000E+00;0; -1.3535345E-03;  4.0000000E+04;  0.0000000E+00;  0.0000000E+00;  4.0000000E+04;  0.0000000E+00;  4.0000000E+04; -1.3887160E-03;  0.0000000E+00;  3.5181485E-05;  9.2061908E+02;
 -7.0000000E-02;  9.9999998E-03; -2.0000000E-02;1224;  0.0000000E+00;  0.0000000E+00;  0.0000000E+00;  1.0023059E+03;  1.0000000E-01;  1.9103657E+03;0;  0.0000000E+00;  0.0000000E+00;  0.0000000E+00;0; -1.3540270E-03;  4.0000000E+04;  0.0000000E+00;  0.0000000E+00;  4.0000000E+04;  0.0000000E+00;  4.0000000E+04; -1.3989188E-03;  0.0000000E+00;  4.4891814E-05;  9.3992365E+02;
 -7.0000000E-02;  9.9999998E-03; -9.9999998E-03;1225;  0.0000000E+00;  0.0000000E+00;  0.0000000E+00;  1.0023004E+03;  1.0000000E-01;  1.9058226E+03;0;  0.0000000E+00;  0.0000000E+00;  0.0000000E+00;0; -1.3549302E-03;  4.0000000E+04;  0.0000000E+00;  0.0000000E+00;  4.0000000E+04;  0.0000000E+00;  4.0000000E+04; -1.4064038E-03;  0.0000000E+00;  5.1473649E-05;  9.5214172E+02;
 -7.0000000E-02;  9.9999998E-03;  0.0000000E+00;1226;  0.0000000E+00;  0.0000000E+00;  0.0000000E+00;  1.0022985E+03;  1.0000000E-01;  1.9042424E+03;0;  0.0000000E+00;  0.0000000E+00;  0.0000000E+00;0; -1.3553348E-03;  4.0000000E+04;  0.0000000E+00;  0.0000000E+00;  4.0000000E+04;  0.0000000E+00;  4.0000000E+04; -1.4091347E-03;  0.0000000E+00;  5.3799940E-05;  9.5631952E+02;
 -7.0000000E-02;  9.9999998E-03;  9.9999998E-03;1227;  0.0000000E+00;  0.0000000E+00;  0.0000000E+00;  1.0023004E+03;  1.0000000E-01;  1.9058226E+03;0;  0.0000000E+00;  0.0000000E+00;  0.0000000E+00;0; -1.3549299E-03;  4.0000000E+04;  0.0000000E+00;  0.0000000E+00;  4.0000000E+04;  0.0000000E+00;  4.0000000E+04; -1.4064036E-03;  0.0000000E+00;  5.1473726E-05;  9.5214203E+02;
 -7.0000000E-02;  9.9999998E-03;  2.0000000E-02;1228;  0.0000000E+00;  0.0000000E+00;  0.0000000E+00;  1.0023059E+03;  1.0000000E-01;  1.9103657E+03;0;  0.0000000E+00;  0.0000000E+00;  0.0000000E+00;0; -1.3540287E-03;  4.0000000E+04;  0.0000000E+00;  0.0000000E+00;  4.0000000E+04;  0.0000000E+00;  4.0000000E+04; -1.3989207E-03;  0.0000000E+00;  4.4891975E-05;  9.3992542E+02;
 -7.0000000E-02;  9.9999998E-03;  2.9999999E-02;1229;  0.0000000E+00;  0.0000000E+00;  0.0000000E+00;  1.0023165E+03;  1.0000000E-01;  1.9191556E+03;0;  0.0000000E+00;  0.0000000E+00;  0.0000000E+00;0; -1.3535359E-03;  4.0000000E+04;  0.0000000E+00;  0.0000000E+00;  4.0000000E+04;  0.0000000E+00;  4.0000000E+04; -1.3887178E-03;  0.0000000E+00;  3.5181820E-05;  9.2062042E+02;
 -7.0000000E-02;  9.9999998E-03;  3.9999999E-02;1230;  0.0000000E+00;  0.0000000E+00;  0.0000000E+00;  1.0023295E+03;  1.0000000E-01;  1.9299208E+03;0;  0.0000000E+00;  0.0000000E+00;  0.0000000E+00;0; -1.3548819E-03;  4.0000000E+04;  0.0000000E+00;  0.0000000E+00;  4.0000000E+04;  0.0000000E+00;  4.0000000E+04; -1.3789017E-03;  0.0000000E+00;  2.4019686E-05;  8.9572107E+02;
 -7.0000000E-02;  9.9999998E-03;  5.0000001E-02;1231;  0.0000000E+00;  0.0000000E+00;  0.0000000E+00;  1.0023477E+03;  1.0000000E-01;  1.9450314E+03;0;  0.0000000E+00;  0.0000000E+00;  0.0000000E+00;0; -1.3598581E-03;  4.0000000E+04;  0.0000000E+00;  0.0000000E+00;  4.0000000E+04;  0.0000000E+00;  4.0000000E+04; -1.3732236E-03;  0.0000000E+00;  1.3365570E-05;  8.6717932E+02;
 -7.0000000E-02;  9.9999998E-03;  5.9999999E-02;1232;  0.0000000E+00;  0.0000000E+00;  0.0000000E+00;  1.0023665E+03;  1.0000000E-01;  1.9606359E+03;0;  0.0000000E+00;  0.0000000E+00;  0.0000000E+00;0; -1.3703916E-03;  4.0000000E+04;  0.0000000E+00;  0.0000000E+00;  4.0000000E+04;  0.0000000E+00;  4.0000000E+04; -1.3755519E-03;  0.0000000E+00;  5.1603633E-06;  8.3722314E+02;
 -5.9999999E-02;  9.9999998E-03; -1.0000000E-01;1307;  0.0000000E+00;  0.0000000E+00;  0.0000000E+00;  1.0037009E+03;  1.0000000E-01;  3.0661848E+03;0;  0.0000000E+00;  0.0000000E+00;  0.0000000E+00;0; -2.6780129E-03;  4.0000000E+04;  0.0000000E+00;  0.0000000E+00;  4.0000000E+04;  0.0000000E+00;  4.0000000E+04; -2.7131359E-03;  0.0000000E+00;  3.5123066E-05;  9.2838409E+02;
 -5.9999999E-02;  9.9999998E-03; -9.0000004E-02;1308;  0.0000000E+00;  0.0000000E+00;  0.0000000E+00;  1.0036870E+03;  1.0000000E-01;  3.0546296E+03;0;  0.0000000E+00;  0.0000000E+00;  0.0000000E+00;0; -2.6208367E-03;  4.0000000E+04;  0.0000000E+00;  0.0000000E+00;  4.0000000E+04;  0.0000000E+00;  4.0000000E+04; -2.6396106E-03;  0.0000000E+00;  1.8773830E-05;  9.4695233E+02;
 -5.9999999E-02;  9.9999998E-03; -7.9999998E-02;1309;  0.0000000E+00;  0.0000000E+00;  0.0000000E+00;  1.0036645E+03;  1.0000000E-01;  3.0359636E+03;0;  0.0000000E+00;  0.0000000E+00;  0.0000000E+00;0; -2.5735046E-03;  4.0000000E+04;  0.0000000E+00;  0.0000000E+00;  4.0000000E+04;  0.0000000E+00;  4.0000000E+04; -2.5830944E-03;  0.0000000E+00;  9.5898640E-06;  9.7500775E+02;
 -5.9999999E-02;  9.9999998E-03; -7.0000000E-02;1310;  0.0000000E+00;  0.0000000E+00;  0.0000000E+00;  1.0036359E+03;  1.0000000E-01;  3.0122605E+03;0;  0.0000000E+00;  0.0000000E+00;  0.0000000E+00;0; -2.5374654E-03;  4.0000000E+04;  0.0000000E+00;  0.0000000E+00;  4.0000000E+04;  0.0000000E+00;  4.0000000E+04; -2.5454038E-03;  0.0000000E+00;  7.9384199E-06;  1.0103367E+03;
 -5.9999999E-02;  9.9999998E-03; -5.9999999E-02;1311;  0.0000000E+00;  0.0000000E+00;  0.0000000E+00;  1.0036074E+03;  1.0000000E-01;  2.9886562E+03;0;  0.0000000E+00;  0.0000000E+00;  0.0000000E+00;0; -2.5124678E-03;  4.0000000E+04;  0.0000000E+00;  0.0000000E+00;  4.0000000E+04;  0.0000000E+00;  4.0000000E+04; -2.5257659E-03;  0.0000000E+00;  1.3298149E-05;  1.0502499E+03;
 -5.9999999E-02;  9.9999998E-03; -5.0000001E-02;1312;  0.0000000E+00;  0.0000000E+00;  0.0000000E+00;  1.0035834E+03;  1.0000000E-01;  2.9688049E+03;0;  0.0000000E+00;  0.0000000E+00;  0.0000000E+00;0; -2.4970025E-03;  4.0000000E+04;  0.0000000E+00;  0.0000000E+00;  4.0000000E+04;  0.0000000E+00;  4.0000000E+04; -2.5212574E-03;  0.0000000E+00;  2.4254841E-05;  1.0916763E+03;
 -5.9999999E-02;  9.9999998E-03; -3.9999999E-02;1313;  0.0000000E+00;  0.0000000E+00;  0.0000000E+00;  1.0035593E+03;  1.0000000E-01;  2.9487561E+03;0;  0.0000000E+00;  0.0000000E+00;  0.0000000E+00;0; -2.4888518E-03;  4.0000000E+04;  0.0000000E+00;  0.0000000E+00;  4.0000000E+04;  0.0000000E+00;  4.0000000E+04; -2.5274954E-03;  0.0000000E+00;  3.8643691E-05;  1.1313304E+03;
 -5.9999999E-02;  9.9999998E-03; -2.9999999E-02;1314;  0.0000000E+00;  0.0000000E+00;  0.0000000E+00;  1.0035402E+03;  1.0000000E-01;  2.9330527E+03;0;  0.0000000E+00;  0.0000000E+00;  0.0000000E+00;0; -2.4855968E-03;  4.0000000E+04;  0.0000000E+00;  0.0000000E+00;  4.0000000E+04;  0.0000000E+00;  4.0000000E+04; -2.5394317E-03;  0.0000000E+00;  5.3834759E-05;  1.1660696E+03;
 -5.9999999E-02;  9.9999998E-03; -2.0000000E-02;1315;  0.0000000E+00;  0.0000000E+00;  0.0000000E+00;  1.0035259E+03;  1.0000000E-01;  2.9211025E+03;0;  0.0000000E+00;  0.0000000E+00;  0.0000000E+00;0; -2.4850310E-03;  4.0000000E+04;  0.0000000E+00;  0.0000000E+00;  4.0000000E+04;  0.0000000E+00;  4.0000000E+04; -2.5521547E-03;  0.0000000E+00;  6.7123758E-05;  1.1930712E+03;
 -5.9999999E-02;  9.9999998E-03; -9.9999998E-03;1316;  0.0000000E+00;  0.0000000E+00;  0.0000000E+00;  1.0035176E+03;  1.0000000E-01;  2.9142878E+03;0;  0.0000000E+00;  0.0000000E+00;  0.0000000E+00;0; -2.4854208E-03;  4.0000000E+04;  0.0000000E+00;  0.0000000E+00;  4.0000000E+04;  0.0000000E+00;  4.0000000E+04; -2.5615862E-03;  0.0000000E+00;  7.6165452E-05;  1.2101882E+03;
 -5.9999999E-02;  9.9999998E-03;  0.0000000E+00;1317;  0.0000000E+00;  0.0000000E+00;  0.0000000E+00;  1.0035151E+03;  1.0000000E-01;  2.9122139E+03;0;  0.0000000E+00;  0.0000000E+00;  0.0000000E+00;0; -2.4856715E-03;  4.0000000E+04;  0.0000000E+00;  0.0000000E+00;  4.0000000E+04;  0.0000000E+00;  4.0000000E+04; -2.5650389E-03;  0.0000000E+00;  7.9367295E-05;  1.2160554E+03;
 -5.9999999E-02;  9.9999998E-03;  9.9999998E-03;1318;  0.0000000E+00;  0.0000000E+00;  0.0000000E+00;  1.0035176E+03;  1.0000000E-01;  2.9142878E+03;0;  0.0000000E+00;  0.0000000E+00;  0.0000000E+00;0; -2.4854208E-03;  4.0000000E+04;  0.0000000E+00;  0.0000000E+00;  4.0000000E+04;  0.0000000E+00;  4.0000000E+04; -2.5615864E-03;  0.0000000E+00;  7.6165670E-05;  1.2101902E+03;
 -5.9999999E-02;  9.9999998E-03;  2.0000000E-02;1319;  0.0000000E+00;  0.0000000E+00;  0.0000000E+00;  1.0035259E+03;  1.0000000E-01;  2.9211025E+03;0;  0.0000000E+00;  0.0000000E+00;  0.0000000E+00;0; -2.4850324E-03;  4.0000000E+04;  0.0000000E+00;  0.0000000E+00;  4.0000000E+04;  0.0000000E+00;  4.0000000E+04; -2.5521566E-03;  0.0000000E+00;  6.7124114E-05;  1.1930725E+03;
 -5.9999999E-02;  9.9999998E-03;  2.9999999E-02;1320;  0.0000000E+00;  0.0000000E+00;  0.0000000E+00;  1.0035402E+03;  1.0000000E-01;  2.9330527E+03;0;  0.0000000E+00;  0.0000000E+00;  0.0000000E+00;0; -2.4856001E-03;  4.0000000E+04;  0.0000000E+00;  0.0000000E+00;  4.0000000E+04;  0.0000000E+00;  4.0000000E+04; -2.5394354E-03;  0.0000000E+00;  5.3835327E-05;  1.1660729E+03;
 -5.9999999E-02;  9.9999998E-03;  3.9999999E-02;1321;  0.0000000E+00;  0.0000000E+00;  0.0000000E+00;  1.0035593E+03;  1.0000000E-01;  2.9487561E+03;0;  0.0000000E+00;  0.0000000E+00;  0.0000000E+00;0; -2.4888553E-03;  4.0000000E+04;  0.0000000E+00;  0.0000000E+00;  4.0000000E+04;  0.0000000E+00;  4.0000000E+04; -2.5274998E-03;  0.0000000E+00;  3.8644564E-05;  1.1313342E+03;
 -5.9999999E-02;  9.9999998E-03;  5.0000001E-02;1322;  0.0000000E+00;  0.0000000E+00;  0.0000000E+00;  1.0035834E+03;  1.0000000E-01;  2.9688049E+03;0;  0.0000000E+00;  0.0000000E+00;  0.0000000E+00;0; -2.4970078E-03;  4.0000000E+04;  0.0000000E+00;  0.0000000E+00;  4.0000000E+04;  0.0000000E+00;  4.0000000E+04; -2.5212639E-03;  0.0000000E+00;  2.4256029E-05;  1.0916802E+03;
 -5.9999999E-02;  9.9999998E-03;  5.9999999E-02;1323;  0.0000000E+00;  0.0000000E+00;  0.0000000E+00;  1.0036074E+03;  1.0000000E-01;  2.9886562E+03;0;  0.0000000E+00;  0.0000000E+00;  0.0000000E+00;0; -2.5124750E-03;  4.0000000E+04;  0.0000000E+00;  0.0000000E+00;  4.0000000E+04;  0.0000000E+00;  4.0000000E+04; -2.5257748E-03;  0.0000000E+00;  1.3299729E-05;  1.0502542E+03;
 -5.0000001E-02;  9.9999998E-03; -1.0000000E-01;1398;  0.0000000E+00;  0.0000000E+00;  0.0000000E+00;  1.0053341E+03;  1.0000000E-01;  4.4192329E+03;0;  0.0000000E+00;  0.0000000E+00;  0.0000000E+00;0; -4.2945454E-03;  4.0000000E+04;  0.0000000E+00;  0.0000000E+00;  4.0000000E+04;  0.0000000E+00;  4.0000000E+04; -4.3490012E-03;  0.0000000E+00;  5.4455730E-05;  1.0959125E+03;
 -5.0000001E-02;  9.9999998E-03; -9.0000004E-02;1399;  0.0000000E+00;  0.0000000E+00;  0.0000000E+00;  1.0053160E+03;  1.0000000E-01;  4.4042212E+03;0;  0.0000000E+00;  0.0000000E+00;  0.0000000E+00;0; -4.2196726E-03;  4.0000000E+04;  0.0000000E+00;  0.0000000E+00;  4.0000000E+04;  0.0000000E+00;  4.0000000E+04; -4.2535728E-03;  0.0000000E+00;  3.3899985E-05;  1.1185443E+03;
 -5.0000001E-02;  9.9999998E-03; -7.9999998E-02;1400;  0.0000000E+00;  0.0000000E+00;  0.0000000E+00;  1.0052850E+03;  1.0000000E-01;  4.3785430E+03;0;  0.0000000E+00;  0.0000000E+00;  0.0000000E+00;0; -4.1574966E-03;  4.0000000E+04;  0.0000000E+00;  0.0000000E+00;  4.0000000E+04;  0.0000000E+00;  4.0000000E+04; -4.1796756E-03;  0.0000000E+00;  2.2178889E-05;  1.1538894E+03;
 -5.0000001E-02;  9.9999998E-03; -7.0000000E-02;1401;  0.0000000E+00;  0.0000000E+00;  0.0000000E+00;  1.0052497E+03;  1.0000000E-01;  4.3493091E+03;0;  0.0000000E+00;  0.0000000E+00;  0.0000000E+00;0; -4.1098264E-03;  4.0000000E+04;  0.0000000E+00;  0.0000000E+00;  4.0000000E+04;  0.0000000E+00;  4.0000000E+04; -4.1297758E-03;  0.0000000E+00;  1.9949544E-05;  1.1991904E+03;
 -5.0000001E-02;  9.9999998E-03; -5.9999999E-02;1402;  0.0000000E+00;  0.0000000E+00;  0.0000000E+00;  1.0052147E+03;  1.0000000E-01;  4.3202729E+03;0;  0.0000000E+00;  0.0000000E+00;  0.0000000E+00;0; -4.0762504E-03;  4.0000000E+04;  0.0000000E+00;  0.0000000E+00;  4.0000000E+04;  0.0000000E+00;  4.0000000E+04; -4.1029733E-03;  0.0000000E+00;  2.6722959E-05;  1.2510247E+03;
 -5.0000001E-02;  9.9999998E-03; -5.0000001E-02;1403;  0.0000000E+00;  0.0000000E+00;  0.0000000E+00;  1.0051789E+03;  1.0000000E-01;  4.2906440E+03;0;  0.0000000E+00;  0.0000000E+00;  0.0000000E+00;0; -4.0548076E-03;  4.0000000E+04;  0.0000000E+00;  0.0000000E+00;  4.0000000E+04;  0.0000000E+00;  4.0000000E+04; -4.0956223E-03;  0.0000000E+00;  4.0814532E-05;  1.3053270E+03;
 -5.0000001E-02;  9.9999998E-03; -3.9999999E-02;1404;  0.0000000E+00;  0.0000000E+00;  0.0000000E+00;  1.0051475E+03;  1.0000000E-01;  4.2645708E+03;0;  0.0000000E+00;  0.0000000E+00;  0.0000000E+00;0; -4.0427139E-03;  4.0000000E+04;  0.0000000E+00;  0.0000000E+00;  4.0000000E+04;  0.0000000E+00;  4.0000000E+04; -4.1022110E-03;  0.0000000E+00;  5.9497012E-05;  1.3577019E+03;
 -5.0000001E-02;  9.9999998E-03; -2.9999999E-02;1405;  0.0000000E+00;  0.0000000E+00;  0.0000000E+00;  1.0051214E+03;  1.0000000E-01;  4.2429419E+03;0;  0.0000000E+00;  0.0000000E+00;  0.0000000E+00;0; -4.0369728E-03;  4.0000000E+04;  0.0000000E+00;  0.0000000E+00;  4.0000000E+04;  0.0000000E+00;  4.0000000E+04; -4.1163317E-03;  0.0000000E+00;  7.9358753E-05;  1.4038076E+03;
 -5.0000001E-02;  9.9999998E-03; -2.0000000E-02;1406;  0.0000000E+00;  0.0000000E+00;  0.0000000E+00;  1.0051041E+03;  1.0000000E-01;  4.2286211E+03;0;  0.0000000E+00;  0.0000000E+00;  0.0000000E+00;0; -4.0349294E-03;  4.0000000E+04;  0.0000000E+00;  0.0000000E+00;  4.0000000E+04;  0.0000000E+00;  4.0000000E+04; -4.1317530E-03;  0.0000000E+00;  9.6823722E-05;  1.4398063E+03;
 -5.0000001E-02;  9.9999998E-03; -9.9999998E-03;1407;  0.0000000E+00;  0.0000000E+00;  0.0000000E+00;  1.0050944E+03;  1.0000000E-01;  4.2206216E+03;0;  0.0000000E+00;  0.0000000E+00;  0.0000000E+00;0; -4.0345402E-03;  4.0000000E+04;  0.0000000E+00;  0.0000000E+00;  4.0000000E+04;  0.0000000E+00;  4.0000000E+04; -4.1432884E-03;  0.0000000E+00;  1.0874822E-04;  1.4626746E+03;
 -5.0000001E-02;  9.9999998E-03;  0.0000000E+00;1408;  0.0000000E+00;  0.0000000E+00;  0.0000000E+00;  1.0050912E+03;  1.0000000E-01;  4.2179546E+03;0;  0.0000000E+00;  0.0000000E+00;  0.0000000E+00;0; -4.0345523E-03;  4.0000000E+04;  0.0000000E+00;  0.0000000E+00;  4.0000000E+04;  0.0000000E+00;  4.0000000E+04; -4.1475305E-03;  0.0000000E+00;  1.1297824E-04;  1.4705162E+03;
 -5.0000001E-02;  9.9999998E-03;  9.9999998E-03;1409;  0.0000000E+00;  0.0000000E+00;  0.0000000E+00;  1.0050944E+03;  1.0000000E-01;  4.2206216E+03;0;  0.0000000E+00;  0.0000000E+00;  0.0000000E+00;0; -4.0345439E-03;  4.0000000E+04;  0.0000000E+00;  0.0000000E+00;  4.0000000E+04;  0.0000000E+00;  4.0000000E+04; -4.1432925E-03;  0.0000000E+00;  1.0874848E-04;  1.4626744E+03;
 -5.0000001E-02;  9.9999998E-03;  2.0000000E-02;1410;  0.0000000E+00;  0.0000000E+00;  0.0000000E+00;  1.0051041E+03;  1.0000000E-01;  4.2286211E+03;0;  0.0000000E+00;  0.0000000E+00;  0.0000000E+00;0; -4.0349341E-03;  4.0000000E+04;  0.0000000E+00;  0.0000000E+00;  4.0000000E+04;  0.0000000E+00;  4.0000000E+04; -4.1317586E-03;  0.0000000E+00;  9.6824297E-05;  1.4398065E+03;
 -5.0000001E-02;  9.9999998E-03;  2.9999999E-02;1411;  0.0000000E+00;  0.0000000E+00;  0.0000000E+00;  1.0051214E+03;  1.0000000E-01;  4.2429419E+03;0;  0.0000000E+00;  0.0000000E+00;  0.0000000E+00;0; -4.0369760E-03;  4.0000000E+04;  0.0000000E+00;  0.0000000E+00;  4.0000000E+04;  0.0000000E+00;  4.0000000E+04; -4.1163359E-03;  0.0000000E+00;  7.9359648E-05;  1.4038134E+03;
 -5.0000001E-02;  9.9999998E-03;  3.9999999E-02;1412;  0.0000000E+00;  0.0000000E+00;  0.0000000E+00;  1.0051475E+03;  1.0000000E-01;  4.2645708E+03;0;  0.0000000E+00;  0.0000000E+00;  0.0000000E+00;0; -4.0427181E-03;  4.0000000E+04;  0.0000000E+00;  0.0000000E+00;  4.0000000E+04;  0.0000000E+00;  4.0000000E+04; -4.1022166E-03;  0.0000000E+00;  5.9498358E-05;  1.3577046E+03;
 -5.0000001E-02;  9.9999998E-03;  5.0000001E-02;1413;  0.0000000E+00;  0.0000000E+00;  0.0000000E+00;  1.0051789E+03;  1.0000000E-01;  4.2906440E+03;0;  0.0000000E+00;  0.0000000E+00;  0.0000000E+00;0; -4.0548155E-03;  4.0000000E+04;  0.0000000E+00;  0.0000000E+00;  4.0000000E+04;  0.0000000E+00;  4.0000000E+04; -4.0956317E-03;  0.0000000E+00;  4.0816336E-05;  1.3053312E+03;
 -5.0000001E-02;  9.9999998E-03;  5.9999999E-02;1414;  0.0000000E+00;  0.0000000E+00;  0.0000000E+00;  1.0052147E+03;  1.0000000E-01;  4.3202729E+03;0;  0.0000000E+00;  0.0000000E+00;  0.0000000E+00;0; -4.0762583E-03;  4.0000000E+04;  0.0000000E+00;  0.0000000E+00;  4.0000000E+04;  0.0000000E+00;  4.0000000E+04; -4.1029835E-03;  0.0000000E+00;  2.6725276E-05;  1.2510283E+03;
 -3.9999999E-02;  9.9999998E-03; -1.0000000E-01;1489;  0.0000000E+00;  0.0000000E+00;  0.0000000E+00;  1.0073383E+03;  1.0000000E-01;  6.0796304E+03;0;  0.0000000E+00;  0.0000000E+00;  0.0000000E+00;0; -6.3347840E-03;  4.0000000E+04;  0.0000000E+00;  0.0000000E+00;  4.0000000E+04;  0.0000000E+00;  4.0000000E+04; -6.4145927E-03;  0.0000000E+00;  7.9808728E-05;  1.2266826E+03;
 -3.9999999E-02;  9.9999998E-03; -9.0000004E-02;1490;  0.0000000E+00;  0.0000000E+00;  0.0000000E+00;  1.0073114E+03;  1.0000000E-01;  6.0573101E+03;0;  0.0000000E+00;  0.0000000E+00;  0.0000000E+00;0; -6.2389676E-03;  4.0000000E+04;  0.0000000E+00;  0.0000000E+00;  4.0000000E+04;  0.0000000E+00;  4.0000000E+04; -6.2943590E-03;  0.0000000E+00;  5.5391316E-05;  1.2515734E+03;
 -3.9999999E-02;  9.9999998E-03; -7.9999998E-02;1491;  0.0000000E+00;  0.0000000E+00;  0.0000000E+00;  1.0072728E+03;  1.0000000E-01;  6.0254097E+03;0;  0.0000000E+00;  0.0000000E+00;  0.0000000E+00;0; -6.1594285E-03;  4.0000000E+04;  0.0000000E+00;  0.0000000E+00;  4.0000000E+04;  0.0000000E+00;  4.0000000E+04; -6.2007257E-03;  0.0000000E+00;  4.1297390E-05;  1.2929552E+03;
 -3.9999999E-02;  9.9999998E-03; -7.0000000E-02;1492;  0.0000000E+00;  0.0000000E+00;  0.0000000E+00;  1.0072284E+03;  1.0000000E-01;  5.9885713E+03;0;  0.0000000E+00;  0.0000000E+00;  0.0000000E+00;0; -6.0982103E-03;  4.0000000E+04;  0.0000000E+00;  0.0000000E+00;  4.0000000E+04;  0.0000000E+00;  4.0000000E+04; -6.1368197E-03;  0.0000000E+00;  3.8609331E-05;  1.3476586E+03;
 -3.9999999E-02;  9.9999998E-03; -5.9999999E-02;1493;  0.0000000E+00;  0.0000000E+00;  0.0000000E+00;  1.0071808E+03;  1.0000000E-01;  5.9491650E+03;0;  0.0000000E+00;  0.0000000E+00;  0.0000000E+00;0; -6.0546231E-03;  4.0000000E+04;  0.0000000E+00;  0.0000000E+00;  4.0000000E+04;  0.0000000E+00;  4.0000000E+04; -6.1016069E-03;  0.0000000E+00;  4.6984034E-05;  1.4115035E+03;
 -3.9999999E-02;  9.9999998E-03; -5.0000001E-02;1494;  0.0000000E+00;  0.0000000E+00;  0.0000000E+00;  1.0071352E+03;  1.0000000E-01;  5.9113389E+03;0;  0.0000000E+00;  0.0000000E+00;  0.0000000E+00;0; -6.0261087E-03;  4.0000000E+04;  0.0000000E+00;  0.0000000E+00;  4.0000000E+04;  0.0000000E+00;  4.0000000E+04; -6.0906387E-03;  0.0000000E+00;  6.4530068E-05;  1.4793464E+03;
 -3.9999999E-02;  9.9999998E-03; -3.9999999E-02;1495;  0.0000000E+00;  0.0000000E+00;  0.0000000E+00;  1.0070961E+03;  1.0000000E-01;  5.8790435E+03;0;  0.0000000E+00;  0.0000000E+00;  0.0000000E+00;0; -6.0091773E-03;  4.0000000E+04;  0.0000000E+00;  0.0000000E+00;  4.0000000E+04;  0.0000000E+00;  4.0000000E+04; -6.0971323E-03;  0.0000000E+00;  8.7954868E-05;  1.5454482E+03;
 -3.9999999E-02;  9.9999998E-03; -2.9999999E-02;1496;  0.0000000E+00;  0.0000000E+00;  0.0000000E+00;  1.0070634E+03;  1.0000000E-01;  5.8518838E+03;0;  0.0000000E+00;  0.0000000E+00;  0.0000000E+00;0; -6.0002431E-03;  4.0000000E+04;  0.0000000E+00;  0.0000000E+00;  4.0000000E+04;  0.0000000E+00;  4.0000000E+04; -6.1132442E-03;  0.0000000E+00;  1.1300087E-04;  1.6040872E+03;
 -3.9999999E-02;  9.9999998E-03; -2.0000000E-02;1497;  0.0000000E+00;  0.0000000E+00;  0.0000000E+00;  1.0070415E+03;  1.0000000E-01;  5.8337114E+03;0;  0.0000000E+00;  0.0000000E+00;  0.0000000E+00;0; -5.9961877E-03;  4.0000000E+04;  0.0000000E+00;  0.0000000E+00;  4.0000000E+04;  0.0000000E+00;  4.0000000E+04; -6.1313063E-03;  0.0000000E+00;  1.3511839E-04;  1.6500992E+03;
 -3.9999999E-02;  9.9999998E-03; -9.9999998E-03;1498;  0.0000000E+00;  0.0000000E+00;  0.0000000E+00;  1.0070279E+03;  1.0000000E-01;  5.8224526E+03;0;  0.0000000E+00;  0.0000000E+00;  0.0000000E+00;0; -5.9946883E-03;  4.0000000E+04;  0.0000000E+00;  0.0000000E+00;  4.0000000E+04;  0.0000000E+00;  4.0000000E+04; -6.1449502E-03;  0.0000000E+00;  1.5026207E-04;  1.6794486E+03;
 -3.9999999E-02;  9.9999998E-03;  0.0000000E+00;1499;  0.0000000E+00;  0.0000000E+00;  0.0000000E+00;  1.0070239E+03;  1.0000000E-01;  5.8190947E+03;0;  0.0000000E+00;  0.0000000E+00;  0.0000000E+00;0; -5.9943413E-03;  4.0000000E+04;  0.0000000E+00;  0.0000000E+00;  4.0000000E+04;  0.0000000E+00;  4.0000000E+04; -6.1499830E-03;  0.0000000E+00;  1.5564184E-04;  1.6895083E+03;
 -3.9999999E-02;  9.9999998E-03;  9.9999998E-03;1500;  0.0000000E+00;  0.0000000E+00;  0.0000000E+00;  1.0070279E+03;  1.0000000E-01;  5.8224526E+03;0;  0.0000000E+00;  0.0000000E+00;  0.0000000E+00;0; -5.9946897E-03;  4.0000000E+04;  0.0000000E+00;  0.0000000E+00;  4.0000000E+04;  0.0000000E+00;  4.0000000E+04; -6.1449520E-03;  0.0000000E+00;  1.5026248E-04;  1.6794493E+03;
 -3.9999999E-02;  9.9999998E-03;  2.0000000E-02;1501;  0.0000000E+00;  0.0000000E+00;  0.0000000E+00;  1.0070415E+03;  1.0000000E-01;  5.8337114E+03;0;  0.0000000E+00;  0.0000000E+00;  0.0000000E+00;0; -5.9961900E-03;  4.0000000E+04;  0.0000000E+00;  0.0000000E+00;  4.0000000E+04;  0.0000000E+00;  4.0000000E+04; -6.1313096E-03;  0.0000000E+00;  1.3511948E-04;  1.6501035E+03;
 -3.9999999E-02;  9.9999998E-03;  2.9999999E-02;1502;  0.0000000E+00;  0.0000000E+00;  0.0000000E+00;  1.0070634E+03;  1.0000000E-01;  5.8518838E+03;0;  0.0000000E+00;  0.0000000E+00;  0.0000000E+00;0; -6.0002487E-03;  4.0000000E+04;  0.0000000E+00;  0.0000000E+00;  4.0000000E+04;  0.0000000E+00;  4.0000000E+04; -6.1132512E-03;  0.0000000E+00;  1.1300232E-04;  1.6040933E+03;
 -3.9999999E-02;  9.9999998E-03;  3.9999999E-02;1503;  0.0000000E+00;  0.0000000E+00;  0.0000000E+00;  1.0070961E+03;  1.0000000E-01;  5.8790435E+03;0;  0.0000000E+00;  0.0000000E+00;  0.0000000E+00;0; -6.0091857E-03;  4.0000000E+04;  0.0000000E+00;  0.0000000E+00;  4.0000000E+04;  0.0000000E+00;  4.0000000E+04; -6.0971426E-03;  0.0000000E+00;  8.7956949E-05;  1.5454558E+03;
 -3.9999999E-02;  9.9999998E-03;  5.0000001E-02;1504;  0.0000000E+00;  0.0000000E+00;  0.0000000E+00;  1.0071352E+03;  1.0000000E-01;  5.9113389E+03;0;  0.0000000E+00;  0.0000000E+00;  0.0000000E+00;0; -6.0261153E-03;  4.0000000E+04;  0.0000000E+00;  0.0000000E+00;  4.0000000E+04;  0.0000000E+00;  4.0000000E+04; -6.0906480E-03;  0.0000000E+00;  6.4532665E-05;  1.4793505E+03;
 -3.9999999E-02;  9.9999998E-03;  5.9999999E-02;1505;  0.0000000E+00;  0.0000000E+00;  0.0000000E+00;  1.0071808E+03;  1.0000000E-01;  5.9491650E+03;0;  0.0000000E+00;  0.0000000E+00;  0.0000000E+00;0; -6.0546338E-03;  4.0000000E+04;  0.0000000E+00;  0.0000000E+00;  4.0000000E+04;  0.0000000E+00;  4.0000000E+04; -6.1016208E-03;  0.0000000E+00;  4.6987247E-05;  1.4115089E+03;
 -2.9999999E-02;  9.9999998E-03; -1.0000000E-01;1580;  0.0000000E+00;  0.0000000E+00;  0.0000000E+00;  1.0096592E+03;  1.0000000E-01;  8.0024404E+03;0;  0.0000000E+00;  0.0000000E+00;  0.0000000E+00;0; -8.7321233E-03;  4.0000000E+04;  0.0000000E+00;  0.0000000E+00;  4.0000000E+04;  0.0000000E+00;  4.0000000E+04; -8.8438131E-03;  0.0000000E+00;  1.1168971E-04;  1.2944276E+03;
 -2.9999999E-02;  9.9999998E-03; -9.0000004E-02;1581;  0.0000000E+00;  0.0000000E+00;  0.0000000E+00;  1.0096279E+03;  1.0000000E-01;  7.9765645E+03;0;  0.0000000E+00;  0.0000000E+00;  0.0000000E+00;0; -8.6125005E-03;  4.0000000E+04;  0.0000000E+00;  0.0000000E+00;  4.0000000E+04;  0.0000000E+00;  4.0000000E+04; -8.6967843E-03;  0.0000000E+00;  8.4283776E-05;  1.3185847E+03;
 -2.9999999E-02;  9.9999998E-03; -7.9999998E-02;1582;  0.0000000E+00;  0.0000000E+00;  0.0000000E+00;  1.0095782E+03;  1.0000000E-01;  7.9353804E+03;0;  0.0000000E+00;  0.0000000E+00;  0.0000000E+00;0; -8.5134106E-03;  4.0000000E+04;  0.0000000E+00;  0.0000000E+00;  4.0000000E+04;  0.0000000E+00;  4.0000000E+04; -8.5816979E-03;  0.0000000E+00;  6.8286980E-05;  1.3633928E+03;
 -2.9999999E-02;  9.9999998E-03; -7.0000000E-02;1583;  0.0000000E+00;  0.0000000E+00;  0.0000000E+00;  1.0095173E+03;  1.0000000E-01;  7.8849126E+03;0;  0.0000000E+00;  0.0000000E+00;  0.0000000E+00;0; -8.4370263E-03;  4.0000000E+04;  0.0000000E+00;  0.0000000E+00;  4.0000000E+04;  0.0000000E+00;  4.0000000E+04; -8.5023912E-03;  0.0000000E+00;  6.5364547E-05;  1.4255645E+03;
 -2.9999999E-02;  9.9999998E-03; -5.9999999E-02;1584;  0.0000000E+00;  0.0000000E+00;  0.0000000E+00;  1.0094548E+03;  1.0000000E-01;  7.8330625E+03;0;  0.0000000E+00;  0.0000000E+00;  0.0000000E+00;0; -8.3821360E-03;  4.0000000E+04;  0.0000000E+00;  0.0000000E+00;  4.0000000E+04;  0.0000000E+00;  4.0000000E+04; -8.4576076E-03;  0.0000000E+00;  7.5471638E-05;  1.5003018E+03;
 -2.9999999E-02;  9.9999998E-03; -5.0000001E-02;1585;  0.0000000E+00;  0.0000000E+00;  0.0000000E+00;  1.0093990E+03;  1.0000000E-01;  7.7868413E+03;0;  0.0000000E+00;  0.0000000E+00;  0.0000000E+00;0; -8.3454857E-03;  4.0000000E+04;  0.0000000E+00;  0.0000000E+00;  4.0000000E+04;  0.0000000E+00;  4.0000000E+04; -8.4421048E-03;  0.0000000E+00;  9.6618918E-05;  1.5813342E+03;
 -2.9999999E-02;  9.9999998E-03; -3.9999999E-02;1586;  0.0000000E+00;  0.0000000E+00;  0.0000000E+00;  1.0093495E+03;  1.0000000E-01;  7.7458550E+03;0;  0.0000000E+00;  0.0000000E+00;  0.0000000E+00;0; -8.3227744E-03;  4.0000000E+04;  0.0000000E+00;  0.0000000E+00;  4.0000000E+04;  0.0000000E+00;  4.0000000E+04; -8.4477700E-03;  0.0000000E+00;  1.2499552E-04;  1.6614083E+03;
 -2.9999999E-02;  9.9999998E-03; -2.9999999E-02;1587;  0.0000000E+00;  0.0000000E+00;  0.0000000E+00;  1.0093099E+03;  1.0000000E-01;  7.7130659E+03;0;  0.0000000E+00;  0.0000000E+00;  0.0000000E+00;0; -8.3098086E-03;  4.0000000E+04;  0.0000000E+00;  0.0000000E+00;  4.0000000E+04;  0.0000000E+00;  4.0000000E+04; -8.4652919E-03;  0.0000000E+00;  1.5548336E-04;  1.7331495E+03;
 -2.9999999E-02;  9.9999998E-03; -2.0000000E-02;1588;  0.0000000E+00;  0.0000000E+00;  0.0000000E+00;  1.0092825E+03;  1.0000000E-01;  7.6903506E+03;0;  0.0000000E+00;  0.0000000E+00;  0.0000000E+00;0; -8.3030807E-03;  4.0000000E+04;  0.0000000E+00;  0.0000000E+00;  4.0000000E+04;  0.0000000E+00;  4.0000000E+04; -8.4855864E-03;  0.0000000E+00;  1.8250597E-04;  1.7898136E+03;
 -2.9999999E-02;  9.9999998E-03; -9.9999998E-03;1589;  0.0000000E+00;  0.0000000E+00;  0.0000000E+00;  1.0092657E+03;  1.0000000E-01;  7.6765234E+03;0;  0.0000000E+00;  0.0000000E+00;  0.0000000E+00;0; -8.3000194E-03;  4.0000000E+04;  0.0000000E+00;  0.0000000E+00;  4.0000000E+04;  0.0000000E+00;  4.0000000E+04; -8.5010724E-03;  0.0000000E+00;  2.0105265E-04;  1.8261021E+03;
 -2.9999999E-02;  9.9999998E-03;  0.0000000E+00;1590;  0.0000000E+00;  0.0000000E+00;  0.0000000E+00;  1.0092603E+03;  1.0000000E-01;  7.6719805E+03;0;  0.0000000E+00;  0.0000000E+00;  0.0000000E+00;0; -8.2991635E-03;  4.0000000E+04;  0.0000000E+00;  0.0000000E+00;  4.0000000E+04;  0.0000000E+00;  4.0000000E+04; -8.5068122E-03;  0.0000000E+00;  2.0764902E-04;  1.8385803E+03;
 -2.9999999E-02;  9.9999998E-03;  9.9999998E-03;1591;  0.0000000E+00;  0.0000000E+00;  0.0000000E+00;  1.0092657E+03;  1.0000000E-01;  7.6765234E+03;0;  0.0000000E+00;  0.0000000E+00;  0.0000000E+00;0; -8.3000250E-03;  4.0000000E+04;  0.0000000E+00;  0.0000000E+00;  4.0000000E+04;  0.0000000E+00;  4.0000000E+04; -8.5010780E-03;  0.0000000E+00;  2.0105325E-04;  1.8261033E+03;
 -2.9999999E-02;  9.9999998E-03;  2.0000000E-02;1592;  0.0000000E+00;  0.0000000E+00;  0.0000000E+00;  1.0092825E+03;  1.0000000E-01;  7.6903506E+03;0;  0.0000000E+00;  0.0000000E+00;  0.0000000E+00;0; -8.3030844E-03;  4.0000000E+04;  0.0000000E+00;  0.0000000E+00;  4.0000000E+04;  0.0000000E+00;  4.0000000E+04; -8.4855920E-03;  0.0000000E+00;  1.8250740E-04;  1.7898177E+03;
 -2.9999999E-02;  9.9999998E-03;  2.9999999E-02;1593;  0.0000000E+00;  0.0000000E+00;  0.0000000E+00;  1.0093099E+03;  1.0000000E-01;  7.7130659E+03;0;  0.0000000E+00;  0.0000000E+00;  0.0000000E+00;0; -8.3098123E-03;  4.0000000E+04;  0.0000000E+00;  0.0000000E+00;  4.0000000E+04;  0.0000000E+00;  4.0000000E+04; -8.4652975E-03;  0.0000000E+00;  1.5548556E-04;  1.7331550E+03;
 -2.9999999E-02;  9.9999998E-03;  3.9999999E-02;1594;  0.0000000E+00;  0.0000000E+00;  0.0000000E+00;  1.0093495E+03;  1.0000000E-01;  7.7458550E+03;0;  0.0000000E+00;  0.0000000E+00;  0.0000000E+00;0; -8.3227754E-03;  4.0000000E+04;  0.0000000E+00;  0.0000000E+00;  4.0000000E+04;  0.0000000E+00;  4.0000000E+04; -8.4477738E-03;  0.0000000E+00;  1.2499841E-04;  1.6614141E+03;
 -2.9999999E-02;  9.9999998E-03;  5.0000001E-02;1595;  0.0000000E+00;  0.0000000E+00;  0.0000000E+00;  1.0093990E+03;  1.0000000E-01;  7.7868413E+03;0;  0.0000000E+00;  0.0000000E+00;  0.0000000E+00;0; -8.3454922E-03;  4.0000000E+04;  0.0000000E+00;  0.0000000E+00;  4.0000000E+04;  0.0000000E+00;  4.0000000E+04; -8.4421150E-03;  0.0000000E+00;  9.6622440E-05;  1.5813448E+03;
 -2.9999999E-02;  9.9999998E-03;  5.9999999E-02;1596;  0.0000000E+00;  0.0000000E+00;  0.0000000E+00;  1.0094548E+03;  1.0000000E-01;  7.8330625E+03;0;  0.0000000E+00;  0.0000000E+00;  0.0000000E+00;0; -8.3821621E-03;  4.0000000E+04;  0.0000000E+00;  0.0000000E+00;  4.0000000E+04;  0.0000000E+00;  4.0000000E+04; -8.4576383E-03;  0.0000000E+00;  7.5475909E-05;  1.5003011E+03;
 -2.0000000E-02;  9.9999998E-03; -1.0000000E-01;1671;  0.0000000E+00;  0.0000000E+00;  0.0000000E+00;  1.0122036E+03;  1.0000000E-01;  1.0110430E+04;0;  0.0000000E+00;  0.0000000E+00;  0.0000000E+00;0; -1.1362888E-02;  4.0000000E+04;  0.0000000E+00;  0.0000000E+00;  4.0000000E+04;  0.0000000E+00;  4.0000000E+04; -1.1513403E-02;  0.0000000E+00;  1.5051459E-04;  1.2754415E+03;
 -2.0000000E-02;  9.9999998E-03; -9.0000004E-02;1672;  0.0000000E+00;  0.0000000E+00;  0.0000000E+00;  1.0121555E+03;  1.0000000E-01;  1.0070530E+04;0;  0.0000000E+00;  0.0000000E+00;  0.0000000E+00;0; -1.1217359E-02;  4.0000000E+04;  0.0000000E+00;  0.0000000E+00;  4.0000000E+04;  0.0000000E+00;  4.0000000E+04; -1.1338883E-02;  0.0000000E+00;  1.2152382E-04;  1.2946271E+03;
 -2.0000000E-02;  9.9999998E-03; -7.9999998E-02;1673;  0.0000000E+00;  0.0000000E+00;  0.0000000E+00;  1.0120891E+03;  1.0000000E-01;  1.0015618E+04;0;  0.0000000E+00;  0.0000000E+00;  0.0000000E+00;0; -1.1097258E-02;  4.0000000E+04;  0.0000000E+00;  0.0000000E+00;  4.0000000E+04;  0.0000000E+00;  4.0000000E+04; -1.1201597E-02;  0.0000000E+00;  1.0433847E-04;  1.3387090E+03;
 -2.0000000E-02;  9.9999998E-03; -7.0000000E-02;1674;  0.0000000E+00;  0.0000000E+00;  0.0000000E+00;  1.0120137E+03;  1.0000000E-01;  9.9531016E+03;0;  0.0000000E+00;  0.0000000E+00;  0.0000000E+00;0; -1.1004576E-02;  4.0000000E+04;  0.0000000E+00;  0.0000000E+00;  4.0000000E+04;  0.0000000E+00;  4.0000000E+04; -1.1105967E-02;  0.0000000E+00;  1.0139023E-04;  1.4047908E+03;
 -2.0000000E-02;  9.9999998E-03; -5.9999999E-02;1675;  0.0000000E+00;  0.0000000E+00;  0.0000000E+00;  1.0119370E+03;  1.0000000E-01;  9.8895967E+03;0;  0.0000000E+00;  0.0000000E+00;  0.0000000E+00;0; -1.0937456E-02;  4.0000000E+04;  0.0000000E+00;  0.0000000E+00;  4.0000000E+04;  0.0000000E+00;  4.0000000E+04; -1.1050594E-02;  0.0000000E+00;  1.1313771E-04;  1.4877657E+03;
 -2.0000000E-02;  9.9999998E-03; -5.0000001E-02;1676;  0.0000000E+00;  0.0000000E+00;  0.0000000E+00;  1.0118693E+03;  1.0000000E-01;  9.8335000E+03;0;  0.0000000E+00;  0.0000000E+00;  0.0000000E+00;0; -1.0891700E-02;  4.0000000E+04;  0.0000000E+00;  0.0000000E+00;  4.0000000E+04;  0.0000000E+00;  4.0000000E+04; -1.1029371E-02;  0.0000000E+00;  1.3767046E-04;  1.5803120E+03;
 -2.0000000E-02;  9.9999998E-03; -3.9999999E-02;1677;  0.0000000E+00;  0.0000000E+00;  0.0000000E+00;  1.0118080E+03;  1.0000000E-01;  9.7827354E+03;0;  0.0000000E+00;  0.0000000E+00;  0.0000000E+00;0; -1.0862257E-02;  4.0000000E+04;  0.0000000E+00;  0.0000000E+00;  4.0000000E+04;  0.0000000E+00;  4.0000000E+04; -1.1033038E-02;  0.0000000E+00;  1.7078043E-04;  1.6735599E+03;
 -2.0000000E-02;  9.9999998E-03; -2.9999999E-02;1678;  0.0000000E+00;  0.0000000E+00;  0.0000000E+00;  1.0117610E+03;  1.0000000E-01;  9.7438232E+03;0;  0.0000000E+00;  0.0000000E+00;  0.0000000E+00;0; -1.0844328E-02;  4.0000000E+04;  0.0000000E+00;  0.0000000E+00;  4.0000000E+04;  0.0000000E+00;  4.0000000E+04; -1.1050877E-02;  0.0000000E+00;  2.0654926E-04;  1.7582184E+03;
 -2.0000000E-02;  9.9999998E-03; -2.0000000E-02;1679;  0.0000000E+00;  0.0000000E+00;  0.0000000E+00;  1.0117271E+03;  1.0000000E-01;  9.7156758E+03;0;  0.0000000E+00;  0.0000000E+00;  0.0000000E+00;0; -1.0834103E-02;  4.0000000E+04;  0.0000000E+00;  0.0000000E+00;  4.0000000E+04;  0.0000000E+00;  4.0000000E+04; -1.1072489E-02;  0.0000000E+00;  2.3838606E-04;  1.8256843E+03;
 -2.0000000E-02;  9.9999998E-03; -9.9999998E-03;1680;  0.0000000E+00;  0.0000000E+00;  0.0000000E+00;  1.0117073E+03;  1.0000000E-01;  9.6992812E+03;0;  0.0000000E+00;  0.0000000E+00;  0.0000000E+00;0; -1.0828960E-02;  4.0000000E+04;  0.0000000E+00;  0.0000000E+00;  4.0000000E+04;  0.0000000E+00;  4.0000000E+04; -1.1089257E-02;  0.0000000E+00;  2.6029744E-04;  1.8691229E+03;
 -2.0000000E-02;  9.9999998E-03;  0.0000000E+00;1681;  0.0000000E+00;  0.0000000E+00;  0.0000000E+00;  1.0117001E+03;  1.0000000E-01;  9.6933555E+03;0;  0.0000000E+00;  0.0000000E+00;  0.0000000E+00;0; -1.0827399E-02;  4.0000000E+04;  0.0000000E+00;  0.0000000E+00;  4.0000000E+04;  0.0000000E+00;  4.0000000E+04; -1.1095500E-02;  0.0000000E+00;  2.6810085E-04;  1.8840922E+03;
 -2.0000000E-02;  9.9999998E-03;  9.9999998E-03;1682;  0.0000000E+00;  0.0000000E+00;  0.0000000E+00;  1.0117073E+03;  1.0000000E-01;  9.6992812E+03;0;  0.0000000E+00;  0.0000000E+00;  0.0000000E+00;0; -1.0828960E-02;  4.0000000E+04;  0.0000000E+00;  0.0000000E+00;  4.0000000E+04;  0.0000000E+00;  4.0000000E+04; -1.1089258E-02;  0.0000000E+00;  2.6029776E-04;  1.8691267E+03;
 -2.0000000E-02;  9.9999998E-03;  2.0000000E-02;1683;  0.0000000E+00;  0.0000000E+00;  0.0000000E+00;  1.0117271E+03;  1.0000000E-01;  9.7156758E+03;0;  0.0000000E+00;  0.0000000E+00;  0.0000000E+00;0; -1.0834101E-02;  4.0000000E+04;  0.0000000E+00;  0.0000000E+00;  4.0000000E+04;  0.0000000E+00;  4.0000000E+04; -1.1072489E-02;  0.0000000E+00;  2.3838812E-04;  1.8256891E+03;
 -2.0000000E-02;  9.9999998E-03;  2.9999999E-02;1684;  0.0000000E+00;  0.0000000E+00;  0.0000000E+00;  1.0117609E+03;  1.0000000E-01;  9.7437246E+03;0;  0.0000000E+00;  0.0000000E+00;  0.0000000E+00;0; -1.0844330E-02;  4.0000000E+04;  0.0000000E+00;  0.0000000E+00;  4.0000000E+04;  0.0000000E+00;  4.0000000E+04; -1.1050883E-02;  0.0000000E+00;  2.0655223E-04;  1.7582284E+03;
 -2.0000000E-02;  9.9999998E-03;  3.9999999E-02;1685;  0.0000000E+00;  0.0000000E+00;  0.0000000E+00;  1.0118079E+03;  1.0000000E-01;  9.7826367E+03;0;  0.0000000E+00;  0.0000000E+00;  0.0000000E+00;0; -1.0862269E-02;  4.0000000E+04;  0.0000000E+00;  0.0000000E+00;  4.0000000E+04;  0.0000000E+00;  4.0000000E+04; -1.1033054E-02;  0.0000000E+00;  1.7078433E-04;  1.6735637E+03;
 -2.0000000E-02;  9.9999998E-03;  5.0000001E-02;1686;  0.0000000E+00;  0.0000000E+00;  0.0000000E+00;  1.0118693E+03;  1.0000000E-01;  9.8335000E+03;0;  0.0000000E+00;  0.0000000E+00;  0.0000000E+00;0; -1.0891707E-02;  4.0000000E+04;  0.0000000E+00;  0.0000000E+00;  4.0000000E+04;  0.0000000E+00;  4.0000000E+04; -1.1029382E-02;  0.0000000E+00;  1.3767526E-04;  1.5803176E+03;
 -2.0000000E-02;  9.9999998E-03;  5.9999999E-02;1687;  0.0000000E+00;  0.0000000E+00;  0.0000000E+00;  1.0119370E+03;  1.0000000E-01;  9.8895967E+03;0;  0.0000000E+00;  0.0000000E+00;  0.0000000E+00;0; -1.0937465E-02;  4.0000000E+04;  0.0000000E+00;  0.0000000E+00;  4.0000000E+04;  0.0000000E+00;  4.0000000E+04; -1.1050609E-02;  0.0000000E+00;  1.1314315E-04;  1.4877709E+03;
 -9.9999998E-03;  9.9999998E-03; -1.0000000E-01;1762;  0.0000000E+00;  0.0000000E+00;  0.0000000E+00;  1.0148323E+03;  1.0000000E-01;  1.2288245E+04;0;  0.0000000E+00;  0.0000000E+00;  0.0000000E+00;0; -1.4053033E-02;  4.0000000E+04;  0.0000000E+00;  0.0000000E+00;  4.0000000E+04;  0.0000000E+00;  4.0000000E+04; -1.4249795E-02;  0.0000000E+00;  1.9676240E-04;  1.1539316E+03;
 -9.9999998E-03;  9.9999998E-03; -9.0000004E-02;1763;  0.0000000E+00;  0.0000000E+00;  0.0000000E+00;  1.0147654E+03;  1.0000000E-01;  1.2232839E+04;0;  0.0000000E+00;  0.0000000E+00;  0.0000000E+00;0; -1.3880684E-02;  4.0000000E+04;  0.0000000E+00;  0.0000000E+00;  4.0000000E+04;  0.0000000E+00;  4.0000000E+04; -1.4048710E-02;  0.0000000E+00;  1.6802542E-04;  1.1626771E+03;
 -9.9999998E-03;  9.9999998E-03; -7.9999998E-02;1764;  0.0000000E+00;  0.0000000E+00;  0.0000000E+00;  1.0146802E+03;  1.0000000E-01;  1.2162322E+04;0;  0.0000000E+00;  0.0000000E+00;  0.0000000E+00;0; -1.3739040E-02;  4.0000000E+04;  0.0000000E+00;  0.0000000E+00;  4.0000000E+04;  0.0000000E+00;  4.0000000E+04; -1.3889492E-02;  0.0000000E+00;  1.5045206E-04;  1.2000691E+03;
 -9.9999998E-03;  9.9999998E-03; -7.0000000E-02;1765;  0.0000000E+00;  0.0000000E+00;  0.0000000E+00;  1.0145836E+03;  1.0000000E-01;  1.2082227E+04;0;  0.0000000E+00;  0.0000000E+00;  0.0000000E+00;0; -1.3629659E-02;  4.0000000E+04;  0.0000000E+00;  0.0000000E+00;  4.0000000E+04;  0.0000000E+00;  4.0000000E+04; -1.3777117E-02;  0.0000000E+00;  1.4745798E-04;  1.2645367E+03;
 -9.9999998E-03;  9.9999998E-03; -5.9999999E-02;1766;  0.0000000E+00;  0.0000000E+00;  0.0000000E+00;  1.0144901E+03;  1.0000000E-01;  1.2004697E+04;0;  0.0000000E+00;  0.0000000E+00;  0.0000000E+00;0; -1.3549770E-02;  4.0000000E+04;  0.0000000E+00;  0.0000000E+00;  4.0000000E+04;  0.0000000E+00;  4.0000000E+04; -1.3710048E-02;  0.0000000E+00;  1.6027779E-04;  1.3512479E+03;
 -9.9999998E-03;  9.9999998E-03; -5.0000001E-02;1767;  0.0000000E+00;  0.0000000E+00;  0.0000000E+00;  1.0144050E+03;  1.0000000E-01;  1.1934279E+04;0;  0.0000000E+00;  0.0000000E+00;  0.0000000E+00;0; -1.3494176E-02;  4.0000000E+04;  0.0000000E+00;  0.0000000E+00;  4.0000000E+04;  0.0000000E+00;  4.0000000E+04; -1.3681526E-02;  0.0000000E+00;  1.8735020E-04;  1.4520627E+03;
 -9.9999998E-03;  9.9999998E-03; -3.9999999E-02;1768;  0.0000000E+00;  0.0000000E+00;  0.0000000E+00;  1.0143352E+03;  1.0000000E-01;  1.1876405E+04;0;  0.0000000E+00;  0.0000000E+00;  0.0000000E+00;0; -1.3457027E-02;  4.0000000E+04;  0.0000000E+00;  0.0000000E+00;  4.0000000E+04;  0.0000000E+00;  4.0000000E+04; -1.3681320E-02;  0.0000000E+00;  2.2429279E-04;  1.5564707E+03;
 -9.9999998E-03;  9.9999998E-03; -2.9999999E-02;1769;  0.0000000E+00;  0.0000000E+00;  0.0000000E+00;  1.0142802E+03;  1.0000000E-01;  1.1830875E+04;0;  0.0000000E+00;  0.0000000E+00;  0.0000000E+00;0; -1.3433077E-02;  4.0000000E+04;  0.0000000E+00;  0.0000000E+00;  4.0000000E+04;  0.0000000E+00;  4.0000000E+04; -1.3697625E-02;  0.0000000E+00;  2.6454756E-04;  1.6530344E+03;
 -9.9999998E-03;  9.9999998E-03; -2.0000000E-02;1770;  0.0000000E+00;  0.0000000E+00;  0.0000000E+00;  1.0142394E+03;  1.0000000E-01;  1.1797099E+04;0;  0.0000000E+00;  0.0000000E+00;  0.0000000E+00;0; -1.3418440E-02;  4.0000000E+04;  0.0000000E+00;  0.0000000E+00;  4.0000000E+04;  0.0000000E+00;  4.0000000E+04; -1.3719040E-02;  0.0000000E+00;  3.0059976E-04;  1.7309249E+03;
 -9.9999998E-03;  9.9999998E-03; -9.9999998E-03;1771;  0.0000000E+00;  0.0000000E+00;  0.0000000E+00;  1.0142154E+03;  1.0000000E-01;  1.1777148E+04;0;  0.0000000E+00;  0.0000000E+00;  0.0000000E+00;0; -1.3410517E-02;  4.0000000E+04;  0.0000000E+00;  0.0000000E+00;  4.0000000E+04;  0.0000000E+00;  4.0000000E+04; -1.3736029E-02;  0.0000000E+00;  3.2551191E-04;  1.7814445E+03;
 -9.9999998E-03;  9.9999998E-03;  0.0000000E+00;1772;  0.0000000E+00;  0.0000000E+00;  0.0000000E+00;  1.0142079E+03;  1.0000000E-01;  1.1771025E+04;0;  0.0000000E+00;  0.0000000E+00;  0.0000000E+00;0; -1.3408004E-02;  4.0000000E+04;  0.0000000E+00;  0.0000000E+00;  4.0000000E+04;  0.0000000E+00;  4.0000000E+04; -1.3742407E-02;  0.0000000E+00;  3.3440255E-04;  1.7989321E+03;
 -9.9999998E-03;  9.9999998E-03;  9.9999998E-03;1773;  0.0000000E+00;  0.0000000E+00;  0.0000000E+00;  1.0142153E+03;  1.0000000E-01;  1.1777148E+04;0;  0.0000000E+00;  0.0000000E+00;  0.0000000E+00;0; -1.3410512E-02;  4.0000000E+04;  0.0000000E+00;  0.0000000E+00;  4.0000000E+04;  0.0000000E+00;  4.0000000E+04; -1.3736025E-02;  0.0000000E+00;  3.2551351E-04;  1.7814510E+03;
 -9.9999998E-03;  9.9999998E-03;  2.0000000E-02;1774;  0.0000000E+00;  0.0000000E+00;  0.0000000E+00;  1.0142394E+03;  1.0000000E-01;  1.1797099E+04;0;  0.0000000E+00;  0.0000000E+00;  0.0000000E+00;0; -1.3418440E-02;  4.0000000E+04;  0.0000000E+00;  0.0000000E+00;  4.0000000E+04;  0.0000000E+00;  4.0000000E+04; -1.3719042E-02;  0.0000000E+00;  3.0060238E-04;  1.7309340E+03;
 -9.9999998E-03;  9.9999998E-03;  2.9999999E-02;1775;  0.0000000E+00;  0.0000000E+00;  0.0000000E+00;  1.0142802E+03;  1.0000000E-01;  1.1830875E+04;0;  0.0000000E+00;  0.0000000E+00;  0.0000000E+00;0; -1.3433096E-02;  4.0000000E+04;  0.0000000E+00;  0.0000000E+00;  4.0000000E+04;  0.0000000E+00;  4.0000000E+04; -1.3697647E-02;  0.0000000E+00;  2.6455137E-04;  1.6530442E+03;
 -9.9999998E-03;  9.9999998E-03;  3.9999999E-02;1776;  0.0000000E+00;  0.0000000E+00;  0.0000000E+00;  1.0143352E+03;  1.0000000E-01;  1.1876405E+04;0;  0.0000000E+00;  0.0000000E+00;  0.0000000E+00;0; -1.3457038E-02;  4.0000000E+04;  0.0000000E+00;  0.0000000E+00;  4.0000000E+04;  0.0000000E+00;  4.0000000E+04; -1.3681336E-02;  0.0000000E+00;  2.2429768E-04;  1.5564808E+03;
 -9.9999998E-03;  9.9999998E-03;  5.0000001E-02;1777;  0.0000000E+00;  0.0000000E+00;  0.0000000E+00;  1.0144050E+03;  1.0000000E-01;  1.1934279E+04;0;  0.0000000E+00;  0.0000000E+00;  0.0000000E+00;0; -1.3494184E-02;  4.0000000E+04;  0.0000000E+00;  0.0000000E+00;  4.0000000E+04;  0.0000000E+00;  4.0000000E+04; -1.3681540E-02;  0.0000000E+00;  1.8735584E-04;  1.4520706E+03;
 -9.9999998E-03;  9.9999998E-03;  5.9999999E-02;1778;  0.0000000E+00;  0.0000000E+00;  0.0000000E+00;  1.0144901E+03;  1.0000000E-01;  1.2004697E+04;0;  0.0000000E+00;  0.0000000E+00;  0.0000000E+00;0; -1.3549785E-02;  4.0000000E+04;  0.0000000E+00;  0.0000000E+00;  4.0000000E+04;  0.0000000E+00;  4.0000000E+04; -1.3710069E-02;  0.0000000E+00;  1.6028437E-04;  1.3512556E+03;
 -1.9000000E-01;  9.9999998E-03;  7.0000000E-02;141;  0.0000000E+00;  0.0000000E+00;  0.0000000E+00;  1.0000000E+03;  1.0000000E-01;  0.0000000E+00;0;  0.0000000E+00;  0.0000000E+00;  0.0000000E+00;0;  0.0000000E+00;  4.0000000E+04;  0.0000000E+00;  0.0000000E+00;  4.0000000E+04;  0.0000000E+00;  4.0000000E+04;  0.0000000E+00;  0.0000000E+00;  0.0000000E+00;  0.0000000E+00;
 -1.9000000E-01;  9.9999998E-03;  7.9999998E-02;142;  0.0000000E+00;  0.0000000E+00;  0.0000000E+00;  1.0000000E+03;  1.0000000E-01;  0.0000000E+00;0;  0.0000000E+00;  0.0000000E+00;  0.0000000E+00;0;  0.0000000E+00;  4.0000000E+04;  0.0000000E+00;  0.0000000E+00;  4.0000000E+04;  0.0000000E+00;  4.0000000E+04;  0.0000000E+00;  0.0000000E+00;  0.0000000E+00;  0.0000000E+00;
 -1.9000000E-01;  9.9999998E-03;  9.0000004E-02;143;  0.0000000E+00;  0.0000000E+00;  0.0000000E+00;  1.0000000E+03;  1.0000000E-01;  0.0000000E+00;0;  0.0000000E+00;  0.0000000E+00;  0.0000000E+00;0;  0.0000000E+00;  4.0000000E+04;  0.0000000E+00;  0.0000000E+00;  4.0000000E+04;  0.0000000E+00;  4.0000000E+04;  0.0000000E+00;  0.0000000E+00;  0.0000000E+00;  0.0000000E+00;
 -1.9000000E-01;  9.9999998E-03;  1.0000000E-01;144;  0.0000000E+00;  0.0000000E+00;  0.0000000E+00;  1.0000000E+03;  1.0000000E-01;  0.0000000E+00;0;  0.0000000E+00;  0.0000000E+00;  0.0000000E+00;0;  0.0000000E+00;  4.0000000E+04;  0.0000000E+00;  0.0000000E+00;  4.0000000E+04;  0.0000000E+00;  4.0000000E+04;  0.0000000E+00;  0.0000000E+00;  0.0000000E+00;  0.0000000E+00;
 -1.9000000E-01;  9.9999998E-03;  1.1000000E-01;145;  0.0000000E+00;  0.0000000E+00;  0.0000000E+00;  1.0000000E+03;  1.0000000E-01;  0.0000000E+00;0;  0.0000000E+00;  0.0000000E+00;  0.0000000E+00;0;  0.0000000E+00;  4.0000000E+04;  0.0000000E+00;  0.0000000E+00;  4.0000000E+04;  0.0000000E+00;  4.0000000E+04;  0.0000000E+00;  0.0000000E+00;  0.0000000E+00;  0.0000000E+00;
 -1.9000000E-01;  9.9999998E-03;  1.2000000E-01;146;  0.0000000E+00;  0.0000000E+00;  0.0000000E+00;  1.0000000E+03;  1.0000000E-01;  0.0000000E+00;0;  0.0000000E+00;  0.0000000E+00;  0.0000000E+00;0;  0.0000000E+00;  4.0000000E+04;  0.0000000E+00;  0.0000000E+00;  4.0000000E+04;  0.0000000E+00;  4.0000000E+04;  0.0000000E+00;  0.0000000E+00;  0.0000000E+00;  0.0000000E+00;
 -1.9000000E-01;  9.9999998E-03;  1.3000000E-01;147;  0.0000000E+00;  0.0000000E+00;  0.0000000E+00;  1.0000000E+03;  1.0000000E-01;  0.0000000E+00;0;  0.0000000E+00;  0.0000000E+00;  0.0000000E+00;0;  0.0000000E+00;  4.0000000E+04;  0.0000000E+00;  0.0000000E+00;  4.0000000E+04;  0.0000000E+00;  4.0000000E+04;  0.0000000E+00;  0.0000000E+00;  0.0000000E+00;  0.0000000E+00;
 -1.9000000E-01;  9.9999998E-03;  1.4000000E-01;148;  0.0000000E+00;  0.0000000E+00;  0.0000000E+00;  1.0000000E+03;  1.0000000E-01;  0.0000000E+00;0;  0.0000000E+00;  0.0000000E+00;  0.0000000E+00;0;  0.0000000E+00;  4.0000000E+04;  0.0000000E+00;  0.0000000E+00;  4.0000000E+04;  0.0000000E+00;  4.0000000E+04;  0.0000000E+00;  0.0000000E+00;  0.0000000E+00;  0.0000000E+00;
 -1.9000000E-01;  9.9999998E-03;  1.5000001E-01;149;  0.0000000E+00;  0.0000000E+00;  0.0000000E+00;  1.0000000E+03;  1.0000000E-01;  0.0000000E+00;0;  0.0000000E+00;  0.0000000E+00;  0.0000000E+00;0;  0.0000000E+00;  4.0000000E+04;  0.0000000E+00;  0.0000000E+00;  4.0000000E+04;  0.0000000E+00;  4.0000000E+04;  0.0000000E+00;  0.0000000E+00;  0.0000000E+00;  0.0000000E+00;
 -1.9000000E-01;  9.9999998E-03;  1.6000000E-01;150;  0.0000000E+00;  0.0000000E+00;  0.0000000E+00;  1.0000000E+03;  1.0000000E-01;  0.0000000E+00;0;  0.0000000E+00;  0.0000000E+00;  0.0000000E+00;0;  0.0000000E+00;  4.0000000E+04;  0.0000000E+00;  0.0000000E+00;  4.0000000E+04;  0.0000000E+00;  4.0000000E+04;  0.0000000E+00;  0.0000000E+00;  0.0000000E+00;  0.0000000E+00;
 -1.9000000E-01;  9.9999998E-03;  1.7000000E-01;151;  0.0000000E+00;  0.0000000E+00;  0.0000000E+00;  1.0000000E+03;  1.0000000E-01;  0.0000000E+00;0;  0.0000000E+00;  0.0000000E+00;  0.0000000E+00;0;  0.0000000E+00;  4.0000000E+04;  0.0000000E+00;  0.0000000E+00;  4.0000000E+04;  0.0000000E+00;  4.0000000E+04;  0.0000000E+00;  0.0000000E+00;  0.0000000E+00;  0.0000000E+00;
 -1.9000000E-01;  9.9999998E-03;  1.8000001E-01;152;  0.0000000E+00;  0.0000000E+00;  0.0000000E+00;  1.0000000E+03;  1.0000000E-01;  0.0000000E+00;0;  0.0000000E+00;  0.0000000E+00;  0.0000000E+00;0;  0.0000000E+00;  4.0000000E+04;  0.0000000E+00;  0.0000000E+00;  4.0000000E+04;  0.0000000E+00;  4.0000000E+04;  0.0000000E+00;  0.0000000E+00;  0.0000000E+00;  0.0000000E+00;
 -1.9000000E-01;  9.9999998E-03;  1.9000000E-01;153;  0.0000000E+00;  0.0000000E+00;  0.0000000E+00;  1.0000000E+03;  1.0000000E-01;  0.0000000E+00;0;  0.0000000E+00;  0.0000000E+00;  0.0000000E+00;0;  0.0000000E+00;  4.0000000E+04;  0.0000000E+00;  0.0000000E+00;  4.0000000E+04;  0.0000000E+00;  4.0000000E+04;  0.0000000E+00;  0.0000000E+00;  0.0000000E+00;  0.0000000E+00;
 -1.9000000E-01;  9.9999998E-03;  2.0000000E-01;154;  0.0000000E+00;  0.0000000E+00;  0.0000000E+00;  1.0000000E+03;  1.0000000E-01;  0.0000000E+00;0;  0.0000000E+00;  0.0000000E+00;  0.0000000E+00;0;  0.0000000E+00;  4.0000000E+04;  0.0000000E+00;  0.0000000E+00;  4.0000000E+04;  0.0000000E+00;  4.0000000E+04;  0.0000000E+00;  0.0000000E+00;  0.0000000E+00;  0.0000000E+00;
 -1.9000000E-01;  9.9999998E-03;  2.0999999E-01;155;  0.0000000E+00;  0.0000000E+00;  0.0000000E+00;  1.0000000E+03;  1.0000000E-01;  0.0000000E+00;0;  0.0000000E+00;  0.0000000E+00;  0.0000000E+00;0;  0.0000000E+00;  4.0000000E+04;  0.0000000E+00;  0.0000000E+00;  4.0000000E+04;  0.0000000E+00;  4.0000000E+04;  0.0000000E+00;  0.0000000E+00;  0.0000000E+00;  0.0000000E+00;
 -1.9000000E-01;  9.9999998E-03;  2.2000000E-01;156;  0.0000000E+00;  0.0000000E+00;  0.0000000E+00;  1.0000000E+03;  1.0000000E-01;  0.0000000E+00;0;  0.0000000E+00;  0.0000000E+00;  0.0000000E+00;0;  0.0000000E+00;  4.0000000E+04;  0.0000000E+00;  0.0000000E+00;  4.0000000E+04;  0.0000000E+00;  4.0000000E+04;  0.0000000E+00;  0.0000000E+00;  0.0000000E+00;  0.0000000E+00;
 -1.9000000E-01;  9.9999998E-03;  2.3000000E-01;157;  0.0000000E+00;  0.0000000E+00;  0.0000000E+00;  1.0000000E+03;  1.0000000E-01;  0.0000000E+00;0;  0.0000000E+00;  0.0000000E+00;  0.0000000E+00;0;  0.0000000E+00;  4.0000000E+04;  0.0000000E+00;  0.0000000E+00;  4.0000000E+04;  0.0000000E+00;  4.0000000E+04;  0.0000000E+00;  0.0000000E+00;  0.0000000E+00;  0.0000000E+00;
 -1.8000001E-01;  9.9999998E-03;  7.0000000E-02;232;  0.0000000E+00;  0.0000000E+00;  0.0000000E+00;  1.0000000E+03;  1.0000000E-01;  0.0000000E+00;0;  0.0000000E+00;  0.0000000E+00;  0.0000000E+00;0;  0.0000000E+00;  4.0000000E+04;  0.0000000E+00;  0.0000000E+00;  4.0000000E+04;  0.0000000E+00;  4.0000000E+04;  0.0000000E+00;  0.0000000E+00;  0.0000000E+00;  0.0000000E+00;
 -1.8000001E-01;  9.9999998E-03;  7.9999998E-02;233;  0.0000000E+00;  0.0000000E+00;  0.0000000E+00;  1.0000000E+03;  1.0000000E-01;  0.0000000E+00;0;  0.0000000E+00;  0.0000000E+00;  0.0000000E+00;0;  0.0000000E+00;  4.0000000E+04;  0.0000000E+00;  0.0000000E+00;  4.0000000E+04;  0.0000000E+00;  4.0000000E+04;  0.0000000E+00;  0.0000000E+00;  0.0000000E+00;  0.0000000E+00;
 -1.8000001E-01;  9.9999998E-03;  9.0000004E-02;234;  0.0000000E+00;  0.0000000E+00;  0.0000000E+00;  1.0000000E+03;  1.0000000E-01;  0.0000000E+00;0;  0.0000000E+00;  0.0000000E+00;  0.0000000E+00;0;  0.0000000E+00;  4.0000000E+04;  0.0000000E+00;  0.0000000E+00;  4.0000000E+04;  0.0000000E+00;  4.0000000E+04;  0.0000000E+00;  0.0000000E+00;  0.0000000E+00;  0.0000000E+00;
 -1.8000001E-01;  9.9999998E-03;  1.0000000E-01;235;  0.0000000E+00;  0.0000000E+00;  0.0000000E+00;  1.0000000E+03;  1.0000000E-01;  0.0000000E+00;0;  0.0000000E+00;  0.0000000E+00;  0.0000000E+00;0;  0.0000000E+00;  4.0000000E+04;  0.0000000E+00;  0.0000000E+00;  4.0000000E+04;  0.0000000E+00;  4.0000000E+04;  0.0000000E+00;  0.0000000E+00;  0.0000000E+00;  0.0000000E+00;
 -1.8000001E-01;  9.9999998E-03;  1.1000000E-01;236;  0.0000000E+00;  0.0000000E+00;  0.0000000E+00;  1.0000000E+03;  1.0000000E-01;  0.0000000E+00;0;  0.0000000E+00;  0.0000000E+00;  0.0000000E+00;0;  0.0000000E+00;  4.0000000E+04;  0.0000000E+00;  0.0000000E+00;  4.0000000E+04;  0.0000000E+00;  4.0000000E+04;  0.0000000E+00;  0.0000000E+00;  0.0000000E+00;  0.0000000E+00;
 -1.8000001E-01;  9.9999998E-03;  1.2000000E-01;237;  0.0000000E+00;  0.0000000E+00;  0.0000000E+00;  1.0000000E+03;  1.0000000E-01;  0.0000000E+00;0;  0.0000000E+00;  0.0000000E+00;  0.0000000E+00;0;  0.0000000E+00;  4.0000000E+04;  0.0000000E+00;  0.0000000E+00;  4.0000000E+04;  0.0000000E+00;  4.0000000E+04;  0.0000000E+00;  0.0000000E+00;  0.0000000E+00;  0.0000000E+00;
 -1.8000001E-01;  9.9999998E-03;  1.3000000E-01;238;  0.0000000E+00;  0.0000000E+00;  0.0000000E+00;  1.0000000E+03;  1.0000000E-01;  0.0000000E+00;0;  0.0000000E+00;  0.0000000E+00;  0.0000000E+00;0;  0.0000000E+00;  4.0000000E+04;  0.0000000E+00;  0.0000000E+00;  4.0000000E+04;  0.0000000E+00;  4.0000000E+04;  0.0000000E+00;  0.0000000E+00;  0.0000000E+00;  0.0000000E+00;
 -1.8000001E-01;  9.9999998E-03;  1.4000000E-01;239;  0.0000000E+00;  0.0000000E+00;  0.0000000E+00;  1.0000000E+03;  1.0000000E-01;  0.0000000E+00;0;  0.0000000E+00;  0.0000000E+00;  0.0000000E+00;0;  0.0000000E+00;  4.0000000E+04;  0.0000000E+00;  0.0000000E+00;  4.0000000E+04;  0.0000000E+00;  4.0000000E+04;  0.0000000E+00;  0.0000000E+00;  0.0000000E+00;  0.0000000E+00;
 -1.8000001E-01;  9.9999998E-03;  1.5000001E-01;240;  0.0000000E+00;  0.0000000E+00;  0.0000000E+00;  1.0000000E+03;  1.0000000E-01;  0.0000000E+00;0;  0.0000000E+00;  0.0000000E+00;  0.0000000E+00;0;  0.0000000E+00;  4.0000000E+04;  0.0000000E+00;  0.0000000E+00;  4.0000000E+04;  0.0000000E+00;  4.0000000E+04;  0.0000000E+00;  0.0000000E+00;  0.0000000E+00;  0.0000000E+00;
 -1.8000001E-01;  9.9999998E-03;  1.6000000E-01;241;  0.0000000E+00;  0.0000000E+00;  0.0000000E+00;  1.0000000E+03;  1.0000000E-01;  0.0000000E+00;0;  0.0000000E+00;  0.0000000E+00;  0.0000000E+00;0;  0.0000000E+00;  4.0000000E+04;  0.0000000E+00;  0.0000000E+00;  4.0000000E+04;  0.0000000E+00;  4.0000000E+04;  0.0000000E+00;  0.0000000E+00;  0.0000000E+00;  0.0000000E+00;
 -1.8000001E-01;  9.9999998E-03;  1.7000000E-01;242;  0.0000000E+00;  0.0000000E+00;  0.0000000E+00;  1.0000000E+03;  1.0000000E-01;  0.0000000E+00;0;  0.0000000E+00;  0.0000000E+00;  0.0000000E+00;0;  0.0000000E+00;  4.0000000E+04;  0.0000000E+00;  0.0000000E+00;  4.0000000E+04;  0.0000000E+00;  4.0000000E+04;  0.0000000E+00;  0.0000000E+00;  0.0000000E+00;  0.0000000E+00;
 -1.8000001E-01;  9.9999998E-03;  1.8000001E-01;243;  0.0000000E+00;  0.0000000E+00;  0.0000000E+00;  1.0000000E+03;  1.0000000E-01;  0.0000000E+00;0;  0.0000000E+00;  0.0000000E+00;  0.0000000E+00;0;  0.0000000E+00;  4.0000000E+04;  0.0000000E+00;  0.0000000E+00;  4.0000000E+04;  0.0000000E+00;  4.0000000E+04;  0.0000000E+00;  0.0000000E+00;  0.0000000E+00;  0.0000000E+00;
 -1.8000001E-01;  9.9999998E-03;  1.9000000E-01;244;  0.0000000E+00;  0.0000000E+00;  0.0000000E+00;  1.0000000E+03;  1.0000000E-01;  0.0000000E+00;0;  0.0000000E+00;  0.0000000E+00;  0.0000000E+00;0;  0.0000000E+00;  4.0000000E+04;  0.0000000E+00;  0.0000000E+00;  4.0000000E+04;  0.0000000E+00;  4.0000000E+04;  0.0000000E+00;  0.0000000E+00;  0.0000000E+00;  0.0000000E+00;
 -1.8000001E-01;  9.9999998E-03;  2.0000000E-01;245;  0.0000000E+00;  0.0000000E+00;  0.0000000E+00;  1.0000000E+03;  1.0000000E-01;  0.0000000E+00;0;  0.0000000E+00;  0.0000000E+00;  0.0000000E+00;0;  0.0000000E+00;  4.0000000E+04;  0.0000000E+00;  0.0000000E+00;  4.0000000E+04;  0.0000000E+00;  4.0000000E+04;  0.0000000E+00;  0.0000000E+00;  0.0000000E+00;  0.0000000E+00;
 -1.8000001E-01;  9.9999998E-03;  2.0999999E-01;246;  0.0000000E+00;  0.0000000E+00;  0.0000000E+00;  1.0000000E+03;  1.0000000E-01;  0.0000000E+00;0;  0.0000000E+00;  0.0000000E+00;  0.0000000E+00;0;  0.0000000E+00;  4.0000000E+04;  0.0000000E+00;  0.0000000E+00;  4.0000000E+04;  0.0000000E+00;  4.0000000E+04;  0.0000000E+00;  0.0000000E+00;  0.0000000E+00;  0.0000000E+00;
 -1.8000001E-01;  9.9999998E-03;  2.2000000E-01;247;  0.0000000E+00;  0.0000000E+00;  0.0000000E+00;  1.0000000E+03;  1.0000000E-01;  0.0000000E+00;0;  0.0000000E+00;  0.0000000E+00;  0.0000000E+00;0;  0.0000000E+00;  4.0000000E+04;  0.0000000E+00;  0.0000000E+00;  4.0000000E+04;  0.0000000E+00;  4.0000000E+04;  0.0000000E+00;  0.0000000E+00;  0.0000000E+00;  0.0000000E+00;
 -1.8000001E-01;  9.9999998E-03;  2.3000000E-01;248;  0.0000000E+00;  0.0000000E+00;  0.0000000E+00;  1.0000000E+03;  1.0000000E-01;  0.0000000E+00;0;  0.0000000E+00;  0.0000000E+00;  0.0000000E+00;0;  0.0000000E+00;  4.0000000E+04;  0.0000000E+00;  0.0000000E+00;  4.0000000E+04;  0.0000000E+00;  4.0000000E+04;  0.0000000E+00;  0.0000000E+00;  0.0000000E+00;  0.0000000E+00;
 -1.7000000E-01;  9.9999998E-03;  7.0000000E-02;323;  0.0000000E+00;  0.0000000E+00;  0.0000000E+00;  1.0000000E+03;  1.0000000E-01;  0.0000000E+00;0;  0.0000000E+00;  0.0000000E+00;  0.0000000E+00;0;  0.0000000E+00;  4.0000000E+04;  0.0000000E+00;  0.0000000E+00;  4.0000000E+04;  0.0000000E+00;  4.0000000E+04;  0.0000000E+00;  0.0000000E+00;  0.0000000E+00;  2.0677076E-09;
 -1.7000000E-01;  9.9999998E-03;  7.9999998E-02;324;  0.0000000E+00;  0.0000000E+00;  0.0000000E+00;  1.0000000E+03;  1.0000000E-01;  0.0000000E+00;0;  0.0000000E+00;  0.0000000E+00;  0.0000000E+00;0;  0.0000000E+00;  4.0000000E+04;  0.0000000E+00;  0.0000000E+00;  4.0000000E+04;  0.0000000E+00;  4.0000000E+04;  0.0000000E+00;  0.0000000E+00;  0.0000000E+00;  2.0276110E-09;
 -1.7000000E-01;  9.9999998E-03;  9.0000004E-02;325;  0.0000000E+00;  0.0000000E+00;  0.0000000E+00;  1.0000000E+03;  1.0000000E-01;  0.0000000E+00;0;  0.0000000E+00;  0.0000000E+00;  0.0000000E+00;0;  0.0000000E+00;  4.0000000E+04;  0.0000000E+00;  0.0000000E+00;  4.0000000E+04;  0.0000000E+00;  4.0000000E+04;  0.0000000E+00;  0.0000000E+00;  0.0000000E+00;  1.9964661E-09;
 -1.7000000E-01;  9.9999998E-03;  1.0000000E-01;326;  0.0000000E+00;  0.0000000E+00;  0.0000000E+00;  1.0000000E+03;  1.0000000E-01;  0.0000000E+00;0;  0.0000000E+00;  0.0000000E+00;  0.0000000E+00;0;  0.0000000E+00;  4.0000000E+04;  0.0000000E+00;  0.0000000E+00;  4.0000000E+04;  0.0000000E+00;  4.0000000E+04;  0.0000000E+00;  0.0000000E+00;  0.0000000E+00;  1.9806543E-09;
 -1.7000000E-01;  9.9999998E-03;  1.1000000E-01;327;  0.0000000E+00;  0.0000000E+00;  0.0000000E+00;  1.0000000E+03;  1.0000000E-01;  0.0000000E+00;0;  0.0000000E+00;  0.0000000E+00;  0.0000000E+00;0;  0.0000000E+00;  4.0000000E+04;  0.0000000E+00;  0.0000000E+00;  4.0000000E+04;  0.0000000E+00;  4.0000000E+04;  0.0000000E+00;  0.0000000E+00;  0.0000000E+00;  1.9613826E-09;
 -1.7000000E-01;  9.9999998E-03;  1.2000000E-01;328;  0.0000000E+00;  0.0000000E+00;  0.0000000E+00;  1.0000000E+03;  1.0000000E-01;  0.0000000E+00;0;  0.0000000E+00;  0.0000000E+00;  0.0000000E+00;0;  0.0000000E+00;  4.0000000E+04;  0.0000000E+00;  0.0000000E+00;  4.0000000E+04;  0.0000000E+00;  4.0000000E+04;  0.0000000E+00;  0.0000000E+00;  0.0000000E+00;  1.9547131E-09;
 -1.7000000E-01;  9.9999998E-03;  1.3000000E-01;329;  0.0000000E+00;  0.0000000E+00;  0.0000000E+00;  1.0000000E+03;  1.0000000E-01;  0.0000000E+00;0;  0.0000000E+00;  0.0000000E+00;  0.0000000E+00;0;  0.0000000E+00;  4.0000000E+04;  0.0000000E+00;  0.0000000E+00;  4.0000000E+04;  0.0000000E+00;  4.0000000E+04;  0.0000000E+00;  0.0000000E+00;  0.0000000E+00;  1.9304123E-09;
 -1.7000000E-01;  9.9999998E-03;  1.4000000E-01;330;  0.0000000E+00;  0.0000000E+00;  0.0000000E+00;  1.0000000E+03;  1.0000000E-01;  0.0000000E+00;0;  0.0000000E+00;  0.0000000E+00;  0.0000000E+00;0;  0.0000000E+00;  4.0000000E+04;  0.0000000E+00;  0.0000000E+00;  4.0000000E+04;  0.0000000E+00;  4.0000000E+04;  0.0000000E+00;  0.0000000E+00;  0.0000000E+00;  1.9071280E-09;
 -1.7000000E-01;  9.9999998E-03;  1.5000001E-01;331;  0.0000000E+00;  0.0000000E+00;  0.0000000E+00;  1.0000000E+03;  1.0000000E-01;  0.0000000E+00;0;  0.0000000E+00;  0.0000000E+00;  0.0000000E+00;0;  0.0000000E+00;  4.0000000E+04;  0.0000000E+00;  0.0000000E+00;  4.0000000E+04;  0.0000000E+00;  4.0000000E+04;  0.0000000E+00;  0.0000000E+00;  0.0000000E+00;  1.8279691E-09;
 -1.7000000E-01;  9.9999998E-03;  1.6000000E-01;332;  0.0000000E+00;  0.0000000E+00;  0.0000000E+00;  1.0000000E+03;  1.0000000E-01;  0.0000000E+00;0;  0.0000000E+00;  0.0000000E+00;  0.0000000E+00;0;  0.0000000E+00;  4.0000000E+04;  0.0000000E+00;  0.0000000E+00;  4.0000000E+04;  0.0000000E+00;  4.0000000E+04;  0.0000000E+00;  0.0000000E+00;  0.0000000E+00;  1.7068014E-09;
 -1.7000000E-01;  9.9999998E-03;  1.7000000E-01;333;  0.0000000E+00;  0.0000000E+00;  0.0000000E+00;  1.0000000E+03;  1.0000000E-01;  0.0000000E+00;0;  0.0000000E+00;  0.0000000E+00;  0.0000000E+00;0;  0.0000000E+00;  4.0000000E+04;  0.0000000E+00;  0.0000000E+00;  4.0000000E+04;  0.0000000E+00;  4.0000000E+04;  0.0000000E+00;  0.0000000E+00;  0.0000000E+00;  1.5737418E-09;
 -1.7000000E-01;  9.9999998E-03;  1.8000001E-01;334;  0.0000000E+00;  0.0000000E+00;  0.0000000E+00;  1.0000000E+03;  1.0000000E-01;  0.0000000E+00;0;  0.0000000E+00;  0.0000000E+00;  0.0000000E+00;0;  0.0000000E+00;  4.0000000E+04;  0.0000000E+00;  0.0000000E+00;  4.0000000E+04;  0.0000000E+00;  4.0000000E+04;  0.0000000E+00;  0.0000000E+00;  0.0000000E+00;  1.4536757E-09;
 -1.7000000E-01;  9.9999998E-03;  1.9000000E-01;335;  0.0000000E+00;  0.0000000E+00;  0.0000000E+00;  1.0000000E+03;  1.0000000E-01;  0.0000000E+00;0;  0.0000000E+00;  0.0000000E+00;  0.0000000E+00;0;  0.0000000E+00;  4.0000000E+04;  0.0000000E+00;  0.0000000E+00;  4.0000000E+04;  0.0000000E+00;  4.0000000E+04;  0.0000000E+00;  0.0000000E+00;  0.0000000E+00;  1.3804979E-09;
 -1.7000000E-01;  9.9999998E-03;  2.0000000E-01;336;  0.0000000E+00;  0.0000000E+00;  0.0000000E+00;  1.0000000E+03;  1.0000000E-01;  0.0000000E+00;0;  0.0000000E+00;  0.0000000E+00;  0.0000000E+00;0;  0.0000000E+00;  4.0000000E+04;  0.0000000E+00;  0.0000000E+00;  4.0000000E+04;  0.0000000E+00;  4.0000000E+04;  0.0000000E+00;  0.0000000E+00;  0.0000000E+00;  1.3572699E-09;
 -1.7000000E-01;  9.9999998E-03;  2.0999999E-01;337;  0.0000000E+00;  0.0000000E+00;  0.0000000E+00;  1.0000000E+03;  1.0000000E-01;  0.0000000E+00;0;  0.0000000E+00;  0.0000000E+00;  0.0000000E+00;0;  0.0000000E+00;  4.0000000E+04;  0.0000000E+00;  0.0000000E+00;  4.0000000E+04;  0.0000000E+00;  4.0000000E+04;  0.0000000E+00;  0.0000000E+00;  0.0000000E+00;  1.3090043E-09;
 -1.7000000E-01;  9.9999998E-03;  2.2000000E-01;338;  0.0000000E+00;  0.0000000E+00;  0.0000000E+00;  1.0000000E+03;  1.0000000E-01;  0.0000000E+00;0;  0.0000000E+00;  0.0000000E+00;  0.0000000E+00;0;  0.0000000E+00;  4.0000000E+04;  0.0000000E+00;  0.0000000E+00;  4.0000000E+04;  0.0000000E+00;  4.0000000E+04;  0.0000000E+00;  0.0000000E+00;  0.0000000E+00;  1.1702984E-09;
 -1.7000000E-01;  9.9999998E-03;  2.3000000E-01;339;  0.0000000E+00;  0.0000000E+00;  0.0000000E+00;  1.0000000E+03;  1.0000000E-01;  0.0000000E+00;0;  0.0000000E+00;  0.0000000E+00;  0.0000000E+00;0;  0.0000000E+00;  4.0000000E+04;  0.0000000E+00;  0.0000000E+00;  4.0000000E+04;  0.0000000E+00;  4.0000000E+04;  0.0000000E+00;  0.0000000E+00;  0.0000000E+00;  9.6134622E-10;
 -1.6000000E-01;  9.9999998E-03;  7.0000000E-02;414;  0.0000000E+00;  0.0000000E+00;  0.0000000E+00;  1.0000000E+03;  1.0000000E-01;  0.0000000E+00;0;  0.0000000E+00;  0.0000000E+00;  0.0000000E+00;0;  3.0755999E-07;  4.0000000E+04;  0.0000000E+00;  0.0000000E+00;  4.0000000E+04;  0.0000000E+00;  4.0000000E+04;  3.0810463E-07;  0.0000000E+00; -5.4463162E-10;  2.5712320E-01;
 -1.6000000E-01;  9.9999998E-03;  7.9999998E-02;415;  0.0000000E+00;  0.0000000E+00;  0.0000000E+00;  1.0000000E+03;  1.0000000E-01;  0.0000000E+00;0;  0.0000000E+00;  0.0000000E+00;  0.0000000E+00;0;  3.0776391E-07;  4.0000000E+04;  0.0000000E+00;  0.0000000E+00;  4.0000000E+04;  0.0000000E+00;  4.0000000E+04;  3.0832075E-07;  0.0000000E+00; -5.5682725E-10;  2.5742629E-01;
 -1.6000000E-01;  9.9999998E-03;  9.0000004E-02;416;  0.0000000E+00;  0.0000000E+00;  0.0000000E+00;  1.0000000E+03;  1.0000000E-01;  0.0000000E+00;0;  0.0000000E+00;  0.0000000E+00;  0.0000000E+00;0;  3.0425363E-07;  4.0000000E+04;  0.0000000E+00;  0.0000000E+00;  4.0000000E+04;  0.0000000E+00;  4.0000000E+04;  3.0473490E-07;  0.0000000E+00; -4.8127091E-10;  2.5866100E-01;
 -1.6000000E-01;  9.9999998E-03;  1.0000000E-01;417;  0.0000000E+00;  0.0000000E+00;  0.0000000E+00;  1.0000000E+03;  1.0000000E-01;  0.0000000E+00;0;  0.0000000E+00;  0.0000000E+00;  0.0000000E+00;0;  2.9630883E-07;  4.0000000E+04;  0.0000000E+00;  0.0000000E+00;  4.0000000E+04;  0.0000000E+00;  4.0000000E+04;  2.9663300E-07;  0.0000000E+00; -3.2418446E-10;  2.6114789E-01;
 -1.6000000E-01;  9.9999998E-03;  1.1000000E-01;418;  0.0000000E+00;  0.0000000E+00;  0.0000000E+00;  1.0000000E+03;  1.0000000E-01;  0.0000000E+00;0;  0.0000000E+00;  0.0000000E+00;  0.0000000E+00;0;  2.8382178E-07;  4.0000000E+04;  0.0000000E+00;  0.0000000E+00;  4.0000000E+04;  0.0000000E+00;  4.0000000E+04;  2.8390986E-07;  0.0000000E+00; -8.8074922E-11;  2.6495042E-01;
 -1.6000000E-01;  9.9999998E-03;  1.2000000E-01;419;  0.0000000E+00;  0.0000000E+00;  0.0000000E+00;  1.0000000E+03;  1.0000000E-01;  0.0000000E+00;0;  0.0000000E+00;  0.0000000E+00;  0.0000000E+00;0;  2.6747918E-07;  4.0000000E+04;  0.0000000E+00;  0.0000000E+00;  4.0000000E+04;  0.0000000E+00;  4.0000000E+04;  2.6725064E-07;  0.0000000E+00;  2.2855107E-10;  2.6974609E-01;
 -1.6000000E-01;  9.9999998E-03;  1.3000000E-01;420;  0.0000000E+00;  0.0000000E+00;  0.0000000E+00;  1.0000000E+03;  1.0000000E-01;  0.0000000E+00;0;  0.0000000E+00;  0.0000000E+00;  0.0000000E+00;0;  2.4885716E-07;  4.0000000E+04;  0.0000000E+00;  0.0000000E+00;  4.0000000E+04;  0.0000000E+00;  4.0000000E+04;  2.4823140E-07;  0.0000000E+00;  6.2577465E-10;  2.7486244E-01;
 -1.6000000E-01;  9.9999998E-03;  1.4000000E-01;421;  0.0000000E+00;  0.0000000E+00;  0.0000000E+00;  1.0000000E+03;  1.0000000E-01;  0.0000000E+00;0;  0.0000000E+00;  0.0000000E+00;  0.0000000E+00;0;  2.3036614E-07;  4.0000000E+04;  0.0000000E+00;  0.0000000E+00;  4.0000000E+04;  0.0000000E+00;  4.0000000E+04;  2.2927286E-07;  0.0000000E+00;  1.0932837E-09;  2.7943432E-01;
 -1.6000000E-01;  9.9999998E-03;  1.5000001E-01;422;  0.0000000E+00;  0.0000000E+00;  0.0000000E+00;  1.0000000E+03;  1.0000000E-01;  0.0000000E+00;0;  0.0000000E+00;  0.0000000E+00;  0.0000000E+00;0;  2.1506189E-07;  4.0000000E+04;  0.0000000E+00;  0.0000000E+00;  4.0000000E+04;  0.0000000E+00;  4.0000000E+04;  2.1345924E-07;  0.0000000E+00;  1.6026410E-09;  2.8258234E-01;
 -1.6000000E-01;  9.9999998E-03;  1.6000000E-01;423;  0.0000000E+00;  0.0000000E+00;  0.0000000E+00;  1.0000000E+03;  1.0000000E-01;  0.0000000E+00;0;  0.0000000E+00;  0.0000000E+00;  0.0000000E+00;0;  2.0636074E-07;  4.0000000E+04;  0.0000000E+00;  0.0000000E+00;  4.0000000E+04;  0.0000000E+00;  4.0000000E+04;  2.0423914E-07;  0.0000000E+00;  2.1215991E-09;  2.8347862E-01;
 -1.6000000E-01;  9.9999998E-03;  1.7000000E-01;424;  0.0000000E+00;  0.0000000E+00;  0.0000000E+00;  1.0000000E+03;  1.0000000E-01;  0.0000000E+00;0;  0.0000000E+00;  0.0000000E+00;  0.0000000E+00;0;  2.0766495E-07;  4.0000000E+04;  0.0000000E+00;  0.0000000E+00;  4.0000000E+04;  0.0000000E+00;  4.0000000E+04;  2.0501609E-07;  0.0000000E+00;  2.6488631E-09;  2.8137997E-01;
 -1.6000000E-01;  9.9999998E-03;  1.8000001E-01;425;  0.0000000E+00;  0.0000000E+00;  0.0000000E+00;  1.0000000E+03;  1.0000000E-01;  0.0000000E+00;0;  0.0000000E+00;  0.0000000E+00;  0.0000000E+00;0;  2.2192695E-07;  4.0000000E+04;  0.0000000E+00;  0.0000000E+00;  4.0000000E+04;  0.0000000E+00;  4.0000000E+04;  2.1869027E-07;  0.0000000E+00;  3.2366847E-09;  2.7571929E-01;
 -1.6000000E-01;  9.9999998E-03;  1.9000000E-01;426;  0.0000000E+00;  0.0000000E+00;  0.0000000E+00;  1.0000000E+03;  1.0000000E-01;  0.0000000E+00;0;  0.0000000E+00;  0.0000000E+00;  0.0000000E+00;0;  2.5109645E-07;  4.0000000E+04;  0.0000000E+00;  0.0000000E+00;  4.0000000E+04;  0.0000000E+00;  4.0000000E+04;  2.4711676E-07;  0.0000000E+00;  3.9796930E-09;  2.6629859E-01;
 -1.6000000E-01;  9.9999998E-03;  2.0000000E-01;427;  0.0000000E+00;  0.0000000E+00;  0.0000000E+00;  1.0000000E+03;  1.0000000E-01;  0.0000000E+00;0;  0.0000000E+00;  0.0000000E+00;  0.0000000E+00;0;  2.9532453E-07;  4.0000000E+04;  0.0000000E+00;  0.0000000E+00;  4.0000000E+04;  0.0000000E+00;  4.0000000E+04;  2.9034800E-07;  0.0000000E+00;  4.9765183E-09;  2.5343600E-01;
 -1.6000000E-01;  9.9999998E-03;  2.0999999E-01;428;  0.0000000E+00;  0.0000000E+00;  0.0000000E+00;  1.0000000E+03;  1.0000000E-01;  0.0000000E+00;0;  0.0000000E+00;  0.0000000E+00;  0.0000000E+00;0;  3.5176831E-07;  4.0000000E+04;  0.0000000E+00;  0.0000000E+00;  4.0000000E+04;  0.0000000E+00;  4.0000000E+04;  3.4547560E-07;  0.0000000E+00;  6.2927135E-09;  2.3795693E-01;
 -1.6000000E-01;  9.9999998E-03;  2.2000000E-01;429;  0.0000000E+00;  0.0000000E+00;  0.0000000E+00;  1.0000000E+03;  1.0000000E-01;  0.0000000E+00;0;  0.0000000E+00;  0.0000000E+00;  0.0000000E+00;0;  4.1305117E-07;  4.0000000E+04;  0.0000000E+00;  0.0000000E+00;  4.0000000E+04;  0.0000000E+00;  4.0000000E+04;  4.0510938E-07;  0.0000000E+00;  7.9418019E-09;  2.2073404E-01;
 -1.6000000E-01;  9.9999998E-03;  2.3000000E-01;430;  0.0000000E+00;  0.0000000E+00;  0.0000000E+00;  1.0000000E+03;  1.0000000E-01;  0.0000000E+00;0;  0.0000000E+00;  0.0000000E+00;  0.0000000E+00;0;  4.6607246E-07;  4.0000000E+04;  0.0000000E+00;  0.0000000E+00;  4.0000000E+04;  0.0000000E+00;  4.0000000E+04;  4.5621269E-07;  0.0000000E+00;  9.8597877E-09;  2.0159394E-01;
 -1.5000001E-01;  9.9999998E-03;  7.0000000E-02;505;  0.0000000E+00;  0.0000000E+00;  0.0000000E+00;  1.0000000E+03;  1.0000000E-01;  0.0000000E+00;0;  0.0000000E+00;  0.0000000E+00;  0.0000000E+00;0;  7.4588361E-06;  4.0000000E+04;  0.0000000E+00;  0.0000000E+00;  4.0000000E+04;  0.0000000E+00;  4.0000000E+04;  7.4864543E-06;  0.0000000E+00; -2.7618166E-08;  3.7860332E+00;
 -1.5000001E-01;  9.9999998E-03;  7.9999998E-02;506;  0.0000000E+00;  0.0000000E+00;  0.0000000E+00;  1.0000000E+03;  1.0000000E-01;  0.0000000E+00;0;  0.0000000E+00;  0.0000000E+00;  0.0000000E+00;0;  7.4476548E-06;  4.0000000E+04;  0.0000000E+00;  0.0000000E+00;  4.0000000E+04;  0.0000000E+00;  4.0000000E+04;  7.4765644E-06;  0.0000000E+00; -2.8909435E-08;  3.7712557E+00;
 -1.5000001E-01;  9.9999998E-03;  9.0000004E-02;507;  0.0000000E+00;  0.0000000E+00;  0.0000000E+00;  1.0000000E+03;  1.0000000E-01;  0.0000000E+00;0;  0.0000000E+00;  0.0000000E+00;  0.0000000E+00;0;  7.3550696E-06;  4.0000000E+04;  0.0000000E+00;  0.0000000E+00;  4.0000000E+04;  0.0000000E+00;  4.0000000E+04;  7.3795090E-06;  0.0000000E+00; -2.4439380E-08;  3.7733033E+00;
 -1.5000001E-01;  9.9999998E-03;  1.0000000E-01;508;  0.0000000E+00;  0.0000000E+00;  0.0000000E+00;  1.0000000E+03;  1.0000000E-01;  0.0000000E+00;0;  0.0000000E+00;  0.0000000E+00;  0.0000000E+00;0;  7.1700438E-06;  4.0000000E+04;  0.0000000E+00;  0.0000000E+00;  4.0000000E+04;  0.0000000E+00;  4.0000000E+04;  7.1843174E-06;  0.0000000E+00; -1.4273790E-08;  3.7980156E+00;
 -1.5000001E-01;  9.9999998E-03;  1.1000000E-01;509;  0.0000000E+00;  0.0000000E+00;  0.0000000E+00;  1.0000000E+03;  1.0000000E-01;  0.0000000E+00;0;  0.0000000E+00;  0.0000000E+00;  0.0000000E+00;0;  6.8948698E-06;  4.0000000E+04;  0.0000000E+00;  0.0000000E+00;  4.0000000E+04;  0.0000000E+00;  4.0000000E+04;  6.8935660E-06;  0.0000000E+00;  1.3035630E-09;  3.8457849E+00;
 -1.5000001E-01;  9.9999998E-03;  1.2000000E-01;510;  0.0000000E+00;  0.0000000E+00;  0.0000000E+00;  1.0000000E+03;  1.0000000E-01;  0.0000000E+00;0;  0.0000000E+00;  0.0000000E+00;  0.0000000E+00;0;  6.5480244E-06;  4.0000000E+04;  0.0000000E+00;  0.0000000E+00;  4.0000000E+04;  0.0000000E+00;  4.0000000E+04;  6.5263262E-06;  0.0000000E+00;  2.1698254E-08;  3.9107518E+00;
 -1.5000001E-01;  9.9999998E-03;  1.3000000E-01;511;  0.0000000E+00;  0.0000000E+00;  0.0000000E+00;  1.0000000E+03;  1.0000000E-01;  0.0000000E+00;0;  0.0000000E+00;  0.0000000E+00;  0.0000000E+00;0;  6.1644937E-06;  4.0000000E+04;  0.0000000E+00;  0.0000000E+00;  4.0000000E+04;  0.0000000E+00;  4.0000000E+04;  6.1186774E-06;  0.0000000E+00;  4.5816272E-08;  3.9819269E+00;
 -1.5000001E-01;  9.9999998E-03;  1.4000000E-01;512;  0.0000000E+00;  0.0000000E+00;  0.0000000E+00;  1.0000000E+03;  1.0000000E-01;  0.0000000E+00;0;  0.0000000E+00;  0.0000000E+00;  0.0000000E+00;0;  5.7931475E-06;  4.0000000E+04;  0.0000000E+00;  0.0000000E+00;  4.0000000E+04;  0.0000000E+00;  4.0000000E+04;  5.7210987E-06;  0.0000000E+00;  7.2048849E-08;  4.0453262E+00;
 -1.5000001E-01;  9.9999998E-03;  1.5000001E-01;513;  0.0000000E+00;  0.0000000E+00;  0.0000000E+00;  1.0000000E+03;  1.0000000E-01;  0.0000000E+00;0;  0.0000000E+00;  0.0000000E+00;  0.0000000E+00;0;  5.4907432E-06;  4.0000000E+04;  0.0000000E+00;  0.0000000E+00;  4.0000000E+04;  0.0000000E+00;  4.0000000E+04;  5.3922158E-06;  0.0000000E+00;  9.8527416E-08;  4.0867295E+00;
 -1.5000001E-01;  9.9999998E-03;  1.6000000E-01;514;  0.0000000E+00;  0.0000000E+00;  0.0000000E+00;  1.0000000E+03;  1.0000000E-01;  0.0000000E+00;0;  0.0000000E+00;  0.0000000E+00;  0.0000000E+00;0;  5.3132435E-06;  4.0000000E+04;  0.0000000E+00;  0.0000000E+00;  4.0000000E+04;  0.0000000E+00;  4.0000000E+04;  5.1896936E-06;  0.0000000E+00;  1.2354978E-07;  4.0942202E+00;
 -1.5000001E-01;  9.9999998E-03;  1.7000000E-01;515;  0.0000000E+00;  0.0000000E+00;  0.0000000E+00;  1.0000000E+03;  1.0000000E-01;  0.0000000E+00;0;  0.0000000E+00;  0.0000000E+00;  0.0000000E+00;0;  5.3049407E-06;  4.0000000E+04;  0.0000000E+00;  0.0000000E+00;  4.0000000E+04;  0.0000000E+00;  4.0000000E+04;  5.1589691E-06;  0.0000000E+00;  1.4597157E-07;  4.0599837E+00;
 -1.5000001E-01;  9.9999998E-03;  1.8000001E-01;516;  0.0000000E+00;  0.0000000E+00;  0.0000000E+00;  1.0000000E+03;  1.0000000E-01;  0.0000000E+00;0;  0.0000000E+00;  0.0000000E+00;  0.0000000E+00;0;  5.4864381E-06;  4.0000000E+04;  0.0000000E+00;  0.0000000E+00;  4.0000000E+04;  0.0000000E+00;  4.0000000E+04;  5.3210697E-06;  0.0000000E+00;  1.6536849E-07;  3.9813113E+00;
 -1.5000001E-01;  9.9999998E-03;  1.9000000E-01;517;  0.0000000E+00;  0.0000000E+00;  0.0000000E+00;  1.0000000E+03;  1.0000000E-01;  0.0000000E+00;0;  0.0000000E+00;  0.0000000E+00;  0.0000000E+00;0;  5.8433247E-06;  4.0000000E+04;  0.0000000E+00;  0.0000000E+00;  4.0000000E+04;  0.0000000E+00;  4.0000000E+04;  5.6614344E-06;  0.0000000E+00;  1.8189017E-07;  3.8605630E+00;
 -1.5000001E-01;  9.9999998E-03;  2.0000000E-01;518;  0.0000000E+00;  0.0000000E+00;  0.0000000E+00;  1.0000000E+03;  1.0000000E-01;  0.0000000E+00;0;  0.0000000E+00;  0.0000000E+00;  0.0000000E+00;0;  6.3179200E-06;  4.0000000E+04;  0.0000000E+00;  0.0000000E+00;  4.0000000E+04;  0.0000000E+00;  4.0000000E+04;  6.1220480E-06;  0.0000000E+00;  1.9587202E-07;  3.7027459E+00;
 -1.5000001E-01;  9.9999998E-03;  2.0999999E-01;519;  0.0000000E+00;  0.0000000E+00;  0.0000000E+00;  1.0000000E+03;  1.0000000E-01;  0.0000000E+00;0;  0.0000000E+00;  0.0000000E+00;  0.0000000E+00;0;  6.8070408E-06;  4.0000000E+04;  0.0000000E+00;  0.0000000E+00;  4.0000000E+04;  0.0000000E+00;  4.0000000E+04;  6.5997756E-06;  0.0000000E+00;  2.0726526E-07;  3.5091517E+00;
 -1.5000001E-01;  9.9999998E-03;  2.2000000E-01;520;  0.0000000E+00;  0.0000000E+00;  0.0000000E+00;  1.0000000E+03;  1.0000000E-01;  0.0000000E+00;0;  0.0000000E+00;  0.0000000E+00;  0.0000000E+00;0;  7.1704126E-06;  4.0000000E+04;  0.0000000E+00;  0.0000000E+00;  4.0000000E+04;  0.0000000E+00;  4.0000000E+04;  6.9549146E-06;  0.0000000E+00;  2.1549786E-07;  3.2691228E+00;
 -1.5000001E-01;  9.9999998E-03;  2.3000000E-01;521;  0.0000000E+00;  0.0000000E+00;  0.0000000E+00;  1.0000000E+03;  1.0000000E-01;  0.0000000E+00;0;  0.0000000E+00;  0.0000000E+00;  0.0000000E+00;0;  7.2551484E-06;  4.0000000E+04;  0.0000000E+00;  0.0000000E+00;  4.0000000E+04;  0.0000000E+00;  4.0000000E+04;  7.0393776E-06;  0.0000000E+00;  2.1577063E-07;  2.9499834E+00;
 -1.4000000E-01;  9.9999998E-03;  7.0000000E-02;596;  0.0000000E+00;  0.0000000E+00;  0.0000000E+00;  1.0000000E+03;  1.0000000E-01;  0.0000000E+00;0;  0.0000000E+00;  0.0000000E+00;  0.0000000E+00;0;  3.2426182E-05;  4.0000000E+04;  0.0000000E+00;  0.0000000E+00;  4.0000000E+04;  0.0000000E+00;  4.0000000E+04;  3.2599772E-05;  0.0000000E+00; -1.7358835E-07;  1.7033041E+01;
 -1.4000000E-01;  9.9999998E-03;  7.9999998E-02;597;  0.0000000E+00;  0.0000000E+00;  0.0000000E+00;  1.0000000E+03;  1.0000000E-01;  0.0000000E+00;0;  0.0000000E+00;  0.0000000E+00;  0.0000000E+00;0;  3.2258897E-05;  4.0000000E+04;  0.0000000E+00;  0.0000000E+00;  4.0000000E+04;  0.0000000E+00;  4.0000000E+04;  3.2441159E-05;  0.0000000E+00; -1.8226325E-07;  1.6905180E+01;
 -1.4000000E-01;  9.9999998E-03;  9.0000004E-02;598;  0.0000000E+00;  0.0000000E+00;  0.0000000E+00;  1.0000000E+03;  1.0000000E-01;  0.0000000E+00;0;  0.0000000E+00;  0.0000000E+00;  0.0000000E+00;0;  3.1749874E-05;  4.0000000E+04;  0.0000000E+00;  0.0000000E+00;  4.0000000E+04;  0.0000000E+00;  4.0000000E+04;  3.1896969E-05;  0.0000000E+00; -1.4709471E-07;  1.6854828E+01;
 -1.4000000E-01;  9.9999998E-03;  1.0000000E-01;599;  0.0000000E+00;  0.0000000E+00;  0.0000000E+00;  1.0000000E+03;  1.0000000E-01;  0.0000000E+00;0;  0.0000000E+00;  0.0000000E+00;  0.0000000E+00;0;  3.0870928E-05;  4.0000000E+04;  0.0000000E+00;  0.0000000E+00;  4.0000000E+04;  0.0000000E+00;  4.0000000E+04;  3.0938972E-05;  0.0000000E+00; -6.8045111E-08;  1.6907152E+01;
 -1.4000000E-01;  9.9999998E-03;  1.1000000E-01;600;  0.0000000E+00;  0.0000000E+00;  0.0000000E+00;  1.0000000E+03;  1.0000000E-01;  0.0000000E+00;0;  0.0000000E+00;  0.0000000E+00;  0.0000000E+00;0;  2.9648803E-05;  4.0000000E+04;  0.0000000E+00;  0.0000000E+00;  4.0000000E+04;  0.0000000E+00;  4.0000000E+04;  2.9597602E-05;  0.0000000E+00;  5.1201582E-08;  1.7065929E+01;
 -1.4000000E-01;  9.9999998E-03;  1.2000000E-01;601;  0.0000000E+00;  0.0000000E+00;  0.0000000E+00;  1.0000000E+03;  1.0000000E-01;  0.0000000E+00;0;  0.0000000E+00;  0.0000000E+00;  0.0000000E+00;0;  2.8172753E-05;  4.0000000E+04;  0.0000000E+00;  0.0000000E+00;  4.0000000E+04;  0.0000000E+00;  4.0000000E+04;  2.7969298E-05;  0.0000000E+00;  2.0345546E-07;  1.7310698E+01;
 -1.4000000E-01;  9.9999998E-03;  1.3000000E-01;602;  0.0000000E+00;  0.0000000E+00;  0.0000000E+00;  1.0000000E+03;  1.0000000E-01;  0.0000000E+00;0;  0.0000000E+00;  0.0000000E+00;  0.0000000E+00;0;  2.6592106E-05;  4.0000000E+04;  0.0000000E+00;  0.0000000E+00;  4.0000000E+04;  0.0000000E+00;  4.0000000E+04;  2.6213555E-05;  0.0000000E+00;  3.7855182E-07;  1.7599295E+01;
 -1.4000000E-01;  9.9999998E-03;  1.4000000E-01;603;  0.0000000E+00;  0.0000000E+00;  0.0000000E+00;  1.0000000E+03;  1.0000000E-01;  0.0000000E+00;0;  0.0000000E+00;  0.0000000E+00;  0.0000000E+00;0;  2.5100915E-05;  4.0000000E+04;  0.0000000E+00;  0.0000000E+00;  4.0000000E+04;  0.0000000E+00;  4.0000000E+04;  2.4536588E-05;  0.0000000E+00;  5.6432737E-07;  1.7876837E+01;
 -1.4000000E-01;  9.9999998E-03;  1.5000001E-01;604;  0.0000000E+00;  0.0000000E+00;  0.0000000E+00;  1.0000000E+03;  1.0000000E-01;  0.0000000E+00;0;  0.0000000E+00;  0.0000000E+00;  0.0000000E+00;0;  2.3910339E-05;  4.0000000E+04;  0.0000000E+00;  0.0000000E+00;  4.0000000E+04;  0.0000000E+00;  4.0000000E+04;  2.3162296E-05;  0.0000000E+00;  7.4804234E-07;  1.8087214E+01;
 -1.4000000E-01;  9.9999998E-03;  1.6000000E-01;605;  0.0000000E+00;  0.0000000E+00;  0.0000000E+00;  1.0000000E+03;  1.0000000E-01;  0.0000000E+00;0;  0.0000000E+00;  0.0000000E+00;  0.0000000E+00;0;  2.3210707E-05;  4.0000000E+04;  0.0000000E+00;  0.0000000E+00;  4.0000000E+04;  0.0000000E+00;  4.0000000E+04;  2.2292732E-05;  0.0000000E+00;  9.1797551E-07;  1.8185175E+01;
 -1.4000000E-01;  9.9999998E-03;  1.7000000E-01;606;  0.0000000E+00;  0.0000000E+00;  0.0000000E+00;  1.0000000E+03;  1.0000000E-01;  0.0000000E+00;0;  0.0000000E+00;  0.0000000E+00;  0.0000000E+00;0;  2.3128152E-05;  4.0000000E+04;  0.0000000E+00;  0.0000000E+00;  4.0000000E+04;  0.0000000E+00;  4.0000000E+04;  2.2063412E-05;  0.0000000E+00;  1.0647394E-06;  1.8145357E+01;
 -1.4000000E-01;  9.9999998E-03;  1.8000001E-01;607;  0.0000000E+00;  0.0000000E+00;  0.0000000E+00;  1.0000000E+03;  1.0000000E-01;  0.0000000E+00;0;  0.0000000E+00;  0.0000000E+00;  0.0000000E+00;0;  2.3681607E-05;  4.0000000E+04;  0.0000000E+00;  0.0000000E+00;  4.0000000E+04;  0.0000000E+00;  4.0000000E+04;  2.2499757E-05;  0.0000000E+00;  1.1818510E-06;  1.7962952E+01;
 -1.4000000E-01;  9.9999998E-03;  1.9000000E-01;608;  0.0000000E+00;  0.0000000E+00;  0.0000000E+00;  1.0000000E+03;  1.0000000E-01;  0.0000000E+00;0;  0.0000000E+00;  0.0000000E+00;  0.0000000E+00;0;  2.4749126E-05;  4.0000000E+04;  0.0000000E+00;  0.0000000E+00;  4.0000000E+04;  0.0000000E+00;  4.0000000E+04;  2.3483790E-05;  0.0000000E+00;  1.2653362E-06;  1.7642223E+01;
 -1.4000000E-01;  9.9999998E-03;  2.0000000E-01;609;  0.0000000E+00;  0.0000000E+00;  0.0000000E+00;  1.0000000E+03;  1.0000000E-01;  0.0000000E+00;0;  0.0000000E+00;  0.0000000E+00;  0.0000000E+00;0;  2.6055022E-05;  4.0000000E+04;  0.0000000E+00;  0.0000000E+00;  4.0000000E+04;  0.0000000E+00;  4.0000000E+04;  2.4742007E-05;  0.0000000E+00;  1.3130151E-06;  1.7170326E+01;
 -1.4000000E-01;  9.9999998E-03;  2.0999999E-01;610;  0.0000000E+00;  0.0000000E+00;  0.0000000E+00;  1.0000000E+03;  1.0000000E-01;  0.0000000E+00;0;  0.0000000E+00;  0.0000000E+00;  0.0000000E+00;0;  2.7192844E-05;  4.0000000E+04;  0.0000000E+00;  0.0000000E+00;  4.0000000E+04;  0.0000000E+00;  4.0000000E+04;  2.5870202E-05;  0.0000000E+00;  1.3226412E-06;  1.6484394E+01;
 -1.4000000E-01;  9.9999998E-03;  2.2000000E-01;611;  0.0000000E+00;  0.0000000E+00;  0.0000000E+00;  1.0000000E+03;  1.0000000E-01;  0.0000000E+00;0;  0.0000000E+00;  0.0000000E+00;  0.0000000E+00;0;  2.7691407E-05;  4.0000000E+04;  0.0000000E+00;  0.0000000E+00;  4.0000000E+04;  0.0000000E+00;  4.0000000E+04;  2.6426975E-05;  0.0000000E+00;  1.2644326E-06;  1.5436594E+01;
 -1.4000000E-01;  9.9999998E-03;  2.3000000E-01;612;  0.0000000E+00;  0.0000000E+00;  0.0000000E+00;  1.0000000E+03;  1.0000000E-01;  0.0000000E+00;0;  0.0000000E+00;  0.0000000E+00;  0.0000000E+00;0;  2.7131113E-05;  4.0000000E+04;  0.0000000E+00;  0.0000000E+00;  4.0000000E+04;  0.0000000E+00;  4.0000000E+04;  2.6038726E-05;  0.0000000E+00;  1.0923867E-06;  1.3860742E+01;
 -1.3000000E-01;  9.9999998E-03;  7.0000000E-02;687;  0.0000000E+00;  0.0000000E+00;  0.0000000E+00;  1.0000246E+03;  1.0000000E-01;  2.0345104E+01;0;  0.0000000E+00;  0.0000000E+00;  0.0000000E+00;0;  7.5888478E-05;  4.0000000E+04;  0.0000000E+00;  0.0000000E+00;  4.0000000E+04;  0.0000000E+00;  4.0000000E+04;  7.6435717E-05;  0.0000000E+00; -5.4723682E-07;  4.7358456E+01;
 -1.3000000E-01;  9.9999998E-03;  7.9999998E-02;688;  0.0000000E+00;  0.0000000E+00;  0.0000000E+00;  1.0000253E+03;  1.0000000E-01;  2.0937679E+01;0;  0.0000000E+00;  0.0000000E+00;  0.0000000E+00;0;  7.5164651E-05;  4.0000000E+04;  0.0000000E+00;  0.0000000E+00;  4.0000000E+04;  0.0000000E+00;  4.0000000E+04;  7.5735115E-05;  0.0000000E+00; -5.7046714E-07;  4.6842159E+01;
 -1.3000000E-01;  9.9999998E-03;  9.0000004E-02;689;  0.0000000E+00;  0.0000000E+00;  0.0000000E+00;  1.0000262E+03;  1.0000000E-01;  2.1727781E+01;0;  0.0000000E+00;  0.0000000E+00;  0.0000000E+00;0;  7.3608360E-05;  4.0000000E+04;  0.0000000E+00;  0.0000000E+00;  4.0000000E+04;  0.0000000E+00;  4.0000000E+04;  7.4038493E-05;  0.0000000E+00; -4.3013173E-07;  4.6543266E+01;
 -1.3000000E-01;  9.9999998E-03;  1.0000000E-01;690;  0.0000000E+00;  0.0000000E+00;  0.0000000E+00;  1.0000269E+03;  1.0000000E-01;  2.2320356E+01;0;  0.0000000E+00;  0.0000000E+00;  0.0000000E+00;0;  7.1187431E-05;  4.0000000E+04;  0.0000000E+00;  0.0000000E+00;  4.0000000E+04;  0.0000000E+00;  4.0000000E+04;  7.1313516E-05;  0.0000000E+00; -1.2608839E-07;  4.6530170E+01;
 -1.3000000E-01;  9.9999998E-03;  1.1000000E-01;691;  0.0000000E+00;  0.0000000E+00;  0.0000000E+00;  1.0000276E+03;  1.0000000E-01;  2.2912931E+01;0;  0.0000000E+00;  0.0000000E+00;  0.0000000E+00;0;  6.8000722E-05;  4.0000000E+04;  0.0000000E+00;  0.0000000E+00;  4.0000000E+04;  0.0000000E+00;  4.0000000E+04;  6.7675443E-05;  0.0000000E+00;  3.2527561E-07;  4.6821678E+01;
 -1.3000000E-01;  9.9999998E-03;  1.2000000E-01;692;  0.0000000E+00;  0.0000000E+00;  0.0000000E+00;  1.0000282E+03;  1.0000000E-01;  2.3406746E+01;0;  0.0000000E+00;  0.0000000E+00;  0.0000000E+00;0;  6.4289663E-05;  4.0000000E+04;  0.0000000E+00;  0.0000000E+00;  4.0000000E+04;  0.0000000E+00;  4.0000000E+04;  6.3395899E-05;  0.0000000E+00;  8.9376334E-07;  4.7379181E+01;
 -1.3000000E-01;  9.9999998E-03;  1.3000000E-01;693;  0.0000000E+00;  0.0000000E+00;  0.0000000E+00;  1.0000285E+03;  1.0000000E-01;  2.3604271E+01;0;  0.0000000E+00;  0.0000000E+00;  0.0000000E+00;0;  6.0424332E-05;  4.0000000E+04;  0.0000000E+00;  0.0000000E+00;  4.0000000E+04;  0.0000000E+00;  4.0000000E+04;  5.8885031E-05;  0.0000000E+00;  1.5393031E-06;  4.8113197E+01;
 -1.3000000E-01;  9.9999998E-03;  1.4000000E-01;694;  0.0000000E+00;  0.0000000E+00;  0.0000000E+00;  1.0000283E+03;  1.0000000E-01;  2.3406746E+01;0;  0.0000000E+00;  0.0000000E+00;  0.0000000E+00;0;  5.6860241E-05;  4.0000000E+04;  0.0000000E+00;  0.0000000E+00;  4.0000000E+04;  0.0000000E+00;  4.0000000E+04;  5.4643639E-05;  0.0000000E+00;  2.2166030E-06;  4.8903561E+01;
 -1.3000000E-01;  9.9999998E-03;  1.5000001E-01;695;  0.0000000E+00;  0.0000000E+00;  0.0000000E+00;  1.0000271E+03;  1.0000000E-01;  2.2419119E+01;0;  0.0000000E+00;  0.0000000E+00;  0.0000000E+00;0;  5.4067867E-05;  4.0000000E+04;  0.0000000E+00;  0.0000000E+00;  4.0000000E+04;  0.0000000E+00;  4.0000000E+04;  5.1187959E-05;  0.0000000E+00;  2.8799072E-06;  4.9628220E+01;
 -1.3000000E-01;  9.9999998E-03;  1.6000000E-01;696;  0.0000000E+00;  0.0000000E+00;  0.0000000E+00;  1.0000266E+03;  1.0000000E-01;  2.2024069E+01;0;  0.0000000E+00;  0.0000000E+00;  0.0000000E+00;0;  5.2440777E-05;  4.0000000E+04;  0.0000000E+00;  0.0000000E+00;  4.0000000E+04;  0.0000000E+00;  4.0000000E+04;  4.8953843E-05;  0.0000000E+00;  3.4869338E-06;  5.0192215E+01;
 -1.3000000E-01;  9.9999998E-03;  1.7000000E-01;697;  0.0000000E+00;  0.0000000E+00;  0.0000000E+00;  1.0000256E+03;  1.0000000E-01;  2.1233967E+01;0;  0.0000000E+00;  0.0000000E+00;  0.0000000E+00;0;  5.2195108E-05;  4.0000000E+04;  0.0000000E+00;  0.0000000E+00;  4.0000000E+04;  0.0000000E+00;  4.0000000E+04;  4.8193582E-05;  0.0000000E+00;  4.0015248E-06;  5.0541473E+01;
 -1.3000000E-01;  9.9999998E-03;  1.8000001E-01;698;  0.0000000E+00;  0.0000000E+00;  0.0000000E+00;  1.0000242E+03;  1.0000000E-01;  2.0048815E+01;0;  0.0000000E+00;  0.0000000E+00;  0.0000000E+00;0;  5.3278633E-05;  4.0000000E+04;  0.0000000E+00;  0.0000000E+00;  4.0000000E+04;  0.0000000E+00;  4.0000000E+04;  4.8883634E-05;  0.0000000E+00;  4.3949976E-06;  5.0646297E+01;
 -1.3000000E-01;  9.9999998E-03;  1.9000000E-01;699;  0.0000000E+00;  0.0000000E+00;  0.0000000E+00;  1.0000222E+03;  1.0000000E-01;  1.8369850E+01;0;  0.0000000E+00;  0.0000000E+00;  0.0000000E+00;0;  5.5318862E-05;  4.0000000E+04;  0.0000000E+00;  0.0000000E+00;  4.0000000E+04;  0.0000000E+00;  4.0000000E+04;  5.0671053E-05;  0.0000000E+00;  4.6478094E-06;  5.0447147E+01;
 -1.3000000E-01;  9.9999998E-03;  2.0000000E-01;700;  0.0000000E+00;  0.0000000E+00;  0.0000000E+00;  1.0000192E+03;  1.0000000E-01;  1.5900784E+01;0;  0.0000000E+00;  0.0000000E+00;  0.0000000E+00;0;  5.7632795E-05;  4.0000000E+04;  0.0000000E+00;  0.0000000E+00;  4.0000000E+04;  0.0000000E+00;  4.0000000E+04;  5.2893480E-05;  0.0000000E+00;  4.7393146E-06;  4.9768353E+01;
 -1.3000000E-01;  9.9999998E-03;  2.0999999E-01;701;  0.0000000E+00;  0.0000000E+00;  0.0000000E+00;  1.0000168E+03;  1.0000000E-01;  1.3925532E+01;0;  0.0000000E+00;  0.0000000E+00;  0.0000000E+00;0;  5.9312086E-05;  4.0000000E+04;  0.0000000E+00;  0.0000000E+00;  4.0000000E+04;  0.0000000E+00;  4.0000000E+04;  5.4711541E-05;  0.0000000E+00;  4.6005425E-06;  4.8250156E+01;
 -1.3000000E-01;  9.9999998E-03;  2.2000000E-01;702;  0.0000000E+00;  0.0000000E+00;  0.0000000E+00;  1.0000148E+03;  1.0000000E-01;  1.2246567E+01;0;  0.0000000E+00;  0.0000000E+00;  0.0000000E+00;0;  5.9414477E-05;  4.0000000E+04;  0.0000000E+00;  0.0000000E+00;  4.0000000E+04;  0.0000000E+00;  4.0000000E+04;  5.5263186E-05;  0.0000000E+00;  4.1512899E-06;  4.5458153E+01;
 -1.3000000E-01;  9.9999998E-03;  2.3000000E-01;703;  0.0000000E+00;  0.0000000E+00;  0.0000000E+00;  1.0000078E+03;  1.0000000E-01;  6.4195714E+00;0;  0.0000000E+00;  0.0000000E+00;  0.0000000E+00;0;  5.7196445E-05;  4.0000000E+04;  0.0000000E+00;  0.0000000E+00;  4.0000000E+04;  0.0000000E+00;  4.0000000E+04;  5.3871237E-05;  0.0000000E+00;  3.3252063E-06;  4.0977570E+01;
 -1.2000000E-01;  9.9999998E-03;  7.0000000E-02;778;  0.0000000E+00;  0.0000000E+00;  0.0000000E+00;  1.0000827E+03;  1.0000000E-01;  6.8541275E+01;0;  0.0000000E+00;  0.0000000E+00;  0.0000000E+00;0;  1.2111817E-04;  4.0000000E+04;  0.0000000E+00;  0.0000000E+00;  4.0000000E+04;  0.0000000E+00;  4.0000000E+04;  1.2231448E-04;  0.0000000E+00; -1.1963166E-06;  1.0112550E+02;
 -1.2000000E-01;  9.9999998E-03;  7.9999998E-02;779;  0.0000000E+00;  0.0000000E+00;  0.0000000E+00;  1.0000864E+03;  1.0000000E-01;  7.1504150E+01;0;  0.0000000E+00;  0.0000000E+00;  0.0000000E+00;0;  1.1915204E-04;  4.0000000E+04;  0.0000000E+00;  0.0000000E+00;  4.0000000E+04;  0.0000000E+00;  4.0000000E+04;  1.2038073E-04;  0.0000000E+00; -1.2286893E-06;  9.9670525E+01;
 -1.2000000E-01;  9.9999998E-03;  9.0000004E-02;780;  0.0000000E+00;  0.0000000E+00;  0.0000000E+00;  1.0000881E+03;  1.0000000E-01;  7.2985588E+01;0;  0.0000000E+00;  0.0000000E+00;  0.0000000E+00;0;  1.1563685E-04;  4.0000000E+04;  0.0000000E+00;  0.0000000E+00;  4.0000000E+04;  0.0000000E+00;  4.0000000E+04;  1.1647230E-04;  0.0000000E+00; -8.3544512E-07;  9.8688812E+01;
 -1.2000000E-01;  9.9999998E-03;  1.0000000E-01;781;  0.0000000E+00;  0.0000000E+00;  0.0000000E+00;  1.0000890E+03;  1.0000000E-01;  7.3676926E+01;0;  0.0000000E+00;  0.0000000E+00;  0.0000000E+00;0;  1.1057027E-04;  4.0000000E+04;  0.0000000E+00;  0.0000000E+00;  4.0000000E+04;  0.0000000E+00;  4.0000000E+04;  1.1058686E-04;  0.0000000E+00; -1.6591624E-08;  9.8328636E+01;
 -1.2000000E-01;  9.9999998E-03;  1.1000000E-01;782;  0.0000000E+00;  0.0000000E+00;  0.0000000E+00;  1.0000908E+03;  1.0000000E-01;  7.5158371E+01;0;  0.0000000E+00;  0.0000000E+00;  0.0000000E+00;0;  1.0419172E-04;  4.0000000E+04;  0.0000000E+00;  0.0000000E+00;  4.0000000E+04;  0.0000000E+00;  4.0000000E+04;  1.0300910E-04;  0.0000000E+00;  1.1826222E-06;  9.8649384E+01;
 -1.2000000E-01;  9.9999998E-03;  1.2000000E-01;783;  0.0000000E+00;  0.0000000E+00;  0.0000000E+00;  1.0000923E+03;  1.0000000E-01;  7.6442284E+01;0;  0.0000000E+00;  0.0000000E+00;  0.0000000E+00;0;  9.6992284E-05;  4.0000000E+04;  0.0000000E+00;  0.0000000E+00;  4.0000000E+04;  0.0000000E+00;  4.0000000E+04;  9.4312185E-05;  0.0000000E+00;  2.6800960E-06;  9.9610535E+01;
 -1.2000000E-01;  9.9999998E-03;  1.3000000E-01;784;  0.0000000E+00;  0.0000000E+00;  0.0000000E+00;  1.0000935E+03;  1.0000000E-01;  7.7429909E+01;0;  0.0000000E+00;  0.0000000E+00;  0.0000000E+00;0;  8.9678782E-05;  4.0000000E+04;  0.0000000E+00;  0.0000000E+00;  4.0000000E+04;  0.0000000E+00;  4.0000000E+04;  8.5309934E-05;  0.0000000E+00;  4.3688487E-06;  1.0108292E+02;
 -1.2000000E-01;  9.9999998E-03;  1.4000000E-01;785;  0.0000000E+00;  0.0000000E+00;  0.0000000E+00;  1.0000942E+03;  1.0000000E-01;  7.8022484E+01;0;  0.0000000E+00;  0.0000000E+00;  0.0000000E+00;0;  8.3085928E-05;  4.0000000E+04;  0.0000000E+00;  0.0000000E+00;  4.0000000E+04;  0.0000000E+00;  4.0000000E+04;  7.6956050E-05;  0.0000000E+00;  6.1298797E-06;  1.0288890E+02;
 -1.2000000E-01;  9.9999998E-03;  1.5000001E-01;786;  0.0000000E+00;  0.0000000E+00;  0.0000000E+00;  1.0000903E+03;  1.0000000E-01;  7.4862083E+01;0;  0.0000000E+00;  0.0000000E+00;  0.0000000E+00;0;  7.8038436E-05;  4.0000000E+04;  0.0000000E+00;  0.0000000E+00;  4.0000000E+04;  0.0000000E+00;  4.0000000E+04;  7.0195027E-05;  0.0000000E+00;  7.8434068E-06;  1.0485081E+02;
 -1.2000000E-01;  9.9999998E-03;  1.6000000E-01;787;  0.0000000E+00;  0.0000000E+00;  0.0000000E+00;  1.0000796E+03;  1.0000000E-01;  6.5973442E+01;0;  0.0000000E+00;  0.0000000E+00;  0.0000000E+00;0;  7.5178825E-05;  4.0000000E+04;  0.0000000E+00;  0.0000000E+00;  4.0000000E+04;  0.0000000E+00;  4.0000000E+04;  6.5781147E-05;  0.0000000E+00;  9.3976787E-06;  1.0682898E+02;
 -1.2000000E-01;  9.9999998E-03;  1.7000000E-01;788;  0.0000000E+00;  0.0000000E+00;  0.0000000E+00;  1.0000712E+03;  1.0000000E-01;  5.8961296E+01;0;  0.0000000E+00;  0.0000000E+00;  0.0000000E+00;0;  7.4792188E-05;  4.0000000E+04;  0.0000000E+00;  0.0000000E+00;  4.0000000E+04;  0.0000000E+00;  4.0000000E+04;  6.4096930E-05;  0.0000000E+00;  1.0695260E-05;  1.0871703E+02;
 -1.2000000E-01;  9.9999998E-03;  1.8000001E-01;789;  0.0000000E+00;  0.0000000E+00;  0.0000000E+00;  1.0000614E+03;  1.0000000E-01;  5.0862759E+01;0;  0.0000000E+00;  0.0000000E+00;  0.0000000E+00;0;  7.6670789E-05;  4.0000000E+04;  0.0000000E+00;  0.0000000E+00;  4.0000000E+04;  0.0000000E+00;  4.0000000E+04;  6.5010645E-05;  0.0000000E+00;  1.1660144E-05;  1.1036372E+02;
 -1.2000000E-01;  9.9999998E-03;  1.9000000E-01;790;  0.0000000E+00;  0.0000000E+00;  0.0000000E+00;  1.0000543E+03;  1.0000000E-01;  4.4937000E+01;0;  0.0000000E+00;  0.0000000E+00;  0.0000000E+00;0;  8.0056503E-05;  4.0000000E+04;  0.0000000E+00;  0.0000000E+00;  4.0000000E+04;  0.0000000E+00;  4.0000000E+04;  6.7835404E-05;  0.0000000E+00;  1.2221095E-05;  1.1142572E+02;
 -1.2000000E-01;  9.9999998E-03;  2.0000000E-01;791;  0.0000000E+00;  0.0000000E+00;  0.0000000E+00;  1.0000474E+03;  1.0000000E-01;  3.9307529E+01;0;  0.0000000E+00;  0.0000000E+00;  0.0000000E+00;0;  8.3683932E-05;  4.0000000E+04;  0.0000000E+00;  0.0000000E+00;  4.0000000E+04;  0.0000000E+00;  4.0000000E+04;  7.1436923E-05;  0.0000000E+00;  1.2247010E-05;  1.1123340E+02;
 -1.2000000E-01;  9.9999998E-03;  2.0999999E-01;792;  0.0000000E+00;  0.0000000E+00;  0.0000000E+00;  1.0000439E+03;  1.0000000E-01;  3.6344650E+01;0;  0.0000000E+00;  0.0000000E+00;  0.0000000E+00;0;  8.6014028E-05;  4.0000000E+04;  0.0000000E+00;  0.0000000E+00;  4.0000000E+04;  0.0000000E+00;  4.0000000E+04;  7.4420714E-05;  0.0000000E+00;  1.1593318E-05;  1.0888194E+02;
 -1.2000000E-01;  9.9999998E-03;  2.2000000E-01;793;  0.0000000E+00;  0.0000000E+00;  0.0000000E+00;  1.0000410E+03;  1.0000000E-01;  3.3974346E+01;0;  0.0000000E+00;  0.0000000E+00;  0.0000000E+00;0;  8.5563472E-05;  4.0000000E+04;  0.0000000E+00;  0.0000000E+00;  4.0000000E+04;  0.0000000E+00;  4.0000000E+04;  7.5438635E-05;  0.0000000E+00;  1.0124837E-05;  1.0332529E+02;
 -1.2000000E-01;  9.9999998E-03;  2.3000000E-01;794;  0.0000000E+00;  0.0000000E+00;  0.0000000E+00;  1.0000310E+03;  1.0000000E-01;  2.5678286E+01;0;  0.0000000E+00;  0.0000000E+00;  0.0000000E+00;0;  8.1258338E-05;  4.0000000E+04;  0.0000000E+00;  0.0000000E+00;  4.0000000E+04;  0.0000000E+00;  4.0000000E+04;  7.3492476E-05;  0.0000000E+00;  7.7658633E-06;  9.3646675E+01;
 -1.1000000E-01;  9.9999998E-03;  7.0000000E-02;869;  0.0000000E+00;  0.0000000E+00;  0.0000000E+00;  1.0002220E+03;  1.0000000E-01;  1.8389603E+02;0;  0.0000000E+00;  0.0000000E+00;  0.0000000E+00;0;  1.3312085E-04;  4.0000000E+04;  0.0000000E+00;  0.0000000E+00;  4.0000000E+04;  0.0000000E+00;  4.0000000E+04;  1.3516990E-04;  0.0000000E+00; -2.0490565E-06;  1.8304132E+02;
 -1.1000000E-01;  9.9999998E-03;  7.9999998E-02;870;  0.0000000E+00;  0.0000000E+00;  0.0000000E+00;  1.0002282E+03;  1.0000000E-01;  1.8903169E+02;0;  0.0000000E+00;  0.0000000E+00;  0.0000000E+00;0;  1.2896780E-04;  4.0000000E+04;  0.0000000E+00;  0.0000000E+00;  4.0000000E+04;  0.0000000E+00;  4.0000000E+04;  1.3102617E-04;  0.0000000E+00; -2.0583700E-06;  1.7974603E+02;
 -1.1000000E-01;  9.9999998E-03;  9.0000004E-02;871;  0.0000000E+00;  0.0000000E+00;  0.0000000E+00;  1.0002326E+03;  1.0000000E-01;  1.9268591E+02;0;  0.0000000E+00;  0.0000000E+00;  0.0000000E+00;0;  1.2234032E-04;  4.0000000E+04;  0.0000000E+00;  0.0000000E+00;  4.0000000E+04;  0.0000000E+00;  4.0000000E+04;  1.2351366E-04;  0.0000000E+00; -1.1733383E-06;  1.7733842E+02;
 -1.1000000E-01;  9.9999998E-03;  1.0000000E-01;872;  0.0000000E+00;  0.0000000E+00;  0.0000000E+00;  1.0002377E+03;  1.0000000E-01;  1.9693271E+02;0;  0.0000000E+00;  0.0000000E+00;  0.0000000E+00;0;  1.1331739E-04;  4.0000000E+04;  0.0000000E+00;  0.0000000E+00;  4.0000000E+04;  0.0000000E+00;  4.0000000E+04;  1.1271310E-04;  0.0000000E+00;  6.0428067E-07;  1.7609711E+02;
 -1.1000000E-01;  9.9999998E-03;  1.1000000E-01;873;  0.0000000E+00;  0.0000000E+00;  0.0000000E+00;  1.0002435E+03;  1.0000000E-01;  2.0177206E+02;0;  0.0000000E+00;  0.0000000E+00;  0.0000000E+00;0;  1.0236355E-04;  4.0000000E+04;  0.0000000E+00;  0.0000000E+00;  4.0000000E+04;  0.0000000E+00;  4.0000000E+04;  9.9187251E-05;  0.0000000E+00;  3.1762995E-06;  1.7616934E+02;
 -1.1000000E-01;  9.9999998E-03;  1.2000000E-01;874;  0.0000000E+00;  0.0000000E+00;  0.0000000E+00;  1.0002448E+03;  1.0000000E-01;  2.0285846E+02;0;  0.0000000E+00;  0.0000000E+00;  0.0000000E+00;0;  9.0332978E-05;  4.0000000E+04;  0.0000000E+00;  0.0000000E+00;  4.0000000E+04;  0.0000000E+00;  4.0000000E+04;  8.3966435E-05;  0.0000000E+00;  6.3665448E-06;  1.7755821E+02;
 -1.1000000E-01;  9.9999998E-03;  1.3000000E-01;875;  0.0000000E+00;  0.0000000E+00;  0.0000000E+00;  1.0002418E+03;  1.0000000E-01;  2.0029063E+02;0;  0.0000000E+00;  0.0000000E+00;  0.0000000E+00;0;  7.8398909E-05;  4.0000000E+04;  0.0000000E+00;  0.0000000E+00;  4.0000000E+04;  0.0000000E+00;  4.0000000E+04;  6.8452457E-05;  0.0000000E+00;  9.9464487E-06;  1.8014539E+02;
 -1.1000000E-01;  9.9999998E-03;  1.4000000E-01;876;  0.0000000E+00;  0.0000000E+00;  0.0000000E+00;  1.0002278E+03;  1.0000000E-01;  1.8873540E+02;0;  0.0000000E+00;  0.0000000E+00;  0.0000000E+00;0;  6.7898858E-05;  4.0000000E+04;  0.0000000E+00;  0.0000000E+00;  4.0000000E+04;  0.0000000E+00;  4.0000000E+04;  5.4237204E-05;  0.0000000E+00;  1.3661651E-05;  1.8375664E+02;
 -1.1000000E-01;  9.9999998E-03;  1.5000001E-01;877;  0.0000000E+00;  0.0000000E+00;  0.0000000E+00;  1.0002193E+03;  1.0000000E-01;  1.8172325E+02;0;  0.0000000E+00;  0.0000000E+00;  0.0000000E+00;0;  6.0105333E-05;  4.0000000E+04;  0.0000000E+00;  0.0000000E+00;  4.0000000E+04;  0.0000000E+00;  4.0000000E+04;  4.2849653E-05;  0.0000000E+00;  1.7255679E-05;  1.8821896E+02;
 -1.1000000E-01;  9.9999998E-03;  1.6000000E-01;878;  0.0000000E+00;  0.0000000E+00;  0.0000000E+00;  1.0002122E+03;  1.0000000E-01;  1.7579750E+02;0;  0.0000000E+00;  0.0000000E+00;  0.0000000E+00;0;  5.5955577E-05;  4.0000000E+04;  0.0000000E+00;  0.0000000E+00;  4.0000000E+04;  0.0000000E+00;  4.0000000E+04;  3.5466142E-05;  0.0000000E+00;  2.0489435E-05;  1.9337544E+02;
 -1.1000000E-01;  9.9999998E-03;  1.7000000E-01;879;  0.0000000E+00;  0.0000000E+00;  0.0000000E+00;  1.0002034E+03;  1.0000000E-01;  1.6848906E+02;0;  0.0000000E+00;  0.0000000E+00;  0.0000000E+00;0;  5.5799050E-05;  4.0000000E+04;  0.0000000E+00;  0.0000000E+00;  4.0000000E+04;  0.0000000E+00;  4.0000000E+04;  3.2639957E-05;  0.0000000E+00;  2.3159093E-05;  1.9900127E+02;
 -1.1000000E-01;  9.9999998E-03;  1.8000001E-01;880;  0.0000000E+00;  0.0000000E+00;  0.0000000E+00;  1.0001846E+03;  1.0000000E-01;  1.5298332E+02;0;  0.0000000E+00;  0.0000000E+00;  0.0000000E+00;0;  5.9213708E-05;  4.0000000E+04;  0.0000000E+00;  0.0000000E+00;  4.0000000E+04;  0.0000000E+00;  4.0000000E+04;  3.4124965E-05;  0.0000000E+00;  2.5088741E-05;  2.0460138E+02;
 -1.1000000E-01;  9.9999998E-03;  1.9000000E-01;881;  0.0000000E+00;  0.0000000E+00;  0.0000000E+00;  1.0001736E+03;  1.0000000E-01;  1.4389717E+02;0;  0.0000000E+00;  0.0000000E+00;  0.0000000E+00;0;  6.4921282E-05;  4.0000000E+04;  0.0000000E+00;  0.0000000E+00;  4.0000000E+04;  0.0000000E+00;  4.0000000E+04;  3.8880342E-05;  0.0000000E+00;  2.6040938E-05;  2.0915552E+02;
 -1.1000000E-01;  9.9999998E-03;  2.0000000E-01;882;  0.0000000E+00;  0.0000000E+00;  0.0000000E+00;  1.0001517E+03;  1.0000000E-01;  1.2572484E+02;0;  0.0000000E+00;  0.0000000E+00;  0.0000000E+00;0;  7.0970083E-05;  4.0000000E+04;  0.0000000E+00;  0.0000000E+00;  4.0000000E+04;  0.0000000E+00;  4.0000000E+04;  4.5213164E-05;  0.0000000E+00;  2.5756915E-05;  2.1113512E+02;
 -1.1000000E-01;  9.9999998E-03;  2.0999999E-01;883;  0.0000000E+00;  0.0000000E+00;  0.0000000E+00;  1.0001382E+03;  1.0000000E-01;  1.1456466E+02;0;  0.0000000E+00;  0.0000000E+00;  0.0000000E+00;0;  7.5107455E-05;  4.0000000E+04;  0.0000000E+00;  0.0000000E+00;  4.0000000E+04;  0.0000000E+00;  4.0000000E+04;  5.1131330E-05;  0.0000000E+00;  2.3976121E-05;  2.0853683E+02;
 -1.1000000E-01;  9.9999998E-03;  2.2000000E-01;884;  0.0000000E+00;  0.0000000E+00;  0.0000000E+00;  1.0001178E+03;  1.0000000E-01;  9.7577484E+01;0;  0.0000000E+00;  0.0000000E+00;  0.0000000E+00;0;  7.5269440E-05;  4.0000000E+04;  0.0000000E+00;  0.0000000E+00;  4.0000000E+04;  0.0000000E+00;  4.0000000E+04;  5.4765333E-05;  0.0000000E+00;  2.0504107E-05;  1.9923033E+02;
 -1.1000000E-01;  9.9999998E-03;  2.3000000E-01;885;  0.0000000E+00;  0.0000000E+00;  0.0000000E+00;  1.0001089E+03;  1.0000000E-01;  9.0269051E+01;0;  0.0000000E+00;  0.0000000E+00;  0.0000000E+00;0;  7.0045549E-05;  4.0000000E+04;  0.0000000E+00;  0.0000000E+00;  4.0000000E+04;  0.0000000E+00;  4.0000000E+04;  5.4744705E-05;  0.0000000E+00;  1.5300842E-05;  1.8153247E+02;
 -1.0000000E-01;  9.9999998E-03;  7.0000000E-02;960;  0.0000000E+00;  0.0000000E+00;  0.0000000E+00;  1.0004534E+03;  1.0000000E-01;  3.7569308E+02;0;  0.0000000E+00;  0.0000000E+00;  0.0000000E+00;0;  5.9928832E-05;  4.0000000E+04;  0.0000000E+00;  0.0000000E+00;  4.0000000E+04;  0.0000000E+00;  4.0000000E+04;  6.2792518E-05;  0.0000000E+00; -2.8636864E-06;  2.9595352E+02;
 -1.0000000E-01;  9.9999998E-03;  7.9999998E-02;961;  0.0000000E+00;  0.0000000E+00;  0.0000000E+00;  1.0004607E+03;  1.0000000E-01;  3.8171759E+02;0;  0.0000000E+00;  0.0000000E+00;  0.0000000E+00;0;  5.2426465E-05;  4.0000000E+04;  0.0000000E+00;  0.0000000E+00;  4.0000000E+04;  0.0000000E+00;  4.0000000E+04;  5.5208340E-05;  0.0000000E+00; -2.7818758E-06;  2.8954089E+02;
 -1.0000000E-01;  9.9999998E-03;  9.0000004E-02;962;  0.0000000E+00;  0.0000000E+00;  0.0000000E+00;  1.0004702E+03;  1.0000000E-01;  3.8951984E+02;0;  0.0000000E+00;  0.0000000E+00;  0.0000000E+00;0;  4.1317879E-05;  4.0000000E+04;  0.0000000E+00;  0.0000000E+00;  4.0000000E+04;  0.0000000E+00;  4.0000000E+04;  4.2388776E-05;  0.0000000E+00; -1.0708974E-06;  2.8463455E+02;
 -1.0000000E-01;  9.9999998E-03;  1.0000000E-01;963;  0.0000000E+00;  0.0000000E+00;  0.0000000E+00;  1.0004766E+03;  1.0000000E-01;  3.9485303E+02;0;  0.0000000E+00;  0.0000000E+00;  0.0000000E+00;0;  2.6827176E-05;  4.0000000E+04;  0.0000000E+00;  0.0000000E+00;  4.0000000E+04;  0.0000000E+00;  4.0000000E+04;  2.4567335E-05;  0.0000000E+00;  2.2598419E-06;  2.8171487E+02;
 -1.0000000E-01;  9.9999998E-03;  1.1000000E-01;964;  0.0000000E+00;  0.0000000E+00;  0.0000000E+00;  1.0004789E+03;  1.0000000E-01;  3.9682828E+02;0;  0.0000000E+00;  0.0000000E+00;  0.0000000E+00;0;  9.7465518E-06;  4.0000000E+04;  0.0000000E+00;  0.0000000E+00;  4.0000000E+04;  0.0000000E+00;  4.0000000E+04;  2.7209198E-06;  0.0000000E+00;  7.0256319E-06;  2.8108932E+02;
 -1.0000000E-01;  9.9999998E-03;  1.2000000E-01;965;  0.0000000E+00;  0.0000000E+00;  0.0000000E+00;  1.0004769E+03;  1.0000000E-01;  3.9505057E+02;0;  0.0000000E+00;  0.0000000E+00;  0.0000000E+00;0; -8.5707752E-06;  4.0000000E+04;  0.0000000E+00;  0.0000000E+00;  4.0000000E+04;  0.0000000E+00;  4.0000000E+04; -2.1470900E-05;  0.0000000E+00;  1.2900125E-05;  2.8288336E+02;
 -1.0000000E-01;  9.9999998E-03;  1.3000000E-01;966;  0.0000000E+00;  0.0000000E+00;  0.0000000E+00;  1.0004753E+03;  1.0000000E-01;  3.9376663E+02;0;  0.0000000E+00;  0.0000000E+00;  0.0000000E+00;0; -2.6332218E-05;  4.0000000E+04;  0.0000000E+00;  0.0000000E+00;  4.0000000E+04;  0.0000000E+00;  4.0000000E+04; -4.5793029E-05;  0.0000000E+00;  1.9460811E-05;  2.8709589E+02;
 -1.0000000E-01;  9.9999998E-03;  1.4000000E-01;967;  0.0000000E+00;  0.0000000E+00;  0.0000000E+00;  1.0004683E+03;  1.0000000E-01;  3.8793964E+02;0;  0.0000000E+00;  0.0000000E+00;  0.0000000E+00;0; -4.1548650E-05;  4.0000000E+04;  0.0000000E+00;  0.0000000E+00;  4.0000000E+04;  0.0000000E+00;  4.0000000E+04; -6.7786314E-05;  0.0000000E+00;  2.6237665E-05;  2.9367383E+02;
 -1.0000000E-01;  9.9999998E-03;  1.5000001E-01;968;  0.0000000E+00;  0.0000000E+00;  0.0000000E+00;  1.0004576E+03;  1.0000000E-01;  3.7914978E+02;0;  0.0000000E+00;  0.0000000E+00;  0.0000000E+00;0; -5.2373744E-05;  4.0000000E+04;  0.0000000E+00;  0.0000000E+00;  4.0000000E+04;  0.0000000E+00;  4.0000000E+04; -8.5132015E-05;  0.0000000E+00;  3.2758271E-05;  3.0256116E+02;
 -1.0000000E-01;  9.9999998E-03;  1.6000000E-01;969;  0.0000000E+00;  0.0000000E+00;  0.0000000E+00;  1.0004329E+03;  1.0000000E-01;  3.5860715E+02;0;  0.0000000E+00;  0.0000000E+00;  0.0000000E+00;0; -5.7481935E-05;  4.0000000E+04;  0.0000000E+00;  0.0000000E+00;  4.0000000E+04;  0.0000000E+00;  4.0000000E+04; -9.6070253E-05;  0.0000000E+00;  3.8588318E-05;  3.1361050E+02;
 -1.0000000E-01;  9.9999998E-03;  1.7000000E-01;970;  0.0000000E+00;  0.0000000E+00;  0.0000000E+00;  1.0004139E+03;  1.0000000E-01;  3.4290387E+02;0;  0.0000000E+00;  0.0000000E+00;  0.0000000E+00;0; -5.6411693E-05;  4.0000000E+04;  0.0000000E+00;  0.0000000E+00;  4.0000000E+04;  0.0000000E+00;  4.0000000E+04; -9.9767894E-05;  0.0000000E+00;  4.3356202E-05;  3.2634857E+02;
 -1.0000000E-01;  9.9999998E-03;  1.8000001E-01;971;  0.0000000E+00;  0.0000000E+00;  0.0000000E+00;  1.0003865E+03;  1.0000000E-01;  3.2018848E+02;0;  0.0000000E+00;  0.0000000E+00;  0.0000000E+00;0; -4.9859307E-05;  4.0000000E+04;  0.0000000E+00;  0.0000000E+00;  4.0000000E+04;  0.0000000E+00;  4.0000000E+04; -9.6509633E-05;  0.0000000E+00;  4.6650326E-05;  3.3957220E+02;
 -1.0000000E-01;  9.9999998E-03;  1.9000000E-01;972;  0.0000000E+00;  0.0000000E+00;  0.0000000E+00;  1.0003487E+03;  1.0000000E-01;  2.8888071E+02;0;  0.0000000E+00;  0.0000000E+00;  0.0000000E+00;0; -3.9678103E-05;  4.0000000E+04;  0.0000000E+00;  0.0000000E+00;  4.0000000E+04;  0.0000000E+00;  4.0000000E+04; -8.7708053E-05;  0.0000000E+00;  4.8029950E-05;  3.5117932E+02;
 -1.0000000E-01;  9.9999998E-03;  2.0000000E-01;973;  0.0000000E+00;  0.0000000E+00;  0.0000000E+00;  1.0003175E+03;  1.0000000E-01;  2.6300491E+02;0;  0.0000000E+00;  0.0000000E+00;  0.0000000E+00;0; -2.8582464E-05;  4.0000000E+04;  0.0000000E+00;  0.0000000E+00;  4.0000000E+04;  0.0000000E+00;  4.0000000E+04; -7.5617296E-05;  0.0000000E+00;  4.7034831E-05;  3.5808087E+02;
 -1.0000000E-01;  9.9999998E-03;  2.0999999E-01;974;  0.0000000E+00;  0.0000000E+00;  0.0000000E+00;  1.0002906E+03;  1.0000000E-01;  2.4078331E+02;0;  0.0000000E+00;  0.0000000E+00;  0.0000000E+00;0; -1.9598221E-05;  4.0000000E+04;  0.0000000E+00;  0.0000000E+00;  4.0000000E+04;  0.0000000E+00;  4.0000000E+04; -6.2855586E-05;  0.0000000E+00;  4.3257365E-05;  3.5647562E+02;
 -1.0000000E-01;  9.9999998E-03;  2.2000000E-01;975;  0.0000000E+00;  0.0000000E+00;  0.0000000E+00;  1.0002637E+03;  1.0000000E-01;  2.1846295E+02;0;  0.0000000E+00;  0.0000000E+00;  0.0000000E+00;0; -1.5420479E-05;  4.0000000E+04;  0.0000000E+00;  0.0000000E+00;  4.0000000E+04;  0.0000000E+00;  4.0000000E+04; -5.1887229E-05;  0.0000000E+00;  3.6466750E-05;  3.4264294E+02;
 -1.0000000E-01;  9.9999998E-03;  2.3000000E-01;976;  0.0000000E+00;  0.0000000E+00;  0.0000000E+00;  1.0002474E+03;  1.0000000E-01;  2.0503123E+02;0;  0.0000000E+00;  0.0000000E+00;  0.0000000E+00;0; -1.7842218E-05;  4.0000000E+04;  0.0000000E+00;  0.0000000E+00;  4.0000000E+04;  0.0000000E+00;  4.0000000E+04; -4.4563931E-05;  0.0000000E+00;  2.6721713E-05;  3.1385901E+02;
 -9.0000004E-02;  9.9999998E-03;  7.0000000E-02;1051;  0.0000000E+00;  0.0000000E+00;  0.0000000E+00;  1.0008583E+03;  1.0000000E-01;  7.1109100E+02;0;  0.0000000E+00;  0.0000000E+00;  0.0000000E+00;0; -1.6542681E-04;  4.0000000E+04;  0.0000000E+00;  0.0000000E+00;  4.0000000E+04;  0.0000000E+00;  4.0000000E+04; -1.6225477E-04;  0.0000000E+00; -3.1720424E-06;  4.4040359E+02;
 -9.0000004E-02;  9.9999998E-03;  7.9999998E-02;1052;  0.0000000E+00;  0.0000000E+00;  0.0000000E+00;  1.0008692E+03;  1.0000000E-01;  7.2007843E+02;0;  0.0000000E+00;  0.0000000E+00;  0.0000000E+00;0; -1.7762986E-04;  4.0000000E+04;  0.0000000E+00;  0.0000000E+00;  4.0000000E+04;  0.0000000E+00;  4.0000000E+04; -1.7473788E-04;  0.0000000E+00; -2.8919742E-06;  4.2927084E+02;
 -9.0000004E-02;  9.9999998E-03;  9.0000004E-02;1053;  0.0000000E+00;  0.0000000E+00;  0.0000000E+00;  1.0008798E+03;  1.0000000E-01;  7.2886829E+02;0;  0.0000000E+00;  0.0000000E+00;  0.0000000E+00;0; -1.9480479E-04;  4.0000000E+04;  0.0000000E+00;  0.0000000E+00;  4.0000000E+04;  0.0000000E+00;  4.0000000E+04; -1.9486422E-04;  0.0000000E+00;  5.9431780E-08;  4.2052084E+02;
 -9.0000004E-02;  9.9999998E-03;  1.0000000E-01;1054;  0.0000000E+00;  0.0000000E+00;  0.0000000E+00;  1.0008867E+03;  1.0000000E-01;  7.3459650E+02;0;  0.0000000E+00;  0.0000000E+00;  0.0000000E+00;0; -2.1651073E-04;  4.0000000E+04;  0.0000000E+00;  0.0000000E+00;  4.0000000E+04;  0.0000000E+00;  4.0000000E+04; -2.2216089E-04;  0.0000000E+00;  5.6501617E-06;  4.1492990E+02;
 -9.0000004E-02;  9.9999998E-03;  1.1000000E-01;1055;  0.0000000E+00;  0.0000000E+00;  0.0000000E+00;  1.0008896E+03;  1.0000000E-01;  7.3706555E+02;0;  0.0000000E+00;  0.0000000E+00;  0.0000000E+00;0; -2.4150519E-04;  4.0000000E+04;  0.0000000E+00;  0.0000000E+00;  4.0000000E+04;  0.0000000E+00;  4.0000000E+04; -2.5506876E-04;  0.0000000E+00;  1.3563576E-05;  4.1305048E+02;
 -9.0000004E-02;  9.9999998E-03;  1.2000000E-01;1056;  0.0000000E+00;  0.0000000E+00;  0.0000000E+00;  1.0008911E+03;  1.0000000E-01;  7.3825073E+02;0;  0.0000000E+00;  0.0000000E+00;  0.0000000E+00;0; -2.6777096E-04;  4.0000000E+04;  0.0000000E+00;  0.0000000E+00;  4.0000000E+04;  0.0000000E+00;  4.0000000E+04; -2.9102492E-04;  0.0000000E+00;  2.3253964E-05;  4.1525696E+02;
 -9.0000004E-02;  9.9999998E-03;  1.3000000E-01;1057;  0.0000000E+00;  0.0000000E+00;  0.0000000E+00;  1.0008857E+03;  1.0000000E-01;  7.3380640E+02;0;  0.0000000E+00;  0.0000000E+00;  0.0000000E+00;0; -2.9270182E-04;  4.0000000E+04;  0.0000000E+00;  0.0000000E+00;  4.0000000E+04;  0.0000000E+00;  4.0000000E+04; -3.2672301E-04;  0.0000000E+00;  3.4021174E-05;  4.2181348E+02;
 -9.0000004E-02;  9.9999998E-03;  1.4000000E-01;1058;  0.0000000E+00;  0.0000000E+00;  0.0000000E+00;  1.0008676E+03;  1.0000000E-01;  7.1879449E+02;0;  0.0000000E+00;  0.0000000E+00;  0.0000000E+00;0; -3.1345131E-04;  4.0000000E+04;  0.0000000E+00;  0.0000000E+00;  4.0000000E+04;  0.0000000E+00;  4.0000000E+04; -3.5854237E-04;  0.0000000E+00;  4.5091056E-05;  4.3296594E+02;
 -9.0000004E-02;  9.9999998E-03;  1.5000001E-01;1059;  0.0000000E+00;  0.0000000E+00;  0.0000000E+00;  1.0008448E+03;  1.0000000E-01;  6.9993085E+02;0;  0.0000000E+00;  0.0000000E+00;  0.0000000E+00;0; -3.2739725E-04;  4.0000000E+04;  0.0000000E+00;  0.0000000E+00;  4.0000000E+04;  0.0000000E+00;  4.0000000E+04; -3.8309046E-04;  0.0000000E+00;  5.5693195E-05;  4.4890677E+02;
 -9.0000004E-02;  9.9999998E-03;  1.6000000E-01;1060;  0.0000000E+00;  0.0000000E+00;  0.0000000E+00;  1.0008112E+03;  1.0000000E-01;  6.7198102E+02;0;  0.0000000E+00;  0.0000000E+00;  0.0000000E+00;0; -3.3264561E-04;  4.0000000E+04;  0.0000000E+00;  0.0000000E+00;  4.0000000E+04;  0.0000000E+00;  4.0000000E+04; -3.9777841E-04;  0.0000000E+00;  6.5132801E-05;  4.6951379E+02;
 -9.0000004E-02;  9.9999998E-03;  1.7000000E-01;1061;  0.0000000E+00;  0.0000000E+00;  0.0000000E+00;  1.0007725E+03;  1.0000000E-01;  6.3998187E+02;0;  0.0000000E+00;  0.0000000E+00;  0.0000000E+00;0; -3.2855221E-04;  4.0000000E+04;  0.0000000E+00;  0.0000000E+00;  4.0000000E+04;  0.0000000E+00;  4.0000000E+04; -4.0128577E-04;  0.0000000E+00;  7.2733565E-05;  4.9383469E+02;
 -9.0000004E-02;  9.9999998E-03;  1.8000001E-01;1062;  0.0000000E+00;  0.0000000E+00;  0.0000000E+00;  1.0007309E+03;  1.0000000E-01;  6.0551373E+02;0;  0.0000000E+00;  0.0000000E+00;  0.0000000E+00;0; -3.1605031E-04;  4.0000000E+04;  0.0000000E+00;  0.0000000E+00;  4.0000000E+04;  0.0000000E+00;  4.0000000E+04; -3.9383434E-04;  0.0000000E+00;  7.7784040E-05;  5.1962823E+02;
 -9.0000004E-02;  9.9999998E-03;  1.9000000E-01;1063;  0.0000000E+00;  0.0000000E+00;  0.0000000E+00;  1.0006837E+03;  1.0000000E-01;  5.6640375E+02;0;  0.0000000E+00;  0.0000000E+00;  0.0000000E+00;0; -2.9758780E-04;  4.0000000E+04;  0.0000000E+00;  0.0000000E+00;  4.0000000E+04;  0.0000000E+00;  4.0000000E+04; -3.7713276E-04;  0.0000000E+00;  7.9544952E-05;  5.4302954E+02;
 -9.0000004E-02;  9.9999998E-03;  2.0000000E-01;1064;  0.0000000E+00;  0.0000000E+00;  0.0000000E+00;  1.0006264E+03;  1.0000000E-01;  5.1899768E+02;0;  0.0000000E+00;  0.0000000E+00;  0.0000000E+00;0; -2.7668060E-04;  4.0000000E+04;  0.0000000E+00;  0.0000000E+00;  4.0000000E+04;  0.0000000E+00;  4.0000000E+04; -3.5397126E-04;  0.0000000E+00;  7.7290671E-05;  5.5855878E+02;
 -9.0000004E-02;  9.9999998E-03;  2.0999999E-01;1065;  0.0000000E+00;  0.0000000E+00;  0.0000000E+00;  1.0005754E+03;  1.0000000E-01;  4.7672726E+02;0;  0.0000000E+00;  0.0000000E+00;  0.0000000E+00;0; -2.5718982E-04;  4.0000000E+04;  0.0000000E+00;  0.0000000E+00;  4.0000000E+04;  0.0000000E+00;  4.0000000E+04; -3.2764903E-04;  0.0000000E+00;  7.0459217E-05;  5.5992511E+02;
 -9.0000004E-02;  9.9999998E-03;  2.2000000E-01;1066;  0.0000000E+00;  0.0000000E+00;  0.0000000E+00;  1.0005345E+03;  1.0000000E-01;  4.4285168E+02;0;  0.0000000E+00;  0.0000000E+00;  0.0000000E+00;0; -2.4253769E-04;  4.0000000E+04;  0.0000000E+00;  0.0000000E+00;  4.0000000E+04;  0.0000000E+00;  4.0000000E+04; -3.0135352E-04;  0.0000000E+00;  5.8815833E-05;  5.4129901E+02;
 -9.0000004E-02;  9.9999998E-03;  2.3000000E-01;1067;  0.0000000E+00;  0.0000000E+00;  0.0000000E+00;  1.0004897E+03;  1.0000000E-01;  4.0571692E+02;0;  0.0000000E+00;  0.0000000E+00;  0.0000000E+00;0; -2.3501938E-04;  4.0000000E+04;  0.0000000E+00;  0.0000000E+00;  4.0000000E+04;  0.0000000E+00;  4.0000000E+04; -2.7759888E-04;  0.0000000E+00;  4.2579501E-05;  4.9857321E+02;
 -7.9999998E-02;  9.9999998E-03;  7.0000000E-02;1142;  0.0000000E+00;  0.0000000E+00;  0.0000000E+00;  1.0014814E+03;  1.0000000E-01;  1.2273234E+03;0;  0.0000000E+00;  0.0000000E+00;  0.0000000E+00;0; -6.2106113E-04;  4.0000000E+04;  0.0000000E+00;  0.0000000E+00;  4.0000000E+04;  0.0000000E+00;  4.0000000E+04; -6.1883836E-04;  0.0000000E+00; -2.2227989E-06;  6.1364911E+02;
 -7.9999998E-02;  9.9999998E-03;  7.9999998E-02;1143;  0.0000000E+00;  0.0000000E+00;  0.0000000E+00;  1.0014956E+03;  1.0000000E-01;  1.2390760E+03;0;  0.0000000E+00;  0.0000000E+00;  0.0000000E+00;0; -6.3948595E-04;  4.0000000E+04;  0.0000000E+00;  0.0000000E+00;  4.0000000E+04;  0.0000000E+00;  4.0000000E+04; -6.3787727E-04;  0.0000000E+00; -1.6087055E-06;  5.9601227E+02;
 -7.9999998E-02;  9.9999998E-03;  9.0000004E-02;1144;  0.0000000E+00;  0.0000000E+00;  0.0000000E+00;  1.0015080E+03;  1.0000000E-01;  1.2493474E+03;0;  0.0000000E+00;  0.0000000E+00;  0.0000000E+00;0; -6.6454802E-04;  4.0000000E+04;  0.0000000E+00;  0.0000000E+00;  4.0000000E+04;  0.0000000E+00;  4.0000000E+04; -6.6758395E-04;  0.0000000E+00;  3.0359456E-06;  5.8196039E+02;
 -7.9999998E-02;  9.9999998E-03;  1.0000000E-01;1145;  0.0000000E+00;  0.0000000E+00;  0.0000000E+00;  1.0015173E+03;  1.0000000E-01;  1.2570509E+03;0;  0.0000000E+00;  0.0000000E+00;  0.0000000E+00;0; -6.9551752E-04;  4.0000000E+04;  0.0000000E+00;  0.0000000E+00;  4.0000000E+04;  0.0000000E+00;  4.0000000E+04; -7.0714444E-04;  0.0000000E+00;  1.1626921E-05;  5.7266077E+02;
 -7.9999998E-02;  9.9999998E-03;  1.1000000E-01;1146;  0.0000000E+00;  0.0000000E+00;  0.0000000E+00;  1.0015251E+03;  1.0000000E-01;  1.2635692E+03;0;  0.0000000E+00;  0.0000000E+00;  0.0000000E+00;0; -7.3056214E-04;  4.0000000E+04;  0.0000000E+00;  0.0000000E+00;  4.0000000E+04;  0.0000000E+00;  4.0000000E+04; -7.5421843E-04;  0.0000000E+00;  2.3656272E-05;  5.6903290E+02;
 -7.9999998E-02;  9.9999998E-03;  1.2000000E-01;1147;  0.0000000E+00;  0.0000000E+00;  0.0000000E+00;  1.0015244E+03;  1.0000000E-01;  1.2628778E+03;0;  0.0000000E+00;  0.0000000E+00;  0.0000000E+00;0; -7.6679856E-04;  4.0000000E+04;  0.0000000E+00;  0.0000000E+00;  4.0000000E+04;  0.0000000E+00;  4.0000000E+04; -8.0507953E-04;  0.0000000E+00;  3.8280952E-05;  5.7182361E+02;
 -7.9999998E-02;  9.9999998E-03;  1.3000000E-01;1148;  0.0000000E+00;  0.0000000E+00;  0.0000000E+00;  1.0015137E+03;  1.0000000E-01;  1.2540880E+03;0;  0.0000000E+00;  0.0000000E+00;  0.0000000E+00;0; -8.0054946E-04;  4.0000000E+04;  0.0000000E+00;  0.0000000E+00;  4.0000000E+04;  0.0000000E+00;  4.0000000E+04; -8.5498748E-04;  0.0000000E+00;  5.4438035E-05;  5.8174786E+02;
 -7.9999998E-02;  9.9999998E-03;  1.4000000E-01;1149;  0.0000000E+00;  0.0000000E+00;  0.0000000E+00;  1.0014849E+03;  1.0000000E-01;  1.2301874E+03;0;  0.0000000E+00;  0.0000000E+00;  0.0000000E+00;0; -8.2781375E-04;  4.0000000E+04;  0.0000000E+00;  0.0000000E+00;  4.0000000E+04;  0.0000000E+00;  4.0000000E+04; -8.9878263E-04;  0.0000000E+00;  7.0968883E-05;  5.9954047E+02;
 -7.9999998E-02;  9.9999998E-03;  1.5000001E-01;1150;  0.0000000E+00;  0.0000000E+00;  0.0000000E+00;  1.0014531E+03;  1.0000000E-01;  1.2039166E+03;0;  0.0000000E+00;  0.0000000E+00;  0.0000000E+00;0; -8.4488076E-04;  4.0000000E+04;  0.0000000E+00;  0.0000000E+00;  4.0000000E+04;  0.0000000E+00;  4.0000000E+04; -9.3162159E-04;  0.0000000E+00;  8.6740802E-05;  6.2579395E+02;
 -7.9999998E-02;  9.9999998E-03;  1.6000000E-01;1151;  0.0000000E+00;  0.0000000E+00;  0.0000000E+00;  1.0014014E+03;  1.0000000E-01;  1.1610536E+03;0;  0.0000000E+00;  0.0000000E+00;  0.0000000E+00;0; -8.4902794E-04;  4.0000000E+04;  0.0000000E+00;  0.0000000E+00;  4.0000000E+04;  0.0000000E+00;  4.0000000E+04; -9.4973430E-04;  0.0000000E+00;  1.0070635E-04;  6.6037378E+02;
 -7.9999998E-02;  9.9999998E-03;  1.7000000E-01;1152;  0.0000000E+00;  0.0000000E+00;  0.0000000E+00;  1.0013394E+03;  1.0000000E-01;  1.1096970E+03;0;  0.0000000E+00;  0.0000000E+00;  0.0000000E+00;0; -8.3925552E-04;  4.0000000E+04;  0.0000000E+00;  0.0000000E+00;  4.0000000E+04;  0.0000000E+00;  4.0000000E+04; -9.5104607E-04;  0.0000000E+00;  1.1179052E-04;  7.0166302E+02;
 -7.9999998E-02;  9.9999998E-03;  1.8000001E-01;1153;  0.0000000E+00;  0.0000000E+00;  0.0000000E+00;  1.0012687E+03;  1.0000000E-01;  1.0511307E+03;0;  0.0000000E+00;  0.0000000E+00;  0.0000000E+00;0; -8.1661576E-04;  4.0000000E+04;  0.0000000E+00;  0.0000000E+00;  4.0000000E+04;  0.0000000E+00;  4.0000000E+04; -9.3551486E-04;  0.0000000E+00;  1.1889909E-04;  7.4591980E+02;
 -7.9999998E-02;  9.9999998E-03;  1.9000000E-01;1154;  0.0000000E+00;  0.0000000E+00;  0.0000000E+00;  1.0011917E+03;  1.0000000E-01;  9.8723132E+02;0;  0.0000000E+00;  0.0000000E+00;  0.0000000E+00;0; -7.8410510E-04;  4.0000000E+04;  0.0000000E+00;  0.0000000E+00;  4.0000000E+04;  0.0000000E+00;  4.0000000E+04; -9.0500503E-04;  0.0000000E+00;  1.2089992E-04;  7.8669958E+02;
 -7.9999998E-02;  9.9999998E-03;  2.0000000E-01;1155;  0.0000000E+00;  0.0000000E+00;  0.0000000E+00;  1.0011075E+03;  1.0000000E-01;  9.1750494E+02;0;  0.0000000E+00;  0.0000000E+00;  0.0000000E+00;0; -7.4604788E-04;  4.0000000E+04;  0.0000000E+00;  0.0000000E+00;  4.0000000E+04;  0.0000000E+00;  4.0000000E+04; -8.6281373E-04;  0.0000000E+00;  1.1676586E-04;  8.1539667E+02;
 -7.9999998E-02;  9.9999998E-03;  2.0999999E-01;1156;  0.0000000E+00;  0.0000000E+00;  0.0000000E+00;  1.0010289E+03;  1.0000000E-01;  8.5242035E+02;0;  0.0000000E+00;  0.0000000E+00;  0.0000000E+00;0; -7.0722698E-04;  4.0000000E+04;  0.0000000E+00;  0.0000000E+00;  4.0000000E+04;  0.0000000E+00;  4.0000000E+04; -8.1300800E-04;  0.0000000E+00;  1.0578099E-04;  8.2263043E+02;
 -7.9999998E-02;  9.9999998E-03;  2.2000000E-01;1157;  0.0000000E+00;  0.0000000E+00;  0.0000000E+00;  1.0009503E+03;  1.0000000E-01;  7.8723700E+02;0;  0.0000000E+00;  0.0000000E+00;  0.0000000E+00;0; -6.7195867E-04;  4.0000000E+04;  0.0000000E+00;  0.0000000E+00;  4.0000000E+04;  0.0000000E+00;  4.0000000E+04; -7.5968564E-04;  0.0000000E+00;  8.7726978E-05;  7.9988232E+02;
 -7.9999998E-02;  9.9999998E-03;  2.3000000E-01;1158;  0.0000000E+00;  0.0000000E+00;  0.0000000E+00;  1.0008806E+03;  1.0000000E-01;  7.2955963E+02;0;  0.0000000E+00;  0.0000000E+00;  0.0000000E+00;0; -6.4326380E-04;  4.0000000E+04;  0.0000000E+00;  0.0000000E+00;  4.0000000E+04;  0.0000000E+00;  4.0000000E+04; -7.0628535E-04;  0.0000000E+00;  6.3021536E-05;  7.4118750E+02;
 -7.0000000E-02;  9.9999998E-03;  7.0000000E-02;1233;  0.0000000E+00;  0.0000000E+00;  0.0000000E+00;  1.0023857E+03;  1.0000000E-01;  1.9765367E+03;0;  0.0000000E+00;  0.0000000E+00;  0.0000000E+00;0; -1.3882287E-03;  4.0000000E+04;  0.0000000E+00;  0.0000000E+00;  4.0000000E+04;  0.0000000E+00;  4.0000000E+04; -1.3892705E-03;  0.0000000E+00;  1.0417682E-06;  8.0819977E+02;
 -7.0000000E-02;  9.9999998E-03;  7.9999998E-02;1234;  0.0000000E+00;  0.0000000E+00;  0.0000000E+00;  1.0024077E+03;  1.0000000E-01;  1.9947090E+03;0;  0.0000000E+00;  0.0000000E+00;  0.0000000E+00;0; -1.4145517E-03;  4.0000000E+04;  0.0000000E+00;  0.0000000E+00;  4.0000000E+04;  0.0000000E+00;  4.0000000E+04; -1.4166775E-03;  0.0000000E+00;  2.1257990E-06;  7.8235681E+02;
 -7.0000000E-02;  9.9999998E-03;  9.0000004E-02;1235;  0.0000000E+00;  0.0000000E+00;  0.0000000E+00;  1.0024269E+03;  1.0000000E-01;  2.0107086E+03;0;  0.0000000E+00;  0.0000000E+00;  0.0000000E+00;0; -1.4495817E-03;  4.0000000E+04;  0.0000000E+00;  0.0000000E+00;  4.0000000E+04;  0.0000000E+00;  4.0000000E+04; -1.4584671E-03;  0.0000000E+00;  8.8854231E-06;  7.6169781E+02;
 -7.0000000E-02;  9.9999998E-03;  1.0000000E-01;1236;  0.0000000E+00;  0.0000000E+00;  0.0000000E+00;  1.0024418E+03;  1.0000000E-01;  2.0230540E+03;0;  0.0000000E+00;  0.0000000E+00;  0.0000000E+00;0; -1.4922362E-03;  4.0000000E+04;  0.0000000E+00;  0.0000000E+00;  4.0000000E+04;  0.0000000E+00;  4.0000000E+04; -1.5133698E-03;  0.0000000E+00;  2.1133681E-05;  7.4788287E+02;
 -7.0000000E-02;  9.9999998E-03;  1.1000000E-01;1237;  0.0000000E+00;  0.0000000E+00;  0.0000000E+00;  1.0024457E+03;  1.0000000E-01;  2.0262144E+03;0;  0.0000000E+00;  0.0000000E+00;  0.0000000E+00;0; -1.5399535E-03;  4.0000000E+04;  0.0000000E+00;  0.0000000E+00;  4.0000000E+04;  0.0000000E+00;  4.0000000E+04; -1.5780508E-03;  0.0000000E+00;  3.8097282E-05;  7.4228693E+02;
 -7.0000000E-02;  9.9999998E-03;  1.2000000E-01;1238;  0.0000000E+00;  0.0000000E+00;  0.0000000E+00;  1.0024364E+03;  1.0000000E-01;  2.0185109E+03;0;  0.0000000E+00;  0.0000000E+00;  0.0000000E+00;0; -1.5887346E-03;  4.0000000E+04;  0.0000000E+00;  0.0000000E+00;  4.0000000E+04;  0.0000000E+00;  4.0000000E+04; -1.6472889E-03;  0.0000000E+00;  5.8554295E-05;  7.4616656E+02;
 -7.0000000E-02;  9.9999998E-03;  1.3000000E-01;1239;  0.0000000E+00;  0.0000000E+00;  0.0000000E+00;  1.0024197E+03;  1.0000000E-01;  2.0046841E+03;0;  0.0000000E+00;  0.0000000E+00;  0.0000000E+00;0; -1.6335021E-03;  4.0000000E+04;  0.0000000E+00;  0.0000000E+00;  4.0000000E+04;  0.0000000E+00;  4.0000000E+04; -1.7145076E-03;  0.0000000E+00;  8.1005506E-05;  7.6085632E+02;
 -7.0000000E-02;  9.9999998E-03;  1.4000000E-01;1240;  0.0000000E+00;  0.0000000E+00;  0.0000000E+00;  1.0023782E+03;  1.0000000E-01;  1.9703147E+03;0;  0.0000000E+00;  0.0000000E+00;  0.0000000E+00;0; -1.6686867E-03;  4.0000000E+04;  0.0000000E+00;  0.0000000E+00;  4.0000000E+04;  0.0000000E+00;  4.0000000E+04; -1.7725403E-03;  0.0000000E+00;  1.0385348E-04;  7.8777228E+02;
 -7.0000000E-02;  9.9999998E-03;  1.5000001E-01;1241;  0.0000000E+00;  0.0000000E+00;  0.0000000E+00;  1.0023202E+03;  1.0000000E-01;  1.9222173E+03;0;  0.0000000E+00;  0.0000000E+00;  0.0000000E+00;0; -1.6890469E-03;  4.0000000E+04;  0.0000000E+00;  0.0000000E+00;  4.0000000E+04;  0.0000000E+00;  4.0000000E+04; -1.8146172E-03;  0.0000000E+00;  1.2557031E-04;  8.2800641E+02;
 -7.0000000E-02;  9.9999998E-03;  1.6000000E-01;1242;  0.0000000E+00;  0.0000000E+00;  0.0000000E+00;  1.0022510E+03;  1.0000000E-01;  1.8649349E+03;0;  0.0000000E+00;  0.0000000E+00;  0.0000000E+00;0; -1.6906802E-03;  4.0000000E+04;  0.0000000E+00;  0.0000000E+00;  4.0000000E+04;  0.0000000E+00;  4.0000000E+04; -1.8353463E-03;  0.0000000E+00;  1.4466618E-04;  8.8137158E+02;
 -7.0000000E-02;  9.9999998E-03;  1.7000000E-01;1243;  0.0000000E+00;  0.0000000E+00;  0.0000000E+00;  1.0021559E+03;  1.0000000E-01;  1.7861223E+03;0;  0.0000000E+00;  0.0000000E+00;  0.0000000E+00;0; -1.6719007E-03;  4.0000000E+04;  0.0000000E+00;  0.0000000E+00;  4.0000000E+04;  0.0000000E+00;  4.0000000E+04; -1.8315422E-03;  0.0000000E+00;  1.5964144E-04;  9.4546307E+02;
 -7.0000000E-02;  9.9999998E-03;  1.8000001E-01;1244;  0.0000000E+00;  0.0000000E+00;  0.0000000E+00;  1.0020521E+03;  1.0000000E-01;  1.7001001E+03;0;  0.0000000E+00;  0.0000000E+00;  0.0000000E+00;0; -1.6336725E-03;  4.0000000E+04;  0.0000000E+00;  0.0000000E+00;  4.0000000E+04;  0.0000000E+00;  4.0000000E+04; -1.8025993E-03;  0.0000000E+00;  1.6892672E-04;  1.0144072E+03;
 -7.0000000E-02;  9.9999998E-03;  1.9000000E-01;1245;  0.0000000E+00;  0.0000000E+00;  0.0000000E+00;  1.0019374E+03;  1.0000000E-01;  1.6050905E+03;0;  0.0000000E+00;  0.0000000E+00;  0.0000000E+00;0; -1.5793954E-03;  4.0000000E+04;  0.0000000E+00;  0.0000000E+00;  4.0000000E+04;  0.0000000E+00;  4.0000000E+04; -1.7503478E-03;  0.0000000E+00;  1.7095236E-04;  1.0785939E+03;
 -7.0000000E-02;  9.9999998E-03;  2.0000000E-01;1246;  0.0000000E+00;  0.0000000E+00;  0.0000000E+00;  1.0018143E+03;  1.0000000E-01;  1.5031674E+03;0;  0.0000000E+00;  0.0000000E+00;  0.0000000E+00;0; -1.5141806E-03;  4.0000000E+04;  0.0000000E+00;  0.0000000E+00;  4.0000000E+04;  0.0000000E+00;  4.0000000E+04; -1.6785526E-03;  0.0000000E+00;  1.6437208E-04;  1.1258083E+03;
 -7.0000000E-02;  9.9999998E-03;  2.0999999E-01;1247;  0.0000000E+00;  0.0000000E+00;  0.0000000E+00;  1.0016900E+03;  1.0000000E-01;  1.4001580E+03;0;  0.0000000E+00;  0.0000000E+00;  0.0000000E+00;0; -1.4438563E-03;  4.0000000E+04;  0.0000000E+00;  0.0000000E+00;  4.0000000E+04;  0.0000000E+00;  4.0000000E+04; -1.5921578E-03;  0.0000000E+00;  1.4830145E-04;  1.1429844E+03;
 -7.0000000E-02;  9.9999998E-03;  2.2000000E-01;1248;  0.0000000E+00;  0.0000000E+00;  0.0000000E+00;  1.0015684E+03;  1.0000000E-01;  1.2994200E+03;0;  0.0000000E+00;  0.0000000E+00;  0.0000000E+00;0; -1.3738950E-03;  4.0000000E+04;  0.0000000E+00;  0.0000000E+00;  4.0000000E+04;  0.0000000E+00;  4.0000000E+04; -1.4964177E-03;  0.0000000E+00;  1.2252266E-04;  1.1183025E+03;
 -7.0000000E-02;  9.9999998E-03;  2.3000000E-01;1249;  0.0000000E+00;  0.0000000E+00;  0.0000000E+00;  1.0014543E+03;  1.0000000E-01;  1.2048054E+03;0;  0.0000000E+00;  0.0000000E+00;  0.0000000E+00;0; -1.3083910E-03;  4.0000000E+04;  0.0000000E+00;  0.0000000E+00;  4.0000000E+04;  0.0000000E+00;  4.0000000E+04; -1.3960315E-03;  0.0000000E+00;  8.7640525E-05;  1.0432682E+03;
 -5.9999999E-02;  9.9999998E-03;  7.0000000E-02;1324;  0.0000000E+00;  0.0000000E+00;  0.0000000E+00;  1.0036359E+03;  1.0000000E-01;  3.0122605E+03;0;  0.0000000E+00;  0.0000000E+00;  0.0000000E+00;0; -2.5374750E-03;  4.0000000E+04;  0.0000000E+00;  0.0000000E+00;  4.0000000E+04;  0.0000000E+00;  4.0000000E+04; -2.5454154E-03;  0.0000000E+00;  7.9403653E-06;  1.0103385E+03;
 -5.9999999E-02;  9.9999998E-03;  7.9999998E-02;1325;  0.0000000E+00;  0.0000000E+00;  0.0000000E+00;  1.0036645E+03;  1.0000000E-01;  3.0359636E+03;0;  0.0000000E+00;  0.0000000E+00;  0.0000000E+00;0; -2.5735160E-03;  4.0000000E+04;  0.0000000E+00;  0.0000000E+00;  4.0000000E+04;  0.0000000E+00;  4.0000000E+04; -2.5831081E-03;  0.0000000E+00;  9.5921368E-06;  9.7500885E+02;
 -5.9999999E-02;  9.9999998E-03;  9.0000004E-02;1326;  0.0000000E+00;  0.0000000E+00;  0.0000000E+00;  1.0036870E+03;  1.0000000E-01;  3.0545310E+03;0;  0.0000000E+00;  0.0000000E+00;  0.0000000E+00;0; -2.6208537E-03;  4.0000000E+04;  0.0000000E+00;  0.0000000E+00;  4.0000000E+04;  0.0000000E+00;  4.0000000E+04; -2.6396301E-03;  0.0000000E+00;  1.8776343E-05;  9.4695203E+02;
 -5.9999999E-02;  9.9999998E-03;  1.0000000E-01;1327;  0.0000000E+00;  0.0000000E+00;  0.0000000E+00;  1.0037009E+03;  1.0000000E-01;  3.0661848E+03;0;  0.0000000E+00;  0.0000000E+00;  0.0000000E+00;0; -2.6780330E-03;  4.0000000E+04;  0.0000000E+00;  0.0000000E+00;  4.0000000E+04;  0.0000000E+00;  4.0000000E+04; -2.7131587E-03;  0.0000000E+00;  3.5125777E-05;  9.2838300E+02;
 -5.9999999E-02;  9.9999998E-03;  1.1000000E-01;1328;  0.0000000E+00;  0.0000000E+00;  0.0000000E+00;  1.0037028E+03;  1.0000000E-01;  3.0677651E+03;0;  0.0000000E+00;  0.0000000E+00;  0.0000000E+00;0; -2.7416197E-03;  4.0000000E+04;  0.0000000E+00;  0.0000000E+00;  4.0000000E+04;  0.0000000E+00;  4.0000000E+04; -2.7991310E-03;  0.0000000E+00;  5.7511363E-05;  9.2117883E+02;
 -5.9999999E-02;  9.9999998E-03;  1.2000000E-01;1329;  0.0000000E+00;  0.0000000E+00;  0.0000000E+00;  1.0036872E+03;  1.0000000E-01;  3.0547285E+03;0;  0.0000000E+00;  0.0000000E+00;  0.0000000E+00;0; -2.8062416E-03;  4.0000000E+04;  0.0000000E+00;  0.0000000E+00;  4.0000000E+04;  0.0000000E+00;  4.0000000E+04; -2.8904933E-03;  0.0000000E+00;  8.4251718E-05;  9.2716443E+02;
 -5.9999999E-02;  9.9999998E-03;  1.3000000E-01;1330;  0.0000000E+00;  0.0000000E+00;  0.0000000E+00;  1.0036541E+03;  1.0000000E-01;  3.0272725E+03;0;  0.0000000E+00;  0.0000000E+00;  0.0000000E+00;0; -2.8650039E-03;  4.0000000E+04;  0.0000000E+00;  0.0000000E+00;  4.0000000E+04;  0.0000000E+00;  4.0000000E+04; -2.9783633E-03;  0.0000000E+00;  1.1335932E-04;  9.4840747E+02;
 -5.9999999E-02;  9.9999998E-03;  1.4000000E-01;1331;  0.0000000E+00;  0.0000000E+00;  0.0000000E+00;  1.0036015E+03;  1.0000000E-01;  2.9838169E+03;0;  0.0000000E+00;  0.0000000E+00;  0.0000000E+00;0; -2.9102624E-03;  4.0000000E+04;  0.0000000E+00;  0.0000000E+00;  4.0000000E+04;  0.0000000E+00;  4.0000000E+04; -3.0530491E-03;  0.0000000E+00;  1.4278670E-04;  9.8710809E+02;
 -5.9999999E-02;  9.9999998E-03;  1.5000001E-01;1332;  0.0000000E+00;  0.0000000E+00;  0.0000000E+00;  1.0035202E+03;  1.0000000E-01;  2.9164607E+03;0;  0.0000000E+00;  0.0000000E+00;  0.0000000E+00;0; -2.9346950E-03;  4.0000000E+04;  0.0000000E+00;  0.0000000E+00;  4.0000000E+04;  0.0000000E+00;  4.0000000E+04; -3.1052979E-03;  0.0000000E+00;  1.7060303E-04;  1.0449325E+03;
 -5.9999999E-02;  9.9999998E-03;  1.6000000E-01;1333;  0.0000000E+00;  0.0000000E+00;  0.0000000E+00;  1.0034152E+03;  1.0000000E-01;  2.8294509E+03;0;  0.0000000E+00;  0.0000000E+00;  0.0000000E+00;0; -2.9326903E-03;  4.0000000E+04;  0.0000000E+00;  0.0000000E+00;  4.0000000E+04;  0.0000000E+00;  4.0000000E+04; -3.1275877E-03;  0.0000000E+00;  1.9489750E-04;  1.1217480E+03;
 -5.9999999E-02;  9.9999998E-03;  1.7000000E-01;1334;  0.0000000E+00;  0.0000000E+00;  0.0000000E+00;  1.0032834E+03;  1.0000000E-01;  2.7202195E+03;0;  0.0000000E+00;  0.0000000E+00;  0.0000000E+00;0; -2.9014172E-03;  4.0000000E+04;  0.0000000E+00;  0.0000000E+00;  4.0000000E+04;  0.0000000E+00;  4.0000000E+04; -3.1151492E-03;  0.0000000E+00;  2.1373211E-04;  1.2140681E+03;
 -5.9999999E-02;  9.9999998E-03;  1.8000001E-01;1335;  0.0000000E+00;  0.0000000E+00;  0.0000000E+00;  1.0031351E+03;  1.0000000E-01;  2.5973586E+03;0;  0.0000000E+00;  0.0000000E+00;  0.0000000E+00;0; -2.8413853E-03;  4.0000000E+04;  0.0000000E+00;  0.0000000E+00;  4.0000000E+04;  0.0000000E+00;  4.0000000E+04; -3.0664369E-03;  0.0000000E+00;  2.2505148E-04;  1.3135848E+03;
 -5.9999999E-02;  9.9999998E-03;  1.9000000E-01;1336;  0.0000000E+00;  0.0000000E+00;  0.0000000E+00;  1.0029688E+03;  1.0000000E-01;  2.4595847E+03;0;  0.0000000E+00;  0.0000000E+00;  0.0000000E+00;0; -2.7561465E-03;  4.0000000E+04;  0.0000000E+00;  0.0000000E+00;  4.0000000E+04;  0.0000000E+00;  4.0000000E+04; -2.9830048E-03;  0.0000000E+00;  2.2685839E-04;  1.4073187E+03;
 -5.9999999E-02;  9.9999998E-03;  2.0000000E-01;1337;  0.0000000E+00;  0.0000000E+00;  0.0000000E+00;  1.0027948E+03;  1.0000000E-01;  2.3153914E+03;0;  0.0000000E+00;  0.0000000E+00;  0.0000000E+00;0; -2.6515401E-03;  4.0000000E+04;  0.0000000E+00;  0.0000000E+00;  4.0000000E+04;  0.0000000E+00;  4.0000000E+04; -2.8690151E-03;  0.0000000E+00;  2.1747510E-04;  1.4791715E+03;
 -5.9999999E-02;  9.9999998E-03;  2.0999999E-01;1338;  0.0000000E+00;  0.0000000E+00;  0.0000000E+00;  1.0026146E+03;  1.0000000E-01;  2.1661609E+03;0;  0.0000000E+00;  0.0000000E+00;  0.0000000E+00;0; -2.5346123E-03;  4.0000000E+04;  0.0000000E+00;  0.0000000E+00;  4.0000000E+04;  0.0000000E+00;  4.0000000E+04; -2.7304117E-03;  0.0000000E+00;  1.9579934E-04;  1.5119561E+03;
 -5.9999999E-02;  9.9999998E-03;  2.2000000E-01;1339;  0.0000000E+00;  0.0000000E+00;  0.0000000E+00;  1.0024360E+03;  1.0000000E-01;  2.0182145E+03;0;  0.0000000E+00;  0.0000000E+00;  0.0000000E+00;0; -2.4123406E-03;  4.0000000E+04;  0.0000000E+00;  0.0000000E+00;  4.0000000E+04;  0.0000000E+00;  4.0000000E+04; -2.5738738E-03;  0.0000000E+00;  1.6153321E-04;  1.4897670E+03;
 -5.9999999E-02;  9.9999998E-03;  2.3000000E-01;1340;  0.0000000E+00;  0.0000000E+00;  0.0000000E+00;  1.0022594E+03;  1.0000000E-01;  1.8718483E+03;0;  0.0000000E+00;  0.0000000E+00;  0.0000000E+00;0; -2.2903970E-03;  4.0000000E+04;  0.0000000E+00;  0.0000000E+00;  4.0000000E+04;  0.0000000E+00;  4.0000000E+04; -2.4057734E-03;  0.0000000E+00;  1.1537642E-04;  1.4006205E+03;
 -5.0000001E-02;  9.9999998E-03;  7.0000000E-02;1415;  0.0000000E+00;  0.0000000E+00;  0.0000000E+00;  1.0052497E+03;  1.0000000E-01;  4.3493091E+03;0;  0.0000000E+00;  0.0000000E+00;  0.0000000E+00;0; -4.1098362E-03;  4.0000000E+04;  0.0000000E+00;  0.0000000E+00;  4.0000000E+04;  0.0000000E+00;  4.0000000E+04; -4.1297884E-03;  0.0000000E+00;  1.9952324E-05;  1.1991925E+03;
 -5.0000001E-02;  9.9999998E-03;  7.9999998E-02;1416;  0.0000000E+00;  0.0000000E+00;  0.0000000E+00;  1.0052850E+03;  1.0000000E-01;  4.3785430E+03;0;  0.0000000E+00;  0.0000000E+00;  0.0000000E+00;0; -4.1575120E-03;  4.0000000E+04;  0.0000000E+00;  0.0000000E+00;  4.0000000E+04;  0.0000000E+00;  4.0000000E+04; -4.1796942E-03;  0.0000000E+00;  2.2182077E-05;  1.1538881E+03;
 -5.0000001E-02;  9.9999998E-03;  9.0000004E-02;1417;  0.0000000E+00;  0.0000000E+00;  0.0000000E+00;  1.0053160E+03;  1.0000000E-01;  4.4042212E+03;0;  0.0000000E+00;  0.0000000E+00;  0.0000000E+00;0; -4.2196917E-03;  4.0000000E+04;  0.0000000E+00;  0.0000000E+00;  4.0000000E+04;  0.0000000E+00;  4.0000000E+04; -4.2535951E-03;  0.0000000E+00;  3.3903474E-05;  1.1185461E+03;
 -5.0000001E-02;  9.9999998E-03;  1.0000000E-01;1418;  0.0000000E+00;  0.0000000E+00;  0.0000000E+00;  1.0053341E+03;  1.0000000E-01;  4.4192329E+03;0;  0.0000000E+00;  0.0000000E+00;  0.0000000E+00;0; -4.2945701E-03;  4.0000000E+04;  0.0000000E+00;  0.0000000E+00;  4.0000000E+04;  0.0000000E+00;  4.0000000E+04; -4.3490296E-03;  0.0000000E+00;  5.4459422E-05;  1.0959092E+03;
 -5.0000001E-02;  9.9999998E-03;  1.1000000E-01;1419;  0.0000000E+00;  0.0000000E+00;  0.0000000E+00;  1.0053376E+03;  1.0000000E-01;  4.4220972E+03;0;  0.0000000E+00;  0.0000000E+00;  0.0000000E+00;0; -4.3777521E-03;  4.0000000E+04;  0.0000000E+00;  0.0000000E+00;  4.0000000E+04;  0.0000000E+00;  4.0000000E+04; -4.4600097E-03;  0.0000000E+00;  8.2257502E-05;  1.0882937E+03;
 -5.0000001E-02;  9.9999998E-03;  1.2000000E-01;1420;  0.0000000E+00;  0.0000000E+00;  0.0000000E+00;  1.0053108E+03;  1.0000000E-01;  4.3998755E+03;0;  0.0000000E+00;  0.0000000E+00;  0.0000000E+00;0; -4.4622235E-03;  4.0000000E+04;  0.0000000E+00;  0.0000000E+00;  4.0000000E+04;  0.0000000E+00;  4.0000000E+04; -4.5773042E-03;  0.0000000E+00;  1.1508058E-04;  1.0980472E+03;
 -5.0000001E-02;  9.9999998E-03;  1.3000000E-01;1421;  0.0000000E+00;  0.0000000E+00;  0.0000000E+00;  1.0052643E+03;  1.0000000E-01;  4.3614570E+03;0;  0.0000000E+00;  0.0000000E+00;  0.0000000E+00;0; -4.5388509E-03;  4.0000000E+04;  0.0000000E+00;  0.0000000E+00;  4.0000000E+04;  0.0000000E+00;  4.0000000E+04; -4.6892785E-03;  0.0000000E+00;  1.5042775E-04;  1.1279121E+03;
 -5.0000001E-02;  9.9999998E-03;  1.4000000E-01;1422;  0.0000000E+00;  0.0000000E+00;  0.0000000E+00;  1.0051853E+03;  1.0000000E-01;  4.2958784E+03;0;  0.0000000E+00;  0.0000000E+00;  0.0000000E+00;0; -4.5973351E-03;  4.0000000E+04;  0.0000000E+00;  0.0000000E+00;  4.0000000E+04;  0.0000000E+00;  4.0000000E+04; -4.7831787E-03;  0.0000000E+00;  1.8584351E-04;  1.1808708E+03;
 -5.0000001E-02;  9.9999998E-03;  1.5000001E-01;1423;  0.0000000E+00;  0.0000000E+00;  0.0000000E+00;  1.0050754E+03;  1.0000000E-01;  4.2049180E+03;0;  0.0000000E+00;  0.0000000E+00;  0.0000000E+00;0; -4.6276501E-03;  4.0000000E+04;  0.0000000E+00;  0.0000000E+00;  4.0000000E+04;  0.0000000E+00;  4.0000000E+04; -4.8466949E-03;  0.0000000E+00;  2.1904470E-04;  1.2592366E+03;
 -5.0000001E-02;  9.9999998E-03;  1.6000000E-01;1424;  0.0000000E+00;  0.0000000E+00;  0.0000000E+00;  1.0049324E+03;  1.0000000E-01;  4.0864028E+03;0;  0.0000000E+00;  0.0000000E+00;  0.0000000E+00;0; -4.6217982E-03;  4.0000000E+04;  0.0000000E+00;  0.0000000E+00;  4.0000000E+04;  0.0000000E+00;  4.0000000E+04; -4.8696203E-03;  0.0000000E+00;  2.4782194E-04;  1.3630375E+03;
 -5.0000001E-02;  9.9999998E-03;  1.7000000E-01;1425;  0.0000000E+00;  0.0000000E+00;  0.0000000E+00;  1.0047540E+03;  1.0000000E-01;  3.9386541E+03;0;  0.0000000E+00;  0.0000000E+00;  0.0000000E+00;0; -4.5751864E-03;  4.0000000E+04;  0.0000000E+00;  0.0000000E+00;  4.0000000E+04;  0.0000000E+00;  4.0000000E+04; -4.8450562E-03;  0.0000000E+00;  2.6986960E-04;  1.4876899E+03;
 -5.0000001E-02;  9.9999998E-03;  1.8000001E-01;1426;  0.0000000E+00;  0.0000000E+00;  0.0000000E+00;  1.0045485E+03;  1.0000000E-01;  3.7682886E+03;0;  0.0000000E+00;  0.0000000E+00;  0.0000000E+00;0; -4.4873133E-03;  4.0000000E+04;  0.0000000E+00;  0.0000000E+00;  4.0000000E+04;  0.0000000E+00;  4.0000000E+04; -4.7700629E-03;  0.0000000E+00;  2.8274930E-04;  1.6225964E+03;
 -5.0000001E-02;  9.9999998E-03;  1.9000000E-01;1427;  0.0000000E+00;  0.0000000E+00;  0.0000000E+00;  1.0043231E+03;  1.0000000E-01;  3.5816272E+03;0;  0.0000000E+00;  0.0000000E+00;  0.0000000E+00;0; -4.3615075E-03;  4.0000000E+04;  0.0000000E+00;  0.0000000E+00;  4.0000000E+04;  0.0000000E+00;  4.0000000E+04; -4.6456098E-03;  0.0000000E+00;  2.8410216E-04;  1.7517377E+03;
 -5.0000001E-02;  9.9999998E-03;  2.0000000E-01;1428;  0.0000000E+00;  0.0000000E+00;  0.0000000E+00;  1.0040802E+03;  1.0000000E-01;  3.3803489E+03;0;  0.0000000E+00;  0.0000000E+00;  0.0000000E+00;0; -4.2042392E-03;  4.0000000E+04;  0.0000000E+00;  0.0000000E+00;  4.0000000E+04;  0.0000000E+00;  4.0000000E+04; -4.4761477E-03;  0.0000000E+00;  2.7190853E-04;  1.8551942E+03;
 -5.0000001E-02;  9.9999998E-03;  2.0999999E-01;1429;  0.0000000E+00;  0.0000000E+00;  0.0000000E+00;  1.0038263E+03;  1.0000000E-01;  3.1699844E+03;0;  0.0000000E+00;  0.0000000E+00;  0.0000000E+00;0; -4.0239366E-03;  4.0000000E+04;  0.0000000E+00;  0.0000000E+00;  4.0000000E+04;  0.0000000E+00;  4.0000000E+04; -4.2686830E-03;  0.0000000E+00;  2.4474642E-04;  1.9112300E+03;
 -5.0000001E-02;  9.9999998E-03;  2.2000000E-01;1430;  0.0000000E+00;  0.0000000E+00;  0.0000000E+00;  1.0035764E+03;  1.0000000E-01;  2.9629780E+03;0;  0.0000000E+00;  0.0000000E+00;  0.0000000E+00;0; -3.8295314E-03;  4.0000000E+04;  0.0000000E+00;  0.0000000E+00;  4.0000000E+04;  0.0000000E+00;  4.0000000E+04; -4.0316014E-03;  0.0000000E+00;  2.0207006E-04;  1.8989945E+03;
 -5.0000001E-02;  9.9999998E-03;  2.3000000E-01;1431;  0.0000000E+00;  0.0000000E+00;  0.0000000E+00;  1.0033242E+03;  1.0000000E-01;  2.7539961E+03;0;  0.0000000E+00;  0.0000000E+00;  0.0000000E+00;0; -3.6288665E-03;  4.0000000E+04;  0.0000000E+00;  0.0000000E+00;  4.0000000E+04;  0.0000000E+00;  4.0000000E+04; -3.7733456E-03;  0.0000000E+00;  1.4447919E-04;  1.8016959E+03;
 -3.9999999E-02;  9.9999998E-03;  7.0000000E-02;1506;  0.0000000E+00;  0.0000000E+00;  0.0000000E+00;  1.0072284E+03;  1.0000000E-01;  5.9885713E+03;0;  0.0000000E+00;  0.0000000E+00;  0.0000000E+00;0; -6.0982225E-03;  4.0000000E+04;  0.0000000E+00;  0.0000000E+00;  4.0000000E+04;  0.0000000E+00;  4.0000000E+04; -6.1368356E-03;  0.0000000E+00;  3.8613078E-05;  1.3476641E+03;
 -3.9999999E-02;  9.9999998E-03;  7.9999998E-02;1507;  0.0000000E+00;  0.0000000E+00;  0.0000000E+00;  1.0072728E+03;  1.0000000E-01;  6.0254097E+03;0;  0.0000000E+00;  0.0000000E+00;  0.0000000E+00;0; -6.1594448E-03;  4.0000000E+04;  0.0000000E+00;  0.0000000E+00;  4.0000000E+04;  0.0000000E+00;  4.0000000E+04; -6.2007466E-03;  0.0000000E+00;  4.1301631E-05;  1.2929586E+03;
 -3.9999999E-02;  9.9999998E-03;  9.0000004E-02;1508;  0.0000000E+00;  0.0000000E+00;  0.0000000E+00;  1.0073114E+03;  1.0000000E-01;  6.0573101E+03;0;  0.0000000E+00;  0.0000000E+00;  0.0000000E+00;0; -6.2389933E-03;  4.0000000E+04;  0.0000000E+00;  0.0000000E+00;  4.0000000E+04;  0.0000000E+00;  4.0000000E+04; -6.2943893E-03;  0.0000000E+00;  5.5395885E-05;  1.2515732E+03;
 -3.9999999E-02;  9.9999998E-03;  1.0000000E-01;1509;  0.0000000E+00;  0.0000000E+00;  0.0000000E+00;  1.0073383E+03;  1.0000000E-01;  6.0796304E+03;0;  0.0000000E+00;  0.0000000E+00;  0.0000000E+00;0; -6.3348166E-03;  4.0000000E+04;  0.0000000E+00;  0.0000000E+00;  4.0000000E+04;  0.0000000E+00;  4.0000000E+04; -6.4146300E-03;  0.0000000E+00;  7.9813464E-05;  1.2266798E+03;
 -3.9999999E-02;  9.9999998E-03;  1.1000000E-01;1510;  0.0000000E+00;  0.0000000E+00;  0.0000000E+00;  1.0073417E+03;  1.0000000E-01;  6.0824946E+03;0;  0.0000000E+00;  0.0000000E+00;  0.0000000E+00;0; -6.4415182E-03;  4.0000000E+04;  0.0000000E+00;  0.0000000E+00;  4.0000000E+04;  0.0000000E+00;  4.0000000E+04; -6.5538962E-03;  0.0000000E+00;  1.1237826E-04;  1.2208242E+03;
 -3.9999999E-02;  9.9999998E-03;  1.2000000E-01;1511;  0.0000000E+00;  0.0000000E+00;  0.0000000E+00;  1.0073110E+03;  1.0000000E-01;  6.0570137E+03;0;  0.0000000E+00;  0.0000000E+00;  0.0000000E+00;0; -6.5502692E-03;  4.0000000E+04;  0.0000000E+00;  0.0000000E+00;  4.0000000E+04;  0.0000000E+00;  4.0000000E+04; -6.7005376E-03;  0.0000000E+00;  1.5026846E-04;  1.2365734E+03;
 -3.9999999E-02;  9.9999998E-03;  1.3000000E-01;1512;  0.0000000E+00;  0.0000000E+00;  0.0000000E+00;  1.0072459E+03;  1.0000000E-01;  6.0030894E+03;0;  0.0000000E+00;  0.0000000E+00;  0.0000000E+00;0; -6.6493433E-03;  4.0000000E+04;  0.0000000E+00;  0.0000000E+00;  4.0000000E+04;  0.0000000E+00;  4.0000000E+04; -6.8398267E-03;  0.0000000E+00;  1.9048348E-04;  1.2771215E+03;
 -3.9999999E-02;  9.9999998E-03;  1.4000000E-01;1513;  0.0000000E+00;  0.0000000E+00;  0.0000000E+00;  1.0071379E+03;  1.0000000E-01;  5.9136104E+03;0;  0.0000000E+00;  0.0000000E+00;  0.0000000E+00;0; -6.7252358E-03;  4.0000000E+04;  0.0000000E+00;  0.0000000E+00;  4.0000000E+04;  0.0000000E+00;  4.0000000E+04; -6.9554895E-03;  0.0000000E+00;  2.3025372E-04;  1.3460962E+03;
 -3.9999999E-02;  9.9999998E-03;  1.5000001E-01;1514;  0.0000000E+00;  0.0000000E+00;  0.0000000E+00;  1.0069906E+03;  1.0000000E-01;  5.7915400E+03;0;  0.0000000E+00;  0.0000000E+00;  0.0000000E+00;0; -6.7645395E-03;  4.0000000E+04;  0.0000000E+00;  0.0000000E+00;  4.0000000E+04;  0.0000000E+00;  4.0000000E+04; -7.0316442E-03;  0.0000000E+00;  2.6710459E-04;  1.4465149E+03;
 -3.9999999E-02;  9.9999998E-03;  1.6000000E-01;1515;  0.0000000E+00;  0.0000000E+00;  0.0000000E+00;  1.0067996E+03;  1.0000000E-01;  5.6333223E+03;0;  0.0000000E+00;  0.0000000E+00;  0.0000000E+00;0; -6.7561246E-03;  4.0000000E+04;  0.0000000E+00;  0.0000000E+00;  4.0000000E+04;  0.0000000E+00;  4.0000000E+04; -7.0548402E-03;  0.0000000E+00;  2.9871578E-04;  1.5787981E+03;
 -3.9999999E-02;  9.9999998E-03;  1.7000000E-01;1516;  0.0000000E+00;  0.0000000E+00;  0.0000000E+00;  1.0065704E+03;  1.0000000E-01;  5.4434014E+03;0;  0.0000000E+00;  0.0000000E+00;  0.0000000E+00;0; -6.6928887E-03;  4.0000000E+04;  0.0000000E+00;  0.0000000E+00;  4.0000000E+04;  0.0000000E+00;  4.0000000E+04; -7.0155067E-03;  0.0000000E+00;  3.2261803E-04;  1.7376404E+03;
 -3.9999999E-02;  9.9999998E-03;  1.8000001E-01;1517;  0.0000000E+00;  0.0000000E+00;  0.0000000E+00;  1.0063017E+03;  1.0000000E-01;  5.2207905E+03;0;  0.0000000E+00;  0.0000000E+00;  0.0000000E+00;0; -6.5725702E-03;  4.0000000E+04;  0.0000000E+00;  0.0000000E+00;  4.0000000E+04;  0.0000000E+00;  4.0000000E+04; -6.9087720E-03;  0.0000000E+00;  3.3620175E-04;  1.9110442E+03;
 -3.9999999E-02;  9.9999998E-03;  1.9000000E-01;1518;  0.0000000E+00;  0.0000000E+00;  0.0000000E+00;  1.0059989E+03;  1.0000000E-01;  4.9699336E+03;0;  0.0000000E+00;  0.0000000E+00;  0.0000000E+00;0; -6.3977712E-03;  4.0000000E+04;  0.0000000E+00;  0.0000000E+00;  4.0000000E+04;  0.0000000E+00;  4.0000000E+04; -6.7346469E-03;  0.0000000E+00;  3.3687582E-04;  2.0807720E+03;
 -3.9999999E-02;  9.9999998E-03;  2.0000000E-01;1519;  0.0000000E+00;  0.0000000E+00;  0.0000000E+00;  1.0056768E+03;  1.0000000E-01;  4.7031758E+03;0;  0.0000000E+00;  0.0000000E+00;  0.0000000E+00;0; -6.1753807E-03;  4.0000000E+04;  0.0000000E+00;  0.0000000E+00;  4.0000000E+04;  0.0000000E+00;  4.0000000E+04; -6.4976518E-03;  0.0000000E+00;  3.2227096E-04;  2.2234915E+03;
 -3.9999999E-02;  9.9999998E-03;  2.0999999E-01;1520;  0.0000000E+00;  0.0000000E+00;  0.0000000E+00;  1.0053417E+03;  1.0000000E-01;  4.4255537E+03;0;  0.0000000E+00;  0.0000000E+00;  0.0000000E+00;0; -5.9153493E-03;  4.0000000E+04;  0.0000000E+00;  0.0000000E+00;  4.0000000E+04;  0.0000000E+00;  4.0000000E+04; -6.2058489E-03;  0.0000000E+00;  2.9049962E-04;  2.3127083E+03;
 -3.9999999E-02;  9.9999998E-03;  2.2000000E-01;1521;  0.0000000E+00;  0.0000000E+00;  0.0000000E+00;  1.0049999E+03;  1.0000000E-01;  4.1423027E+03;0;  0.0000000E+00;  0.0000000E+00;  0.0000000E+00;0; -5.6290193E-03;  4.0000000E+04;  0.0000000E+00;  0.0000000E+00;  4.0000000E+04;  0.0000000E+00;  4.0000000E+04; -5.8695339E-03;  0.0000000E+00;  2.4051464E-04;  2.3215669E+03;
 -3.9999999E-02;  9.9999998E-03;  2.3000000E-01;1522;  0.0000000E+00;  0.0000000E+00;  0.0000000E+00;  1.0046548E+03;  1.0000000E-01;  3.8564836E+03;0;  0.0000000E+00;  0.0000000E+00;  0.0000000E+00;0; -5.3270394E-03;  4.0000000E+04;  0.0000000E+00;  0.0000000E+00;  4.0000000E+04;  0.0000000E+00;  4.0000000E+04; -5.4995576E-03;  0.0000000E+00;  1.7251834E-04;  2.2267908E+03;
 -2.9999999E-02;  9.9999998E-03;  7.0000000E-02;1597;  0.0000000E+00;  0.0000000E+00;  0.0000000E+00;  1.0095173E+03;  1.0000000E-01;  7.8849126E+03;0;  0.0000000E+00;  0.0000000E+00;  0.0000000E+00;0; -8.4370309E-03;  4.0000000E+04;  0.0000000E+00;  0.0000000E+00;  4.0000000E+04;  0.0000000E+00;  4.0000000E+04; -8.5024005E-03;  0.0000000E+00;  6.5369430E-05;  1.4255714E+03;
 -2.9999999E-02;  9.9999998E-03;  7.9999998E-02;1598;  0.0000000E+00;  0.0000000E+00;  0.0000000E+00;  1.0095782E+03;  1.0000000E-01;  7.9353804E+03;0;  0.0000000E+00;  0.0000000E+00;  0.0000000E+00;0; -8.5134385E-03;  4.0000000E+04;  0.0000000E+00;  0.0000000E+00;  4.0000000E+04;  0.0000000E+00;  4.0000000E+04; -8.5817305E-03;  0.0000000E+00;  6.8292342E-05;  1.3633939E+03;
 -2.9999999E-02;  9.9999998E-03;  9.0000004E-02;1599;  0.0000000E+00;  0.0000000E+00;  0.0000000E+00;  1.0096279E+03;  1.0000000E-01;  7.9765645E+03;0;  0.0000000E+00;  0.0000000E+00;  0.0000000E+00;0; -8.6125256E-03;  4.0000000E+04;  0.0000000E+00;  0.0000000E+00;  4.0000000E+04;  0.0000000E+00;  4.0000000E+04; -8.6968150E-03;  0.0000000E+00;  8.4289546E-05;  1.3185859E+03;
 -2.9999999E-02;  9.9999998E-03;  1.0000000E-01;1600;  0.0000000E+00;  0.0000000E+00;  0.0000000E+00;  1.0096592E+03;  1.0000000E-01;  8.0025391E+03;0;  0.0000000E+00;  0.0000000E+00;  0.0000000E+00;0; -8.7321624E-03;  4.0000000E+04;  0.0000000E+00;  0.0000000E+00;  4.0000000E+04;  0.0000000E+00;  4.0000000E+04; -8.8438578E-03;  0.0000000E+00;  1.1169550E-04;  1.2944252E+03;
 -2.9999999E-02;  9.9999998E-03;  1.1000000E-01;1601;  0.0000000E+00;  0.0000000E+00;  0.0000000E+00;  1.0096661E+03;  1.0000000E-01;  8.0081685E+03;0;  0.0000000E+00;  0.0000000E+00;  0.0000000E+00;0; -8.8660438E-03;  4.0000000E+04;  0.0000000E+00;  0.0000000E+00;  4.0000000E+04;  0.0000000E+00;  4.0000000E+04; -9.0136752E-03;  0.0000000E+00;  1.4763161E-04;  1.2932838E+03;
 -2.9999999E-02;  9.9999998E-03;  1.2000000E-01;1602;  0.0000000E+00;  0.0000000E+00;  0.0000000E+00;  1.0096354E+03;  1.0000000E-01;  7.9827866E+03;0;  0.0000000E+00;  0.0000000E+00;  0.0000000E+00;0; -9.0034679E-03;  4.0000000E+04;  0.0000000E+00;  0.0000000E+00;  4.0000000E+04;  0.0000000E+00;  4.0000000E+04; -9.1920989E-03;  0.0000000E+00;  1.8863124E-04;  1.3174686E+03;
 -2.9999999E-02;  9.9999998E-03;  1.3000000E-01;1603;  0.0000000E+00;  0.0000000E+00;  0.0000000E+00;  1.0095562E+03;  1.0000000E-01;  7.9171094E+03;0;  0.0000000E+00;  0.0000000E+00;  0.0000000E+00;0; -9.1298660E-03;  4.0000000E+04;  0.0000000E+00;  0.0000000E+00;  4.0000000E+04;  0.0000000E+00;  4.0000000E+04; -9.3611274E-03;  0.0000000E+00;  2.3126176E-04;  1.3701807E+03;
 -2.9999999E-02;  9.9999998E-03;  1.4000000E-01;1604;  0.0000000E+00;  0.0000000E+00;  0.0000000E+00;  1.0094246E+03;  1.0000000E-01;  7.8080757E+03;0;  0.0000000E+00;  0.0000000E+00;  0.0000000E+00;0; -9.2280563E-03;  4.0000000E+04;  0.0000000E+00;  0.0000000E+00;  4.0000000E+04;  0.0000000E+00;  4.0000000E+04; -9.5006647E-03;  0.0000000E+00;  2.7260839E-04;  1.4555068E+03;
 -2.9999999E-02;  9.9999998E-03;  1.5000001E-01;1605;  0.0000000E+00;  0.0000000E+00;  0.0000000E+00;  1.0092350E+03;  1.0000000E-01;  7.6510430E+03;0;  0.0000000E+00;  0.0000000E+00;  0.0000000E+00;0; -9.2806872E-03;  4.0000000E+04;  0.0000000E+00;  0.0000000E+00;  4.0000000E+04;  0.0000000E+00;  4.0000000E+04; -9.5909657E-03;  0.0000000E+00;  3.1027821E-04;  1.5773385E+03;
 -2.9999999E-02;  9.9999998E-03;  1.6000000E-01;1606;  0.0000000E+00;  0.0000000E+00;  0.0000000E+00;  1.0089899E+03;  1.0000000E-01;  7.4479868E+03;0;  0.0000000E+00;  0.0000000E+00;  0.0000000E+00;0; -9.2727514E-03;  4.0000000E+04;  0.0000000E+00;  0.0000000E+00;  4.0000000E+04;  0.0000000E+00;  4.0000000E+04; -9.6148681E-03;  0.0000000E+00;  3.4211698E-04;  1.7368184E+03;
 -2.9999999E-02;  9.9999998E-03;  1.7000000E-01;1607;  0.0000000E+00;  0.0000000E+00;  0.0000000E+00;  1.0086978E+03;  1.0000000E-01;  7.2059194E+03;0;  0.0000000E+00;  0.0000000E+00;  0.0000000E+00;0; -9.1938199E-03;  4.0000000E+04;  0.0000000E+00;  0.0000000E+00;  4.0000000E+04;  0.0000000E+00;  4.0000000E+04; -9.5596323E-03;  0.0000000E+00;  3.6581189E-04;  1.9289092E+03;
 -2.9999999E-02;  9.9999998E-03;  1.8000001E-01;1608;  0.0000000E+00;  0.0000000E+00;  0.0000000E+00;  1.0083542E+03;  1.0000000E-01;  6.9213843E+03;0;  0.0000000E+00;  0.0000000E+00;  0.0000000E+00;0; -9.0390863E-03;  4.0000000E+04;  0.0000000E+00;  0.0000000E+00;  4.0000000E+04;  0.0000000E+00;  4.0000000E+04; -9.4179539E-03;  0.0000000E+00;  3.7886726E-04;  2.1416562E+03;
 -2.9999999E-02;  9.9999998E-03;  1.9000000E-01;1609;  0.0000000E+00;  0.0000000E+00;  0.0000000E+00;  1.0079747E+03;  1.0000000E-01;  6.6068257E+03;0;  0.0000000E+00;  0.0000000E+00;  0.0000000E+00;0; -8.8097556E-03;  4.0000000E+04;  0.0000000E+00;  0.0000000E+00;  4.0000000E+04;  0.0000000E+00;  4.0000000E+04; -9.1883885E-03;  0.0000000E+00;  3.7863298E-04;  2.3559431E+03;
 -2.9999999E-02;  9.9999998E-03;  2.0000000E-01;1610;  0.0000000E+00;  0.0000000E+00;  0.0000000E+00;  1.0075604E+03;  1.0000000E-01;  6.2636255E+03;0;  0.0000000E+00;  0.0000000E+00;  0.0000000E+00;0; -8.5128136E-03;  4.0000000E+04;  0.0000000E+00;  0.0000000E+00;  4.0000000E+04;  0.0000000E+00;  4.0000000E+04; -8.8752117E-03;  0.0000000E+00;  3.6239790E-04;  2.5458550E+03;
 -2.9999999E-02;  9.9999998E-03;  2.0999999E-01;1611;  0.0000000E+00;  0.0000000E+00;  0.0000000E+00;  1.0071259E+03;  1.0000000E-01;  5.9036357E+03;0;  0.0000000E+00;  0.0000000E+00;  0.0000000E+00;0; -8.1596989E-03;  4.0000000E+04;  0.0000000E+00;  0.0000000E+00;  4.0000000E+04;  0.0000000E+00;  4.0000000E+04; -8.4873457E-03;  0.0000000E+00;  3.2764638E-04;  2.6801702E+03;
 -2.9999999E-02;  9.9999998E-03;  2.2000000E-01;1612;  0.0000000E+00;  0.0000000E+00;  0.0000000E+00;  1.0066793E+03;  1.0000000E-01;  5.5336709E+03;0;  0.0000000E+00;  0.0000000E+00;  0.0000000E+00;0; -7.7644428E-03;  4.0000000E+04;  0.0000000E+00;  0.0000000E+00;  4.0000000E+04;  0.0000000E+00;  4.0000000E+04; -8.0369702E-03;  0.0000000E+00;  2.7252740E-04;  2.7250303E+03;
 -2.9999999E-02;  9.9999998E-03;  2.3000000E-01;1613;  0.0000000E+00;  0.0000000E+00;  0.0000000E+00;  1.0062326E+03;  1.0000000E-01;  5.1636069E+03;0;  0.0000000E+00;  0.0000000E+00;  0.0000000E+00;0; -7.3411278E-03;  4.0000000E+04;  0.0000000E+00;  0.0000000E+00;  4.0000000E+04;  0.0000000E+00;  4.0000000E+04; -7.5375875E-03;  0.0000000E+00;  1.9645969E-04;  2.6487046E+03;
 -2.0000000E-02;  9.9999998E-03;  7.0000000E-02;1688;  0.0000000E+00;  0.0000000E+00;  0.0000000E+00;  1.0120137E+03;  1.0000000E-01;  9.9531016E+03;0;  0.0000000E+00;  0.0000000E+00;  0.0000000E+00;0; -1.1004591E-02;  4.0000000E+04;  0.0000000E+00;  0.0000000E+00;  4.0000000E+04;  0.0000000E+00;  4.0000000E+04; -1.1105988E-02;  0.0000000E+00;  1.0139643E-04;  1.4047892E+03;
 -2.0000000E-02;  9.9999998E-03;  7.9999998E-02;1689;  0.0000000E+00;  0.0000000E+00;  0.0000000E+00;  1.0120891E+03;  1.0000000E-01;  1.0015618E+04;0;  0.0000000E+00;  0.0000000E+00;  0.0000000E+00;0; -1.1097277E-02;  4.0000000E+04;  0.0000000E+00;  0.0000000E+00;  4.0000000E+04;  0.0000000E+00;  4.0000000E+04; -1.1201622E-02;  0.0000000E+00;  1.0434517E-04;  1.3387135E+03;
 -2.0000000E-02;  9.9999998E-03;  9.0000004E-02;1690;  0.0000000E+00;  0.0000000E+00;  0.0000000E+00;  1.0121555E+03;  1.0000000E-01;  1.0070530E+04;0;  0.0000000E+00;  0.0000000E+00;  0.0000000E+00;0; -1.1217392E-02;  4.0000000E+04;  0.0000000E+00;  0.0000000E+00;  4.0000000E+04;  0.0000000E+00;  4.0000000E+04; -1.1338923E-02;  0.0000000E+00;  1.2153089E-04;  1.2946282E+03;
 -2.0000000E-02;  9.9999998E-03;  1.0000000E-01;1691;  0.0000000E+00;  0.0000000E+00;  0.0000000E+00;  1.0122036E+03;  1.0000000E-01;  1.0110430E+04;0;  0.0000000E+00;  0.0000000E+00;  0.0000000E+00;0; -1.1362929E-02;  4.0000000E+04;  0.0000000E+00;  0.0000000E+00;  4.0000000E+04;  0.0000000E+00;  4.0000000E+04; -1.1513450E-02;  0.0000000E+00;  1.5052171E-04;  1.2754415E+03;
 -2.0000000E-02;  9.9999998E-03;  1.1000000E-01;1692;  0.0000000E+00;  0.0000000E+00;  0.0000000E+00;  1.0122210E+03;  1.0000000E-01;  1.0124850E+04;0;  0.0000000E+00;  0.0000000E+00;  0.0000000E+00;0; -1.1526914E-02;  4.0000000E+04;  0.0000000E+00;  0.0000000E+00;  4.0000000E+04;  0.0000000E+00;  4.0000000E+04; -1.1714543E-02;  0.0000000E+00;  1.8762935E-04;  1.2825706E+03;
 -2.0000000E-02;  9.9999998E-03;  1.2000000E-01;1693;  0.0000000E+00;  0.0000000E+00;  0.0000000E+00;  1.0121881E+03;  1.0000000E-01;  1.0097591E+04;0;  0.0000000E+00;  0.0000000E+00;  0.0000000E+00;0; -1.1696818E-02;  4.0000000E+04;  0.0000000E+00;  0.0000000E+00;  4.0000000E+04;  0.0000000E+00;  4.0000000E+04; -1.1925573E-02;  0.0000000E+00;  2.2875545E-04;  1.3174045E+03;
 -2.0000000E-02;  9.9999998E-03;  1.3000000E-01;1694;  0.0000000E+00;  0.0000000E+00;  0.0000000E+00;  1.0121010E+03;  1.0000000E-01;  1.0025396E+04;0;  0.0000000E+00;  0.0000000E+00;  0.0000000E+00;0; -1.1855144E-02;  4.0000000E+04;  0.0000000E+00;  0.0000000E+00;  4.0000000E+04;  0.0000000E+00;  4.0000000E+04; -1.2125329E-02;  0.0000000E+00;  2.7018547E-04;  1.3826160E+03;
 -2.0000000E-02;  9.9999998E-03;  1.4000000E-01;1695;  0.0000000E+00;  0.0000000E+00;  0.0000000E+00;  1.0119495E+03;  1.0000000E-01;  9.8999668E+03;0;  0.0000000E+00;  0.0000000E+00;  0.0000000E+00;0; -1.1980847E-02;  4.0000000E+04;  0.0000000E+00;  0.0000000E+00;  4.0000000E+04;  0.0000000E+00;  4.0000000E+04; -1.2289979E-02;  0.0000000E+00;  3.0913219E-04;  1.4825519E+03;
 -2.0000000E-02;  9.9999998E-03;  1.5000001E-01;1696;  0.0000000E+00;  0.0000000E+00;  0.0000000E+00;  1.0117257E+03;  1.0000000E-01;  9.7144902E+03;0;  0.0000000E+00;  0.0000000E+00;  0.0000000E+00;0; -1.2052055E-02;  4.0000000E+04;  0.0000000E+00;  0.0000000E+00;  4.0000000E+04;  0.0000000E+00;  4.0000000E+04; -1.2395715E-02;  0.0000000E+00;  3.4365946E-04;  1.6223014E+03;
 -2.0000000E-02;  9.9999998E-03;  1.6000000E-01;1697;  0.0000000E+00;  0.0000000E+00;  0.0000000E+00;  1.0114290E+03;  1.0000000E-01;  9.4686709E+03;0;  0.0000000E+00;  0.0000000E+00;  0.0000000E+00;0; -1.2049383E-02;  4.0000000E+04;  0.0000000E+00;  0.0000000E+00;  4.0000000E+04;  0.0000000E+00;  4.0000000E+04; -1.2421552E-02;  0.0000000E+00;  3.7216980E-04;  1.8044506E+03;
 -2.0000000E-02;  9.9999998E-03;  1.7000000E-01;1698;  0.0000000E+00;  0.0000000E+00;  0.0000000E+00;  1.0110646E+03;  1.0000000E-01;  9.1667529E+03;0;  0.0000000E+00;  0.0000000E+00;  0.0000000E+00;0; -1.1958288E-02;  4.0000000E+04;  0.0000000E+00;  0.0000000E+00;  4.0000000E+04;  0.0000000E+00;  4.0000000E+04; -1.2351210E-02;  0.0000000E+00;  3.9292194E-04;  2.0257726E+03;
 -2.0000000E-02;  9.9999998E-03;  1.8000001E-01;1699;  0.0000000E+00;  0.0000000E+00;  0.0000000E+00;  1.0106432E+03;  1.0000000E-01;  8.8177256E+03;0;  0.0000000E+00;  0.0000000E+00;  0.0000000E+00;0; -1.1770607E-02;  4.0000000E+04;  0.0000000E+00;  0.0000000E+00;  4.0000000E+04;  0.0000000E+00;  4.0000000E+04; -1.2174480E-02;  0.0000000E+00;  4.0387260E-04;  2.2760479E+03;
 -2.0000000E-02;  9.9999998E-03;  1.9000000E-01;1700;  0.0000000E+00;  0.0000000E+00;  0.0000000E+00;  1.0101775E+03;  1.0000000E-01;  8.4318604E+03;0;  0.0000000E+00;  0.0000000E+00;  0.0000000E+00;0; -1.1485502E-02;  4.0000000E+04;  0.0000000E+00;  0.0000000E+00;  4.0000000E+04;  0.0000000E+00;  4.0000000E+04; -1.1888005E-02;  0.0000000E+00;  4.0250266E-04;  2.5370022E+03;
 -2.0000000E-02;  9.9999998E-03;  2.0000000E-01;1701;  0.0000000E+00;  0.0000000E+00;  0.0000000E+00;  1.0096656E+03;  1.0000000E-01;  8.0077734E+03;0;  0.0000000E+00;  0.0000000E+00;  0.0000000E+00;0; -1.1109503E-02;  4.0000000E+04;  0.0000000E+00;  0.0000000E+00;  4.0000000E+04;  0.0000000E+00;  4.0000000E+04; -1.1495271E-02;  0.0000000E+00;  3.8576793E-04;  2.7813933E+03;
 -2.0000000E-02;  9.9999998E-03;  2.0999999E-01;1702;  0.0000000E+00;  0.0000000E+00;  0.0000000E+00;  1.0091298E+03;  1.0000000E-01;  7.5638354E+03;0;  0.0000000E+00;  0.0000000E+00;  0.0000000E+00;0; -1.0655286E-02;  4.0000000E+04;  0.0000000E+00;  0.0000000E+00;  4.0000000E+04;  0.0000000E+00;  4.0000000E+04; -1.1005641E-02;  0.0000000E+00;  3.5035485E-04;  2.9735078E+03;
 -2.0000000E-02;  9.9999998E-03;  2.2000000E-01;1703;  0.0000000E+00;  0.0000000E+00;  0.0000000E+00;  1.0085708E+03;  1.0000000E-01;  7.1007373E+03;0;  0.0000000E+00;  0.0000000E+00;  0.0000000E+00;0; -1.0139670E-02;  4.0000000E+04;  0.0000000E+00;  0.0000000E+00;  4.0000000E+04;  0.0000000E+00;  4.0000000E+04; -1.0432958E-02;  0.0000000E+00;  2.9328742E-04;  3.0718962E+03;
 -2.0000000E-02;  9.9999998E-03;  2.3000000E-01;1704;  0.0000000E+00;  0.0000000E+00;  0.0000000E+00;  1.0080084E+03;  1.0000000E-01;  6.6347754E+03;0;  0.0000000E+00;  0.0000000E+00;  0.0000000E+00;0; -9.5804194E-03;  4.0000000E+04;  0.0000000E+00;  0.0000000E+00;  4.0000000E+04;  0.0000000E+00;  4.0000000E+04; -9.7932098E-03;  0.0000000E+00;  2.1279044E-04;  3.0346301E+03;
 -9.9999998E-03;  9.9999998E-03;  7.0000000E-02;1779;  0.0000000E+00;  0.0000000E+00;  0.0000000E+00;  1.0145837E+03;  1.0000000E-01;  1.2082325E+04;0;  0.0000000E+00;  0.0000000E+00;  0.0000000E+00;0; -1.3629693E-02;  4.0000000E+04;  0.0000000E+00;  0.0000000E+00;  4.0000000E+04;  0.0000000E+00;  4.0000000E+04; -1.3777158E-02;  0.0000000E+00;  1.4746528E-04;  1.2645387E+03;
 -9.9999998E-03;  9.9999998E-03;  7.9999998E-02;1780;  0.0000000E+00;  0.0000000E+00;  0.0000000E+00;  1.0146802E+03;  1.0000000E-01;  1.2162322E+04;0;  0.0000000E+00;  0.0000000E+00;  0.0000000E+00;0; -1.3739068E-02;  4.0000000E+04;  0.0000000E+00;  0.0000000E+00;  4.0000000E+04;  0.0000000E+00;  4.0000000E+04; -1.3889528E-02;  0.0000000E+00;  1.5045999E-04;  1.2000735E+03;
 -9.9999998E-03;  9.9999998E-03;  9.0000004E-02;1781;  0.0000000E+00;  0.0000000E+00;  0.0000000E+00;  1.0147654E+03;  1.0000000E-01;  1.2232938E+04;0;  0.0000000E+00;  0.0000000E+00;  0.0000000E+00;0; -1.3880715E-02;  4.0000000E+04;  0.0000000E+00;  0.0000000E+00;  4.0000000E+04;  0.0000000E+00;  4.0000000E+04; -1.4048749E-02;  0.0000000E+00;  1.6803353E-04;  1.1626838E+03;
 -9.9999998E-03;  9.9999998E-03;  1.0000000E-01;1782;  0.0000000E+00;  0.0000000E+00;  0.0000000E+00;  1.0148323E+03;  1.0000000E-01;  1.2288245E+04;0;  0.0000000E+00;  0.0000000E+00;  0.0000000E+00;0; -1.4053069E-02;  4.0000000E+04;  0.0000000E+00;  0.0000000E+00;  4.0000000E+04;  0.0000000E+00;  4.0000000E+04; -1.4249840E-02;  0.0000000E+00;  1.9677043E-04;  1.1539221E+03;
 -9.9999998E-03;  9.9999998E-03;  1.1000000E-01;1783;  0.0000000E+00;  0.0000000E+00;  0.0000000E+00;  1.0148626E+03;  1.0000000E-01;  1.2313430E+04;0;  0.0000000E+00;  0.0000000E+00;  0.0000000E+00;0; -1.4248786E-02;  4.0000000E+04;  0.0000000E+00;  0.0000000E+00;  4.0000000E+04;  0.0000000E+00;  4.0000000E+04; -1.4480865E-02;  0.0000000E+00;  2.3207928E-04;  1.1734084E+03;
 -9.9999998E-03;  9.9999998E-03;  1.2000000E-01;1784;  0.0000000E+00;  0.0000000E+00;  0.0000000E+00;  1.0148430E+03;  1.0000000E-01;  1.2297134E+04;0;  0.0000000E+00;  0.0000000E+00;  0.0000000E+00;0; -1.4453813E-02;  4.0000000E+04;  0.0000000E+00;  0.0000000E+00;  4.0000000E+04;  0.0000000E+00;  4.0000000E+04; -1.4723121E-02;  0.0000000E+00;  2.6930813E-04;  1.2206904E+03;
 -9.9999998E-03;  9.9999998E-03;  1.3000000E-01;1785;  0.0000000E+00;  0.0000000E+00;  0.0000000E+00;  1.0147549E+03;  1.0000000E-01;  1.2224148E+04;0;  0.0000000E+00;  0.0000000E+00;  0.0000000E+00;0; -1.4647816E-02;  4.0000000E+04;  0.0000000E+00;  0.0000000E+00;  4.0000000E+04;  0.0000000E+00;  4.0000000E+04; -1.4952534E-02;  0.0000000E+00;  3.0471783E-04;  1.2972693E+03;
 -9.9999998E-03;  9.9999998E-03;  1.4000000E-01;1786;  0.0000000E+00;  0.0000000E+00;  0.0000000E+00;  1.0145872E+03;  1.0000000E-01;  1.2085189E+04;0;  0.0000000E+00;  0.0000000E+00;  0.0000000E+00;0; -1.4805844E-02;  4.0000000E+04;  0.0000000E+00;  0.0000000E+00;  4.0000000E+04;  0.0000000E+00;  4.0000000E+04; -1.5141889E-02;  0.0000000E+00;  3.3604479E-04;  1.4077676E+03;
 -9.9999998E-03;  9.9999998E-03;  1.5000001E-01;1787;  0.0000000E+00;  0.0000000E+00;  0.0000000E+00;  1.0143391E+03;  1.0000000E-01;  1.1879664E+04;0;  0.0000000E+00;  0.0000000E+00;  0.0000000E+00;0; -1.4901414E-02;  4.0000000E+04;  0.0000000E+00;  0.0000000E+00;  4.0000000E+04;  0.0000000E+00;  4.0000000E+04; -1.5263710E-02;  0.0000000E+00;  3.6229676E-04;  1.5590291E+03;
 -9.9999998E-03;  9.9999998E-03;  1.6000000E-01;1788;  0.0000000E+00;  0.0000000E+00;  0.0000000E+00;  1.0139993E+03;  1.0000000E-01;  1.1598092E+04;0;  0.0000000E+00;  0.0000000E+00;  0.0000000E+00;0; -1.4910291E-02;  4.0000000E+04;  0.0000000E+00;  0.0000000E+00;  4.0000000E+04;  0.0000000E+00;  4.0000000E+04; -1.5293242E-02;  0.0000000E+00;  3.8295108E-04;  1.7561899E+03;
 -9.9999998E-03;  9.9999998E-03;  1.7000000E-01;1789;  0.0000000E+00;  0.0000000E+00;  0.0000000E+00;  1.0135732E+03;  1.0000000E-01;  1.1245114E+04;0;  0.0000000E+00;  0.0000000E+00;  0.0000000E+00;0; -1.4813292E-02;  4.0000000E+04;  0.0000000E+00;  0.0000000E+00;  4.0000000E+04;  0.0000000E+00;  4.0000000E+04; -1.5210636E-02;  0.0000000E+00;  3.9734424E-04;  1.9995582E+03;
 -9.9999998E-03;  9.9999998E-03;  1.8000001E-01;1790;  0.0000000E+00;  0.0000000E+00;  0.0000000E+00;  1.0130763E+03;  1.0000000E-01;  1.0833472E+04;0;  0.0000000E+00;  0.0000000E+00;  0.0000000E+00;0; -1.4598265E-02;  4.0000000E+04;  0.0000000E+00;  0.0000000E+00;  4.0000000E+04;  0.0000000E+00;  4.0000000E+04; -1.5002537E-02;  0.0000000E+00;  4.0427165E-04;  2.2826013E+03;
 -9.9999998E-03;  9.9999998E-03;  1.9000000E-01;1791;  0.0000000E+00;  0.0000000E+00;  0.0000000E+00;  1.0125162E+03;  1.0000000E-01;  1.0369386E+04;0;  0.0000000E+00;  0.0000000E+00;  0.0000000E+00;0; -1.4261572E-02;  4.0000000E+04;  0.0000000E+00;  0.0000000E+00;  4.0000000E+04;  0.0000000E+00;  4.0000000E+04; -1.4663118E-02;  0.0000000E+00;  4.0154581E-04;  2.5894988E+03;
 -9.9999998E-03;  9.9999998E-03;  2.0000000E-01;1792;  0.0000000E+00;  0.0000000E+00;  0.0000000E+00;  1.0119085E+03;  1.0000000E-01;  9.8659922E+03;0;  0.0000000E+00;  0.0000000E+00;  0.0000000E+00;0; -1.3808665E-02;  4.0000000E+04;  0.0000000E+00;  0.0000000E+00;  4.0000000E+04;  0.0000000E+00;  4.0000000E+04; -1.4194443E-02;  0.0000000E+00;  3.8577776E-04;  2.8930933E+03;
 -9.9999998E-03;  9.9999998E-03;  2.0999999E-01;1793;  0.0000000E+00;  0.0000000E+00;  0.0000000E+00;  1.0112630E+03;  1.0000000E-01;  9.3311934E+03;0;  0.0000000E+00;  0.0000000E+00;  0.0000000E+00;0; -1.3252993E-02;  4.0000000E+04;  0.0000000E+00;  0.0000000E+00;  4.0000000E+04;  0.0000000E+00;  4.0000000E+04; -1.3605648E-02;  0.0000000E+00;  3.5265472E-04;  3.1541526E+03;
 -9.9999998E-03;  9.9999998E-03;  2.2000000E-01;1794;  0.0000000E+00;  0.0000000E+00;  0.0000000E+00;  1.0105930E+03;  1.0000000E-01;  8.7760479E+03;0;  0.0000000E+00;  0.0000000E+00;  0.0000000E+00;0; -1.2613720E-02;  4.0000000E+04;  0.0000000E+00;  0.0000000E+00;  4.0000000E+04;  0.0000000E+00;  4.0000000E+04; -1.2911469E-02;  0.0000000E+00;  2.9774883E-04;  3.3234739E+03;
 -9.9999998E-03;  9.9999998E-03;  2.3000000E-01;1795;  0.0000000E+00;  0.0000000E+00;  0.0000000E+00;  1.0099123E+03;  1.0000000E-01;  8.2121133E+03;0;  0.0000000E+00;  0.0000000E+00;  0.0000000E+00;0; -1.1912159E-02;  4.0000000E+04;  0.0000000E+00;  0.0000000E+00;  4.0000000E+04;  0.0000000E+00;  4.0000000E+04; -1.2129851E-02;  0.0000000E+00;  2.1769156E-04;  3.3480571E+03;
 -1.9000000E-01;  9.9999998E-03;  2.3999999E-01;158;  0.0000000E+00;  0.0000000E+00;  0.0000000E+00;  1.0000000E+03;  1.0000000E-01;  0.0000000E+00;0;  0.0000000E+00;  0.0000000E+00;  0.0000000E+00;0;  0.0000000E+00;  4.0000000E+04;  0.0000000E+00;  0.0000000E+00;  4.0000000E+04;  0.0000000E+00;  4.0000000E+04;  0.0000000E+00;  0.0000000E+00;  0.0000000E+00;  0.0000000E+00;
 -1.9000000E-01;  9.9999998E-03;  2.5000000E-01;159;  0.0000000E+00;  0.0000000E+00;  0.0000000E+00;  1.0000000E+03;  1.0000000E-01;  0.0000000E+00;0;  0.0000000E+00;  0.0000000E+00;  0.0000000E+00;0;  0.0000000E+00;  4.0000000E+04;  0.0000000E+00;  0.0000000E+00;  4.0000000E+04;  0.0000000E+00;  4.0000000E+04;  0.0000000E+00;  0.0000000E+00;  0.0000000E+00;  0.0000000E+00;
 -1.9000000E-01;  9.9999998E-03;  2.5999999E-01;160;  0.0000000E+00;  0.0000000E+00;  0.0000000E+00;  1.0000000E+03;  1.0000000E-01;  0.0000000E+00;0;  0.0000000E+00;  0.0000000E+00;  0.0000000E+00;0;  0.0000000E+00;  4.0000000E+04;  0.0000000E+00;  0.0000000E+00;  4.0000000E+04;  0.0000000E+00;  4.0000000E+04;  0.0000000E+00;  0.0000000E+00;  0.0000000E+00;  0.0000000E+00;
 -1.9000000E-01;  9.9999998E-03;  2.7000001E-01;161;  0.0000000E+00;  0.0000000E+00;  0.0000000E+00;  1.0000000E+03;  1.0000000E-01;  0.0000000E+00;0;  0.0000000E+00;  0.0000000E+00;  0.0000000E+00;0;  0.0000000E+00;  4.0000000E+04;  0.0000000E+00;  0.0000000E+00;  4.0000000E+04;  0.0000000E+00;  4.0000000E+04;  0.0000000E+00;  0.0000000E+00;  0.0000000E+00;  0.0000000E+00;
 -1.9000000E-01;  9.9999998E-03;  2.8000000E-01;162;  0.0000000E+00;  0.0000000E+00;  0.0000000E+00;  1.0000000E+03;  1.0000000E-01;  0.0000000E+00;0;  0.0000000E+00;  0.0000000E+00;  0.0000000E+00;0;  0.0000000E+00;  4.0000000E+04;  0.0000000E+00;  0.0000000E+00;  4.0000000E+04;  0.0000000E+00;  4.0000000E+04;  0.0000000E+00;  0.0000000E+00;  0.0000000E+00;  0.0000000E+00;
 -1.9000000E-01;  9.9999998E-03;  2.8999999E-01;163;  0.0000000E+00;  0.0000000E+00;  0.0000000E+00;  1.0000000E+03;  1.0000000E-01;  0.0000000E+00;0;  0.0000000E+00;  0.0000000E+00;  0.0000000E+00;0;  0.0000000E+00;  4.0000000E+04;  0.0000000E+00;  0.0000000E+00;  4.0000000E+04;  0.0000000E+00;  4.0000000E+04;  0.0000000E+00;  0.0000000E+00;  0.0000000E+00;  0.0000000E+00;
 -1.9000000E-01;  9.9999998E-03;  3.0000001E-01;164;  0.0000000E+00;  0.0000000E+00;  0.0000000E+00;  1.0000000E+03;  1.0000000E-01;  0.0000000E+00;0;  0.0000000E+00;  0.0000000E+00;  0.0000000E+00;0;  0.0000000E+00;  4.0000000E+04;  0.0000000E+00;  0.0000000E+00;  4.0000000E+04;  0.0000000E+00;  4.0000000E+04;  0.0000000E+00;  0.0000000E+00;  0.0000000E+00;  0.0000000E+00;
 -1.9000000E-01;  9.9999998E-03;  3.1000000E-01;165;  0.0000000E+00;  0.0000000E+00;  0.0000000E+00;  1.0000000E+03;  1.0000000E-01;  0.0000000E+00;0;  0.0000000E+00;  0.0000000E+00;  0.0000000E+00;0;  0.0000000E+00;  4.0000000E+04;  0.0000000E+00;  0.0000000E+00;  4.0000000E+04;  0.0000000E+00;  4.0000000E+04;  0.0000000E+00;  0.0000000E+00;  0.0000000E+00;  0.0000000E+00;
 -1.9000000E-01;  9.9999998E-03;  3.1999999E-01;166;  0.0000000E+00;  0.0000000E+00;  0.0000000E+00;  1.0000000E+03;  1.0000000E-01;  0.0000000E+00;0;  0.0000000E+00;  0.0000000E+00;  0.0000000E+00;0;  0.0000000E+00;  4.0000000E+04;  0.0000000E+00;  0.0000000E+00;  4.0000000E+04;  0.0000000E+00;  4.0000000E+04;  0.0000000E+00;  0.0000000E+00;  0.0000000E+00;  0.0000000E+00;
 -1.9000000E-01;  9.9999998E-03;  3.3000001E-01;167;  0.0000000E+00;  0.0000000E+00;  0.0000000E+00;  1.0000000E+03;  1.0000000E-01;  0.0000000E+00;0;  0.0000000E+00;  0.0000000E+00;  0.0000000E+00;0;  0.0000000E+00;  4.0000000E+04;  0.0000000E+00;  0.0000000E+00;  4.0000000E+04;  0.0000000E+00;  4.0000000E+04;  0.0000000E+00;  0.0000000E+00;  0.0000000E+00;  0.0000000E+00;
 -1.9000000E-01;  9.9999998E-03;  3.4000000E-01;168;  0.0000000E+00;  0.0000000E+00;  0.0000000E+00;  1.0000000E+03;  1.0000000E-01;  0.0000000E+00;0;  0.0000000E+00;  0.0000000E+00;  0.0000000E+00;0;  0.0000000E+00;  4.0000000E+04;  0.0000000E+00;  0.0000000E+00;  4.0000000E+04;  0.0000000E+00;  4.0000000E+04;  0.0000000E+00;  0.0000000E+00;  0.0000000E+00;  0.0000000E+00;
 -1.9000000E-01;  9.9999998E-03;  3.4999999E-01;169;  0.0000000E+00;  0.0000000E+00;  0.0000000E+00;  1.0000000E+03;  1.0000000E-01;  0.0000000E+00;0;  0.0000000E+00;  0.0000000E+00;  0.0000000E+00;0;  0.0000000E+00;  4.0000000E+04;  0.0000000E+00;  0.0000000E+00;  4.0000000E+04;  0.0000000E+00;  4.0000000E+04;  0.0000000E+00;  0.0000000E+00;  0.0000000E+00;  0.0000000E+00;
 -1.9000000E-01;  9.9999998E-03;  3.6000001E-01;170;  0.0000000E+00;  0.0000000E+00;  0.0000000E+00;  1.0000000E+03;  1.0000000E-01;  0.0000000E+00;0;  0.0000000E+00;  0.0000000E+00;  0.0000000E+00;0;  0.0000000E+00;  4.0000000E+04;  0.0000000E+00;  0.0000000E+00;  4.0000000E+04;  0.0000000E+00;  4.0000000E+04;  0.0000000E+00;  0.0000000E+00;  0.0000000E+00;  0.0000000E+00;
 -1.9000000E-01;  9.9999998E-03;  3.7000000E-01;171;  0.0000000E+00;  0.0000000E+00;  0.0000000E+00;  1.0000000E+03;  1.0000000E-01;  0.0000000E+00;0;  0.0000000E+00;  0.0000000E+00;  0.0000000E+00;0;  0.0000000E+00;  4.0000000E+04;  0.0000000E+00;  0.0000000E+00;  4.0000000E+04;  0.0000000E+00;  4.0000000E+04;  0.0000000E+00;  0.0000000E+00;  0.0000000E+00;  0.0000000E+00;
 -1.9000000E-01;  9.9999998E-03;  3.8000000E-01;172;  0.0000000E+00;  0.0000000E+00;  0.0000000E+00;  1.0000000E+03;  1.0000000E-01;  0.0000000E+00;0;  0.0000000E+00;  0.0000000E+00;  0.0000000E+00;0;  0.0000000E+00;  4.0000000E+04;  0.0000000E+00;  0.0000000E+00;  4.0000000E+04;  0.0000000E+00;  4.0000000E+04;  0.0000000E+00;  0.0000000E+00;  0.0000000E+00;  0.0000000E+00;
 -1.9000000E-01;  9.9999998E-03;  3.8999999E-01;173;  0.0000000E+00;  0.0000000E+00;  0.0000000E+00;  1.0000000E+03;  1.0000000E-01;  0.0000000E+00;0;  0.0000000E+00;  0.0000000E+00;  0.0000000E+00;0;  0.0000000E+00;  4.0000000E+04;  0.0000000E+00;  0.0000000E+00;  4.0000000E+04;  0.0000000E+00;  4.0000000E+04;  0.0000000E+00;  0.0000000E+00;  0.0000000E+00;  0.0000000E+00;
 -1.9000000E-01;  9.9999998E-03;  4.0000001E-01;174;  0.0000000E+00;  0.0000000E+00;  0.0000000E+00;  1.0000000E+03;  1.0000000E-01;  0.0000000E+00;0;  0.0000000E+00;  0.0000000E+00;  0.0000000E+00;0;  0.0000000E+00;  4.0000000E+04;  0.0000000E+00;  0.0000000E+00;  4.0000000E+04;  0.0000000E+00;  4.0000000E+04;  0.0000000E+00;  0.0000000E+00;  0.0000000E+00;  0.0000000E+00;
 -1.8000001E-01;  9.9999998E-03;  2.3999999E-01;249;  0.0000000E+00;  0.0000000E+00;  0.0000000E+00;  1.0000000E+03;  1.0000000E-01;  0.0000000E+00;0;  0.0000000E+00;  0.0000000E+00;  0.0000000E+00;0;  0.0000000E+00;  4.0000000E+04;  0.0000000E+00;  0.0000000E+00;  4.0000000E+04;  0.0000000E+00;  4.0000000E+04;  0.0000000E+00;  0.0000000E+00;  0.0000000E+00;  0.0000000E+00;
 -1.8000001E-01;  9.9999998E-03;  2.5000000E-01;250;  0.0000000E+00;  0.0000000E+00;  0.0000000E+00;  1.0000000E+03;  1.0000000E-01;  0.0000000E+00;0;  0.0000000E+00;  0.0000000E+00;  0.0000000E+00;0;  0.0000000E+00;  4.0000000E+04;  0.0000000E+00;  0.0000000E+00;  4.0000000E+04;  0.0000000E+00;  4.0000000E+04;  0.0000000E+00;  0.0000000E+00;  0.0000000E+00;  0.0000000E+00;
 -1.8000001E-01;  9.9999998E-03;  2.5999999E-01;251;  0.0000000E+00;  0.0000000E+00;  0.0000000E+00;  1.0000000E+03;  1.0000000E-01;  0.0000000E+00;0;  0.0000000E+00;  0.0000000E+00;  0.0000000E+00;0;  0.0000000E+00;  4.0000000E+04;  0.0000000E+00;  0.0000000E+00;  4.0000000E+04;  0.0000000E+00;  4.0000000E+04;  0.0000000E+00;  0.0000000E+00;  0.0000000E+00;  0.0000000E+00;
 -1.8000001E-01;  9.9999998E-03;  2.7000001E-01;252;  0.0000000E+00;  0.0000000E+00;  0.0000000E+00;  1.0000000E+03;  1.0000000E-01;  0.0000000E+00;0;  0.0000000E+00;  0.0000000E+00;  0.0000000E+00;0;  0.0000000E+00;  4.0000000E+04;  0.0000000E+00;  0.0000000E+00;  4.0000000E+04;  0.0000000E+00;  4.0000000E+04;  0.0000000E+00;  0.0000000E+00;  0.0000000E+00;  0.0000000E+00;
 -1.8000001E-01;  9.9999998E-03;  2.8000000E-01;253;  0.0000000E+00;  0.0000000E+00;  0.0000000E+00;  1.0000000E+03;  1.0000000E-01;  0.0000000E+00;0;  0.0000000E+00;  0.0000000E+00;  0.0000000E+00;0;  0.0000000E+00;  4.0000000E+04;  0.0000000E+00;  0.0000000E+00;  4.0000000E+04;  0.0000000E+00;  4.0000000E+04;  0.0000000E+00;  0.0000000E+00;  0.0000000E+00;  0.0000000E+00;
 -1.8000001E-01;  9.9999998E-03;  2.8999999E-01;254;  0.0000000E+00;  0.0000000E+00;  0.0000000E+00;  1.0000000E+03;  1.0000000E-01;  0.0000000E+00;0;  0.0000000E+00;  0.0000000E+00;  0.0000000E+00;0;  0.0000000E+00;  4.0000000E+04;  0.0000000E+00;  0.0000000E+00;  4.0000000E+04;  0.0000000E+00;  4.0000000E+04;  0.0000000E+00;  0.0000000E+00;  0.0000000E+00;  0.0000000E+00;
 -1.8000001E-01;  9.9999998E-03;  3.0000001E-01;255;  0.0000000E+00;  0.0000000E+00;  0.0000000E+00;  1.0000000E+03;  1.0000000E-01;  0.0000000E+00;0;  0.0000000E+00;  0.0000000E+00;  0.0000000E+00;0;  0.0000000E+00;  4.0000000E+04;  0.0000000E+00;  0.0000000E+00;  4.0000000E+04;  0.0000000E+00;  4.0000000E+04;  0.0000000E+00;  0.0000000E+00;  0.0000000E+00;  0.0000000E+00;
 -1.8000001E-01;  9.9999998E-03;  3.1000000E-01;256;  0.0000000E+00;  0.0000000E+00;  0.0000000E+00;  1.0000000E+03;  1.0000000E-01;  0.0000000E+00;0;  0.0000000E+00;  0.0000000E+00;  0.0000000E+00;0;  0.0000000E+00;  4.0000000E+04;  0.0000000E+00;  0.0000000E+00;  4.0000000E+04;  0.0000000E+00;  4.0000000E+04;  0.0000000E+00;  0.0000000E+00;  0.0000000E+00;  0.0000000E+00;
 -1.8000001E-01;  9.9999998E-03;  3.1999999E-01;257;  0.0000000E+00;  0.0000000E+00;  0.0000000E+00;  1.0000000E+03;  1.0000000E-01;  0.0000000E+00;0;  0.0000000E+00;  0.0000000E+00;  0.0000000E+00;0;  0.0000000E+00;  4.0000000E+04;  0.0000000E+00;  0.0000000E+00;  4.0000000E+04;  0.0000000E+00;  4.0000000E+04;  0.0000000E+00;  0.0000000E+00;  0.0000000E+00;  0.0000000E+00;
 -1.8000001E-01;  9.9999998E-03;  3.3000001E-01;258;  0.0000000E+00;  0.0000000E+00;  0.0000000E+00;  1.0000000E+03;  1.0000000E-01;  0.0000000E+00;0;  0.0000000E+00;  0.0000000E+00;  0.0000000E+00;0;  0.0000000E+00;  4.0000000E+04;  0.0000000E+00;  0.0000000E+00;  4.0000000E+04;  0.0000000E+00;  4.0000000E+04;  0.0000000E+00;  0.0000000E+00;  0.0000000E+00;  0.0000000E+00;
 -1.8000001E-01;  9.9999998E-03;  3.4000000E-01;259;  0.0000000E+00;  0.0000000E+00;  0.0000000E+00;  1.0000000E+03;  1.0000000E-01;  0.0000000E+00;0;  0.0000000E+00;  0.0000000E+00;  0.0000000E+00;0;  0.0000000E+00;  4.0000000E+04;  0.0000000E+00;  0.0000000E+00;  4.0000000E+04;  0.0000000E+00;  4.0000000E+04;  0.0000000E+00;  0.0000000E+00;  0.0000000E+00;  0.0000000E+00;
 -1.8000001E-01;  9.9999998E-03;  3.4999999E-01;260;  0.0000000E+00;  0.0000000E+00;  0.0000000E+00;  1.0000000E+03;  1.0000000E-01;  0.0000000E+00;0;  0.0000000E+00;  0.0000000E+00;  0.0000000E+00;0;  0.0000000E+00;  4.0000000E+04;  0.0000000E+00;  0.0000000E+00;  4.0000000E+04;  0.0000000E+00;  4.0000000E+04;  0.0000000E+00;  0.0000000E+00;  0.0000000E+00;  0.0000000E+00;
 -1.8000001E-01;  9.9999998E-03;  3.6000001E-01;261;  0.0000000E+00;  0.0000000E+00;  0.0000000E+00;  1.0000000E+03;  1.0000000E-01;  0.0000000E+00;0;  0.0000000E+00;  0.0000000E+00;  0.0000000E+00;0;  0.0000000E+00;  4.0000000E+04;  0.0000000E+00;  0.0000000E+00;  4.0000000E+04;  0.0000000E+00;  4.0000000E+04;  0.0000000E+00;  0.0000000E+00;  0.0000000E+00;  0.0000000E+00;
 -1.8000001E-01;  9.9999998E-03;  3.7000000E-01;262;  0.0000000E+00;  0.0000000E+00;  0.0000000E+00;  1.0000000E+03;  1.0000000E-01;  0.0000000E+00;0;  0.0000000E+00;  0.0000000E+00;  0.0000000E+00;0;  0.0000000E+00;  4.0000000E+04;  0.0000000E+00;  0.0000000E+00;  4.0000000E+04;  0.0000000E+00;  4.0000000E+04;  0.0000000E+00;  0.0000000E+00;  0.0000000E+00;  0.0000000E+00;
 -1.8000001E-01;  9.9999998E-03;  3.8000000E-01;263;  0.0000000E+00;  0.0000000E+00;  0.0000000E+00;  1.0000000E+03;  1.0000000E-01;  0.0000000E+00;0;  0.0000000E+00;  0.0000000E+00;  0.0000000E+00;0;  0.0000000E+00;  4.0000000E+04;  0.0000000E+00;  0.0000000E+00;  4.0000000E+04;  0.0000000E+00;  4.0000000E+04;  0.0000000E+00;  0.0000000E+00;  0.0000000E+00;  0.0000000E+00;
 -1.8000001E-01;  9.9999998E-03;  3.8999999E-01;264;  0.0000000E+00;  0.0000000E+00;  0.0000000E+00;  1.0000000E+03;  1.0000000E-01;  0.0000000E+00;0;  0.0000000E+00;  0.0000000E+00;  0.0000000E+00;0;  0.0000000E+00;  4.0000000E+04;  0.0000000E+00;  0.0000000E+00;  4.0000000E+04;  0.0000000E+00;  4.0000000E+04;  0.0000000E+00;  0.0000000E+00;  0.0000000E+00;  0.0000000E+00;
 -1.8000001E-01;  9.9999998E-03;  4.0000001E-01;265;  0.0000000E+00;  0.0000000E+00;  0.0000000E+00;  1.0000000E+03;  1.0000000E-01;  0.0000000E+00;0;  0.0000000E+00;  0.0000000E+00;  0.0000000E+00;0;  0.0000000E+00;  4.0000000E+04;  0.0000000E+00;  0.0000000E+00;  4.0000000E+04;  0.0000000E+00;  4.0000000E+04;  0.0000000E+00;  0.0000000E+00;  0.0000000E+00;  0.0000000E+00;
 -1.7000000E-01;  9.9999998E-03;  2.3999999E-01;340;  0.0000000E+00;  0.0000000E+00;  0.0000000E+00;  1.0000000E+03;  1.0000000E-01;  0.0000000E+00;0;  0.0000000E+00;  0.0000000E+00;  0.0000000E+00;0;  0.0000000E+00;  4.0000000E+04;  0.0000000E+00;  0.0000000E+00;  4.0000000E+04;  0.0000000E+00;  4.0000000E+04;  0.0000000E+00;  0.0000000E+00;  0.0000000E+00;  7.1569556E-10;
 -1.7000000E-01;  9.9999998E-03;  2.5000000E-01;341;  0.0000000E+00;  0.0000000E+00;  0.0000000E+00;  1.0000000E+03;  1.0000000E-01;  0.0000000E+00;0;  0.0000000E+00;  0.0000000E+00;  0.0000000E+00;0;  0.0000000E+00;  4.0000000E+04;  0.0000000E+00;  0.0000000E+00;  4.0000000E+04;  0.0000000E+00;  4.0000000E+04;  0.0000000E+00;  0.0000000E+00;  0.0000000E+00;  4.6691867E-10;
 -1.7000000E-01;  9.9999998E-03;  2.5999999E-01;342;  0.0000000E+00;  0.0000000E+00;  0.0000000E+00;  1.0000000E+03;  1.0000000E-01;  0.0000000E+00;0;  0.0000000E+00;  0.0000000E+00;  0.0000000E+00;0;  0.0000000E+00;  4.0000000E+04;  0.0000000E+00;  0.0000000E+00;  4.0000000E+04;  0.0000000E+00;  4.0000000E+04;  0.0000000E+00;  0.0000000E+00;  0.0000000E+00;  2.4656574E-10;
 -1.7000000E-01;  9.9999998E-03;  2.7000001E-01;343;  0.0000000E+00;  0.0000000E+00;  0.0000000E+00;  1.0000000E+03;  1.0000000E-01;  0.0000000E+00;0;  0.0000000E+00;  0.0000000E+00;  0.0000000E+00;0;  0.0000000E+00;  4.0000000E+04;  0.0000000E+00;  0.0000000E+00;  4.0000000E+04;  0.0000000E+00;  4.0000000E+04;  0.0000000E+00;  0.0000000E+00;  0.0000000E+00;  9.0626097E-11;
 -1.7000000E-01;  9.9999998E-03;  2.8000000E-01;344;  0.0000000E+00;  0.0000000E+00;  0.0000000E+00;  1.0000000E+03;  1.0000000E-01;  0.0000000E+00;0;  0.0000000E+00;  0.0000000E+00;  0.0000000E+00;0;  0.0000000E+00;  4.0000000E+04;  0.0000000E+00;  0.0000000E+00;  4.0000000E+04;  0.0000000E+00;  4.0000000E+04;  0.0000000E+00;  0.0000000E+00;  0.0000000E+00;  1.4966250E-11;
 -1.7000000E-01;  9.9999998E-03;  2.8999999E-01;345;  0.0000000E+00;  0.0000000E+00;  0.0000000E+00;  1.0000000E+03;  1.0000000E-01;  0.0000000E+00;0;  0.0000000E+00;  0.0000000E+00;  0.0000000E+00;0;  0.0000000E+00;  4.0000000E+04;  0.0000000E+00;  0.0000000E+00;  4.0000000E+04;  0.0000000E+00;  4.0000000E+04;  0.0000000E+00;  0.0000000E+00;  0.0000000E+00;  6.8908875E-14;
 -1.7000000E-01;  9.9999998E-03;  3.0000001E-01;346;  0.0000000E+00;  0.0000000E+00;  0.0000000E+00;  1.0000000E+03;  1.0000000E-01;  0.0000000E+00;0;  0.0000000E+00;  0.0000000E+00;  0.0000000E+00;0;  0.0000000E+00;  4.0000000E+04;  0.0000000E+00;  0.0000000E+00;  4.0000000E+04;  0.0000000E+00;  4.0000000E+04;  0.0000000E+00;  0.0000000E+00;  0.0000000E+00;  0.0000000E+00;
 -1.7000000E-01;  9.9999998E-03;  3.1000000E-01;347;  0.0000000E+00;  0.0000000E+00;  0.0000000E+00;  1.0000000E+03;  1.0000000E-01;  0.0000000E+00;0;  0.0000000E+00;  0.0000000E+00;  0.0000000E+00;0;  0.0000000E+00;  4.0000000E+04;  0.0000000E+00;  0.0000000E+00;  4.0000000E+04;  0.0000000E+00;  4.0000000E+04;  0.0000000E+00;  0.0000000E+00;  0.0000000E+00;  0.0000000E+00;
 -1.7000000E-01;  9.9999998E-03;  3.1999999E-01;348;  0.0000000E+00;  0.0000000E+00;  0.0000000E+00;  1.0000000E+03;  1.0000000E-01;  0.0000000E+00;0;  0.0000000E+00;  0.0000000E+00;  0.0000000E+00;0;  0.0000000E+00;  4.0000000E+04;  0.0000000E+00;  0.0000000E+00;  4.0000000E+04;  0.0000000E+00;  4.0000000E+04;  0.0000000E+00;  0.0000000E+00;  0.0000000E+00;  0.0000000E+00;
 -1.7000000E-01;  9.9999998E-03;  3.3000001E-01;349;  0.0000000E+00;  0.0000000E+00;  0.0000000E+00;  1.0000000E+03;  1.0000000E-01;  0.0000000E+00;0;  0.0000000E+00;  0.0000000E+00;  0.0000000E+00;0;  0.0000000E+00;  4.0000000E+04;  0.0000000E+00;  0.0000000E+00;  4.0000000E+04;  0.0000000E+00;  4.0000000E+04;  0.0000000E+00;  0.0000000E+00;  0.0000000E+00;  0.0000000E+00;
 -1.7000000E-01;  9.9999998E-03;  3.4000000E-01;350;  0.0000000E+00;  0.0000000E+00;  0.0000000E+00;  1.0000000E+03;  1.0000000E-01;  0.0000000E+00;0;  0.0000000E+00;  0.0000000E+00;  0.0000000E+00;0;  0.0000000E+00;  4.0000000E+04;  0.0000000E+00;  0.0000000E+00;  4.0000000E+04;  0.0000000E+00;  4.0000000E+04;  0.0000000E+00;  0.0000000E+00;  0.0000000E+00;  0.0000000E+00;
 -1.7000000E-01;  9.9999998E-03;  3.4999999E-01;351;  0.0000000E+00;  0.0000000E+00;  0.0000000E+00;  1.0000000E+03;  1.0000000E-01;  0.0000000E+00;0;  0.0000000E+00;  0.0000000E+00;  0.0000000E+00;0;  0.0000000E+00;  4.0000000E+04;  0.0000000E+00;  0.0000000E+00;  4.0000000E+04;  0.0000000E+00;  4.0000000E+04;  0.0000000E+00;  0.0000000E+00;  0.0000000E+00;  0.0000000E+00;
 -1.7000000E-01;  9.9999998E-03;  3.6000001E-01;352;  0.0000000E+00;  0.0000000E+00;  0.0000000E+00;  1.0000000E+03;  1.0000000E-01;  0.0000000E+00;0;  0.0000000E+00;  0.0000000E+00;  0.0000000E+00;0;  0.0000000E+00;  4.0000000E+04;  0.0000000E+00;  0.0000000E+00;  4.0000000E+04;  0.0000000E+00;  4.0000000E+04;  0.0000000E+00;  0.0000000E+00;  0.0000000E+00;  0.0000000E+00;
 -1.7000000E-01;  9.9999998E-03;  3.7000000E-01;353;  0.0000000E+00;  0.0000000E+00;  0.0000000E+00;  1.0000000E+03;  1.0000000E-01;  0.0000000E+00;0;  0.0000000E+00;  0.0000000E+00;  0.0000000E+00;0;  0.0000000E+00;  4.0000000E+04;  0.0000000E+00;  0.0000000E+00;  4.0000000E+04;  0.0000000E+00;  4.0000000E+04;  0.0000000E+00;  0.0000000E+00;  0.0000000E+00;  0.0000000E+00;
 -1.7000000E-01;  9.9999998E-03;  3.8000000E-01;354;  0.0000000E+00;  0.0000000E+00;  0.0000000E+00;  1.0000000E+03;  1.0000000E-01;  0.0000000E+00;0;  0.0000000E+00;  0.0000000E+00;  0.0000000E+00;0;  0.0000000E+00;  4.0000000E+04;  0.0000000E+00;  0.0000000E+00;  4.0000000E+04;  0.0000000E+00;  4.0000000E+04;  0.0000000E+00;  0.0000000E+00;  0.0000000E+00;  0.0000000E+00;
 -1.7000000E-01;  9.9999998E-03;  3.8999999E-01;355;  0.0000000E+00;  0.0000000E+00;  0.0000000E+00;  1.0000000E+03;  1.0000000E-01;  0.0000000E+00;0;  0.0000000E+00;  0.0000000E+00;  0.0000000E+00;0;  0.0000000E+00;  4.0000000E+04;  0.0000000E+00;  0.0000000E+00;  4.0000000E+04;  0.0000000E+00;  4.0000000E+04;  0.0000000E+00;  0.0000000E+00;  0.0000000E+00;  0.0000000E+00;
 -1.7000000E-01;  9.9999998E-03;  4.0000001E-01;356;  0.0000000E+00;  0.0000000E+00;  0.0000000E+00;  1.0000000E+03;  1.0000000E-01;  0.0000000E+00;0;  0.0000000E+00;  0.0000000E+00;  0.0000000E+00;0;  0.0000000E+00;  4.0000000E+04;  0.0000000E+00;  0.0000000E+00;  4.0000000E+04;  0.0000000E+00;  4.0000000E+04;  0.0000000E+00;  0.0000000E+00;  0.0000000E+00;  0.0000000E+00;
 -1.6000000E-01;  9.9999998E-03;  2.3999999E-01;431;  0.0000000E+00;  0.0000000E+00;  0.0000000E+00;  1.0000000E+03;  1.0000000E-01;  0.0000000E+00;0;  0.0000000E+00;  0.0000000E+00;  0.0000000E+00;0;  4.9254027E-07;  4.0000000E+04;  0.0000000E+00;  0.0000000E+00;  4.0000000E+04;  0.0000000E+00;  4.0000000E+04;  4.8066494E-07;  0.0000000E+00;  1.1875341E-08;  1.7826216E-01;
 -1.6000000E-01;  9.9999998E-03;  2.5000000E-01;432;  0.0000000E+00;  0.0000000E+00;  0.0000000E+00;  1.0000000E+03;  1.0000000E-01;  0.0000000E+00;0;  0.0000000E+00;  0.0000000E+00;  0.0000000E+00;0;  4.7354916E-07;  4.0000000E+04;  0.0000000E+00;  0.0000000E+00;  4.0000000E+04;  0.0000000E+00;  4.0000000E+04;  4.6017502E-07;  0.0000000E+00;  1.3374134E-08;  1.4594100E-01;
 -1.6000000E-01;  9.9999998E-03;  2.5999999E-01;433;  0.0000000E+00;  0.0000000E+00;  0.0000000E+00;  1.0000000E+03;  1.0000000E-01;  0.0000000E+00;0;  0.0000000E+00;  0.0000000E+00;  0.0000000E+00;0;  4.0174595E-07;  4.0000000E+04;  0.0000000E+00;  0.0000000E+00;  4.0000000E+04;  0.0000000E+00;  4.0000000E+04;  3.9083722E-07;  0.0000000E+00;  1.0908739E-08;  9.8378986E-02;
 -1.6000000E-01;  9.9999998E-03;  2.7000001E-01;434;  0.0000000E+00;  0.0000000E+00;  0.0000000E+00;  1.0000000E+03;  1.0000000E-01;  0.0000000E+00;0;  0.0000000E+00;  0.0000000E+00;  0.0000000E+00;0;  2.9033700E-07;  4.0000000E+04;  0.0000000E+00;  0.0000000E+00;  4.0000000E+04;  0.0000000E+00;  4.0000000E+04;  2.8782594E-07;  0.0000000E+00;  2.5110456E-09;  3.9116774E-02;
 -1.6000000E-01;  9.9999998E-03;  2.8000000E-01;435;  0.0000000E+00;  0.0000000E+00;  0.0000000E+00;  1.0000000E+03;  1.0000000E-01;  0.0000000E+00;0;  0.0000000E+00;  0.0000000E+00;  0.0000000E+00;0;  1.6793766E-07;  4.0000000E+04;  0.0000000E+00;  0.0000000E+00;  4.0000000E+04;  0.0000000E+00;  4.0000000E+04;  1.7713793E-07;  0.0000000E+00; -9.2002717E-09;  1.7489608E-02;
 -1.6000000E-01;  9.9999998E-03;  2.8999999E-01;436;  0.0000000E+00;  0.0000000E+00;  0.0000000E+00;  1.0000000E+03;  1.0000000E-01;  0.0000000E+00;0;  0.0000000E+00;  0.0000000E+00;  0.0000000E+00;0;  6.5118385E-08;  4.0000000E+04;  0.0000000E+00;  0.0000000E+00;  4.0000000E+04;  0.0000000E+00;  4.0000000E+04;  8.4025842E-08;  0.0000000E+00; -1.8907457E-08;  5.4858401E-02;
 -1.6000000E-01;  9.9999998E-03;  3.0000001E-01;437;  0.0000000E+00;  0.0000000E+00;  0.0000000E+00;  1.0000000E+03;  1.0000000E-01;  0.0000000E+00;0;  0.0000000E+00;  0.0000000E+00;  0.0000000E+00;0;  1.2647892E-09;  4.0000000E+04;  0.0000000E+00;  0.0000000E+00;  4.0000000E+04;  0.0000000E+00;  4.0000000E+04;  2.3485361E-08;  0.0000000E+00; -2.2220572E-08;  6.4866424E-02;
 -1.6000000E-01;  9.9999998E-03;  3.1000000E-01;438;  0.0000000E+00;  0.0000000E+00;  0.0000000E+00;  1.0000000E+03;  1.0000000E-01;  0.0000000E+00;0;  0.0000000E+00;  0.0000000E+00;  0.0000000E+00;0; -2.1987347E-08;  4.0000000E+04;  0.0000000E+00;  0.0000000E+00;  4.0000000E+04;  0.0000000E+00;  4.0000000E+04; -3.5884682E-09;  0.0000000E+00; -1.8398879E-08;  5.1745098E-02;
 -1.6000000E-01;  9.9999998E-03;  3.1999999E-01;439;  0.0000000E+00;  0.0000000E+00;  0.0000000E+00;  1.0000000E+03;  1.0000000E-01;  0.0000000E+00;0;  0.0000000E+00;  0.0000000E+00;  0.0000000E+00;0; -1.8277523E-08;  4.0000000E+04;  0.0000000E+00;  0.0000000E+00;  4.0000000E+04;  0.0000000E+00;  4.0000000E+04; -7.6977180E-09;  0.0000000E+00; -1.0579805E-08;  2.8793054E-02;
 -1.6000000E-01;  9.9999998E-03;  3.3000001E-01;440;  0.0000000E+00;  0.0000000E+00;  0.0000000E+00;  1.0000000E+03;  1.0000000E-01;  0.0000000E+00;0;  0.0000000E+00;  0.0000000E+00;  0.0000000E+00;0; -6.7786048E-09;  4.0000000E+04;  0.0000000E+00;  0.0000000E+00;  4.0000000E+04;  0.0000000E+00;  4.0000000E+04; -3.2530898E-09;  0.0000000E+00; -3.5255150E-09;  9.7855264E-03;
 -1.6000000E-01;  9.9999998E-03;  3.4000000E-01;441;  0.0000000E+00;  0.0000000E+00;  0.0000000E+00;  1.0000000E+03;  1.0000000E-01;  0.0000000E+00;0;  0.0000000E+00;  0.0000000E+00;  0.0000000E+00;0; -5.1557697E-10;  4.0000000E+04;  0.0000000E+00;  0.0000000E+00;  4.0000000E+04;  0.0000000E+00;  4.0000000E+04; -2.2697071E-10;  0.0000000E+00; -2.8860625E-10;  1.1670266E-03;
 -1.6000000E-01;  9.9999998E-03;  3.4999999E-01;442;  0.0000000E+00;  0.0000000E+00;  0.0000000E+00;  1.0000000E+03;  1.0000000E-01;  0.0000000E+00;0;  0.0000000E+00;  0.0000000E+00;  0.0000000E+00;0;  0.0000000E+00;  4.0000000E+04;  0.0000000E+00;  0.0000000E+00;  4.0000000E+04;  0.0000000E+00;  4.0000000E+04;  0.0000000E+00;  0.0000000E+00;  0.0000000E+00;  0.0000000E+00;
 -1.6000000E-01;  9.9999998E-03;  3.6000001E-01;443;  0.0000000E+00;  0.0000000E+00;  0.0000000E+00;  1.0000000E+03;  1.0000000E-01;  0.0000000E+00;0;  0.0000000E+00;  0.0000000E+00;  0.0000000E+00;0;  0.0000000E+00;  4.0000000E+04;  0.0000000E+00;  0.0000000E+00;  4.0000000E+04;  0.0000000E+00;  4.0000000E+04;  0.0000000E+00;  0.0000000E+00;  0.0000000E+00;  0.0000000E+00;
 -1.6000000E-01;  9.9999998E-03;  3.7000000E-01;444;  0.0000000E+00;  0.0000000E+00;  0.0000000E+00;  1.0000000E+03;  1.0000000E-01;  0.0000000E+00;0;  0.0000000E+00;  0.0000000E+00;  0.0000000E+00;0;  0.0000000E+00;  4.0000000E+04;  0.0000000E+00;  0.0000000E+00;  4.0000000E+04;  0.0000000E+00;  4.0000000E+04;  0.0000000E+00;  0.0000000E+00;  0.0000000E+00;  0.0000000E+00;
 -1.6000000E-01;  9.9999998E-03;  3.8000000E-01;445;  0.0000000E+00;  0.0000000E+00;  0.0000000E+00;  1.0000000E+03;  1.0000000E-01;  0.0000000E+00;0;  0.0000000E+00;  0.0000000E+00;  0.0000000E+00;0;  0.0000000E+00;  4.0000000E+04;  0.0000000E+00;  0.0000000E+00;  4.0000000E+04;  0.0000000E+00;  4.0000000E+04;  0.0000000E+00;  0.0000000E+00;  0.0000000E+00;  0.0000000E+00;
 -1.6000000E-01;  9.9999998E-03;  3.8999999E-01;446;  0.0000000E+00;  0.0000000E+00;  0.0000000E+00;  1.0000000E+03;  1.0000000E-01;  0.0000000E+00;0;  0.0000000E+00;  0.0000000E+00;  0.0000000E+00;0;  0.0000000E+00;  4.0000000E+04;  0.0000000E+00;  0.0000000E+00;  4.0000000E+04;  0.0000000E+00;  4.0000000E+04;  0.0000000E+00;  0.0000000E+00;  0.0000000E+00;  0.0000000E+00;
 -1.6000000E-01;  9.9999998E-03;  4.0000001E-01;447;  0.0000000E+00;  0.0000000E+00;  0.0000000E+00;  1.0000000E+03;  1.0000000E-01;  0.0000000E+00;0;  0.0000000E+00;  0.0000000E+00;  0.0000000E+00;0;  0.0000000E+00;  4.0000000E+04;  0.0000000E+00;  0.0000000E+00;  4.0000000E+04;  0.0000000E+00;  4.0000000E+04;  0.0000000E+00;  0.0000000E+00;  0.0000000E+00;  0.0000000E+00;
 -1.5000001E-01;  9.9999998E-03;  2.3999999E-01;522;  0.0000000E+00;  0.0000000E+00;  0.0000000E+00;  1.0000000E+03;  1.0000000E-01;  0.0000000E+00;0;  0.0000000E+00;  0.0000000E+00;  0.0000000E+00;0;  6.9424868E-06;  4.0000000E+04;  0.0000000E+00;  0.0000000E+00;  4.0000000E+04;  0.0000000E+00;  4.0000000E+04;  6.7532656E-06;  0.0000000E+00;  1.8922121E-07;  2.5009217E+00;
 -1.5000001E-01;  9.9999998E-03;  2.5000000E-01;523;  0.0000000E+00;  0.0000000E+00;  0.0000000E+00;  1.0000000E+03;  1.0000000E-01;  0.0000000E+00;0;  0.0000000E+00;  0.0000000E+00;  0.0000000E+00;0;  6.1952637E-06;  4.0000000E+04;  0.0000000E+00;  0.0000000E+00;  4.0000000E+04;  0.0000000E+00;  4.0000000E+04;  6.0745688E-06;  0.0000000E+00;  1.2069505E-07;  1.9019582E+00;
 -1.5000001E-01;  9.9999998E-03;  2.5999999E-01;524;  0.0000000E+00;  0.0000000E+00;  0.0000000E+00;  1.0000000E+03;  1.0000000E-01;  0.0000000E+00;0;  0.0000000E+00;  0.0000000E+00;  0.0000000E+00;0;  5.0748458E-06;  4.0000000E+04;  0.0000000E+00;  0.0000000E+00;  4.0000000E+04;  0.0000000E+00;  4.0000000E+04;  5.0632889E-06;  0.0000000E+00;  1.1556920E-08;  1.1884427E+00;
 -1.5000001E-01;  9.9999998E-03;  2.7000001E-01;525;  0.0000000E+00;  0.0000000E+00;  0.0000000E+00;  1.0000000E+03;  1.0000000E-01;  0.0000000E+00;0;  0.0000000E+00;  0.0000000E+00;  0.0000000E+00;0;  3.7370219E-06;  4.0000000E+04;  0.0000000E+00;  0.0000000E+00;  4.0000000E+04;  0.0000000E+00;  4.0000000E+04;  3.8586409E-06;  0.0000000E+00; -1.2161897E-07;  4.4187489E-01;
 -1.5000001E-01;  9.9999998E-03;  2.8000000E-01;526;  0.0000000E+00;  0.0000000E+00;  0.0000000E+00;  1.0000000E+03;  1.0000000E-01;  0.0000000E+00;0;  0.0000000E+00;  0.0000000E+00;  0.0000000E+00;0;  2.3890252E-06;  4.0000000E+04;  0.0000000E+00;  0.0000000E+00;  4.0000000E+04;  0.0000000E+00;  4.0000000E+04;  2.6397834E-06;  0.0000000E+00; -2.5075826E-07;  2.2776271E-01;
 -1.5000001E-01;  9.9999998E-03;  2.8999999E-01;527;  0.0000000E+00;  0.0000000E+00;  0.0000000E+00;  1.0000000E+03;  1.0000000E-01;  0.0000000E+00;0;  0.0000000E+00;  0.0000000E+00;  0.0000000E+00;0;  1.2275091E-06;  4.0000000E+04;  0.0000000E+00;  0.0000000E+00;  4.0000000E+04;  0.0000000E+00;  4.0000000E+04;  1.5722297E-06;  0.0000000E+00; -3.4472060E-07;  7.0856422E-01;
 -1.5000001E-01;  9.9999998E-03;  3.0000001E-01;528;  0.0000000E+00;  0.0000000E+00;  0.0000000E+00;  1.0000000E+03;  1.0000000E-01;  0.0000000E+00;0;  0.0000000E+00;  0.0000000E+00;  0.0000000E+00;0;  3.8577880E-07;  4.0000000E+04;  0.0000000E+00;  0.0000000E+00;  4.0000000E+04;  0.0000000E+00;  4.0000000E+04;  7.6649826E-07;  0.0000000E+00; -3.8071946E-07;  9.3698400E-01;
 -1.5000001E-01;  9.9999998E-03;  3.1000000E-01;529;  0.0000000E+00;  0.0000000E+00;  0.0000000E+00;  1.0000000E+03;  1.0000000E-01;  0.0000000E+00;0;  0.0000000E+00;  0.0000000E+00;  0.0000000E+00;0; -9.5464429E-08;  4.0000000E+04;  0.0000000E+00;  0.0000000E+00;  4.0000000E+04;  0.0000000E+00;  4.0000000E+04;  2.5794154E-07;  0.0000000E+00; -3.5340597E-07;  9.1701370E-01;
 -1.5000001E-01;  9.9999998E-03;  3.1999999E-01;530;  0.0000000E+00;  0.0000000E+00;  0.0000000E+00;  1.0000000E+03;  1.0000000E-01;  0.0000000E+00;0;  0.0000000E+00;  0.0000000E+00;  0.0000000E+00;0; -2.6633165E-07;  4.0000000E+04;  0.0000000E+00;  0.0000000E+00;  4.0000000E+04;  0.0000000E+00;  4.0000000E+04;  1.0520012E-08;  0.0000000E+00; -2.7685167E-07;  7.2010595E-01;
 -1.5000001E-01;  9.9999998E-03;  3.3000001E-01;531;  0.0000000E+00;  0.0000000E+00;  0.0000000E+00;  1.0000000E+03;  1.0000000E-01;  0.0000000E+00;0;  0.0000000E+00;  0.0000000E+00;  0.0000000E+00;0; -2.3733553E-07;  4.0000000E+04;  0.0000000E+00;  0.0000000E+00;  4.0000000E+04;  0.0000000E+00;  4.0000000E+04; -5.8749649E-08;  0.0000000E+00; -1.7858588E-07;  4.5380557E-01;
 -1.5000001E-01;  9.9999998E-03;  3.4000000E-01;532;  0.0000000E+00;  0.0000000E+00;  0.0000000E+00;  1.0000000E+03;  1.0000000E-01;  0.0000000E+00;0;  0.0000000E+00;  0.0000000E+00;  0.0000000E+00;0; -1.3266786E-07;  4.0000000E+04;  0.0000000E+00;  0.0000000E+00;  4.0000000E+04;  0.0000000E+00;  4.0000000E+04; -4.3801251E-08;  0.0000000E+00; -8.8866614E-08;  2.1856172E-01;
 -1.5000001E-01;  9.9999998E-03;  3.4999999E-01;533;  0.0000000E+00;  0.0000000E+00;  0.0000000E+00;  1.0000000E+03;  1.0000000E-01;  0.0000000E+00;0;  0.0000000E+00;  0.0000000E+00;  0.0000000E+00;0; -4.4464993E-08;  4.0000000E+04;  0.0000000E+00;  0.0000000E+00;  4.0000000E+04;  0.0000000E+00;  4.0000000E+04; -1.5257232E-08;  0.0000000E+00; -2.9207762E-08;  7.0997007E-02;
 -1.5000001E-01;  9.9999998E-03;  3.6000001E-01;534;  0.0000000E+00;  0.0000000E+00;  0.0000000E+00;  1.0000000E+03;  1.0000000E-01;  0.0000000E+00;0;  0.0000000E+00;  0.0000000E+00;  0.0000000E+00;0; -5.8783121E-09;  4.0000000E+04;  0.0000000E+00;  0.0000000E+00;  4.0000000E+04;  0.0000000E+00;  4.0000000E+04; -1.9352422E-09;  0.0000000E+00; -3.9430699E-09;  1.0888660E-02;
 -1.5000001E-01;  9.9999998E-03;  3.7000000E-01;535;  0.0000000E+00;  0.0000000E+00;  0.0000000E+00;  1.0000000E+03;  1.0000000E-01;  0.0000000E+00;0;  0.0000000E+00;  0.0000000E+00;  0.0000000E+00;0;  0.0000000E+00;  4.0000000E+04;  0.0000000E+00;  0.0000000E+00;  4.0000000E+04;  0.0000000E+00;  4.0000000E+04;  0.0000000E+00;  0.0000000E+00;  0.0000000E+00;  3.0836869E-09;
 -1.5000001E-01;  9.9999998E-03;  3.8000000E-01;536;  0.0000000E+00;  0.0000000E+00;  0.0000000E+00;  1.0000000E+03;  1.0000000E-01;  0.0000000E+00;0;  0.0000000E+00;  0.0000000E+00;  0.0000000E+00;0;  0.0000000E+00;  4.0000000E+04;  0.0000000E+00;  0.0000000E+00;  4.0000000E+04;  0.0000000E+00;  4.0000000E+04;  0.0000000E+00;  0.0000000E+00;  0.0000000E+00;  0.0000000E+00;
 -1.5000001E-01;  9.9999998E-03;  3.8999999E-01;537;  0.0000000E+00;  0.0000000E+00;  0.0000000E+00;  1.0000000E+03;  1.0000000E-01;  0.0000000E+00;0;  0.0000000E+00;  0.0000000E+00;  0.0000000E+00;0;  0.0000000E+00;  4.0000000E+04;  0.0000000E+00;  0.0000000E+00;  4.0000000E+04;  0.0000000E+00;  4.0000000E+04;  0.0000000E+00;  0.0000000E+00;  0.0000000E+00;  0.0000000E+00;
 -1.5000001E-01;  9.9999998E-03;  4.0000001E-01;538;  0.0000000E+00;  0.0000000E+00;  0.0000000E+00;  1.0000000E+03;  1.0000000E-01;  0.0000000E+00;0;  0.0000000E+00;  0.0000000E+00;  0.0000000E+00;0;  0.0000000E+00;  4.0000000E+04;  0.0000000E+00;  0.0000000E+00;  4.0000000E+04;  0.0000000E+00;  4.0000000E+04;  0.0000000E+00;  0.0000000E+00;  0.0000000E+00;  0.0000000E+00;
 -1.4000000E-01;  9.9999998E-03;  2.3999999E-01;613;  0.0000000E+00;  0.0000000E+00;  0.0000000E+00;  1.0000000E+03;  1.0000000E-01;  0.0000000E+00;0;  0.0000000E+00;  0.0000000E+00;  0.0000000E+00;0;  2.5260848E-05;  4.0000000E+04;  0.0000000E+00;  0.0000000E+00;  4.0000000E+04;  0.0000000E+00;  4.0000000E+04;  2.4483998E-05;  0.0000000E+00;  7.7684979E-07;  1.1658398E+01;
 -1.4000000E-01;  9.9999998E-03;  2.5000000E-01;614;  0.0000000E+00;  0.0000000E+00;  0.0000000E+00;  1.0000000E+03;  1.0000000E-01;  0.0000000E+00;0;  0.0000000E+00;  0.0000000E+00;  0.0000000E+00;0;  2.2090164E-05;  4.0000000E+04;  0.0000000E+00;  0.0000000E+00;  4.0000000E+04;  0.0000000E+00;  4.0000000E+04;  2.1776126E-05;  0.0000000E+00;  3.1403769E-07;  8.8378439E+00;
 -1.4000000E-01;  9.9999998E-03;  2.5999999E-01;615;  0.0000000E+00;  0.0000000E+00;  0.0000000E+00;  1.0000000E+03;  1.0000000E-01;  0.0000000E+00;0;  0.0000000E+00;  0.0000000E+00;  0.0000000E+00;0;  1.7893401E-05;  4.0000000E+04;  0.0000000E+00;  0.0000000E+00;  4.0000000E+04;  0.0000000E+00;  4.0000000E+04;  1.8152939E-05;  0.0000000E+00; -2.5953858E-07;  5.5723763E+00;
 -1.4000000E-01;  9.9999998E-03;  2.7000001E-01;616;  0.0000000E+00;  0.0000000E+00;  0.0000000E+00;  1.0000000E+03;  1.0000000E-01;  0.0000000E+00;0;  0.0000000E+00;  0.0000000E+00;  0.0000000E+00;0;  1.3159327E-05;  4.0000000E+04;  0.0000000E+00;  0.0000000E+00;  4.0000000E+04;  0.0000000E+00;  4.0000000E+04;  1.4029200E-05;  0.0000000E+00; -8.6987353E-07;  2.1890681E+00;
 -1.4000000E-01;  9.9999998E-03;  2.8000000E-01;617;  0.0000000E+00;  0.0000000E+00;  0.0000000E+00;  1.0000000E+03;  1.0000000E-01;  0.0000000E+00;0;  0.0000000E+00;  0.0000000E+00;  0.0000000E+00;0;  8.4752000E-06;  4.0000000E+04;  0.0000000E+00;  0.0000000E+00;  4.0000000E+04;  0.0000000E+00;  4.0000000E+04;  9.8959617E-06;  0.0000000E+00; -1.4207618E-06;  9.0091079E-01;
 -1.4000000E-01;  9.9999998E-03;  2.8999999E-01;618;  0.0000000E+00;  0.0000000E+00;  0.0000000E+00;  1.0000000E+03;  1.0000000E-01;  0.0000000E+00;0;  0.0000000E+00;  0.0000000E+00;  0.0000000E+00;0;  4.3875452E-06;  4.0000000E+04;  0.0000000E+00;  0.0000000E+00;  4.0000000E+04;  0.0000000E+00;  4.0000000E+04;  6.2053532E-06;  0.0000000E+00; -1.8178077E-06;  3.2808628E+00;
 -1.4000000E-01;  9.9999998E-03;  3.0000001E-01;619;  0.0000000E+00;  0.0000000E+00;  0.0000000E+00;  1.0000000E+03;  1.0000000E-01;  0.0000000E+00;0;  0.0000000E+00;  0.0000000E+00;  0.0000000E+00;0;  1.2852099E-06;  4.0000000E+04;  0.0000000E+00;  0.0000000E+00;  4.0000000E+04;  0.0000000E+00;  4.0000000E+04;  3.2796368E-06;  0.0000000E+00; -1.9944268E-06;  4.6849012E+00;
 -1.4000000E-01;  9.9999998E-03;  3.1000000E-01;620;  0.0000000E+00;  0.0000000E+00;  0.0000000E+00;  1.0000000E+03;  1.0000000E-01;  0.0000000E+00;0;  0.0000000E+00;  0.0000000E+00;  0.0000000E+00;0; -6.7185113E-07;  4.0000000E+04;  0.0000000E+00;  0.0000000E+00;  4.0000000E+04;  0.0000000E+00;  4.0000000E+04;  1.2605973E-06;  0.0000000E+00; -1.9324484E-06;  5.0507531E+00;
 -1.4000000E-01;  9.9999998E-03;  3.1999999E-01;621;  0.0000000E+00;  0.0000000E+00;  0.0000000E+00;  1.0000000E+03;  1.0000000E-01;  0.0000000E+00;0;  0.0000000E+00;  0.0000000E+00;  0.0000000E+00;0; -1.5603865E-06;  4.0000000E+04;  0.0000000E+00;  0.0000000E+00;  4.0000000E+04;  0.0000000E+00;  4.0000000E+04;  1.0648452E-07;  0.0000000E+00; -1.6668711E-06;  4.5446963E+00;
 -1.4000000E-01;  9.9999998E-03;  3.3000001E-01;622;  0.0000000E+00;  0.0000000E+00;  0.0000000E+00;  1.0000000E+03;  1.0000000E-01;  0.0000000E+00;0;  0.0000000E+00;  0.0000000E+00;  0.0000000E+00;0; -1.6389668E-06;  4.0000000E+04;  0.0000000E+00;  0.0000000E+00;  4.0000000E+04;  0.0000000E+00;  4.0000000E+04; -3.6620537E-07;  0.0000000E+00; -1.2727613E-06;  3.4935148E+00;
 -1.4000000E-01;  9.9999998E-03;  3.4000000E-01;623;  0.0000000E+00;  0.0000000E+00;  0.0000000E+00;  1.0000000E+03;  1.0000000E-01;  0.0000000E+00;0;  0.0000000E+00;  0.0000000E+00;  0.0000000E+00;0; -1.2530463E-06;  4.0000000E+04;  0.0000000E+00;  0.0000000E+00;  4.0000000E+04;  0.0000000E+00;  4.0000000E+04; -4.1044865E-07;  0.0000000E+00; -8.4259773E-07;  2.2761488E+00;
 -1.4000000E-01;  9.9999998E-03;  3.4999999E-01;624;  0.0000000E+00;  0.0000000E+00;  0.0000000E+00;  1.0000000E+03;  1.0000000E-01;  0.0000000E+00;0;  0.0000000E+00;  0.0000000E+00;  0.0000000E+00;0; -7.3137994E-07;  4.0000000E+04;  0.0000000E+00;  0.0000000E+00;  4.0000000E+04;  0.0000000E+00;  4.0000000E+04; -2.6907787E-07;  0.0000000E+00; -4.6230204E-07;  1.2125213E+00;
 -1.4000000E-01;  9.9999998E-03;  3.6000001E-01;625;  0.0000000E+00;  0.0000000E+00;  0.0000000E+00;  1.0000000E+03;  1.0000000E-01;  0.0000000E+00;0;  0.0000000E+00;  0.0000000E+00;  0.0000000E+00;0; -3.0441436E-07;  4.0000000E+04;  0.0000000E+00;  0.0000000E+00;  4.0000000E+04;  0.0000000E+00;  4.0000000E+04; -1.1360189E-07;  0.0000000E+00; -1.9081247E-07;  4.8440346E-01;
 -1.4000000E-01;  9.9999998E-03;  3.7000000E-01;626;  0.0000000E+00;  0.0000000E+00;  0.0000000E+00;  1.0000000E+03;  1.0000000E-01;  0.0000000E+00;0;  0.0000000E+00;  0.0000000E+00;  0.0000000E+00;0; -6.9999572E-08;  4.0000000E+04;  0.0000000E+00;  0.0000000E+00;  4.0000000E+04;  0.0000000E+00;  4.0000000E+04; -2.3598151E-08;  0.0000000E+00; -4.6401418E-08;  1.1634282E-01;
 -1.4000000E-01;  9.9999998E-03;  3.8000000E-01;627;  0.0000000E+00;  0.0000000E+00;  0.0000000E+00;  1.0000000E+03;  1.0000000E-01;  0.0000000E+00;0;  0.0000000E+00;  0.0000000E+00;  0.0000000E+00;0; -3.3053340E-09;  4.0000000E+04;  0.0000000E+00;  0.0000000E+00;  4.0000000E+04;  0.0000000E+00;  4.0000000E+04; -7.8488188E-10;  0.0000000E+00; -2.5204521E-09;  8.0325231E-03;
 -1.4000000E-01;  9.9999998E-03;  3.8999999E-01;628;  0.0000000E+00;  0.0000000E+00;  0.0000000E+00;  1.0000000E+03;  1.0000000E-01;  0.0000000E+00;0;  0.0000000E+00;  0.0000000E+00;  0.0000000E+00;0;  0.0000000E+00;  4.0000000E+04;  0.0000000E+00;  0.0000000E+00;  4.0000000E+04;  0.0000000E+00;  4.0000000E+04;  0.0000000E+00;  0.0000000E+00;  0.0000000E+00;  0.0000000E+00;
 -1.4000000E-01;  9.9999998E-03;  4.0000001E-01;629;  0.0000000E+00;  0.0000000E+00;  0.0000000E+00;  1.0000000E+03;  1.0000000E-01;  0.0000000E+00;0;  0.0000000E+00;  0.0000000E+00;  0.0000000E+00;0;  0.0000000E+00;  4.0000000E+04;  0.0000000E+00;  0.0000000E+00;  4.0000000E+04;  0.0000000E+00;  4.0000000E+04;  0.0000000E+00;  0.0000000E+00;  0.0000000E+00;  0.0000000E+00;
 -1.3000000E-01;  9.9999998E-03;  2.3999999E-01;704;  0.0000000E+00;  0.0000000E+00;  0.0000000E+00;  1.0000064E+03;  1.0000000E-01;  5.3331823E+00;0;  0.0000000E+00;  0.0000000E+00;  0.0000000E+00;0;  5.2304444E-05;  4.0000000E+04;  0.0000000E+00;  0.0000000E+00;  4.0000000E+04;  0.0000000E+00;  4.0000000E+04;  5.0203504E-05;  0.0000000E+00;  2.1009416E-06;  3.4577690E+01;
 -1.3000000E-01;  9.9999998E-03;  2.5000000E-01;705;  0.0000000E+00;  0.0000000E+00;  0.0000000E+00;  1.0000066E+03;  1.0000000E-01;  5.4319453E+00;0;  0.0000000E+00;  0.0000000E+00;  0.0000000E+00;0;  4.4890661E-05;  4.0000000E+04;  0.0000000E+00;  0.0000000E+00;  4.0000000E+04;  0.0000000E+00;  4.0000000E+04;  4.4362041E-05;  0.0000000E+00;  5.2862089E-07;  2.6359724E+01;
 -1.3000000E-01;  9.9999998E-03;  2.5999999E-01;706;  0.0000000E+00;  0.0000000E+00;  0.0000000E+00;  1.0000023E+03;  1.0000000E-01;  1.8764901E+00;0;  0.0000000E+00;  0.0000000E+00;  0.0000000E+00;0;  3.5581244E-05;  4.0000000E+04;  0.0000000E+00;  0.0000000E+00;  4.0000000E+04;  0.0000000E+00;  4.0000000E+04;  3.6839661E-05;  0.0000000E+00; -1.2584170E-06;  1.6848141E+01;
 -1.3000000E-01;  9.9999998E-03;  2.7000001E-01;707;  0.0000000E+00;  0.0000000E+00;  0.0000000E+00;  1.0000000E+03;  1.0000000E-01;  0.0000000E+00;0;  0.0000000E+00;  0.0000000E+00;  0.0000000E+00;0;  2.5360594E-05;  4.0000000E+04;  0.0000000E+00;  0.0000000E+00;  4.0000000E+04;  0.0000000E+00;  4.0000000E+04;  2.8420134E-05;  0.0000000E+00; -3.0595411E-06;  6.9380774E+00;
 -1.3000000E-01;  9.9999998E-03;  2.8000000E-01;708;  0.0000000E+00;  0.0000000E+00;  0.0000000E+00;  1.0000000E+03;  1.0000000E-01;  0.0000000E+00;0;  0.0000000E+00;  0.0000000E+00;  0.0000000E+00;0;  1.5363083E-05;  4.0000000E+04;  0.0000000E+00;  0.0000000E+00;  4.0000000E+04;  0.0000000E+00;  4.0000000E+04;  2.0006320E-05;  0.0000000E+00; -4.6432369E-06;  2.2772338E+00;
 -1.3000000E-01;  9.9999998E-03;  2.8999999E-01;709;  0.0000000E+00;  0.0000000E+00;  0.0000000E+00;  1.0000025E+03;  1.0000000E-01;  2.0740154E+00;0;  0.0000000E+00;  0.0000000E+00;  0.0000000E+00;0;  6.6379589E-06;  4.0000000E+04;  0.0000000E+00;  0.0000000E+00;  4.0000000E+04;  0.0000000E+00;  4.0000000E+04;  1.2433213E-05;  0.0000000E+00; -5.7952539E-06;  9.7224979E+00;
 -1.3000000E-01;  9.9999998E-03;  3.0000001E-01;710;  0.0000000E+00;  0.0000000E+00;  0.0000000E+00;  1.0000000E+03;  1.0000000E-01;  0.0000000E+00;0;  0.0000000E+00;  0.0000000E+00;  0.0000000E+00;0; -4.9177288E-08;  4.0000000E+04;  0.0000000E+00;  0.0000000E+00;  4.0000000E+04;  0.0000000E+00;  4.0000000E+04;  6.3180191E-06;  0.0000000E+00; -6.3671964E-06;  1.4629517E+01;
 -1.3000000E-01;  9.9999998E-03;  3.1000000E-01;711;  0.0000000E+00;  0.0000000E+00;  0.0000000E+00;  1.0000000E+03;  1.0000000E-01;  0.0000000E+00;0;  0.0000000E+00;  0.0000000E+00;  0.0000000E+00;0; -4.3451382E-06;  4.0000000E+04;  0.0000000E+00;  0.0000000E+00;  4.0000000E+04;  0.0000000E+00;  4.0000000E+04;  1.9709457E-06;  0.0000000E+00; -6.3160842E-06;  1.6704126E+01;
 -1.3000000E-01;  9.9999998E-03;  3.1999999E-01;712;  0.0000000E+00;  0.0000000E+00;  0.0000000E+00;  1.0000000E+03;  1.0000000E-01;  0.0000000E+00;0;  0.0000000E+00;  0.0000000E+00;  0.0000000E+00;0; -6.3347179E-06;  4.0000000E+04;  0.0000000E+00;  0.0000000E+00;  4.0000000E+04;  0.0000000E+00;  4.0000000E+04; -6.2191270E-07;  0.0000000E+00; -5.7128054E-06;  1.6195868E+01;
 -1.3000000E-01;  9.9999998E-03;  3.3000001E-01;713;  0.0000000E+00;  0.0000000E+00;  0.0000000E+00;  1.0000000E+03;  1.0000000E-01;  0.0000000E+00;0;  0.0000000E+00;  0.0000000E+00;  0.0000000E+00;0; -6.4600440E-06;  4.0000000E+04;  0.0000000E+00;  0.0000000E+00;  4.0000000E+04;  0.0000000E+00;  4.0000000E+04; -1.7453270E-06;  0.0000000E+00; -4.7147169E-06;  1.3778874E+01;
 -1.3000000E-01;  9.9999998E-03;  3.4000000E-01;714;  0.0000000E+00;  0.0000000E+00;  0.0000000E+00;  1.0000000E+03;  1.0000000E-01;  0.0000000E+00;0;  0.0000000E+00;  0.0000000E+00;  0.0000000E+00;0; -5.3692752E-06;  4.0000000E+04;  0.0000000E+00;  0.0000000E+00;  4.0000000E+04;  0.0000000E+00;  4.0000000E+04; -1.8472211E-06;  0.0000000E+00; -3.5220539E-06;  1.0341808E+01;
 -1.3000000E-01;  9.9999998E-03;  3.4999999E-01;715;  0.0000000E+00;  0.0000000E+00;  0.0000000E+00;  1.0000000E+03;  1.0000000E-01;  0.0000000E+00;0;  0.0000000E+00;  0.0000000E+00;  0.0000000E+00;0; -3.7437733E-06;  4.0000000E+04;  0.0000000E+00;  0.0000000E+00;  4.0000000E+04;  0.0000000E+00;  4.0000000E+04; -1.4082302E-06;  0.0000000E+00; -2.3355431E-06;  6.7633548E+00;
 -1.3000000E-01;  9.9999998E-03;  3.6000001E-01;716;  0.0000000E+00;  0.0000000E+00;  0.0000000E+00;  1.0000000E+03;  1.0000000E-01;  0.0000000E+00;0;  0.0000000E+00;  0.0000000E+00;  0.0000000E+00;0; -2.1497312E-06;  4.0000000E+04;  0.0000000E+00;  0.0000000E+00;  4.0000000E+04;  0.0000000E+00;  4.0000000E+04; -8.2719652E-07;  0.0000000E+00; -1.3225348E-06;  3.7264309E+00;
 -1.3000000E-01;  9.9999998E-03;  3.7000000E-01;717;  0.0000000E+00;  0.0000000E+00;  0.0000000E+00;  1.0000000E+03;  1.0000000E-01;  0.0000000E+00;0;  0.0000000E+00;  0.0000000E+00;  0.0000000E+00;0; -9.4978225E-07;  4.0000000E+04;  0.0000000E+00;  0.0000000E+00;  4.0000000E+04;  0.0000000E+00;  4.0000000E+04; -3.5778277E-07;  0.0000000E+00; -5.9199948E-07;  1.6099911E+00;
 -1.3000000E-01;  9.9999998E-03;  3.8000000E-01;718;  0.0000000E+00;  0.0000000E+00;  0.0000000E+00;  1.0000000E+03;  1.0000000E-01;  0.0000000E+00;0;  0.0000000E+00;  0.0000000E+00;  0.0000000E+00;0; -2.7330464E-07;  4.0000000E+04;  0.0000000E+00;  0.0000000E+00;  4.0000000E+04;  0.0000000E+00;  4.0000000E+04; -9.7314476E-08;  0.0000000E+00; -1.7599015E-07;  4.6425137E-01;
 -1.3000000E-01;  9.9999998E-03;  3.8999999E-01;719;  0.0000000E+00;  0.0000000E+00;  0.0000000E+00;  1.0000000E+03;  1.0000000E-01;  0.0000000E+00;0;  0.0000000E+00;  0.0000000E+00;  0.0000000E+00;0; -2.7252524E-08;  4.0000000E+04;  0.0000000E+00;  0.0000000E+00;  4.0000000E+04;  0.0000000E+00;  4.0000000E+04; -7.7778566E-09;  0.0000000E+00; -1.9474667E-08;  5.3270902E-02;
 -1.3000000E-01;  9.9999998E-03;  4.0000001E-01;720;  0.0000000E+00;  0.0000000E+00;  0.0000000E+00;  1.0000000E+03;  1.0000000E-01;  0.0000000E+00;0;  0.0000000E+00;  0.0000000E+00;  0.0000000E+00;0;  0.0000000E+00;  4.0000000E+04;  0.0000000E+00;  0.0000000E+00;  4.0000000E+04;  0.0000000E+00;  4.0000000E+04;  0.0000000E+00;  0.0000000E+00;  0.0000000E+00;  0.0000000E+00;
 -1.2000000E-01;  9.9999998E-03;  2.3999999E-01;795;  0.0000000E+00;  0.0000000E+00;  0.0000000E+00;  1.0000269E+03;  1.0000000E-01;  2.2221594E+01;0;  0.0000000E+00;  0.0000000E+00;  0.0000000E+00;0;  7.2686315E-05;  4.0000000E+04;  0.0000000E+00;  0.0000000E+00;  4.0000000E+04;  0.0000000E+00;  4.0000000E+04;  6.8130859E-05;  0.0000000E+00;  4.5554534E-06;  7.9418312E+01;
 -1.2000000E-01;  9.9999998E-03;  2.5000000E-01;796;  0.0000000E+00;  0.0000000E+00;  0.0000000E+00;  1.0000235E+03;  1.0000000E-01;  1.9456240E+01;0;  0.0000000E+00;  0.0000000E+00;  0.0000000E+00;0;  6.0221751E-05;  4.0000000E+04;  0.0000000E+00;  0.0000000E+00;  4.0000000E+04;  0.0000000E+00;  4.0000000E+04;  5.9545295E-05;  0.0000000E+00;  6.7645800E-07;  6.0977871E+01;
 -1.2000000E-01;  9.9999998E-03;  2.5999999E-01;797;  0.0000000E+00;  0.0000000E+00;  0.0000000E+00;  1.0000195E+03;  1.0000000E-01;  1.6098310E+01;0;  0.0000000E+00;  0.0000000E+00;  0.0000000E+00;0;  4.4945991E-05;  4.0000000E+04;  0.0000000E+00;  0.0000000E+00;  4.0000000E+04;  0.0000000E+00;  4.0000000E+04;  4.8493606E-05;  0.0000000E+00; -3.5476132E-06;  3.9524681E+01;
 -1.2000000E-01;  9.9999998E-03;  2.7000001E-01;798;  0.0000000E+00;  0.0000000E+00;  0.0000000E+00;  1.0000247E+03;  1.0000000E-01;  2.0443867E+01;0;  0.0000000E+00;  0.0000000E+00;  0.0000000E+00;0;  2.8453065E-05;  4.0000000E+04;  0.0000000E+00;  0.0000000E+00;  4.0000000E+04;  0.0000000E+00;  4.0000000E+04;  3.6145786E-05;  0.0000000E+00; -7.6927199E-06;  1.6986704E+01;
 -1.2000000E-01;  9.9999998E-03;  2.8000000E-01;799;  0.0000000E+00;  0.0000000E+00;  0.0000000E+00;  1.0000289E+03;  1.0000000E-01;  2.3999321E+01;0;  0.0000000E+00;  0.0000000E+00;  0.0000000E+00;0;  1.2536475E-05;  4.0000000E+04;  0.0000000E+00;  0.0000000E+00;  4.0000000E+04;  0.0000000E+00;  4.0000000E+04;  2.3838009E-05;  0.0000000E+00; -1.1301534E-05;  4.3251410E+00;
 -1.2000000E-01;  9.9999998E-03;  2.8999999E-01;800;  0.0000000E+00;  0.0000000E+00;  0.0000000E+00;  1.0000233E+03;  1.0000000E-01;  1.9258715E+01;0;  0.0000000E+00;  0.0000000E+00;  0.0000000E+00;0; -1.1555248E-06;  4.0000000E+04;  0.0000000E+00;  0.0000000E+00;  4.0000000E+04;  0.0000000E+00;  4.0000000E+04;  1.2808776E-05;  0.0000000E+00; -1.3964301E-05;  2.2132288E+01;
 -1.2000000E-01;  9.9999998E-03;  3.0000001E-01;801;  0.0000000E+00;  0.0000000E+00;  0.0000000E+00;  1.0000190E+03;  1.0000000E-01;  1.5802022E+01;0;  0.0000000E+00;  0.0000000E+00;  0.0000000E+00;0; -1.1413356E-05;  4.0000000E+04;  0.0000000E+00;  0.0000000E+00;  4.0000000E+04;  0.0000000E+00;  4.0000000E+04;  3.9849274E-06;  0.0000000E+00; -1.5398284E-05;  3.4714226E+01;
 -1.2000000E-01;  9.9999998E-03;  3.1000000E-01;802;  0.0000000E+00;  0.0000000E+00;  0.0000000E+00;  1.0000146E+03;  1.0000000E-01;  1.2049042E+01;0;  0.0000000E+00;  0.0000000E+00;  0.0000000E+00;0; -1.7665983E-05;  4.0000000E+04;  0.0000000E+00;  0.0000000E+00;  4.0000000E+04;  0.0000000E+00;  4.0000000E+04; -2.1492365E-06;  0.0000000E+00; -1.5516747E-05;  4.1245808E+01;
 -1.2000000E-01;  9.9999998E-03;  3.1999999E-01;803;  0.0000000E+00;  0.0000000E+00;  0.0000000E+00;  1.0000133E+03;  1.0000000E-01;  1.1061416E+01;0;  0.0000000E+00;  0.0000000E+00;  0.0000000E+00;0; -2.0027710E-05;  4.0000000E+04;  0.0000000E+00;  0.0000000E+00;  4.0000000E+04;  0.0000000E+00;  4.0000000E+04; -5.5830969E-06;  0.0000000E+00; -1.4444612E-05;  4.1966694E+01;
 -1.2000000E-01;  9.9999998E-03;  3.3000001E-01;804;  0.0000000E+00;  0.0000000E+00;  0.0000000E+00;  1.0000000E+03;  1.0000000E-01;  0.0000000E+00;0;  0.0000000E+00;  0.0000000E+00;  0.0000000E+00;0; -1.9180525E-05;  4.0000000E+04;  0.0000000E+00;  0.0000000E+00;  4.0000000E+04;  0.0000000E+00;  4.0000000E+04; -6.7130431E-06;  0.0000000E+00; -1.2467482E-05;  3.7999561E+01;
 -1.2000000E-01;  9.9999998E-03;  3.4000000E-01;805;  0.0000000E+00;  0.0000000E+00;  0.0000000E+00;  1.0000000E+03;  1.0000000E-01;  0.0000000E+00;0;  0.0000000E+00;  0.0000000E+00;  0.0000000E+00;0; -1.6151622E-05;  4.0000000E+04;  0.0000000E+00;  0.0000000E+00;  4.0000000E+04;  0.0000000E+00;  4.0000000E+04; -6.1990008E-06;  0.0000000E+00; -9.9526205E-06;  3.0982956E+01;
 -1.2000000E-01;  9.9999998E-03;  3.4999999E-01;806;  0.0000000E+00;  0.0000000E+00;  0.0000000E+00;  1.0000000E+03;  1.0000000E-01;  0.0000000E+00;0;  0.0000000E+00;  0.0000000E+00;  0.0000000E+00;0; -1.2060943E-05;  4.0000000E+04;  0.0000000E+00;  0.0000000E+00;  4.0000000E+04;  0.0000000E+00;  4.0000000E+04; -4.7841058E-06;  0.0000000E+00; -7.2768371E-06;  2.2683695E+01;
 -1.2000000E-01;  9.9999998E-03;  3.6000001E-01;807;  0.0000000E+00;  0.0000000E+00;  0.0000000E+00;  1.0000000E+03;  1.0000000E-01;  0.0000000E+00;0;  0.0000000E+00;  0.0000000E+00;  0.0000000E+00;0; -7.9022757E-06;  4.0000000E+04;  0.0000000E+00;  0.0000000E+00;  4.0000000E+04;  0.0000000E+00;  4.0000000E+04; -3.1269865E-06;  0.0000000E+00; -4.7752897E-06;  1.4671621E+01;
 -1.2000000E-01;  9.9999998E-03;  3.7000000E-01;808;  0.0000000E+00;  0.0000000E+00;  0.0000000E+00;  1.0000000E+03;  1.0000000E-01;  0.0000000E+00;0;  0.0000000E+00;  0.0000000E+00;  0.0000000E+00;0; -4.4013846E-06;  4.0000000E+04;  0.0000000E+00;  0.0000000E+00;  4.0000000E+04;  0.0000000E+00;  4.0000000E+04; -1.6933852E-06;  0.0000000E+00; -2.7079993E-06;  8.0938072E+00;
 -1.2000000E-01;  9.9999998E-03;  3.8000000E-01;809;  0.0000000E+00;  0.0000000E+00;  0.0000000E+00;  1.0000000E+03;  1.0000000E-01;  0.0000000E+00;0;  0.0000000E+00;  0.0000000E+00;  0.0000000E+00;0; -1.9502602E-06;  4.0000000E+04;  0.0000000E+00;  0.0000000E+00;  4.0000000E+04;  0.0000000E+00;  4.0000000E+04; -7.1610361E-07;  0.0000000E+00; -1.2341566E-06;  3.5514894E+00;
 -1.2000000E-01;  9.9999998E-03;  3.8999999E-01;810;  0.0000000E+00;  0.0000000E+00;  0.0000000E+00;  1.0000000E+03;  1.0000000E-01;  0.0000000E+00;0;  0.0000000E+00;  0.0000000E+00;  0.0000000E+00;0; -5.8793677E-07;  4.0000000E+04;  0.0000000E+00;  0.0000000E+00;  4.0000000E+04;  0.0000000E+00;  4.0000000E+04; -2.0206379E-07;  0.0000000E+00; -3.8587297E-07;  1.0662974E+00;
 -1.2000000E-01;  9.9999998E-03;  4.0000001E-01;811;  0.0000000E+00;  0.0000000E+00;  0.0000000E+00;  1.0000000E+03;  1.0000000E-01;  0.0000000E+00;0;  0.0000000E+00;  0.0000000E+00;  0.0000000E+00;0; -7.6192606E-08;  4.0000000E+04;  0.0000000E+00;  0.0000000E+00;  4.0000000E+04;  0.0000000E+00;  4.0000000E+04; -2.4147106E-08;  0.0000000E+00; -5.2045500E-08;  1.4512980E-01;
 -1.1000000E-01;  9.9999998E-03;  2.3999999E-01;886;  0.0000000E+00;  0.0000000E+00;  0.0000000E+00;  1.0000883E+03;  1.0000000E-01;  7.3183113E+01;0;  0.0000000E+00;  0.0000000E+00;  0.0000000E+00;0;  5.8984395E-05;  4.0000000E+04;  0.0000000E+00;  0.0000000E+00;  4.0000000E+04;  0.0000000E+00;  4.0000000E+04;  5.0438241E-05;  0.0000000E+00;  8.5461552E-06;  1.5479433E+02;
 -1.1000000E-01;  9.9999998E-03;  2.5000000E-01;887;  0.0000000E+00;  0.0000000E+00;  0.0000000E+00;  1.0000839E+03;  1.0000000E-01;  6.9430138E+01;0;  0.0000000E+00;  0.0000000E+00;  0.0000000E+00;0;  4.2723041E-05;  4.0000000E+04;  0.0000000E+00;  0.0000000E+00;  4.0000000E+04;  0.0000000E+00;  4.0000000E+04;  4.2062708E-05;  0.0000000E+00;  6.6033226E-07;  1.1978705E+02;
 -1.1000000E-01;  9.9999998E-03;  2.5999999E-01;888;  0.0000000E+00;  0.0000000E+00;  0.0000000E+00;  1.0000767E+03;  1.0000000E-01;  6.3603138E+01;0;  0.0000000E+00;  0.0000000E+00;  0.0000000E+00;0;  2.2855747E-05;  4.0000000E+04;  0.0000000E+00;  0.0000000E+00;  4.0000000E+04;  0.0000000E+00;  4.0000000E+04;  3.0579522E-05;  0.0000000E+00; -7.7237755E-06;  7.8792511E+01;
 -1.1000000E-01;  9.9999998E-03;  2.7000001E-01;889;  0.0000000E+00;  0.0000000E+00;  0.0000000E+00;  1.0000669E+03;  1.0000000E-01;  5.5405842E+01;0;  0.0000000E+00;  0.0000000E+00;  0.0000000E+00;0;  1.6507911E-06;  4.0000000E+04;  0.0000000E+00;  0.0000000E+00;  4.0000000E+04;  0.0000000E+00;  4.0000000E+04;  1.7486458E-05;  0.0000000E+00; -1.5835667E-05;  3.5357101E+01;
 -1.1000000E-01;  9.9999998E-03;  2.8000000E-01;890;  0.0000000E+00;  0.0000000E+00;  0.0000000E+00;  1.0000612E+03;  1.0000000E-01;  5.0763996E+01;0;  0.0000000E+00;  0.0000000E+00;  0.0000000E+00;0; -1.8380075E-05;  4.0000000E+04;  0.0000000E+00;  0.0000000E+00;  4.0000000E+04;  0.0000000E+00;  4.0000000E+04;  4.4965777E-06;  0.0000000E+00; -2.2876653E-05;  6.7064605E+00;
 -1.1000000E-01;  9.9999998E-03;  2.8999999E-01;891;  0.0000000E+00;  0.0000000E+00;  0.0000000E+00;  1.0000602E+03;  1.0000000E-01;  4.9875134E+01;0;  0.0000000E+00;  0.0000000E+00;  0.0000000E+00;0; -3.4950142E-05;  4.0000000E+04;  0.0000000E+00;  0.0000000E+00;  4.0000000E+04;  0.0000000E+00;  4.0000000E+04; -6.8053419E-06;  0.0000000E+00; -2.8144799E-05;  4.2241753E+01;
 -1.1000000E-01;  9.9999998E-03;  3.0000001E-01;892;  0.0000000E+00;  0.0000000E+00;  0.0000000E+00;  1.0000566E+03;  1.0000000E-01;  4.6912254E+01;0;  0.0000000E+00;  0.0000000E+00;  0.0000000E+00;0; -4.6399309E-05;  4.0000000E+04;  0.0000000E+00;  0.0000000E+00;  4.0000000E+04;  0.0000000E+00;  4.0000000E+04; -1.5243589E-05;  0.0000000E+00; -3.1155720E-05;  6.8764221E+01;
 -1.1000000E-01;  9.9999998E-03;  3.1000000E-01;893;  0.0000000E+00;  0.0000000E+00;  0.0000000E+00;  1.0000446E+03;  1.0000000E-01;  3.6937225E+01;0;  0.0000000E+00;  0.0000000E+00;  0.0000000E+00;0; -5.1978510E-05;  4.0000000E+04;  0.0000000E+00;  0.0000000E+00;  4.0000000E+04;  0.0000000E+00;  4.0000000E+04; -2.0224774E-05;  0.0000000E+00; -3.1753738E-05;  8.4251877E+01;
 -1.1000000E-01;  9.9999998E-03;  3.1999999E-01;894;  0.0000000E+00;  0.0000000E+00;  0.0000000E+00;  1.0000341E+03;  1.0000000E-01;  2.8246115E+01;0;  0.0000000E+00;  0.0000000E+00;  0.0000000E+00;0; -5.1917537E-05;  4.0000000E+04;  0.0000000E+00;  0.0000000E+00;  4.0000000E+04;  0.0000000E+00;  4.0000000E+04; -2.1779040E-05;  0.0000000E+00; -3.0138495E-05;  8.8733940E+01;
 -1.1000000E-01;  9.9999998E-03;  3.3000001E-01;895;  0.0000000E+00;  0.0000000E+00;  0.0000000E+00;  1.0000227E+03;  1.0000000E-01;  1.8764902E+01;0;  0.0000000E+00;  0.0000000E+00;  0.0000000E+00;0; -4.7252110E-05;  4.0000000E+04;  0.0000000E+00;  0.0000000E+00;  4.0000000E+04;  0.0000000E+00;  4.0000000E+04; -2.0471489E-05;  0.0000000E+00; -2.6780621E-05;  8.3835121E+01;
 -1.1000000E-01;  9.9999998E-03;  3.4000000E-01;896;  0.0000000E+00;  0.0000000E+00;  0.0000000E+00;  1.0000266E+03;  1.0000000E-01;  2.2024069E+01;0;  0.0000000E+00;  0.0000000E+00;  0.0000000E+00;0; -3.9500606E-05;  4.0000000E+04;  0.0000000E+00;  0.0000000E+00;  4.0000000E+04;  0.0000000E+00;  4.0000000E+04; -1.7212384E-05;  0.0000000E+00; -2.2288221E-05;  7.2183464E+01;
 -1.1000000E-01;  9.9999998E-03;  3.4999999E-01;897;  0.0000000E+00;  0.0000000E+00;  0.0000000E+00;  1.0000000E+03;  1.0000000E-01;  0.0000000E+00;0;  0.0000000E+00;  0.0000000E+00;  0.0000000E+00;0; -3.0309948E-05;  4.0000000E+04;  0.0000000E+00;  0.0000000E+00;  4.0000000E+04;  0.0000000E+00;  4.0000000E+04; -1.3021612E-05;  0.0000000E+00; -1.7288336E-05;  5.6775364E+01;
 -1.1000000E-01;  9.9999998E-03;  3.6000001E-01;898;  0.0000000E+00;  0.0000000E+00;  0.0000000E+00;  1.0000000E+03;  1.0000000E-01;  0.0000000E+00;0;  0.0000000E+00;  0.0000000E+00;  0.0000000E+00;0; -2.1160600E-05;  4.0000000E+04;  0.0000000E+00;  0.0000000E+00;  4.0000000E+04;  0.0000000E+00;  4.0000000E+04; -8.8107226E-06;  0.0000000E+00; -1.2349878E-05;  4.0463566E+01;
 -1.1000000E-01;  9.9999998E-03;  3.7000000E-01;899;  0.0000000E+00;  0.0000000E+00;  0.0000000E+00;  1.0000000E+03;  1.0000000E-01;  0.0000000E+00;0;  0.0000000E+00;  0.0000000E+00;  0.0000000E+00;0; -1.3180334E-05;  4.0000000E+04;  0.0000000E+00;  0.0000000E+00;  4.0000000E+04;  0.0000000E+00;  4.0000000E+04; -5.2372106E-06;  0.0000000E+00; -7.9431238E-06;  2.5603611E+01;
 -1.1000000E-01;  9.9999998E-03;  3.8000000E-01;900;  0.0000000E+00;  0.0000000E+00;  0.0000000E+00;  1.0000000E+03;  1.0000000E-01;  0.0000000E+00;0;  0.0000000E+00;  0.0000000E+00;  0.0000000E+00;0; -7.0593678E-06;  4.0000000E+04;  0.0000000E+00;  0.0000000E+00;  4.0000000E+04;  0.0000000E+00;  4.0000000E+04; -2.6433624E-06;  0.0000000E+00; -4.4160056E-06;  1.3828015E+01;
 -1.1000000E-01;  9.9999998E-03;  3.8999999E-01;901;  0.0000000E+00;  0.0000000E+00;  0.0000000E+00;  1.0000000E+03;  1.0000000E-01;  0.0000000E+00;0;  0.0000000E+00;  0.0000000E+00;  0.0000000E+00;0; -3.0207557E-06;  4.0000000E+04;  0.0000000E+00;  0.0000000E+00;  4.0000000E+04;  0.0000000E+00;  4.0000000E+04; -1.0555985E-06;  0.0000000E+00; -1.9651570E-06;  5.9139528E+00;
 -1.1000000E-01;  9.9999998E-03;  4.0000001E-01;902;  0.0000000E+00;  0.0000000E+00;  0.0000000E+00;  1.0000000E+03;  1.0000000E-01;  0.0000000E+00;0;  0.0000000E+00;  0.0000000E+00;  0.0000000E+00;0; -8.8160112E-07;  4.0000000E+04;  0.0000000E+00;  0.0000000E+00;  4.0000000E+04;  0.0000000E+00;  4.0000000E+04; -2.8776748E-07;  0.0000000E+00; -5.9383365E-07;  1.7133778E+00;
 -1.0000000E-01;  9.9999998E-03;  2.3999999E-01;977;  0.0000000E+00;  0.0000000E+00;  0.0000000E+00;  1.0002162E+03;  1.0000000E-01;  1.7915543E+02;0;  0.0000000E+00;  0.0000000E+00;  0.0000000E+00;0; -2.7390590E-05;  4.0000000E+04;  0.0000000E+00;  0.0000000E+00;  4.0000000E+04;  0.0000000E+00;  4.0000000E+04; -4.1827265E-05;  0.0000000E+00;  1.4436674E-05;  2.6921631E+02;
 -1.0000000E-01;  9.9999998E-03;  2.5000000E-01;978;  0.0000000E+00;  0.0000000E+00;  0.0000000E+00;  1.0002124E+03;  1.0000000E-01;  1.7599503E+02;0;  0.0000000E+00;  0.0000000E+00;  0.0000000E+00;0; -4.3185428E-05;  4.0000000E+04;  0.0000000E+00;  0.0000000E+00;  4.0000000E+04;  0.0000000E+00;  4.0000000E+04; -4.3573495E-05;  0.0000000E+00;  3.8806536E-07;  2.1012152E+02;
 -1.0000000E-01;  9.9999998E-03;  2.5999999E-01;979;  0.0000000E+00;  0.0000000E+00;  0.0000000E+00;  1.0001891E+03;  1.0000000E-01;  1.5663754E+02;0;  0.0000000E+00;  0.0000000E+00;  0.0000000E+00;0; -6.3118219E-05;  4.0000000E+04;  0.0000000E+00;  0.0000000E+00;  4.0000000E+04;  0.0000000E+00;  4.0000000E+04; -4.8773632E-05;  0.0000000E+00; -1.4344590E-05;  1.4039075E+02;
 -1.0000000E-01;  9.9999998E-03;  2.7000001E-01;980;  0.0000000E+00;  0.0000000E+00;  0.0000000E+00;  1.0001760E+03;  1.0000000E-01;  1.4577365E+02;0;  0.0000000E+00;  0.0000000E+00;  0.0000000E+00;0; -8.4229046E-05;  4.0000000E+04;  0.0000000E+00;  0.0000000E+00;  4.0000000E+04;  0.0000000E+00;  4.0000000E+04; -5.5731518E-05;  0.0000000E+00; -2.8497532E-05;  6.5914986E+01;
 -1.0000000E-01;  9.9999998E-03;  2.8000000E-01;981;  0.0000000E+00;  0.0000000E+00;  0.0000000E+00;  1.0001607E+03;  1.0000000E-01;  1.3313203E+02;0;  0.0000000E+00;  0.0000000E+00;  0.0000000E+00;0; -1.0327115E-04;  4.0000000E+04;  0.0000000E+00;  0.0000000E+00;  4.0000000E+04;  0.0000000E+00;  4.0000000E+04; -6.2483698E-05;  0.0000000E+00; -4.0787454E-05;  9.9999676E+00;
 -1.0000000E-01;  9.9999998E-03;  2.8999999E-01;982;  0.0000000E+00;  0.0000000E+00;  0.0000000E+00;  1.0001330E+03;  1.0000000E-01;  1.1021911E+02;0;  0.0000000E+00;  0.0000000E+00;  0.0000000E+00;0; -1.1732534E-04;  4.0000000E+04;  0.0000000E+00;  0.0000000E+00;  4.0000000E+04;  0.0000000E+00;  4.0000000E+04; -6.7228568E-05;  0.0000000E+00; -5.0096776E-05;  7.1094315E+01;
 -1.0000000E-01;  9.9999998E-03;  3.0000001E-01;983;  0.0000000E+00;  0.0000000E+00;  0.0000000E+00;  1.0001349E+03;  1.0000000E-01;  1.1179931E+02;0;  0.0000000E+00;  0.0000000E+00;  0.0000000E+00;0; -1.2433263E-04;  4.0000000E+04;  0.0000000E+00;  0.0000000E+00;  4.0000000E+04;  0.0000000E+00;  4.0000000E+04; -6.8679823E-05;  0.0000000E+00; -5.5652803E-05;  1.1988631E+02;
 -1.0000000E-01;  9.9999998E-03;  3.1000000E-01;984;  0.0000000E+00;  0.0000000E+00;  0.0000000E+00;  1.0000936E+03;  1.0000000E-01;  7.7528671E+01;0;  0.0000000E+00;  0.0000000E+00;  0.0000000E+00;0; -1.2347894E-04;  4.0000000E+04;  0.0000000E+00;  0.0000000E+00;  4.0000000E+04;  0.0000000E+00;  4.0000000E+04; -6.6279768E-05;  0.0000000E+00; -5.7199173E-05;  1.5068018E+02;
 -1.0000000E-01;  9.9999998E-03;  3.1999999E-01;985;  0.0000000E+00;  0.0000000E+00;  0.0000000E+00;  1.0000825E+03;  1.0000000E-01;  6.8343742E+01;0;  0.0000000E+00;  0.0000000E+00;  0.0000000E+00;0; -1.1527879E-04;  4.0000000E+04;  0.0000000E+00;  0.0000000E+00;  4.0000000E+04;  0.0000000E+00;  4.0000000E+04; -6.0241335E-05;  0.0000000E+00; -5.5037457E-05;  1.6293869E+02;
 -1.0000000E-01;  9.9999998E-03;  3.3000001E-01;986;  0.0000000E+00;  0.0000000E+00;  0.0000000E+00;  1.0000598E+03;  1.0000000E-01;  4.9480083E+01;0;  0.0000000E+00;  0.0000000E+00;  0.0000000E+00;0; -1.0131513E-04;  4.0000000E+04;  0.0000000E+00;  0.0000000E+00;  4.0000000E+04;  0.0000000E+00;  4.0000000E+04; -5.1421295E-05;  0.0000000E+00; -4.9893835E-05;  1.5878625E+02;
 -1.0000000E-01;  9.9999998E-03;  3.4000000E-01;987;  0.0000000E+00;  0.0000000E+00;  0.0000000E+00;  1.0000380E+03;  1.0000000E-01;  3.1505281E+01;0;  0.0000000E+00;  0.0000000E+00;  0.0000000E+00;0; -8.3773673E-05;  4.0000000E+04;  0.0000000E+00;  0.0000000E+00;  4.0000000E+04;  0.0000000E+00;  4.0000000E+04; -4.1065381E-05;  0.0000000E+00; -4.2708292E-05;  1.4206883E+02;
 -1.0000000E-01;  9.9999998E-03;  3.4999999E-01;988;  0.0000000E+00;  0.0000000E+00;  0.0000000E+00;  1.0000374E+03;  1.0000000E-01;  3.0912706E+01;0;  0.0000000E+00;  0.0000000E+00;  0.0000000E+00;0; -6.4949803E-05;  4.0000000E+04;  0.0000000E+00;  0.0000000E+00;  4.0000000E+04;  0.0000000E+00;  4.0000000E+04; -3.0503199E-05;  0.0000000E+00; -3.4446606E-05;  1.1737602E+02;
 -1.0000000E-01;  9.9999998E-03;  3.6000001E-01;989;  0.0000000E+00;  0.0000000E+00;  0.0000000E+00;  1.0000137E+03;  1.0000000E-01;  1.1357703E+01;0;  0.0000000E+00;  0.0000000E+00;  0.0000000E+00;0; -4.6862533E-05;  4.0000000E+04;  0.0000000E+00;  0.0000000E+00;  4.0000000E+04;  0.0000000E+00;  4.0000000E+04; -2.0877464E-05;  0.0000000E+00; -2.5985069E-05;  8.9246086E+01;
 -1.0000000E-01;  9.9999998E-03;  3.7000000E-01;990;  0.0000000E+00;  0.0000000E+00;  0.0000000E+00;  1.0000000E+03;  1.0000000E-01;  0.0000000E+00;0;  0.0000000E+00;  0.0000000E+00;  0.0000000E+00;0; -3.1033349E-05;  4.0000000E+04;  0.0000000E+00;  0.0000000E+00;  4.0000000E+04;  0.0000000E+00;  4.0000000E+04; -1.2971863E-05;  0.0000000E+00; -1.8061486E-05;  6.1660393E+01;
 -1.0000000E-01;  9.9999998E-03;  3.8000000E-01;991;  0.0000000E+00;  0.0000000E+00;  0.0000000E+00;  1.0000000E+03;  1.0000000E-01;  0.0000000E+00;0;  0.0000000E+00;  0.0000000E+00;  0.0000000E+00;0; -1.8408849E-05;  4.0000000E+04;  0.0000000E+00;  0.0000000E+00;  4.0000000E+04;  0.0000000E+00;  4.0000000E+04; -7.1461300E-06;  0.0000000E+00; -1.1262719E-05;  3.7739941E+01;
 -1.0000000E-01;  9.9999998E-03;  3.8999999E-01;992;  0.0000000E+00;  0.0000000E+00;  0.0000000E+00;  1.0000000E+03;  1.0000000E-01;  0.0000000E+00;0;  0.0000000E+00;  0.0000000E+00;  0.0000000E+00;0; -9.3570243E-06;  4.0000000E+04;  0.0000000E+00;  0.0000000E+00;  4.0000000E+04;  0.0000000E+00;  4.0000000E+04; -3.3469028E-06;  0.0000000E+00; -6.0101215E-06;  1.9538095E+01;
 -1.0000000E-01;  9.9999998E-03;  4.0000001E-01;993;  0.0000000E+00;  0.0000000E+00;  0.0000000E+00;  1.0000000E+03;  1.0000000E-01;  0.0000000E+00;0;  0.0000000E+00;  0.0000000E+00;  0.0000000E+00;0; -3.7470486E-06;  4.0000000E+04;  0.0000000E+00;  0.0000000E+00;  4.0000000E+04;  0.0000000E+00;  4.0000000E+04; -1.2351096E-06;  0.0000000E+00; -2.5119389E-06;  7.8478122E+00;
 -9.0000004E-02;  9.9999998E-03;  2.3999999E-01;1068;  0.0000000E+00;  0.0000000E+00;  0.0000000E+00;  1.0004493E+03;  1.0000000E-01;  3.7223639E+02;0;  0.0000000E+00;  0.0000000E+00;  0.0000000E+00;0; -2.3536048E-04;  4.0000000E+04;  0.0000000E+00;  0.0000000E+00;  4.0000000E+04;  0.0000000E+00;  4.0000000E+04; -2.5784917E-04;  0.0000000E+00;  2.2488688E-05;  4.3044852E+02;
 -9.0000004E-02;  9.9999998E-03;  2.5000000E-01;1069;  0.0000000E+00;  0.0000000E+00;  0.0000000E+00;  1.0004093E+03;  1.0000000E-01;  3.3905212E+02;0;  0.0000000E+00;  0.0000000E+00;  0.0000000E+00;0; -2.4254038E-04;  4.0000000E+04;  0.0000000E+00;  0.0000000E+00;  4.0000000E+04;  0.0000000E+00;  4.0000000E+04; -2.4233304E-04;  0.0000000E+00; -2.0733810E-07;  3.3911182E+02;
 -9.0000004E-02;  9.9999998E-03;  2.5999999E-01;1070;  0.0000000E+00;  0.0000000E+00;  0.0000000E+00;  1.0003806E+03;  1.0000000E-01;  3.1534912E+02;0;  0.0000000E+00;  0.0000000E+00;  0.0000000E+00;0; -2.5400272E-04;  4.0000000E+04;  0.0000000E+00;  0.0000000E+00;  4.0000000E+04;  0.0000000E+00;  4.0000000E+04; -2.3016437E-04;  0.0000000E+00; -2.3838362E-05;  2.3036530E+02;
 -9.0000004E-02;  9.9999998E-03;  2.7000001E-01;1071;  0.0000000E+00;  0.0000000E+00;  0.0000000E+00;  1.0003521E+03;  1.0000000E-01;  2.9164609E+02;0;  0.0000000E+00;  0.0000000E+00;  0.0000000E+00;0; -2.6612880E-04;  4.0000000E+04;  0.0000000E+00;  0.0000000E+00;  4.0000000E+04;  0.0000000E+00;  4.0000000E+04; -2.1964659E-04;  0.0000000E+00; -4.6482219E-05;  1.1333981E+02;
 -9.0000004E-02;  9.9999998E-03;  2.8000000E-01;1072;  0.0000000E+00;  0.0000000E+00;  0.0000000E+00;  1.0003128E+03;  1.0000000E-01;  2.5915317E+02;0;  0.0000000E+00;  0.0000000E+00;  0.0000000E+00;0; -2.7495710E-04;  4.0000000E+04;  0.0000000E+00;  0.0000000E+00;  4.0000000E+04;  0.0000000E+00;  4.0000000E+04; -2.0875841E-04;  0.0000000E+00; -6.6198692E-05;  1.8511095E+01;
 -9.0000004E-02;  9.9999998E-03;  2.8999999E-01;1073;  0.0000000E+00;  0.0000000E+00;  0.0000000E+00;  1.0002761E+03;  1.0000000E-01;  2.2873427E+02;0;  0.0000000E+00;  0.0000000E+00;  0.0000000E+00;0; -2.7697976E-04;  4.0000000E+04;  0.0000000E+00;  0.0000000E+00;  4.0000000E+04;  0.0000000E+00;  4.0000000E+04; -1.9568241E-04;  0.0000000E+00; -8.1297352E-05;  1.0901160E+02;
 -9.0000004E-02;  9.9999998E-03;  3.0000001E-01;1074;  0.0000000E+00;  0.0000000E+00;  0.0000000E+00;  1.0002485E+03;  1.0000000E-01;  2.0582133E+02;0;  0.0000000E+00;  0.0000000E+00;  0.0000000E+00;0; -2.6984108E-04;  4.0000000E+04;  0.0000000E+00;  0.0000000E+00;  4.0000000E+04;  0.0000000E+00;  4.0000000E+04; -1.7923961E-04;  0.0000000E+00; -9.0601476E-05;  1.9010623E+02;
 -9.0000004E-02;  9.9999998E-03;  3.1000000E-01;1075;  0.0000000E+00;  0.0000000E+00;  0.0000000E+00;  1.0002062E+03;  1.0000000E-01;  1.7085936E+02;0;  0.0000000E+00;  0.0000000E+00;  0.0000000E+00;0; -2.5285239E-04;  4.0000000E+04;  0.0000000E+00;  0.0000000E+00;  4.0000000E+04;  0.0000000E+00;  4.0000000E+04; -1.5914315E-04;  0.0000000E+00; -9.3709248E-05;  2.4423711E+02;
 -9.0000004E-02;  9.9999998E-03;  3.1999999E-01;1076;  0.0000000E+00;  0.0000000E+00;  0.0000000E+00;  1.0001687E+03;  1.0000000E-01;  1.3974913E+02;0;  0.0000000E+00;  0.0000000E+00;  0.0000000E+00;0; -2.2708368E-04;  4.0000000E+04;  0.0000000E+00;  0.0000000E+00;  4.0000000E+04;  0.0000000E+00;  4.0000000E+04; -1.3602553E-04;  0.0000000E+00; -9.1058158E-05;  2.6970892E+02;
 -9.0000004E-02;  9.9999998E-03;  3.3000001E-01;1077;  0.0000000E+00;  0.0000000E+00;  0.0000000E+00;  1.0001245E+03;  1.0000000E-01;  1.0310819E+02;0;  0.0000000E+00;  0.0000000E+00;  0.0000000E+00;0; -1.9496353E-04;  4.0000000E+04;  0.0000000E+00;  0.0000000E+00;  4.0000000E+04;  0.0000000E+00;  4.0000000E+04; -1.1124273E-04;  0.0000000E+00; -8.3720799E-05;  2.6907602E+02;
 -9.0000004E-02;  9.9999998E-03;  3.4000000E-01;1078;  0.0000000E+00;  0.0000000E+00;  0.0000000E+00;  1.0000945E+03;  1.0000000E-01;  7.8318771E+01;0;  0.0000000E+00;  0.0000000E+00;  0.0000000E+00;0; -1.5960789E-04;  4.0000000E+04;  0.0000000E+00;  0.0000000E+00;  4.0000000E+04;  0.0000000E+00;  4.0000000E+04; -8.6524706E-05;  0.0000000E+00; -7.3083189E-05;  2.4764070E+02;
 -9.0000004E-02;  9.9999998E-03;  3.4999999E-01;1079;  0.0000000E+00;  0.0000000E+00;  0.0000000E+00;  1.0000566E+03;  1.0000000E-01;  4.6912254E+01;0;  0.0000000E+00;  0.0000000E+00;  0.0000000E+00;0; -1.2413517E-04;  4.0000000E+04;  0.0000000E+00;  0.0000000E+00;  4.0000000E+04;  0.0000000E+00;  4.0000000E+04; -6.3577172E-05;  0.0000000E+00; -6.0557995E-05;  2.1195934E+02;
 -9.0000004E-02;  9.9999998E-03;  3.6000001E-01;1080;  0.0000000E+00;  0.0000000E+00;  0.0000000E+00;  1.0000438E+03;  1.0000000E-01;  3.6245888E+01;0;  0.0000000E+00;  0.0000000E+00;  0.0000000E+00;0; -9.1164591E-05;  4.0000000E+04;  0.0000000E+00;  0.0000000E+00;  4.0000000E+04;  0.0000000E+00;  4.0000000E+04; -4.3752181E-05;  0.0000000E+00; -4.7412406E-05;  1.6867389E+02;
 -9.0000004E-02;  9.9999998E-03;  3.7000000E-01;1081;  0.0000000E+00;  0.0000000E+00;  0.0000000E+00;  1.0000407E+03;  1.0000000E-01;  3.3776821E+01;0;  0.0000000E+00;  0.0000000E+00;  0.0000000E+00;0; -6.2567829E-05;  4.0000000E+04;  0.0000000E+00;  0.0000000E+00;  4.0000000E+04;  0.0000000E+00;  4.0000000E+04; -2.7860326E-05;  0.0000000E+00; -3.4707504E-05;  1.2379514E+02;
 -9.0000004E-02;  9.9999998E-03;  3.8000000E-01;1082;  0.0000000E+00;  0.0000000E+00;  0.0000000E+00;  1.0000000E+03;  1.0000000E-01;  0.0000000E+00;0;  0.0000000E+00;  0.0000000E+00;  0.0000000E+00;0; -3.9432598E-05;  4.0000000E+04;  0.0000000E+00;  0.0000000E+00;  4.0000000E+04;  0.0000000E+00;  4.0000000E+04; -1.6126980E-05;  0.0000000E+00; -2.3305618E-05;  8.2327347E+01;
 -9.0000004E-02;  9.9999998E-03;  3.8999999E-01;1083;  0.0000000E+00;  0.0000000E+00;  0.0000000E+00;  1.0000000E+03;  1.0000000E-01;  0.0000000E+00;0;  0.0000000E+00;  0.0000000E+00;  0.0000000E+00;0; -2.2133165E-05;  4.0000000E+04;  0.0000000E+00;  0.0000000E+00;  4.0000000E+04;  0.0000000E+00;  4.0000000E+04; -8.2443976E-06;  0.0000000E+00; -1.3888766E-05;  4.8046066E+01;
 -9.0000004E-02;  9.9999998E-03;  4.0000001E-01;1084;  0.0000000E+00;  0.0000000E+00;  0.0000000E+00;  1.0000000E+03;  1.0000000E-01;  0.0000000E+00;0;  0.0000000E+00;  0.0000000E+00;  0.0000000E+00;0; -1.0479798E-05;  4.0000000E+04;  0.0000000E+00;  0.0000000E+00;  4.0000000E+04;  0.0000000E+00;  4.0000000E+04; -3.5471435E-06;  0.0000000E+00; -6.9326543E-06;  2.3248501E+01;
 -7.9999998E-02;  9.9999998E-03;  2.3999999E-01;1159;  0.0000000E+00;  0.0000000E+00;  0.0000000E+00;  1.0008067E+03;  1.0000000E-01;  6.6832678E+02;0;  0.0000000E+00;  0.0000000E+00;  0.0000000E+00;0; -6.2230357E-04;  4.0000000E+04;  0.0000000E+00;  0.0000000E+00;  4.0000000E+04;  0.0000000E+00;  4.0000000E+04; -6.5509201E-04;  0.0000000E+00;  3.2788430E-05;  6.4456604E+02;
 -7.9999998E-02;  9.9999998E-03;  2.5000000E-01;1160;  0.0000000E+00;  0.0000000E+00;  0.0000000E+00;  1.0007405E+03;  1.0000000E-01;  6.1351349E+02;0;  0.0000000E+00;  0.0000000E+00;  0.0000000E+00;0; -6.0812407E-04;  4.0000000E+04;  0.0000000E+00;  0.0000000E+00;  4.0000000E+04;  0.0000000E+00;  4.0000000E+04; -6.0696795E-04;  0.0000000E+00; -1.1561131E-06;  5.1294781E+02;
 -7.9999998E-02;  9.9999998E-03;  2.5999999E-01;1161;  0.0000000E+00;  0.0000000E+00;  0.0000000E+00;  1.0006801E+03;  1.0000000E-01;  5.6344086E+02;0;  0.0000000E+00;  0.0000000E+00;  0.0000000E+00;0; -5.9786561E-04;  4.0000000E+04;  0.0000000E+00;  0.0000000E+00;  4.0000000E+04;  0.0000000E+00;  4.0000000E+04; -5.6144973E-04;  0.0000000E+00; -3.6415902E-05;  3.5453375E+02;
 -7.9999998E-02;  9.9999998E-03;  2.7000001E-01;1162;  0.0000000E+00;  0.0000000E+00;  0.0000000E+00;  1.0006218E+03;  1.0000000E-01;  5.1514594E+02;0;  0.0000000E+00;  0.0000000E+00;  0.0000000E+00;0; -5.8733579E-04;  4.0000000E+04;  0.0000000E+00;  0.0000000E+00;  4.0000000E+04;  0.0000000E+00;  4.0000000E+04; -5.1710091E-04;  0.0000000E+00; -7.0234899E-05;  1.8273209E+02;
 -7.9999998E-02;  9.9999998E-03;  2.8000000E-01;1163;  0.0000000E+00;  0.0000000E+00;  0.0000000E+00;  1.0005610E+03;  1.0000000E-01;  4.6477698E+02;0;  0.0000000E+00;  0.0000000E+00;  0.0000000E+00;0; -5.7190930E-04;  4.0000000E+04;  0.0000000E+00;  0.0000000E+00;  4.0000000E+04;  0.0000000E+00;  4.0000000E+04; -4.7209446E-04;  0.0000000E+00; -9.9814868E-05;  3.8260754E+01;
 -7.9999998E-02;  9.9999998E-03;  2.8999999E-01;1164;  0.0000000E+00;  0.0000000E+00;  0.0000000E+00;  1.0005007E+03;  1.0000000E-01;  4.1480307E+02;0;  0.0000000E+00;  0.0000000E+00;  0.0000000E+00;0; -5.4756389E-04;  4.0000000E+04;  0.0000000E+00;  0.0000000E+00;  4.0000000E+04;  0.0000000E+00;  4.0000000E+04; -4.2486933E-04;  0.0000000E+00; -1.2269453E-04;  1.5573392E+02;
 -7.9999998E-02;  9.9999998E-03;  3.0000001E-01;1165;  0.0000000E+00;  0.0000000E+00;  0.0000000E+00;  1.0004335E+03;  1.0000000E-01;  3.5919971E+02;0;  0.0000000E+00;  0.0000000E+00;  0.0000000E+00;0; -5.1179843E-04;  4.0000000E+04;  0.0000000E+00;  0.0000000E+00;  4.0000000E+04;  0.0000000E+00;  4.0000000E+04; -3.7466019E-04;  0.0000000E+00; -1.3713821E-04;  2.8015897E+02;
 -7.9999998E-02;  9.9999998E-03;  3.1000000E-01;1166;  0.0000000E+00;  0.0000000E+00;  0.0000000E+00;  1.0003582E+03;  1.0000000E-01;  2.9678174E+02;0;  0.0000000E+00;  0.0000000E+00;  0.0000000E+00;0; -4.6432696E-04;  4.0000000E+04;  0.0000000E+00;  0.0000000E+00;  4.0000000E+04;  0.0000000E+00;  4.0000000E+04; -3.2179570E-04;  0.0000000E+00; -1.4253127E-04;  3.6689816E+02;
 -7.9999998E-02;  9.9999998E-03;  3.1999999E-01;1167;  0.0000000E+00;  0.0000000E+00;  0.0000000E+00;  1.0003014E+03;  1.0000000E-01;  2.4967195E+02;0;  0.0000000E+00;  0.0000000E+00;  0.0000000E+00;0; -4.0716445E-04;  4.0000000E+04;  0.0000000E+00;  0.0000000E+00;  4.0000000E+04;  0.0000000E+00;  4.0000000E+04; -2.6768132E-04;  0.0000000E+00; -1.3948312E-04;  4.1211633E+02;
 -7.9999998E-02;  9.9999998E-03;  3.3000001E-01;1168;  0.0000000E+00;  0.0000000E+00;  0.0000000E+00;  1.0002448E+03;  1.0000000E-01;  2.0275970E+02;0;  0.0000000E+00;  0.0000000E+00;  0.0000000E+00;0; -3.4401636E-04;  4.0000000E+04;  0.0000000E+00;  0.0000000E+00;  4.0000000E+04;  0.0000000E+00;  4.0000000E+04; -2.1449011E-04;  0.0000000E+00; -1.2952626E-04;  4.1867517E+02;
 -7.9999998E-02;  9.9999998E-03;  3.4000000E-01;1169;  0.0000000E+00;  0.0000000E+00;  0.0000000E+00;  1.0001824E+03;  1.0000000E-01;  1.5110684E+02;0;  0.0000000E+00;  0.0000000E+00;  0.0000000E+00;0; -2.7930114E-04;  4.0000000E+04;  0.0000000E+00;  0.0000000E+00;  4.0000000E+04;  0.0000000E+00;  4.0000000E+04; -1.6466457E-04;  0.0000000E+00; -1.1463658E-04;  3.9358035E+02;
 -7.9999998E-02;  9.9999998E-03;  3.4999999E-01;1170;  0.0000000E+00;  0.0000000E+00;  0.0000000E+00;  1.0001246E+03;  1.0000000E-01;  1.0320695E+02;0;  0.0000000E+00;  0.0000000E+00;  0.0000000E+00;0; -2.1720349E-04;  4.0000000E+04;  0.0000000E+00;  0.0000000E+00;  4.0000000E+04;  0.0000000E+00;  4.0000000E+04; -1.2039586E-04;  0.0000000E+00; -9.6807635E-05;  3.4577438E+02;
 -7.9999998E-02;  9.9999998E-03;  3.6000001E-01;1171;  0.0000000E+00;  0.0000000E+00;  0.0000000E+00;  1.0000746E+03;  1.0000000E-01;  6.1825413E+01;0;  0.0000000E+00;  0.0000000E+00;  0.0000000E+00;0; -1.6102115E-04;  4.0000000E+04;  0.0000000E+00;  0.0000000E+00;  4.0000000E+04;  0.0000000E+00;  4.0000000E+04; -8.3225219E-05;  0.0000000E+00; -7.7795929E-05;  2.8443536E+02;
 -7.9999998E-02;  9.9999998E-03;  3.7000000E-01;1172;  0.0000000E+00;  0.0000000E+00;  0.0000000E+00;  1.0000494E+03;  1.0000000E-01;  4.0986496E+01;0;  0.0000000E+00;  0.0000000E+00;  0.0000000E+00;0; -1.1290103E-04;  4.0000000E+04;  0.0000000E+00;  0.0000000E+00;  4.0000000E+04;  0.0000000E+00;  4.0000000E+04; -5.3858097E-05;  0.0000000E+00; -5.9042941E-05;  2.1798659E+02;
 -7.9999998E-02;  9.9999998E-03;  3.8000000E-01;1173;  0.0000000E+00;  0.0000000E+00;  0.0000000E+00;  1.0000444E+03;  1.0000000E-01;  3.6739700E+01;0;  0.0000000E+00;  0.0000000E+00;  0.0000000E+00;0; -7.3884687E-05;  4.0000000E+04;  0.0000000E+00;  0.0000000E+00;  4.0000000E+04;  0.0000000E+00;  4.0000000E+04; -3.2174616E-05;  0.0000000E+00; -4.1710071E-05;  1.5364342E+02;
 -7.9999998E-02;  9.9999998E-03;  3.8999999E-01;1174;  0.0000000E+00;  0.0000000E+00;  0.0000000E+00;  1.0000000E+03;  1.0000000E-01;  0.0000000E+00;0;  0.0000000E+00;  0.0000000E+00;  0.0000000E+00;0; -4.4111926E-05;  4.0000000E+04;  0.0000000E+00;  0.0000000E+00;  4.0000000E+04;  0.0000000E+00;  4.0000000E+04; -1.7363262E-05;  0.0000000E+00; -2.6748667E-05;  9.7247406E+01;
 -7.9999998E-02;  9.9999998E-03;  4.0000001E-01;1175;  0.0000000E+00;  0.0000000E+00;  0.0000000E+00;  1.0000000E+03;  1.0000000E-01;  0.0000000E+00;0;  0.0000000E+00;  0.0000000E+00;  0.0000000E+00;0; -2.3104252E-05;  4.0000000E+04;  0.0000000E+00;  0.0000000E+00;  4.0000000E+04;  0.0000000E+00;  4.0000000E+04; -8.1779754E-06;  0.0000000E+00; -1.4926277E-05;  5.3038784E+01;
 -7.0000000E-02;  9.9999998E-03;  2.3999999E-01;1250;  0.0000000E+00;  0.0000000E+00;  0.0000000E+00;  1.0013419E+03;  1.0000000E-01;  1.1116722E+03;0;  0.0000000E+00;  0.0000000E+00;  0.0000000E+00;0; -1.2493181E-03;  4.0000000E+04;  0.0000000E+00;  0.0000000E+00;  4.0000000E+04;  0.0000000E+00;  4.0000000E+04; -1.2944897E-03;  0.0000000E+00;  4.5171550E-05;  9.1461237E+02;
 -7.0000000E-02;  9.9999998E-03;  2.5000000E-01;1251;  0.0000000E+00;  0.0000000E+00;  0.0000000E+00;  1.0012307E+03;  1.0000000E-01;  1.0195267E+03;0;  0.0000000E+00;  0.0000000E+00;  0.0000000E+00;0; -1.1961190E-03;  4.0000000E+04;  0.0000000E+00;  0.0000000E+00;  4.0000000E+04;  0.0000000E+00;  4.0000000E+04; -1.1936652E-03;  0.0000000E+00; -2.4538415E-06;  7.3576361E+02;
 -7.0000000E-02;  9.9999998E-03;  2.5999999E-01;1252;  0.0000000E+00;  0.0000000E+00;  0.0000000E+00;  1.0011290E+03;  1.0000000E-01;  9.3538098E+02;0;  0.0000000E+00;  0.0000000E+00;  0.0000000E+00;0; -1.1458695E-03;  4.0000000E+04;  0.0000000E+00;  0.0000000E+00;  4.0000000E+04;  0.0000000E+00;  4.0000000E+04; -1.0938628E-03;  0.0000000E+00; -5.2006733E-05;  5.1756073E+02;
 -7.0000000E-02;  9.9999998E-03;  2.7000001E-01;1253;  0.0000000E+00;  0.0000000E+00;  0.0000000E+00;  1.0010289E+03;  1.0000000E-01;  8.5242035E+02;0;  0.0000000E+00;  0.0000000E+00;  0.0000000E+00;0; -1.0939314E-03;  4.0000000E+04;  0.0000000E+00;  0.0000000E+00;  4.0000000E+04;  0.0000000E+00;  4.0000000E+04; -9.9420908E-04;  0.0000000E+00; -9.9722311E-05;  2.7875662E+02;
 -7.0000000E-02;  9.9999998E-03;  2.8000000E-01;1254;  0.0000000E+00;  0.0000000E+00;  0.0000000E+00;  1.0009236E+03;  1.0000000E-01;  7.6521295E+02;0;  0.0000000E+00;  0.0000000E+00;  0.0000000E+00;0; -1.0350860E-03;  4.0000000E+04;  0.0000000E+00;  0.0000000E+00;  4.0000000E+04;  0.0000000E+00;  4.0000000E+04; -8.9337211E-04;  0.0000000E+00; -1.4171388E-04;  7.3029434E+01;
 -7.0000000E-02;  9.9999998E-03;  2.8999999E-01;1255;  0.0000000E+00;  0.0000000E+00;  0.0000000E+00;  1.0008145E+03;  1.0000000E-01;  6.7484509E+02;0;  0.0000000E+00;  0.0000000E+00;  0.0000000E+00;0; -9.6487941E-04;  4.0000000E+04;  0.0000000E+00;  0.0000000E+00;  4.0000000E+04;  0.0000000E+00;  4.0000000E+04; -7.9037854E-04;  0.0000000E+00; -1.7450088E-04;  2.1044096E+02;
 -7.0000000E-02;  9.9999998E-03;  3.0000001E-01;1256;  0.0000000E+00;  0.0000000E+00;  0.0000000E+00;  1.0007081E+03;  1.0000000E-01;  5.8665009E+02;0;  0.0000000E+00;  0.0000000E+00;  0.0000000E+00;0; -8.8086392E-04;  4.0000000E+04;  0.0000000E+00;  0.0000000E+00;  4.0000000E+04;  0.0000000E+00;  4.0000000E+04; -6.8528100E-04;  0.0000000E+00; -1.9558292E-04;  3.8928537E+02;
 -7.0000000E-02;  9.9999998E-03;  3.1000000E-01;1257;  0.0000000E+00;  0.0000000E+00;  0.0000000E+00;  1.0005992E+03;  1.0000000E-01;  4.9647980E+02;0;  0.0000000E+00;  0.0000000E+00;  0.0000000E+00;0; -7.8352925E-04;  4.0000000E+04;  0.0000000E+00;  0.0000000E+00;  4.0000000E+04;  0.0000000E+00;  4.0000000E+04; -5.7949545E-04;  0.0000000E+00; -2.0403381E-04;  5.1846545E+02;
 -7.0000000E-02;  9.9999998E-03;  3.1999999E-01;1258;  0.0000000E+00;  0.0000000E+00;  0.0000000E+00;  1.0005058E+03;  1.0000000E-01;  4.1904987E+02;0;  0.0000000E+00;  0.0000000E+00;  0.0000000E+00;0; -6.7637343E-04;  4.0000000E+04;  0.0000000E+00;  0.0000000E+00;  4.0000000E+04;  0.0000000E+00;  4.0000000E+04; -4.7570202E-04;  0.0000000E+00; -2.0067141E-04;  5.9048010E+02;
 -7.0000000E-02;  9.9999998E-03;  3.3000001E-01;1259;  0.0000000E+00;  0.0000000E+00;  0.0000000E+00;  1.0003967E+03;  1.0000000E-01;  3.2858331E+02;0;  0.0000000E+00;  0.0000000E+00;  0.0000000E+00;0; -5.6496874E-04;  4.0000000E+04;  0.0000000E+00;  0.0000000E+00;  4.0000000E+04;  0.0000000E+00;  4.0000000E+04; -3.7734292E-04;  0.0000000E+00; -1.8762582E-04;  6.0835980E+02;
 -7.0000000E-02;  9.9999998E-03;  3.4000000E-01;1260;  0.0000000E+00;  0.0000000E+00;  0.0000000E+00;  1.0003095E+03;  1.0000000E-01;  2.5638782E+02;0;  0.0000000E+00;  0.0000000E+00;  0.0000000E+00;0; -4.5554081E-04;  4.0000000E+04;  0.0000000E+00;  0.0000000E+00;  4.0000000E+04;  0.0000000E+00;  4.0000000E+04; -2.8790068E-04;  0.0000000E+00; -1.6764013E-04;  5.8112683E+02;
 -7.0000000E-02;  9.9999998E-03;  3.4999999E-01;1261;  0.0000000E+00;  0.0000000E+00;  0.0000000E+00;  1.0002142E+03;  1.0000000E-01;  1.7747646E+02;0;  0.0000000E+00;  0.0000000E+00;  0.0000000E+00;0; -3.5365467E-04;  4.0000000E+04;  0.0000000E+00;  0.0000000E+00;  4.0000000E+04;  0.0000000E+00;  4.0000000E+04; -2.1020458E-04;  0.0000000E+00; -1.4345009E-04;  5.2058026E+02;
 -7.0000000E-02;  9.9999998E-03;  3.6000001E-01;1262;  0.0000000E+00;  0.0000000E+00;  0.0000000E+00;  1.0001446E+03;  1.0000000E-01;  1.1979908E+02;0;  0.0000000E+00;  0.0000000E+00;  0.0000000E+00;0; -2.6338181E-04;  4.0000000E+04;  0.0000000E+00;  0.0000000E+00;  4.0000000E+04;  0.0000000E+00;  4.0000000E+04; -1.4596386E-04;  0.0000000E+00; -1.1741796E-04;  4.3886856E+02;
 -7.0000000E-02;  9.9999998E-03;  3.7000000E-01;1263;  0.0000000E+00;  0.0000000E+00;  0.0000000E+00;  1.0000962E+03;  1.0000000E-01;  7.9701447E+01;0;  0.0000000E+00;  0.0000000E+00;  0.0000000E+00;0; -1.8703367E-04;  4.0000000E+04;  0.0000000E+00;  0.0000000E+00;  4.0000000E+04;  0.0000000E+00;  4.0000000E+04; -9.5607786E-05;  0.0000000E+00; -9.1425878E-05;  3.4718640E+02;
 -7.0000000E-02;  9.9999998E-03;  3.8000000E-01;1264;  0.0000000E+00;  0.0000000E+00;  0.0000000E+00;  1.0000561E+03;  1.0000000E-01;  4.6517204E+01;0;  0.0000000E+00;  0.0000000E+00;  0.0000000E+00;0; -1.2534484E-04;  4.0000000E+04;  0.0000000E+00;  0.0000000E+00;  4.0000000E+04;  0.0000000E+00;  4.0000000E+04; -5.8397069E-05;  0.0000000E+00; -6.6947781E-05;  2.5522238E+02;
 -7.0000000E-02;  9.9999998E-03;  3.8999999E-01;1265;  0.0000000E+00;  0.0000000E+00;  0.0000000E+00;  1.0000443E+03;  1.0000000E-01;  3.6739700E+01;0;  0.0000000E+00;  0.0000000E+00;  0.0000000E+00;0; -7.7880417E-05;  4.0000000E+04;  0.0000000E+00;  0.0000000E+00;  4.0000000E+04;  0.0000000E+00;  4.0000000E+04; -3.2691638E-05;  0.0000000E+00; -4.5188779E-05;  1.7110356E+02;
 -7.0000000E-02;  9.9999998E-03;  4.0000001E-01;1266;  0.0000000E+00;  0.0000000E+00;  0.0000000E+00;  1.0000000E+03;  1.0000000E-01;  0.0000000E+00;0;  0.0000000E+00;  0.0000000E+00;  0.0000000E+00;0; -4.3524848E-05;  4.0000000E+04;  0.0000000E+00;  0.0000000E+00;  4.0000000E+04;  0.0000000E+00;  4.0000000E+04; -1.6332549E-05;  0.0000000E+00; -2.7192298E-05;  1.0130303E+02;
 -5.9999999E-02;  9.9999998E-03;  2.3999999E-01;1341;  0.0000000E+00;  0.0000000E+00;  0.0000000E+00;  1.0020900E+03;  1.0000000E-01;  1.7315066E+03;0;  0.0000000E+00;  0.0000000E+00;  0.0000000E+00;0; -2.1720773E-03;  4.0000000E+04;  0.0000000E+00;  0.0000000E+00;  4.0000000E+04;  0.0000000E+00;  4.0000000E+04; -2.2312433E-03;  0.0000000E+00;  5.9165952E-05;  1.2390229E+03;
 -5.9999999E-02;  9.9999998E-03;  2.5000000E-01;1342;  0.0000000E+00;  0.0000000E+00;  0.0000000E+00;  1.0019213E+03;  1.0000000E-01;  1.5917574E+03;0;  0.0000000E+00;  0.0000000E+00;  0.0000000E+00;0; -2.0576916E-03;  4.0000000E+04;  0.0000000E+00;  0.0000000E+00;  4.0000000E+04;  0.0000000E+00;  4.0000000E+04; -2.0536152E-03;  0.0000000E+00; -4.0765099E-06;  1.0082406E+03;
 -5.9999999E-02;  9.9999998E-03;  2.5999999E-01;1343;  0.0000000E+00;  0.0000000E+00;  0.0000000E+00;  1.0017589E+03;  1.0000000E-01;  1.4572427E+03;0;  0.0000000E+00;  0.0000000E+00;  0.0000000E+00;0; -1.9445849E-03;  4.0000000E+04;  0.0000000E+00;  0.0000000E+00;  4.0000000E+04;  0.0000000E+00;  4.0000000E+04; -1.8743521E-03;  0.0000000E+00; -7.0232760E-05;  7.2171399E+02;
 -5.9999999E-02;  9.9999998E-03;  2.7000001E-01;1344;  0.0000000E+00;  0.0000000E+00;  0.0000000E+00;  1.0015921E+03;  1.0000000E-01;  1.3190739E+03;0;  0.0000000E+00;  0.0000000E+00;  0.0000000E+00;0; -1.8278527E-03;  4.0000000E+04;  0.0000000E+00;  0.0000000E+00;  4.0000000E+04;  0.0000000E+00;  4.0000000E+04; -1.6934817E-03;  0.0000000E+00; -1.3437103E-04;  4.0446280E+02;
 -5.9999999E-02;  9.9999998E-03;  2.8000000E-01;1345;  0.0000000E+00;  0.0000000E+00;  0.0000000E+00;  1.0014288E+03;  1.0000000E-01;  1.1837690E+03;0;  0.0000000E+00;  0.0000000E+00;  0.0000000E+00;0; -1.7017407E-03;  4.0000000E+04;  0.0000000E+00;  0.0000000E+00;  4.0000000E+04;  0.0000000E+00;  4.0000000E+04; -1.5104826E-03;  0.0000000E+00; -1.9125803E-04;  1.2473190E+02;
 -5.9999999E-02;  9.9999998E-03;  2.8999999E-01;1346;  0.0000000E+00;  0.0000000E+00;  0.0000000E+00;  1.0012618E+03;  1.0000000E-01;  1.0454026E+03;0;  0.0000000E+00;  0.0000000E+00;  0.0000000E+00;0; -1.5614289E-03;  4.0000000E+04;  0.0000000E+00;  0.0000000E+00;  4.0000000E+04;  0.0000000E+00;  4.0000000E+04; -1.3253462E-03;  0.0000000E+00; -2.3608271E-04;  2.7149643E+02;
 -5.9999999E-02;  9.9999998E-03;  3.0000001E-01;1347;  0.0000000E+00;  0.0000000E+00;  0.0000000E+00;  1.0010886E+03;  1.0000000E-01;  9.0190039E+02;0;  0.0000000E+00;  0.0000000E+00;  0.0000000E+00;0; -1.4047360E-03;  4.0000000E+04;  0.0000000E+00;  0.0000000E+00;  4.0000000E+04;  0.0000000E+00;  4.0000000E+04; -1.1394345E-03;  0.0000000E+00; -2.6530147E-04;  5.1496527E+02;
 -5.9999999E-02;  9.9999998E-03;  3.1000000E-01;1348;  0.0000000E+00;  0.0000000E+00;  0.0000000E+00;  1.0009269E+03;  1.0000000E-01;  7.6797827E+02;0;  0.0000000E+00;  0.0000000E+00;  0.0000000E+00;0; -1.2334094E-03;  4.0000000E+04;  0.0000000E+00;  0.0000000E+00;  4.0000000E+04;  0.0000000E+00;  4.0000000E+04; -9.5587142E-04;  0.0000000E+00; -2.7753800E-04;  6.9614337E+02;
 -5.9999999E-02;  9.9999998E-03;  3.1999999E-01;1349;  0.0000000E+00;  0.0000000E+00;  0.0000000E+00;  1.0007610E+03;  1.0000000E-01;  6.3050067E+02;0;  0.0000000E+00;  0.0000000E+00;  0.0000000E+00;0; -1.0531459E-03;  4.0000000E+04;  0.0000000E+00;  0.0000000E+00;  4.0000000E+04;  0.0000000E+00;  4.0000000E+04; -7.7928707E-04;  0.0000000E+00; -2.7385875E-04;  8.0175995E+02;
 -5.9999999E-02;  9.9999998E-03;  3.3000001E-01;1350;  0.0000000E+00;  0.0000000E+00;  0.0000000E+00;  1.0006155E+03;  1.0000000E-01;  5.0991150E+02;0;  0.0000000E+00;  0.0000000E+00;  0.0000000E+00;0; -8.7216671E-04;  4.0000000E+04;  0.0000000E+00;  0.0000000E+00;  4.0000000E+04;  0.0000000E+00;  4.0000000E+04; -6.1500061E-04;  0.0000000E+00; -2.5716607E-04;  8.3491455E+02;
 -5.9999999E-02;  9.9999998E-03;  3.4000000E-01;1351;  0.0000000E+00;  0.0000000E+00;  0.0000000E+00;  1.0004855E+03;  1.0000000E-01;  4.0216147E+02;0;  0.0000000E+00;  0.0000000E+00;  0.0000000E+00;0; -6.9914840E-04;  4.0000000E+04;  0.0000000E+00;  0.0000000E+00;  4.0000000E+04;  0.0000000E+00;  4.0000000E+04; -4.6796133E-04;  0.0000000E+00; -2.3118703E-04;  8.0712115E+02;
 -5.9999999E-02;  9.9999998E-03;  3.4999999E-01;1352;  0.0000000E+00;  0.0000000E+00;  0.0000000E+00;  1.0003604E+03;  1.0000000E-01;  2.9855945E+02;0;  0.0000000E+00;  0.0000000E+00;  0.0000000E+00;0; -5.4141349E-04;  4.0000000E+04;  0.0000000E+00;  0.0000000E+00;  4.0000000E+04;  0.0000000E+00;  4.0000000E+04; -3.4182600E-04;  0.0000000E+00; -1.9958748E-04;  7.3355713E+02;
 -5.9999999E-02;  9.9999998E-03;  3.6000001E-01;1353;  0.0000000E+00;  0.0000000E+00;  0.0000000E+00;  1.0002529E+03;  1.0000000E-01;  2.0947556E+02;0;  0.0000000E+00;  0.0000000E+00;  0.0000000E+00;0; -4.0388954E-04;  4.0000000E+04;  0.0000000E+00;  0.0000000E+00;  4.0000000E+04;  0.0000000E+00;  4.0000000E+04; -2.3842958E-04;  0.0000000E+00; -1.6545996E-04;  6.2981909E+02;
 -5.9999999E-02;  9.9999998E-03;  3.7000000E-01;1354;  0.0000000E+00;  0.0000000E+00;  0.0000000E+00;  1.0001605E+03;  1.0000000E-01;  1.3303328E+02;0;  0.0000000E+00;  0.0000000E+00;  0.0000000E+00;0; -2.8889347E-04;  4.0000000E+04;  0.0000000E+00;  0.0000000E+00;  4.0000000E+04;  0.0000000E+00;  4.0000000E+04; -1.5770391E-04;  0.0000000E+00; -1.3118958E-04;  5.1014276E+02;
 -5.9999999E-02;  9.9999998E-03;  3.8000000E-01;1355;  0.0000000E+00;  0.0000000E+00;  0.0000000E+00;  1.0000936E+03;  1.0000000E-01;  7.7528671E+01;0;  0.0000000E+00;  0.0000000E+00;  0.0000000E+00;0; -1.9651858E-04;  4.0000000E+04;  0.0000000E+00;  0.0000000E+00;  4.0000000E+04;  0.0000000E+00;  4.0000000E+04; -9.7951612E-05;  0.0000000E+00; -9.8566969E-05;  3.8685669E+02;
 -5.9999999E-02;  9.9999998E-03;  3.8999999E-01;1356;  0.0000000E+00;  0.0000000E+00;  0.0000000E+00;  1.0000620E+03;  1.0000000E-01;  5.1356571E+01;0;  0.0000000E+00;  0.0000000E+00;  0.0000000E+00;0; -1.2532879E-04;  4.0000000E+04;  0.0000000E+00;  0.0000000E+00;  4.0000000E+04;  0.0000000E+00;  4.0000000E+04; -5.6312670E-05;  0.0000000E+00; -6.9016118E-05;  2.7046918E+02;
 -5.9999999E-02;  9.9999998E-03;  4.0000001E-01;1357;  0.0000000E+00;  0.0000000E+00;  0.0000000E+00;  1.0000315E+03;  1.0000000E-01;  2.6073338E+01;0;  0.0000000E+00;  0.0000000E+00;  0.0000000E+00;0; -7.3123403E-05;  4.0000000E+04;  0.0000000E+00;  0.0000000E+00;  4.0000000E+04;  0.0000000E+00;  4.0000000E+04; -2.9317427E-05;  0.0000000E+00; -4.3805976E-05;  1.6980447E+02;
 -5.0000001E-02;  9.9999998E-03;  2.3999999E-01;1432;  0.0000000E+00;  0.0000000E+00;  0.0000000E+00;  1.0030748E+03;  1.0000000E-01;  2.5473848E+03;0;  0.0000000E+00;  0.0000000E+00;  0.0000000E+00;0; -3.4272289E-03;  4.0000000E+04;  0.0000000E+00;  0.0000000E+00;  4.0000000E+04;  0.0000000E+00;  4.0000000E+04; -3.5011843E-03;  0.0000000E+00;  7.3955438E-05;  1.6101583E+03;
 -5.0000001E-02;  9.9999998E-03;  2.5000000E-01;1433;  0.0000000E+00;  0.0000000E+00;  0.0000000E+00;  1.0028340E+03;  1.0000000E-01;  2.3479829E+03;0;  0.0000000E+00;  0.0000000E+00;  0.0000000E+00;0; -3.2263950E-03;  4.0000000E+04;  0.0000000E+00;  0.0000000E+00;  4.0000000E+04;  0.0000000E+00;  4.0000000E+04; -3.2203894E-03;  0.0000000E+00; -6.0057282E-06;  1.3263126E+03;
 -5.0000001E-02;  9.9999998E-03;  2.5999999E-01;1434;  0.0000000E+00;  0.0000000E+00;  0.0000000E+00;  1.0025892E+03;  1.0000000E-01;  2.1451245E+03;0;  0.0000000E+00;  0.0000000E+00;  0.0000000E+00;0; -3.0244198E-03;  4.0000000E+04;  0.0000000E+00;  0.0000000E+00;  4.0000000E+04;  0.0000000E+00;  4.0000000E+04; -2.9340035E-03;  0.0000000E+00; -9.0416208E-05;  9.6576154E+02;
 -5.0000001E-02;  9.9999998E-03;  2.7000001E-01;1435;  0.0000000E+00;  0.0000000E+00;  0.0000000E+00;  1.0023489E+03;  1.0000000E-01;  1.9460190E+03;0;  0.0000000E+00;  0.0000000E+00;  0.0000000E+00;0; -2.8163565E-03;  4.0000000E+04;  0.0000000E+00;  0.0000000E+00;  4.0000000E+04;  0.0000000E+00;  4.0000000E+04; -2.6432970E-03;  0.0000000E+00; -1.7305960E-04;  5.6038202E+02;
 -5.0000001E-02;  9.9999998E-03;  2.8000000E-01;1436;  0.0000000E+00;  0.0000000E+00;  0.0000000E+00;  1.0021047E+03;  1.0000000E-01;  1.7437532E+03;0;  0.0000000E+00;  0.0000000E+00;  0.0000000E+00;0; -2.5959474E-03;  4.0000000E+04;  0.0000000E+00;  0.0000000E+00;  4.0000000E+04;  0.0000000E+00;  4.0000000E+04; -2.3488656E-03;  0.0000000E+00; -2.4708177E-04;  1.9358769E+02;
 -5.0000001E-02;  9.9999998E-03;  2.8999999E-01;1437;  0.0000000E+00;  0.0000000E+00;  0.0000000E+00;  1.0018552E+03;  1.0000000E-01;  1.5369442E+03;0;  0.0000000E+00;  0.0000000E+00;  0.0000000E+00;0; -2.3580028E-03;  4.0000000E+04;  0.0000000E+00;  0.0000000E+00;  4.0000000E+04;  0.0000000E+00;  4.0000000E+04; -2.0520547E-03;  0.0000000E+00; -3.0594808E-04;  3.3610977E+02;
 -5.0000001E-02;  9.9999998E-03;  3.0000001E-01;1438;  0.0000000E+00;  0.0000000E+00;  0.0000000E+00;  1.0016105E+03;  1.0000000E-01;  1.3342832E+03;0;  0.0000000E+00;  0.0000000E+00;  0.0000000E+00;0; -2.1007988E-03;  4.0000000E+04;  0.0000000E+00;  0.0000000E+00;  4.0000000E+04;  0.0000000E+00;  4.0000000E+04; -1.7561070E-03;  0.0000000E+00; -3.4469177E-04;  6.5267462E+02;
 -5.0000001E-02;  9.9999998E-03;  3.1000000E-01;1439;  0.0000000E+00;  0.0000000E+00;  0.0000000E+00;  1.0013621E+03;  1.0000000E-01;  1.1284619E+03;0;  0.0000000E+00;  0.0000000E+00;  0.0000000E+00;0; -1.8279236E-03;  4.0000000E+04;  0.0000000E+00;  0.0000000E+00;  4.0000000E+04;  0.0000000E+00;  4.0000000E+04; -1.4666350E-03;  0.0000000E+00; -3.6128852E-04;  8.9411365E+02;
 -5.0000001E-02;  9.9999998E-03;  3.1999999E-01;1440;  0.0000000E+00;  0.0000000E+00;  0.0000000E+00;  1.0011160E+03;  1.0000000E-01;  9.2451709E+02;0;  0.0000000E+00;  0.0000000E+00;  0.0000000E+00;0; -1.5481989E-03;  4.0000000E+04;  0.0000000E+00;  0.0000000E+00;  4.0000000E+04;  0.0000000E+00;  4.0000000E+04; -1.1910876E-03;  0.0000000E+00; -3.5711119E-04;  1.0389164E+03;
 -5.0000001E-02;  9.9999998E-03;  3.3000001E-01;1441;  0.0000000E+00;  0.0000000E+00;  0.0000000E+00;  1.0008939E+03;  1.0000000E-01;  7.4052228E+02;0;  0.0000000E+00;  0.0000000E+00;  0.0000000E+00;0; -1.2734886E-03;  4.0000000E+04;  0.0000000E+00;  0.0000000E+00;  4.0000000E+04;  0.0000000E+00;  4.0000000E+04; -9.3742355E-04;  0.0000000E+00; -3.3606502E-04;  1.0903995E+03;
 -5.0000001E-02;  9.9999998E-03;  3.4000000E-01;1442;  0.0000000E+00;  0.0000000E+00;  0.0000000E+00;  1.0006949E+03;  1.0000000E-01;  5.7578619E+02;0;  0.0000000E+00;  0.0000000E+00;  0.0000000E+00;0; -1.0156862E-03;  4.0000000E+04;  0.0000000E+00;  0.0000000E+00;  4.0000000E+04;  0.0000000E+00;  4.0000000E+04; -7.1255845E-04;  0.0000000E+00; -3.0312777E-04;  1.0631740E+03;
 -5.0000001E-02;  9.9999998E-03;  3.4999999E-01;1443;  0.0000000E+00;  0.0000000E+00;  0.0000000E+00;  1.0005288E+03;  1.0000000E-01;  4.3811105E+02;0;  0.0000000E+00;  0.0000000E+00;  0.0000000E+00;0; -7.8425999E-04;  4.0000000E+04;  0.0000000E+00;  0.0000000E+00;  4.0000000E+04;  0.0000000E+00;  4.0000000E+04; -5.2115472E-04;  0.0000000E+00; -2.6310529E-04;  9.7650146E+02;
 -5.0000001E-02;  9.9999998E-03;  3.6000001E-01;1444;  0.0000000E+00;  0.0000000E+00;  0.0000000E+00;  1.0003843E+03;  1.0000000E-01;  3.1841074E+02;0;  0.0000000E+00;  0.0000000E+00;  0.0000000E+00;0; -5.8501441E-04;  4.0000000E+04;  0.0000000E+00;  0.0000000E+00;  4.0000000E+04;  0.0000000E+00;  4.0000000E+04; -3.6507045E-04;  0.0000000E+00; -2.1994396E-04;  8.4980920E+02;
 -5.0000001E-02;  9.9999998E-03;  3.7000000E-01;1445;  0.0000000E+00;  0.0000000E+00;  0.0000000E+00;  1.0002610E+03;  1.0000000E-01;  2.1629018E+02;0;  0.0000000E+00;  0.0000000E+00;  0.0000000E+00;0; -4.2002433E-04;  4.0000000E+04;  0.0000000E+00;  0.0000000E+00;  4.0000000E+04;  0.0000000E+00;  4.0000000E+04; -2.4344507E-04;  0.0000000E+00; -1.7657925E-04;  7.0056726E+02;
 -5.0000001E-02;  9.9999998E-03;  3.8000000E-01;1446;  0.0000000E+00;  0.0000000E+00;  0.0000000E+00;  1.0001566E+03;  1.0000000E-01;  1.2977411E+02;0;  0.0000000E+00;  0.0000000E+00;  0.0000000E+00;0; -2.8833741E-04;  4.0000000E+04;  0.0000000E+00;  0.0000000E+00;  4.0000000E+04;  0.0000000E+00;  4.0000000E+04; -1.5322518E-04;  0.0000000E+00; -1.3511222E-04;  5.4375714E+02;
 -5.0000001E-02;  9.9999998E-03;  3.8999999E-01;1447;  0.0000000E+00;  0.0000000E+00;  0.0000000E+00;  1.0000916E+03;  1.0000000E-01;  7.5849709E+01;0;  0.0000000E+00;  0.0000000E+00;  0.0000000E+00;0; -1.8703210E-04;  4.0000000E+04;  0.0000000E+00;  0.0000000E+00;  4.0000000E+04;  0.0000000E+00;  4.0000000E+04; -8.9895657E-05;  0.0000000E+00; -9.7136435E-05;  3.9220386E+02;
 -5.0000001E-02;  9.9999998E-03;  4.0000001E-01;1448;  0.0000000E+00;  0.0000000E+00;  0.0000000E+00;  1.0000590E+03;  1.0000000E-01;  4.8887505E+01;0;  0.0000000E+00;  0.0000000E+00;  0.0000000E+00;0; -1.1231980E-04;  4.0000000E+04;  0.0000000E+00;  0.0000000E+00;  4.0000000E+04;  0.0000000E+00;  4.0000000E+04; -4.8247683E-05;  0.0000000E+00; -6.4072119E-05;  2.5704736E+02;
 -3.9999999E-02;  9.9999998E-03;  2.3999999E-01;1523;  0.0000000E+00;  0.0000000E+00;  0.0000000E+00;  1.0043109E+03;  1.0000000E-01;  3.5714546E+03;0;  0.0000000E+00;  0.0000000E+00;  0.0000000E+00;0; -5.0174515E-03;  4.0000000E+04;  0.0000000E+00;  0.0000000E+00;  4.0000000E+04;  0.0000000E+00;  4.0000000E+04; -5.1057958E-03;  0.0000000E+00;  8.8344197E-05;  2.0135510E+03;
 -3.9999999E-02;  9.9999998E-03;  2.5000000E-01;1524;  0.0000000E+00;  0.0000000E+00;  0.0000000E+00;  1.0039724E+03;  1.0000000E-01;  3.2909688E+03;0;  0.0000000E+00;  0.0000000E+00;  0.0000000E+00;0; -4.7042053E-03;  4.0000000E+04;  0.0000000E+00;  0.0000000E+00;  4.0000000E+04;  0.0000000E+00;  4.0000000E+04; -4.6959342E-03;  0.0000000E+00; -8.2709594E-06;  1.6805922E+03;
 -3.9999999E-02;  9.9999998E-03;  2.5999999E-01;1525;  0.0000000E+00;  0.0000000E+00;  0.0000000E+00;  1.0036349E+03;  1.0000000E-01;  3.0114705E+03;0;  0.0000000E+00;  0.0000000E+00;  0.0000000E+00;0; -4.3866248E-03;  4.0000000E+04;  0.0000000E+00;  0.0000000E+00;  4.0000000E+04;  0.0000000E+00;  4.0000000E+04; -4.2750263E-03;  0.0000000E+00; -1.1159857E-04;  1.2446797E+03;
 -3.9999999E-02;  9.9999998E-03;  2.7000001E-01;1526;  0.0000000E+00;  0.0000000E+00;  0.0000000E+00;  1.0032965E+03;  1.0000000E-01;  2.7310833E+03;0;  0.0000000E+00;  0.0000000E+00;  0.0000000E+00;0; -4.0600174E-03;  4.0000000E+04;  0.0000000E+00;  0.0000000E+00;  4.0000000E+04;  0.0000000E+00;  4.0000000E+04; -3.8459087E-03;  0.0000000E+00; -2.1410857E-04;  7.4467865E+02;
 -3.9999999E-02;  9.9999998E-03;  2.8000000E-01;1527;  0.0000000E+00;  0.0000000E+00;  0.0000000E+00;  1.0029565E+03;  1.0000000E-01;  2.4494121E+03;0;  0.0000000E+00;  0.0000000E+00;  0.0000000E+00;0; -3.7176607E-03;  4.0000000E+04;  0.0000000E+00;  0.0000000E+00;  4.0000000E+04;  0.0000000E+00;  4.0000000E+04; -3.4105894E-03;  0.0000000E+00; -3.0707128E-04;  2.7924765E+02;
 -3.9999999E-02;  9.9999998E-03;  2.8999999E-01;1528;  0.0000000E+00;  0.0000000E+00;  0.0000000E+00;  1.0026050E+03;  1.0000000E-01;  2.1582600E+03;0;  0.0000000E+00;  0.0000000E+00;  0.0000000E+00;0; -3.3538591E-03;  4.0000000E+04;  0.0000000E+00;  0.0000000E+00;  4.0000000E+04;  0.0000000E+00;  4.0000000E+04; -2.9721125E-03;  0.0000000E+00; -3.8174656E-04;  4.0053845E+02;
 -3.9999999E-02;  9.9999998E-03;  3.0000001E-01;1529;  0.0000000E+00;  0.0000000E+00;  0.0000000E+00;  1.0022531E+03;  1.0000000E-01;  1.8666139E+03;0;  0.0000000E+00;  0.0000000E+00;  0.0000000E+00;0; -2.9674489E-03;  4.0000000E+04;  0.0000000E+00;  0.0000000E+00;  4.0000000E+04;  0.0000000E+00;  4.0000000E+04; -2.5362414E-03;  0.0000000E+00; -4.3120753E-04;  7.9588879E+02;
 -3.9999999E-02;  9.9999998E-03;  3.1000000E-01;1530;  0.0000000E+00;  0.0000000E+00;  0.0000000E+00;  1.0019029E+03;  1.0000000E-01;  1.5765480E+03;0;  0.0000000E+00;  0.0000000E+00;  0.0000000E+00;0; -2.5645138E-03;  4.0000000E+04;  0.0000000E+00;  0.0000000E+00;  4.0000000E+04;  0.0000000E+00;  4.0000000E+04; -2.1120198E-03;  0.0000000E+00; -4.5249393E-04;  1.1034222E+03;
 -3.9999999E-02;  9.9999998E-03;  3.1999999E-01;1531;  0.0000000E+00;  0.0000000E+00;  0.0000000E+00;  1.0015665E+03;  1.0000000E-01;  1.2978398E+03;0;  0.0000000E+00;  0.0000000E+00;  0.0000000E+00;0; -2.1581845E-03;  4.0000000E+04;  0.0000000E+00;  0.0000000E+00;  4.0000000E+04;  0.0000000E+00;  4.0000000E+04; -1.7107995E-03;  0.0000000E+00; -4.4738498E-04;  1.2906947E+03;
 -3.9999999E-02;  9.9999998E-03;  3.3000001E-01;1532;  0.0000000E+00;  0.0000000E+00;  0.0000000E+00;  1.0012606E+03;  1.0000000E-01;  1.0443162E+03;0;  0.0000000E+00;  0.0000000E+00;  0.0000000E+00;0; -1.7651831E-03;  4.0000000E+04;  0.0000000E+00;  0.0000000E+00;  4.0000000E+04;  0.0000000E+00;  4.0000000E+04; -1.3440764E-03;  0.0000000E+00; -4.2110673E-04;  1.3617634E+03;
 -3.9999999E-02;  9.9999998E-03;  3.4000000E-01;1533;  0.0000000E+00;  0.0000000E+00;  0.0000000E+00;  1.0009709E+03;  1.0000000E-01;  8.0432294E+02;0;  0.0000000E+00;  0.0000000E+00;  0.0000000E+00;0; -1.4014256E-03;  4.0000000E+04;  0.0000000E+00;  0.0000000E+00;  4.0000000E+04;  0.0000000E+00;  4.0000000E+04; -1.0212199E-03;  0.0000000E+00; -3.8020566E-04;  1.3353845E+03;
 -3.9999999E-02;  9.9999998E-03;  3.4999999E-01;1534;  0.0000000E+00;  0.0000000E+00;  0.0000000E+00;  1.0007311E+03;  1.0000000E-01;  6.0571124E+02;0;  0.0000000E+00;  0.0000000E+00;  0.0000000E+00;0; -1.0788090E-03;  4.0000000E+04;  0.0000000E+00;  0.0000000E+00;  4.0000000E+04;  0.0000000E+00;  4.0000000E+04; -7.4797211E-04;  0.0000000E+00; -3.3083689E-04;  1.2355492E+03;
 -3.9999999E-02;  9.9999998E-03;  3.6000001E-01;1535;  0.0000000E+00;  0.0000000E+00;  0.0000000E+00;  1.0005438E+03;  1.0000000E-01;  4.5055515E+02;0;  0.0000000E+00;  0.0000000E+00;  0.0000000E+00;0; -8.0388202E-04;  4.0000000E+04;  0.0000000E+00;  0.0000000E+00;  4.0000000E+04;  0.0000000E+00;  4.0000000E+04; -5.2597909E-04;  0.0000000E+00; -2.7790290E-04;  1.0858237E+03;
 -3.9999999E-02;  9.9999998E-03;  3.7000000E-01;1536;  0.0000000E+00;  0.0000000E+00;  0.0000000E+00;  1.0003863E+03;  1.0000000E-01;  3.1999094E+02;0;  0.0000000E+00;  0.0000000E+00;  0.0000000E+00;0; -5.7809992E-04;  4.0000000E+04;  0.0000000E+00;  0.0000000E+00;  4.0000000E+04;  0.0000000E+00;  4.0000000E+04; -3.5318590E-04;  0.0000000E+00; -2.2491401E-04;  9.0694110E+02;
 -3.9999999E-02;  9.9999998E-03;  3.8000000E-01;1537;  0.0000000E+00;  0.0000000E+00;  0.0000000E+00;  1.0002475E+03;  1.0000000E-01;  2.0503123E+02;0;  0.0000000E+00;  0.0000000E+00;  0.0000000E+00;0; -3.9898360E-04;  4.0000000E+04;  0.0000000E+00;  0.0000000E+00;  4.0000000E+04;  0.0000000E+00;  4.0000000E+04; -2.2472508E-04;  0.0000000E+00; -1.7425850E-04;  7.1633075E+02;
 -3.9999999E-02;  9.9999998E-03;  3.8999999E-01;1538;  0.0000000E+00;  0.0000000E+00;  0.0000000E+00;  1.0001362E+03;  1.0000000E-01;  1.1278693E+02;0;  0.0000000E+00;  0.0000000E+00;  0.0000000E+00;0; -2.6162947E-04;  4.0000000E+04;  0.0000000E+00;  0.0000000E+00;  4.0000000E+04;  0.0000000E+00;  4.0000000E+04; -1.3398450E-04;  0.0000000E+00; -1.2764496E-04;  5.2890790E+02;
 -3.9999999E-02;  9.9999998E-03;  4.0000001E-01;1539;  0.0000000E+00;  0.0000000E+00;  0.0000000E+00;  1.0000756E+03;  1.0000000E-01;  6.2615513E+01;0;  0.0000000E+00;  0.0000000E+00;  0.0000000E+00;0; -1.6017468E-04;  4.0000000E+04;  0.0000000E+00;  0.0000000E+00;  4.0000000E+04;  0.0000000E+00;  4.0000000E+04; -7.3613919E-05;  0.0000000E+00; -8.6560765E-05;  3.5790137E+02;
 -2.9999999E-02;  9.9999998E-03;  2.3999999E-01;1614;  0.0000000E+00;  0.0000000E+00;  0.0000000E+00;  1.0057791E+03;  1.0000000E-01;  4.7879141E+03;0;  0.0000000E+00;  0.0000000E+00;  0.0000000E+00;0; -6.9012800E-03;  4.0000000E+04;  0.0000000E+00;  0.0000000E+00;  4.0000000E+04;  0.0000000E+00;  4.0000000E+04; -7.0020221E-03;  0.0000000E+00;  1.0074199E-04;  2.4282537E+03;
 -2.9999999E-02;  9.9999998E-03;  2.5000000E-01;1615;  0.0000000E+00;  0.0000000E+00;  0.0000000E+00;  1.0053305E+03;  1.0000000E-01;  4.4162700E+03;0;  0.0000000E+00;  0.0000000E+00;  0.0000000E+00;0; -6.4518182E-03;  4.0000000E+04;  0.0000000E+00;  0.0000000E+00;  4.0000000E+04;  0.0000000E+00;  4.0000000E+04; -6.4408267E-03;  0.0000000E+00; -1.0991509E-05;  2.0567627E+03;
 -2.9999999E-02;  9.9999998E-03;  2.5999999E-01;1616;  0.0000000E+00;  0.0000000E+00;  0.0000000E+00;  1.0048845E+03;  1.0000000E-01;  4.0467004E+03;0;  0.0000000E+00;  0.0000000E+00;  0.0000000E+00;0; -5.9939907E-03;  4.0000000E+04;  0.0000000E+00;  0.0000000E+00;  4.0000000E+04;  0.0000000E+00;  4.0000000E+04; -5.8614532E-03;  0.0000000E+00; -1.3253746E-04;  1.5503575E+03;
 -2.9999999E-02;  9.9999998E-03;  2.7000001E-01;1617;  0.0000000E+00;  0.0000000E+00;  0.0000000E+00;  1.0044305E+03;  1.0000000E-01;  3.6706123E+03;0;  0.0000000E+00;  0.0000000E+00;  0.0000000E+00;0; -5.5238544E-03;  4.0000000E+04;  0.0000000E+00;  0.0000000E+00;  4.0000000E+04;  0.0000000E+00;  4.0000000E+04; -5.2686702E-03;  0.0000000E+00; -2.5518416E-04;  9.5454297E+02;
 -2.9999999E-02;  9.9999998E-03;  2.8000000E-01;1618;  0.0000000E+00;  0.0000000E+00;  0.0000000E+00;  1.0039705E+03;  1.0000000E-01;  3.2894873E+03;0;  0.0000000E+00;  0.0000000E+00;  0.0000000E+00;0; -5.0343298E-03;  4.0000000E+04;  0.0000000E+00;  0.0000000E+00;  4.0000000E+04;  0.0000000E+00;  4.0000000E+04; -4.6661291E-03;  0.0000000E+00; -3.6820053E-04;  3.8328500E+02;
 -2.9999999E-02;  9.9999998E-03;  2.8999999E-01;1619;  0.0000000E+00;  0.0000000E+00;  0.0000000E+00;  1.0035029E+03;  1.0000000E-01;  2.9020413E+03;0;  0.0000000E+00;  0.0000000E+00;  0.0000000E+00;0; -4.5190132E-03;  4.0000000E+04;  0.0000000E+00;  0.0000000E+00;  4.0000000E+04;  0.0000000E+00;  4.0000000E+04; -4.0589073E-03;  0.0000000E+00; -4.6010601E-04;  4.6146594E+02;
 -2.9999999E-02;  9.9999998E-03;  3.0000001E-01;1620;  0.0000000E+00;  0.0000000E+00;  0.0000000E+00;  1.0030319E+03;  1.0000000E-01;  2.5119290E+03;0;  0.0000000E+00;  0.0000000E+00;  0.0000000E+00;0; -3.9771479E-03;  4.0000000E+04;  0.0000000E+00;  0.0000000E+00;  4.0000000E+04;  0.0000000E+00;  4.0000000E+04; -3.4559176E-03;  0.0000000E+00; -5.2123016E-04;  9.3639661E+02;
 -2.9999999E-02;  9.9999998E-03;  3.1000000E-01;1621;  0.0000000E+00;  0.0000000E+00;  0.0000000E+00;  1.0025571E+03;  1.0000000E-01;  2.1185574E+03;0;  0.0000000E+00;  0.0000000E+00;  0.0000000E+00;0; -3.4180288E-03;  4.0000000E+04;  0.0000000E+00;  0.0000000E+00;  4.0000000E+04;  0.0000000E+00;  4.0000000E+04; -2.8707772E-03;  0.0000000E+00; -5.4725172E-04;  1.3119961E+03;
 -2.9999999E-02;  9.9999998E-03;  3.1999999E-01;1622;  0.0000000E+00;  0.0000000E+00;  0.0000000E+00;  1.0021086E+03;  1.0000000E-01;  1.7469136E+03;0;  0.0000000E+00;  0.0000000E+00;  0.0000000E+00;0; -2.8605866E-03;  4.0000000E+04;  0.0000000E+00;  0.0000000E+00;  4.0000000E+04;  0.0000000E+00;  4.0000000E+04; -2.3200426E-03;  0.0000000E+00; -5.4054410E-04;  1.5416229E+03;
 -2.9999999E-02;  9.9999998E-03;  3.3000001E-01;1623;  0.0000000E+00;  0.0000000E+00;  0.0000000E+00;  1.0016914E+03;  1.0000000E-01;  1.4013431E+03;0;  0.0000000E+00;  0.0000000E+00;  0.0000000E+00;0; -2.3277681E-03;  4.0000000E+04;  0.0000000E+00;  0.0000000E+00;  4.0000000E+04;  0.0000000E+00;  4.0000000E+04; -1.8196817E-03;  0.0000000E+00; -5.0808652E-04;  1.6311962E+03;
 -2.9999999E-02;  9.9999998E-03;  3.4000000E-01;1624;  0.0000000E+00;  0.0000000E+00;  0.0000000E+00;  1.0013187E+03;  1.0000000E-01;  1.0925123E+03;0;  0.0000000E+00;  0.0000000E+00;  0.0000000E+00;0; -1.8401956E-03;  4.0000000E+04;  0.0000000E+00;  0.0000000E+00;  4.0000000E+04;  0.0000000E+00;  4.0000000E+04; -1.3818691E-03;  0.0000000E+00; -4.5832660E-04;  1.6048099E+03;
 -2.9999999E-02;  9.9999998E-03;  3.4999999E-01;1625;  0.0000000E+00;  0.0000000E+00;  0.0000000E+00;  1.0009987E+03;  1.0000000E-01;  8.2743341E+02;0;  0.0000000E+00;  0.0000000E+00;  0.0000000E+00;0; -1.4121884E-03;  4.0000000E+04;  0.0000000E+00;  0.0000000E+00;  4.0000000E+04;  0.0000000E+00;  4.0000000E+04; -1.0132601E-03;  0.0000000E+00; -3.9892836E-04;  1.4918281E+03;
 -2.9999999E-02;  9.9999998E-03;  3.6000001E-01;1626;  0.0000000E+00;  0.0000000E+00;  0.0000000E+00;  1.0007341E+03;  1.0000000E-01;  6.0818036E+02;0;  0.0000000E+00;  0.0000000E+00;  0.0000000E+00;0; -1.0506343E-03;  4.0000000E+04;  0.0000000E+00;  0.0000000E+00;  4.0000000E+04;  0.0000000E+00;  4.0000000E+04; -7.1484095E-04;  0.0000000E+00; -3.3579330E-04;  1.3200587E+03;
 -2.9999999E-02;  9.9999998E-03;  3.7000000E-01;1627;  0.0000000E+00;  0.0000000E+00;  0.0000000E+00;  1.0005193E+03;  1.0000000E-01;  4.3030881E+02;0;  0.0000000E+00;  0.0000000E+00;  0.0000000E+00;0; -7.5581315E-04;  4.0000000E+04;  0.0000000E+00;  0.0000000E+00;  4.0000000E+04;  0.0000000E+00;  4.0000000E+04; -4.8281762E-04;  0.0000000E+00; -2.7299553E-04;  1.1131897E+03;
 -2.9999999E-02;  9.9999998E-03;  3.8000000E-01;1628;  0.0000000E+00;  0.0000000E+00;  0.0000000E+00;  1.0003640E+03;  1.0000000E-01;  3.0152234E+02;0;  0.0000000E+00;  0.0000000E+00;  0.0000000E+00;0; -5.2318838E-04;  4.0000000E+04;  0.0000000E+00;  0.0000000E+00;  4.0000000E+04;  0.0000000E+00;  4.0000000E+04; -3.1000623E-04;  0.0000000E+00; -2.1318218E-04;  8.9075714E+02;
 -2.9999999E-02;  9.9999998E-03;  3.8999999E-01;1629;  0.0000000E+00;  0.0000000E+00;  0.0000000E+00;  1.0002258E+03;  1.0000000E-01;  1.8705644E+02;0;  0.0000000E+00;  0.0000000E+00;  0.0000000E+00;0; -3.4541322E-04;  4.0000000E+04;  0.0000000E+00;  0.0000000E+00;  4.0000000E+04;  0.0000000E+00;  4.0000000E+04; -1.8727985E-04;  0.0000000E+00; -1.5813339E-04;  6.6933923E+02;
 -2.9999999E-02;  9.9999998E-03;  4.0000001E-01;1630;  0.0000000E+00;  0.0000000E+00;  0.0000000E+00;  1.0001212E+03;  1.0000000E-01;  1.0034284E+02;0;  0.0000000E+00;  0.0000000E+00;  0.0000000E+00;0; -2.1416452E-04;  4.0000000E+04;  0.0000000E+00;  0.0000000E+00;  4.0000000E+04;  0.0000000E+00;  4.0000000E+04; -1.0482990E-04;  0.0000000E+00; -1.0933462E-04;  4.6387820E+02;
 -2.0000000E-02;  9.9999998E-03;  2.3999999E-01;1705;  0.0000000E+00;  0.0000000E+00;  0.0000000E+00;  1.0074376E+03;  1.0000000E-01;  6.1618999E+03;0;  0.0000000E+00;  0.0000000E+00;  0.0000000E+00;0; -8.9931358E-03;  4.0000000E+04;  0.0000000E+00;  0.0000000E+00;  4.0000000E+04;  0.0000000E+00;  4.0000000E+04; -9.1023240E-03;  0.0000000E+00;  1.0918864E-04;  2.8279092E+03;
 -2.0000000E-02;  9.9999998E-03;  2.5000000E-01;1706;  0.0000000E+00;  0.0000000E+00;  0.0000000E+00;  1.0068685E+03;  1.0000000E-01;  5.6904067E+03;0;  0.0000000E+00;  0.0000000E+00;  0.0000000E+00;0; -8.3883423E-03;  4.0000000E+04;  0.0000000E+00;  0.0000000E+00;  4.0000000E+04;  0.0000000E+00;  4.0000000E+04; -8.3739432E-03;  0.0000000E+00; -1.4398937E-05;  2.4362266E+03;
 -2.0000000E-02;  9.9999998E-03;  2.5999999E-01;1707;  0.0000000E+00;  0.0000000E+00;  0.0000000E+00;  1.0062960E+03;  1.0000000E-01;  5.2161489E+03;0;  0.0000000E+00;  0.0000000E+00;  0.0000000E+00;0; -7.7700270E-03;  4.0000000E+04;  0.0000000E+00;  0.0000000E+00;  4.0000000E+04;  0.0000000E+00;  4.0000000E+04; -7.6183514E-03;  0.0000000E+00; -1.5167583E-04;  1.8725813E+03;
 -2.0000000E-02;  9.9999998E-03;  2.7000001E-01;1708;  0.0000000E+00;  0.0000000E+00;  0.0000000E+00;  1.0057140E+03;  1.0000000E-01;  4.7338906E+03;0;  0.0000000E+00;  0.0000000E+00;  0.0000000E+00;0; -7.1358033E-03;  4.0000000E+04;  0.0000000E+00;  0.0000000E+00;  4.0000000E+04;  0.0000000E+00;  4.0000000E+04; -6.8427064E-03;  0.0000000E+00; -2.9309720E-04;  1.1879248E+03;
 -2.0000000E-02;  9.9999998E-03;  2.8000000E-01;1709;  0.0000000E+00;  0.0000000E+00;  0.0000000E+00;  1.0051245E+03;  1.0000000E-01;  4.2456084E+03;0;  0.0000000E+00;  0.0000000E+00;  0.0000000E+00;0; -6.4788335E-03;  4.0000000E+04;  0.0000000E+00;  0.0000000E+00;  4.0000000E+04;  0.0000000E+00;  4.0000000E+04; -6.0527138E-03;  0.0000000E+00; -4.2611978E-04;  5.1188419E+02;
 -2.0000000E-02;  9.9999998E-03;  2.8999999E-01;1710;  0.0000000E+00;  0.0000000E+00;  0.0000000E+00;  1.0045233E+03;  1.0000000E-01;  3.7474495E+03;0;  0.0000000E+00;  0.0000000E+00;  0.0000000E+00;0; -5.7919445E-03;  4.0000000E+04;  0.0000000E+00;  0.0000000E+00;  4.0000000E+04;  0.0000000E+00;  4.0000000E+04; -5.2557969E-03;  0.0000000E+00; -5.3614756E-04;  5.1857721E+02;
 -2.0000000E-02;  9.9999998E-03;  3.0000001E-01;1711;  0.0000000E+00;  0.0000000E+00;  0.0000000E+00;  1.0039119E+03;  1.0000000E-01;  3.2409949E+03;0;  0.0000000E+00;  0.0000000E+00;  0.0000000E+00;0; -5.0742715E-03;  4.0000000E+04;  0.0000000E+00;  0.0000000E+00;  4.0000000E+04;  0.0000000E+00;  4.0000000E+04; -4.4646505E-03;  0.0000000E+00; -6.0962082E-04;  1.0646389E+03;
 -2.0000000E-02;  9.9999998E-03;  3.1000000E-01;1712;  0.0000000E+00;  0.0000000E+00;  0.0000000E+00;  1.0033073E+03;  1.0000000E-01;  2.7400706E+03;0;  0.0000000E+00;  0.0000000E+00;  0.0000000E+00;0; -4.3389192E-03;  4.0000000E+04;  0.0000000E+00;  0.0000000E+00;  4.0000000E+04;  0.0000000E+00;  4.0000000E+04; -3.6987299E-03;  0.0000000E+00; -6.4018939E-04;  1.5047465E+03;
 -2.0000000E-02;  9.9999998E-03;  3.1999999E-01;1713;  0.0000000E+00;  0.0000000E+00;  0.0000000E+00;  1.0027305E+03;  1.0000000E-01;  2.2621582E+03;0;  0.0000000E+00;  0.0000000E+00;  0.0000000E+00;0; -3.6124249E-03;  4.0000000E+04;  0.0000000E+00;  0.0000000E+00;  4.0000000E+04;  0.0000000E+00;  4.0000000E+04; -2.9812187E-03;  0.0000000E+00; -6.3120626E-04;  1.7724908E+03;
 -2.0000000E-02;  9.9999998E-03;  3.3000001E-01;1714;  0.0000000E+00;  0.0000000E+00;  0.0000000E+00;  1.0021923E+03;  1.0000000E-01;  1.8162449E+03;0;  0.0000000E+00;  0.0000000E+00;  0.0000000E+00;0; -2.9252830E-03;  4.0000000E+04;  0.0000000E+00;  0.0000000E+00;  4.0000000E+04;  0.0000000E+00;  4.0000000E+04; -2.3333761E-03;  0.0000000E+00; -5.9190701E-04;  1.8770116E+03;
 -2.0000000E-02;  9.9999998E-03;  3.4000000E-01;1715;  0.0000000E+00;  0.0000000E+00;  0.0000000E+00;  1.0017051E+03;  1.0000000E-01;  1.4127008E+03;0;  0.0000000E+00;  0.0000000E+00;  0.0000000E+00;0; -2.3030336E-03;  4.0000000E+04;  0.0000000E+00;  0.0000000E+00;  4.0000000E+04;  0.0000000E+00;  4.0000000E+04; -1.7701611E-03;  0.0000000E+00; -5.3287245E-04;  1.8489899E+03;
 -2.0000000E-02;  9.9999998E-03;  3.4999999E-01;1716;  0.0000000E+00;  0.0000000E+00;  0.0000000E+00;  1.0012997E+03;  1.0000000E-01;  1.0768091E+03;0;  0.0000000E+00;  0.0000000E+00;  0.0000000E+00;0; -1.7619173E-03;  4.0000000E+04;  0.0000000E+00;  0.0000000E+00;  4.0000000E+04;  0.0000000E+00;  4.0000000E+04; -1.2986173E-03;  0.0000000E+00; -4.6329992E-04;  1.7234453E+03;
 -2.0000000E-02;  9.9999998E-03;  3.6000001E-01;1717;  0.0000000E+00;  0.0000000E+00;  0.0000000E+00;  1.0009501E+03;  1.0000000E-01;  7.8713824E+02;0;  0.0000000E+00;  0.0000000E+00;  0.0000000E+00;0; -1.3084032E-03;  4.0000000E+04;  0.0000000E+00;  0.0000000E+00;  4.0000000E+04;  0.0000000E+00;  4.0000000E+04; -9.1836805E-04;  0.0000000E+00; -3.9003516E-04;  1.5320109E+03;
 -2.0000000E-02;  9.9999998E-03;  3.7000000E-01;1718;  0.0000000E+00;  0.0000000E+00;  0.0000000E+00;  1.0006802E+03;  1.0000000E-01;  5.6353961E+02;0;  0.0000000E+00;  0.0000000E+00;  0.0000000E+00;0; -9.4090565E-04;  4.0000000E+04;  0.0000000E+00;  0.0000000E+00;  4.0000000E+04;  0.0000000E+00;  4.0000000E+04; -6.2323298E-04;  0.0000000E+00; -3.1767268E-04;  1.3007318E+03;
 -2.0000000E-02;  9.9999998E-03;  3.8000000E-01;1719;  0.0000000E+00;  0.0000000E+00;  0.0000000E+00;  1.0004619E+03;  1.0000000E-01;  3.8260648E+02;0;  0.0000000E+00;  0.0000000E+00;  0.0000000E+00;0; -6.5228995E-04;  4.0000000E+04;  0.0000000E+00;  0.0000000E+00;  4.0000000E+04;  0.0000000E+00;  4.0000000E+04; -4.0319088E-04;  0.0000000E+00; -2.4909904E-04;  1.0507312E+03;
 -2.0000000E-02;  9.9999998E-03;  3.8999999E-01;1720;  0.0000000E+00;  0.0000000E+00;  0.0000000E+00;  1.0002960E+03;  1.0000000E-01;  2.4522763E+02;0;  0.0000000E+00;  0.0000000E+00;  0.0000000E+00;0; -4.3241651E-04;  4.0000000E+04;  0.0000000E+00;  0.0000000E+00;  4.0000000E+04;  0.0000000E+00;  4.0000000E+04; -2.4625318E-04;  0.0000000E+00; -1.8616334E-04;  7.9975836E+02;
 -2.0000000E-02;  9.9999998E-03;  4.0000001E-01;1721;  0.0000000E+00;  0.0000000E+00;  0.0000000E+00;  1.0001624E+03;  1.0000000E-01;  1.3451471E+02;0;  0.0000000E+00;  0.0000000E+00;  0.0000000E+00;0; -2.7028320E-04;  4.0000000E+04;  0.0000000E+00;  0.0000000E+00;  4.0000000E+04;  0.0000000E+00;  4.0000000E+04; -1.3995486E-04;  0.0000000E+00; -1.3032835E-04;  5.6407196E+02;
 -9.9999998E-03;  9.9999998E-03;  2.3999999E-01;1796;  0.0000000E+00;  0.0000000E+00;  0.0000000E+00;  1.0092192E+03;  1.0000000E-01;  7.6379072E+03;0;  0.0000000E+00;  0.0000000E+00;  0.0000000E+00;0; -1.1167937E-02;  4.0000000E+04;  0.0000000E+00;  0.0000000E+00;  4.0000000E+04;  0.0000000E+00;  4.0000000E+04; -1.1279349E-02;  0.0000000E+00;  1.1141237E-04;  3.1811228E+03;
 -9.9999998E-03;  9.9999998E-03;  2.5000000E-01;1797;  0.0000000E+00;  0.0000000E+00;  0.0000000E+00;  1.0085225E+03;  1.0000000E-01;  7.0607388E+03;0;  0.0000000E+00;  0.0000000E+00;  0.0000000E+00;0; -1.0395601E-02;  4.0000000E+04;  0.0000000E+00;  0.0000000E+00;  4.0000000E+04;  0.0000000E+00;  4.0000000E+04; -1.0376707E-02;  0.0000000E+00; -1.8894871E-05;  2.7956069E+03;
 -9.9999998E-03;  9.9999998E-03;  2.5999999E-01;1798;  0.0000000E+00;  0.0000000E+00;  0.0000000E+00;  1.0078196E+03;  1.0000000E-01;  6.4783354E+03;0;  0.0000000E+00;  0.0000000E+00;  0.0000000E+00;0; -9.6026370E-03;  4.0000000E+04;  0.0000000E+00;  0.0000000E+00;  4.0000000E+04;  0.0000000E+00;  4.0000000E+04; -9.4353901E-03;  0.0000000E+00; -1.6724721E-04;  2.1982236E+03;
 -9.9999998E-03;  9.9999998E-03;  2.7000001E-01;1799;  0.0000000E+00;  0.0000000E+00;  0.0000000E+00;  1.0071036E+03;  1.0000000E-01;  5.8851670E+03;0;  0.0000000E+00;  0.0000000E+00;  0.0000000E+00;0; -8.7893987E-03;  4.0000000E+04;  0.0000000E+00;  0.0000000E+00;  4.0000000E+04;  0.0000000E+00;  4.0000000E+04; -8.4656533E-03;  0.0000000E+00; -3.2374542E-04;  1.4432834E+03;
 -9.9999998E-03;  9.9999998E-03;  2.8000000E-01;1800;  0.0000000E+00;  0.0000000E+00;  0.0000000E+00;  1.0063726E+03;  1.0000000E-01;  5.2795542E+03;0;  0.0000000E+00;  0.0000000E+00;  0.0000000E+00;0; -7.9509029E-03;  4.0000000E+04;  0.0000000E+00;  0.0000000E+00;  4.0000000E+04;  0.0000000E+00;  4.0000000E+04; -7.4762395E-03;  0.0000000E+00; -4.7466301E-04;  6.7572223E+02;
 -9.9999998E-03;  9.9999998E-03;  2.8999999E-01;1801;  0.0000000E+00;  0.0000000E+00;  0.0000000E+00;  1.0056286E+03;  1.0000000E-01;  4.6631768E+03;0;  0.0000000E+00;  0.0000000E+00;  0.0000000E+00;0; -7.0804199E-03;  4.0000000E+04;  0.0000000E+00;  0.0000000E+00;  4.0000000E+04;  0.0000000E+00;  4.0000000E+04; -6.4777452E-03;  0.0000000E+00; -6.0267479E-04;  5.7734680E+02;
 -9.9999998E-03;  9.9999998E-03;  3.0000001E-01;1802;  0.0000000E+00;  0.0000000E+00;  0.0000000E+00;  1.0048770E+03;  1.0000000E-01;  4.0404783E+03;0;  0.0000000E+00;  0.0000000E+00;  0.0000000E+00;0; -6.1760666E-03;  4.0000000E+04;  0.0000000E+00;  0.0000000E+00;  4.0000000E+04;  0.0000000E+00;  4.0000000E+04; -5.4871589E-03;  0.0000000E+00; -6.8890763E-04;  1.1696490E+03;
 -9.9999998E-03;  9.9999998E-03;  3.1000000E-01;1803;  0.0000000E+00;  0.0000000E+00;  0.0000000E+00;  1.0041265E+03;  1.0000000E-01;  3.4187676E+03;0;  0.0000000E+00;  0.0000000E+00;  0.0000000E+00;0; -5.2547771E-03;  4.0000000E+04;  0.0000000E+00;  0.0000000E+00;  4.0000000E+04;  0.0000000E+00;  4.0000000E+04; -4.5308643E-03;  0.0000000E+00; -7.2391267E-04;  1.6637926E+03;
 -9.9999998E-03;  9.9999998E-03;  3.1999999E-01;1804;  0.0000000E+00;  0.0000000E+00;  0.0000000E+00;  1.0033990E+03;  1.0000000E-01;  2.8160190E+03;0;  0.0000000E+00;  0.0000000E+00;  0.0000000E+00;0; -4.3525212E-03;  4.0000000E+04;  0.0000000E+00;  0.0000000E+00;  4.0000000E+04;  0.0000000E+00;  4.0000000E+04; -3.6399108E-03;  0.0000000E+00; -7.1261032E-04;  1.9614866E+03;
 -9.9999998E-03;  9.9999998E-03;  3.3000001E-01;1805;  0.0000000E+00;  0.0000000E+00;  0.0000000E+00;  1.0027253E+03;  1.0000000E-01;  2.2579114E+03;0;  0.0000000E+00;  0.0000000E+00;  0.0000000E+00;0; -3.5079154E-03;  4.0000000E+04;  0.0000000E+00;  0.0000000E+00;  4.0000000E+04;  0.0000000E+00;  4.0000000E+04; -2.8411329E-03;  0.0000000E+00; -6.6678261E-04;  2.0758921E+03;
 -9.9999998E-03;  9.9999998E-03;  3.4000000E-01;1806;  0.0000000E+00;  0.0000000E+00;  0.0000000E+00;  1.0021356E+03;  1.0000000E-01;  1.7693326E+03;0;  0.0000000E+00;  0.0000000E+00;  0.0000000E+00;0; -2.7507546E-03;  4.0000000E+04;  0.0000000E+00;  0.0000000E+00;  4.0000000E+04;  0.0000000E+00;  4.0000000E+04; -2.1516327E-03;  0.0000000E+00; -5.9912191E-04;  2.0450107E+03;
 -9.9999998E-03;  9.9999998E-03;  3.4999999E-01;1807;  0.0000000E+00;  0.0000000E+00;  0.0000000E+00;  1.0016174E+03;  1.0000000E-01;  1.3399127E+03;0;  0.0000000E+00;  0.0000000E+00;  0.0000000E+00;0; -2.0981075E-03;  4.0000000E+04;  0.0000000E+00;  0.0000000E+00;  4.0000000E+04;  0.0000000E+00;  4.0000000E+04; -1.5779313E-03;  0.0000000E+00; -5.2017608E-04;  1.9088756E+03;
 -9.9999998E-03;  9.9999998E-03;  3.6000001E-01;1808;  0.0000000E+00;  0.0000000E+00;  0.0000000E+00;  1.0011924E+03;  1.0000000E-01;  9.8782391E+02;0;  0.0000000E+00;  0.0000000E+00;  0.0000000E+00;0; -1.5550493E-03;  4.0000000E+04;  0.0000000E+00;  0.0000000E+00;  4.0000000E+04;  0.0000000E+00;  4.0000000E+04; -1.1174564E-03;  0.0000000E+00; -4.3759303E-04;  1.7019265E+03;
 -9.9999998E-03;  9.9999998E-03;  3.7000000E-01;1809;  0.0000000E+00;  0.0000000E+00;  0.0000000E+00;  1.0008439E+03;  1.0000000E-01;  6.9914075E+02;0;  0.0000000E+00;  0.0000000E+00;  0.0000000E+00;0; -1.1174355E-03;  4.0000000E+04;  0.0000000E+00;  0.0000000E+00;  4.0000000E+04;  0.0000000E+00;  4.0000000E+04; -7.6100230E-04;  0.0000000E+00; -3.5643316E-04;  1.4517533E+03;
 -9.9999998E-03;  9.9999998E-03;  3.8000000E-01;1810;  0.0000000E+00;  0.0000000E+00;  0.0000000E+00;  1.0005881E+03;  1.0000000E-01;  4.8729486E+02;0;  0.0000000E+00;  0.0000000E+00;  0.0000000E+00;0; -7.7513419E-04;  4.0000000E+04;  0.0000000E+00;  0.0000000E+00;  4.0000000E+04;  0.0000000E+00;  4.0000000E+04; -4.9528817E-04;  0.0000000E+00; -2.7984605E-04;  1.1803510E+03;
 -9.9999998E-03;  9.9999998E-03;  3.8999999E-01;1811;  0.0000000E+00;  0.0000000E+00;  0.0000000E+00;  1.0003945E+03;  1.0000000E-01;  3.2690433E+02;0;  0.0000000E+00;  0.0000000E+00;  0.0000000E+00;0; -5.1504804E-04;  4.0000000E+04;  0.0000000E+00;  0.0000000E+00;  4.0000000E+04;  0.0000000E+00;  4.0000000E+04; -3.0523623E-04;  0.0000000E+00; -2.0981184E-04;  9.0634790E+02;
 -9.9999998E-03;  9.9999998E-03;  4.0000001E-01;1812;  0.0000000E+00;  0.0000000E+00;  0.0000000E+00;  1.0002291E+03;  1.0000000E-01;  1.8982179E+02;0;  0.0000000E+00;  0.0000000E+00;  0.0000000E+00;0; -3.2350371E-04;  4.0000000E+04;  0.0000000E+00;  0.0000000E+00;  4.0000000E+04;  0.0000000E+00;  4.0000000E+04; -1.7567593E-04;  0.0000000E+00; -1.4782778E-04;  6.4698016E+02;
  0.0000000E+00;  9.9999998E-03;  3.0000001E-01;1834;  0.0000000E+00;  0.0000000E+00;  0.0000000E+00;  1.0058745E+03;  1.0000000E-01;  4.8668252E+03;0;  0.0000000E+00;  0.0000000E+00;  0.0000000E+00;0; -7.1727405E-03;  4.0000000E+04;  0.0000000E+00;  0.0000000E+00;  4.0000000E+04;  0.0000000E+00;  4.0000000E+04; -6.4244415E-03;  0.0000000E+00; -7.4829924E-04;  1.2373949E+03;
  0.0000000E+00;  9.9999998E-03;  3.1000000E-01;1835;  0.0000000E+00;  0.0000000E+00;  0.0000000E+00;  1.0049644E+03;  1.0000000E-01;  4.1128711E+03;0;  0.0000000E+00;  0.0000000E+00;  0.0000000E+00;0; -6.0731270E-03;  4.0000000E+04;  0.0000000E+00;  0.0000000E+00;  4.0000000E+04;  0.0000000E+00;  4.0000000E+04; -5.2840207E-03;  0.0000000E+00; -7.8910618E-04;  1.7689152E+03;
  0.0000000E+00;  9.9999998E-03;  3.1999999E-01;1836;  0.0000000E+00;  0.0000000E+00;  0.0000000E+00;  1.0040882E+03;  1.0000000E-01;  3.3869658E+03;0;  0.0000000E+00;  0.0000000E+00;  0.0000000E+00;0; -5.0057429E-03;  4.0000000E+04;  0.0000000E+00;  0.0000000E+00;  4.0000000E+04;  0.0000000E+00;  4.0000000E+04; -4.2285100E-03;  0.0000000E+00; -7.7723310E-04;  2.0863921E+03;
  0.0000000E+00;  9.9999998E-03;  3.3000001E-01;1837;  0.0000000E+00;  0.0000000E+00;  0.0000000E+00;  1.0032765E+03;  1.0000000E-01;  2.7144912E+03;0;  0.0000000E+00;  0.0000000E+00;  0.0000000E+00;0; -4.0166127E-03;  4.0000000E+04;  0.0000000E+00;  0.0000000E+00;  4.0000000E+04;  0.0000000E+00;  4.0000000E+04; -3.2895573E-03;  0.0000000E+00; -7.2705554E-04;  2.2067725E+03;
  0.0000000E+00;  9.9999998E-03;  3.4000000E-01;1838;  0.0000000E+00;  0.0000000E+00;  0.0000000E+00;  1.0025601E+03;  1.0000000E-01;  2.1210264E+03;0;  0.0000000E+00;  0.0000000E+00;  0.0000000E+00;0; -3.1381608E-03;  4.0000000E+04;  0.0000000E+00;  0.0000000E+00;  4.0000000E+04;  0.0000000E+00;  4.0000000E+04; -2.4851151E-03;  0.0000000E+00; -6.5304578E-04;  2.1742439E+03;
  0.0000000E+00;  9.9999998E-03;  3.4999999E-01;1839;  0.0000000E+00;  0.0000000E+00;  0.0000000E+00;  1.0019485E+03;  1.0000000E-01;  1.6142754E+03;0;  0.0000000E+00;  0.0000000E+00;  0.0000000E+00;0; -2.3869383E-03;  4.0000000E+04;  0.0000000E+00;  0.0000000E+00;  4.0000000E+04;  0.0000000E+00;  4.0000000E+04; -1.8201600E-03;  0.0000000E+00; -5.6677847E-04;  2.0320121E+03;
  0.0000000E+00;  9.9999998E-03;  3.6000001E-01;1840;  0.0000000E+00;  0.0000000E+00;  0.0000000E+00;  1.0014482E+03;  1.0000000E-01;  1.1997686E+03;0;  0.0000000E+00;  0.0000000E+00;  0.0000000E+00;0; -1.7658271E-03;  4.0000000E+04;  0.0000000E+00;  0.0000000E+00;  4.0000000E+04;  0.0000000E+00;  4.0000000E+04; -1.2892683E-03;  0.0000000E+00; -4.7655881E-04;  1.8157086E+03;
  0.0000000E+00;  9.9999998E-03;  3.7000000E-01;1841;  0.0000000E+00;  0.0000000E+00;  0.0000000E+00;  1.0010305E+03;  1.0000000E-01;  8.5380304E+02;0;  0.0000000E+00;  0.0000000E+00;  0.0000000E+00;0; -1.2677287E-03;  4.0000000E+04;  0.0000000E+00;  0.0000000E+00;  4.0000000E+04;  0.0000000E+00;  4.0000000E+04; -8.7981077E-04;  0.0000000E+00; -3.8791800E-04;  1.5535529E+03;
  0.0000000E+00;  9.9999998E-03;  3.8000000E-01;1842;  0.0000000E+00;  0.0000000E+00;  0.0000000E+00;  1.0007203E+03;  1.0000000E-01;  5.9672388E+02;0;  0.0000000E+00;  0.0000000E+00;  0.0000000E+00;0; -8.7943883E-04;  4.0000000E+04;  0.0000000E+00;  0.0000000E+00;  4.0000000E+04;  0.0000000E+00;  4.0000000E+04; -5.7507737E-04;  0.0000000E+00; -3.0436149E-04;  1.2680220E+03;
  0.0000000E+00;  9.9999998E-03;  3.8999999E-01;1843;  0.0000000E+00;  0.0000000E+00;  0.0000000E+00;  1.0004813E+03;  1.0000000E-01;  3.9880353E+02;0;  0.0000000E+00;  0.0000000E+00;  0.0000000E+00;0; -5.8502727E-04;  4.0000000E+04;  0.0000000E+00;  0.0000000E+00;  4.0000000E+04;  0.0000000E+00;  4.0000000E+04; -3.5689329E-04;  0.0000000E+00; -2.2813401E-04;  9.7846246E+02;
  0.0000000E+00;  9.9999998E-03;  4.0000001E-01;1844;  0.0000000E+00;  0.0000000E+00;  0.0000000E+00;  1.0002874E+03;  1.0000000E-01;  2.3811673E+02;0;  0.0000000E+00;  0.0000000E+00;  0.0000000E+00;0; -3.6841986E-04;  4.0000000E+04;  0.0000000E+00;  0.0000000E+00;  4.0000000E+04;  0.0000000E+00;  4.0000000E+04; -2.0751078E-04;  0.0000000E+00; -1.6090910E-04;  7.0307495E+02;
  9.9999998E-03;  9.9999998E-03;  3.1000000E-01;1865;  0.0000000E+00;  0.0000000E+00;  0.0000000E+00;  1.0057770E+03;  1.0000000E-01;  4.7861362E+03;0;  0.0000000E+00;  0.0000000E+00;  0.0000000E+00;0; -6.6933138E-03;  4.0000000E+04;  0.0000000E+00;  0.0000000E+00;  4.0000000E+04;  0.0000000E+00;  4.0000000E+04; -5.8659171E-03;  0.0000000E+00; -8.2739675E-04;  1.8007410E+03;
  9.9999998E-03;  9.9999998E-03;  3.1999999E-01;1866;  0.0000000E+00;  0.0000000E+00;  0.0000000E+00;  1.0047554E+03;  1.0000000E-01;  3.9397405E+03;0;  0.0000000E+00;  0.0000000E+00;  0.0000000E+00;0; -5.4941634E-03;  4.0000000E+04;  0.0000000E+00;  0.0000000E+00;  4.0000000E+04;  0.0000000E+00;  4.0000000E+04; -4.6749976E-03;  0.0000000E+00; -8.1916596E-04;  2.1298865E+03;
  9.9999998E-03;  9.9999998E-03;  3.3000001E-01;1867;  0.0000000E+00;  0.0000000E+00;  0.0000000E+00;  1.0038146E+03;  1.0000000E-01;  3.1603057E+03;0;  0.0000000E+00;  0.0000000E+00;  0.0000000E+00;0; -4.3924139E-03;  4.0000000E+04;  0.0000000E+00;  0.0000000E+00;  4.0000000E+04;  0.0000000E+00;  4.0000000E+04; -3.6233084E-03;  0.0000000E+00; -7.6910557E-04;  2.2573677E+03;
  9.9999998E-03;  9.9999998E-03;  3.4000000E-01;1868;  0.0000000E+00;  0.0000000E+00;  0.0000000E+00;  1.0029776E+03;  1.0000000E-01;  2.4668933E+03;0;  0.0000000E+00;  0.0000000E+00;  0.0000000E+00;0; -3.4213769E-03;  4.0000000E+04;  0.0000000E+00;  0.0000000E+00;  4.0000000E+04;  0.0000000E+00;  4.0000000E+04; -2.7286706E-03;  0.0000000E+00; -6.9270638E-04;  2.2290017E+03;
  9.9999998E-03;  9.9999998E-03;  3.4999999E-01;1869;  0.0000000E+00;  0.0000000E+00;  0.0000000E+00;  1.0022640E+03;  1.0000000E-01;  1.8757001E+03;0;  0.0000000E+00;  0.0000000E+00;  0.0000000E+00;0; -2.5962498E-03;  4.0000000E+04;  0.0000000E+00;  0.0000000E+00;  4.0000000E+04;  0.0000000E+00;  4.0000000E+04; -1.9939838E-03;  0.0000000E+00; -6.0226599E-04;  2.0881494E+03;
  9.9999998E-03;  9.9999998E-03;  3.6000001E-01;1870;  0.0000000E+00;  0.0000000E+00;  0.0000000E+00;  1.0016859E+03;  1.0000000E-01;  1.3967013E+03;0;  0.0000000E+00;  0.0000000E+00;  0.0000000E+00;0; -1.9175152E-03;  4.0000000E+04;  0.0000000E+00;  0.0000000E+00;  4.0000000E+04;  0.0000000E+00;  4.0000000E+04; -1.4107657E-03;  0.0000000E+00; -5.0674943E-04;  1.8702311E+03;
  9.9999998E-03;  9.9999998E-03;  3.7000000E-01;1871;  0.0000000E+00;  0.0000000E+00;  0.0000000E+00;  1.0012056E+03;  1.0000000E-01;  9.9878656E+02;0;  0.0000000E+00;  0.0000000E+00;  0.0000000E+00;0; -1.3753286E-03;  4.0000000E+04;  0.0000000E+00;  0.0000000E+00;  4.0000000E+04;  0.0000000E+00;  4.0000000E+04; -9.6303044E-04;  0.0000000E+00; -4.1229816E-04;  1.6033848E+03;
  9.9999998E-03;  9.9999998E-03;  3.8000000E-01;1872;  0.0000000E+00;  0.0000000E+00;  0.0000000E+00;  1.0008400E+03;  1.0000000E-01;  6.9598029E+02;0;  0.0000000E+00;  0.0000000E+00;  0.0000000E+00;0; -9.5381861E-04;  4.0000000E+04;  0.0000000E+00;  0.0000000E+00;  4.0000000E+04;  0.0000000E+00;  4.0000000E+04; -6.3086796E-04;  0.0000000E+00; -3.2295065E-04;  1.3105825E+03;
  9.9999998E-03;  9.9999998E-03;  3.8999999E-01;1873;  0.0000000E+00;  0.0000000E+00;  0.0000000E+00;  1.0005619E+03;  1.0000000E-01;  4.6546832E+02;0;  0.0000000E+00;  0.0000000E+00;  0.0000000E+00;0; -6.3473184E-04;  4.0000000E+04;  0.0000000E+00;  0.0000000E+00;  4.0000000E+04;  0.0000000E+00;  4.0000000E+04; -3.9332599E-04;  0.0000000E+00; -2.4140585E-04;  1.0121871E+03;
  9.9999998E-03;  9.9999998E-03;  4.0000001E-01;1874;  0.0000000E+00;  0.0000000E+00;  0.0000000E+00;  1.0003432E+03;  1.0000000E-01;  2.8433765E+02;0;  0.0000000E+00;  0.0000000E+00;  0.0000000E+00;0; -4.0012394E-04;  4.0000000E+04;  0.0000000E+00;  0.0000000E+00;  4.0000000E+04;  0.0000000E+00;  4.0000000E+04; -2.3042702E-04;  0.0000000E+00; -1.6969693E-04;  7.2777197E+02;
  2.0000000E-02;  9.9999998E-03;  3.1000000E-01;1895;  0.0000000E+00;  0.0000000E+00;  0.0000000E+00;  1.0064974E+03;  1.0000000E-01;  5.3829590E+03;0;  0.0000000E+00;  0.0000000E+00;  0.0000000E+00;0; -7.0323953E-03;  4.0000000E+04;  0.0000000E+00;  0.0000000E+00;  4.0000000E+04;  0.0000000E+00;  4.0000000E+04; -6.1950949E-03;  0.0000000E+00; -8.3730032E-04;  1.7539259E+03;
  2.0000000E-02;  9.9999998E-03;  3.1999999E-01;1896;  0.0000000E+00;  0.0000000E+00;  0.0000000E+00;  1.0053513E+03;  1.0000000E-01;  4.4334551E+03;0;  0.0000000E+00;  0.0000000E+00;  0.0000000E+00;0; -5.7550743E-03;  4.0000000E+04;  0.0000000E+00;  0.0000000E+00;  4.0000000E+04;  0.0000000E+00;  4.0000000E+04; -4.9168244E-03;  0.0000000E+00; -8.3824998E-04;  2.0912959E+03;
  2.0000000E-02;  9.9999998E-03;  3.3000001E-01;1897;  0.0000000E+00;  0.0000000E+00;  0.0000000E+00;  1.0042913E+03;  1.0000000E-01;  3.5552576E+03;0;  0.0000000E+00;  0.0000000E+00;  0.0000000E+00;0; -4.5889961E-03;  4.0000000E+04;  0.0000000E+00;  0.0000000E+00;  4.0000000E+04;  0.0000000E+00;  4.0000000E+04; -3.7950478E-03;  0.0000000E+00; -7.9394842E-04;  2.2329956E+03;
  2.0000000E-02;  9.9999998E-03;  3.4000000E-01;1898;  0.0000000E+00;  0.0000000E+00;  0.0000000E+00;  1.0033563E+03;  1.0000000E-01;  2.7806621E+03;0;  0.0000000E+00;  0.0000000E+00;  0.0000000E+00;0; -3.5667275E-03;  4.0000000E+04;  0.0000000E+00;  0.0000000E+00;  4.0000000E+04;  0.0000000E+00;  4.0000000E+04; -2.8469060E-03;  0.0000000E+00; -7.1982166E-04;  2.2187327E+03;
  2.0000000E-02;  9.9999998E-03;  3.4999999E-01;1899;  0.0000000E+00;  0.0000000E+00;  0.0000000E+00;  1.0025567E+03;  1.0000000E-01;  2.1181624E+03;0;  0.0000000E+00;  0.0000000E+00;  0.0000000E+00;0; -2.7018865E-03;  4.0000000E+04;  0.0000000E+00;  0.0000000E+00;  4.0000000E+04;  0.0000000E+00;  4.0000000E+04; -2.0732149E-03;  0.0000000E+00; -6.2867155E-04;  2.0888655E+03;
  2.0000000E-02;  9.9999998E-03;  3.6000001E-01;1900;  0.0000000E+00;  0.0000000E+00;  0.0000000E+00;  1.0018983E+03;  1.0000000E-01;  1.5726963E+03;0;  0.0000000E+00;  0.0000000E+00;  0.0000000E+00;0; -1.9930098E-03;  4.0000000E+04;  0.0000000E+00;  0.0000000E+00;  4.0000000E+04;  0.0000000E+00;  4.0000000E+04; -1.4627670E-03;  0.0000000E+00; -5.3024280E-04;  1.8773040E+03;
  2.0000000E-02;  9.9999998E-03;  3.7000000E-01;1901;  0.0000000E+00;  0.0000000E+00;  0.0000000E+00;  1.0013690E+03;  1.0000000E-01;  1.1341902E+03;0;  0.0000000E+00;  0.0000000E+00;  0.0000000E+00;0; -1.4282838E-03;  4.0000000E+04;  0.0000000E+00;  0.0000000E+00;  4.0000000E+04;  0.0000000E+00;  4.0000000E+04; -9.9675788E-04;  0.0000000E+00; -4.3152581E-04;  1.6118856E+03;
  2.0000000E-02;  9.9999998E-03;  3.8000000E-01;1902;  0.0000000E+00;  0.0000000E+00;  0.0000000E+00;  1.0009551E+03;  1.0000000E-01;  7.9128625E+02;0;  0.0000000E+00;  0.0000000E+00;  0.0000000E+00;0; -9.9008169E-04;  4.0000000E+04;  0.0000000E+00;  0.0000000E+00;  4.0000000E+04;  0.0000000E+00;  4.0000000E+04; -6.5272866E-04;  0.0000000E+00; -3.3735303E-04;  1.3165074E+03;
  2.0000000E-02;  9.9999998E-03;  3.8999999E-01;1903;  0.0000000E+00;  0.0000000E+00;  0.0000000E+00;  1.0006456E+03;  1.0000000E-01;  5.3479968E+02;0;  0.0000000E+00;  0.0000000E+00;  0.0000000E+00;0; -6.5871322E-04;  4.0000000E+04;  0.0000000E+00;  0.0000000E+00;  4.0000000E+04;  0.0000000E+00;  4.0000000E+04; -4.0760802E-04;  0.0000000E+00; -2.5110520E-04;  1.0132870E+03;
  2.0000000E-02;  9.9999998E-03;  4.0000001E-01;1904;  0.0000000E+00;  0.0000000E+00;  0.0000000E+00;  1.0004037E+03;  1.0000000E-01;  3.3450906E+02;0;  0.0000000E+00;  0.0000000E+00;  0.0000000E+00;0; -4.1516207E-04;  4.0000000E+04;  0.0000000E+00;  0.0000000E+00;  4.0000000E+04;  0.0000000E+00;  4.0000000E+04; -2.3980488E-04;  0.0000000E+00; -1.7535720E-04;  7.2400946E+02;
  2.9999999E-02;  9.9999998E-03;  3.1000000E-01;1925;  0.0000000E+00;  0.0000000E+00;  0.0000000E+00;  1.0070947E+03;  1.0000000E-01;  5.8778584E+03;0;  0.0000000E+00;  0.0000000E+00;  0.0000000E+00;0; -7.0497706E-03;  4.0000000E+04;  0.0000000E+00;  0.0000000E+00;  4.0000000E+04;  0.0000000E+00;  4.0000000E+04; -6.2209684E-03;  0.0000000E+00; -8.2880218E-04;  1.6607106E+03;
  2.9999999E-02;  9.9999998E-03;  3.1999999E-01;1926;  0.0000000E+00;  0.0000000E+00;  0.0000000E+00;  1.0058470E+03;  1.0000000E-01;  4.8442085E+03;0;  0.0000000E+00;  0.0000000E+00;  0.0000000E+00;0; -5.7580154E-03;  4.0000000E+04;  0.0000000E+00;  0.0000000E+00;  4.0000000E+04;  0.0000000E+00;  4.0000000E+04; -4.9154200E-03;  0.0000000E+00; -8.4259571E-04;  2.0002041E+03;
  2.9999999E-02;  9.9999998E-03;  3.3000001E-01;1927;  0.0000000E+00;  0.0000000E+00;  0.0000000E+00;  1.0046919E+03;  1.0000000E-01;  3.8870999E+03;0;  0.0000000E+00;  0.0000000E+00;  0.0000000E+00;0; -4.5843320E-03;  4.0000000E+04;  0.0000000E+00;  0.0000000E+00;  4.0000000E+04;  0.0000000E+00;  4.0000000E+04; -3.7758898E-03;  0.0000000E+00; -8.0844201E-04;  2.1638867E+03;
  2.9999999E-02;  9.9999998E-03;  3.4000000E-01;1928;  0.0000000E+00;  0.0000000E+00;  0.0000000E+00;  1.0036698E+03;  1.0000000E-01;  3.0404080E+03;0;  0.0000000E+00;  0.0000000E+00;  0.0000000E+00;0; -3.5587037E-03;  4.0000000E+04;  0.0000000E+00;  0.0000000E+00;  4.0000000E+04;  0.0000000E+00;  4.0000000E+04; -2.8184047E-03;  0.0000000E+00; -7.4029906E-04;  2.1740437E+03;
  2.9999999E-02;  9.9999998E-03;  3.4999999E-01;1929;  0.0000000E+00;  0.0000000E+00;  0.0000000E+00;  1.0027966E+03;  1.0000000E-01;  2.3168728E+03;0;  0.0000000E+00;  0.0000000E+00;  0.0000000E+00;0; -2.6931767E-03;  4.0000000E+04;  0.0000000E+00;  0.0000000E+00;  4.0000000E+04;  0.0000000E+00;  4.0000000E+04; -2.0420668E-03;  0.0000000E+00; -6.5110996E-04;  2.0639058E+03;
  2.9999999E-02;  9.9999998E-03;  3.6000001E-01;1930;  0.0000000E+00;  0.0000000E+00;  0.0000000E+00;  1.0020726E+03;  1.0000000E-01;  1.7170873E+03;0;  0.0000000E+00;  0.0000000E+00;  0.0000000E+00;0; -1.9851171E-03;  4.0000000E+04;  0.0000000E+00;  0.0000000E+00;  4.0000000E+04;  0.0000000E+00;  4.0000000E+04; -1.4336758E-03;  0.0000000E+00; -5.5144139E-04;  1.8645605E+03;
  2.9999999E-02;  9.9999998E-03;  3.7000000E-01;1931;  0.0000000E+00;  0.0000000E+00;  0.0000000E+00;  1.0015070E+03;  1.0000000E-01;  1.2485573E+03;0;  0.0000000E+00;  0.0000000E+00;  0.0000000E+00;0; -1.4218596E-03;  4.0000000E+04;  0.0000000E+00;  0.0000000E+00;  4.0000000E+04;  0.0000000E+00;  4.0000000E+04; -9.7252778E-04;  0.0000000E+00; -4.4933180E-04;  1.6036545E+03;
  2.9999999E-02;  9.9999998E-03;  3.8000000E-01;1932;  0.0000000E+00;  0.0000000E+00;  0.0000000E+00;  1.0010516E+03;  1.0000000E-01;  8.7118524E+02;0;  0.0000000E+00;  0.0000000E+00;  0.0000000E+00;0; -9.8517677E-04;  4.0000000E+04;  0.0000000E+00;  0.0000000E+00;  4.0000000E+04;  0.0000000E+00;  4.0000000E+04; -6.3451217E-04;  0.0000000E+00; -3.5066454E-04;  1.3066482E+03;
  2.9999999E-02;  9.9999998E-03;  3.8999999E-01;1933;  0.0000000E+00;  0.0000000E+00;  0.0000000E+00;  1.0007135E+03;  1.0000000E-01;  5.9109442E+02;0;  0.0000000E+00;  0.0000000E+00;  0.0000000E+00;0; -6.5504544E-04;  4.0000000E+04;  0.0000000E+00;  0.0000000E+00;  4.0000000E+04;  0.0000000E+00;  4.0000000E+04; -3.9530150E-04;  0.0000000E+00; -2.5974395E-04;  9.9825482E+02;
  2.9999999E-02;  9.9999998E-03;  4.0000001E-01;1934;  0.0000000E+00;  0.0000000E+00;  0.0000000E+00;  1.0004472E+03;  1.0000000E-01;  3.7045865E+02;0;  0.0000000E+00;  0.0000000E+00;  0.0000000E+00;0; -4.1238178E-04;  4.0000000E+04;  0.0000000E+00;  0.0000000E+00;  4.0000000E+04;  0.0000000E+00;  4.0000000E+04; -2.3250414E-04;  0.0000000E+00; -1.7987764E-04;  7.0364111E+02;
  3.9999999E-02;  9.9999998E-03;  3.1000000E-01;1955;  0.0000000E+00;  0.0000000E+00;  0.0000000E+00;  1.0075493E+03;  1.0000000E-01;  6.2544404E+03;0;  0.0000000E+00;  0.0000000E+00;  0.0000000E+00;0; -6.7538870E-03;  4.0000000E+04;  0.0000000E+00;  0.0000000E+00;  4.0000000E+04;  0.0000000E+00;  4.0000000E+04; -5.9363684E-03;  0.0000000E+00; -8.1751862E-04;  1.5776216E+03;
  3.9999999E-02;  9.9999998E-03;  3.1999999E-01;1956;  0.0000000E+00;  0.0000000E+00;  0.0000000E+00;  1.0062257E+03;  1.0000000E-01;  5.1578789E+03;0;  0.0000000E+00;  0.0000000E+00;  0.0000000E+00;0; -5.5127423E-03;  4.0000000E+04;  0.0000000E+00;  0.0000000E+00;  4.0000000E+04;  0.0000000E+00;  4.0000000E+04; -4.6670991E-03;  0.0000000E+00; -8.4564299E-04;  1.9128462E+03;
  3.9999999E-02;  9.9999998E-03;  3.3000001E-01;1957;  0.0000000E+00;  0.0000000E+00;  0.0000000E+00;  1.0050046E+03;  1.0000000E-01;  4.1461543E+03;0;  0.0000000E+00;  0.0000000E+00;  0.0000000E+00;0; -4.3876264E-03;  4.0000000E+04;  0.0000000E+00;  0.0000000E+00;  4.0000000E+04;  0.0000000E+00;  4.0000000E+04; -3.5641580E-03;  0.0000000E+00; -8.2346844E-04;  2.1031655E+03;
  3.9999999E-02;  9.9999998E-03;  3.4000000E-01;1958;  0.0000000E+00;  0.0000000E+00;  0.0000000E+00;  1.0039188E+03;  1.0000000E-01;  3.2466243E+03;0;  0.0000000E+00;  0.0000000E+00;  0.0000000E+00;0; -3.4053212E-03;  4.0000000E+04;  0.0000000E+00;  0.0000000E+00;  4.0000000E+04;  0.0000000E+00;  4.0000000E+04; -2.6424443E-03;  0.0000000E+00; -7.6287688E-04;  2.1443850E+03;
  3.9999999E-02;  9.9999998E-03;  3.4999999E-01;1959;  0.0000000E+00;  0.0000000E+00;  0.0000000E+00;  1.0029896E+03;  1.0000000E-01;  2.4768682E+03;0;  0.0000000E+00;  0.0000000E+00;  0.0000000E+00;0; -2.5767065E-03;  4.0000000E+04;  0.0000000E+00;  0.0000000E+00;  4.0000000E+04;  0.0000000E+00;  4.0000000E+04; -1.9000404E-03;  0.0000000E+00; -6.7666615E-04;  2.0584883E+03;
  3.9999999E-02;  9.9999998E-03;  3.6000001E-01;1960;  0.0000000E+00;  0.0000000E+00;  0.0000000E+00;  1.0022239E+03;  1.0000000E-01;  1.8424170E+03;0;  0.0000000E+00;  0.0000000E+00;  0.0000000E+00;0; -1.8990749E-03;  4.0000000E+04;  0.0000000E+00;  0.0000000E+00;  4.0000000E+04;  0.0000000E+00;  4.0000000E+04; -1.3228897E-03;  0.0000000E+00; -5.7618518E-04;  1.8725917E+03;
  3.9999999E-02;  9.9999998E-03;  3.7000000E-01;1961;  0.0000000E+00;  0.0000000E+00;  0.0000000E+00;  1.0016066E+03;  1.0000000E-01;  1.3310240E+03;0;  0.0000000E+00;  0.0000000E+00;  0.0000000E+00;0; -1.3601377E-03;  4.0000000E+04;  0.0000000E+00;  0.0000000E+00;  4.0000000E+04;  0.0000000E+00;  4.0000000E+04; -8.8954845E-04;  0.0000000E+00; -4.7058926E-04;  1.6143889E+03;
  3.9999999E-02;  9.9999998E-03;  3.8000000E-01;1962;  0.0000000E+00;  0.0000000E+00;  0.0000000E+00;  1.0011207E+03;  1.0000000E-01;  9.2846759E+02;0;  0.0000000E+00;  0.0000000E+00;  0.0000000E+00;0; -9.4224187E-04;  4.0000000E+04;  0.0000000E+00;  0.0000000E+00;  4.0000000E+04;  0.0000000E+00;  4.0000000E+04; -5.7531358E-04;  0.0000000E+00; -3.6692832E-04;  1.3115852E+03;
  3.9999999E-02;  9.9999998E-03;  3.8999999E-01;1963;  0.0000000E+00;  0.0000000E+00;  0.0000000E+00;  1.0007648E+03;  1.0000000E-01;  6.3366107E+02;0;  0.0000000E+00;  0.0000000E+00;  0.0000000E+00;0; -6.2609022E-04;  4.0000000E+04;  0.0000000E+00;  0.0000000E+00;  4.0000000E+04;  0.0000000E+00;  4.0000000E+04; -3.5550713E-04;  0.0000000E+00; -2.7058308E-04;  9.9250244E+02;
  3.9999999E-02;  9.9999998E-03;  4.0000001E-01;1964;  0.0000000E+00;  0.0000000E+00;  0.0000000E+00;  1.0004854E+03;  1.0000000E-01;  4.0216147E+02;0;  0.0000000E+00;  0.0000000E+00;  0.0000000E+00;0; -3.9348030E-04;  4.0000000E+04;  0.0000000E+00;  0.0000000E+00;  4.0000000E+04;  0.0000000E+00;  4.0000000E+04; -2.0768328E-04;  0.0000000E+00; -1.8579701E-04;  6.8653503E+02;
  5.0000001E-02;  9.9999998E-03;  3.1000000E-01;1985;  0.0000000E+00;  0.0000000E+00;  0.0000000E+00;  1.0078588E+03;  1.0000000E-01;  6.5109268E+03;0;  0.0000000E+00;  0.0000000E+00;  0.0000000E+00;0; -6.2024510E-03;  4.0000000E+04;  0.0000000E+00;  0.0000000E+00;  4.0000000E+04;  0.0000000E+00;  4.0000000E+04; -5.3841257E-03;  0.0000000E+00; -8.1832497E-04;  1.5539744E+03;
  5.0000001E-02;  9.9999998E-03;  3.1999999E-01;1986;  0.0000000E+00;  0.0000000E+00;  0.0000000E+00;  1.0064951E+03;  1.0000000E-01;  5.3809834E+03;0;  0.0000000E+00;  0.0000000E+00;  0.0000000E+00;0; -5.0692661E-03;  4.0000000E+04;  0.0000000E+00;  0.0000000E+00;  4.0000000E+04;  0.0000000E+00;  4.0000000E+04; -4.2083147E-03;  0.0000000E+00; -8.6095149E-04;  1.8926238E+03;
  5.0000001E-02;  9.9999998E-03;  3.3000001E-01;1987;  0.0000000E+00;  0.0000000E+00;  0.0000000E+00;  1.0052239E+03;  1.0000000E-01;  4.3279766E+03;0;  0.0000000E+00;  0.0000000E+00;  0.0000000E+00;0; -4.0402901E-03;  4.0000000E+04;  0.0000000E+00;  0.0000000E+00;  4.0000000E+04;  0.0000000E+00;  4.0000000E+04; -3.1900140E-03;  0.0000000E+00; -8.5027609E-04;  2.1145312E+03;
  5.0000001E-02;  9.9999998E-03;  3.4000000E-01;1988;  0.0000000E+00;  0.0000000E+00;  0.0000000E+00;  1.0040926E+03;  1.0000000E-01;  3.3906201E+03;0;  0.0000000E+00;  0.0000000E+00;  0.0000000E+00;0; -3.1396002E-03;  4.0000000E+04;  0.0000000E+00;  0.0000000E+00;  4.0000000E+04;  0.0000000E+00;  4.0000000E+04; -2.3430509E-03;  0.0000000E+00; -7.9654920E-04;  2.1889148E+03;
  5.0000001E-02;  9.9999998E-03;  3.4999999E-01;1989;  0.0000000E+00;  0.0000000E+00;  0.0000000E+00;  1.0031264E+03;  1.0000000E-01;  2.5901489E+03;0;  0.0000000E+00;  0.0000000E+00;  0.0000000E+00;0; -2.3779359E-03;  4.0000000E+04;  0.0000000E+00;  0.0000000E+00;  4.0000000E+04;  0.0000000E+00;  4.0000000E+04; -1.6654307E-03;  0.0000000E+00; -7.1250513E-04;  2.1257515E+03;
  5.0000001E-02;  9.9999998E-03;  3.6000001E-01;1990;  0.0000000E+00;  0.0000000E+00;  0.0000000E+00;  1.0023247E+03;  1.0000000E-01;  1.9259702E+03;0;  0.0000000E+00;  0.0000000E+00;  0.0000000E+00;0; -1.7538378E-03;  4.0000000E+04;  0.0000000E+00;  0.0000000E+00;  4.0000000E+04;  0.0000000E+00;  4.0000000E+04; -1.1435729E-03;  0.0000000E+00; -6.1026489E-04;  1.9483475E+03;
  5.0000001E-02;  9.9999998E-03;  3.7000000E-01;1991;  0.0000000E+00;  0.0000000E+00;  0.0000000E+00;  1.0016785E+03;  1.0000000E-01;  1.3905780E+03;0;  0.0000000E+00;  0.0000000E+00;  0.0000000E+00;0; -1.2567731E-03;  4.0000000E+04;  0.0000000E+00;  0.0000000E+00;  4.0000000E+04;  0.0000000E+00;  4.0000000E+04; -7.5669377E-04;  0.0000000E+00; -5.0007936E-04;  1.6850553E+03;
  5.0000001E-02;  9.9999998E-03;  3.8000000E-01;1992;  0.0000000E+00;  0.0000000E+00;  0.0000000E+00;  1.0011761E+03;  1.0000000E-01;  9.7439221E+02;0;  0.0000000E+00;  0.0000000E+00;  0.0000000E+00;0; -8.7088475E-04;  4.0000000E+04;  0.0000000E+00;  0.0000000E+00;  4.0000000E+04;  0.0000000E+00;  4.0000000E+04; -4.8072601E-04;  0.0000000E+00; -3.9015870E-04;  1.3666572E+03;
  5.0000001E-02;  9.9999998E-03;  3.8999999E-01;1993;  0.0000000E+00;  0.0000000E+00;  0.0000000E+00;  1.0007965E+03;  1.0000000E-01;  6.5993195E+02;0;  0.0000000E+00;  0.0000000E+00;  0.0000000E+00;0; -5.7853409E-04;  4.0000000E+04;  0.0000000E+00;  0.0000000E+00;  4.0000000E+04;  0.0000000E+00;  4.0000000E+04; -2.9153383E-04;  0.0000000E+00; -2.8700029E-04;  1.0258682E+03;
  5.0000001E-02;  9.9999998E-03;  4.0000001E-01;1994;  0.0000000E+00;  0.0000000E+00;  0.0000000E+00;  1.0005021E+03;  1.0000000E-01;  4.1598822E+02;0;  0.0000000E+00;  0.0000000E+00;  0.0000000E+00;0; -3.6302154E-04;  4.0000000E+04;  0.0000000E+00;  0.0000000E+00;  4.0000000E+04;  0.0000000E+00;  4.0000000E+04; -1.6718093E-04;  0.0000000E+00; -1.9584061E-04;  6.9708905E+02;
  5.9999999E-02;  9.9999998E-03;  3.1000000E-01;2015;  0.0000000E+00;  0.0000000E+00;  0.0000000E+00;  1.0080482E+03;  1.0000000E-01;  6.6677622E+03;0;  0.0000000E+00;  0.0000000E+00;  0.0000000E+00;0; -5.4951189E-03;  4.0000000E+04;  0.0000000E+00;  0.0000000E+00;  4.0000000E+04;  0.0000000E+00;  4.0000000E+04; -4.6538543E-03;  0.0000000E+00; -8.4126461E-04;  1.5964288E+03;
  5.9999999E-02;  9.9999998E-03;  3.1999999E-01;2016;  0.0000000E+00;  0.0000000E+00;  0.0000000E+00;  1.0066639E+03;  1.0000000E-01;  5.5209302E+03;0;  0.0000000E+00;  0.0000000E+00;  0.0000000E+00;0; -4.5114020E-03;  4.0000000E+04;  0.0000000E+00;  0.0000000E+00;  4.0000000E+04;  0.0000000E+00;  4.0000000E+04; -3.6133726E-03;  0.0000000E+00; -8.9802960E-04;  1.9829076E+03;
  5.9999999E-02;  9.9999998E-03;  3.3000001E-01;2017;  0.0000000E+00;  0.0000000E+00;  0.0000000E+00;  1.0053667E+03;  1.0000000E-01;  4.4461953E+03;0;  0.0000000E+00;  0.0000000E+00;  0.0000000E+00;0; -3.6108512E-03;  4.0000000E+04;  0.0000000E+00;  0.0000000E+00;  4.0000000E+04;  0.0000000E+00;  4.0000000E+04; -2.7138579E-03;  0.0000000E+00; -8.9699338E-04;  2.2531440E+03;
  5.9999999E-02;  9.9999998E-03;  3.4000000E-01;2018;  0.0000000E+00;  0.0000000E+00;  0.0000000E+00;  1.0042089E+03;  1.0000000E-01;  3.4870125E+03;0;  0.0000000E+00;  0.0000000E+00;  0.0000000E+00;0; -2.8161211E-03;  4.0000000E+04;  0.0000000E+00;  0.0000000E+00;  4.0000000E+04;  0.0000000E+00;  4.0000000E+04; -1.9681982E-03;  0.0000000E+00; -8.4792275E-04;  2.3624070E+03;
  5.9999999E-02;  9.9999998E-03;  3.4999999E-01;2019;  0.0000000E+00;  0.0000000E+00;  0.0000000E+00;  1.0032103E+03;  1.0000000E-01;  2.6596780E+03;0;  0.0000000E+00;  0.0000000E+00;  0.0000000E+00;0; -2.1391818E-03;  4.0000000E+04;  0.0000000E+00;  0.0000000E+00;  4.0000000E+04;  0.0000000E+00;  4.0000000E+04; -1.3752570E-03;  0.0000000E+00; -7.6392491E-04;  2.3154717E+03;
  5.9999999E-02;  9.9999998E-03;  3.6000001E-01;2020;  0.0000000E+00;  0.0000000E+00;  0.0000000E+00;  1.0023872E+03;  1.0000000E-01;  1.9777218E+03;0;  0.0000000E+00;  0.0000000E+00;  0.0000000E+00;0; -1.5812278E-03;  4.0000000E+04;  0.0000000E+00;  0.0000000E+00;  4.0000000E+04;  0.0000000E+00;  4.0000000E+04; -9.2326180E-04;  0.0000000E+00; -6.5796595E-04;  2.1355652E+03;
  5.9999999E-02;  9.9999998E-03;  3.7000000E-01;2021;  0.0000000E+00;  0.0000000E+00;  0.0000000E+00;  1.0017266E+03;  1.0000000E-01;  1.4304780E+03;0;  0.0000000E+00;  0.0000000E+00;  0.0000000E+00;0; -1.1348455E-03;  4.0000000E+04;  0.0000000E+00;  0.0000000E+00;  4.0000000E+04;  0.0000000E+00;  4.0000000E+04; -5.9350539E-04;  0.0000000E+00; -5.4134015E-04;  1.8538452E+03;
  5.9999999E-02;  9.9999998E-03;  3.8000000E-01;2022;  0.0000000E+00;  0.0000000E+00;  0.0000000E+00;  1.0012146E+03;  1.0000000E-01;  1.0062925E+03;0;  0.0000000E+00;  0.0000000E+00;  0.0000000E+00;0; -7.8716467E-04;  4.0000000E+04;  0.0000000E+00;  0.0000000E+00;  4.0000000E+04;  0.0000000E+00;  4.0000000E+04; -3.6380952E-04;  0.0000000E+00; -4.2335517E-04;  1.5051641E+03;
  5.9999999E-02;  9.9999998E-03;  3.8999999E-01;2023;  0.0000000E+00;  0.0000000E+00;  0.0000000E+00;  1.0008202E+03;  1.0000000E-01;  6.7948694E+02;0;  0.0000000E+00;  0.0000000E+00;  0.0000000E+00;0; -5.2308943E-04;  4.0000000E+04;  0.0000000E+00;  0.0000000E+00;  4.0000000E+04;  0.0000000E+00;  4.0000000E+04; -2.1150547E-04;  0.0000000E+00; -3.1158398E-04;  1.1270260E+03;
  5.9999999E-02;  9.9999998E-03;  4.0000001E-01;2024;  0.0000000E+00;  0.0000000E+00;  0.0000000E+00;  1.0005151E+03;  1.0000000E-01;  4.2675336E+02;0;  0.0000000E+00;  0.0000000E+00;  0.0000000E+00;0; -3.2796379E-04;  4.0000000E+04;  0.0000000E+00;  0.0000000E+00;  4.0000000E+04;  0.0000000E+00;  4.0000000E+04; -1.1571795E-04;  0.0000000E+00; -2.1224584E-04;  7.5939685E+02;
  7.0000000E-02;  9.9999998E-03;  3.1000000E-01;2045;  0.0000000E+00;  0.0000000E+00;  0.0000000E+00;  1.0081588E+03;  1.0000000E-01;  6.7594136E+03;0;  0.0000000E+00;  0.0000000E+00;  0.0000000E+00;0; -4.7557643E-03;  4.0000000E+04;  0.0000000E+00;  0.0000000E+00;  4.0000000E+04;  0.0000000E+00;  4.0000000E+04; -3.8665340E-03;  0.0000000E+00; -8.8923029E-04;  1.6605786E+03;
  7.0000000E-02;  9.9999998E-03;  3.1999999E-01;2046;  0.0000000E+00;  0.0000000E+00;  0.0000000E+00;  1.0067728E+03;  1.0000000E-01;  5.6111992E+03;0;  0.0000000E+00;  0.0000000E+00;  0.0000000E+00;0; -3.9412896E-03;  4.0000000E+04;  0.0000000E+00;  0.0000000E+00;  4.0000000E+04;  0.0000000E+00;  4.0000000E+04; -2.9814132E-03;  0.0000000E+00; -9.5987628E-04;  2.1897009E+03;
  7.0000000E-02;  9.9999998E-03;  3.3000001E-01;2047;  0.0000000E+00;  0.0000000E+00;  0.0000000E+00;  1.0054620E+03;  1.0000000E-01;  4.5252056E+03;0;  0.0000000E+00;  0.0000000E+00;  0.0000000E+00;0; -3.1818498E-03;  4.0000000E+04;  0.0000000E+00;  0.0000000E+00;  4.0000000E+04;  0.0000000E+00;  4.0000000E+04; -2.2154979E-03;  0.0000000E+00; -9.6635194E-04;  2.5474333E+03;
  7.0000000E-02;  9.9999998E-03;  3.4000000E-01;2048;  0.0000000E+00;  0.0000000E+00;  0.0000000E+00;  1.0042813E+03;  1.0000000E-01;  3.5469614E+03;0;  0.0000000E+00;  0.0000000E+00;  0.0000000E+00;0; -2.5003003E-03;  4.0000000E+04;  0.0000000E+00;  0.0000000E+00;  4.0000000E+04;  0.0000000E+00;  4.0000000E+04; -1.5809743E-03;  0.0000000E+00; -9.1932603E-04;  2.6997795E+03;
  7.0000000E-02;  9.9999998E-03;  3.4999999E-01;2049;  0.0000000E+00;  0.0000000E+00;  0.0000000E+00;  1.0032723E+03;  1.0000000E-01;  2.7110344E+03;0;  0.0000000E+00;  0.0000000E+00;  0.0000000E+00;0; -1.9113126E-03;  4.0000000E+04;  0.0000000E+00;  0.0000000E+00;  4.0000000E+04;  0.0000000E+00;  4.0000000E+04; -1.0784321E-03;  0.0000000E+00; -8.3288050E-04;  2.6613445E+03;
  7.0000000E-02;  9.9999998E-03;  3.6000001E-01;2050;  0.0000000E+00;  0.0000000E+00;  0.0000000E+00;  1.0024271E+03;  1.0000000E-01;  2.0108074E+03;0;  0.0000000E+00;  0.0000000E+00;  0.0000000E+00;0; -1.4199825E-03;  4.0000000E+04;  0.0000000E+00;  0.0000000E+00;  4.0000000E+04;  0.0000000E+00;  4.0000000E+04; -6.9900474E-04;  0.0000000E+00; -7.2097778E-04;  2.4643945E+03;
  7.0000000E-02;  9.9999998E-03;  3.7000000E-01;2051;  0.0000000E+00;  0.0000000E+00;  0.0000000E+00;  1.0017506E+03;  1.0000000E-01;  1.4503293E+03;0;  0.0000000E+00;  0.0000000E+00;  0.0000000E+00;0; -1.0230325E-03;  4.0000000E+04;  0.0000000E+00;  0.0000000E+00;  4.0000000E+04;  0.0000000E+00;  4.0000000E+04; -4.2714205E-04;  0.0000000E+00; -5.9589045E-04;  2.1473796E+03;
  7.0000000E-02;  9.9999998E-03;  3.8000000E-01;2052;  0.0000000E+00;  0.0000000E+00;  0.0000000E+00;  1.0012247E+03;  1.0000000E-01;  1.0146874E+03;0;  0.0000000E+00;  0.0000000E+00;  0.0000000E+00;0; -7.1142759E-04;  4.0000000E+04;  0.0000000E+00;  0.0000000E+00;  4.0000000E+04;  0.0000000E+00;  4.0000000E+04; -2.4352602E-04;  0.0000000E+00; -4.6790155E-04;  1.7507822E+03;
  7.0000000E-02;  9.9999998E-03;  3.8999999E-01;2053;  0.0000000E+00;  0.0000000E+00;  0.0000000E+00;  1.0008249E+03;  1.0000000E-01;  6.8343744E+02;0;  0.0000000E+00;  0.0000000E+00;  0.0000000E+00;0; -4.7336586E-04;  4.0000000E+04;  0.0000000E+00;  0.0000000E+00;  4.0000000E+04;  0.0000000E+00;  4.0000000E+04; -1.2778115E-04;  0.0000000E+00; -3.4558470E-04;  1.3171945E+03;
  7.0000000E-02;  9.9999998E-03;  4.0000001E-01;2054;  0.0000000E+00;  0.0000000E+00;  0.0000000E+00;  1.0005143E+03;  1.0000000E-01;  4.2606201E+02;0;  0.0000000E+00;  0.0000000E+00;  0.0000000E+00;0; -2.9680267E-04;  4.0000000E+04;  0.0000000E+00;  0.0000000E+00;  4.0000000E+04;  0.0000000E+00;  4.0000000E+04; -6.0647606E-05;  0.0000000E+00; -2.3615507E-04;  8.9208606E+02;
  7.9999998E-02;  9.9999998E-03;  3.1000000E-01;2075;  0.0000000E+00;  0.0000000E+00;  0.0000000E+00;  1.0082430E+03;  1.0000000E-01;  6.8292388E+03;0;  0.0000000E+00;  0.0000000E+00;  0.0000000E+00;0; -4.1103088E-03;  4.0000000E+04;  0.0000000E+00;  0.0000000E+00;  4.0000000E+04;  0.0000000E+00;  4.0000000E+04; -3.1529493E-03;  0.0000000E+00; -9.5735950E-04;  1.7493942E+03;
  7.9999998E-02;  9.9999998E-03;  3.1999999E-01;2076;  0.0000000E+00;  0.0000000E+00;  0.0000000E+00;  1.0068609E+03;  1.0000000E-01;  5.6840859E+03;0;  0.0000000E+00;  0.0000000E+00;  0.0000000E+00;0; -3.4611362E-03;  4.0000000E+04;  0.0000000E+00;  0.0000000E+00;  4.0000000E+04;  0.0000000E+00;  4.0000000E+04; -2.4187770E-03;  0.0000000E+00; -1.0423593E-03;  2.5179412E+03;
  7.9999998E-02;  9.9999998E-03;  3.3000001E-01;2077;  0.0000000E+00;  0.0000000E+00;  0.0000000E+00;  1.0055427E+03;  1.0000000E-01;  4.5920679E+03;0;  0.0000000E+00;  0.0000000E+00;  0.0000000E+00;0; -2.8348968E-03;  4.0000000E+04;  0.0000000E+00;  0.0000000E+00;  4.0000000E+04;  0.0000000E+00;  4.0000000E+04; -1.7798437E-03;  0.0000000E+00; -1.0550531E-03;  3.0035017E+03;
  7.9999998E-02;  9.9999998E-03;  3.4000000E-01;2078;  0.0000000E+00;  0.0000000E+00;  0.0000000E+00;  1.0043501E+03;  1.0000000E-01;  3.6039475E+03;0;  0.0000000E+00;  0.0000000E+00;  0.0000000E+00;0; -2.2563243E-03;  4.0000000E+04;  0.0000000E+00;  0.0000000E+00;  4.0000000E+04;  0.0000000E+00;  4.0000000E+04; -1.2481001E-03;  0.0000000E+00; -1.0082242E-03;  3.2089082E+03;
  7.9999998E-02;  9.9999998E-03;  3.4999999E-01;2079;  0.0000000E+00;  0.0000000E+00;  0.0000000E+00;  1.0033199E+03;  1.0000000E-01;  2.7505396E+03;0;  0.0000000E+00;  0.0000000E+00;  0.0000000E+00;0; -1.7440936E-03;  4.0000000E+04;  0.0000000E+00;  0.0000000E+00;  4.0000000E+04;  0.0000000E+00;  4.0000000E+04; -8.2659326E-04;  0.0000000E+00; -9.1750041E-04;  3.1721995E+03;
  7.9999998E-02;  9.9999998E-03;  3.6000001E-01;2080;  0.0000000E+00;  0.0000000E+00;  0.0000000E+00;  1.0024568E+03;  1.0000000E-01;  2.0353992E+03;0;  0.0000000E+00;  0.0000000E+00;  0.0000000E+00;0; -1.3080756E-03;  4.0000000E+04;  0.0000000E+00;  0.0000000E+00;  4.0000000E+04;  0.0000000E+00;  4.0000000E+04; -5.1009597E-04;  0.0000000E+00; -7.9797971E-04;  2.9436799E+03;
  7.9999998E-02;  9.9999998E-03;  3.7000000E-01;2081;  0.0000000E+00;  0.0000000E+00;  0.0000000E+00;  1.0017715E+03;  1.0000000E-01;  1.4677115E+03;0;  0.0000000E+00;  0.0000000E+00;  0.0000000E+00;0; -9.4973319E-04;  4.0000000E+04;  0.0000000E+00;  0.0000000E+00;  4.0000000E+04;  0.0000000E+00;  4.0000000E+04; -2.8687555E-04;  0.0000000E+00; -6.6285761E-04;  2.5740996E+03;
  7.9999998E-02;  9.9999998E-03;  3.8000000E-01;2082;  0.0000000E+00;  0.0000000E+00;  0.0000000E+00;  1.0012328E+03;  1.0000000E-01;  1.0214032E+03;0;  0.0000000E+00;  0.0000000E+00;  0.0000000E+00;0; -6.6431705E-04;  4.0000000E+04;  0.0000000E+00;  0.0000000E+00;  4.0000000E+04;  0.0000000E+00;  4.0000000E+04; -1.4102699E-04;  0.0000000E+00; -5.2329007E-04;  2.1116978E+03;
  7.9999998E-02;  9.9999998E-03;  3.8999999E-01;2083;  0.0000000E+00;  0.0000000E+00;  0.0000000E+00;  1.0008237E+03;  1.0000000E-01;  6.8244983E+02;0;  0.0000000E+00;  0.0000000E+00;  0.0000000E+00;0; -4.4366519E-04;  4.0000000E+04;  0.0000000E+00;  0.0000000E+00;  4.0000000E+04;  0.0000000E+00;  4.0000000E+04; -5.4901167E-05;  0.0000000E+00; -3.8876402E-04;  1.6046041E+03;
  7.9999998E-02;  9.9999998E-03;  4.0000001E-01;2084;  0.0000000E+00;  0.0000000E+00;  0.0000000E+00;  1.0005187E+03;  1.0000000E-01;  4.2971625E+02;0;  0.0000000E+00;  0.0000000E+00;  0.0000000E+00;0; -2.7864659E-04;  4.0000000E+04;  0.0000000E+00;  0.0000000E+00;  4.0000000E+04;  0.0000000E+00;  4.0000000E+04; -1.1170516E-05;  0.0000000E+00; -2.6747608E-04;  1.1036562E+03;
  9.0000004E-02;  9.9999998E-03;  3.1000000E-01;2105;  0.0000000E+00;  0.0000000E+00;  0.0000000E+00;  1.0083597E+03;  1.0000000E-01;  6.9258286E+03;0;  0.0000000E+00;  0.0000000E+00;  0.0000000E+00;0; -3.6675220E-03;  4.0000000E+04;  0.0000000E+00;  0.0000000E+00;  4.0000000E+04;  0.0000000E+00;  4.0000000E+04; -2.6332266E-03;  0.0000000E+00; -1.0342954E-03;  2.2285684E+03;
  9.0000004E-02;  9.9999998E-03;  3.1999999E-01;2106;  0.0000000E+00;  0.0000000E+00;  0.0000000E+00;  1.0069806E+03;  1.0000000E-01;  5.7832437E+03;0;  0.0000000E+00;  0.0000000E+00;  0.0000000E+00;0; -3.1582508E-03;  4.0000000E+04;  0.0000000E+00;  0.0000000E+00;  4.0000000E+04;  0.0000000E+00;  4.0000000E+04; -2.0228531E-03;  0.0000000E+00; -1.1353978E-03;  3.0958074E+03;
  9.0000004E-02;  9.9999998E-03;  3.3000001E-01;2107;  0.0000000E+00;  0.0000000E+00;  0.0000000E+00;  1.0056508E+03;  1.0000000E-01;  4.6815464E+03;0;  0.0000000E+00;  0.0000000E+00;  0.0000000E+00;0; -2.6391656E-03;  4.0000000E+04;  0.0000000E+00;  0.0000000E+00;  4.0000000E+04;  0.0000000E+00;  4.0000000E+04; -1.4844178E-03;  0.0000000E+00; -1.1547478E-03;  3.6552180E+03;
  9.0000004E-02;  9.9999998E-03;  3.4000000E-01;2108;  0.0000000E+00;  0.0000000E+00;  0.0000000E+00;  1.0044373E+03;  1.0000000E-01;  3.6762417E+03;0;  0.0000000E+00;  0.0000000E+00;  0.0000000E+00;0; -2.1383790E-03;  4.0000000E+04;  0.0000000E+00;  0.0000000E+00;  4.0000000E+04;  0.0000000E+00;  4.0000000E+04; -1.0303971E-03;  0.0000000E+00; -1.1079818E-03;  3.8872266E+03;
  9.0000004E-02;  9.9999998E-03;  3.4999999E-01;2109;  0.0000000E+00;  0.0000000E+00;  0.0000000E+00;  1.0033842E+03;  1.0000000E-01;  2.8036738E+03;0;  0.0000000E+00;  0.0000000E+00;  0.0000000E+00;0; -1.6794298E-03;  4.0000000E+04;  0.0000000E+00;  0.0000000E+00;  4.0000000E+04;  0.0000000E+00;  4.0000000E+04; -6.6681759E-04;  0.0000000E+00; -1.0126123E-03;  3.8345891E+03;
  9.0000004E-02;  9.9999998E-03;  3.6000001E-01;2110;  0.0000000E+00;  0.0000000E+00;  0.0000000E+00;  1.0024958E+03;  1.0000000E-01;  2.0676946E+03;0;  0.0000000E+00;  0.0000000E+00;  0.0000000E+00;0; -1.2774738E-03;  4.0000000E+04;  0.0000000E+00;  0.0000000E+00;  4.0000000E+04;  0.0000000E+00;  4.0000000E+04; -3.9249443E-04;  0.0000000E+00; -8.8497926E-04;  3.5587568E+03;
  9.0000004E-02;  9.9999998E-03;  3.7000000E-01;2111;  0.0000000E+00;  0.0000000E+00;  0.0000000E+00;  1.0017902E+03;  1.0000000E-01;  1.4831185E+03;0;  0.0000000E+00;  0.0000000E+00;  0.0000000E+00;0; -9.3897985E-04;  4.0000000E+04;  0.0000000E+00;  0.0000000E+00;  4.0000000E+04;  0.0000000E+00;  4.0000000E+04; -1.9978166E-04;  0.0000000E+00; -7.3919818E-04;  3.1209485E+03;
  9.0000004E-02;  9.9999998E-03;  3.8000000E-01;2112;  0.0000000E+00;  0.0000000E+00;  0.0000000E+00;  1.0012430E+03;  1.0000000E-01;  1.0297981E+03;0;  0.0000000E+00;  0.0000000E+00;  0.0000000E+00;0; -6.6355406E-04;  4.0000000E+04;  0.0000000E+00;  0.0000000E+00;  4.0000000E+04;  0.0000000E+00;  4.0000000E+04; -7.6316639E-05;  0.0000000E+00; -5.8723742E-04;  2.5773503E+03;
  9.0000004E-02;  9.9999998E-03;  3.8999999E-01;2113;  0.0000000E+00;  0.0000000E+00;  0.0000000E+00;  1.0008218E+03;  1.0000000E-01;  6.8086963E+02;0;  0.0000000E+00;  0.0000000E+00;  0.0000000E+00;0; -4.4663093E-04;  4.0000000E+04;  0.0000000E+00;  0.0000000E+00;  4.0000000E+04;  0.0000000E+00;  4.0000000E+04; -7.1890481E-06;  0.0000000E+00; -4.3944188E-04;  1.9817087E+03;
  9.0000004E-02;  9.9999998E-03;  4.0000001E-01;2114;  0.0000000E+00;  0.0000000E+00;  0.0000000E+00;  1.0005145E+03;  1.0000000E-01;  4.2625955E+02;0;  0.0000000E+00;  0.0000000E+00;  0.0000000E+00;0; -2.8195605E-04;  4.0000000E+04;  0.0000000E+00;  0.0000000E+00;  4.0000000E+04;  0.0000000E+00;  4.0000000E+04;  2.3029652E-05;  0.0000000E+00; -3.0498570E-04;  1.3896018E+03;
  1.0000000E-01;  9.9999998E-03;  3.1000000E-01;2135;  0.0000000E+00;  0.0000000E+00;  0.0000000E+00;  1.0085539E+03;  1.0000000E-01;  7.0867134E+03;0;  0.0000000E+00;  0.0000000E+00;  0.0000000E+00;0; -3.5053892E-03;  4.0000000E+04;  0.0000000E+00;  0.0000000E+00;  4.0000000E+04;  0.0000000E+00;  4.0000000E+04; -2.4000981E-03;  0.0000000E+00; -1.1052911E-03;  3.9083999E+03;
  1.0000000E-01;  9.9999998E-03;  3.1999999E-01;2136;  0.0000000E+00;  0.0000000E+00;  0.0000000E+00;  1.0071727E+03;  1.0000000E-01;  5.9424492E+03;0;  0.0000000E+00;  0.0000000E+00;  0.0000000E+00;0; -3.0953246E-03;  4.0000000E+04;  0.0000000E+00;  0.0000000E+00;  4.0000000E+04;  0.0000000E+00;  4.0000000E+04; -1.8694779E-03;  0.0000000E+00; -1.2258468E-03;  4.3413501E+03;
  1.0000000E-01;  9.9999998E-03;  3.3000001E-01;2137;  0.0000000E+00;  0.0000000E+00;  0.0000000E+00;  1.0058208E+03;  1.0000000E-01;  4.8223823E+03;0;  0.0000000E+00;  0.0000000E+00;  0.0000000E+00;0; -2.6446176E-03;  4.0000000E+04;  0.0000000E+00;  0.0000000E+00;  4.0000000E+04;  0.0000000E+00;  4.0000000E+04; -1.3901668E-03;  0.0000000E+00; -1.2544508E-03;  4.6756284E+03;
  1.0000000E-01;  9.9999998E-03;  3.4000000E-01;2138;  0.0000000E+00;  0.0000000E+00;  0.0000000E+00;  1.0045779E+03;  1.0000000E-01;  3.7926829E+03;0;  0.0000000E+00;  0.0000000E+00;  0.0000000E+00;0; -2.1858485E-03;  4.0000000E+04;  0.0000000E+00;  0.0000000E+00;  4.0000000E+04;  0.0000000E+00;  4.0000000E+04; -9.7616971E-04;  0.0000000E+00; -1.2096789E-03;  4.7810488E+03;
  1.0000000E-01;  9.9999998E-03;  3.4999999E-01;2139;  0.0000000E+00;  0.0000000E+00;  0.0000000E+00;  1.0034880E+03;  1.0000000E-01;  2.8897949E+03;0;  0.0000000E+00;  0.0000000E+00;  0.0000000E+00;0; -1.7480269E-03;  4.0000000E+04;  0.0000000E+00;  0.0000000E+00;  4.0000000E+04;  0.0000000E+00;  4.0000000E+04; -6.3696201E-04;  0.0000000E+00; -1.1110649E-03;  4.6380723E+03;
  1.0000000E-01;  9.9999998E-03;  3.6000001E-01;2140;  0.0000000E+00;  0.0000000E+00;  0.0000000E+00;  1.0025704E+03;  1.0000000E-01;  2.1295200E+03;0;  0.0000000E+00;  0.0000000E+00;  0.0000000E+00;0; -1.3518383E-03;  4.0000000E+04;  0.0000000E+00;  0.0000000E+00;  4.0000000E+04;  0.0000000E+00;  4.0000000E+04; -3.7555184E-04;  0.0000000E+00; -9.7628654E-04;  4.2790928E+03;
  1.0000000E-01;  9.9999998E-03;  3.7000000E-01;2141;  0.0000000E+00;  0.0000000E+00;  0.0000000E+00;  1.0018334E+03;  1.0000000E-01;  1.5188706E+03;0;  0.0000000E+00;  0.0000000E+00;  0.0000000E+00;0; -1.0087579E-03;  4.0000000E+04;  0.0000000E+00;  0.0000000E+00;  4.0000000E+04;  0.0000000E+00;  4.0000000E+04; -1.8833979E-04;  0.0000000E+00; -8.2041806E-04;  3.7545466E+03;
  1.0000000E-01;  9.9999998E-03;  3.8000000E-01;2142;  0.0000000E+00;  0.0000000E+00;  0.0000000E+00;  1.0012621E+03;  1.0000000E-01;  1.0456989E+03;0;  0.0000000E+00;  0.0000000E+00;  0.0000000E+00;0; -7.2257011E-04;  4.0000000E+04;  0.0000000E+00;  0.0000000E+00;  4.0000000E+04;  0.0000000E+00;  4.0000000E+04; -6.6340799E-05;  0.0000000E+00; -6.5622933E-04;  3.1184595E+03;
  1.0000000E-01;  9.9999998E-03;  3.8999999E-01;2143;  0.0000000E+00;  0.0000000E+00;  0.0000000E+00;  1.0008289E+03;  1.0000000E-01;  6.8669666E+02;0;  0.0000000E+00;  0.0000000E+00;  0.0000000E+00;0; -4.9204630E-04;  4.0000000E+04;  0.0000000E+00;  0.0000000E+00;  4.0000000E+04;  0.0000000E+00;  4.0000000E+04;  2.8606603E-06;  0.0000000E+00; -4.9490697E-04;  2.4254258E+03;
  1.0000000E-01;  9.9999998E-03;  4.0000001E-01;2144;  0.0000000E+00;  0.0000000E+00;  0.0000000E+00;  1.0005148E+03;  1.0000000E-01;  4.2655585E+02;0;  0.0000000E+00;  0.0000000E+00;  0.0000000E+00;0; -3.1353769E-04;  4.0000000E+04;  0.0000000E+00;  0.0000000E+00;  4.0000000E+04;  0.0000000E+00;  4.0000000E+04;  3.3081182E-05;  0.0000000E+00; -3.4661888E-04;  1.7331921E+03;
  1.1000000E-01;  9.9999998E-03;  3.1000000E-01;2165;  0.0000000E+00;  0.0000000E+00;  0.0000000E+00;  1.0088750E+03;  1.0000000E-01;  7.3527798E+03;0;  0.0000000E+00;  0.0000000E+00;  0.0000000E+00;0; -3.6622570E-03;  4.0000000E+04;  0.0000000E+00;  0.0000000E+00;  4.0000000E+04;  0.0000000E+00;  4.0000000E+04; -2.5054419E-03;  0.0000000E+00; -1.1568150E-03;  7.3364189E+03;
  1.1000000E-01;  9.9999998E-03;  3.1999999E-01;2166;  0.0000000E+00;  0.0000000E+00;  0.0000000E+00;  1.0074731E+03;  1.0000000E-01;  6.1913311E+03;0;  0.0000000E+00;  0.0000000E+00;  0.0000000E+00;0; -3.3048869E-03;  4.0000000E+04;  0.0000000E+00;  0.0000000E+00;  4.0000000E+04;  0.0000000E+00;  4.0000000E+04; -2.0033631E-03;  0.0000000E+00; -1.3015238E-03;  6.8961445E+03;
  1.1000000E-01;  9.9999998E-03;  3.3000001E-01;2167;  0.0000000E+00;  0.0000000E+00;  0.0000000E+00;  1.0060900E+03;  1.0000000E-01;  5.0453882E+03;0;  0.0000000E+00;  0.0000000E+00;  0.0000000E+00;0; -2.8784738E-03;  4.0000000E+04;  0.0000000E+00;  0.0000000E+00;  4.0000000E+04;  0.0000000E+00;  4.0000000E+04; -1.5347750E-03;  0.0000000E+00; -1.3436988E-03;  6.4921221E+03;
  1.1000000E-01;  9.9999998E-03;  3.4000000E-01;2168;  0.0000000E+00;  0.0000000E+00;  0.0000000E+00;  1.0047955E+03;  1.0000000E-01;  3.9730234E+03;0;  0.0000000E+00;  0.0000000E+00;  0.0000000E+00;0; -2.4211109E-03;  4.0000000E+04;  0.0000000E+00;  0.0000000E+00;  4.0000000E+04;  0.0000000E+00;  4.0000000E+04; -1.1166508E-03;  0.0000000E+00; -1.3044601E-03;  6.0897314E+03;
  1.1000000E-01;  9.9999998E-03;  3.4999999E-01;2169;  0.0000000E+00;  0.0000000E+00;  0.0000000E+00;  1.0036548E+03;  1.0000000E-01;  3.0279636E+03;0;  0.0000000E+00;  0.0000000E+00;  0.0000000E+00;0; -1.9679631E-03;  4.0000000E+04;  0.0000000E+00;  0.0000000E+00;  4.0000000E+04;  0.0000000E+00;  4.0000000E+04; -7.6254708E-04;  0.0000000E+00; -1.2054160E-03;  5.6328569E+03;
  1.1000000E-01;  9.9999998E-03;  3.6000001E-01;2170;  0.0000000E+00;  0.0000000E+00;  0.0000000E+00;  1.0026931E+03;  1.0000000E-01;  2.2311467E+03;0;  0.0000000E+00;  0.0000000E+00;  0.0000000E+00;0; -1.5455730E-03;  4.0000000E+04;  0.0000000E+00;  0.0000000E+00;  4.0000000E+04;  0.0000000E+00;  4.0000000E+04; -4.7985013E-04;  0.0000000E+00; -1.0657229E-03;  5.0820869E+03;
  1.1000000E-01;  9.9999998E-03;  3.7000000E-01;2171;  0.0000000E+00;  0.0000000E+00;  0.0000000E+00;  1.0019088E+03;  1.0000000E-01;  1.5813873E+03;0;  0.0000000E+00;  0.0000000E+00;  0.0000000E+00;0; -1.1703792E-03;  4.0000000E+04;  0.0000000E+00;  0.0000000E+00;  4.0000000E+04;  0.0000000E+00;  4.0000000E+04; -2.6891302E-04;  0.0000000E+00; -9.0146618E-04;  4.4287822E+03;
  1.1000000E-01;  9.9999998E-03;  3.8000000E-01;2172;  0.0000000E+00;  0.0000000E+00;  0.0000000E+00;  1.0013001E+03;  1.0000000E-01;  1.0771053E+03;0;  0.0000000E+00;  0.0000000E+00;  0.0000000E+00;0; -8.5009664E-04;  4.0000000E+04;  0.0000000E+00;  0.0000000E+00;  4.0000000E+04;  0.0000000E+00;  4.0000000E+04; -1.2387939E-04;  0.0000000E+00; -7.2621723E-04;  3.6901785E+03;
  1.1000000E-01;  9.9999998E-03;  3.8999999E-01;2173;  0.0000000E+00;  0.0000000E+00;  0.0000000E+00;  1.0008548E+03;  1.0000000E-01;  7.0822687E+02;0;  0.0000000E+00;  0.0000000E+00;  0.0000000E+00;0; -5.8648241E-04;  4.0000000E+04;  0.0000000E+00;  0.0000000E+00;  4.0000000E+04;  0.0000000E+00;  4.0000000E+04; -3.4504370E-05;  0.0000000E+00; -5.5197801E-04;  2.9012981E+03;
  1.1000000E-01;  9.9999998E-03;  4.0000001E-01;2174;  0.0000000E+00;  0.0000000E+00;  0.0000000E+00;  1.0005265E+03;  1.0000000E-01;  4.3623459E+02;0;  0.0000000E+00;  0.0000000E+00;  0.0000000E+00;0; -3.7815433E-04;  4.0000000E+04;  0.0000000E+00;  0.0000000E+00;  4.0000000E+04;  0.0000000E+00;  4.0000000E+04;  1.1763855E-05;  0.0000000E+00; -3.8991819E-04;  2.1114521E+03;
  1.2000000E-01;  9.9999998E-03;  3.1000000E-01;2195;  0.0000000E+00;  0.0000000E+00;  0.0000000E+00;  1.0093422E+03;  1.0000000E-01;  7.7398306E+03;0;  0.0000000E+00;  0.0000000E+00;  0.0000000E+00;0; -4.1324808E-03;  4.0000000E+04;  0.0000000E+00;  0.0000000E+00;  4.0000000E+04;  0.0000000E+00;  4.0000000E+04; -2.9508099E-03;  0.0000000E+00; -1.1816708E-03;  1.2857384E+04;
  1.2000000E-01;  9.9999998E-03;  3.1999999E-01;2196;  0.0000000E+00;  0.0000000E+00;  0.0000000E+00;  1.0079153E+03;  1.0000000E-01;  6.5576416E+03;0;  0.0000000E+00;  0.0000000E+00;  0.0000000E+00;0; -3.7862414E-03;  4.0000000E+04;  0.0000000E+00;  0.0000000E+00;  4.0000000E+04;  0.0000000E+00;  4.0000000E+04; -2.4310241E-03;  0.0000000E+00; -1.3552173E-03;  1.1344355E+04;
  1.2000000E-01;  9.9999998E-03;  3.3000001E-01;2197;  0.0000000E+00;  0.0000000E+00;  0.0000000E+00;  1.0064799E+03;  1.0000000E-01;  5.3685396E+03;0;  0.0000000E+00;  0.0000000E+00;  0.0000000E+00;0; -3.3429398E-03;  4.0000000E+04;  0.0000000E+00;  0.0000000E+00;  4.0000000E+04;  0.0000000E+00;  4.0000000E+04; -1.9274497E-03;  0.0000000E+00; -1.4154901E-03;  9.7250938E+03;
  1.2000000E-01;  9.9999998E-03;  3.4000000E-01;2198;  0.0000000E+00;  0.0000000E+00;  0.0000000E+00;  1.0051235E+03;  1.0000000E-01;  4.2447192E+03;0;  0.0000000E+00;  0.0000000E+00;  0.0000000E+00;0; -2.8477116E-03;  4.0000000E+04;  0.0000000E+00;  0.0000000E+00;  4.0000000E+04;  0.0000000E+00;  4.0000000E+04; -1.4620301E-03;  0.0000000E+00; -1.3856816E-03;  8.2501396E+03;
  1.2000000E-01;  9.9999998E-03;  3.4999999E-01;2199;  0.0000000E+00;  0.0000000E+00;  0.0000000E+00;  1.0039109E+03;  1.0000000E-01;  3.2401060E+03;0;  0.0000000E+00;  0.0000000E+00;  0.0000000E+00;0; -2.3431836E-03;  4.0000000E+04;  0.0000000E+00;  0.0000000E+00;  4.0000000E+04;  0.0000000E+00;  4.0000000E+04; -1.0536539E-03;  0.0000000E+00; -1.2895297E-03;  7.0197412E+03;
  1.2000000E-01;  9.9999998E-03;  3.6000001E-01;2200;  0.0000000E+00;  0.0000000E+00;  0.0000000E+00;  1.0028760E+03;  1.0000000E-01;  2.3826487E+03;0;  0.0000000E+00;  0.0000000E+00;  0.0000000E+00;0; -1.8625462E-03;  4.0000000E+04;  0.0000000E+00;  0.0000000E+00;  4.0000000E+04;  0.0000000E+00;  4.0000000E+04; -7.1475550E-04;  0.0000000E+00; -1.1477907E-03;  6.0007295E+03;
  1.2000000E-01;  9.9999998E-03;  3.7000000E-01;2201;  0.0000000E+00;  0.0000000E+00;  0.0000000E+00;  1.0020405E+03;  1.0000000E-01;  1.6905201E+03;0;  0.0000000E+00;  0.0000000E+00;  0.0000000E+00;0; -1.4274837E-03;  4.0000000E+04;  0.0000000E+00;  0.0000000E+00;  4.0000000E+04;  0.0000000E+00;  4.0000000E+04; -4.4987939E-04;  0.0000000E+00; -9.7760430E-04;  5.1006768E+03;
  1.2000000E-01;  9.9999998E-03;  3.8000000E-01;2202;  0.0000000E+00;  0.0000000E+00;  0.0000000E+00;  1.0013776E+03;  1.0000000E-01;  1.1413010E+03;0;  0.0000000E+00;  0.0000000E+00;  0.0000000E+00;0; -1.0494855E-03;  4.0000000E+04;  0.0000000E+00;  0.0000000E+00;  4.0000000E+04;  0.0000000E+00;  4.0000000E+04; -2.5620247E-04;  0.0000000E+00; -7.9328299E-04;  4.2377393E+03;
  1.2000000E-01;  9.9999998E-03;  3.8999999E-01;2203;  0.0000000E+00;  0.0000000E+00;  0.0000000E+00;  1.0008910E+03;  1.0000000E-01;  7.3815198E+02;0;  0.0000000E+00;  0.0000000E+00;  0.0000000E+00;0; -7.3293579E-04;  4.0000000E+04;  0.0000000E+00;  0.0000000E+00;  4.0000000E+04;  0.0000000E+00;  4.0000000E+04; -1.2538099E-04;  0.0000000E+00; -6.0755480E-04;  3.3723850E+03;
  1.2000000E-01;  9.9999998E-03;  4.0000001E-01;2204;  0.0000000E+00;  0.0000000E+00;  0.0000000E+00;  1.0005477E+03;  1.0000000E-01;  4.5371558E+02;0;  0.0000000E+00;  0.0000000E+00;  0.0000000E+00;0; -4.7836610E-04;  4.0000000E+04;  0.0000000E+00;  0.0000000E+00;  4.0000000E+04;  0.0000000E+00;  4.0000000E+04; -4.5835783E-05;  0.0000000E+00; -4.3253033E-04;  2.5106919E+03;
  1.3000000E-01;  9.9999998E-03;  3.1000000E-01;2225;  0.0000000E+00;  0.0000000E+00;  0.0000000E+00;  1.0099734E+03;  1.0000000E-01;  8.2627783E+03;0;  0.0000000E+00;  0.0000000E+00;  0.0000000E+00;0; -4.8662089E-03;  4.0000000E+04;  0.0000000E+00;  0.0000000E+00;  4.0000000E+04;  0.0000000E+00;  4.0000000E+04; -3.6843924E-03;  0.0000000E+00; -1.1818163E-03;  2.0794312E+04;
  1.3000000E-01;  9.9999998E-03;  3.1999999E-01;2226;  0.0000000E+00;  0.0000000E+00;  0.0000000E+00;  1.0085054E+03;  1.0000000E-01;  7.0465166E+03;0;  0.0000000E+00;  0.0000000E+00;  0.0000000E+00;0; -4.5031523E-03;  4.0000000E+04;  0.0000000E+00;  0.0000000E+00;  4.0000000E+04;  0.0000000E+00;  4.0000000E+04; -3.1165194E-03;  0.0000000E+00; -1.3866328E-03;  1.8148973E+04;
  1.3000000E-01;  9.9999998E-03;  3.3000001E-01;2227;  0.0000000E+00;  0.0000000E+00;  0.0000000E+00;  1.0070059E+03;  1.0000000E-01;  5.8041816E+03;0;  0.0000000E+00;  0.0000000E+00;  0.0000000E+00;0; -4.0118396E-03;  4.0000000E+04;  0.0000000E+00;  0.0000000E+00;  4.0000000E+04;  0.0000000E+00;  4.0000000E+04; -2.5441761E-03;  0.0000000E+00; -1.4676636E-03;  1.4983279E+04;
  1.3000000E-01;  9.9999998E-03;  3.4000000E-01;2228;  0.0000000E+00;  0.0000000E+00;  0.0000000E+00;  1.0055657E+03;  1.0000000E-01;  4.6111289E+03;0;  0.0000000E+00;  0.0000000E+00;  0.0000000E+00;0; -3.4468032E-03;  4.0000000E+04;  0.0000000E+00;  0.0000000E+00;  4.0000000E+04;  0.0000000E+00;  4.0000000E+04; -1.9967931E-03;  0.0000000E+00; -1.4500101E-03;  1.1869551E+04;
  1.3000000E-01;  9.9999998E-03;  3.4999999E-01;2229;  0.0000000E+00;  0.0000000E+00;  0.0000000E+00;  1.0042634E+03;  1.0000000E-01;  3.5321470E+03;0;  0.0000000E+00;  0.0000000E+00;  0.0000000E+00;0; -2.8601601E-03;  4.0000000E+04;  0.0000000E+00;  0.0000000E+00;  4.0000000E+04;  0.0000000E+00;  4.0000000E+04; -1.5006377E-03;  0.0000000E+00; -1.3595223E-03;  9.2143574E+03;
  1.3000000E-01;  9.9999998E-03;  3.6000001E-01;2230;  0.0000000E+00;  0.0000000E+00;  0.0000000E+00;  1.0031429E+03;  1.0000000E-01;  2.6038770E+03;0;  0.0000000E+00;  0.0000000E+00;  0.0000000E+00;0; -2.2931960E-03;  4.0000000E+04;  0.0000000E+00;  0.0000000E+00;  4.0000000E+04;  0.0000000E+00;  4.0000000E+04; -1.0746815E-03;  0.0000000E+00; -1.2185145E-03;  7.1934893E+03;
  1.3000000E-01;  9.9999998E-03;  3.7000000E-01;2231;  0.0000000E+00;  0.0000000E+00;  0.0000000E+00;  1.0022208E+03;  1.0000000E-01;  1.8398492E+03;0;  0.0000000E+00;  0.0000000E+00;  0.0000000E+00;0; -1.7736014E-03;  4.0000000E+04;  0.0000000E+00;  0.0000000E+00;  4.0000000E+04;  0.0000000E+00;  4.0000000E+04; -7.2850345E-04;  0.0000000E+00; -1.0450979E-03;  5.7566621E+03;
  1.3000000E-01;  9.9999998E-03;  3.8000000E-01;2232;  0.0000000E+00;  0.0000000E+00;  0.0000000E+00;  1.0015049E+03;  1.0000000E-01;  1.2467795E+03;0;  0.0000000E+00;  0.0000000E+00;  0.0000000E+00;0; -1.3167979E-03;  4.0000000E+04;  0.0000000E+00;  0.0000000E+00;  4.0000000E+04;  0.0000000E+00;  4.0000000E+04; -4.6261237E-04;  0.0000000E+00; -8.5418555E-04;  4.7038120E+03;
  1.3000000E-01;  9.9999998E-03;  3.8999999E-01;2233;  0.0000000E+00;  0.0000000E+00;  0.0000000E+00;  1.0009585E+03;  1.0000000E-01;  7.9405164E+02;0;  0.0000000E+00;  0.0000000E+00;  0.0000000E+00;0; -9.2953257E-04;  4.0000000E+04;  0.0000000E+00;  0.0000000E+00;  4.0000000E+04;  0.0000000E+00;  4.0000000E+04; -2.7048276E-04;  0.0000000E+00; -6.5904978E-04;  3.8166941E+03;
  1.3000000E-01;  9.9999998E-03;  4.0000001E-01;2234;  0.0000000E+00;  0.0000000E+00;  0.0000000E+00;  1.0005834E+03;  1.0000000E-01;  4.8334436E+02;0;  0.0000000E+00;  0.0000000E+00;  0.0000000E+00;0; -6.1382569E-04;  4.0000000E+04;  0.0000000E+00;  0.0000000E+00;  4.0000000E+04;  0.0000000E+00;  4.0000000E+04; -1.4123919E-04;  0.0000000E+00; -4.7258651E-04;  2.9605454E+03;
  1.4000000E-01;  9.9999998E-03;  3.1000000E-01;2255;  0.0000000E+00;  0.0000000E+00;  0.0000000E+00;  1.0107451E+03;  1.0000000E-01;  8.9021680E+03;0;  0.0000000E+00;  0.0000000E+00;  0.0000000E+00;0; -5.7702470E-03;  4.0000000E+04;  0.0000000E+00;  0.0000000E+00;  4.0000000E+04;  0.0000000E+00;  4.0000000E+04; -4.6038316E-03;  0.0000000E+00; -1.1664155E-03;  3.1380516E+04;
  1.4000000E-01;  9.9999998E-03;  3.1999999E-01;2256;  0.0000000E+00;  0.0000000E+00;  0.0000000E+00;  1.0092378E+03;  1.0000000E-01;  7.6533145E+03;0;  0.0000000E+00;  0.0000000E+00;  0.0000000E+00;0; -5.3802109E-03;  4.0000000E+04;  0.0000000E+00;  0.0000000E+00;  4.0000000E+04;  0.0000000E+00;  4.0000000E+04; -3.9794501E-03;  0.0000000E+00; -1.4007608E-03;  2.7688377E+04;
  1.4000000E-01;  9.9999998E-03;  3.3000001E-01;2257;  0.0000000E+00;  0.0000000E+00;  0.0000000E+00;  1.0076640E+03;  1.0000000E-01;  6.3494502E+03;0;  0.0000000E+00;  0.0000000E+00;  0.0000000E+00;0; -4.8246901E-03;  4.0000000E+04;  0.0000000E+00;  0.0000000E+00;  4.0000000E+04;  0.0000000E+00;  4.0000000E+04; -3.3227492E-03;  0.0000000E+00; -1.5019408E-03;  2.2767988E+04;
  1.4000000E-01;  9.9999998E-03;  3.4000000E-01;2258;  0.0000000E+00;  0.0000000E+00;  0.0000000E+00;  1.0061282E+03;  1.0000000E-01;  5.0770908E+03;0;  0.0000000E+00;  0.0000000E+00;  0.0000000E+00;0; -4.1705510E-03;  4.0000000E+04;  0.0000000E+00;  0.0000000E+00;  4.0000000E+04;  0.0000000E+00;  4.0000000E+04; -2.6734644E-03;  0.0000000E+00; -1.4970864E-03;  1.7536574E+04;
  1.4000000E-01;  9.9999998E-03;  3.4999999E-01;2259;  0.0000000E+00;  0.0000000E+00;  0.0000000E+00;  1.0047162E+03;  1.0000000E-01;  3.9073462E+03;0;  0.0000000E+00;  0.0000000E+00;  0.0000000E+00;0; -3.4817071E-03;  4.0000000E+04;  0.0000000E+00;  0.0000000E+00;  4.0000000E+04;  0.0000000E+00;  4.0000000E+04; -2.0678574E-03;  0.0000000E+00; -1.4138498E-03;  1.2767291E+04;
  1.4000000E-01;  9.9999998E-03;  3.6000001E-01;2260;  0.0000000E+00;  0.0000000E+00;  0.0000000E+00;  1.0034881E+03;  1.0000000E-01;  2.8897949E+03;0;  0.0000000E+00;  0.0000000E+00;  0.0000000E+00;0; -2.8092018E-03;  4.0000000E+04;  0.0000000E+00;  0.0000000E+00;  4.0000000E+04;  0.0000000E+00;  4.0000000E+04; -1.5334392E-03;  0.0000000E+00; -1.2757627E-03;  8.9874746E+03;
  1.4000000E-01;  9.9999998E-03;  3.7000000E-01;2261;  0.0000000E+00;  0.0000000E+00;  0.0000000E+00;  1.0024717E+03;  1.0000000E-01;  2.0477445E+03;0;  0.0000000E+00;  0.0000000E+00;  0.0000000E+00;0; -2.1878239E-03;  4.0000000E+04;  0.0000000E+00;  0.0000000E+00;  4.0000000E+04;  0.0000000E+00;  4.0000000E+04; -1.0861752E-03;  0.0000000E+00; -1.1016486E-03;  6.4476108E+03;
  1.4000000E-01;  9.9999998E-03;  3.8000000E-01;2262;  0.0000000E+00;  0.0000000E+00;  0.0000000E+00;  1.0016711E+03;  1.0000000E-01;  1.3845535E+03;0;  0.0000000E+00;  0.0000000E+00;  0.0000000E+00;0; -1.6373994E-03;  4.0000000E+04;  0.0000000E+00;  0.0000000E+00;  4.0000000E+04;  0.0000000E+00;  4.0000000E+04; -7.3060708E-04;  0.0000000E+00; -9.0679235E-04;  5.0361445E+03;
  1.4000000E-01;  9.9999998E-03;  3.8999999E-01;2263;  0.0000000E+00;  0.0000000E+00;  0.0000000E+00;  1.0010660E+03;  1.0000000E-01;  8.8323425E+02;0;  0.0000000E+00;  0.0000000E+00;  0.0000000E+00;0; -1.1669293E-03;  4.0000000E+04;  0.0000000E+00;  0.0000000E+00;  4.0000000E+04;  0.0000000E+00;  4.0000000E+04; -4.6217549E-04;  0.0000000E+00; -7.0475379E-04;  4.2596372E+03;
  1.4000000E-01;  9.9999998E-03;  4.0000001E-01;2264;  0.0000000E+00;  0.0000000E+00;  0.0000000E+00;  1.0006296E+03;  1.0000000E-01;  5.2156549E+02;0;  0.0000000E+00;  0.0000000E+00;  0.0000000E+00;0; -7.7950209E-04;  4.0000000E+04;  0.0000000E+00;  0.0000000E+00;  4.0000000E+04;  0.0000000E+00;  4.0000000E+04; -2.7051286E-04;  0.0000000E+00; -5.0898921E-04;  3.5923481E+03;
  1.5000001E-01;  9.9999998E-03;  3.1000000E-01;2285;  0.0000000E+00;  0.0000000E+00;  0.0000000E+00;  1.0116099E+03;  1.0000000E-01;  9.6185918E+03;0;  0.0000000E+00;  0.0000000E+00;  0.0000000E+00;0; -6.7079957E-03;  4.0000000E+04;  0.0000000E+00;  0.0000000E+00;  4.0000000E+04;  0.0000000E+00;  4.0000000E+04; -5.5625881E-03;  0.0000000E+00; -1.1454074E-03;  4.4709414E+04;
  1.5000001E-01;  9.9999998E-03;  3.1999999E-01;2286;  0.0000000E+00;  0.0000000E+00;  0.0000000E+00;  1.0100707E+03;  1.0000000E-01;  8.3433691E+03;0;  0.0000000E+00;  0.0000000E+00;  0.0000000E+00;0; -6.2975935E-03;  4.0000000E+04;  0.0000000E+00;  0.0000000E+00;  4.0000000E+04;  0.0000000E+00;  4.0000000E+04; -4.8942859E-03;  0.0000000E+00; -1.4033077E-03;  4.0221520E+04;
  1.5000001E-01;  9.9999998E-03;  3.3000001E-01;2287;  0.0000000E+00;  0.0000000E+00;  0.0000000E+00;  1.0084268E+03;  1.0000000E-01;  6.9814321E+03;0;  0.0000000E+00;  0.0000000E+00;  0.0000000E+00;0; -5.6789797E-03;  4.0000000E+04;  0.0000000E+00;  0.0000000E+00;  4.0000000E+04;  0.0000000E+00;  4.0000000E+04; -4.1576806E-03;  0.0000000E+00; -1.5212991E-03;  3.3441355E+04;
  1.5000001E-01;  9.9999998E-03;  3.4000000E-01;2288;  0.0000000E+00;  0.0000000E+00;  0.0000000E+00;  1.0067885E+03;  1.0000000E-01;  5.6241372E+03;0;  0.0000000E+00;  0.0000000E+00;  0.0000000E+00;0; -4.9337037E-03;  4.0000000E+04;  0.0000000E+00;  0.0000000E+00;  4.0000000E+04;  0.0000000E+00;  4.0000000E+04; -3.4054830E-03;  0.0000000E+00; -1.5282209E-03;  2.5680391E+04;
  1.5000001E-01;  9.9999998E-03;  3.4999999E-01;2289;  0.0000000E+00;  0.0000000E+00;  0.0000000E+00;  1.0052612E+03;  1.0000000E-01;  4.3587905E+03;0;  0.0000000E+00;  0.0000000E+00;  0.0000000E+00;0; -4.1389125E-03;  4.0000000E+04;  0.0000000E+00;  0.0000000E+00;  4.0000000E+04;  0.0000000E+00;  4.0000000E+04; -2.6861574E-03;  0.0000000E+00; -1.4527553E-03;  1.8151207E+04;
  1.5000001E-01;  9.9999998E-03;  3.6000001E-01;2290;  0.0000000E+00;  0.0000000E+00;  0.0000000E+00;  1.0039067E+03;  1.0000000E-01;  3.2366492E+03;0;  0.0000000E+00;  0.0000000E+00;  0.0000000E+00;0; -3.3564551E-03;  4.0000000E+04;  0.0000000E+00;  0.0000000E+00;  4.0000000E+04;  0.0000000E+00;  4.0000000E+04; -2.0373380E-03;  0.0000000E+00; -1.3191171E-03;  1.1791421E+04;
  1.5000001E-01;  9.9999998E-03;  3.7000000E-01;2291;  0.0000000E+00;  0.0000000E+00;  0.0000000E+00;  1.0027773E+03;  1.0000000E-01;  2.3009719E+03;0;  0.0000000E+00;  0.0000000E+00;  0.0000000E+00;0; -2.6290417E-03;  4.0000000E+04;  0.0000000E+00;  0.0000000E+00;  4.0000000E+04;  0.0000000E+00;  4.0000000E+04; -1.4825367E-03;  0.0000000E+00; -1.1465049E-03;  7.3119277E+03;
  1.5000001E-01;  9.9999998E-03;  3.8000000E-01;2292;  0.0000000E+00;  0.0000000E+00;  0.0000000E+00;  1.0018741E+03;  1.0000000E-01;  1.5526475E+03;0;  0.0000000E+00;  0.0000000E+00;  0.0000000E+00;0; -1.9813930E-03;  4.0000000E+04;  0.0000000E+00;  0.0000000E+00;  4.0000000E+04;  0.0000000E+00;  4.0000000E+04; -1.0310682E-03;  0.0000000E+00; -9.5032481E-04;  5.1944824E+03;
  1.5000001E-01;  9.9999998E-03;  3.8999999E-01;2293;  0.0000000E+00;  0.0000000E+00;  0.0000000E+00;  1.0011991E+03;  1.0000000E-01;  9.9345337E+02;0;  0.0000000E+00;  0.0000000E+00;  0.0000000E+00;0; -1.4247869E-03;  4.0000000E+04;  0.0000000E+00;  0.0000000E+00;  4.0000000E+04;  0.0000000E+00;  4.0000000E+04; -6.8063173E-04;  0.0000000E+00; -7.4415520E-04;  4.8246421E+03;
  1.5000001E-01;  9.9999998E-03;  4.0000001E-01;2294;  0.0000000E+00;  0.0000000E+00;  0.0000000E+00;  1.0007147E+03;  1.0000000E-01;  5.9218079E+02;0;  0.0000000E+00;  0.0000000E+00;  0.0000000E+00;0; -9.6292736E-04;  4.0000000E+04;  0.0000000E+00;  0.0000000E+00;  4.0000000E+04;  0.0000000E+00;  4.0000000E+04; -4.2130577E-04;  0.0000000E+00; -5.4162159E-04;  4.6800933E+03;
  1.6000000E-01;  9.9999998E-03;  3.1000000E-01;2315;  0.0000000E+00;  0.0000000E+00;  0.0000000E+00;  1.0124885E+03;  1.0000000E-01;  1.0346473E+04;0;  0.0000000E+00;  0.0000000E+00;  0.0000000E+00;0; -7.5009847E-03;  4.0000000E+04;  0.0000000E+00;  0.0000000E+00;  4.0000000E+04;  0.0000000E+00;  4.0000000E+04; -6.3786563E-03;  0.0000000E+00; -1.1223286E-03;  6.0693012E+04;
  1.6000000E-01;  9.9999998E-03;  3.1999999E-01;2316;  0.0000000E+00;  0.0000000E+00;  0.0000000E+00;  1.0109384E+03;  1.0000000E-01;  9.0622627E+03;0;  0.0000000E+00;  0.0000000E+00;  0.0000000E+00;0; -7.0890859E-03;  4.0000000E+04;  0.0000000E+00;  0.0000000E+00;  4.0000000E+04;  0.0000000E+00;  4.0000000E+04; -5.6925146E-03;  0.0000000E+00; -1.3965715E-03;  5.5775879E+04;
  1.6000000E-01;  9.9999998E-03;  3.3000001E-01;2317;  0.0000000E+00;  0.0000000E+00;  0.0000000E+00;  1.0092281E+03;  1.0000000E-01;  7.6453145E+03;0;  0.0000000E+00;  0.0000000E+00;  0.0000000E+00;0; -6.4264629E-03;  4.0000000E+04;  0.0000000E+00;  0.0000000E+00;  4.0000000E+04;  0.0000000E+00;  4.0000000E+04; -4.8986315E-03;  0.0000000E+00; -1.5278314E-03;  4.7102105E+04;
  1.6000000E-01;  9.9999998E-03;  3.4000000E-01;2318;  0.0000000E+00;  0.0000000E+00;  0.0000000E+00;  1.0074913E+03;  1.0000000E-01;  6.2063428E+03;0;  0.0000000E+00;  0.0000000E+00;  0.0000000E+00;0; -5.6090611E-03;  4.0000000E+04;  0.0000000E+00;  0.0000000E+00;  4.0000000E+04;  0.0000000E+00;  4.0000000E+04; -4.0638298E-03;  0.0000000E+00; -1.5452313E-03;  3.6445148E+04;
  1.6000000E-01;  9.9999998E-03;  3.4999999E-01;2319;  0.0000000E+00;  0.0000000E+00;  0.0000000E+00;  1.0058412E+03;  1.0000000E-01;  4.8393691E+03;0;  0.0000000E+00;  0.0000000E+00;  0.0000000E+00;0; -4.7263945E-03;  4.0000000E+04;  0.0000000E+00;  0.0000000E+00;  4.0000000E+04;  0.0000000E+00;  4.0000000E+04; -3.2487696E-03;  0.0000000E+00; -1.4776249E-03;  2.5560793E+04;
  1.6000000E-01;  9.9999998E-03;  3.6000001E-01;2320;  0.0000000E+00;  0.0000000E+00;  0.0000000E+00;  1.0043604E+03;  1.0000000E-01;  3.6125398E+03;0;  0.0000000E+00;  0.0000000E+00;  0.0000000E+00;0; -3.8505518E-03;  4.0000000E+04;  0.0000000E+00;  0.0000000E+00;  4.0000000E+04;  0.0000000E+00;  4.0000000E+04; -2.5010207E-03;  0.0000000E+00; -1.3495311E-03;  1.5866748E+04;
  1.6000000E-01;  9.9999998E-03;  3.7000000E-01;2321;  0.0000000E+00;  0.0000000E+00;  0.0000000E+00;  1.0031032E+03;  1.0000000E-01;  2.5709890E+03;0;  0.0000000E+00;  0.0000000E+00;  0.0000000E+00;0; -3.0319421E-03;  4.0000000E+04;  0.0000000E+00;  0.0000000E+00;  4.0000000E+04;  0.0000000E+00;  4.0000000E+04; -1.8516096E-03;  0.0000000E+00; -1.1803324E-03;  8.5311768E+03;
  1.6000000E-01;  9.9999998E-03;  3.8000000E-01;2322;  0.0000000E+00;  0.0000000E+00;  0.0000000E+00;  1.0021124E+03;  1.0000000E-01;  1.7500740E+03;0;  0.0000000E+00;  0.0000000E+00;  0.0000000E+00;0; -2.3001935E-03;  4.0000000E+04;  0.0000000E+00;  0.0000000E+00;  4.0000000E+04;  0.0000000E+00;  4.0000000E+04; -1.3148353E-03;  0.0000000E+00; -9.8535826E-04;  5.1574395E+03;
  1.6000000E-01;  9.9999998E-03;  3.8999999E-01;2323;  0.0000000E+00;  0.0000000E+00;  0.0000000E+00;  1.0013553E+03;  1.0000000E-01;  1.1228324E+03;0;  0.0000000E+00;  0.0000000E+00;  0.0000000E+00;0; -1.6687601E-03;  4.0000000E+04;  0.0000000E+00;  0.0000000E+00;  4.0000000E+04;  0.0000000E+00;  4.0000000E+04; -8.9088309E-04;  0.0000000E+00; -7.7787694E-04;  5.7591616E+03;
  1.6000000E-01;  9.9999998E-03;  4.0000001E-01;2324;  0.0000000E+00;  0.0000000E+00;  0.0000000E+00;  1.0008104E+03;  1.0000000E-01;  6.7138843E+02;0;  0.0000000E+00;  0.0000000E+00;  0.0000000E+00;0; -1.1415803E-03;  4.0000000E+04;  0.0000000E+00;  0.0000000E+00;  4.0000000E+04;  0.0000000E+00;  4.0000000E+04; -5.7030405E-04;  0.0000000E+00; -5.7127624E-04;  6.5558501E+03;
  1.7000000E-01;  9.9999998E-03;  3.1000000E-01;2345;  0.0000000E+00;  0.0000000E+00;  0.0000000E+00;  1.0132824E+03;  1.0000000E-01;  1.1004232E+04;0;  0.0000000E+00;  0.0000000E+00;  0.0000000E+00;0; -7.9402542E-03;  4.0000000E+04;  0.0000000E+00;  0.0000000E+00;  4.0000000E+04;  0.0000000E+00;  4.0000000E+04; -6.8462226E-03;  0.0000000E+00; -1.0940317E-03;  7.8901812E+04;
  1.7000000E-01;  9.9999998E-03;  3.1999999E-01;2346;  0.0000000E+00;  0.0000000E+00;  0.0000000E+00;  1.0117297E+03;  1.0000000E-01;  9.7178486E+03;0;  0.0000000E+00;  0.0000000E+00;  0.0000000E+00;0; -7.5550284E-03;  4.0000000E+04;  0.0000000E+00;  0.0000000E+00;  4.0000000E+04;  0.0000000E+00;  4.0000000E+04; -6.1748046E-03;  0.0000000E+00; -1.3802239E-03;  7.3911531E+04;
  1.7000000E-01;  9.9999998E-03;  3.3000001E-01;2347;  0.0000000E+00;  0.0000000E+00;  0.0000000E+00;  1.0099738E+03;  1.0000000E-01;  8.2630752E+03;0;  0.0000000E+00;  0.0000000E+00;  0.0000000E+00;0; -6.8859002E-03;  4.0000000E+04;  0.0000000E+00;  0.0000000E+00;  4.0000000E+04;  0.0000000E+00;  4.0000000E+04; -5.3628441E-03;  0.0000000E+00; -1.5230558E-03;  6.3330797E+04;
  1.7000000E-01;  9.9999998E-03;  3.4000000E-01;2348;  0.0000000E+00;  0.0000000E+00;  0.0000000E+00;  1.0081503E+03;  1.0000000E-01;  6.7524019E+03;0;  0.0000000E+00;  0.0000000E+00;  0.0000000E+00;0; -6.0386229E-03;  4.0000000E+04;  0.0000000E+00;  0.0000000E+00;  4.0000000E+04;  0.0000000E+00;  4.0000000E+04; -4.4884123E-03;  0.0000000E+00; -1.5502108E-03;  4.9475238E+04;
  1.7000000E-01;  9.9999998E-03;  3.4999999E-01;2349;  0.0000000E+00;  0.0000000E+00;  0.0000000E+00;  1.0063866E+03;  1.0000000E-01;  5.2912085E+03;0;  0.0000000E+00;  0.0000000E+00;  0.0000000E+00;0; -5.1113362E-03;  4.0000000E+04;  0.0000000E+00;  0.0000000E+00;  4.0000000E+04;  0.0000000E+00;  4.0000000E+04; -3.6208171E-03;  0.0000000E+00; -1.4905191E-03;  3.4745730E+04;
  1.7000000E-01;  9.9999998E-03;  3.6000001E-01;2350;  0.0000000E+00;  0.0000000E+00;  0.0000000E+00;  1.0047944E+03;  1.0000000E-01;  3.9721345E+03;0;  0.0000000E+00;  0.0000000E+00;  0.0000000E+00;0; -4.1836528E-03;  4.0000000E+04;  0.0000000E+00;  0.0000000E+00;  4.0000000E+04;  0.0000000E+00;  4.0000000E+04; -2.8148009E-03;  0.0000000E+00; -1.3688516E-03;  2.1121186E+04;
  1.7000000E-01;  9.9999998E-03;  3.7000000E-01;2351;  0.0000000E+00;  0.0000000E+00;  0.0000000E+00;  1.0034378E+03;  1.0000000E-01;  2.8481169E+03;0;  0.0000000E+00;  0.0000000E+00;  0.0000000E+00;0; -3.3119535E-03;  4.0000000E+04;  0.0000000E+00;  0.0000000E+00;  4.0000000E+04;  0.0000000E+00;  4.0000000E+04; -2.1072060E-03;  0.0000000E+00; -1.2047475E-03;  1.0188310E+04;
  1.7000000E-01;  9.9999998E-03;  3.8000000E-01;2352;  0.0000000E+00;  0.0000000E+00;  0.0000000E+00;  1.0023409E+03;  1.0000000E-01;  1.9394020E+03;0;  0.0000000E+00;  0.0000000E+00;  0.0000000E+00;0; -2.5297888E-03;  4.0000000E+04;  0.0000000E+00;  0.0000000E+00;  4.0000000E+04;  0.0000000E+00;  4.0000000E+04; -1.5164610E-03;  0.0000000E+00; -1.0133279E-03;  4.9336660E+03;
  1.7000000E-01;  9.9999998E-03;  3.8999999E-01;2353;  0.0000000E+00;  0.0000000E+00;  0.0000000E+00;  1.0015051E+03;  1.0000000E-01;  1.2468783E+03;0;  0.0000000E+00;  0.0000000E+00;  0.0000000E+00;0; -1.8523645E-03;  4.0000000E+04;  0.0000000E+00;  0.0000000E+00;  4.0000000E+04;  0.0000000E+00;  4.0000000E+04; -1.0450592E-03;  0.0000000E+00; -8.0730527E-04;  7.3298501E+03;
  1.7000000E-01;  9.9999998E-03;  4.0000001E-01;2354;  0.0000000E+00;  0.0000000E+00;  0.0000000E+00;  1.0009047E+03;  1.0000000E-01;  7.4950964E+02;0;  0.0000000E+00;  0.0000000E+00;  0.0000000E+00;0; -1.2835348E-03;  4.0000000E+04;  0.0000000E+00;  0.0000000E+00;  4.0000000E+04;  0.0000000E+00;  4.0000000E+04; -6.8414432E-04;  0.0000000E+00; -5.9939048E-04;  9.4194043E+03;
  1.8000001E-01;  9.9999998E-03;  3.1000000E-01;2375;  0.0000000E+00;  0.0000000E+00;  0.0000000E+00;  1.0138818E+03;  1.0000000E-01;  1.1500811E+04;0;  0.0000000E+00;  0.0000000E+00;  0.0000000E+00;0; -7.8234319E-03;  4.0000000E+04;  0.0000000E+00;  0.0000000E+00;  4.0000000E+04;  0.0000000E+00;  4.0000000E+04; -6.7623090E-03;  0.0000000E+00; -1.0611225E-03;  9.8268328E+04;
  1.8000001E-01;  9.9999998E-03;  3.1999999E-01;2376;  0.0000000E+00;  0.0000000E+00;  0.0000000E+00;  1.0123395E+03;  1.0000000E-01;  1.0223118E+04;0;  0.0000000E+00;  0.0000000E+00;  0.0000000E+00;0; -7.5047221E-03;  4.0000000E+04;  0.0000000E+00;  0.0000000E+00;  4.0000000E+04;  0.0000000E+00;  4.0000000E+04; -6.1477600E-03;  0.0000000E+00; -1.3569621E-03;  9.3409641E+04;
  1.8000001E-01;  9.9999998E-03;  3.3000001E-01;2377;  0.0000000E+00;  0.0000000E+00;  0.0000000E+00;  1.0105526E+03;  1.0000000E-01;  8.7426660E+03;0;  0.0000000E+00;  0.0000000E+00;  0.0000000E+00;0; -6.8847658E-03;  4.0000000E+04;  0.0000000E+00;  0.0000000E+00;  4.0000000E+04;  0.0000000E+00;  4.0000000E+04; -5.3750640E-03;  0.0000000E+00; -1.5097018E-03;  8.0910180E+04;
  1.8000001E-01;  9.9999998E-03;  3.4000000E-01;2378;  0.0000000E+00;  0.0000000E+00;  0.0000000E+00;  1.0086648E+03;  1.0000000E-01;  7.1786611E+03;0;  0.0000000E+00;  0.0000000E+00;  0.0000000E+00;0; -6.0717682E-03;  4.0000000E+04;  0.0000000E+00;  0.0000000E+00;  4.0000000E+04;  0.0000000E+00;  4.0000000E+04; -4.5263376E-03;  0.0000000E+00; -1.5454307E-03;  6.3701285E+04;
  1.8000001E-01;  9.9999998E-03;  3.4999999E-01;2379;  0.0000000E+00;  0.0000000E+00;  0.0000000E+00;  1.0068205E+03;  1.0000000E-01;  5.6506055E+03;0;  0.0000000E+00;  0.0000000E+00;  0.0000000E+00;0; -5.1667294E-03;  4.0000000E+04;  0.0000000E+00;  0.0000000E+00;  4.0000000E+04;  0.0000000E+00;  4.0000000E+04; -3.6733854E-03;  0.0000000E+00; -1.4933440E-03;  4.4884832E+04;
  1.8000001E-01;  9.9999998E-03;  3.6000001E-01;2380;  0.0000000E+00;  0.0000000E+00;  0.0000000E+00;  1.0051394E+03;  1.0000000E-01;  4.2578550E+03;0;  0.0000000E+00;  0.0000000E+00;  0.0000000E+00;0; -4.2522494E-03;  4.0000000E+04;  0.0000000E+00;  0.0000000E+00;  4.0000000E+04;  0.0000000E+00;  4.0000000E+04; -2.8734771E-03;  0.0000000E+00; -1.3787721E-03;  2.7037014E+04;
  1.8000001E-01;  9.9999998E-03;  3.7000000E-01;2381;  0.0000000E+00;  0.0000000E+00;  0.0000000E+00;  1.0036995E+03;  1.0000000E-01;  3.0649009E+03;0;  0.0000000E+00;  0.0000000E+00;  0.0000000E+00;0; -3.3873902E-03;  4.0000000E+04;  0.0000000E+00;  0.0000000E+00;  4.0000000E+04;  0.0000000E+00;  4.0000000E+04; -2.1660470E-03;  0.0000000E+00; -1.2213431E-03;  1.2134131E+04;
  1.8000001E-01;  9.9999998E-03;  3.8000000E-01;2382;  0.0000000E+00;  0.0000000E+00;  0.0000000E+00;  1.0025338E+03;  1.0000000E-01;  2.0992000E+03;0;  0.0000000E+00;  0.0000000E+00;  0.0000000E+00;0; -2.6076408E-03;  4.0000000E+04;  0.0000000E+00;  0.0000000E+00;  4.0000000E+04;  0.0000000E+00;  4.0000000E+04; -1.5718720E-03;  0.0000000E+00; -1.0357687E-03;  4.5837573E+03;
  1.8000001E-01;  9.9999998E-03;  3.8999999E-01;2383;  0.0000000E+00;  0.0000000E+00;  0.0000000E+00;  1.0016411E+03;  1.0000000E-01;  1.3596653E+03;0;  0.0000000E+00;  0.0000000E+00;  0.0000000E+00;0; -1.9290874E-03;  4.0000000E+04;  0.0000000E+00;  0.0000000E+00;  4.0000000E+04;  0.0000000E+00;  4.0000000E+04; -1.0951853E-03;  0.0000000E+00; -8.3390216E-04;  9.6101416E+03;
  1.8000001E-01;  9.9999998E-03;  4.0000001E-01;2384;  0.0000000E+00;  0.0000000E+00;  0.0000000E+00;  1.0009985E+03;  1.0000000E-01;  8.2723584E+02;0;  0.0000000E+00;  0.0000000E+00;  0.0000000E+00;0; -1.3553922E-03;  4.0000000E+04;  0.0000000E+00;  0.0000000E+00;  4.0000000E+04;  0.0000000E+00;  4.0000000E+04; -7.2802469E-04;  0.0000000E+00; -6.2736752E-04;  1.3215632E+04;
  1.9000000E-01;  9.9999998E-03;  3.1000000E-01;2405;  0.0000000E+00;  0.0000000E+00;  0.0000000E+00;  1.0141951E+03;  1.0000000E-01;  1.1760358E+04;0;  0.0000000E+00;  0.0000000E+00;  0.0000000E+00;0; -7.0309350E-03;  4.0000000E+04;  0.0000000E+00;  0.0000000E+00;  4.0000000E+04;  0.0000000E+00;  4.0000000E+04; -5.9962058E-03;  0.0000000E+00; -1.0347291E-03;  1.1691752E+05;
  1.9000000E-01;  9.9999998E-03;  3.1999999E-01;2406;  0.0000000E+00;  0.0000000E+00;  0.0000000E+00;  1.0126827E+03;  1.0000000E-01;  1.0507357E+04;0;  0.0000000E+00;  0.0000000E+00;  0.0000000E+00;0; -6.8287654E-03;  4.0000000E+04;  0.0000000E+00;  0.0000000E+00;  4.0000000E+04;  0.0000000E+00;  4.0000000E+04; -5.4952628E-03;  0.0000000E+00; -1.3335027E-03;  1.1217899E+05;
  1.9000000E-01;  9.9999998E-03;  3.3000001E-01;2407;  0.0000000E+00;  0.0000000E+00;  0.0000000E+00;  1.0108878E+03;  1.0000000E-01;  9.0203867E+03;0;  0.0000000E+00;  0.0000000E+00;  0.0000000E+00;0; -6.3260775E-03;  4.0000000E+04;  0.0000000E+00;  0.0000000E+00;  4.0000000E+04;  0.0000000E+00;  4.0000000E+04; -4.8354273E-03;  0.0000000E+00; -1.4906502E-03;  9.7805320E+04;
  1.9000000E-01;  9.9999998E-03;  3.4000000E-01;2408;  0.0000000E+00;  0.0000000E+00;  0.0000000E+00;  1.0089747E+03;  1.0000000E-01;  7.4353452E+03;0;  0.0000000E+00;  0.0000000E+00;  0.0000000E+00;0; -5.6253979E-03;  4.0000000E+04;  0.0000000E+00;  0.0000000E+00;  4.0000000E+04;  0.0000000E+00;  4.0000000E+04; -4.0936824E-03;  0.0000000E+00; -1.5317156E-03;  7.7376852E+04;
  1.9000000E-01;  9.9999998E-03;  3.4999999E-01;2409;  0.0000000E+00;  0.0000000E+00;  0.0000000E+00;  1.0070894E+03;  1.0000000E-01;  5.8734141E+03;0;  0.0000000E+00;  0.0000000E+00;  0.0000000E+00;0; -4.8238668E-03;  4.0000000E+04;  0.0000000E+00;  0.0000000E+00;  4.0000000E+04;  0.0000000E+00;  4.0000000E+04; -3.3377178E-03;  0.0000000E+00; -1.4861490E-03;  5.4664992E+04;
  1.9000000E-01;  9.9999998E-03;  3.6000001E-01;2410;  0.0000000E+00;  0.0000000E+00;  0.0000000E+00;  1.0053597E+03;  1.0000000E-01;  4.4404668E+03;0;  0.0000000E+00;  0.0000000E+00;  0.0000000E+00;0; -4.0013324E-03;  4.0000000E+04;  0.0000000E+00;  0.0000000E+00;  4.0000000E+04;  0.0000000E+00;  4.0000000E+04; -2.6220572E-03;  0.0000000E+00; -1.3792750E-03;  3.2778480E+04;
  1.9000000E-01;  9.9999998E-03;  3.7000000E-01;2411;  0.0000000E+00;  0.0000000E+00;  0.0000000E+00;  1.0038738E+03;  1.0000000E-01;  3.2093906E+03;0;  0.0000000E+00;  0.0000000E+00;  0.0000000E+00;0; -3.2152433E-03;  4.0000000E+04;  0.0000000E+00;  0.0000000E+00;  4.0000000E+04;  0.0000000E+00;  4.0000000E+04; -1.9849674E-03;  0.0000000E+00; -1.2302760E-03;  1.4021726E+04;
  1.9000000E-01;  9.9999998E-03;  3.8000000E-01;2412;  0.0000000E+00;  0.0000000E+00;  0.0000000E+00;  1.0026683E+03;  1.0000000E-01;  2.2107029E+03;0;  0.0000000E+00;  0.0000000E+00;  0.0000000E+00;0; -2.5004921E-03;  4.0000000E+04;  0.0000000E+00;  0.0000000E+00;  4.0000000E+04;  0.0000000E+00;  4.0000000E+04; -1.4474763E-03;  0.0000000E+00; -1.0530157E-03;  4.2480430E+03;
  1.9000000E-01;  9.9999998E-03;  3.8999999E-01;2413;  0.0000000E+00;  0.0000000E+00;  0.0000000E+00;  1.0017416E+03;  1.0000000E-01;  1.4428234E+03;0;  0.0000000E+00;  0.0000000E+00;  0.0000000E+00;0; -1.8731419E-03;  4.0000000E+04;  0.0000000E+00;  0.0000000E+00;  4.0000000E+04;  0.0000000E+00;  4.0000000E+04; -1.0150414E-03;  0.0000000E+00; -8.5810054E-04;  1.2404746E+04;
  1.9000000E-01;  9.9999998E-03;  4.0000001E-01;2414;  0.0000000E+00;  0.0000000E+00;  0.0000000E+00;  1.0010746E+03;  1.0000000E-01;  8.9024640E+02;0;  0.0000000E+00;  0.0000000E+00;  0.0000000E+00;0; -1.3369751E-03;  4.0000000E+04;  0.0000000E+00;  0.0000000E+00;  4.0000000E+04;  0.0000000E+00;  4.0000000E+04; -6.8130140E-04;  0.0000000E+00; -6.5567374E-04;  1.7631863E+04;
  2.0000000E-01;  9.9999998E-03;  3.1000000E-01;2434;  0.0000000E+00;  0.0000000E+00;  0.0000000E+00;  1.0142109E+03;  1.0000000E-01;  1.1773396E+04;0;  0.0000000E+00;  0.0000000E+00;  0.0000000E+00;0; -5.6044487E-03;  4.0000000E+04;  0.0000000E+00;  0.0000000E+00;  4.0000000E+04;  0.0000000E+00;  4.0000000E+04; -4.5836279E-03;  0.0000000E+00; -1.0208210E-03;  1.3244370E+05;
  2.0000000E-01;  9.9999998E-03;  3.1999999E-01;2435;  0.0000000E+00;  0.0000000E+00;  0.0000000E+00;  1.0127417E+03;  1.0000000E-01;  1.0556245E+04;0;  0.0000000E+00;  0.0000000E+00;  0.0000000E+00;0; -5.5641532E-03;  4.0000000E+04;  0.0000000E+00;  0.0000000E+00;  4.0000000E+04;  0.0000000E+00;  4.0000000E+04; -4.2529758E-03;  0.0000000E+00; -1.3111775E-03;  1.2765005E+05;
  2.0000000E-01;  9.9999998E-03;  3.3000001E-01;2436;  0.0000000E+00;  0.0000000E+00;  0.0000000E+00;  1.0109764E+03;  1.0000000E-01;  9.0937676E+03;0;  0.0000000E+00;  0.0000000E+00;  0.0000000E+00;0; -5.2429121E-03;  4.0000000E+04;  0.0000000E+00;  0.0000000E+00;  4.0000000E+04;  0.0000000E+00;  4.0000000E+04; -3.7791329E-03;  0.0000000E+00; -1.4637795E-03;  1.1166173E+05;
  2.0000000E-01;  9.9999998E-03;  3.4000000E-01;2437;  0.0000000E+00;  0.0000000E+00;  0.0000000E+00;  1.0090735E+03;  1.0000000E-01;  7.5172197E+03;0;  0.0000000E+00;  0.0000000E+00;  0.0000000E+00;0; -4.7295424E-03;  4.0000000E+04;  0.0000000E+00;  0.0000000E+00;  4.0000000E+04;  0.0000000E+00;  4.0000000E+04; -3.2242334E-03;  0.0000000E+00; -1.5053089E-03;  8.8593719E+04;
  2.0000000E-01;  9.9999998E-03;  3.4999999E-01;2438;  0.0000000E+00;  0.0000000E+00;  0.0000000E+00;  1.0071923E+03;  1.0000000E-01;  5.9586465E+03;0;  0.0000000E+00;  0.0000000E+00;  0.0000000E+00;0; -4.1096713E-03;  4.0000000E+04;  0.0000000E+00;  0.0000000E+00;  4.0000000E+04;  0.0000000E+00;  4.0000000E+04; -2.6448485E-03;  0.0000000E+00; -1.4648226E-03;  6.2714074E+04;
  2.0000000E-01;  9.9999998E-03;  3.6000001E-01;2439;  0.0000000E+00;  0.0000000E+00;  0.0000000E+00;  1.0054594E+03;  1.0000000E-01;  4.5229336E+03;0;  0.0000000E+00;  0.0000000E+00;  0.0000000E+00;0; -3.4541122E-03;  4.0000000E+04;  0.0000000E+00;  0.0000000E+00;  4.0000000E+04;  0.0000000E+00;  4.0000000E+04; -2.0875535E-03;  0.0000000E+00; -1.3665587E-03;  3.7509145E+04;
  2.0000000E-01;  9.9999998E-03;  3.7000000E-01;2440;  0.0000000E+00;  0.0000000E+00;  0.0000000E+00;  1.0039619E+03;  1.0000000E-01;  3.2823762E+03;0;  0.0000000E+00;  0.0000000E+00;  0.0000000E+00;0; -2.8143160E-03;  4.0000000E+04;  0.0000000E+00;  0.0000000E+00;  4.0000000E+04;  0.0000000E+00;  4.0000000E+04; -1.5859969E-03;  0.0000000E+00; -1.2283190E-03;  1.5496646E+04;
  2.0000000E-01;  9.9999998E-03;  3.8000000E-01;2441;  0.0000000E+00;  0.0000000E+00;  0.0000000E+00;  1.0027448E+03;  1.0000000E-01;  2.2740098E+03;0;  0.0000000E+00;  0.0000000E+00;  0.0000000E+00;0; -2.2221985E-03;  4.0000000E+04;  0.0000000E+00;  0.0000000E+00;  4.0000000E+04;  0.0000000E+00;  4.0000000E+04; -1.1597768E-03;  0.0000000E+00; -1.0624217E-03;  4.1347383E+03;
  2.0000000E-01;  9.9999998E-03;  3.8999999E-01;2442;  0.0000000E+00;  0.0000000E+00;  0.0000000E+00;  1.0018162E+03;  1.0000000E-01;  1.5047476E+03;0;  0.0000000E+00;  0.0000000E+00;  0.0000000E+00;0; -1.6932550E-03;  4.0000000E+04;  0.0000000E+00;  0.0000000E+00;  4.0000000E+04;  0.0000000E+00;  4.0000000E+04; -8.1549096E-04;  0.0000000E+00; -8.7776413E-04;  1.5379409E+04;
  2.0000000E-01;  9.9999998E-03;  4.0000001E-01;2443;  0.0000000E+00;  0.0000000E+00;  0.0000000E+00;  1.0011334E+03;  1.0000000E-01;  9.3903516E+02;0;  0.0000000E+00;  0.0000000E+00;  0.0000000E+00;0; -1.2321584E-03;  4.0000000E+04;  0.0000000E+00;  0.0000000E+00;  4.0000000E+04;  0.0000000E+00;  4.0000000E+04; -5.4950808E-04;  0.0000000E+00; -6.8265037E-04;  2.2225652E+04;
 -1.9000000E-01;  9.9999998E-03;  4.1000000E-01;175;  0.0000000E+00;  0.0000000E+00;  0.0000000E+00;  1.0000000E+03;  1.0000000E-01;  0.0000000E+00;0;  0.0000000E+00;  0.0000000E+00;  0.0000000E+00;0;  0.0000000E+00;  4.0000000E+04;  0.0000000E+00;  0.0000000E+00;  4.0000000E+04;  0.0000000E+00;  4.0000000E+04;  0.0000000E+00;  0.0000000E+00;  0.0000000E+00;  0.0000000E+00;
 -1.9000000E-01;  9.9999998E-03;  4.1999999E-01;176;  0.0000000E+00;  0.0000000E+00;  0.0000000E+00;  1.0000000E+03;  1.0000000E-01;  0.0000000E+00;0;  0.0000000E+00;  0.0000000E+00;  0.0000000E+00;0;  0.0000000E+00;  4.0000000E+04;  0.0000000E+00;  0.0000000E+00;  4.0000000E+04;  0.0000000E+00;  4.0000000E+04;  0.0000000E+00;  0.0000000E+00;  0.0000000E+00;  0.0000000E+00;
 -1.9000000E-01;  9.9999998E-03;  4.3000001E-01;177;  0.0000000E+00;  0.0000000E+00;  0.0000000E+00;  1.0000000E+03;  1.0000000E-01;  0.0000000E+00;0;  0.0000000E+00;  0.0000000E+00;  0.0000000E+00;0;  0.0000000E+00;  4.0000000E+04;  0.0000000E+00;  0.0000000E+00;  4.0000000E+04;  0.0000000E+00;  4.0000000E+04;  0.0000000E+00;  0.0000000E+00;  0.0000000E+00;  0.0000000E+00;
 -1.9000000E-01;  9.9999998E-03;  4.4000000E-01;178;  0.0000000E+00;  0.0000000E+00;  0.0000000E+00;  1.0000000E+03;  1.0000000E-01;  0.0000000E+00;0;  0.0000000E+00;  0.0000000E+00;  0.0000000E+00;0;  0.0000000E+00;  4.0000000E+04;  0.0000000E+00;  0.0000000E+00;  4.0000000E+04;  0.0000000E+00;  4.0000000E+04;  0.0000000E+00;  0.0000000E+00;  0.0000000E+00;  0.0000000E+00;
 -1.9000000E-01;  9.9999998E-03;  4.4999999E-01;179;  0.0000000E+00;  0.0000000E+00;  0.0000000E+00;  1.0000000E+03;  1.0000000E-01;  0.0000000E+00;0;  0.0000000E+00;  0.0000000E+00;  0.0000000E+00;0;  0.0000000E+00;  4.0000000E+04;  0.0000000E+00;  0.0000000E+00;  4.0000000E+04;  0.0000000E+00;  4.0000000E+04;  0.0000000E+00;  0.0000000E+00;  0.0000000E+00;  0.0000000E+00;
 -1.8000001E-01;  9.9999998E-03;  4.1000000E-01;266;  0.0000000E+00;  0.0000000E+00;  0.0000000E+00;  1.0000000E+03;  1.0000000E-01;  0.0000000E+00;0;  0.0000000E+00;  0.0000000E+00;  0.0000000E+00;0;  0.0000000E+00;  4.0000000E+04;  0.0000000E+00;  0.0000000E+00;  4.0000000E+04;  0.0000000E+00;  4.0000000E+04;  0.0000000E+00;  0.0000000E+00;  0.0000000E+00;  0.0000000E+00;
 -1.8000001E-01;  9.9999998E-03;  4.1999999E-01;267;  0.0000000E+00;  0.0000000E+00;  0.0000000E+00;  1.0000000E+03;  1.0000000E-01;  0.0000000E+00;0;  0.0000000E+00;  0.0000000E+00;  0.0000000E+00;0;  0.0000000E+00;  4.0000000E+04;  0.0000000E+00;  0.0000000E+00;  4.0000000E+04;  0.0000000E+00;  4.0000000E+04;  0.0000000E+00;  0.0000000E+00;  0.0000000E+00;  0.0000000E+00;
 -1.8000001E-01;  9.9999998E-03;  4.3000001E-01;268;  0.0000000E+00;  0.0000000E+00;  0.0000000E+00;  1.0000000E+03;  1.0000000E-01;  0.0000000E+00;0;  0.0000000E+00;  0.0000000E+00;  0.0000000E+00;0;  0.0000000E+00;  4.0000000E+04;  0.0000000E+00;  0.0000000E+00;  4.0000000E+04;  0.0000000E+00;  4.0000000E+04;  0.0000000E+00;  0.0000000E+00;  0.0000000E+00;  0.0000000E+00;
 -1.8000001E-01;  9.9999998E-03;  4.4000000E-01;269;  0.0000000E+00;  0.0000000E+00;  0.0000000E+00;  1.0000000E+03;  1.0000000E-01;  0.0000000E+00;0;  0.0000000E+00;  0.0000000E+00;  0.0000000E+00;0;  0.0000000E+00;  4.0000000E+04;  0.0000000E+00;  0.0000000E+00;  4.0000000E+04;  0.0000000E+00;  4.0000000E+04;  0.0000000E+00;  0.0000000E+00;  0.0000000E+00;  0.0000000E+00;
 -1.8000001E-01;  9.9999998E-03;  4.4999999E-01;270;  0.0000000E+00;  0.0000000E+00;  0.0000000E+00;  1.0000000E+03;  1.0000000E-01;  0.0000000E+00;0;  0.0000000E+00;  0.0000000E+00;  0.0000000E+00;0;  0.0000000E+00;  4.0000000E+04;  0.0000000E+00;  0.0000000E+00;  4.0000000E+04;  0.0000000E+00;  4.0000000E+04;  0.0000000E+00;  0.0000000E+00;  0.0000000E+00;  0.0000000E+00;
 -1.7000000E-01;  9.9999998E-03;  4.1000000E-01;357;  0.0000000E+00;  0.0000000E+00;  0.0000000E+00;  1.0000000E+03;  1.0000000E-01;  0.0000000E+00;0;  0.0000000E+00;  0.0000000E+00;  0.0000000E+00;0;  0.0000000E+00;  4.0000000E+04;  0.0000000E+00;  0.0000000E+00;  4.0000000E+04;  0.0000000E+00;  4.0000000E+04;  0.0000000E+00;  0.0000000E+00;  0.0000000E+00;  0.0000000E+00;
 -1.7000000E-01;  9.9999998E-03;  4.1999999E-01;358;  0.0000000E+00;  0.0000000E+00;  0.0000000E+00;  1.0000000E+03;  1.0000000E-01;  0.0000000E+00;0;  0.0000000E+00;  0.0000000E+00;  0.0000000E+00;0;  0.0000000E+00;  4.0000000E+04;  0.0000000E+00;  0.0000000E+00;  4.0000000E+04;  0.0000000E+00;  4.0000000E+04;  0.0000000E+00;  0.0000000E+00;  0.0000000E+00;  0.0000000E+00;
 -1.7000000E-01;  9.9999998E-03;  4.3000001E-01;359;  0.0000000E+00;  0.0000000E+00;  0.0000000E+00;  1.0000000E+03;  1.0000000E-01;  0.0000000E+00;0;  0.0000000E+00;  0.0000000E+00;  0.0000000E+00;0;  0.0000000E+00;  4.0000000E+04;  0.0000000E+00;  0.0000000E+00;  4.0000000E+04;  0.0000000E+00;  4.0000000E+04;  0.0000000E+00;  0.0000000E+00;  0.0000000E+00;  0.0000000E+00;
 -1.7000000E-01;  9.9999998E-03;  4.4000000E-01;360;  0.0000000E+00;  0.0000000E+00;  0.0000000E+00;  1.0000000E+03;  1.0000000E-01;  0.0000000E+00;0;  0.0000000E+00;  0.0000000E+00;  0.0000000E+00;0;  0.0000000E+00;  4.0000000E+04;  0.0000000E+00;  0.0000000E+00;  4.0000000E+04;  0.0000000E+00;  4.0000000E+04;  0.0000000E+00;  0.0000000E+00;  0.0000000E+00;  0.0000000E+00;
 -1.7000000E-01;  9.9999998E-03;  4.4999999E-01;361;  0.0000000E+00;  0.0000000E+00;  0.0000000E+00;  1.0000000E+03;  1.0000000E-01;  0.0000000E+00;0;  0.0000000E+00;  0.0000000E+00;  0.0000000E+00;0;  0.0000000E+00;  4.0000000E+04;  0.0000000E+00;  0.0000000E+00;  4.0000000E+04;  0.0000000E+00;  4.0000000E+04;  0.0000000E+00;  0.0000000E+00;  0.0000000E+00;  0.0000000E+00;
 -1.6000000E-01;  9.9999998E-03;  4.1000000E-01;448;  0.0000000E+00;  0.0000000E+00;  0.0000000E+00;  1.0000000E+03;  1.0000000E-01;  0.0000000E+00;0;  0.0000000E+00;  0.0000000E+00;  0.0000000E+00;0;  0.0000000E+00;  4.0000000E+04;  0.0000000E+00;  0.0000000E+00;  4.0000000E+04;  0.0000000E+00;  4.0000000E+04;  0.0000000E+00;  0.0000000E+00;  0.0000000E+00;  0.0000000E+00;
 -1.6000000E-01;  9.9999998E-03;  4.1999999E-01;449;  0.0000000E+00;  0.0000000E+00;  0.0000000E+00;  1.0000000E+03;  1.0000000E-01;  0.0000000E+00;0;  0.0000000E+00;  0.0000000E+00;  0.0000000E+00;0;  0.0000000E+00;  4.0000000E+04;  0.0000000E+00;  0.0000000E+00;  4.0000000E+04;  0.0000000E+00;  4.0000000E+04;  0.0000000E+00;  0.0000000E+00;  0.0000000E+00;  0.0000000E+00;
 -1.6000000E-01;  9.9999998E-03;  4.3000001E-01;450;  0.0000000E+00;  0.0000000E+00;  0.0000000E+00;  1.0000000E+03;  1.0000000E-01;  0.0000000E+00;0;  0.0000000E+00;  0.0000000E+00;  0.0000000E+00;0;  0.0000000E+00;  4.0000000E+04;  0.0000000E+00;  0.0000000E+00;  4.0000000E+04;  0.0000000E+00;  4.0000000E+04;  0.0000000E+00;  0.0000000E+00;  0.0000000E+00;  0.0000000E+00;
 -1.6000000E-01;  9.9999998E-03;  4.4000000E-01;451;  0.0000000E+00;  0.0000000E+00;  0.0000000E+00;  1.0000000E+03;  1.0000000E-01;  0.0000000E+00;0;  0.0000000E+00;  0.0000000E+00;  0.0000000E+00;0;  0.0000000E+00;  4.0000000E+04;  0.0000000E+00;  0.0000000E+00;  4.0000000E+04;  0.0000000E+00;  4.0000000E+04;  0.0000000E+00;  0.0000000E+00;  0.0000000E+00;  0.0000000E+00;
 -1.6000000E-01;  9.9999998E-03;  4.4999999E-01;452;  0.0000000E+00;  0.0000000E+00;  0.0000000E+00;  1.0000000E+03;  1.0000000E-01;  0.0000000E+00;0;  0.0000000E+00;  0.0000000E+00;  0.0000000E+00;0;  0.0000000E+00;  4.0000000E+04;  0.0000000E+00;  0.0000000E+00;  4.0000000E+04;  0.0000000E+00;  4.0000000E+04;  0.0000000E+00;  0.0000000E+00;  0.0000000E+00;  0.0000000E+00;
 -1.5000001E-01;  9.9999998E-03;  4.1000000E-01;539;  0.0000000E+00;  0.0000000E+00;  0.0000000E+00;  1.0000000E+03;  1.0000000E-01;  0.0000000E+00;0;  0.0000000E+00;  0.0000000E+00;  0.0000000E+00;0;  0.0000000E+00;  4.0000000E+04;  0.0000000E+00;  0.0000000E+00;  4.0000000E+04;  0.0000000E+00;  4.0000000E+04;  0.0000000E+00;  0.0000000E+00;  0.0000000E+00;  0.0000000E+00;
 -1.5000001E-01;  9.9999998E-03;  4.1999999E-01;540;  0.0000000E+00;  0.0000000E+00;  0.0000000E+00;  1.0000000E+03;  1.0000000E-01;  0.0000000E+00;0;  0.0000000E+00;  0.0000000E+00;  0.0000000E+00;0;  0.0000000E+00;  4.0000000E+04;  0.0000000E+00;  0.0000000E+00;  4.0000000E+04;  0.0000000E+00;  4.0000000E+04;  0.0000000E+00;  0.0000000E+00;  0.0000000E+00;  0.0000000E+00;
 -1.5000001E-01;  9.9999998E-03;  4.3000001E-01;541;  0.0000000E+00;  0.0000000E+00;  0.0000000E+00;  1.0000000E+03;  1.0000000E-01;  0.0000000E+00;0;  0.0000000E+00;  0.0000000E+00;  0.0000000E+00;0;  0.0000000E+00;  4.0000000E+04;  0.0000000E+00;  0.0000000E+00;  4.0000000E+04;  0.0000000E+00;  4.0000000E+04;  0.0000000E+00;  0.0000000E+00;  0.0000000E+00;  0.0000000E+00;
 -1.5000001E-01;  9.9999998E-03;  4.4000000E-01;542;  0.0000000E+00;  0.0000000E+00;  0.0000000E+00;  1.0000000E+03;  1.0000000E-01;  0.0000000E+00;0;  0.0000000E+00;  0.0000000E+00;  0.0000000E+00;0;  0.0000000E+00;  4.0000000E+04;  0.0000000E+00;  0.0000000E+00;  4.0000000E+04;  0.0000000E+00;  4.0000000E+04;  0.0000000E+00;  0.0000000E+00;  0.0000000E+00;  0.0000000E+00;
 -1.5000001E-01;  9.9999998E-03;  4.4999999E-01;543;  0.0000000E+00;  0.0000000E+00;  0.0000000E+00;  1.0000000E+03;  1.0000000E-01;  0.0000000E+00;0;  0.0000000E+00;  0.0000000E+00;  0.0000000E+00;0;  0.0000000E+00;  4.0000000E+04;  0.0000000E+00;  0.0000000E+00;  4.0000000E+04;  0.0000000E+00;  4.0000000E+04;  0.0000000E+00;  0.0000000E+00;  0.0000000E+00;  0.0000000E+00;
 -1.4000000E-01;  9.9999998E-03;  4.1000000E-01;630;  0.0000000E+00;  0.0000000E+00;  0.0000000E+00;  1.0000000E+03;  1.0000000E-01;  0.0000000E+00;0;  0.0000000E+00;  0.0000000E+00;  0.0000000E+00;0;  0.0000000E+00;  4.0000000E+04;  0.0000000E+00;  0.0000000E+00;  4.0000000E+04;  0.0000000E+00;  4.0000000E+04;  0.0000000E+00;  0.0000000E+00;  0.0000000E+00;  0.0000000E+00;
 -1.4000000E-01;  9.9999998E-03;  4.1999999E-01;631;  0.0000000E+00;  0.0000000E+00;  0.0000000E+00;  1.0000000E+03;  1.0000000E-01;  0.0000000E+00;0;  0.0000000E+00;  0.0000000E+00;  0.0000000E+00;0;  0.0000000E+00;  4.0000000E+04;  0.0000000E+00;  0.0000000E+00;  4.0000000E+04;  0.0000000E+00;  4.0000000E+04;  0.0000000E+00;  0.0000000E+00;  0.0000000E+00;  0.0000000E+00;
 -1.4000000E-01;  9.9999998E-03;  4.3000001E-01;632;  0.0000000E+00;  0.0000000E+00;  0.0000000E+00;  1.0000000E+03;  1.0000000E-01;  0.0000000E+00;0;  0.0000000E+00;  0.0000000E+00;  0.0000000E+00;0;  0.0000000E+00;  4.0000000E+04;  0.0000000E+00;  0.0000000E+00;  4.0000000E+04;  0.0000000E+00;  4.0000000E+04;  0.0000000E+00;  0.0000000E+00;  0.0000000E+00;  0.0000000E+00;
 -1.4000000E-01;  9.9999998E-03;  4.4000000E-01;633;  0.0000000E+00;  0.0000000E+00;  0.0000000E+00;  1.0000000E+03;  1.0000000E-01;  0.0000000E+00;0;  0.0000000E+00;  0.0000000E+00;  0.0000000E+00;0;  0.0000000E+00;  4.0000000E+04;  0.0000000E+00;  0.0000000E+00;  4.0000000E+04;  0.0000000E+00;  4.0000000E+04;  0.0000000E+00;  0.0000000E+00;  0.0000000E+00;  0.0000000E+00;
 -1.4000000E-01;  9.9999998E-03;  4.4999999E-01;634;  0.0000000E+00;  0.0000000E+00;  0.0000000E+00;  1.0000000E+03;  1.0000000E-01;  0.0000000E+00;0;  0.0000000E+00;  0.0000000E+00;  0.0000000E+00;0;  0.0000000E+00;  4.0000000E+04;  0.0000000E+00;  0.0000000E+00;  4.0000000E+04;  0.0000000E+00;  4.0000000E+04;  0.0000000E+00;  0.0000000E+00;  0.0000000E+00;  0.0000000E+00;
 -1.3000000E-01;  9.9999998E-03;  4.1000000E-01;721;  0.0000000E+00;  0.0000000E+00;  0.0000000E+00;  1.0000000E+03;  1.0000000E-01;  0.0000000E+00;0;  0.0000000E+00;  0.0000000E+00;  0.0000000E+00;0;  0.0000000E+00;  4.0000000E+04;  0.0000000E+00;  0.0000000E+00;  4.0000000E+04;  0.0000000E+00;  4.0000000E+04;  0.0000000E+00;  0.0000000E+00;  0.0000000E+00;  0.0000000E+00;
 -1.3000000E-01;  9.9999998E-03;  4.1999999E-01;722;  0.0000000E+00;  0.0000000E+00;  0.0000000E+00;  1.0000000E+03;  1.0000000E-01;  0.0000000E+00;0;  0.0000000E+00;  0.0000000E+00;  0.0000000E+00;0;  0.0000000E+00;  4.0000000E+04;  0.0000000E+00;  0.0000000E+00;  4.0000000E+04;  0.0000000E+00;  4.0000000E+04;  0.0000000E+00;  0.0000000E+00;  0.0000000E+00;  0.0000000E+00;
 -1.3000000E-01;  9.9999998E-03;  4.3000001E-01;723;  0.0000000E+00;  0.0000000E+00;  0.0000000E+00;  1.0000000E+03;  1.0000000E-01;  0.0000000E+00;0;  0.0000000E+00;  0.0000000E+00;  0.0000000E+00;0;  0.0000000E+00;  4.0000000E+04;  0.0000000E+00;  0.0000000E+00;  4.0000000E+04;  0.0000000E+00;  4.0000000E+04;  0.0000000E+00;  0.0000000E+00;  0.0000000E+00;  0.0000000E+00;
 -1.3000000E-01;  9.9999998E-03;  4.4000000E-01;724;  0.0000000E+00;  0.0000000E+00;  0.0000000E+00;  1.0000000E+03;  1.0000000E-01;  0.0000000E+00;0;  0.0000000E+00;  0.0000000E+00;  0.0000000E+00;0;  0.0000000E+00;  4.0000000E+04;  0.0000000E+00;  0.0000000E+00;  4.0000000E+04;  0.0000000E+00;  4.0000000E+04;  0.0000000E+00;  0.0000000E+00;  0.0000000E+00;  0.0000000E+00;
 -1.3000000E-01;  9.9999998E-03;  4.4999999E-01;725;  0.0000000E+00;  0.0000000E+00;  0.0000000E+00;  1.0000000E+03;  1.0000000E-01;  0.0000000E+00;0;  0.0000000E+00;  0.0000000E+00;  0.0000000E+00;0;  0.0000000E+00;  4.0000000E+04;  0.0000000E+00;  0.0000000E+00;  4.0000000E+04;  0.0000000E+00;  4.0000000E+04;  0.0000000E+00;  0.0000000E+00;  0.0000000E+00;  0.0000000E+00;
 -1.2000000E-01;  9.9999998E-03;  4.1000000E-01;812;  0.0000000E+00;  0.0000000E+00;  0.0000000E+00;  1.0000000E+03;  1.0000000E-01;  0.0000000E+00;0;  0.0000000E+00;  0.0000000E+00;  0.0000000E+00;0;  0.0000000E+00;  4.0000000E+04;  0.0000000E+00;  0.0000000E+00;  4.0000000E+04;  0.0000000E+00;  4.0000000E+04;  0.0000000E+00;  0.0000000E+00;  0.0000000E+00;  3.0553776E-06;
 -1.2000000E-01;  9.9999998E-03;  4.1999999E-01;813;  0.0000000E+00;  0.0000000E+00;  0.0000000E+00;  1.0000000E+03;  1.0000000E-01;  0.0000000E+00;0;  0.0000000E+00;  0.0000000E+00;  0.0000000E+00;0;  0.0000000E+00;  4.0000000E+04;  0.0000000E+00;  0.0000000E+00;  4.0000000E+04;  0.0000000E+00;  4.0000000E+04;  0.0000000E+00;  0.0000000E+00;  0.0000000E+00;  0.0000000E+00;
 -1.2000000E-01;  9.9999998E-03;  4.3000001E-01;814;  0.0000000E+00;  0.0000000E+00;  0.0000000E+00;  1.0000000E+03;  1.0000000E-01;  0.0000000E+00;0;  0.0000000E+00;  0.0000000E+00;  0.0000000E+00;0;  0.0000000E+00;  4.0000000E+04;  0.0000000E+00;  0.0000000E+00;  4.0000000E+04;  0.0000000E+00;  4.0000000E+04;  0.0000000E+00;  0.0000000E+00;  0.0000000E+00;  0.0000000E+00;
 -1.2000000E-01;  9.9999998E-03;  4.4000000E-01;815;  0.0000000E+00;  0.0000000E+00;  0.0000000E+00;  1.0000000E+03;  1.0000000E-01;  0.0000000E+00;0;  0.0000000E+00;  0.0000000E+00;  0.0000000E+00;0;  0.0000000E+00;  4.0000000E+04;  0.0000000E+00;  0.0000000E+00;  4.0000000E+04;  0.0000000E+00;  4.0000000E+04;  0.0000000E+00;  0.0000000E+00;  0.0000000E+00;  0.0000000E+00;
 -1.2000000E-01;  9.9999998E-03;  4.4999999E-01;816;  0.0000000E+00;  0.0000000E+00;  0.0000000E+00;  1.0000000E+03;  1.0000000E-01;  0.0000000E+00;0;  0.0000000E+00;  0.0000000E+00;  0.0000000E+00;0;  0.0000000E+00;  4.0000000E+04;  0.0000000E+00;  0.0000000E+00;  4.0000000E+04;  0.0000000E+00;  4.0000000E+04;  0.0000000E+00;  0.0000000E+00;  0.0000000E+00;  0.0000000E+00;
 -1.1000000E-01;  9.9999998E-03;  4.1000000E-01;903;  0.0000000E+00;  0.0000000E+00;  0.0000000E+00;  1.0000000E+03;  1.0000000E-01;  0.0000000E+00;0;  0.0000000E+00;  0.0000000E+00;  0.0000000E+00;0; -1.0994127E-07;  4.0000000E+04;  0.0000000E+00;  0.0000000E+00;  4.0000000E+04;  0.0000000E+00;  4.0000000E+04; -3.4425096E-08;  0.0000000E+00; -7.5516176E-08;  2.2101779E-01;
 -1.1000000E-01;  9.9999998E-03;  4.1999999E-01;904;  0.0000000E+00;  0.0000000E+00;  0.0000000E+00;  1.0000000E+03;  1.0000000E-01;  0.0000000E+00;0;  0.0000000E+00;  0.0000000E+00;  0.0000000E+00;0;  0.0000000E+00;  4.0000000E+04;  0.0000000E+00;  0.0000000E+00;  4.0000000E+04;  0.0000000E+00;  4.0000000E+04;  0.0000000E+00;  0.0000000E+00;  0.0000000E+00;  2.4097315E-06;
 -1.1000000E-01;  9.9999998E-03;  4.3000001E-01;905;  0.0000000E+00;  0.0000000E+00;  0.0000000E+00;  1.0000000E+03;  1.0000000E-01;  0.0000000E+00;0;  0.0000000E+00;  0.0000000E+00;  0.0000000E+00;0;  0.0000000E+00;  4.0000000E+04;  0.0000000E+00;  0.0000000E+00;  4.0000000E+04;  0.0000000E+00;  4.0000000E+04;  0.0000000E+00;  0.0000000E+00;  0.0000000E+00;  0.0000000E+00;
 -1.1000000E-01;  9.9999998E-03;  4.4000000E-01;906;  0.0000000E+00;  0.0000000E+00;  0.0000000E+00;  1.0000000E+03;  1.0000000E-01;  0.0000000E+00;0;  0.0000000E+00;  0.0000000E+00;  0.0000000E+00;0;  0.0000000E+00;  4.0000000E+04;  0.0000000E+00;  0.0000000E+00;  4.0000000E+04;  0.0000000E+00;  4.0000000E+04;  0.0000000E+00;  0.0000000E+00;  0.0000000E+00;  0.0000000E+00;
 -1.1000000E-01;  9.9999998E-03;  4.4999999E-01;907;  0.0000000E+00;  0.0000000E+00;  0.0000000E+00;  1.0000000E+03;  1.0000000E-01;  0.0000000E+00;0;  0.0000000E+00;  0.0000000E+00;  0.0000000E+00;0;  0.0000000E+00;  4.0000000E+04;  0.0000000E+00;  0.0000000E+00;  4.0000000E+04;  0.0000000E+00;  4.0000000E+04;  0.0000000E+00;  0.0000000E+00;  0.0000000E+00;  0.0000000E+00;
 -1.0000000E-01;  9.9999998E-03;  4.1000000E-01;994;  0.0000000E+00;  0.0000000E+00;  0.0000000E+00;  1.0000000E+03;  1.0000000E-01;  0.0000000E+00;0;  0.0000000E+00;  0.0000000E+00;  0.0000000E+00;0; -9.8113685E-07;  4.0000000E+04;  0.0000000E+00;  0.0000000E+00;  4.0000000E+04;  0.0000000E+00;  4.0000000E+04; -3.0275717E-07;  0.0000000E+00; -6.7837971E-07;  2.0414612E+00;
 -1.0000000E-01;  9.9999998E-03;  4.1999999E-01;995;  0.0000000E+00;  0.0000000E+00;  0.0000000E+00;  1.0000000E+03;  1.0000000E-01;  0.0000000E+00;0;  0.0000000E+00;  0.0000000E+00;  0.0000000E+00;0; -9.4218372E-08;  4.0000000E+04;  0.0000000E+00;  0.0000000E+00;  4.0000000E+04;  0.0000000E+00;  4.0000000E+04; -2.9282555E-08;  0.0000000E+00; -6.4935819E-08;  2.0610024E-01;
 -1.0000000E-01;  9.9999998E-03;  4.3000001E-01;996;  0.0000000E+00;  0.0000000E+00;  0.0000000E+00;  1.0000000E+03;  1.0000000E-01;  0.0000000E+00;0;  0.0000000E+00;  0.0000000E+00;  0.0000000E+00;0;  0.0000000E+00;  4.0000000E+04;  0.0000000E+00;  0.0000000E+00;  4.0000000E+04;  0.0000000E+00;  4.0000000E+04;  0.0000000E+00;  0.0000000E+00;  0.0000000E+00;  0.0000000E+00;
 -1.0000000E-01;  9.9999998E-03;  4.4000000E-01;997;  0.0000000E+00;  0.0000000E+00;  0.0000000E+00;  1.0000000E+03;  1.0000000E-01;  0.0000000E+00;0;  0.0000000E+00;  0.0000000E+00;  0.0000000E+00;0;  0.0000000E+00;  4.0000000E+04;  0.0000000E+00;  0.0000000E+00;  4.0000000E+04;  0.0000000E+00;  4.0000000E+04;  0.0000000E+00;  0.0000000E+00;  0.0000000E+00;  0.0000000E+00;
 -1.0000000E-01;  9.9999998E-03;  4.4999999E-01;998;  0.0000000E+00;  0.0000000E+00;  0.0000000E+00;  1.0000000E+03;  1.0000000E-01;  0.0000000E+00;0;  0.0000000E+00;  0.0000000E+00;  0.0000000E+00;0;  0.0000000E+00;  4.0000000E+04;  0.0000000E+00;  0.0000000E+00;  4.0000000E+04;  0.0000000E+00;  4.0000000E+04;  0.0000000E+00;  0.0000000E+00;  0.0000000E+00;  0.0000000E+00;
 -9.0000004E-02;  9.9999998E-03;  4.1000000E-01;1085;  0.0000000E+00;  0.0000000E+00;  0.0000000E+00;  1.0000000E+03;  1.0000000E-01;  0.0000000E+00;0;  0.0000000E+00;  0.0000000E+00;  0.0000000E+00;0; -3.7671666E-06;  4.0000000E+04;  0.0000000E+00;  0.0000000E+00;  4.0000000E+04;  0.0000000E+00;  4.0000000E+04; -1.1695404E-06;  0.0000000E+00; -2.5976262E-06;  8.3880224E+00;
 -9.0000004E-02;  9.9999998E-03;  4.1999999E-01;1086;  0.0000000E+00;  0.0000000E+00;  0.0000000E+00;  1.0000000E+03;  1.0000000E-01;  0.0000000E+00;0;  0.0000000E+00;  0.0000000E+00;  0.0000000E+00;0; -8.0765795E-07;  4.0000000E+04;  0.0000000E+00;  0.0000000E+00;  4.0000000E+04;  0.0000000E+00;  4.0000000E+04; -2.3813756E-07;  0.0000000E+00; -5.6952041E-07;  1.7912751E+00;
 -9.0000004E-02;  9.9999998E-03;  4.3000001E-01;1087;  0.0000000E+00;  0.0000000E+00;  0.0000000E+00;  1.0000000E+03;  1.0000000E-01;  0.0000000E+00;0;  0.0000000E+00;  0.0000000E+00;  0.0000000E+00;0; -4.3357243E-08;  4.0000000E+04;  0.0000000E+00;  0.0000000E+00;  4.0000000E+04;  0.0000000E+00;  4.0000000E+04; -1.4286100E-08;  0.0000000E+00; -2.9071142E-08;  1.0565309E-01;
 -9.0000004E-02;  9.9999998E-03;  4.4000000E-01;1088;  0.0000000E+00;  0.0000000E+00;  0.0000000E+00;  1.0000000E+03;  1.0000000E-01;  0.0000000E+00;0;  0.0000000E+00;  0.0000000E+00;  0.0000000E+00;0;  0.0000000E+00;  4.0000000E+04;  0.0000000E+00;  0.0000000E+00;  4.0000000E+04;  0.0000000E+00;  4.0000000E+04;  0.0000000E+00;  0.0000000E+00;  0.0000000E+00;  0.0000000E+00;
 -9.0000004E-02;  9.9999998E-03;  4.4999999E-01;1089;  0.0000000E+00;  0.0000000E+00;  0.0000000E+00;  1.0000000E+03;  1.0000000E-01;  0.0000000E+00;0;  0.0000000E+00;  0.0000000E+00;  0.0000000E+00;0;  0.0000000E+00;  4.0000000E+04;  0.0000000E+00;  0.0000000E+00;  4.0000000E+04;  0.0000000E+00;  4.0000000E+04;  0.0000000E+00;  0.0000000E+00;  0.0000000E+00;  0.0000000E+00;
 -7.9999998E-02;  9.9999998E-03;  4.1000000E-01;1176;  0.0000000E+00;  0.0000000E+00;  0.0000000E+00;  1.0000000E+03;  1.0000000E-01;  0.0000000E+00;0;  0.0000000E+00;  0.0000000E+00;  0.0000000E+00;0; -9.8901146E-06;  4.0000000E+04;  0.0000000E+00;  0.0000000E+00;  4.0000000E+04;  0.0000000E+00;  4.0000000E+04; -3.1613506E-06;  0.0000000E+00; -6.7287638E-06;  2.3184399E+01;
 -7.9999998E-02;  9.9999998E-03;  4.1999999E-01;1177;  0.0000000E+00;  0.0000000E+00;  0.0000000E+00;  1.0000000E+03;  1.0000000E-01;  0.0000000E+00;0;  0.0000000E+00;  0.0000000E+00;  0.0000000E+00;0; -3.0070971E-06;  4.0000000E+04;  0.0000000E+00;  0.0000000E+00;  4.0000000E+04;  0.0000000E+00;  4.0000000E+04; -8.8668781E-07;  0.0000000E+00; -2.1204094E-06;  7.0707846E+00;
 -7.9999998E-02;  9.9999998E-03;  4.3000001E-01;1178;  0.0000000E+00;  0.0000000E+00;  0.0000000E+00;  1.0000000E+03;  1.0000000E-01;  0.0000000E+00;0;  0.0000000E+00;  0.0000000E+00;  0.0000000E+00;0; -4.5845007E-07;  4.0000000E+04;  0.0000000E+00;  0.0000000E+00;  4.0000000E+04;  0.0000000E+00;  4.0000000E+04; -1.3215778E-07;  0.0000000E+00; -3.2629231E-07;  1.0851113E+00;
 -7.9999998E-02;  9.9999998E-03;  4.4000000E-01;1179;  0.0000000E+00;  0.0000000E+00;  0.0000000E+00;  1.0000000E+03;  1.0000000E-01;  0.0000000E+00;0;  0.0000000E+00;  0.0000000E+00;  0.0000000E+00;0; -7.2145738E-09;  4.0000000E+04;  0.0000000E+00;  0.0000000E+00;  4.0000000E+04;  0.0000000E+00;  4.0000000E+04; -2.4549589E-09;  0.0000000E+00; -4.7596149E-09;  1.9386644E-02;
 -7.9999998E-02;  9.9999998E-03;  4.4999999E-01;1180;  0.0000000E+00;  0.0000000E+00;  0.0000000E+00;  1.0000000E+03;  1.0000000E-01;  0.0000000E+00;0;  0.0000000E+00;  0.0000000E+00;  0.0000000E+00;0;  0.0000000E+00;  4.0000000E+04;  0.0000000E+00;  0.0000000E+00;  4.0000000E+04;  0.0000000E+00;  4.0000000E+04;  0.0000000E+00;  0.0000000E+00;  0.0000000E+00;  0.0000000E+00;
 -7.0000000E-02;  9.9999998E-03;  4.1000000E-01;1267;  0.0000000E+00;  0.0000000E+00;  0.0000000E+00;  1.0000000E+03;  1.0000000E-01;  0.0000000E+00;0;  0.0000000E+00;  0.0000000E+00;  0.0000000E+00;0; -2.0755064E-05;  4.0000000E+04;  0.0000000E+00;  0.0000000E+00;  4.0000000E+04;  0.0000000E+00;  4.0000000E+04; -6.9619364E-06;  0.0000000E+00; -1.3793127E-05;  5.0164406E+01;
 -7.0000000E-02;  9.9999998E-03;  4.1999999E-01;1268;  0.0000000E+00;  0.0000000E+00;  0.0000000E+00;  1.0000000E+03;  1.0000000E-01;  0.0000000E+00;0;  0.0000000E+00;  0.0000000E+00;  0.0000000E+00;0; -7.6684246E-06;  4.0000000E+04;  0.0000000E+00;  0.0000000E+00;  4.0000000E+04;  0.0000000E+00;  4.0000000E+04; -2.3307437E-06;  0.0000000E+00; -5.3376807E-06;  1.8866968E+01;
 -7.0000000E-02;  9.9999998E-03;  4.3000001E-01;1269;  0.0000000E+00;  0.0000000E+00;  0.0000000E+00;  1.0000000E+03;  1.0000000E-01;  0.0000000E+00;0;  0.0000000E+00;  0.0000000E+00;  0.0000000E+00;0; -1.7922566E-06;  4.0000000E+04;  0.0000000E+00;  0.0000000E+00;  4.0000000E+04;  0.0000000E+00;  4.0000000E+04; -5.1218444E-07;  0.0000000E+00; -1.2800722E-06;  4.4301391E+00;
 -7.0000000E-02;  9.9999998E-03;  4.4000000E-01;1270;  0.0000000E+00;  0.0000000E+00;  0.0000000E+00;  1.0000000E+03;  1.0000000E-01;  0.0000000E+00;0;  0.0000000E+00;  0.0000000E+00;  0.0000000E+00;0; -1.4558681E-07;  4.0000000E+04;  0.0000000E+00;  0.0000000E+00;  4.0000000E+04;  0.0000000E+00;  4.0000000E+04; -4.3208061E-08;  0.0000000E+00; -1.0237875E-07;  3.7569913E-01;
 -7.0000000E-02;  9.9999998E-03;  4.4999999E-01;1271;  0.0000000E+00;  0.0000000E+00;  0.0000000E+00;  1.0000000E+03;  1.0000000E-01;  0.0000000E+00;0;  0.0000000E+00;  0.0000000E+00;  0.0000000E+00;0;  0.0000000E+00;  4.0000000E+04;  0.0000000E+00;  0.0000000E+00;  4.0000000E+04;  0.0000000E+00;  4.0000000E+04;  0.0000000E+00;  0.0000000E+00;  0.0000000E+00;  8.6631813E-12;
 -5.9999999E-02;  9.9999998E-03;  4.1000000E-01;1358;  0.0000000E+00;  0.0000000E+00;  0.0000000E+00;  1.0000000E+03;  1.0000000E-01;  0.0000000E+00;0;  0.0000000E+00;  0.0000000E+00;  0.0000000E+00;0; -3.7430647E-05;  4.0000000E+04;  0.0000000E+00;  0.0000000E+00;  4.0000000E+04;  0.0000000E+00;  4.0000000E+04; -1.3339489E-05;  0.0000000E+00; -2.4091160E-05;  9.1659523E+01;
 -5.9999999E-02;  9.9999998E-03;  4.1999999E-01;1359;  0.0000000E+00;  0.0000000E+00;  0.0000000E+00;  1.0000000E+03;  1.0000000E-01;  0.0000000E+00;0;  0.0000000E+00;  0.0000000E+00;  0.0000000E+00;0; -1.5625008E-05;  4.0000000E+04;  0.0000000E+00;  0.0000000E+00;  4.0000000E+04;  0.0000000E+00;  4.0000000E+04; -4.9855248E-06;  0.0000000E+00; -1.0639484E-05;  3.9534977E+01;
 -5.9999999E-02;  9.9999998E-03;  4.3000001E-01;1360;  0.0000000E+00;  0.0000000E+00;  0.0000000E+00;  1.0000000E+03;  1.0000000E-01;  0.0000000E+00;0;  0.0000000E+00;  0.0000000E+00;  0.0000000E+00;0; -4.6276882E-06;  4.0000000E+04;  0.0000000E+00;  0.0000000E+00;  4.0000000E+04;  0.0000000E+00;  4.0000000E+04; -1.3539496E-06;  0.0000000E+00; -3.2737385E-06;  1.1895614E+01;
 -5.9999999E-02;  9.9999998E-03;  4.4000000E-01;1361;  0.0000000E+00;  0.0000000E+00;  0.0000000E+00;  1.0000000E+03;  1.0000000E-01;  0.0000000E+00;0;  0.0000000E+00;  0.0000000E+00;  0.0000000E+00;0; -6.9820021E-07;  4.0000000E+04;  0.0000000E+00;  0.0000000E+00;  4.0000000E+04;  0.0000000E+00;  4.0000000E+04; -1.9725681E-07;  0.0000000E+00; -5.0094343E-07;  1.8259184E+00;
 -5.9999999E-02;  9.9999998E-03;  4.4999999E-01;1362;  0.0000000E+00;  0.0000000E+00;  0.0000000E+00;  1.0000000E+03;  1.0000000E-01;  0.0000000E+00;0;  0.0000000E+00;  0.0000000E+00;  0.0000000E+00;0; -1.5112875E-08;  4.0000000E+04;  0.0000000E+00;  0.0000000E+00;  4.0000000E+04;  0.0000000E+00;  4.0000000E+04; -4.4440815E-09;  0.0000000E+00; -1.0668794E-08;  4.2266950E-02;
 -5.0000001E-02;  9.9999998E-03;  4.1000000E-01;1449;  0.0000000E+00;  0.0000000E+00;  0.0000000E+00;  1.0000088E+03;  1.0000000E-01;  7.3084354E+00;0;  0.0000000E+00;  0.0000000E+00;  0.0000000E+00;0; -6.0315331E-05;  4.0000000E+04;  0.0000000E+00;  0.0000000E+00;  4.0000000E+04;  0.0000000E+00;  4.0000000E+04; -2.2994731E-05;  0.0000000E+00; -3.7320598E-05;  1.4760161E+02;
 -5.0000001E-02;  9.9999998E-03;  4.1999999E-01;1450;  0.0000000E+00;  0.0000000E+00;  0.0000000E+00;  1.0000000E+03;  1.0000000E-01;  0.0000000E+00;0;  0.0000000E+00;  0.0000000E+00;  0.0000000E+00;0; -2.7300735E-05;  4.0000000E+04;  0.0000000E+00;  0.0000000E+00;  4.0000000E+04;  0.0000000E+00;  4.0000000E+04; -9.2564433E-06;  0.0000000E+00; -1.8044291E-05;  6.9989845E+01;
 -5.0000001E-02;  9.9999998E-03;  4.3000001E-01;1451;  0.0000000E+00;  0.0000000E+00;  0.0000000E+00;  1.0000000E+03;  1.0000000E-01;  0.0000000E+00;0;  0.0000000E+00;  0.0000000E+00;  0.0000000E+00;0; -9.3694107E-06;  4.0000000E+04;  0.0000000E+00;  0.0000000E+00;  4.0000000E+04;  0.0000000E+00;  4.0000000E+04; -2.8672684E-06;  0.0000000E+00; -6.5021422E-06;  2.4723175E+01;
 -5.0000001E-02;  9.9999998E-03;  4.4000000E-01;1452;  0.0000000E+00;  0.0000000E+00;  0.0000000E+00;  1.0000000E+03;  1.0000000E-01;  0.0000000E+00;0;  0.0000000E+00;  0.0000000E+00;  0.0000000E+00;0; -1.9506510E-06;  4.0000000E+04;  0.0000000E+00;  0.0000000E+00;  4.0000000E+04;  0.0000000E+00;  4.0000000E+04; -5.5611167E-07;  0.0000000E+00; -1.3945395E-06;  5.2604198E+00;
 -5.0000001E-02;  9.9999998E-03;  4.4999999E-01;1453;  0.0000000E+00;  0.0000000E+00;  0.0000000E+00;  1.0000000E+03;  1.0000000E-01;  0.0000000E+00;0;  0.0000000E+00;  0.0000000E+00;  0.0000000E+00;0; -1.2704122E-07;  4.0000000E+04;  0.0000000E+00;  0.0000000E+00;  4.0000000E+04;  0.0000000E+00;  4.0000000E+04; -3.5806050E-08;  0.0000000E+00; -9.1235165E-08;  3.5963184E-01;
 -3.9999999E-02;  9.9999998E-03;  4.1000000E-01;1540;  0.0000000E+00;  0.0000000E+00;  0.0000000E+00;  1.0000480E+03;  1.0000000E-01;  3.9801342E+01;0;  0.0000000E+00;  0.0000000E+00;  0.0000000E+00;0; -8.8867309E-05;  4.0000000E+04;  0.0000000E+00;  0.0000000E+00;  4.0000000E+04;  0.0000000E+00;  4.0000000E+04; -3.6314130E-05;  0.0000000E+00; -5.2553183E-05;  2.1503679E+02;
 -3.9999999E-02;  9.9999998E-03;  4.1999999E-01;1541;  0.0000000E+00;  0.0000000E+00;  0.0000000E+00;  1.0000000E+03;  1.0000000E-01;  0.0000000E+00;0;  0.0000000E+00;  0.0000000E+00;  0.0000000E+00;0; -4.2505948E-05;  4.0000000E+04;  0.0000000E+00;  0.0000000E+00;  4.0000000E+04;  0.0000000E+00;  4.0000000E+04; -1.5410935E-05;  0.0000000E+00; -2.7095015E-05;  1.0911814E+02;
 -3.9999999E-02;  9.9999998E-03;  4.3000001E-01;1542;  0.0000000E+00;  0.0000000E+00;  0.0000000E+00;  1.0000000E+03;  1.0000000E-01;  0.0000000E+00;0;  0.0000000E+00;  0.0000000E+00;  0.0000000E+00;0; -1.6080823E-05;  4.0000000E+04;  0.0000000E+00;  0.0000000E+00;  4.0000000E+04;  0.0000000E+00;  4.0000000E+04; -5.2121040E-06;  0.0000000E+00; -1.0868719E-05;  4.3032619E+01;
 -3.9999999E-02;  9.9999998E-03;  4.4000000E-01;1543;  0.0000000E+00;  0.0000000E+00;  0.0000000E+00;  1.0000000E+03;  1.0000000E-01;  0.0000000E+00;0;  0.0000000E+00;  0.0000000E+00;  0.0000000E+00;0; -4.0673972E-06;  4.0000000E+04;  0.0000000E+00;  0.0000000E+00;  4.0000000E+04;  0.0000000E+00;  4.0000000E+04; -1.1999830E-06;  0.0000000E+00; -2.8674142E-06;  1.1247408E+01;
 -3.9999999E-02;  9.9999998E-03;  4.4999999E-01;1544;  0.0000000E+00;  0.0000000E+00;  0.0000000E+00;  1.0000000E+03;  1.0000000E-01;  0.0000000E+00;0;  0.0000000E+00;  0.0000000E+00;  0.0000000E+00;0; -4.4652847E-07;  4.0000000E+04;  0.0000000E+00;  0.0000000E+00;  4.0000000E+04;  0.0000000E+00;  4.0000000E+04; -1.2359597E-07;  0.0000000E+00; -3.2293249E-07;  1.2944434E+00;
 -2.9999999E-02;  9.9999998E-03;  4.1000000E-01;1631;  0.0000000E+00;  0.0000000E+00;  0.0000000E+00;  1.0000668E+03;  1.0000000E-01;  5.5307079E+01;0;  0.0000000E+00;  0.0000000E+00;  0.0000000E+00;0; -1.2147630E-04;  4.0000000E+04;  0.0000000E+00;  0.0000000E+00;  4.0000000E+04;  0.0000000E+00;  4.0000000E+04; -5.3101932E-05;  0.0000000E+00; -6.8374364E-05;  2.8820248E+02;
 -2.9999999E-02;  9.9999998E-03;  4.1999999E-01;1632;  0.0000000E+00;  0.0000000E+00;  0.0000000E+00;  1.0000106E+03;  1.0000000E-01;  8.7898750E+00;0;  0.0000000E+00;  0.0000000E+00;  0.0000000E+00;0; -6.0344279E-05;  4.0000000E+04;  0.0000000E+00;  0.0000000E+00;  4.0000000E+04;  0.0000000E+00;  4.0000000E+04; -2.3432000E-05;  0.0000000E+00; -3.6912279E-05;  1.5364339E+02;
 -2.9999999E-02;  9.9999998E-03;  4.3000001E-01;1633;  0.0000000E+00;  0.0000000E+00;  0.0000000E+00;  1.0000000E+03;  1.0000000E-01;  0.0000000E+00;0;  0.0000000E+00;  0.0000000E+00;  0.0000000E+00;0; -2.4394194E-05;  4.0000000E+04;  0.0000000E+00;  0.0000000E+00;  4.0000000E+04;  0.0000000E+00;  4.0000000E+04; -8.4281510E-06;  0.0000000E+00; -1.5966043E-05;  6.5519020E+01;
 -2.9999999E-02;  9.9999998E-03;  4.4000000E-01;1634;  0.0000000E+00;  0.0000000E+00;  0.0000000E+00;  1.0000000E+03;  1.0000000E-01;  0.0000000E+00;0;  0.0000000E+00;  0.0000000E+00;  0.0000000E+00;0; -7.0027700E-06;  4.0000000E+04;  0.0000000E+00;  0.0000000E+00;  4.0000000E+04;  0.0000000E+00;  4.0000000E+04; -2.1679218E-06;  0.0000000E+00; -4.8348479E-06;  1.9672091E+01;
 -2.9999999E-02;  9.9999998E-03;  4.4999999E-01;1635;  0.0000000E+00;  0.0000000E+00;  0.0000000E+00;  1.0000000E+03;  1.0000000E-01;  0.0000000E+00;0;  0.0000000E+00;  0.0000000E+00;  0.0000000E+00;0; -1.0385377E-06;  4.0000000E+04;  0.0000000E+00;  0.0000000E+00;  4.0000000E+04;  0.0000000E+00;  4.0000000E+04; -2.8971129E-07;  0.0000000E+00; -7.4882638E-07;  3.0834026E+00;
 -2.0000000E-02;  9.9999998E-03;  4.1000000E-01;1722;  0.0000000E+00;  0.0000000E+00;  0.0000000E+00;  1.0000828E+03;  1.0000000E-01;  6.8541275E+01;0;  0.0000000E+00;  0.0000000E+00;  0.0000000E+00;0; -1.5555570E-04;  4.0000000E+04;  0.0000000E+00;  0.0000000E+00;  4.0000000E+04;  0.0000000E+00;  4.0000000E+04; -7.2401082E-05;  0.0000000E+00; -8.3154620E-05;  3.5915710E+02;
 -2.0000000E-02;  9.9999998E-03;  4.1999999E-01;1723;  0.0000000E+00;  0.0000000E+00;  0.0000000E+00;  1.0000462E+03;  1.0000000E-01;  3.8319904E+01;0;  0.0000000E+00;  0.0000000E+00;  0.0000000E+00;0; -7.9269928E-05;  4.0000000E+04;  0.0000000E+00;  0.0000000E+00;  4.0000000E+04;  0.0000000E+00;  4.0000000E+04; -3.2912245E-05;  0.0000000E+00; -4.6357683E-05;  1.9846844E+02;
 -2.0000000E-02;  9.9999998E-03;  4.3000001E-01;1724;  0.0000000E+00;  0.0000000E+00;  0.0000000E+00;  1.0000000E+03;  1.0000000E-01;  0.0000000E+00;0;  0.0000000E+00;  0.0000000E+00;  0.0000000E+00;0; -3.3520402E-05;  4.0000000E+04;  0.0000000E+00;  0.0000000E+00;  4.0000000E+04;  0.0000000E+00;  4.0000000E+04; -1.2377997E-05;  0.0000000E+00; -2.1142403E-05;  8.9521393E+01;
 -2.0000000E-02;  9.9999998E-03;  4.4000000E-01;1725;  0.0000000E+00;  0.0000000E+00;  0.0000000E+00;  1.0000000E+03;  1.0000000E-01;  0.0000000E+00;0;  0.0000000E+00;  0.0000000E+00;  0.0000000E+00;0; -1.0469210E-05;  4.0000000E+04;  0.0000000E+00;  0.0000000E+00;  4.0000000E+04;  0.0000000E+00;  4.0000000E+04; -3.4317884E-06;  0.0000000E+00; -7.0374213E-06;  2.9609116E+01;
 -2.0000000E-02;  9.9999998E-03;  4.4999999E-01;1726;  0.0000000E+00;  0.0000000E+00;  0.0000000E+00;  1.0000000E+03;  1.0000000E-01;  0.0000000E+00;0;  0.0000000E+00;  0.0000000E+00;  0.0000000E+00;0; -1.8709950E-06;  4.0000000E+04;  0.0000000E+00;  0.0000000E+00;  4.0000000E+04;  0.0000000E+00;  4.0000000E+04; -5.3695481E-07;  0.0000000E+00; -1.3340402E-06;  5.6655798E+00;
 -9.9999998E-03;  9.9999998E-03;  4.1000000E-01;1813;  0.0000000E+00;  0.0000000E+00;  0.0000000E+00;  1.0001279E+03;  1.0000000E-01;  1.0597231E+02;0;  0.0000000E+00;  0.0000000E+00;  0.0000000E+00;0; -1.8787969E-04;  4.0000000E+04;  0.0000000E+00;  0.0000000E+00;  4.0000000E+04;  0.0000000E+00;  4.0000000E+04; -9.2450035E-05;  0.0000000E+00; -9.5429656E-05;  4.1901343E+02;
 -9.9999998E-03;  9.9999998E-03;  4.1999999E-01;1814;  0.0000000E+00;  0.0000000E+00;  0.0000000E+00;  1.0000550E+03;  1.0000000E-01;  4.5529575E+01;0;  0.0000000E+00;  0.0000000E+00;  0.0000000E+00;0; -9.7318218E-05;  4.0000000E+04;  0.0000000E+00;  0.0000000E+00;  4.0000000E+04;  0.0000000E+00;  4.0000000E+04; -4.3019030E-05;  0.0000000E+00; -5.4299184E-05;  2.3745435E+02;
 -9.9999998E-03;  9.9999998E-03;  4.3000001E-01;1815;  0.0000000E+00;  0.0000000E+00;  0.0000000E+00;  1.0000000E+03;  1.0000000E-01;  0.0000000E+00;0;  0.0000000E+00;  0.0000000E+00;  0.0000000E+00;0; -4.2382177E-05;  4.0000000E+04;  0.0000000E+00;  0.0000000E+00;  4.0000000E+04;  0.0000000E+00;  4.0000000E+04; -1.6724702E-05;  0.0000000E+00; -2.5657475E-05;  1.1144604E+02;
 -9.9999998E-03;  9.9999998E-03;  4.4000000E-01;1816;  0.0000000E+00;  0.0000000E+00;  0.0000000E+00;  1.0000000E+03;  1.0000000E-01;  0.0000000E+00;0;  0.0000000E+00;  0.0000000E+00;  0.0000000E+00;0; -1.3989696E-05;  4.0000000E+04;  0.0000000E+00;  0.0000000E+00;  4.0000000E+04;  0.0000000E+00;  4.0000000E+04; -4.8840329E-06;  0.0000000E+00; -9.1056627E-06;  3.9449020E+01;
 -9.9999998E-03;  9.9999998E-03;  4.4999999E-01;1817;  0.0000000E+00;  0.0000000E+00;  0.0000000E+00;  1.0000000E+03;  1.0000000E-01;  0.0000000E+00;0;  0.0000000E+00;  0.0000000E+00;  0.0000000E+00;0; -2.8135603E-06;  4.0000000E+04;  0.0000000E+00;  0.0000000E+00;  4.0000000E+04;  0.0000000E+00;  4.0000000E+04; -8.4351427E-07;  0.0000000E+00; -1.9700460E-06;  8.6276531E+00;
  0.0000000E+00;  9.9999998E-03;  4.1000000E-01;1845;  0.0000000E+00;  0.0000000E+00;  0.0000000E+00;  1.0001492E+03;  1.0000000E-01;  1.2355206E+02;0;  0.0000000E+00;  0.0000000E+00;  0.0000000E+00;0; -2.1503581E-04;  4.0000000E+04;  0.0000000E+00;  0.0000000E+00;  4.0000000E+04;  0.0000000E+00;  4.0000000E+04; -1.1074582E-04;  0.0000000E+00; -1.0428997E-04;  4.5976083E+02;
  0.0000000E+00;  9.9999998E-03;  4.1999999E-01;1846;  0.0000000E+00;  0.0000000E+00;  0.0000000E+00;  1.0000707E+03;  1.0000000E-01;  5.8566246E+01;0;  0.0000000E+00;  0.0000000E+00;  0.0000000E+00;0; -1.1242579E-04;  4.0000000E+04;  0.0000000E+00;  0.0000000E+00;  4.0000000E+04;  0.0000000E+00;  4.0000000E+04; -5.2510837E-05;  0.0000000E+00; -5.9914953E-05;  2.6459732E+02;
  0.0000000E+00;  9.9999998E-03;  4.3000001E-01;1847;  0.0000000E+00;  0.0000000E+00;  0.0000000E+00;  1.0000084E+03;  1.0000000E-01;  6.9133849E+00;0;  0.0000000E+00;  0.0000000E+00;  0.0000000E+00;0; -4.9822826E-05;  4.0000000E+04;  0.0000000E+00;  0.0000000E+00;  4.0000000E+04;  0.0000000E+00;  4.0000000E+04; -2.0939968E-05;  0.0000000E+00; -2.8882856E-05;  1.2745500E+02;
  0.0000000E+00;  9.9999998E-03;  4.4000000E-01;1848;  0.0000000E+00;  0.0000000E+00;  0.0000000E+00;  1.0000000E+03;  1.0000000E-01;  0.0000000E+00;0;  0.0000000E+00;  0.0000000E+00;  0.0000000E+00;0; -1.7009403E-05;  4.0000000E+04;  0.0000000E+00;  0.0000000E+00;  4.0000000E+04;  0.0000000E+00;  4.0000000E+04; -6.3424122E-06;  0.0000000E+00; -1.0666990E-05;  4.7242626E+01;
  0.0000000E+00;  9.9999998E-03;  4.4999999E-01;1849;  0.0000000E+00;  0.0000000E+00;  0.0000000E+00;  1.0000000E+03;  1.0000000E-01;  0.0000000E+00;0;  0.0000000E+00;  0.0000000E+00;  0.0000000E+00;0; -3.6759679E-06;  4.0000000E+04;  0.0000000E+00;  0.0000000E+00;  4.0000000E+04;  0.0000000E+00;  4.0000000E+04; -1.1651279E-06;  0.0000000E+00; -2.5108402E-06;  1.1301973E+01;
  9.9999998E-03;  9.9999998E-03;  4.1000000E-01;1875;  0.0000000E+00;  0.0000000E+00;  0.0000000E+00;  1.0001854E+03;  1.0000000E-01;  1.5357590E+02;0;  0.0000000E+00;  0.0000000E+00;  0.0000000E+00;0; -2.3399651E-04;  4.0000000E+04;  0.0000000E+00;  0.0000000E+00;  4.0000000E+04;  0.0000000E+00;  4.0000000E+04; -1.2434235E-04;  0.0000000E+00; -1.0965417E-04;  4.7660675E+02;
  9.9999998E-03;  9.9999998E-03;  4.1999999E-01;1876;  0.0000000E+00;  0.0000000E+00;  0.0000000E+00;  1.0000889E+03;  1.0000000E-01;  7.3676926E+01;0;  0.0000000E+00;  0.0000000E+00;  0.0000000E+00;0; -1.2280620E-04;  4.0000000E+04;  0.0000000E+00;  0.0000000E+00;  4.0000000E+04;  0.0000000E+00;  4.0000000E+04; -5.9857266E-05;  0.0000000E+00; -6.2948944E-05;  2.7554077E+02;
  9.9999998E-03;  9.9999998E-03;  4.3000001E-01;1877;  0.0000000E+00;  0.0000000E+00;  0.0000000E+00;  1.0000317E+03;  1.0000000E-01;  2.6270863E+01;0;  0.0000000E+00;  0.0000000E+00;  0.0000000E+00;0; -5.4849210E-05;  4.0000000E+04;  0.0000000E+00;  0.0000000E+00;  4.0000000E+04;  0.0000000E+00;  4.0000000E+04; -2.4351641E-05;  0.0000000E+00; -3.0497569E-05;  1.3433920E+02;
  9.9999998E-03;  9.9999998E-03;  4.4000000E-01;1878;  0.0000000E+00;  0.0000000E+00;  0.0000000E+00;  1.0000000E+03;  1.0000000E-01;  0.0000000E+00;0;  0.0000000E+00;  0.0000000E+00;  0.0000000E+00;0; -1.9035613E-05;  4.0000000E+04;  0.0000000E+00;  0.0000000E+00;  4.0000000E+04;  0.0000000E+00;  4.0000000E+04; -7.5726475E-06;  0.0000000E+00; -1.1462966E-05;  5.1162411E+01;
  9.9999998E-03;  9.9999998E-03;  4.4999999E-01;1879;  0.0000000E+00;  0.0000000E+00;  0.0000000E+00;  1.0000000E+03;  1.0000000E-01;  0.0000000E+00;0;  0.0000000E+00;  0.0000000E+00;  0.0000000E+00;0; -4.2696829E-06;  4.0000000E+04;  0.0000000E+00;  0.0000000E+00;  4.0000000E+04;  0.0000000E+00;  4.0000000E+04; -1.4443575E-06;  0.0000000E+00; -2.8253253E-06;  1.2958392E+01;
  2.0000000E-02;  9.9999998E-03;  4.1000000E-01;1905;  0.0000000E+00;  0.0000000E+00;  0.0000000E+00;  1.0002181E+03;  1.0000000E-01;  1.8063687E+02;0;  0.0000000E+00;  0.0000000E+00;  0.0000000E+00;0; -2.4270461E-04;  4.0000000E+04;  0.0000000E+00;  0.0000000E+00;  4.0000000E+04;  0.0000000E+00;  4.0000000E+04; -1.3038323E-04;  0.0000000E+00; -1.1232140E-04;  4.7004047E+02;
  2.0000000E-02;  9.9999998E-03;  4.1999999E-01;1906;  0.0000000E+00;  0.0000000E+00;  0.0000000E+00;  1.0001116E+03;  1.0000000E-01;  9.2441833E+01;0;  0.0000000E+00;  0.0000000E+00;  0.0000000E+00;0; -1.2730999E-04;  4.0000000E+04;  0.0000000E+00;  0.0000000E+00;  4.0000000E+04;  0.0000000E+00;  4.0000000E+04; -6.3488580E-05;  0.0000000E+00; -6.3821404E-05;  2.6921292E+02;
  2.0000000E-02;  9.9999998E-03;  4.3000001E-01;1907;  0.0000000E+00;  0.0000000E+00;  0.0000000E+00;  1.0000461E+03;  1.0000000E-01;  3.8221142E+01;0;  0.0000000E+00;  0.0000000E+00;  0.0000000E+00;0; -5.6853620E-05;  4.0000000E+04;  0.0000000E+00;  0.0000000E+00;  4.0000000E+04;  0.0000000E+00;  4.0000000E+04; -2.6238058E-05;  0.0000000E+00; -3.0615560E-05;  1.3050647E+02;
  2.0000000E-02;  9.9999998E-03;  4.4000000E-01;1908;  0.0000000E+00;  0.0000000E+00;  0.0000000E+00;  1.0000000E+03;  1.0000000E-01;  0.0000000E+00;0;  0.0000000E+00;  0.0000000E+00;  0.0000000E+00;0; -1.9769133E-05;  4.0000000E+04;  0.0000000E+00;  0.0000000E+00;  4.0000000E+04;  0.0000000E+00;  4.0000000E+04; -8.3226896E-06;  0.0000000E+00; -1.1446443E-05;  4.9989185E+01;
  2.0000000E-02;  9.9999998E-03;  4.4999999E-01;1909;  0.0000000E+00;  0.0000000E+00;  0.0000000E+00;  1.0000000E+03;  1.0000000E-01;  0.0000000E+00;0;  0.0000000E+00;  0.0000000E+00;  0.0000000E+00;0; -4.4710987E-06;  4.0000000E+04;  0.0000000E+00;  0.0000000E+00;  4.0000000E+04;  0.0000000E+00;  4.0000000E+04; -1.6237207E-06;  0.0000000E+00; -2.8473783E-06;  1.3022963E+01;
  2.9999999E-02;  9.9999998E-03;  4.1000000E-01;1935;  0.0000000E+00;  0.0000000E+00;  0.0000000E+00;  1.0002547E+03;  1.0000000E-01;  2.1105576E+02;0;  0.0000000E+00;  0.0000000E+00;  0.0000000E+00;0; -2.4055598E-04;  4.0000000E+04;  0.0000000E+00;  0.0000000E+00;  4.0000000E+04;  0.0000000E+00;  4.0000000E+04; -1.2676387E-04;  0.0000000E+00; -1.1379211E-04;  4.4735718E+02;
  2.9999999E-02;  9.9999998E-03;  4.1999999E-01;1936;  0.0000000E+00;  0.0000000E+00;  0.0000000E+00;  1.0001301E+03;  1.0000000E-01;  1.0775004E+02;0;  0.0000000E+00;  0.0000000E+00;  0.0000000E+00;0; -1.2568838E-04;  4.0000000E+04;  0.0000000E+00;  0.0000000E+00;  4.0000000E+04;  0.0000000E+00;  4.0000000E+04; -6.2144354E-05;  0.0000000E+00; -6.3544023E-05;  2.4908606E+02;
  2.9999999E-02;  9.9999998E-03;  4.3000001E-01;1937;  0.0000000E+00;  0.0000000E+00;  0.0000000E+00;  1.0000506E+03;  1.0000000E-01;  4.1875359E+01;0;  0.0000000E+00;  0.0000000E+00;  0.0000000E+00;0; -5.5762022E-05;  4.0000000E+04;  0.0000000E+00;  0.0000000E+00;  4.0000000E+04;  0.0000000E+00;  4.0000000E+04; -2.5973603E-05;  0.0000000E+00; -2.9788422E-05;  1.1690065E+02;
  2.9999999E-02;  9.9999998E-03;  4.4000000E-01;1938;  0.0000000E+00;  0.0000000E+00;  0.0000000E+00;  1.0000000E+03;  1.0000000E-01;  0.0000000E+00;0;  0.0000000E+00;  0.0000000E+00;  0.0000000E+00;0; -1.9188745E-05;  4.0000000E+04;  0.0000000E+00;  0.0000000E+00;  4.0000000E+04;  0.0000000E+00;  4.0000000E+04; -8.3656487E-06;  0.0000000E+00; -1.0823095E-05;  4.3578190E+01;
  2.9999999E-02;  9.9999998E-03;  4.4999999E-01;1939;  0.0000000E+00;  0.0000000E+00;  0.0000000E+00;  1.0000000E+03;  1.0000000E-01;  0.0000000E+00;0;  0.0000000E+00;  0.0000000E+00;  0.0000000E+00;0; -4.2652846E-06;  4.0000000E+04;  0.0000000E+00;  0.0000000E+00;  4.0000000E+04;  0.0000000E+00;  4.0000000E+04; -1.6573824E-06;  0.0000000E+00; -2.6079024E-06;  1.1262626E+01;
  3.9999999E-02;  9.9999998E-03;  4.1000000E-01;1965;  0.0000000E+00;  0.0000000E+00;  0.0000000E+00;  1.0002783E+03;  1.0000000E-01;  2.3061076E+02;0;  0.0000000E+00;  0.0000000E+00;  0.0000000E+00;0; -2.2870657E-04;  4.0000000E+04;  0.0000000E+00;  0.0000000E+00;  4.0000000E+04;  0.0000000E+00;  4.0000000E+04; -1.1273590E-04;  0.0000000E+00; -1.1597067E-04;  4.2261157E+02;
  3.9999999E-02;  9.9999998E-03;  4.1999999E-01;1966;  0.0000000E+00;  0.0000000E+00;  0.0000000E+00;  1.0001376E+03;  1.0000000E-01;  1.1407085E+02;0;  0.0000000E+00;  0.0000000E+00;  0.0000000E+00;0; -1.1871569E-04;  4.0000000E+04;  0.0000000E+00;  0.0000000E+00;  4.0000000E+04;  0.0000000E+00;  4.0000000E+04; -5.5240518E-05;  0.0000000E+00; -6.3475170E-05;  2.2360297E+02;
  3.9999999E-02;  9.9999998E-03;  4.3000001E-01;1967;  0.0000000E+00;  0.0000000E+00;  0.0000000E+00;  1.0000569E+03;  1.0000000E-01;  4.7109779E+01;0;  0.0000000E+00;  0.0000000E+00;  0.0000000E+00;0; -5.2072370E-05;  4.0000000E+04;  0.0000000E+00;  0.0000000E+00;  4.0000000E+04;  0.0000000E+00;  4.0000000E+04; -2.3202057E-05;  0.0000000E+00; -2.8870312E-05;  9.7515831E+01;
  3.9999999E-02;  9.9999998E-03;  4.4000000E-01;1968;  0.0000000E+00;  0.0000000E+00;  0.0000000E+00;  1.0000000E+03;  1.0000000E-01;  0.0000000E+00;0;  0.0000000E+00;  0.0000000E+00;  0.0000000E+00;0; -1.7565213E-05;  4.0000000E+04;  0.0000000E+00;  0.0000000E+00;  4.0000000E+04;  0.0000000E+00;  4.0000000E+04; -7.5536964E-06;  0.0000000E+00; -1.0011516E-05;  3.3221504E+01;
  3.9999999E-02;  9.9999998E-03;  4.4999999E-01;1969;  0.0000000E+00;  0.0000000E+00;  0.0000000E+00;  1.0000000E+03;  1.0000000E-01;  0.0000000E+00;0;  0.0000000E+00;  0.0000000E+00;  0.0000000E+00;0; -3.7550790E-06;  4.0000000E+04;  0.0000000E+00;  0.0000000E+00;  4.0000000E+04;  0.0000000E+00;  4.0000000E+04; -1.5175324E-06;  0.0000000E+00; -2.2375466E-06;  7.9072714E+00;
  5.0000001E-02;  9.9999998E-03;  4.1000000E-01;1995;  0.0000000E+00;  0.0000000E+00;  0.0000000E+00;  1.0002839E+03;  1.0000000E-01;  2.3525261E+02;0;  0.0000000E+00;  0.0000000E+00;  0.0000000E+00;0; -2.1012541E-04;  4.0000000E+04;  0.0000000E+00;  0.0000000E+00;  4.0000000E+04;  0.0000000E+00;  4.0000000E+04; -8.9229601E-05;  0.0000000E+00; -1.2089581E-04;  4.1449319E+02;
  5.0000001E-02;  9.9999998E-03;  4.1999999E-01;1996;  0.0000000E+00;  0.0000000E+00;  0.0000000E+00;  1.0001482E+03;  1.0000000E-01;  1.2276196E+02;0;  0.0000000E+00;  0.0000000E+00;  0.0000000E+00;0; -1.0817448E-04;  4.0000000E+04;  0.0000000E+00;  0.0000000E+00;  4.0000000E+04;  0.0000000E+00;  4.0000000E+04; -4.3135471E-05;  0.0000000E+00; -6.5039014E-05;  2.0536597E+02;
  5.0000001E-02;  9.9999998E-03;  4.3000001E-01;1997;  0.0000000E+00;  0.0000000E+00;  0.0000000E+00;  1.0000646E+03;  1.0000000E-01;  5.3529350E+01;0;  0.0000000E+00;  0.0000000E+00;  0.0000000E+00;0; -4.6780253E-05;  4.0000000E+04;  0.0000000E+00;  0.0000000E+00;  4.0000000E+04;  0.0000000E+00;  4.0000000E+04; -1.7989250E-05;  0.0000000E+00; -2.8791002E-05;  7.9254333E+01;
  5.0000001E-02;  9.9999998E-03;  4.4000000E-01;1998;  0.0000000E+00;  0.0000000E+00;  0.0000000E+00;  1.0000000E+03;  1.0000000E-01;  0.0000000E+00;0;  0.0000000E+00;  0.0000000E+00;  0.0000000E+00;0; -1.5396878E-05;  4.0000000E+04;  0.0000000E+00;  0.0000000E+00;  4.0000000E+04;  0.0000000E+00;  4.0000000E+04; -5.8731966E-06;  0.0000000E+00; -9.5236810E-06;  2.1734722E+01;
  5.0000001E-02;  9.9999998E-03;  4.4999999E-01;1999;  0.0000000E+00;  0.0000000E+00;  0.0000000E+00;  1.0000000E+03;  1.0000000E-01;  0.0000000E+00;0;  0.0000000E+00;  0.0000000E+00;  0.0000000E+00;0; -3.1285967E-06;  4.0000000E+04;  0.0000000E+00;  0.0000000E+00;  4.0000000E+04;  0.0000000E+00;  4.0000000E+04; -1.1985647E-06;  0.0000000E+00; -1.9300319E-06;  3.6981184E+00;
  5.9999999E-02;  9.9999998E-03;  4.1000000E-01;2025;  0.0000000E+00;  0.0000000E+00;  0.0000000E+00;  1.0002894E+03;  1.0000000E-01;  2.3979568E+02;0;  0.0000000E+00;  0.0000000E+00;  0.0000000E+00;0; -1.8922286E-04;  4.0000000E+04;  0.0000000E+00;  0.0000000E+00;  4.0000000E+04;  0.0000000E+00;  4.0000000E+04; -5.8824859E-05;  0.0000000E+00; -1.3039801E-04;  4.4236795E+02;
  5.9999999E-02;  9.9999998E-03;  4.1999999E-01;2026;  0.0000000E+00;  0.0000000E+00;  0.0000000E+00;  1.0001510E+03;  1.0000000E-01;  1.2513226E+02;0;  0.0000000E+00;  0.0000000E+00;  0.0000000E+00;0; -9.6659991E-05;  4.0000000E+04;  0.0000000E+00;  0.0000000E+00;  4.0000000E+04;  0.0000000E+00;  4.0000000E+04; -2.7140133E-05;  0.0000000E+00; -6.9519854E-05;  2.0863530E+02;
  5.9999999E-02;  9.9999998E-03;  4.3000001E-01;2027;  0.0000000E+00;  0.0000000E+00;  0.0000000E+00;  1.0000660E+03;  1.0000000E-01;  5.4615738E+01;0;  0.0000000E+00;  0.0000000E+00;  0.0000000E+00;0; -4.1222200E-05;  4.0000000E+04;  0.0000000E+00;  0.0000000E+00;  4.0000000E+04;  0.0000000E+00;  4.0000000E+04; -1.0880094E-05;  0.0000000E+00; -3.0342104E-05;  7.0880508E+01;
  5.9999999E-02;  9.9999998E-03;  4.4000000E-01;2028;  0.0000000E+00;  0.0000000E+00;  0.0000000E+00;  1.0000000E+03;  1.0000000E-01;  0.0000000E+00;0;  0.0000000E+00;  0.0000000E+00;  0.0000000E+00;0; -1.3278867E-05;  4.0000000E+04;  0.0000000E+00;  0.0000000E+00;  4.0000000E+04;  0.0000000E+00;  4.0000000E+04; -3.4772127E-06;  0.0000000E+00; -9.8016544E-06;  1.3131483E+01;
  5.9999999E-02;  9.9999998E-03;  4.4999999E-01;2029;  0.0000000E+00;  0.0000000E+00;  0.0000000E+00;  1.0000000E+03;  1.0000000E-01;  0.0000000E+00;0;  0.0000000E+00;  0.0000000E+00;  0.0000000E+00;0; -2.5906184E-06;  4.0000000E+04;  0.0000000E+00;  0.0000000E+00;  4.0000000E+04;  0.0000000E+00;  4.0000000E+04; -7.2192955E-07;  0.0000000E+00; -1.8686889E-06;  2.9125366E-01;
  7.0000000E-02;  9.9999998E-03;  4.1000000E-01;2055;  0.0000000E+00;  0.0000000E+00;  0.0000000E+00;  1.0002938E+03;  1.0000000E-01;  2.4344991E+02;0;  0.0000000E+00;  0.0000000E+00;  0.0000000E+00;0; -1.7101568E-04;  4.0000000E+04;  0.0000000E+00;  0.0000000E+00;  4.0000000E+04;  0.0000000E+00;  4.0000000E+04; -2.5485098E-05;  0.0000000E+00; -1.4553058E-04;  5.2190485E+02;
  7.0000000E-02;  9.9999998E-03;  4.1999999E-01;2056;  0.0000000E+00;  0.0000000E+00;  0.0000000E+00;  1.0001518E+03;  1.0000000E-01;  1.2572484E+02;0;  0.0000000E+00;  0.0000000E+00;  0.0000000E+00;0; -8.7041684E-05;  4.0000000E+04;  0.0000000E+00;  0.0000000E+00;  4.0000000E+04;  0.0000000E+00;  4.0000000E+04; -9.2239115E-06;  0.0000000E+00; -7.7817771E-05;  2.4578484E+02;
  7.0000000E-02;  9.9999998E-03;  4.3000001E-01;2057;  0.0000000E+00;  0.0000000E+00;  0.0000000E+00;  1.0000672E+03;  1.0000000E-01;  5.5702129E+01;0;  0.0000000E+00;  0.0000000E+00;  0.0000000E+00;0; -3.6838272E-05;  4.0000000E+04;  0.0000000E+00;  0.0000000E+00;  4.0000000E+04;  0.0000000E+00;  4.0000000E+04; -2.7660271E-06;  0.0000000E+00; -3.4072244E-05;  8.0966309E+01;
  7.0000000E-02;  9.9999998E-03;  4.4000000E-01;2058;  0.0000000E+00;  0.0000000E+00;  0.0000000E+00;  1.0000000E+03;  1.0000000E-01;  0.0000000E+00;0;  0.0000000E+00;  0.0000000E+00;  0.0000000E+00;0; -1.1765468E-05;  4.0000000E+04;  0.0000000E+00;  0.0000000E+00;  4.0000000E+04;  0.0000000E+00;  4.0000000E+04; -6.6496949E-07;  0.0000000E+00; -1.1100498E-05;  1.1886442E+01;
  7.0000000E-02;  9.9999998E-03;  4.4999999E-01;2059;  0.0000000E+00;  0.0000000E+00;  0.0000000E+00;  1.0000000E+03;  1.0000000E-01;  0.0000000E+00;0;  0.0000000E+00;  0.0000000E+00;  0.0000000E+00;0; -2.2963820E-06;  4.0000000E+04;  0.0000000E+00;  0.0000000E+00;  4.0000000E+04;  0.0000000E+00;  4.0000000E+04; -1.3612046E-07;  0.0000000E+00; -2.1602616E-06;  2.3926432E+00;
  7.9999998E-02;  9.9999998E-03;  4.1000000E-01;2085;  0.0000000E+00;  0.0000000E+00;  0.0000000E+00;  1.0002914E+03;  1.0000000E-01;  2.4147466E+02;0;  0.0000000E+00;  0.0000000E+00;  0.0000000E+00;0; -1.6064537E-04;  4.0000000E+04;  0.0000000E+00;  0.0000000E+00;  4.0000000E+04;  0.0000000E+00;  4.0000000E+04;  5.6565968E-06;  0.0000000E+00; -1.6630196E-04;  6.6143420E+02;
  7.9999998E-02;  9.9999998E-03;  4.1999999E-01;2086;  0.0000000E+00;  0.0000000E+00;  0.0000000E+00;  1.0001441E+03;  1.0000000E-01;  1.1940403E+02;0;  0.0000000E+00;  0.0000000E+00;  0.0000000E+00;0; -8.1900725E-05;  4.0000000E+04;  0.0000000E+00;  0.0000000E+00;  4.0000000E+04;  0.0000000E+00;  4.0000000E+04;  8.1690632E-06;  0.0000000E+00; -9.0069785E-05;  3.2415881E+02;
  7.9999998E-02;  9.9999998E-03;  4.3000001E-01;2087;  0.0000000E+00;  0.0000000E+00;  0.0000000E+00;  1.0000687E+03;  1.0000000E-01;  5.6887280E+01;0;  0.0000000E+00;  0.0000000E+00;  0.0000000E+00;0; -3.4857145E-05;  4.0000000E+04;  0.0000000E+00;  0.0000000E+00;  4.0000000E+04;  0.0000000E+00;  4.0000000E+04;  5.3286785E-06;  0.0000000E+00; -4.0185823E-05;  1.1532024E+02;
  7.9999998E-02;  9.9999998E-03;  4.4000000E-01;2088;  0.0000000E+00;  0.0000000E+00;  0.0000000E+00;  1.0000000E+03;  1.0000000E-01;  0.0000000E+00;0;  0.0000000E+00;  0.0000000E+00;  0.0000000E+00;0; -1.1286225E-05;  4.0000000E+04;  0.0000000E+00;  0.0000000E+00;  4.0000000E+04;  0.0000000E+00;  4.0000000E+04;  2.1930352E-06;  0.0000000E+00; -1.3479261E-05;  2.1622475E+01;
  7.9999998E-02;  9.9999998E-03;  4.4999999E-01;2089;  0.0000000E+00;  0.0000000E+00;  0.0000000E+00;  1.0000000E+03;  1.0000000E-01;  0.0000000E+00;0;  0.0000000E+00;  0.0000000E+00;  0.0000000E+00;0; -2.3243563E-06;  4.0000000E+04;  0.0000000E+00;  0.0000000E+00;  4.0000000E+04;  0.0000000E+00;  4.0000000E+04;  4.8922067E-07;  0.0000000E+00; -2.8135769E-06;  1.6948425E+00;
  9.0000004E-02;  9.9999998E-03;  4.1000000E-01;2115;  0.0000000E+00;  0.0000000E+00;  0.0000000E+00;  1.0002817E+03;  1.0000000E-01;  2.3337611E+02;0;  0.0000000E+00;  0.0000000E+00;  0.0000000E+00;0; -1.6306534E-04;  4.0000000E+04;  0.0000000E+00;  0.0000000E+00;  4.0000000E+04;  0.0000000E+00;  4.0000000E+04;  2.8723023E-05;  0.0000000E+00; -1.9178836E-04;  8.5925354E+02;
  9.0000004E-02;  9.9999998E-03;  4.1999999E-01;2116;  0.0000000E+00;  0.0000000E+00;  0.0000000E+00;  1.0001380E+03;  1.0000000E-01;  1.1436713E+02;0;  0.0000000E+00;  0.0000000E+00;  0.0000000E+00;0; -8.3504019E-05;  4.0000000E+04;  0.0000000E+00;  0.0000000E+00;  4.0000000E+04;  0.0000000E+00;  4.0000000E+04;  2.2087954E-05;  0.0000000E+00; -1.0559197E-04;  4.4409909E+02;
  9.0000004E-02;  9.9999998E-03;  4.3000001E-01;2117;  0.0000000E+00;  0.0000000E+00;  0.0000000E+00;  1.0000709E+03;  1.0000000E-01;  5.8763771E+01;0;  0.0000000E+00;  0.0000000E+00;  0.0000000E+00;0; -3.6034853E-05;  4.0000000E+04;  0.0000000E+00;  0.0000000E+00;  4.0000000E+04;  0.0000000E+00;  4.0000000E+04;  1.2276540E-05;  0.0000000E+00; -4.8311394E-05;  1.7522588E+02;
  9.0000004E-02;  9.9999998E-03;  4.4000000E-01;2118;  0.0000000E+00;  0.0000000E+00;  0.0000000E+00;  1.0000000E+03;  1.0000000E-01;  0.0000000E+00;0;  0.0000000E+00;  0.0000000E+00;  0.0000000E+00;0; -1.2059090E-05;  4.0000000E+04;  0.0000000E+00;  0.0000000E+00;  4.0000000E+04;  0.0000000E+00;  4.0000000E+04;  4.7455619E-06;  0.0000000E+00; -1.6804652E-05;  4.3794323E+01;
  9.0000004E-02;  9.9999998E-03;  4.4999999E-01;2119;  0.0000000E+00;  0.0000000E+00;  0.0000000E+00;  1.0000000E+03;  1.0000000E-01;  0.0000000E+00;0;  0.0000000E+00;  0.0000000E+00;  0.0000000E+00;0; -2.6694674E-06;  4.0000000E+04;  0.0000000E+00;  0.0000000E+00;  4.0000000E+04;  0.0000000E+00;  4.0000000E+04;  1.0701102E-06;  0.0000000E+00; -3.7395776E-06;  3.6513479E+00;
  1.0000000E-01;  9.9999998E-03;  4.1000000E-01;2145;  0.0000000E+00;  0.0000000E+00;  0.0000000E+00;  1.0002731E+03;  1.0000000E-01;  2.2626521E+02;0;  0.0000000E+00;  0.0000000E+00;  0.0000000E+00;0; -1.8256804E-04;  4.0000000E+04;  0.0000000E+00;  0.0000000E+00;  4.0000000E+04;  0.0000000E+00;  4.0000000E+04;  3.7857350E-05;  0.0000000E+00; -2.2042538E-04;  1.1042570E+03;
  1.0000000E-01;  9.9999998E-03;  4.1999999E-01;2146;  0.0000000E+00;  0.0000000E+00;  0.0000000E+00;  1.0001300E+03;  1.0000000E-01;  1.0775004E+02;0;  0.0000000E+00;  0.0000000E+00;  0.0000000E+00;0; -9.3991184E-05;  4.0000000E+04;  0.0000000E+00;  0.0000000E+00;  4.0000000E+04;  0.0000000E+00;  4.0000000E+04;  2.9201252E-05;  0.0000000E+00; -1.2319244E-04;  5.9912256E+02;
  1.0000000E-01;  9.9999998E-03;  4.3000001E-01;2147;  0.0000000E+00;  0.0000000E+00;  0.0000000E+00;  1.0000734E+03;  1.0000000E-01;  6.0837784E+01;0;  0.0000000E+00;  0.0000000E+00;  0.0000000E+00;0; -4.0932362E-05;  4.0000000E+04;  0.0000000E+00;  0.0000000E+00;  4.0000000E+04;  0.0000000E+00;  4.0000000E+04;  1.6679243E-05;  0.0000000E+00; -5.7611604E-05;  2.5763406E+02;
  1.0000000E-01;  9.9999998E-03;  4.4000000E-01;2148;  0.0000000E+00;  0.0000000E+00;  0.0000000E+00;  1.0000000E+03;  1.0000000E-01;  0.0000000E+00;0;  0.0000000E+00;  0.0000000E+00;  0.0000000E+00;0; -1.4090337E-05;  4.0000000E+04;  0.0000000E+00;  0.0000000E+00;  4.0000000E+04;  0.0000000E+00;  4.0000000E+04;  6.6376824E-06;  0.0000000E+00; -2.0728019E-05;  7.7450584E+01;
  1.0000000E-01;  9.9999998E-03;  4.4999999E-01;2149;  0.0000000E+00;  0.0000000E+00;  0.0000000E+00;  1.0000000E+03;  1.0000000E-01;  0.0000000E+00;0;  0.0000000E+00;  0.0000000E+00;  0.0000000E+00;0; -3.2858807E-06;  4.0000000E+04;  0.0000000E+00;  0.0000000E+00;  4.0000000E+04;  0.0000000E+00;  4.0000000E+04;  1.5198392E-06;  0.0000000E+00; -4.8057200E-06;  1.2255010E+01;
  1.1000000E-01;  9.9999998E-03;  4.1000000E-01;2175;  0.0000000E+00;  0.0000000E+00;  0.0000000E+00;  1.0002769E+03;  1.0000000E-01;  2.2942561E+02;0;  0.0000000E+00;  0.0000000E+00;  0.0000000E+00;0; -2.2238772E-04;  4.0000000E+04;  0.0000000E+00;  0.0000000E+00;  4.0000000E+04;  0.0000000E+00;  4.0000000E+04;  2.7963390E-05;  0.0000000E+00; -2.5035112E-04;  1.3826873E+03;
  1.1000000E-01;  9.9999998E-03;  4.1999999E-01;2176;  0.0000000E+00;  0.0000000E+00;  0.0000000E+00;  1.0001285E+03;  1.0000000E-01;  1.0646613E+02;0;  0.0000000E+00;  0.0000000E+00;  0.0000000E+00;0; -1.1524920E-04;  4.0000000E+04;  0.0000000E+00;  0.0000000E+00;  4.0000000E+04;  0.0000000E+00;  4.0000000E+04;  2.6241270E-05;  0.0000000E+00; -1.4149047E-04;  7.8171967E+02;
  1.1000000E-01;  9.9999998E-03;  4.3000001E-01;2177;  0.0000000E+00;  0.0000000E+00;  0.0000000E+00;  1.0000651E+03;  1.0000000E-01;  5.3924400E+01;0;  0.0000000E+00;  0.0000000E+00;  0.0000000E+00;0; -5.0286439E-05;  4.0000000E+04;  0.0000000E+00;  0.0000000E+00;  4.0000000E+04;  0.0000000E+00;  4.0000000E+04;  1.6850780E-05;  0.0000000E+00; -6.7137218E-05;  3.5885767E+02;
  1.1000000E-01;  9.9999998E-03;  4.4000000E-01;2178;  0.0000000E+00;  0.0000000E+00;  0.0000000E+00;  1.0000000E+03;  1.0000000E-01;  0.0000000E+00;0;  0.0000000E+00;  0.0000000E+00;  0.0000000E+00;0; -1.7351644E-05;  4.0000000E+04;  0.0000000E+00;  0.0000000E+00;  4.0000000E+04;  0.0000000E+00;  4.0000000E+04;  7.3537271E-06;  0.0000000E+00; -2.4705370E-05;  1.2108107E+02;
  1.1000000E-01;  9.9999998E-03;  4.4999999E-01;2179;  0.0000000E+00;  0.0000000E+00;  0.0000000E+00;  1.0000000E+03;  1.0000000E-01;  0.0000000E+00;0;  0.0000000E+00;  0.0000000E+00;  0.0000000E+00;0; -4.1263529E-06;  4.0000000E+04;  0.0000000E+00;  0.0000000E+00;  4.0000000E+04;  0.0000000E+00;  4.0000000E+04;  1.7701452E-06;  0.0000000E+00; -5.8964979E-06;  2.4532814E+01;
  1.2000000E-01;  9.9999998E-03;  4.1000000E-01;2205;  0.0000000E+00;  0.0000000E+00;  0.0000000E+00;  1.0002946E+03;  1.0000000E-01;  2.4404248E+02;0;  0.0000000E+00;  0.0000000E+00;  0.0000000E+00;0; -2.8457629E-04;  4.0000000E+04;  0.0000000E+00;  0.0000000E+00;  4.0000000E+04;  0.0000000E+00;  4.0000000E+04; -4.7395038E-06;  0.0000000E+00; -2.7983679E-04;  1.6973096E+03;
  1.2000000E-01;  9.9999998E-03;  4.1999999E-01;2206;  0.0000000E+00;  0.0000000E+00;  0.0000000E+00;  1.0001284E+03;  1.0000000E-01;  1.0636736E+02;0;  0.0000000E+00;  0.0000000E+00;  0.0000000E+00;0; -1.4880148E-04;  4.0000000E+04;  0.0000000E+00;  0.0000000E+00;  4.0000000E+04;  0.0000000E+00;  4.0000000E+04;  1.0487500E-05;  0.0000000E+00; -1.5928899E-04;  1.0010806E+03;
  1.2000000E-01;  9.9999998E-03;  4.3000001E-01;2207;  0.0000000E+00;  0.0000000E+00;  0.0000000E+00;  1.0000621E+03;  1.0000000E-01;  5.1455334E+01;0;  0.0000000E+00;  0.0000000E+00;  0.0000000E+00;0; -6.5026288E-05;  4.0000000E+04;  0.0000000E+00;  0.0000000E+00;  4.0000000E+04;  0.0000000E+00;  4.0000000E+04;  1.1092963E-05;  0.0000000E+00; -7.6119250E-05;  4.8683911E+02;
  1.2000000E-01;  9.9999998E-03;  4.4000000E-01;2208;  0.0000000E+00;  0.0000000E+00;  0.0000000E+00;  1.0000000E+03;  1.0000000E-01;  0.0000000E+00;0;  0.0000000E+00;  0.0000000E+00;  0.0000000E+00;0; -2.2109743E-05;  4.0000000E+04;  0.0000000E+00;  0.0000000E+00;  4.0000000E+04;  0.0000000E+00;  4.0000000E+04;  6.1349851E-06;  0.0000000E+00; -2.8244729E-05;  1.7859126E+02;
  1.2000000E-01;  9.9999998E-03;  4.4999999E-01;2209;  0.0000000E+00;  0.0000000E+00;  0.0000000E+00;  1.0000000E+03;  1.0000000E-01;  0.0000000E+00;0;  0.0000000E+00;  0.0000000E+00;  0.0000000E+00;0; -5.1339762E-06;  4.0000000E+04;  0.0000000E+00;  0.0000000E+00;  4.0000000E+04;  0.0000000E+00;  4.0000000E+04;  1.7183896E-06;  0.0000000E+00; -6.8523659E-06;  4.1496483E+01;
  1.3000000E-01;  9.9999998E-03;  4.1000000E-01;2235;  0.0000000E+00;  0.0000000E+00;  0.0000000E+00;  1.0003256E+03;  1.0000000E-01;  2.6981952E+02;0;  0.0000000E+00;  0.0000000E+00;  0.0000000E+00;0; -3.6972578E-04;  4.0000000E+04;  0.0000000E+00;  0.0000000E+00;  4.0000000E+04;  0.0000000E+00;  4.0000000E+04; -6.2043684E-05;  0.0000000E+00; -3.0768209E-04;  2.1093562E+03;
  1.3000000E-01;  9.9999998E-03;  4.1999999E-01;2236;  0.0000000E+00;  0.0000000E+00;  0.0000000E+00;  1.0001295E+03;  1.0000000E-01;  1.0725623E+02;0;  0.0000000E+00;  0.0000000E+00;  0.0000000E+00;0; -1.9564333E-04;  4.0000000E+04;  0.0000000E+00;  0.0000000E+00;  4.0000000E+04;  0.0000000E+00;  4.0000000E+04; -1.9737334E-05;  0.0000000E+00; -1.7590600E-04;  1.3207155E+03;
  1.3000000E-01;  9.9999998E-03;  4.3000001E-01;2237;  0.0000000E+00;  0.0000000E+00;  0.0000000E+00;  1.0000629E+03;  1.0000000E-01;  5.2146675E+01;0;  0.0000000E+00;  0.0000000E+00;  0.0000000E+00;0; -8.6071137E-05;  4.0000000E+04;  0.0000000E+00;  0.0000000E+00;  4.0000000E+04;  0.0000000E+00;  4.0000000E+04; -1.9401725E-06;  0.0000000E+00; -8.4130967E-05;  6.8656293E+02;
  1.3000000E-01;  9.9999998E-03;  4.4000000E-01;2238;  0.0000000E+00;  0.0000000E+00;  0.0000000E+00;  1.0000000E+03;  1.0000000E-01;  0.0000000E+00;0;  0.0000000E+00;  0.0000000E+00;  0.0000000E+00;0; -2.8934364E-05;  4.0000000E+04;  0.0000000E+00;  0.0000000E+00;  4.0000000E+04;  0.0000000E+00;  4.0000000E+04;  2.1869764E-06;  0.0000000E+00; -3.1121341E-05;  2.7164230E+02;
  1.3000000E-01;  9.9999998E-03;  4.4999999E-01;2239;  0.0000000E+00;  0.0000000E+00;  0.0000000E+00;  1.0000000E+03;  1.0000000E-01;  0.0000000E+00;0;  0.0000000E+00;  0.0000000E+00;  0.0000000E+00;0; -6.3898046E-06;  4.0000000E+04;  0.0000000E+00;  0.0000000E+00;  4.0000000E+04;  0.0000000E+00;  4.0000000E+04;  1.1511967E-06;  0.0000000E+00; -7.5410012E-06;  6.8984276E+01;
  1.4000000E-01;  9.9999998E-03;  4.1000000E-01;2265;  0.0000000E+00;  0.0000000E+00;  0.0000000E+00;  1.0003663E+03;  1.0000000E-01;  3.0349759E+02;0;  0.0000000E+00;  0.0000000E+00;  0.0000000E+00;0; -4.7594728E-04;  4.0000000E+04;  0.0000000E+00;  0.0000000E+00;  4.0000000E+04;  0.0000000E+00;  4.0000000E+04; -1.4250580E-04;  0.0000000E+00; -3.3344148E-04;  2.7964299E+03;
  1.4000000E-01;  9.9999998E-03;  4.1999999E-01;2266;  0.0000000E+00;  0.0000000E+00;  0.0000000E+00;  1.0001382E+03;  1.0000000E-01;  1.1446590E+02;0;  0.0000000E+00;  0.0000000E+00;  0.0000000E+00;0; -2.5567022E-04;  4.0000000E+04;  0.0000000E+00;  0.0000000E+00;  4.0000000E+04;  0.0000000E+00;  4.0000000E+04; -6.4392771E-05;  0.0000000E+00; -1.9127745E-04;  1.9001079E+03;
  1.4000000E-01;  9.9999998E-03;  4.3000001E-01;2267;  0.0000000E+00;  0.0000000E+00;  0.0000000E+00;  1.0000658E+03;  1.0000000E-01;  5.4516975E+01;0;  0.0000000E+00;  0.0000000E+00;  0.0000000E+00;0; -1.1403717E-04;  4.0000000E+04;  0.0000000E+00;  0.0000000E+00;  4.0000000E+04;  0.0000000E+00;  4.0000000E+04; -2.2749591E-05;  0.0000000E+00; -9.1287577E-05;  1.0639287E+03;
  1.4000000E-01;  9.9999998E-03;  4.4000000E-01;2268;  0.0000000E+00;  0.0000000E+00;  0.0000000E+00;  1.0000000E+03;  1.0000000E-01;  0.0000000E+00;0;  0.0000000E+00;  0.0000000E+00;  0.0000000E+00;0; -3.8437338E-05;  4.0000000E+04;  0.0000000E+00;  0.0000000E+00;  4.0000000E+04;  0.0000000E+00;  4.0000000E+04; -5.0230074E-06;  0.0000000E+00; -3.3414330E-05;  4.5024323E+02;
  1.4000000E-01;  9.9999998E-03;  4.4999999E-01;2269;  0.0000000E+00;  0.0000000E+00;  0.0000000E+00;  1.0000000E+03;  1.0000000E-01;  0.0000000E+00;0;  0.0000000E+00;  0.0000000E+00;  0.0000000E+00;0; -8.1691778E-06;  4.0000000E+04;  0.0000000E+00;  0.0000000E+00;  4.0000000E+04;  0.0000000E+00;  4.0000000E+04; -2.1262159E-07;  0.0000000E+00; -7.9565561E-06;  1.2089512E+02;
  1.5000001E-01;  9.9999998E-03;  4.1000000E-01;2295;  0.0000000E+00;  0.0000000E+00;  0.0000000E+00;  1.0003983E+03;  1.0000000E-01;  3.2996597E+02;0;  0.0000000E+00;  0.0000000E+00;  0.0000000E+00;0; -5.9681496E-04;  4.0000000E+04;  0.0000000E+00;  0.0000000E+00;  4.0000000E+04;  0.0000000E+00;  4.0000000E+04; -2.3943790E-04;  0.0000000E+00; -3.5737708E-04;  4.0530371E+03;
  1.5000001E-01;  9.9999998E-03;  4.1999999E-01;2296;  0.0000000E+00;  0.0000000E+00;  0.0000000E+00;  1.0001498E+03;  1.0000000E-01;  1.2404588E+02;0;  0.0000000E+00;  0.0000000E+00;  0.0000000E+00;0; -3.2652394E-04;  4.0000000E+04;  0.0000000E+00;  0.0000000E+00;  4.0000000E+04;  0.0000000E+00;  4.0000000E+04; -1.2051259E-04;  0.0000000E+00; -2.0601135E-04;  2.9767004E+03;
  1.5000001E-01;  9.9999998E-03;  4.3000001E-01;2297;  0.0000000E+00;  0.0000000E+00;  0.0000000E+00;  1.0000737E+03;  1.0000000E-01;  6.1035313E+01;0;  0.0000000E+00;  0.0000000E+00;  0.0000000E+00;0; -1.4861955E-04;  4.0000000E+04;  0.0000000E+00;  0.0000000E+00;  4.0000000E+04;  0.0000000E+00;  4.0000000E+04; -5.0399693E-05;  0.0000000E+00; -9.8219862E-05;  1.7712698E+03;
  1.5000001E-01;  9.9999998E-03;  4.4000000E-01;2298;  0.0000000E+00;  0.0000000E+00;  0.0000000E+00;  1.0000000E+03;  1.0000000E-01;  0.0000000E+00;0;  0.0000000E+00;  0.0000000E+00;  0.0000000E+00;0; -5.0943687E-05;  4.0000000E+04;  0.0000000E+00;  0.0000000E+00;  4.0000000E+04;  0.0000000E+00;  4.0000000E+04; -1.5450298E-05;  0.0000000E+00; -3.5493391E-05;  7.8818994E+02;
  1.5000001E-01;  9.9999998E-03;  4.4999999E-01;2299;  0.0000000E+00;  0.0000000E+00;  0.0000000E+00;  1.0000000E+03;  1.0000000E-01;  0.0000000E+00;0;  0.0000000E+00;  0.0000000E+00;  0.0000000E+00;0; -1.0745012E-05;  4.0000000E+04;  0.0000000E+00;  0.0000000E+00;  4.0000000E+04;  0.0000000E+00;  4.0000000E+04; -2.5435161E-06;  0.0000000E+00; -8.2014958E-06;  2.1996547E+02;
  1.6000000E-01;  9.9999998E-03;  4.1000000E-01;2325;  0.0000000E+00;  0.0000000E+00;  0.0000000E+00;  1.0004581E+03;  1.0000000E-01;  3.7954483E+02;0;  0.0000000E+00;  0.0000000E+00;  0.0000000E+00;0; -7.1921549E-04;  4.0000000E+04;  0.0000000E+00;  0.0000000E+00;  4.0000000E+04;  0.0000000E+00;  4.0000000E+04; -3.3872895E-04;  0.0000000E+00; -3.8048654E-04;  6.1781685E+03;
  1.6000000E-01;  9.9999998E-03;  4.1999999E-01;2326;  0.0000000E+00;  0.0000000E+00;  0.0000000E+00;  1.0001853E+03;  1.0000000E-01;  1.5347714E+02;0;  0.0000000E+00;  0.0000000E+00;  0.0000000E+00;0; -4.0193519E-04;  4.0000000E+04;  0.0000000E+00;  0.0000000E+00;  4.0000000E+04;  0.0000000E+00;  4.0000000E+04; -1.8073065E-04;  0.0000000E+00; -2.2120452E-04;  4.7904751E+03;
  1.6000000E-01;  9.9999998E-03;  4.3000001E-01;2327;  0.0000000E+00;  0.0000000E+00;  0.0000000E+00;  1.0000867E+03;  1.0000000E-01;  7.1800438E+01;0;  0.0000000E+00;  0.0000000E+00;  0.0000000E+00;0; -1.8769376E-04;  4.0000000E+04;  0.0000000E+00;  0.0000000E+00;  4.0000000E+04;  0.0000000E+00;  4.0000000E+04; -8.1778489E-05;  0.0000000E+00; -1.0591527E-04;  2.9744268E+03;
  1.6000000E-01;  9.9999998E-03;  4.4000000E-01;2328;  0.0000000E+00;  0.0000000E+00;  0.0000000E+00;  1.0000000E+03;  1.0000000E-01;  0.0000000E+00;0;  0.0000000E+00;  0.0000000E+00;  0.0000000E+00;0; -6.6099965E-05;  4.0000000E+04;  0.0000000E+00;  0.0000000E+00;  4.0000000E+04;  0.0000000E+00;  4.0000000E+04; -2.8139024E-05;  0.0000000E+00; -3.7960941E-05;  1.3744706E+03;
  1.6000000E-01;  9.9999998E-03;  4.4999999E-01;2329;  0.0000000E+00;  0.0000000E+00;  0.0000000E+00;  1.0000000E+03;  1.0000000E-01;  0.0000000E+00;0;  0.0000000E+00;  0.0000000E+00;  0.0000000E+00;0; -1.4199658E-05;  4.0000000E+04;  0.0000000E+00;  0.0000000E+00;  4.0000000E+04;  0.0000000E+00;  4.0000000E+04; -5.7345778E-06;  0.0000000E+00; -8.4650801E-06;  3.9737848E+02;
  1.7000000E-01;  9.9999998E-03;  4.1000000E-01;2355;  0.0000000E+00;  0.0000000E+00;  0.0000000E+00;  1.0005081E+03;  1.0000000E-01;  4.2092636E+02;0;  0.0000000E+00;  0.0000000E+00;  0.0000000E+00;0; -8.2302507E-04;  4.0000000E+04;  0.0000000E+00;  0.0000000E+00;  4.0000000E+04;  0.0000000E+00;  4.0000000E+04; -4.1879131E-04;  0.0000000E+00; -4.0423375E-04;  9.3525303E+03;
  1.7000000E-01;  9.9999998E-03;  4.1999999E-01;2356;  0.0000000E+00;  0.0000000E+00;  0.0000000E+00;  1.0002502E+03;  1.0000000E-01;  2.0730278E+02;0;  0.0000000E+00;  0.0000000E+00;  0.0000000E+00;0; -4.7087792E-04;  4.0000000E+04;  0.0000000E+00;  0.0000000E+00;  4.0000000E+04;  0.0000000E+00;  4.0000000E+04; -2.3266126E-04;  0.0000000E+00; -2.3821664E-04;  7.5222700E+03;
  1.7000000E-01;  9.9999998E-03;  4.3000001E-01;2357;  0.0000000E+00;  0.0000000E+00;  0.0000000E+00;  1.0000942E+03;  1.0000000E-01;  7.8022484E+01;0;  0.0000000E+00;  0.0000000E+00;  0.0000000E+00;0; -2.2649782E-04;  4.0000000E+04;  0.0000000E+00;  0.0000000E+00;  4.0000000E+04;  0.0000000E+00;  4.0000000E+04; -1.1099502E-04;  0.0000000E+00; -1.1550281E-04;  4.8275342E+03;
  1.7000000E-01;  9.9999998E-03;  4.4000000E-01;2358;  0.0000000E+00;  0.0000000E+00;  0.0000000E+00;  1.0000000E+03;  1.0000000E-01;  0.0000000E+00;0;  0.0000000E+00;  0.0000000E+00;  0.0000000E+00;0; -8.2512030E-05;  4.0000000E+04;  0.0000000E+00;  0.0000000E+00;  4.0000000E+04;  0.0000000E+00;  4.0000000E+04; -4.0939969E-05;  0.0000000E+00; -4.1572061E-05;  2.3058708E+03;
  1.7000000E-01;  9.9999998E-03;  4.4999999E-01;2359;  0.0000000E+00;  0.0000000E+00;  0.0000000E+00;  1.0000000E+03;  1.0000000E-01;  0.0000000E+00;0;  0.0000000E+00;  0.0000000E+00;  0.0000000E+00;0; -1.8310569E-05;  4.0000000E+04;  0.0000000E+00;  0.0000000E+00;  4.0000000E+04;  0.0000000E+00;  4.0000000E+04; -9.2836726E-06;  0.0000000E+00; -9.0268959E-06;  6.9128094E+02;
  1.8000001E-01;  9.9999998E-03;  4.1000000E-01;2385;  0.0000000E+00;  0.0000000E+00;  0.0000000E+00;  1.0005596E+03;  1.0000000E-01;  4.6369058E+02;0;  0.0000000E+00;  0.0000000E+00;  0.0000000E+00;0; -8.8555017E-04;  4.0000000E+04;  0.0000000E+00;  0.0000000E+00;  4.0000000E+04;  0.0000000E+00;  4.0000000E+04; -4.5555655E-04;  0.0000000E+00; -4.2999364E-04;  1.3553082E+04;
  1.8000001E-01;  9.9999998E-03;  4.1999999E-01;2386;  0.0000000E+00;  0.0000000E+00;  0.0000000E+00;  1.0002914E+03;  1.0000000E-01;  2.4147466E+02;0;  0.0000000E+00;  0.0000000E+00;  0.0000000E+00;0; -5.1941839E-04;  4.0000000E+04;  0.0000000E+00;  0.0000000E+00;  4.0000000E+04;  0.0000000E+00;  4.0000000E+04; -2.6109043E-04;  0.0000000E+00; -2.5832799E-04;  1.1220375E+04;
  1.8000001E-01;  9.9999998E-03;  4.3000001E-01;2387;  0.0000000E+00;  0.0000000E+00;  0.0000000E+00;  1.0000967E+03;  1.0000000E-01;  8.0096497E+01;0;  0.0000000E+00;  0.0000000E+00;  0.0000000E+00;0; -2.5795045E-04;  4.0000000E+04;  0.0000000E+00;  0.0000000E+00;  4.0000000E+04;  0.0000000E+00;  4.0000000E+04; -1.2989112E-04;  0.0000000E+00; -1.2805934E-04;  7.4219355E+03;
  1.8000001E-01;  9.9999998E-03;  4.4000000E-01;2388;  0.0000000E+00;  0.0000000E+00;  0.0000000E+00;  1.0000000E+03;  1.0000000E-01;  0.0000000E+00;0;  0.0000000E+00;  0.0000000E+00;  0.0000000E+00;0; -9.7627533E-05;  4.0000000E+04;  0.0000000E+00;  0.0000000E+00;  4.0000000E+04;  0.0000000E+00;  4.0000000E+04; -5.0507377E-05;  0.0000000E+00; -4.7120153E-05;  3.6617046E+03;
  1.8000001E-01;  9.9999998E-03;  4.4999999E-01;2389;  0.0000000E+00;  0.0000000E+00;  0.0000000E+00;  1.0000000E+03;  1.0000000E-01;  0.0000000E+00;0;  0.0000000E+00;  0.0000000E+00;  0.0000000E+00;0; -2.2528558E-05;  4.0000000E+04;  0.0000000E+00;  0.0000000E+00;  4.0000000E+04;  0.0000000E+00;  4.0000000E+04; -1.2265104E-05;  0.0000000E+00; -1.0263454E-05;  1.1384225E+03;
  1.9000000E-01;  9.9999998E-03;  4.1000000E-01;2415;  0.0000000E+00;  0.0000000E+00;  0.0000000E+00;  1.0006120E+03;  1.0000000E-01;  5.0704739E+02;0;  0.0000000E+00;  0.0000000E+00;  0.0000000E+00;0; -8.9115591E-04;  4.0000000E+04;  0.0000000E+00;  0.0000000E+00;  4.0000000E+04;  0.0000000E+00;  4.0000000E+04; -4.3285222E-04;  0.0000000E+00; -4.5830366E-04;  1.8508957E+04;
  1.9000000E-01;  9.9999998E-03;  4.1999999E-01;2416;  0.0000000E+00;  0.0000000E+00;  0.0000000E+00;  1.0003323E+03;  1.0000000E-01;  2.7535025E+02;0;  0.0000000E+00;  0.0000000E+00;  0.0000000E+00;0; -5.3618796E-04;  4.0000000E+04;  0.0000000E+00;  0.0000000E+00;  4.0000000E+04;  0.0000000E+00;  4.0000000E+04; -2.5397341E-04;  0.0000000E+00; -2.8221455E-04;  1.5726996E+04;
  1.9000000E-01;  9.9999998E-03;  4.3000001E-01;2417;  0.0000000E+00;  0.0000000E+00;  0.0000000E+00;  1.0001141E+03;  1.0000000E-01;  9.4515846E+01;0;  0.0000000E+00;  0.0000000E+00;  0.0000000E+00;0; -2.7504377E-04;  4.0000000E+04;  0.0000000E+00;  0.0000000E+00;  4.0000000E+04;  0.0000000E+00;  4.0000000E+04; -1.3068273E-04;  0.0000000E+00; -1.4436102E-04;  1.0715998E+04;
  1.9000000E-01;  9.9999998E-03;  4.4000000E-01;2418;  0.0000000E+00;  0.0000000E+00;  0.0000000E+00;  1.0000082E+03;  1.0000000E-01;  6.8146219E+00;0;  0.0000000E+00;  0.0000000E+00;  0.0000000E+00;0; -1.0836030E-04;  4.0000000E+04;  0.0000000E+00;  0.0000000E+00;  4.0000000E+04;  0.0000000E+00;  4.0000000E+04; -5.3039937E-05;  0.0000000E+00; -5.5320364E-05;  5.4594966E+03;
  1.9000000E-01;  9.9999998E-03;  4.4999999E-01;2419;  0.0000000E+00;  0.0000000E+00;  0.0000000E+00;  1.0000000E+03;  1.0000000E-01;  0.0000000E+00;0;  0.0000000E+00;  0.0000000E+00;  0.0000000E+00;0; -2.6142920E-05;  4.0000000E+04;  0.0000000E+00;  0.0000000E+00;  4.0000000E+04;  0.0000000E+00;  4.0000000E+04; -1.3495506E-05;  0.0000000E+00; -1.2647413E-05;  1.7562760E+03;
  2.0000000E-01;  9.9999998E-03;  4.1000000E-01;2444;  0.0000000E+00;  0.0000000E+00;  0.0000000E+00;  1.0006510E+03;  1.0000000E-01;  5.3934277E+02;0;  0.0000000E+00;  0.0000000E+00;  0.0000000E+00;0; -8.3967822E-04;  4.0000000E+04;  0.0000000E+00;  0.0000000E+00;  4.0000000E+04;  0.0000000E+00;  4.0000000E+04; -3.5166604E-04;  0.0000000E+00; -4.8801219E-04;  2.3787625E+04;
  2.0000000E-01;  9.9999998E-03;  4.1999999E-01;2445;  0.0000000E+00;  0.0000000E+00;  0.0000000E+00;  1.0003512E+03;  1.0000000E-01;  2.9095474E+02;0;  0.0000000E+00;  0.0000000E+00;  0.0000000E+00;0; -5.1846512E-04;  4.0000000E+04;  0.0000000E+00;  0.0000000E+00;  4.0000000E+04;  0.0000000E+00;  4.0000000E+04; -2.0911961E-04;  0.0000000E+00; -3.0934552E-04;  2.0709432E+04;
  2.0000000E-01;  9.9999998E-03;  4.3000001E-01;2446;  0.0000000E+00;  0.0000000E+00;  0.0000000E+00;  1.0001296E+03;  1.0000000E-01;  1.0735499E+02;0;  0.0000000E+00;  0.0000000E+00;  0.0000000E+00;0; -2.7449644E-04;  4.0000000E+04;  0.0000000E+00;  0.0000000E+00;  4.0000000E+04;  0.0000000E+00;  4.0000000E+04; -1.0996695E-04;  0.0000000E+00; -1.6452948E-04;  1.4519291E+04;
  2.0000000E-01;  9.9999998E-03;  4.4000000E-01;2447;  0.0000000E+00;  0.0000000E+00;  0.0000000E+00;  1.0000304E+03;  1.0000000E-01;  2.5184473E+01;0;  0.0000000E+00;  0.0000000E+00;  0.0000000E+00;0; -1.1262644E-04;  4.0000000E+04;  0.0000000E+00;  0.0000000E+00;  4.0000000E+04;  0.0000000E+00;  4.0000000E+04; -4.5932942E-05;  0.0000000E+00; -6.6693494E-05;  7.6263071E+03;
 -2.0000000E-01;  9.9999998E-03; -4.4000000E-01;0;  0.0000000E+00;  0.0000000E+00;  0.0000000E+00;  1.0000000E+03;  1.0000000E-01;  0.0000000E+00;0;  0.0000000E+00;  0.0000000E+00;  0.0000000E+00;0;  0.0000000E+00;  4.0000000E+04;  0.0000000E+00;  0.0000000E+00;  4.0000000E+04;  0.0000000E+00;  4.0000000E+04;  0.0000000E+00;  0.0000000E+00;  0.0000000E+00;  0.0000000E+00;
 -2.0000000E-01;  9.9999998E-03; -4.3000001E-01;1;  0.0000000E+00;  0.0000000E+00;  0.0000000E+00;  1.0000000E+03;  1.0000000E-01;  0.0000000E+00;0;  0.0000000E+00;  0.0000000E+00;  0.0000000E+00;0;  0.0000000E+00;  4.0000000E+04;  0.0000000E+00;  0.0000000E+00;  4.0000000E+04;  0.0000000E+00;  4.0000000E+04;  0.0000000E+00;  0.0000000E+00;  0.0000000E+00;  0.0000000E+00;
 -2.0000000E-01;  9.9999998E-03; -4.1999999E-01;2;  0.0000000E+00;  0.0000000E+00;  0.0000000E+00;  1.0000000E+03;  1.0000000E-01;  0.0000000E+00;0;  0.0000000E+00;  0.0000000E+00;  0.0000000E+00;0;  0.0000000E+00;  4.0000000E+04;  0.0000000E+00;  0.0000000E+00;  4.0000000E+04;  0.0000000E+00;  4.0000000E+04;  0.0000000E+00;  0.0000000E+00;  0.0000000E+00;  0.0000000E+00;
 -2.0000000E-01;  9.9999998E-03; -4.1000000E-01;3;  0.0000000E+00;  0.0000000E+00;  0.0000000E+00;  1.0000000E+03;  1.0000000E-01;  0.0000000E+00;0;  0.0000000E+00;  0.0000000E+00;  0.0000000E+00;0;  0.0000000E+00;  4.0000000E+04;  0.0000000E+00;  0.0000000E+00;  4.0000000E+04;  0.0000000E+00;  4.0000000E+04;  0.0000000E+00;  0.0000000E+00;  0.0000000E+00;  0.0000000E+00;
 -2.0000000E-01;  9.9999998E-03; -4.0000001E-01;4;  0.0000000E+00;  0.0000000E+00;  0.0000000E+00;  1.0000000E+03;  1.0000000E-01;  0.0000000E+00;0;  0.0000000E+00;  0.0000000E+00;  0.0000000E+00;0;  0.0000000E+00;  4.0000000E+04;  0.0000000E+00;  0.0000000E+00;  4.0000000E+04;  0.0000000E+00;  4.0000000E+04;  0.0000000E+00;  0.0000000E+00;  0.0000000E+00;  0.0000000E+00;
 -2.0000000E-01;  9.9999998E-03; -3.8999999E-01;5;  0.0000000E+00;  0.0000000E+00;  0.0000000E+00;  1.0000000E+03;  1.0000000E-01;  0.0000000E+00;0;  0.0000000E+00;  0.0000000E+00;  0.0000000E+00;0;  0.0000000E+00;  4.0000000E+04;  0.0000000E+00;  0.0000000E+00;  4.0000000E+04;  0.0000000E+00;  4.0000000E+04;  0.0000000E+00;  0.0000000E+00;  0.0000000E+00;  0.0000000E+00;
 -2.0000000E-01;  9.9999998E-03; -3.8000000E-01;6;  0.0000000E+00;  0.0000000E+00;  0.0000000E+00;  1.0000000E+03;  1.0000000E-01;  0.0000000E+00;0;  0.0000000E+00;  0.0000000E+00;  0.0000000E+00;0;  0.0000000E+00;  4.0000000E+04;  0.0000000E+00;  0.0000000E+00;  4.0000000E+04;  0.0000000E+00;  4.0000000E+04;  0.0000000E+00;  0.0000000E+00;  0.0000000E+00;  0.0000000E+00;
 -2.0000000E-01;  9.9999998E-03; -3.7000000E-01;7;  0.0000000E+00;  0.0000000E+00;  0.0000000E+00;  1.0000000E+03;  1.0000000E-01;  0.0000000E+00;0;  0.0000000E+00;  0.0000000E+00;  0.0000000E+00;0;  0.0000000E+00;  4.0000000E+04;  0.0000000E+00;  0.0000000E+00;  4.0000000E+04;  0.0000000E+00;  4.0000000E+04;  0.0000000E+00;  0.0000000E+00;  0.0000000E+00;  0.0000000E+00;
 -2.0000000E-01;  9.9999998E-03; -3.6000001E-01;8;  0.0000000E+00;  0.0000000E+00;  0.0000000E+00;  1.0000000E+03;  1.0000000E-01;  0.0000000E+00;0;  0.0000000E+00;  0.0000000E+00;  0.0000000E+00;0;  0.0000000E+00;  4.0000000E+04;  0.0000000E+00;  0.0000000E+00;  4.0000000E+04;  0.0000000E+00;  4.0000000E+04;  0.0000000E+00;  0.0000000E+00;  0.0000000E+00;  0.0000000E+00;
 -2.0000000E-01;  9.9999998E-03; -3.4999999E-01;9;  0.0000000E+00;  0.0000000E+00;  0.0000000E+00;  1.0000000E+03;  1.0000000E-01;  0.0000000E+00;0;  0.0000000E+00;  0.0000000E+00;  0.0000000E+00;0;  0.0000000E+00;  4.0000000E+04;  0.0000000E+00;  0.0000000E+00;  4.0000000E+04;  0.0000000E+00;  4.0000000E+04;  0.0000000E+00;  0.0000000E+00;  0.0000000E+00;  0.0000000E+00;
 -2.0000000E-01;  9.9999998E-03; -3.4000000E-01;10;  0.0000000E+00;  0.0000000E+00;  0.0000000E+00;  1.0000000E+03;  1.0000000E-01;  0.0000000E+00;0;  0.0000000E+00;  0.0000000E+00;  0.0000000E+00;0;  0.0000000E+00;  4.0000000E+04;  0.0000000E+00;  0.0000000E+00;  4.0000000E+04;  0.0000000E+00;  4.0000000E+04;  0.0000000E+00;  0.0000000E+00;  0.0000000E+00;  0.0000000E+00;
 -2.0000000E-01;  9.9999998E-03; -3.3000001E-01;11;  0.0000000E+00;  0.0000000E+00;  0.0000000E+00;  1.0000000E+03;  1.0000000E-01;  0.0000000E+00;0;  0.0000000E+00;  0.0000000E+00;  0.0000000E+00;0;  0.0000000E+00;  4.0000000E+04;  0.0000000E+00;  0.0000000E+00;  4.0000000E+04;  0.0000000E+00;  4.0000000E+04;  0.0000000E+00;  0.0000000E+00;  0.0000000E+00;  0.0000000E+00;
 -2.0000000E-01;  9.9999998E-03; -3.1999999E-01;12;  0.0000000E+00;  0.0000000E+00;  0.0000000E+00;  1.0000000E+03;  1.0000000E-01;  0.0000000E+00;0;  0.0000000E+00;  0.0000000E+00;  0.0000000E+00;0;  0.0000000E+00;  4.0000000E+04;  0.0000000E+00;  0.0000000E+00;  4.0000000E+04;  0.0000000E+00;  4.0000000E+04;  0.0000000E+00;  0.0000000E+00;  0.0000000E+00;  0.0000000E+00;
 -2.0000000E-01;  9.9999998E-03; -3.1000000E-01;13;  0.0000000E+00;  0.0000000E+00;  0.0000000E+00;  1.0000000E+03;  1.0000000E-01;  0.0000000E+00;0;  0.0000000E+00;  0.0000000E+00;  0.0000000E+00;0;  0.0000000E+00;  4.0000000E+04;  0.0000000E+00;  0.0000000E+00;  4.0000000E+04;  0.0000000E+00;  4.0000000E+04;  0.0000000E+00;  0.0000000E+00;  0.0000000E+00;  0.0000000E+00;
 -2.0000000E-01;  9.9999998E-03; -3.0000001E-01;14;  0.0000000E+00;  0.0000000E+00;  0.0000000E+00;  1.0000000E+03;  1.0000000E-01;  0.0000000E+00;0;  0.0000000E+00;  0.0000000E+00;  0.0000000E+00;0;  0.0000000E+00;  4.0000000E+04;  0.0000000E+00;  0.0000000E+00;  4.0000000E+04;  0.0000000E+00;  4.0000000E+04;  0.0000000E+00;  0.0000000E+00;  0.0000000E+00;  0.0000000E+00;
 -2.0000000E-01;  9.9999998E-03; -2.8999999E-01;15;  0.0000000E+00;  0.0000000E+00;  0.0000000E+00;  1.0000000E+03;  1.0000000E-01;  0.0000000E+00;0;  0.0000000E+00;  0.0000000E+00;  0.0000000E+00;0;  0.0000000E+00;  4.0000000E+04;  0.0000000E+00;  0.0000000E+00;  4.0000000E+04;  0.0000000E+00;  4.0000000E+04;  0.0000000E+00;  0.0000000E+00;  0.0000000E+00;  0.0000000E+00;
 -2.0000000E-01;  9.9999998E-03; -2.8000000E-01;16;  0.0000000E+00;  0.0000000E+00;  0.0000000E+00;  1.0000000E+03;  1.0000000E-01;  0.0000000E+00;0;  0.0000000E+00;  0.0000000E+00;  0.0000000E+00;0;  0.0000000E+00;  4.0000000E+04;  0.0000000E+00;  0.0000000E+00;  4.0000000E+04;  0.0000000E+00;  4.0000000E+04;  0.0000000E+00;  0.0000000E+00;  0.0000000E+00;  0.0000000E+00;
 -2.0000000E-01;  9.9999998E-03; -2.7000001E-01;17;  0.0000000E+00;  0.0000000E+00;  0.0000000E+00;  1.0000000E+03;  1.0000000E-01;  0.0000000E+00;0;  0.0000000E+00;  0.0000000E+00;  0.0000000E+00;0;  0.0000000E+00;  4.0000000E+04;  0.0000000E+00;  0.0000000E+00;  4.0000000E+04;  0.0000000E+00;  4.0000000E+04;  0.0000000E+00;  0.0000000E+00;  0.0000000E+00;  0.0000000E+00;
 -2.0000000E-01;  9.9999998E-03; -2.5999999E-01;18;  0.0000000E+00;  0.0000000E+00;  0.0000000E+00;  1.0000000E+03;  1.0000000E-01;  0.0000000E+00;0;  0.0000000E+00;  0.0000000E+00;  0.0000000E+00;0;  0.0000000E+00;  4.0000000E+04;  0.0000000E+00;  0.0000000E+00;  4.0000000E+04;  0.0000000E+00;  4.0000000E+04;  0.0000000E+00;  0.0000000E+00;  0.0000000E+00;  0.0000000E+00;
 -2.0000000E-01;  9.9999998E-03; -2.5000000E-01;19;  0.0000000E+00;  0.0000000E+00;  0.0000000E+00;  1.0000000E+03;  1.0000000E-01;  0.0000000E+00;0;  0.0000000E+00;  0.0000000E+00;  0.0000000E+00;0;  0.0000000E+00;  4.0000000E+04;  0.0000000E+00;  0.0000000E+00;  4.0000000E+04;  0.0000000E+00;  4.0000000E+04;  0.0000000E+00;  0.0000000E+00;  0.0000000E+00;  0.0000000E+00;
 -2.0000000E-01;  9.9999998E-03; -2.3999999E-01;20;  0.0000000E+00;  0.0000000E+00;  0.0000000E+00;  1.0000000E+03;  1.0000000E-01;  0.0000000E+00;0;  0.0000000E+00;  0.0000000E+00;  0.0000000E+00;0;  0.0000000E+00;  4.0000000E+04;  0.0000000E+00;  0.0000000E+00;  4.0000000E+04;  0.0000000E+00;  4.0000000E+04;  0.0000000E+00;  0.0000000E+00;  0.0000000E+00;  0.0000000E+00;
 -2.0000000E-01;  9.9999998E-03; -2.3000000E-01;21;  0.0000000E+00;  0.0000000E+00;  0.0000000E+00;  1.0000000E+03;  1.0000000E-01;  0.0000000E+00;0;  0.0000000E+00;  0.0000000E+00;  0.0000000E+00;0;  0.0000000E+00;  4.0000000E+04;  0.0000000E+00;  0.0000000E+00;  4.0000000E+04;  0.0000000E+00;  4.0000000E+04;  0.0000000E+00;  0.0000000E+00;  0.0000000E+00;  0.0000000E+00;
 -2.0000000E-01;  9.9999998E-03; -2.2000000E-01;22;  0.0000000E+00;  0.0000000E+00;  0.0000000E+00;  1.0000000E+03;  1.0000000E-01;  0.0000000E+00;0;  0.0000000E+00;  0.0000000E+00;  0.0000000E+00;0;  0.0000000E+00;  4.0000000E+04;  0.0000000E+00;  0.0000000E+00;  4.0000000E+04;  0.0000000E+00;  4.0000000E+04;  0.0000000E+00;  0.0000000E+00;  0.0000000E+00;  0.0000000E+00;
 -2.0000000E-01;  9.9999998E-03; -2.0999999E-01;23;  0.0000000E+00;  0.0000000E+00;  0.0000000E+00;  1.0000000E+03;  1.0000000E-01;  0.0000000E+00;0;  0.0000000E+00;  0.0000000E+00;  0.0000000E+00;0;  0.0000000E+00;  4.0000000E+04;  0.0000000E+00;  0.0000000E+00;  4.0000000E+04;  0.0000000E+00;  4.0000000E+04;  0.0000000E+00;  0.0000000E+00;  0.0000000E+00;  0.0000000E+00;
 -2.0000000E-01;  9.9999998E-03; -2.0000000E-01;24;  0.0000000E+00;  0.0000000E+00;  0.0000000E+00;  1.0000000E+03;  1.0000000E-01;  0.0000000E+00;0;  0.0000000E+00;  0.0000000E+00;  0.0000000E+00;0;  0.0000000E+00;  4.0000000E+04;  0.0000000E+00;  0.0000000E+00;  4.0000000E+04;  0.0000000E+00;  4.0000000E+04;  0.0000000E+00;  0.0000000E+00;  0.0000000E+00;  0.0000000E+00;
 -2.0000000E-01;  9.9999998E-03; -1.9000000E-01;25;  0.0000000E+00;  0.0000000E+00;  0.0000000E+00;  1.0000000E+03;  1.0000000E-01;  0.0000000E+00;0;  0.0000000E+00;  0.0000000E+00;  0.0000000E+00;0;  0.0000000E+00;  4.0000000E+04;  0.0000000E+00;  0.0000000E+00;  4.0000000E+04;  0.0000000E+00;  4.0000000E+04;  0.0000000E+00;  0.0000000E+00;  0.0000000E+00;  0.0000000E+00;
 -2.0000000E-01;  9.9999998E-03; -1.8000001E-01;26;  0.0000000E+00;  0.0000000E+00;  0.0000000E+00;  1.0000000E+03;  1.0000000E-01;  0.0000000E+00;0;  0.0000000E+00;  0.0000000E+00;  0.0000000E+00;0;  0.0000000E+00;  4.0000000E+04;  0.0000000E+00;  0.0000000E+00;  4.0000000E+04;  0.0000000E+00;  4.0000000E+04;  0.0000000E+00;  0.0000000E+00;  0.0000000E+00;  0.0000000E+00;
 -2.0000000E-01;  9.9999998E-03; -1.7000000E-01;27;  0.0000000E+00;  0.0000000E+00;  0.0000000E+00;  1.0000000E+03;  1.0000000E-01;  0.0000000E+00;0;  0.0000000E+00;  0.0000000E+00;  0.0000000E+00;0;  0.0000000E+00;  4.0000000E+04;  0.0000000E+00;  0.0000000E+00;  4.0000000E+04;  0.0000000E+00;  4.0000000E+04;  0.0000000E+00;  0.0000000E+00;  0.0000000E+00;  0.0000000E+00;
 -2.0000000E-01;  9.9999998E-03; -1.6000000E-01;28;  0.0000000E+00;  0.0000000E+00;  0.0000000E+00;  1.0000000E+03;  1.0000000E-01;  0.0000000E+00;0;  0.0000000E+00;  0.0000000E+00;  0.0000000E+00;0;  0.0000000E+00;  4.0000000E+04;  0.0000000E+00;  0.0000000E+00;  4.0000000E+04;  0.0000000E+00;  4.0000000E+04;  0.0000000E+00;  0.0000000E+00;  0.0000000E+00;  0.0000000E+00;
 -2.0000000E-01;  9.9999998E-03; -1.5000001E-01;29;  0.0000000E+00;  0.0000000E+00;  0.0000000E+00;  1.0000000E+03;  1.0000000E-01;  0.0000000E+00;0;  0.0000000E+00;  0.0000000E+00;  0.0000000E+00;0;  0.0000000E+00;  4.0000000E+04;  0.0000000E+00;  0.0000000E+00;  4.0000000E+04;  0.0000000E+00;  4.0000000E+04;  0.0000000E+00;  0.0000000E+00;  0.0000000E+00;  0.0000000E+00;
 -2.0000000E-01;  9.9999998E-03; -1.4000000E-01;30;  0.0000000E+00;  0.0000000E+00;  0.0000000E+00;  1.0000000E+03;  1.0000000E-01;  0.0000000E+00;0;  0.0000000E+00;  0.0000000E+00;  0.0000000E+00;0;  0.0000000E+00;  4.0000000E+04;  0.0000000E+00;  0.0000000E+00;  4.0000000E+04;  0.0000000E+00;  4.0000000E+04;  0.0000000E+00;  0.0000000E+00;  0.0000000E+00;  0.0000000E+00;
 -2.0000000E-01;  9.9999998E-03; -1.3000000E-01;31;  0.0000000E+00;  0.0000000E+00;  0.0000000E+00;  1.0000000E+03;  1.0000000E-01;  0.0000000E+00;0;  0.0000000E+00;  0.0000000E+00;  0.0000000E+00;0;  0.0000000E+00;  4.0000000E+04;  0.0000000E+00;  0.0000000E+00;  4.0000000E+04;  0.0000000E+00;  4.0000000E+04;  0.0000000E+00;  0.0000000E+00;  0.0000000E+00;  0.0000000E+00;
 -2.0000000E-01;  9.9999998E-03; -1.2000000E-01;32;  0.0000000E+00;  0.0000000E+00;  0.0000000E+00;  1.0000000E+03;  1.0000000E-01;  0.0000000E+00;0;  0.0000000E+00;  0.0000000E+00;  0.0000000E+00;0;  0.0000000E+00;  4.0000000E+04;  0.0000000E+00;  0.0000000E+00;  4.0000000E+04;  0.0000000E+00;  4.0000000E+04;  0.0000000E+00;  0.0000000E+00;  0.0000000E+00;  0.0000000E+00;
 -2.0000000E-01;  9.9999998E-03; -1.1000000E-01;33;  0.0000000E+00;  0.0000000E+00;  0.0000000E+00;  1.0000000E+03;  1.0000000E-01;  0.0000000E+00;0;  0.0000000E+00;  0.0000000E+00;  0.0000000E+00;0;  0.0000000E+00;  4.0000000E+04;  0.0000000E+00;  0.0000000E+00;  4.0000000E+04;  0.0000000E+00;  4.0000000E+04;  0.0000000E+00;  0.0000000E+00;  0.0000000E+00;  0.0000000E+00;
 -2.0000000E-01;  9.9999998E-03; -1.0000000E-01;34;  0.0000000E+00;  0.0000000E+00;  0.0000000E+00;  1.0000000E+03;  1.0000000E-01;  0.0000000E+00;0;  0.0000000E+00;  0.0000000E+00;  0.0000000E+00;0;  0.0000000E+00;  4.0000000E+04;  0.0000000E+00;  0.0000000E+00;  4.0000000E+04;  0.0000000E+00;  4.0000000E+04;  0.0000000E+00;  0.0000000E+00;  0.0000000E+00;  0.0000000E+00;
 -2.0000000E-01;  9.9999998E-03; -9.0000004E-02;35;  0.0000000E+00;  0.0000000E+00;  0.0000000E+00;  1.0000000E+03;  1.0000000E-01;  0.0000000E+00;0;  0.0000000E+00;  0.0000000E+00;  0.0000000E+00;0;  0.0000000E+00;  4.0000000E+04;  0.0000000E+00;  0.0000000E+00;  4.0000000E+04;  0.0000000E+00;  4.0000000E+04;  0.0000000E+00;  0.0000000E+00;  0.0000000E+00;  0.0000000E+00;
 -2.0000000E-01;  9.9999998E-03; -7.9999998E-02;36;  0.0000000E+00;  0.0000000E+00;  0.0000000E+00;  1.0000000E+03;  1.0000000E-01;  0.0000000E+00;0;  0.0000000E+00;  0.0000000E+00;  0.0000000E+00;0;  0.0000000E+00;  4.0000000E+04;  0.0000000E+00;  0.0000000E+00;  4.0000000E+04;  0.0000000E+00;  4.0000000E+04;  0.0000000E+00;  0.0000000E+00;  0.0000000E+00;  0.0000000E+00;
 -2.0000000E-01;  9.9999998E-03; -7.0000000E-02;37;  0.0000000E+00;  0.0000000E+00;  0.0000000E+00;  1.0000000E+03;  1.0000000E-01;  0.0000000E+00;0;  0.0000000E+00;  0.0000000E+00;  0.0000000E+00;0;  0.0000000E+00;  4.0000000E+04;  0.0000000E+00;  0.0000000E+00;  4.0000000E+04;  0.0000000E+00;  4.0000000E+04;  0.0000000E+00;  0.0000000E+00;  0.0000000E+00;  0.0000000E+00;
 -2.0000000E-01;  9.9999998E-03; -5.9999999E-02;38;  0.0000000E+00;  0.0000000E+00;  0.0000000E+00;  1.0000000E+03;  1.0000000E-01;  0.0000000E+00;0;  0.0000000E+00;  0.0000000E+00;  0.0000000E+00;0;  0.0000000E+00;  4.0000000E+04;  0.0000000E+00;  0.0000000E+00;  4.0000000E+04;  0.0000000E+00;  4.0000000E+04;  0.0000000E+00;  0.0000000E+00;  0.0000000E+00;  0.0000000E+00;
 -2.0000000E-01;  9.9999998E-03; -5.0000001E-02;39;  0.0000000E+00;  0.0000000E+00;  0.0000000E+00;  1.0000000E+03;  1.0000000E-01;  0.0000000E+00;0;  0.0000000E+00;  0.0000000E+00;  0.0000000E+00;0;  0.0000000E+00;  4.0000000E+04;  0.0000000E+00;  0.0000000E+00;  4.0000000E+04;  0.0000000E+00;  4.0000000E+04;  0.0000000E+00;  0.0000000E+00;  0.0000000E+00;  0.0000000E+00;
 -2.0000000E-01;  9.9999998E-03; -3.9999999E-02;40;  0.0000000E+00;  0.0000000E+00;  0.0000000E+00;  1.0000000E+03;  1.0000000E-01;  0.0000000E+00;0;  0.0000000E+00;  0.0000000E+00;  0.0000000E+00;0;  0.0000000E+00;  4.0000000E+04;  0.0000000E+00;  0.0000000E+00;  4.0000000E+04;  0.0000000E+00;  4.0000000E+04;  0.0000000E+00;  0.0000000E+00;  0.0000000E+00;  0.0000000E+00;
 -2.0000000E-01;  9.9999998E-03; -2.9999999E-02;41;  0.0000000E+00;  0.0000000E+00;  0.0000000E+00;  1.0000000E+03;  1.0000000E-01;  0.0000000E+00;0;  0.0000000E+00;  0.0000000E+00;  0.0000000E+00;0;  0.0000000E+00;  4.0000000E+04;  0.0000000E+00;  0.0000000E+00;  4.0000000E+04;  0.0000000E+00;  4.0000000E+04;  0.0000000E+00;  0.0000000E+00;  0.0000000E+00;  0.0000000E+00;
 -2.0000000E-01;  9.9999998E-03; -2.0000000E-02;42;  0.0000000E+00;  0.0000000E+00;  0.0000000E+00;  1.0000000E+03;  1.0000000E-01;  0.0000000E+00;0;  0.0000000E+00;  0.0000000E+00;  0.0000000E+00;0;  0.0000000E+00;  4.0000000E+04;  0.0000000E+00;  0.0000000E+00;  4.0000000E+04;  0.0000000E+00;  4.0000000E+04;  0.0000000E+00;  0.0000000E+00;  0.0000000E+00;  0.0000000E+00;
 -2.0000000E-01;  9.9999998E-03; -9.9999998E-03;43;  0.0000000E+00;  0.0000000E+00;  0.0000000E+00;  1.0000000E+03;  1.0000000E-01;  0.0000000E+00;0;  0.0000000E+00;  0.0000000E+00;  0.0000000E+00;0;  0.0000000E+00;  4.0000000E+04;  0.0000000E+00;  0.0000000E+00;  4.0000000E+04;  0.0000000E+00;  4.0000000E+04;  0.0000000E+00;  0.0000000E+00;  0.0000000E+00;  0.0000000E+00;
 -2.0000000E-01;  9.9999998E-03;  0.0000000E+00;44;  0.0000000E+00;  0.0000000E+00;  0.0000000E+00;  1.0000000E+03;  1.0000000E-01;  0.0000000E+00;0;  0.0000000E+00;  0.0000000E+00;  0.0000000E+00;0;  0.0000000E+00;  4.0000000E+04;  0.0000000E+00;  0.0000000E+00;  4.0000000E+04;  0.0000000E+00;  4.0000000E+04;  0.0000000E+00;  0.0000000E+00;  0.0000000E+00;  0.0000000E+00;
 -2.0000000E-01;  9.9999998E-03;  9.9999998E-03;45;  0.0000000E+00;  0.0000000E+00;  0.0000000E+00;  1.0000000E+03;  1.0000000E-01;  0.0000000E+00;0;  0.0000000E+00;  0.0000000E+00;  0.0000000E+00;0;  0.0000000E+00;  4.0000000E+04;  0.0000000E+00;  0.0000000E+00;  4.0000000E+04;  0.0000000E+00;  4.0000000E+04;  0.0000000E+00;  0.0000000E+00;  0.0000000E+00;  0.0000000E+00;
 -2.0000000E-01;  9.9999998E-03;  2.0000000E-02;46;  0.0000000E+00;  0.0000000E+00;  0.0000000E+00;  1.0000000E+03;  1.0000000E-01;  0.0000000E+00;0;  0.0000000E+00;  0.0000000E+00;  0.0000000E+00;0;  0.0000000E+00;  4.0000000E+04;  0.0000000E+00;  0.0000000E+00;  4.0000000E+04;  0.0000000E+00;  4.0000000E+04;  0.0000000E+00;  0.0000000E+00;  0.0000000E+00;  0.0000000E+00;
 -2.0000000E-01;  9.9999998E-03;  2.9999999E-02;47;  0.0000000E+00;  0.0000000E+00;  0.0000000E+00;  1.0000000E+03;  1.0000000E-01;  0.0000000E+00;0;  0.0000000E+00;  0.0000000E+00;  0.0000000E+00;0;  0.0000000E+00;  4.0000000E+04;  0.0000000E+00;  0.0000000E+00;  4.0000000E+04;  0.0000000E+00;  4.0000000E+04;  0.0000000E+00;  0.0000000E+00;  0.0000000E+00;  0.0000000E+00;
 -2.0000000E-01;  9.9999998E-03;  3.9999999E-02;48;  0.0000000E+00;  0.0000000E+00;  0.0000000E+00;  1.0000000E+03;  1.0000000E-01;  0.0000000E+00;0;  0.0000000E+00;  0.0000000E+00;  0.0000000E+00;0;  0.0000000E+00;  4.0000000E+04;  0.0000000E+00;  0.0000000E+00;  4.0000000E+04;  0.0000000E+00;  4.0000000E+04;  0.0000000E+00;  0.0000000E+00;  0.0000000E+00;  0.0000000E+00;
 -2.0000000E-01;  9.9999998E-03;  5.0000001E-02;49;  0.0000000E+00;  0.0000000E+00;  0.0000000E+00;  1.0000000E+03;  1.0000000E-01;  0.0000000E+00;0;  0.0000000E+00;  0.0000000E+00;  0.0000000E+00;0;  0.0000000E+00;  4.0000000E+04;  0.0000000E+00;  0.0000000E+00;  4.0000000E+04;  0.0000000E+00;  4.0000000E+04;  0.0000000E+00;  0.0000000E+00;  0.0000000E+00;  0.0000000E+00;
 -2.0000000E-01;  9.9999998E-03;  5.9999999E-02;50;  0.0000000E+00;  0.0000000E+00;  0.0000000E+00;  1.0000000E+03;  1.0000000E-01;  0.0000000E+00;0;  0.0000000E+00;  0.0000000E+00;  0.0000000E+00;0;  0.0000000E+00;  4.0000000E+04;  0.0000000E+00;  0.0000000E+00;  4.0000000E+04;  0.0000000E+00;  4.0000000E+04;  0.0000000E+00;  0.0000000E+00;  0.0000000E+00;  0.0000000E+00;
 -2.0000000E-01;  9.9999998E-03;  7.0000000E-02;51;  0.0000000E+00;  0.0000000E+00;  0.0000000E+00;  1.0000000E+03;  1.0000000E-01;  0.0000000E+00;0;  0.0000000E+00;  0.0000000E+00;  0.0000000E+00;0;  0.0000000E+00;  4.0000000E+04;  0.0000000E+00;  0.0000000E+00;  4.0000000E+04;  0.0000000E+00;  4.0000000E+04;  0.0000000E+00;  0.0000000E+00;  0.0000000E+00;  0.0000000E+00;
 -2.0000000E-01;  9.9999998E-03;  7.9999998E-02;52;  0.0000000E+00;  0.0000000E+00;  0.0000000E+00;  1.0000000E+03;  1.0000000E-01;  0.0000000E+00;0;  0.0000000E+00;  0.0000000E+00;  0.0000000E+00;0;  0.0000000E+00;  4.0000000E+04;  0.0000000E+00;  0.0000000E+00;  4.0000000E+04;  0.0000000E+00;  4.0000000E+04;  0.0000000E+00;  0.0000000E+00;  0.0000000E+00;  0.0000000E+00;
 -2.0000000E-01;  9.9999998E-03;  9.0000004E-02;53;  0.0000000E+00;  0.0000000E+00;  0.0000000E+00;  1.0000000E+03;  1.0000000E-01;  0.0000000E+00;0;  0.0000000E+00;  0.0000000E+00;  0.0000000E+00;0;  0.0000000E+00;  4.0000000E+04;  0.0000000E+00;  0.0000000E+00;  4.0000000E+04;  0.0000000E+00;  4.0000000E+04;  0.0000000E+00;  0.0000000E+00;  0.0000000E+00;  0.0000000E+00;
 -2.0000000E-01;  9.9999998E-03;  1.0000000E-01;54;  0.0000000E+00;  0.0000000E+00;  0.0000000E+00;  1.0000000E+03;  1.0000000E-01;  0.0000000E+00;0;  0.0000000E+00;  0.0000000E+00;  0.0000000E+00;0;  0.0000000E+00;  4.0000000E+04;  0.0000000E+00;  0.0000000E+00;  4.0000000E+04;  0.0000000E+00;  4.0000000E+04;  0.0000000E+00;  0.0000000E+00;  0.0000000E+00;  0.0000000E+00;
 -2.0000000E-01;  9.9999998E-03;  1.1000000E-01;55;  0.0000000E+00;  0.0000000E+00;  0.0000000E+00;  1.0000000E+03;  1.0000000E-01;  0.0000000E+00;0;  0.0000000E+00;  0.0000000E+00;  0.0000000E+00;0;  0.0000000E+00;  4.0000000E+04;  0.0000000E+00;  0.0000000E+00;  4.0000000E+04;  0.0000000E+00;  4.0000000E+04;  0.0000000E+00;  0.0000000E+00;  0.0000000E+00;  0.0000000E+00;
 -2.0000000E-01;  9.9999998E-03;  1.2000000E-01;56;  0.0000000E+00;  0.0000000E+00;  0.0000000E+00;  1.0000000E+03;  1.0000000E-01;  0.0000000E+00;0;  0.0000000E+00;  0.0000000E+00;  0.0000000E+00;0;  0.0000000E+00;  4.0000000E+04;  0.0000000E+00;  0.0000000E+00;  4.0000000E+04;  0.0000000E+00;  4.0000000E+04;  0.0000000E+00;  0.0000000E+00;  0.0000000E+00;  0.0000000E+00;
 -2.0000000E-01;  9.9999998E-03;  1.3000000E-01;57;  0.0000000E+00;  0.0000000E+00;  0.0000000E+00;  1.0000000E+03;  1.0000000E-01;  0.0000000E+00;0;  0.0000000E+00;  0.0000000E+00;  0.0000000E+00;0;  0.0000000E+00;  4.0000000E+04;  0.0000000E+00;  0.0000000E+00;  4.0000000E+04;  0.0000000E+00;  4.0000000E+04;  0.0000000E+00;  0.0000000E+00;  0.0000000E+00;  0.0000000E+00;
 -2.0000000E-01;  9.9999998E-03;  1.4000000E-01;58;  0.0000000E+00;  0.0000000E+00;  0.0000000E+00;  1.0000000E+03;  1.0000000E-01;  0.0000000E+00;0;  0.0000000E+00;  0.0000000E+00;  0.0000000E+00;0;  0.0000000E+00;  4.0000000E+04;  0.0000000E+00;  0.0000000E+00;  4.0000000E+04;  0.0000000E+00;  4.0000000E+04;  0.0000000E+00;  0.0000000E+00;  0.0000000E+00;  0.0000000E+00;
 -2.0000000E-01;  9.9999998E-03;  1.5000001E-01;59;  0.0000000E+00;  0.0000000E+00;  0.0000000E+00;  1.0000000E+03;  1.0000000E-01;  0.0000000E+00;0;  0.0000000E+00;  0.0000000E+00;  0.0000000E+00;0;  0.0000000E+00;  4.0000000E+04;  0.0000000E+00;  0.0000000E+00;  4.0000000E+04;  0.0000000E+00;  4.0000000E+04;  0.0000000E+00;  0.0000000E+00;  0.0000000E+00;  0.0000000E+00;
 -2.0000000E-01;  9.9999998E-03;  1.6000000E-01;60;  0.0000000E+00;  0.0000000E+00;  0.0000000E+00;  1.0000000E+03;  1.0000000E-01;  0.0000000E+00;0;  0.0000000E+00;  0.0000000E+00;  0.0000000E+00;0;  0.0000000E+00;  4.0000000E+04;  0.0000000E+00;  0.0000000E+00;  4.0000000E+04;  0.0000000E+00;  4.0000000E+04;  0.0000000E+00;  0.0000000E+00;  0.0000000E+00;  0.0000000E+00;
 -2.0000000E-01;  9.9999998E-03;  1.7000000E-01;61;  0.0000000E+00;  0.0000000E+00;  0.0000000E+00;  1.0000000E+03;  1.0000000E-01;  0.0000000E+00;0;  0.0000000E+00;  0.0000000E+00;  0.0000000E+00;0;  0.0000000E+00;  4.0000000E+04;  0.0000000E+00;  0.0000000E+00;  4.0000000E+04;  0.0000000E+00;  4.0000000E+04;  0.0000000E+00;  0.0000000E+00;  0.0000000E+00;  0.0000000E+00;
 -2.0000000E-01;  9.9999998E-03;  1.8000001E-01;62;  0.0000000E+00;  0.0000000E+00;  0.0000000E+00;  1.0000000E+03;  1.0000000E-01;  0.0000000E+00;0;  0.0000000E+00;  0.0000000E+00;  0.0000000E+00;0;  0.0000000E+00;  4.0000000E+04;  0.0000000E+00;  0.0000000E+00;  4.0000000E+04;  0.0000000E+00;  4.0000000E+04;  0.0000000E+00;  0.0000000E+00;  0.0000000E+00;  0.0000000E+00;
 -2.0000000E-01;  9.9999998E-03;  1.9000000E-01;63;  0.0000000E+00;  0.0000000E+00;  0.0000000E+00;  1.0000000E+03;  1.0000000E-01;  0.0000000E+00;0;  0.0000000E+00;  0.0000000E+00;  0.0000000E+00;0;  0.0000000E+00;  4.0000000E+04;  0.0000000E+00;  0.0000000E+00;  4.0000000E+04;  0.0000000E+00;  4.0000000E+04;  0.0000000E+00;  0.0000000E+00;  0.0000000E+00;  0.0000000E+00;
 -2.0000000E-01;  9.9999998E-03;  2.0000000E-01;64;  0.0000000E+00;  0.0000000E+00;  0.0000000E+00;  1.0000000E+03;  1.0000000E-01;  0.0000000E+00;0;  0.0000000E+00;  0.0000000E+00;  0.0000000E+00;0;  0.0000000E+00;  4.0000000E+04;  0.0000000E+00;  0.0000000E+00;  4.0000000E+04;  0.0000000E+00;  4.0000000E+04;  0.0000000E+00;  0.0000000E+00;  0.0000000E+00;  0.0000000E+00;
 -2.0000000E-01;  9.9999998E-03;  2.0999999E-01;65;  0.0000000E+00;  0.0000000E+00;  0.0000000E+00;  1.0000000E+03;  1.0000000E-01;  0.0000000E+00;0;  0.0000000E+00;  0.0000000E+00;  0.0000000E+00;0;  0.0000000E+00;  4.0000000E+04;  0.0000000E+00;  0.0000000E+00;  4.0000000E+04;  0.0000000E+00;  4.0000000E+04;  0.0000000E+00;  0.0000000E+00;  0.0000000E+00;  0.0000000E+00;
 -2.0000000E-01;  9.9999998E-03;  2.2000000E-01;66;  0.0000000E+00;  0.0000000E+00;  0.0000000E+00;  1.0000000E+03;  1.0000000E-01;  0.0000000E+00;0;  0.0000000E+00;  0.0000000E+00;  0.0000000E+00;0;  0.0000000E+00;  4.0000000E+04;  0.0000000E+00;  0.0000000E+00;  4.0000000E+04;  0.0000000E+00;  4.0000000E+04;  0.0000000E+00;  0.0000000E+00;  0.0000000E+00;  0.0000000E+00;
 -2.0000000E-01;  9.9999998E-03;  2.3000000E-01;67;  0.0000000E+00;  0.0000000E+00;  0.0000000E+00;  1.0000000E+03;  1.0000000E-01;  0.0000000E+00;0;  0.0000000E+00;  0.0000000E+00;  0.0000000E+00;0;  0.0000000E+00;  4.0000000E+04;  0.0000000E+00;  0.0000000E+00;  4.0000000E+04;  0.0000000E+00;  4.0000000E+04;  0.0000000E+00;  0.0000000E+00;  0.0000000E+00;  0.0000000E+00;
 -2.0000000E-01;  9.9999998E-03;  2.3999999E-01;68;  0.0000000E+00;  0.0000000E+00;  0.0000000E+00;  1.0000000E+03;  1.0000000E-01;  0.0000000E+00;0;  0.0000000E+00;  0.0000000E+00;  0.0000000E+00;0;  0.0000000E+00;  4.0000000E+04;  0.0000000E+00;  0.0000000E+00;  4.0000000E+04;  0.0000000E+00;  4.0000000E+04;  0.0000000E+00;  0.0000000E+00;  0.0000000E+00;  0.0000000E+00;
 -2.0000000E-01;  9.9999998E-03;  2.5000000E-01;69;  0.0000000E+00;  0.0000000E+00;  0.0000000E+00;  1.0000000E+03;  1.0000000E-01;  0.0000000E+00;0;  0.0000000E+00;  0.0000000E+00;  0.0000000E+00;0;  0.0000000E+00;  4.0000000E+04;  0.0000000E+00;  0.0000000E+00;  4.0000000E+04;  0.0000000E+00;  4.0000000E+04;  0.0000000E+00;  0.0000000E+00;  0.0000000E+00;  0.0000000E+00;
 -2.0000000E-01;  9.9999998E-03;  2.5999999E-01;70;  0.0000000E+00;  0.0000000E+00;  0.0000000E+00;  1.0000000E+03;  1.0000000E-01;  0.0000000E+00;0;  0.0000000E+00;  0.0000000E+00;  0.0000000E+00;0;  0.0000000E+00;  4.0000000E+04;  0.0000000E+00;  0.0000000E+00;  4.0000000E+04;  0.0000000E+00;  4.0000000E+04;  0.0000000E+00;  0.0000000E+00;  0.0000000E+00;  0.0000000E+00;
 -2.0000000E-01;  9.9999998E-03;  2.7000001E-01;71;  0.0000000E+00;  0.0000000E+00;  0.0000000E+00;  1.0000000E+03;  1.0000000E-01;  0.0000000E+00;0;  0.0000000E+00;  0.0000000E+00;  0.0000000E+00;0;  0.0000000E+00;  4.0000000E+04;  0.0000000E+00;  0.0000000E+00;  4.0000000E+04;  0.0000000E+00;  4.0000000E+04;  0.0000000E+00;  0.0000000E+00;  0.0000000E+00;  0.0000000E+00;
 -2.0000000E-01;  9.9999998E-03;  2.8000000E-01;72;  0.0000000E+00;  0.0000000E+00;  0.0000000E+00;  1.0000000E+03;  1.0000000E-01;  0.0000000E+00;0;  0.0000000E+00;  0.0000000E+00;  0.0000000E+00;0;  0.0000000E+00;  4.0000000E+04;  0.0000000E+00;  0.0000000E+00;  4.0000000E+04;  0.0000000E+00;  4.0000000E+04;  0.0000000E+00;  0.0000000E+00;  0.0000000E+00;  0.0000000E+00;
 -2.0000000E-01;  9.9999998E-03;  2.8999999E-01;73;  0.0000000E+00;  0.0000000E+00;  0.0000000E+00;  1.0000000E+03;  1.0000000E-01;  0.0000000E+00;0;  0.0000000E+00;  0.0000000E+00;  0.0000000E+00;0;  0.0000000E+00;  4.0000000E+04;  0.0000000E+00;  0.0000000E+00;  4.0000000E+04;  0.0000000E+00;  4.0000000E+04;  0.0000000E+00;  0.0000000E+00;  0.0000000E+00;  0.0000000E+00;
 -2.0000000E-01;  9.9999998E-03;  3.0000001E-01;74;  0.0000000E+00;  0.0000000E+00;  0.0000000E+00;  1.0000000E+03;  1.0000000E-01;  0.0000000E+00;0;  0.0000000E+00;  0.0000000E+00;  0.0000000E+00;0;  0.0000000E+00;  4.0000000E+04;  0.0000000E+00;  0.0000000E+00;  4.0000000E+04;  0.0000000E+00;  4.0000000E+04;  0.0000000E+00;  0.0000000E+00;  0.0000000E+00;  0.0000000E+00;
 -2.0000000E-01;  9.9999998E-03;  3.1000000E-01;75;  0.0000000E+00;  0.0000000E+00;  0.0000000E+00;  1.0000000E+03;  1.0000000E-01;  0.0000000E+00;0;  0.0000000E+00;  0.0000000E+00;  0.0000000E+00;0;  0.0000000E+00;  4.0000000E+04;  0.0000000E+00;  0.0000000E+00;  4.0000000E+04;  0.0000000E+00;  4.0000000E+04;  0.0000000E+00;  0.0000000E+00;  0.0000000E+00;  0.0000000E+00;
 -2.0000000E-01;  9.9999998E-03;  3.1999999E-01;76;  0.0000000E+00;  0.0000000E+00;  0.0000000E+00;  1.0000000E+03;  1.0000000E-01;  0.0000000E+00;0;  0.0000000E+00;  0.0000000E+00;  0.0000000E+00;0;  0.0000000E+00;  4.0000000E+04;  0.0000000E+00;  0.0000000E+00;  4.0000000E+04;  0.0000000E+00;  4.0000000E+04;  0.0000000E+00;  0.0000000E+00;  0.0000000E+00;  0.0000000E+00;
 -2.0000000E-01;  9.9999998E-03;  3.3000001E-01;77;  0.0000000E+00;  0.0000000E+00;  0.0000000E+00;  1.0000000E+03;  1.0000000E-01;  0.0000000E+00;0;  0.0000000E+00;  0.0000000E+00;  0.0000000E+00;0;  0.0000000E+00;  4.0000000E+04;  0.0000000E+00;  0.0000000E+00;  4.0000000E+04;  0.0000000E+00;  4.0000000E+04;  0.0000000E+00;  0.0000000E+00;  0.0000000E+00;  0.0000000E+00;
 -2.0000000E-01;  9.9999998E-03;  3.4000000E-01;78;  0.0000000E+00;  0.0000000E+00;  0.0000000E+00;  1.0000000E+03;  1.0000000E-01;  0.0000000E+00;0;  0.0000000E+00;  0.0000000E+00;  0.0000000E+00;0;  0.0000000E+00;  4.0000000E+04;  0.0000000E+00;  0.0000000E+00;  4.0000000E+04;  0.0000000E+00;  4.0000000E+04;  0.0000000E+00;  0.0000000E+00;  0.0000000E+00;  0.0000000E+00;
 -2.0000000E-01;  9.9999998E-03;  3.4999999E-01;79;  0.0000000E+00;  0.0000000E+00;  0.0000000E+00;  1.0000000E+03;  1.0000000E-01;  0.0000000E+00;0;  0.0000000E+00;  0.0000000E+00;  0.0000000E+00;0;  0.0000000E+00;  4.0000000E+04;  0.0000000E+00;  0.0000000E+00;  4.0000000E+04;  0.0000000E+00;  4.0000000E+04;  0.0000000E+00;  0.0000000E+00;  0.0000000E+00;  0.0000000E+00;
 -2.0000000E-01;  9.9999998E-03;  3.6000001E-01;80;  0.0000000E+00;  0.0000000E+00;  0.0000000E+00;  1.0000000E+03;  1.0000000E-01;  0.0000000E+00;0;  0.0000000E+00;  0.0000000E+00;  0.0000000E+00;0;  0.0000000E+00;  4.0000000E+04;  0.0000000E+00;  0.0000000E+00;  4.0000000E+04;  0.0000000E+00;  4.0000000E+04;  0.0000000E+00;  0.0000000E+00;  0.0000000E+00;  0.0000000E+00;
 -2.0000000E-01;  9.9999998E-03;  3.7000000E-01;81;  0.0000000E+00;  0.0000000E+00;  0.0000000E+00;  1.0000000E+03;  1.0000000E-01;  0.0000000E+00;0;  0.0000000E+00;  0.0000000E+00;  0.0000000E+00;0;  0.0000000E+00;  4.0000000E+04;  0.0000000E+00;  0.0000000E+00;  4.0000000E+04;  0.0000000E+00;  4.0000000E+04;  0.0000000E+00;  0.0000000E+00;  0.0000000E+00;  0.0000000E+00;
 -2.0000000E-01;  9.9999998E-03;  3.8000000E-01;82;  0.0000000E+00;  0.0000000E+00;  0.0000000E+00;  1.0000000E+03;  1.0000000E-01;  0.0000000E+00;0;  0.0000000E+00;  0.0000000E+00;  0.0000000E+00;0;  0.0000000E+00;  4.0000000E+04;  0.0000000E+00;  0.0000000E+00;  4.0000000E+04;  0.0000000E+00;  4.0000000E+04;  0.0000000E+00;  0.0000000E+00;  0.0000000E+00;  0.0000000E+00;
 -2.0000000E-01;  9.9999998E-03;  3.8999999E-01;83;  0.0000000E+00;  0.0000000E+00;  0.0000000E+00;  1.0000000E+03;  1.0000000E-01;  0.0000000E+00;0;  0.0000000E+00;  0.0000000E+00;  0.0000000E+00;0;  0.0000000E+00;  4.0000000E+04;  0.0000000E+00;  0.0000000E+00;  4.0000000E+04;  0.0000000E+00;  4.0000000E+04;  0.0000000E+00;  0.0000000E+00;  0.0000000E+00;  0.0000000E+00;
 -2.0000000E-01;  9.9999998E-03;  4.0000001E-01;84;  0.0000000E+00;  0.0000000E+00;  0.0000000E+00;  1.0000000E+03;  1.0000000E-01;  0.0000000E+00;0;  0.0000000E+00;  0.0000000E+00;  0.0000000E+00;0;  0.0000000E+00;  4.0000000E+04;  0.0000000E+00;  0.0000000E+00;  4.0000000E+04;  0.0000000E+00;  4.0000000E+04;  0.0000000E+00;  0.0000000E+00;  0.0000000E+00;  0.0000000E+00;
 -2.0000000E-01;  9.9999998E-03;  4.1000000E-01;85;  0.0000000E+00;  0.0000000E+00;  0.0000000E+00;  1.0000000E+03;  1.0000000E-01;  0.0000000E+00;0;  0.0000000E+00;  0.0000000E+00;  0.0000000E+00;0;  0.0000000E+00;  4.0000000E+04;  0.0000000E+00;  0.0000000E+00;  4.0000000E+04;  0.0000000E+00;  4.0000000E+04;  0.0000000E+00;  0.0000000E+00;  0.0000000E+00;  0.0000000E+00;
 -2.0000000E-01;  9.9999998E-03;  4.1999999E-01;86;  0.0000000E+00;  0.0000000E+00;  0.0000000E+00;  1.0000000E+03;  1.0000000E-01;  0.0000000E+00;0;  0.0000000E+00;  0.0000000E+00;  0.0000000E+00;0;  0.0000000E+00;  4.0000000E+04;  0.0000000E+00;  0.0000000E+00;  4.0000000E+04;  0.0000000E+00;  4.0000000E+04;  0.0000000E+00;  0.0000000E+00;  0.0000000E+00;  0.0000000E+00;
 -2.0000000E-01;  9.9999998E-03;  4.3000001E-01;87;  0.0000000E+00;  0.0000000E+00;  0.0000000E+00;  1.0000000E+03;  1.0000000E-01;  0.0000000E+00;0;  0.0000000E+00;  0.0000000E+00;  0.0000000E+00;0;  0.0000000E+00;  4.0000000E+04;  0.0000000E+00;  0.0000000E+00;  4.0000000E+04;  0.0000000E+00;  4.0000000E+04;  0.0000000E+00;  0.0000000E+00;  0.0000000E+00;  0.0000000E+00;
 -2.0000000E-01;  9.9999998E-03;  4.4000000E-01;88;  0.0000000E+00;  0.0000000E+00;  0.0000000E+00;  1.0000000E+03;  1.0000000E-01;  0.0000000E+00;0;  0.0000000E+00;  0.0000000E+00;  0.0000000E+00;0;  0.0000000E+00;  4.0000000E+04;  0.0000000E+00;  0.0000000E+00;  4.0000000E+04;  0.0000000E+00;  4.0000000E+04;  0.0000000E+00;  0.0000000E+00;  0.0000000E+00;  0.0000000E+00;
  2.0034781E-04;  9.9999998E-03; -2.8989339E-01;2448; -1.0964790E-04;  0.0000000E+00; -6.1393605E-04;  9.9604456E+02;  1.0000000E-01; -3.2769937E+03;3;  1.8770350E+01;  0.0000000E+00;  2.2431641E+01;0; -8.3354171E-03;  3.9685824E+04;  0.0000000E+00; -3.9830059E-01;  4.0000000E+04;  0.0000000E+00;  3.9994945E+04; -7.6379278E-03;  0.0000000E+00; -6.9748960E-04;  6.4191278E+02;
  5.5659784E-04;  9.9999998E-03; -2.7985930E-01;2449;  1.2025527E-04;  0.0000000E+00; -6.0259289E-04;  9.9506085E+02;  1.0000000E-01; -4.0919832E+03;3;  2.6790537E+01;  0.0000000E+00;  2.2802530E+01;0; -9.4634164E-03;  3.9601930E+04;  0.0000000E+00; -4.5308065E-01;  4.0000000E+04;  0.0000000E+00;  4.0001957E+04; -8.9041721E-03;  0.0000000E+00; -5.5924477E-04;  9.0649341E+02;
  9.8951897E-03;  9.9999998E-03; -2.9982534E-01;2507; -4.6394180E-04;  0.0000000E+00; -4.8013657E-04;  9.9734216E+02;  1.0000000E-01; -2.2019624E+03;3;  7.3310471E+00;  0.0000000E+00;  2.0368185E+01;0; -7.9540061E-03;  3.9794656E+04;  0.0000000E+00; -4.5540181E-01;  4.0000000E+04;  0.0000000E+00;  3.9989738E+04; -7.1546724E-03;  0.0000000E+00; -7.9933391E-04;  1.2413105E+03;
  1.0172280E-02;  9.9999998E-03; -2.8980237E-01;2508; -3.0629142E-04;  0.0000000E+00; -4.0938874E-04;  9.9663409E+02;  1.0000000E-01; -2.7886125E+03;3;  1.1905266E+01;  0.0000000E+00;  2.0002739E+01;0; -9.2213321E-03;  3.9731758E+04;  0.0000000E+00; -5.1405030E-01;  4.0000000E+04;  0.0000000E+00;  3.9996727E+04; -8.5337367E-03;  0.0000000E+00; -6.8759534E-04;  7.4696362E+02;
  1.0517363E-02;  9.9999998E-03; -2.7980587E-01;2509; -1.7016655E-04;  0.0000000E+00; -3.7020419E-04;  9.9584937E+02;  1.0000000E-01; -3.4387175E+03;3;  1.8207745E+01;  0.0000000E+00;  1.9232500E+01;0; -1.0484897E-02;  3.9662090E+04;  0.0000000E+00; -5.6860435E-01;  4.0000000E+04;  0.0000000E+00;  4.0004340E+04; -9.9486932E-03;  0.0000000E+00; -5.3620373E-04;  1.1853466E+03;
  1.9819377E-02;  9.9999998E-03; -2.9982245E-01;2568; -6.6686422E-04;  0.0000000E+00; -3.2570606E-04;  9.9789166E+02;  1.0000000E-01; -1.7467161E+03;3;  2.6819439E+00;  0.0000000E+00;  1.6538235E+01;0; -8.3619114E-03;  3.9836473E+04;  0.0000000E+00; -5.7506984E-01;  4.0000000E+04;  0.0000000E+00;  3.9991617E+04; -7.5780749E-03;  0.0000000E+00; -7.8383659E-04;  1.1905564E+03;
  2.0084566E-02;  9.9999998E-03; -2.8983071E-01;2569; -5.5515551E-04;  0.0000000E+00; -2.5480354E-04;  9.9738245E+02;  1.0000000E-01; -2.1685806E+03;3;  5.4264522E+00;  0.0000000E+00;  1.4747116E+01;0; -9.7129438E-03;  3.9788152E+04;  0.0000000E+00; -6.3500798E-01;  4.0000000E+04;  0.0000000E+00;  3.9998840E+04; -9.0497043E-03;  0.0000000E+00; -6.6323922E-04;  9.0528778E+02;
  2.0432569E-02;  9.9999998E-03; -2.7984717E-01;2570; -4.6533634E-04;  0.0000000E+00; -2.1161276E-04;  9.9682721E+02;  1.0000000E-01; -2.6286169E+03;3;  9.2680140E+00;  0.0000000E+00;  1.2870819E+01;0; -1.1064517E-02;  3.9736789E+04;  0.0000000E+00; -6.8618280E-01;  4.0000000E+04;  0.0000000E+00;  4.0007223E+04; -1.0557001E-02;  0.0000000E+00; -5.0751551E-04;  1.5057329E+03;
  2.9721931E-02;  9.9999998E-03; -2.9988846E-01;2629; -9.0709870E-04;  0.0000000E+00; -1.8992867E-04;  9.9846210E+02;  1.0000000E-01; -1.2741368E+03;3; -4.6420744E-01;  0.0000000E+00;  1.0887747E+01;0; -8.3886851E-03;  3.9879445E+04;  0.0000000E+00; -6.8741524E-01;  4.0000000E+04;  0.0000000E+00;  3.9994230E+04; -7.6314025E-03;  0.0000000E+00; -7.5728248E-04;  1.1532041E+03;
  2.9984571E-02;  9.9999998E-03; -2.8989828E-01;2630; -8.3757489E-04;  0.0000000E+00; -1.1433625E-04;  9.9815735E+02;  1.0000000E-01; -1.5266235E+03;3;  6.6193455E-01;  0.0000000E+00;  7.6296721E+00;0; -9.7593870E-03;  3.9847250E+04;  0.0000000E+00; -7.4402195E-01;  4.0000000E+04;  0.0000000E+00;  4.0001395E+04; -9.1281878E-03;  0.0000000E+00; -6.3119939E-04;  1.1137799E+03;
  3.0342240E-02;  9.9999998E-03; -2.7990964E-01;2631; -7.8410085E-04;  0.0000000E+00; -7.8412195E-05;  9.9784705E+02;  1.0000000E-01; -1.7837026E+03;3;  2.2085576E+00;  0.0000000E+00;  4.6455340E+00;0; -1.1128899E-02;  3.9814785E+04;  0.0000000E+00; -7.8243607E-01;  4.0000000E+04;  0.0000000E+00;  4.0009473E+04; -1.0654805E-02;  0.0000000E+00; -4.7409307E-04;  1.7775183E+03;
  3.9641224E-02;  9.9999998E-03; -2.9996112E-01;2690; -1.1555278E-03;  0.0000000E+00; -7.5091128E-05;  9.9896527E+02;  1.0000000E-01; -8.5725970E+02;3; -1.8196809E+00;  0.0000000E+00;  4.5552883E+00;0; -8.0503076E-03;  3.9917027E+04;  0.0000000E+00; -7.8122985E-01;  4.0000000E+04;  0.0000000E+00;  3.9996227E+04; -7.3178052E-03;  0.0000000E+00; -7.3250290E-04;  1.1730443E+03;
  3.9909355E-02;  9.9999998E-03; -2.8995585E-01;2691; -1.1152432E-03;  0.0000000E+00; -1.1991102E-06;  9.9885596E+02;  1.0000000E-01; -9.4782507E+02;3; -1.8133863E+00;  0.0000000E+00; -1.4385381E-01;0; -9.3701202E-03;  3.9900707E+04;  0.0000000E+00; -8.2359666E-01;  4.0000000E+04;  0.0000000E+00;  4.0003422E+04; -8.7694637E-03;  0.0000000E+00; -6.0065632E-04;  1.3011305E+03;
  4.0276390E-02;  9.9999998E-03; -2.7995437E-01;2692; -1.0881460E-03;  0.0000000E+00;  2.5650361E-05;  9.9876703E+02;  1.0000000E-01; -1.0215020E+03;3; -1.9276519E+00;  0.0000000E+00; -4.0850282E+00;0; -1.0680728E-02;  3.9886180E+04;  0.0000000E+00; -8.3190680E-01;  4.0000000E+04;  0.0000000E+00;  4.0011504E+04; -1.0240544E-02;  0.0000000E+00; -4.4018374E-04;  1.9535684E+03;
  4.9597003E-02;  9.9999998E-03; -3.0000788E-01;2751; -1.3817694E-03;  0.0000000E+00;  2.9019695E-06;  9.9934180E+02;  1.0000000E-01; -5.4531793E+02;3; -1.5671390E+00;  0.0000000E+00; -1.1804782E+00;0; -7.4096192E-03;  3.9945645E+04;  0.0000000E+00; -8.5074264E-01;  4.0000000E+04;  0.0000000E+00;  3.9997598E+04; -6.6893753E-03;  0.0000000E+00; -7.2024367E-04;  1.2291060E+03;
  4.9866647E-02;  9.9999998E-03; -2.8999531E-01;2752; -1.3596612E-03;  0.0000000E+00;  7.4738353E-05;  9.9939075E+02;  1.0000000E-01; -5.0477585E+02;3; -2.1136870E+00;  0.0000000E+00; -7.1851702E+00;0; -8.6091384E-03;  3.9941957E+04;  0.0000000E+00; -8.6279631E-01;  4.0000000E+04;  0.0000000E+00;  4.0005066E+04; -8.0305766E-03;  0.0000000E+00; -5.7856203E-04;  1.4131343E+03;
  5.0236858E-02;  9.9999998E-03; -2.7998212E-01;2753; -1.3474969E-03;  0.0000000E+00;  8.9160530E-05;  9.9949908E+02;  1.0000000E-01; -4.1500061E+02;3; -3.2102971E+00;  0.0000000E+00; -1.1998921E+01;0; -9.7890627E-03;  3.9943531E+04;  0.0000000E+00; -8.1844646E-01;  4.0000000E+04;  0.0000000E+00;  4.0013383E+04; -9.3808742E-03;  0.0000000E+00; -4.0818873E-04;  2.0147373E+03;
  5.9585169E-02;  9.9999998E-03; -3.0003971E-01;2812; -1.5660587E-03;  0.0000000E+00;  3.4881385E-05;  9.9954620E+02;  1.0000000E-01; -3.7593997E+02;3; -1.7413522E-01;  0.0000000E+00; -5.2363114E+00;0; -6.5743634E-03;  3.9961520E+04;  0.0000000E+00; -8.7336731E-01;  4.0000000E+04;  0.0000000E+00;  3.9997953E+04; -5.8474010E-03;  0.0000000E+00; -7.2696269E-04;  1.2567432E+03;
  5.9857488E-02;  9.9999998E-03; -2.9001647E-01;2813; -1.5532636E-03;  0.0000000E+00;  1.0080025E-04;  9.9972327E+02;  1.0000000E-01; -2.2927747E+02;3; -8.6554265E-01;  0.0000000E+00; -1.2434119E+01;0; -7.5980402E-03;  3.9968219E+04;  0.0000000E+00; -8.3829099E-01;  4.0000000E+04;  0.0000000E+00;  4.0005508E+04; -7.0300419E-03;  0.0000000E+00; -5.6799839E-04;  1.3971261E+03;
  6.0218390E-02;  9.9999998E-03; -2.8000137E-01;2814; -1.5483833E-03;  0.0000000E+00;  1.0739861E-04;  9.9997577E+02;  1.0000000E-01; -2.0098198E+01;3; -2.3252749E+00;  0.0000000E+00; -1.8033941E+01;0; -8.5902214E-03;  3.9981875E+04;  0.0000000E+00; -7.2311729E-01;  4.0000000E+04;  0.0000000E+00;  4.0012602E+04; -8.2120728E-03;  0.0000000E+00; -3.7814880E-04;  1.9492959E+03;
  6.9606334E-02;  9.9999998E-03; -3.0006409E-01;2873; -1.6865690E-03;  0.0000000E+00;  1.1271410E-05;  9.9956976E+02;  1.0000000E-01; -3.5643436E+02;3;  1.7645091E+00;  0.0000000E+00; -6.8996348E+00;0; -5.6926161E-03;  3.9964305E+04;  0.0000000E+00; -7.7329725E-01;  4.0000000E+04;  0.0000000E+00;  3.9996715E+04; -4.9396651E-03;  0.0000000E+00; -7.5295125E-04;  1.1543151E+03;
  6.9881760E-02;  9.9999998E-03; -2.9002455E-01;2874; -1.6820949E-03;  0.0000000E+00;  7.6689452E-05;  9.9983270E+02;  1.0000000E-01; -1.3861336E+02;3;  1.1832449E+00;  0.0000000E+00; -1.5283247E+01;0; -6.5048663E-03;  3.9977820E+04;  0.0000000E+00; -6.7422873E-01;  4.0000000E+04;  0.0000000E+00;  4.0004840E+04; -5.9368359E-03;  0.0000000E+00; -5.6803046E-04;  1.1498899E+03;
  7.0224471E-02;  9.9999998E-03; -2.8001440E-01;2875; -1.6789500E-03;  0.0000000E+00;  7.6612734E-05;  1.0001906E+03;  1.0000000E-01;  1.5792146E+02;3; -2.6714119E-01;  0.0000000E+00; -2.1811840E+01;0; -7.2735446E-03;  3.9999969E+04;  0.0000000E+00; -4.8213103E-01;  4.0000000E+04;  0.0000000E+00;  4.0013156E+04; -6.9259210E-03;  0.0000000E+00; -3.4762366E-04;  1.7386791E+03;
  7.9664461E-02;  9.9999998E-03; -3.0008137E-01;2934; -1.7176328E-03;  0.0000000E+00; -5.8906560E-05;  9.9942609E+02;  1.0000000E-01; -4.7549274E+02;3;  3.7758710E+00;  0.0000000E+00; -5.9572425E+00;0; -4.9281032E-03;  3.9956125E+04;  0.0000000E+00; -4.0630886E-01;  4.0000000E+04;  0.0000000E+00;  3.9994027E+04; -4.1360683E-03;  0.0000000E+00; -7.9203502E-04;  9.0606848E+02;
  7.9940543E-02;  9.9999998E-03; -2.9002663E-01;2935; -1.7155184E-03;  0.0000000E+00; -5.3277759E-06;  9.9973975E+02;  1.0000000E-01; -2.1559885E+02;3;  3.3623447E+00;  0.0000000E+00; -1.5649131E+01;0; -5.5151223E-03;  3.9972551E+04;  0.0000000E+00; -2.2698523E-01;  4.0000000E+04;  0.0000000E+00;  4.0003348E+04; -4.9434151E-03;  0.0000000E+00; -5.7170726E-04;  5.2453516E+02;
  8.0261312E-02;  9.9999998E-03; -2.8002247E-01;2936; -1.7035719E-03;  0.0000000E+00; -1.8782348E-05;  1.0001649E+03;  1.0000000E-01;  1.3658873E+02;3;  2.1017852E+00;  0.0000000E+00; -2.3392900E+01;0; -6.0468884E-03;  3.9999027E+04;  0.0000000E+00;  3.1330824E-02;  4.0000000E+04;  0.0000000E+00;  4.0011863E+04; -5.7372386E-03;  0.0000000E+00; -3.0964962E-04;  1.4834532E+03;
  8.9764699E-02;  9.9999998E-03; -3.0008584E-01;2995; -1.6228374E-03;  0.0000000E+00; -1.6912383E-04;  9.9914954E+02;  1.0000000E-01; -7.0457269E+02;3;  5.5681930E+00;  0.0000000E+00; -2.6564519E+00;0; -4.4205128E-03;  3.9938113E+04;  0.0000000E+00;  4.3150952E-01;  4.0000000E+04;  0.0000000E+00;  3.9989402E+04; -3.5911426E-03;  0.0000000E+00; -8.2937040E-04;  1.3833071E+03;
  9.0032622E-02;  9.9999998E-03; -2.9001835E-01;2996; -1.6257291E-03;  0.0000000E+00; -1.2971231E-04;  9.9948157E+02;  1.0000000E-01; -4.2951871E+02;3;  5.2421975E+00;  0.0000000E+00; -1.3936423E+01;0; -4.7935080E-03;  3.9955176E+04;  0.0000000E+00;  7.0221853E-01;  4.0000000E+04;  0.0000000E+00;  4.0000129E+04; -4.2276126E-03;  0.0000000E+00; -5.6589511E-04;  1.0195788E+03;
  9.0325147E-02;  9.9999998E-03; -2.8002325E-01;2997; -1.6012980E-03;  0.0000000E+00; -1.7345694E-04;  9.9993945E+02;  1.0000000E-01; -5.0171421E+01;3;  4.1416335E+00;  0.0000000E+00; -2.3203459E+01;0; -5.0955121E-03;  3.9983168E+04;  0.0000000E+00;  9.9325186E-01;  4.0000000E+04;  0.0000000E+00;  4.0010398E+04; -4.8430171E-03;  0.0000000E+00; -2.5249505E-04;  1.9499474E+03;
  9.9914365E-02;  9.9999998E-03; -3.0006063E-01;3056; -1.3521954E-03;  0.0000000E+00; -3.2040532E-04;  9.9876196E+02;  1.0000000E-01; -1.0256993E+03;3;  7.1149759E+00;  0.0000000E+00;  2.4786501E+00;0; -4.2300727E-03;  3.9913188E+04;  0.0000000E+00;  1.9748975E+00;  4.0000000E+04;  0.0000000E+00;  3.9983895E+04; -3.3905529E-03;  0.0000000E+00; -8.3951955E-04;  3.4219363E+03;
  1.0016017E-01;  9.9999998E-03; -2.8998137E-01;3057; -1.3808263E-03;  0.0000000E+00; -2.9378539E-04;  9.9909882E+02;  1.0000000E-01; -7.4659619E+02;3;  6.6886339E+00;  0.0000000E+00; -1.0802373E+01;0; -4.4295685E-03;  3.9928660E+04;  0.0000000E+00;  2.3347256E+00;  4.0000000E+04;  0.0000000E+00;  3.9997266E+04; -3.9022104E-03;  0.0000000E+00; -5.2735838E-04;  3.3791104E+03;
  1.0041394E-01;  9.9999998E-03; -2.7999702E-01;3058; -1.3749433E-03;  0.0000000E+00; -3.6462926E-04;  9.9957703E+02;  1.0000000E-01; -3.5040985E+02;3;  5.5935078E+00;  0.0000000E+00; -2.1989086E+01;0; -4.5352299E-03;  3.9956152E+04;  0.0000000E+00;  2.5936148E+00;  4.0000000E+04;  0.0000000E+00;  4.0009113E+04; -4.3773986E-03;  0.0000000E+00; -1.5783147E-04;  3.9170540E+03;
  1.1011812E-01;  9.9999998E-03; -2.9996654E-01;3117; -9.5639820E-04;  0.0000000E+00; -4.4494326E-04;  9.9827747E+02;  1.0000000E-01; -1.4270708E+03;3;  8.4711189E+00;  0.0000000E+00;  8.0801878E+00;0; -4.3323124E-03;  3.9880570E+04;  0.0000000E+00;  4.4602165E+00;  4.0000000E+04;  0.0000000E+00;  3.9978754E+04; -3.5323401E-03;  0.0000000E+00; -7.9997210E-04;  6.9004927E+03;
  1.1031914E-01;  9.9999998E-03; -2.8988212E-01;3118; -1.0533406E-03;  0.0000000E+00; -4.1419658E-04;  9.9863403E+02;  1.0000000E-01; -1.1316718E+03;3;  7.8233857E+00;  0.0000000E+00; -7.6080804E+00;0; -4.4412883E-03;  3.9894777E+04;  0.0000000E+00;  4.8817000E+00;  4.0000000E+04;  0.0000000E+00;  3.9994422E+04; -4.0006530E-03;  0.0000000E+00; -4.4063549E-04;  7.0677012E+03;
  1.1051592E-01;  9.9999998E-03; -2.7991879E-01;3119; -1.1243038E-03;  0.0000000E+00; -4.7620694E-04;  9.9913367E+02;  1.0000000E-01; -7.1775751E+02;3;  6.5981374E+00;  0.0000000E+00; -2.0604624E+01;0; -4.4197766E-03;  3.9922027E+04;  0.0000000E+00;  4.9955568E+00;  4.0000000E+04;  0.0000000E+00;  4.0008668E+04; -4.3986738E-03;  0.0000000E+00; -2.1103071E-05;  7.3089580E+03;
  1.2032432E-01;  9.9999998E-03; -2.9980487E-01;3178; -6.0084474E-04;  0.0000000E+00; -4.5593260E-04;  9.9772791E+02;  1.0000000E-01; -1.8823665E+03;3;  9.7501030E+00;  0.0000000E+00;  1.1904573E+01;0; -4.7111297E-03;  3.9839992E+04;  0.0000000E+00;  8.1476650E+00;  4.0000000E+04;  0.0000000E+00;  3.9977031E+04; -3.9928593E-03;  0.0000000E+00; -7.1827020E-04;  1.2066623E+04;
  1.2042622E-01;  9.9999998E-03; -2.8974831E-01;3179; -8.2635594E-04;  0.0000000E+00; -3.9925479E-04;  9.9816254E+02;  1.0000000E-01; -1.5223273E+03;3;  8.8399467E+00;  0.0000000E+00; -5.9872298E+00;0; -4.8603844E-03;  3.9857531E+04;  0.0000000E+00;  8.5469637E+00;  4.0000000E+04;  0.0000000E+00;  3.9995137E+04; -4.5347293E-03;  0.0000000E+00; -3.2565487E-04;  1.2375616E+04;
  1.2055518E-01;  9.9999998E-03; -2.7980691E-01;3180; -1.0004822E-03;  0.0000000E+00; -4.3613455E-04;  9.9870099E+02;  1.0000000E-01; -1.0762164E+03;3;  7.4065228E+00;  0.0000000E+00; -2.0179247E+01;0; -4.7826483E-03;  3.9885617E+04;  0.0000000E+00;  8.3163099E+00;  4.0000000E+04;  0.0000000E+00;  4.0011449E+04; -4.9165841E-03;  0.0000000E+00;  1.3393583E-04;  1.2142983E+04;
  1.3043603E-01;  9.9999998E-03; -2.9964653E-01;3239; -3.6409934E-04;  0.0000000E+00; -3.7696626E-04;  9.9723438E+02;  1.0000000E-01; -2.2912439E+03;3;  1.1777214E+01;  0.0000000E+00;  1.1607673E+01;0; -5.3487075E-03;  3.9797418E+04;  0.0000000E+00;  1.3353139E+01;  4.0000000E+04;  0.0000000E+00;  3.9982211E+04; -4.7242716E-03;  0.0000000E+00; -6.2443595E-04;  1.9437707E+04;
  1.3044481E-01;  9.9999998E-03; -2.8960231E-01;3240; -7.7304320E-04;  0.0000000E+00; -2.6687697E-04;  9.9780048E+02;  1.0000000E-01; -1.8222694E+03;3;  1.0624227E+01;  0.0000000E+00; -8.3541384E+00;0; -5.7265088E-03;  3.9822797E+04;  0.0000000E+00;  1.3554268E+01;  4.0000000E+04;  0.0000000E+00;  4.0002754E+04; -5.4994537E-03;  0.0000000E+00; -2.2705505E-04;  1.9675561E+04;
  1.3052438E-01;  9.9999998E-03; -2.7967960E-01;3241; -1.0538386E-03;  0.0000000E+00; -2.7157995E-04;  9.9837537E+02;  1.0000000E-01; -1.3459866E+03;3;  8.7675877E+00;  0.0000000E+00; -2.2576185E+01;0; -5.6387000E-03;  3.9853324E+04;  0.0000000E+00;  1.2631619E+01;  4.0000000E+04;  0.0000000E+00;  4.0018902E+04; -5.9010354E-03;  0.0000000E+00;  2.6233564E-04;  1.8528568E+04;
  1.4048631E-01;  9.9999998E-03; -2.9949784E-01;3300; -2.9501016E-04;  0.0000000E+00; -3.1153878E-04;  9.9688147E+02;  1.0000000E-01; -2.5836306E+03;3;  1.6461973E+01;  0.0000000E+00;  4.2664318E+00;0; -6.2583452E-03;  3.9756453E+04;  0.0000000E+00;  2.0475718E+01;  4.0000000E+04;  0.0000000E+00;  3.9997301E+04; -5.7468158E-03;  0.0000000E+00; -5.1152962E-04;  2.9667098E+04;
  1.4041373E-01;  9.9999998E-03; -2.8946641E-01;3301; -9.0890983E-04;  0.0000000E+00; -1.0979701E-04;  9.9763586E+02;  1.0000000E-01; -1.9586606E+03;3;  1.4818788E+01;  0.0000000E+00; -1.7178385E+01;0; -7.0832302E-03;  3.9794926E+04;  0.0000000E+00;  2.0152063E+01;  4.0000000E+04;  0.0000000E+00;  4.0018449E+04; -6.9099828E-03;  0.0000000E+00; -1.7324736E-04;  2.9409736E+04;
  1.4046967E-01;  9.9999998E-03; -2.7955449E-01;3302; -1.2627289E-03;  0.0000000E+00; -8.5180742E-05;  9.9822681E+02;  1.0000000E-01; -1.4690449E+03;3;  1.1798410E+01;  0.0000000E+00; -2.9762613E+01;0; -6.9535780E-03;  3.9827820E+04;  0.0000000E+00;  1.7986107E+01;  4.0000000E+04;  0.0000000E+00;  4.0033461E+04; -7.2913845E-03;  0.0000000E+00;  3.3780636E-04;  2.6584416E+04;
  1.5051904E-01;  9.9999998E-03; -2.9945374E-01;3361; -3.3068741E-04;  0.0000000E+00; -4.4239228E-04;  9.9662457E+02;  1.0000000E-01; -2.7964641E+03;3;  2.5910780E+01;  0.0000000E+00; -7.0900178E+00;0; -7.1534114E-03;  3.9716582E+04;  0.0000000E+00;  2.9202782E+01;  4.0000000E+04;  0.0000000E+00;  4.0018281E+04; -6.9691068E-03;  0.0000000E+00; -1.8430455E-04;  4.2369133E+04;
  1.5037656E-01;  9.9999998E-03; -2.8941140E-01;3362; -1.0864009E-03;  0.0000000E+00; -2.0189167E-04;  9.9766034E+02;  1.0000000E-01; -1.9383650E+03;3;  2.2743353E+01;  0.0000000E+00; -3.0712866E+01;0; -8.4889233E-03;  3.9774824E+04;  0.0000000E+00;  2.8205725E+01;  4.0000000E+04;  0.0000000E+00;  4.0041840E+04; -8.5565839E-03;  0.0000000E+00;  6.7660119E-05;  4.1407832E+04;
  1.5043144E-01;  9.9999998E-03; -2.7948692E-01;3363; -1.5256044E-03;  0.0000000E+00; -7.3403280E-05;  9.9825592E+02;  1.0000000E-01; -1.4449468E+03;3;  1.7242273E+01;  0.0000000E+00; -4.0692661E+01;0; -8.4228730E-03;  3.9809617E+04;  0.0000000E+00;  2.4133636E+01;  4.0000000E+04;  0.0000000E+00;  4.0053461E+04; -8.9114225E-03;  0.0000000E+00;  4.8854930E-04;  3.5971148E+04;
  1.6065487E-01;  9.9999998E-03; -2.9962379E-01;3422; -2.2538997E-04;  0.0000000E+00; -8.0245605E-04;  9.9591010E+02;  1.0000000E-01; -3.3883979E+03;3;  3.7542713E+01;  0.0000000E+00; -4.7474718E+00;0; -6.9663520E-03;  3.9653656E+04;  0.0000000E+00;  3.5794590E+01;  4.0000000E+04;  0.0000000E+00;  4.0023594E+04; -7.6504666E-03;  0.0000000E+00;  6.8411464E-04;  5.1999949E+04;
  1.6042995E-01;  9.9999998E-03; -2.8952396E-01;3423; -1.1166966E-03;  0.0000000E+00; -6.8213831E-04;  9.9751727E+02;  1.0000000E-01; -2.0568801E+03;3;  3.2981663E+01;  0.0000000E+00; -3.7671745E+01;0; -8.8806562E-03;  3.9748723E+04;  0.0000000E+00;  3.5527512E+01;  4.0000000E+04;  0.0000000E+00;  4.0055977E+04; -9.8851193E-03;  0.0000000E+00;  1.0044631E-03;  5.2342641E+04;
  1.6049515E-01;  9.9999998E-03; -2.7953127E-01;3424; -1.7435651E-03;  0.0000000E+00; -4.0559127E-04;  9.9822528E+02;  1.0000000E-01; -1.4703287E+03;3;  2.4287098E+01;  0.0000000E+00; -4.9336040E+01;0; -9.3479361E-03;  3.9789488E+04;  0.0000000E+00;  2.9672377E+01;  4.0000000E+04;  0.0000000E+00;  4.0071230E+04; -1.0460364E-02;  0.0000000E+00;  1.1124273E-03;  4.4562566E+04;
  1.7105204E-01;  9.9999998E-03; -2.9992983E-01;3483; -1.1778802E-04;  0.0000000E+00; -6.6675391E-04;  9.9376099E+02;  1.0000000E-01; -5.1688906E+03;3;  3.8449432E+01;  0.0000000E+00;  3.1464024E+01;0; -6.8385699E-03;  3.9509051E+04;  0.0000000E+00;  3.1788260E+01;  4.0000000E+04;  0.0000000E+00;  3.9995133E+04; -7.7819224E-03;  0.0000000E+00;  9.4335247E-04;  4.6480363E+04;
  1.7069903E-01;  9.9999998E-03; -2.8978464E-01;3484; -1.0174480E-03;  0.0000000E+00; -1.0138082E-03;  9.9651996E+02;  1.0000000E-01; -2.8831284E+03;3;  3.8291763E+01;  0.0000000E+00; -2.0716444E+01;0; -8.2661100E-03;  3.9681730E+04;  0.0000000E+00;  3.6333130E+01;  4.0000000E+04;  0.0000000E+00;  4.0040887E+04; -1.0491312E-02;  0.0000000E+00;  2.2252016E-03;  5.3839414E+04;
  1.7070393E-01;  9.9999998E-03; -2.7971718E-01;3485; -1.8736839E-03;  0.0000000E+00; -8.2566909E-04;  9.9775421E+02;  1.0000000E-01; -1.8605894E+03;3;  2.8624487E+01;  0.0000000E+00; -4.4187111E+01;0; -9.3144588E-03;  3.9753312E+04;  0.0000000E+00;  3.1128700E+01;  4.0000000E+04;  0.0000000E+00;  4.0068629E+04; -1.1575017E-02;  0.0000000E+00;  2.2605588E-03;  4.7123883E+04;
  1.8153977E-01;  9.9999998E-03; -2.9999042E-01;3544; -1.4850501E-03;  0.0000000E+00;  4.4954251E-04;  9.9124939E+02;  1.0000000E-01; -7.2497207E+03;3;  3.2595261E+01;  0.0000000E+00;  5.0889442E+01;0; -1.5865393E-02;  3.9308727E+04;  0.0000000E+00;  1.8573059E+01;  4.0000000E+04;  0.0000000E+00;  3.9993098E+04; -1.3778005E-02;  0.0000000E+00; -2.0873891E-03;  2.7620186E+04;
  1.8115133E-01;  9.9999998E-03; -2.8998354E-01;3545; -1.3218337E-03;  0.0000000E+00; -4.7026575E-04;  9.9468738E+02;  1.0000000E-01; -4.4014062E+03;3;  3.2240768E+01;  0.0000000E+00;  1.0943209E+01;0; -1.0297619E-02;  3.9560695E+04;  0.0000000E+00;  2.6385569E+01;  4.0000000E+04;  0.0000000E+00;  4.0014203E+04; -1.1711629E-02;  0.0000000E+00;  1.4140105E-03;  4.0137543E+04;
  1.8100512E-01;  9.9999998E-03; -2.7993989E-01;3546; -1.9582664E-03;  0.0000000E+00; -7.1191136E-04;  9.9678461E+02;  1.0000000E-01; -2.6638752E+03;3;  2.5147541E+01;  0.0000000E+00; -2.2044365E+01;0; -9.4460333E-03;  3.9701180E+04;  0.0000000E+00;  2.5543312E+01;  4.0000000E+04;  0.0000000E+00;  4.0041660E+04; -1.2008540E-02;  0.0000000E+00;  2.5625071E-03;  3.9436316E+04;
  1.9184604E-01;  9.9999998E-03; -2.9986247E-01;3605; -4.0104073E-03;  0.0000000E+00;  2.4821077E-04;  9.9014227E+02;  1.0000000E-01; -8.1669297E+03;3;  3.1096010E+01;  0.0000000E+00;  1.3295093E+01;0; -2.7851006E-02;  3.9158312E+04;  0.0000000E+00;  4.9347963E+00;  4.0000000E+04;  0.0000000E+00;  4.0051637E+04; -2.6167233E-02;  0.0000000E+00; -1.6837727E-03;  1.0250188E+04;
  1.9152556E-01;  9.9999998E-03; -2.8999382E-01;3606; -2.3683731E-03;  0.0000000E+00;  1.3689090E-04;  9.9342694E+02;  1.0000000E-01; -5.4456733E+03;3;  2.2968996E+01;  0.0000000E+00;  1.3397052E+01;0; -1.5728872E-02;  3.9450617E+04;  0.0000000E+00;  1.1262359E+01;  4.0000000E+04;  0.0000000E+00;  4.0021523E+04; -1.5124978E-02;  0.0000000E+00; -6.0389383E-04;  1.8853523E+04;
  1.9119225E-01;  9.9999998E-03; -2.8006485E-01;3607; -2.0720463E-03;  0.0000000E+00; -2.5431206E-04;  9.9614313E+02;  1.0000000E-01; -3.1953665E+03;3;  1.6116154E+01;  0.0000000E+00; -2.6277339E+00;0; -1.0251442E-02;  3.9674730E+04;  0.0000000E+00;  1.6659828E+01;  4.0000000E+04;  0.0000000E+00;  4.0015848E+04; -1.1740555E-02;  0.0000000E+00;  1.4891136E-03;  2.6928951E+04;
  2.0168492E-01;  9.9999998E-03; -2.9991806E-01;3666; -5.0770487E-03;  0.0000000E+00; -4.9177348E-04;  9.9104327E+02;  1.0000000E-01; -7.4204814E+03;3;  1.7260864E+01;  0.0000000E+00; -5.1132278E+00;0; -2.9058535E-02;  3.9211840E+04;  0.0000000E+00; -2.9454806E-01;  4.0000000E+04;  0.0000000E+00;  4.0066859E+04; -3.1254571E-02;  0.0000000E+00;  2.1960360E-03;  9.6801113E+03;
  2.0156066E-01;  9.9999998E-03; -2.9000351E-01;3667; -3.3537922E-03;  0.0000000E+00; -3.1893625E-05;  9.9360193E+02;  1.0000000E-01; -5.3006895E+03;3;  1.0510098E+01;  0.0000000E+00;  1.8885379E+00;0; -1.7766958E-02;  3.9450375E+04;  0.0000000E+00;  9.7757769E-01;  4.0000000E+04;  0.0000000E+00;  4.0034285E+04; -1.7874070E-02;  0.0000000E+00;  1.0711221E-04;  5.7128184E+03;
  2.0119828E-01;  9.9999998E-03; -2.8010863E-01;3668; -2.1230464E-03;  0.0000000E+00; -2.6283084E-05;  9.9626440E+02;  1.0000000E-01; -3.0948755E+03;3;  6.4863586E+00;  0.0000000E+00;  5.4936447E+00;0; -9.9080419E-03;  3.9697441E+04;  0.0000000E+00;  1.0176714E+01;  4.0000000E+04;  0.0000000E+00;  4.0001895E+04; -1.0525584E-02;  0.0000000E+00;  6.1754225E-04;  1.7445131E+04;
  2.1148840E-01;  9.9999998E-03; -2.9998788E-01;3727; -4.7646104E-03;  0.0000000E+00; -5.2098825E-04;  9.9242352E+02;  1.0000000E-01; -6.2769585E+03;3; -1.0702301E-02;  0.0000000E+00; -1.0343261E+00;0; -2.4506345E-02;  3.9334191E+04;  0.0000000E+00; -3.0895059E+00;  4.0000000E+04;  0.0000000E+00;  4.0052770E+04; -2.7591435E-02;  0.0000000E+00;  3.0850896E-03;  1.0745921E+04;
  2.1142052E-01;  9.9999998E-03; -2.9003552E-01;3728; -3.4704022E-03;  0.0000000E+00; -1.9555124E-04;  9.9458502E+02;  1.0000000E-01; -4.4861943E+03;3; -1.8001790E+00;  0.0000000E+00;  7.8341591E-01;0; -1.5127365E-02;  3.9533512E+04;  0.0000000E+00; -2.4792516E+00;  4.0000000E+04;  0.0000000E+00;  4.0028207E+04; -1.6314961E-02;  0.0000000E+00;  1.1875953E-03;  5.2514170E+03;
  2.1115942E-01;  9.9999998E-03; -2.8010780E-01;3729; -2.1281717E-03;  0.0000000E+00; -2.1164800E-05;  9.9676990E+02;  1.0000000E-01; -2.6760725E+03;3; -1.5405720E+00;  0.0000000E+00;  6.2348418E+00;0; -8.0303354E-03;  3.9742215E+04;  0.0000000E+00;  6.0119143E+00;  4.0000000E+04;  0.0000000E+00;  3.9997777E+04; -8.5529862E-03;  0.0000000E+00;  5.2265084E-04;  1.0952732E+04;
  2.2137819E-01;  9.9999998E-03; -3.0001509E-01;3788; -4.4970331E-03;  0.0000000E+00; -6.1478344E-04;  9.9379510E+02;  1.0000000E-01; -5.1406445E+03;3; -1.3415529E+01;  0.0000000E+00;  2.2596793E+00;0; -1.8221650E-02;  3.9455949E+04;  0.0000000E+00; -5.4859090E+00;  4.0000000E+04;  0.0000000E+00;  4.0041117E+04; -2.2900175E-02;  0.0000000E+00;  4.6785260E-03;  1.2729401E+04;
  2.2132592E-01;  9.9999998E-03; -2.9004797E-01;3789; -3.4342317E-03;  0.0000000E+00; -3.0798718E-04;  9.9560858E+02;  1.0000000E-01; -3.6382180E+03;3; -1.1519539E+01;  0.0000000E+00;  1.5220829E+00;0; -1.1093105E-02;  3.9622988E+04;  0.0000000E+00; -4.7058983E+00;  4.0000000E+04;  0.0000000E+00;  4.0021676E+04; -1.3398263E-02;  0.0000000E+00;  2.3051577E-03;  7.6003433E+03;
  2.2114311E-01;  9.9999998E-03; -2.8009248E-01;3790; -2.1955098E-03;  0.0000000E+00; -7.6762648E-05;  9.9734967E+02;  1.0000000E-01; -2.1957405E+03;3; -8.0147429E+00;  0.0000000E+00;  4.1672063E+00;0; -5.5789072E-03;  3.9789258E+04;  0.0000000E+00;  2.3156095E+00;  4.0000000E+04;  0.0000000E+00;  3.9998812E+04; -6.3926522E-03;  0.0000000E+00;  8.1374514E-04;  5.1022979E+03;
  2.3130862E-01;  9.9999998E-03; -3.0002356E-01;3849; -4.2152423E-03;  0.0000000E+00; -5.9642573E-04;  9.9514301E+02;  1.0000000E-01; -4.0239355E+03;3; -2.1565914E+01;  0.0000000E+00;  4.4260120E+00;0; -1.2149075E-02;  3.9576480E+04;  0.0000000E+00; -7.3913608E+00;  4.0000000E+04;  0.0000000E+00;  4.0030473E+04; -1.7612275E-02;  0.0000000E+00;  5.4631997E-03;  1.3876882E+04;
  2.3125821E-01;  9.9999998E-03; -2.9004762E-01;3850; -3.2915568E-03;  0.0000000E+00; -3.0417115E-04;  9.9663104E+02;  1.0000000E-01; -2.7911309E+03;3; -1.7409685E+01;  0.0000000E+00;  2.3723466E+00;0; -7.1133752E-03;  3.9713738E+04;  0.0000000E+00; -6.1315346E+00;  4.0000000E+04;  0.0000000E+00;  4.0015109E+04; -9.7621884E-03;  0.0000000E+00;  2.6488132E-03;  9.0813848E+03;
  2.3111080E-01;  9.9999998E-03; -2.8007662E-01;3851; -2.1527836E-03;  0.0000000E+00; -9.5175725E-05;  9.9799652E+02;  1.0000000E-01; -1.6598542E+03;3; -1.2203309E+01;  0.0000000E+00;  2.7408943E+00;0; -2.9170050E-03;  3.9844277E+04;  0.0000000E+00;  6.8741180E-02;  4.0000000E+04;  0.0000000E+00;  3.9997961E+04; -3.8369191E-03;  0.0000000E+00;  9.1991416E-04;  1.5936736E+03;
  2.4124916E-01;  9.9999998E-03; -3.0002519E-01;3910; -3.7974494E-03;  0.0000000E+00; -4.8252637E-04;  9.9644165E+02;  1.0000000E-01; -2.9480154E+03;3; -2.4946426E+01;  0.0000000E+00;  5.4029222E+00;0; -6.7602815E-03;  3.9692434E+04;  0.0000000E+00; -8.3376160E+00;  4.0000000E+04;  0.0000000E+00;  4.0021445E+04; -1.1867346E-02;  0.0000000E+00;  5.1070647E-03;  1.3574200E+04;
  2.4118824E-01;  9.9999998E-03; -2.9004294E-01;3911; -2.8920316E-03;  0.0000000E+00; -1.5443478E-04;  9.9763867E+02;  1.0000000E-01; -1.9563397E+03;3; -1.9442766E+01;  0.0000000E+00;  3.2159772E+00;0; -4.0329779E-03;  3.9803809E+04;  0.0000000E+00; -6.1534595E+00;  4.0000000E+04;  0.0000000E+00;  4.0008719E+04; -5.4425187E-03;  0.0000000E+00;  1.4095407E-03;  8.4639482E+03;
  2.4106243E-01;  9.9999998E-03; -2.8006119E-01;3912; -1.9816931E-03;  0.0000000E+00; -9.5826996E-05;  9.9865845E+02;  1.0000000E-01; -1.1114747E+03;3; -1.3987550E+01;  0.0000000E+00;  1.5791458E+00;0; -2.4891802E-04;  3.9900793E+04;  0.0000000E+00; -8.9314598E-01;  4.0000000E+04;  0.0000000E+00;  3.9996555E+04; -1.1679223E-03;  0.0000000E+00;  9.1900426E-04;  2.7864673E+02;
  2.5118273E-01;  9.9999998E-03; -3.0002514E-01;3971; -3.1176619E-03;  0.0000000E+00; -2.3480918E-04;  9.9764404E+02;  1.0000000E-01; -1.9518461E+03;3; -2.4583187E+01;  0.0000000E+00;  5.4958010E+00;0; -3.1811728E-03;  3.9799828E+04;  0.0000000E+00; -7.9626589E+00;  4.0000000E+04;  0.0000000E+00;  4.0012902E+04; -5.8895596E-03;  0.0000000E+00;  2.7083869E-03;  1.1671541E+04;
  2.5110850E-01;  9.9999998E-03; -2.9003739E-01;3972; -2.2717814E-03;  0.0000000E+00; -2.0010109E-05;  9.9855371E+02;  1.0000000E-01; -1.1982377E+03;3; -1.8878761E+01;  0.0000000E+00;  3.2519634E+00;0; -1.1282163E-03;  3.9885852E+04;  0.0000000E+00; -4.9986720E+00;  4.0000000E+04;  0.0000000E+00;  4.0003488E+04; -1.1733137E-03;  0.0000000E+00;  4.5097455E-05;  6.3030557E+03;
  2.5099418E-01;  9.9999998E-03; -2.8004777E-01;3973; -1.7695508E-03;  0.0000000E+00; -1.0025503E-04;  9.9926227E+02;  1.0000000E-01; -6.1119257E+02;3; -1.3892144E+01;  0.0000000E+00;  4.5175472E-01;0;  2.1591973E-03;  3.9953043E+04;  0.0000000E+00; -6.8431377E-01;  4.0000000E+04;  0.0000000E+00;  3.9995992E+04;  1.1504942E-03;  0.0000000E+00;  1.0087030E-03;  5.5221863E+02;
  2.6109952E-01;  9.9999998E-03; -3.0002475E-01;4032; -2.1427621E-03;  0.0000000E+00;  3.8838956E-05;  9.9868243E+02;  1.0000000E-01; -1.0915741E+03;3; -2.1892832E+01;  0.0000000E+00;  4.8612223E+00;0; -8.5639872E-04;  3.9894270E+04;  0.0000000E+00; -6.4253392E+00;  4.0000000E+04;  0.0000000E+00;  4.0005902E+04; -2.9635476E-04;  0.0000000E+00; -5.6004396E-04;  8.5681855E+03;
  2.6101321E-01;  9.9999998E-03; -2.9003200E-01;4033; -1.6777063E-03;  0.0000000E+00; -6.4756905E-06;  9.9932477E+02;  1.0000000E-01; -5.5944098E+02;3; -1.6814505E+01;  0.0000000E+00;  2.2794378E+00;0;  2.1402000E-03;  3.9955125E+04;  0.0000000E+00; -3.1656616E+00;  4.0000000E+04;  0.0000000E+00;  3.9999098E+04;  2.0458957E-03;  0.0000000E+00;  9.4304356E-05;  3.4446267E+03;
  2.6090989E-01;  9.9999998E-03; -2.8003651E-01;4034; -1.6626861E-03;  0.0000000E+00; -6.5227439E-05;  9.9975281E+02;  1.0000000E-01; -2.0478433E+02;3; -1.2637520E+01;  0.0000000E+00; -6.2796086E-01;0;  3.5267277E-03;  3.9995574E+04;  0.0000000E+00; -3.1966818E-03;  4.0000000E+04;  0.0000000E+00;  3.9995402E+04;  2.7744444E-03;  0.0000000E+00;  7.5228332E-04;  1.2830198E+03;
  2.7098921E-01;  9.9999998E-03; -3.0002400E-01;4093; -1.4047284E-03;  0.0000000E+00;  8.0508857E-05;  9.9952411E+02;  1.0000000E-01; -3.9426047E+02;3; -1.8533066E+01;  0.0000000E+00;  3.2719679E+00;0;  2.4485448E-03;  3.9971957E+04;  0.0000000E+00; -4.1398420E+00;  4.0000000E+04;  0.0000000E+00;  3.9999805E+04;  3.1896983E-03;  0.0000000E+00; -7.4115361E-04;  4.9057485E+03;
  2.7089587E-01;  9.9999998E-03; -2.9002708E-01;4094; -1.4170189E-03;  0.0000000E+00;  1.6923836E-05;  9.9991229E+02;  1.0000000E-01; -7.2639923E+01;3; -1.4283492E+01;  0.0000000E+00;  8.7649012E-01;0;  3.8949279E-03;  4.0008328E+04;  0.0000000E+00; -1.1081469E+00;  4.0000000E+04;  0.0000000E+00;  3.9996418E+04;  3.7857457E-03;  0.0000000E+00;  1.0918226E-04;  6.9725787E+02;
  2.7081332E-01;  9.9999998E-03; -2.8002757E-01;4095; -1.6582274E-03;  0.0000000E+00; -1.0586182E-05;  1.0000898E+03;  1.0000000E-01;  7.4467033E+01;3; -1.0565032E+01;  0.0000000E+00; -1.3850262E+00;0;  4.1541588E-03;  4.0024695E+04;  0.0000000E+00;  6.9878578E-01;  4.0000000E+04;  0.0000000E+00;  3.9995664E+04;  3.8274000E-03;  0.0000000E+00;  3.2675866E-04;  2.0184991E+03;
  2.8085056E-01;  9.9999998E-03; -3.0002257E-01;4154; -1.1474023E-03;  0.0000000E+00;  1.0682423E-04;  1.0001326E+03;  1.0000000E-01;  1.0982405E+02;3; -1.4962083E+01;  0.0000000E+00;  1.4743426E+00;0;  4.1339770E-03;  4.0028801E+04;  0.0000000E+00; -1.9950665E+00;  4.0000000E+04;  0.0000000E+00;  3.9996008E+04;  4.7371034E-03;  0.0000000E+00; -6.0312648E-04;  1.9440221E+03;
  2.8077519E-01;  9.9999998E-03; -2.9002258E-01;4155; -1.4346435E-03;  0.0000000E+00;  8.6891683E-05;  1.0002712E+03;  1.0000000E-01;  2.2468500E+02;3; -1.1223234E+01;  0.0000000E+00; -2.9383531E-01;0;  4.1901469E-03;  4.0040926E+04;  0.0000000E+00;  8.2771920E-02;  4.0000000E+04;  0.0000000E+00;  3.9995320E+04;  4.6351952E-03;  0.0000000E+00; -4.4504809E-04;  1.1230071E+03;
  2.8071678E-01;  9.9999998E-03; -2.8002083E-01;4156; -1.7292433E-03;  0.0000000E+00;  6.3112166E-05;  1.0002550E+03;  1.0000000E-01;  2.1125328E+02;3; -8.0414095E+00;  0.0000000E+00; -1.6825674E+00;0;  4.2245579E-03;  4.0038527E+04;  0.0000000E+00;  1.0020272E+00;  4.0000000E+04;  0.0000000E+00;  3.9996324E+04;  4.4985032E-03;  0.0000000E+00; -2.7394545E-04;  2.1686836E+03;
  2.9073885E-01;  9.9999998E-03; -3.0002019E-01;4215; -1.3412002E-03;  0.0000000E+00;  2.1411981E-04;  1.0004292E+03;  1.0000000E-01;  3.5554550E+02;3; -1.1004213E+01;  0.0000000E+00;  1.2495659E-01;0;  3.5709376E-03;  4.0056652E+04;  0.0000000E+00; -1.7425503E+00;  4.0000000E+04;  0.0000000E+00;  3.9995219E+04;  5.2491492E-03;  0.0000000E+00; -1.6782116E-03;  1.8698263E+03;
  2.9068941E-01;  9.9999998E-03; -2.9001874E-01;4216; -1.6138498E-03;  0.0000000E+00;  1.8750735E-04;  1.0003862E+03;  1.0000000E-01;  3.1989218E+02;3; -7.9402618E+00;  0.0000000E+00; -8.7858444E-01;0;  3.7173720E-03;  4.0051203E+04;  0.0000000E+00; -2.0339224E-01;  4.0000000E+04;  0.0000000E+00;  3.9996109E+04;  5.1134126E-03;  0.0000000E+00; -1.3960407E-03;  6.2101123E+02;
  2.9064143E-01;  9.9999998E-03; -2.8001615E-01;4217; -1.8172816E-03;  0.0000000E+00;  1.5014659E-04;  1.0002589E+03;  1.0000000E-01;  2.1451245E+02;3; -5.4628735E+00;  0.0000000E+00; -1.5585424E+00;0;  3.9838171E-03;  4.0038207E+04;  0.0000000E+00;  6.2412083E-01;  4.0000000E+04;  0.0000000E+00;  3.9997777E+04;  4.9636425E-03;  0.0000000E+00; -9.7982539E-04;  1.3862224E+03;
  3.0071574E-01;  9.9999998E-03; -3.0001789E-01;4276; -1.5944770E-03;  0.0000000E+00;  3.1424101E-04;  1.0004460E+03;  1.0000000E-01;  3.6947104E+02;3; -7.1092920E+00;  0.0000000E+00; -4.3592545E-01;0;  3.0949232E-03;  4.0058309E+04;  0.0000000E+00; -2.9930813E+00;  4.0000000E+04;  0.0000000E+00;  3.9995809E+04;  5.6729591E-03;  0.0000000E+00; -2.5780359E-03;  3.8230664E+03;
  3.0067170E-01;  9.9999998E-03; -2.9001603E-01;4277; -1.7435857E-03;  0.0000000E+00;  2.7475067E-04;  1.0003257E+03;  1.0000000E-01;  2.6991830E+02;3; -4.8959632E+00;  0.0000000E+00; -9.1359186E-01;0;  3.4698963E-03;  4.0045277E+04;  0.0000000E+00; -1.3382542E+00;  4.0000000E+04;  0.0000000E+00;  3.9997094E+04;  5.5401614E-03;  0.0000000E+00; -2.0702651E-03;  1.5860883E+03;
  3.0062693E-01;  9.9999998E-03; -2.8001338E-01;4278; -1.8760846E-03;  0.0000000E+00;  2.3926681E-04;  1.0001536E+03;  1.0000000E-01;  1.2730504E+02;3; -3.1832242E+00;  0.0000000E+00; -1.1904078E+00;0;  3.6733279E-03;  4.0028305E+04;  0.0000000E+00; -3.4383085E-01;  4.0000000E+04;  0.0000000E+00;  3.9999129E+04;  5.3081773E-03;  0.0000000E+00; -1.6348495E-03;  2.4966714E+02;
  3.1076837E-01;  9.9999998E-03; -3.0001634E-01;4337; -1.6599223E-03;  0.0000000E+00;  3.9577959E-04;  1.0003278E+03;  1.0000000E-01;  2.7159726E+02;3; -3.8194320E+00;  0.0000000E+00; -4.7654939E-01;0;  3.0338964E-03;  4.0047043E+04;  0.0000000E+00; -3.6658247E+00;  4.0000000E+04;  0.0000000E+00;  3.9997105E+04;  6.1359475E-03;  0.0000000E+00; -3.1020511E-03;  4.9527402E+03;
  3.1070709E-01;  9.9999998E-03; -2.9001459E-01;4338; -1.7649080E-03;  0.0000000E+00;  3.5962308E-04;  1.0001839E+03;  1.0000000E-01;  1.5239075E+02;3; -2.4577918E+00;  0.0000000E+00; -6.8036169E-01;0;  3.2564409E-03;  4.0032078E+04;  0.0000000E+00; -1.9932690E+00;  4.0000000E+04;  0.0000000E+00;  3.9998766E+04;  5.8884774E-03;  0.0000000E+00; -2.6320366E-03;  2.6334143E+03;
  3.1065083E-01;  9.9999998E-03; -2.8001237E-01;4339; -1.8674062E-03;  0.0000000E+00;  3.2542890E-04;  1.0000157E+03;  1.0000000E-01;  1.3036669E+01;3; -1.4271591E+00;  0.0000000E+00; -7.6552218E-01;0;  3.3835541E-03;  4.0015148E+04;  0.0000000E+00; -9.0584117E-01;  4.0000000E+04;  0.0000000E+00;  4.0000484E+04;  5.5484148E-03;  0.0000000E+00; -2.1648607E-03;  1.1309208E+03;
  3.2069048E-01;  9.9999998E-03; -2.8001279E-01;4400; -1.8046482E-03;  0.0000000E+00;  4.0794860E-04;  9.9989850E+02;  1.0000000E-01; -8.4096390E+01;3; -2.3194490E-01;  0.0000000E+00; -4.2247975E-01;0;  3.0865171E-03;  4.0003383E+04;  0.0000000E+00; -8.7554806E-01;  4.0000000E+04;  0.0000000E+00;  4.0001375E+04;  5.6586131E-03;  0.0000000E+00; -2.5720960E-03;  1.1771583E+03;
  3.2073024E-01;  9.9999998E-03; -2.9001448E-01;4399; -1.6910419E-03;  0.0000000E+00;  4.4543526E-04;  1.0000504E+03;  1.0000000E-01;  4.1776596E+01;3; -7.7676976E-01;  0.0000000E+00; -4.0474549E-01;0;  2.9293958E-03;  4.0018793E+04;  0.0000000E+00; -1.6580992E+00;  4.0000000E+04;  0.0000000E+00;  3.9999766E+04;  6.0740463E-03;  0.0000000E+00; -3.1446505E-03;  2.2533823E+03;
  3.2076919E-01;  9.9999998E-03; -3.0001593E-01;4398; -1.5607995E-03;  0.0000000E+00;  4.8792575E-04;  1.0001974E+03;  1.0000000E-01;  1.6355093E+02;3; -1.4920580E+00;  0.0000000E+00; -3.2647246E-01;0;  2.6673458E-03;  4.0033934E+04;  0.0000000E+00; -2.7068646E+00;  4.0000000E+04;  0.0000000E+00;  3.9998277E+04;  6.4235921E-03;  0.0000000E+00; -3.7562463E-03;  3.7197593E+03;
  3.3074898E-01;  9.9999998E-03; -3.0001619E-01;4459; -1.3149773E-03;  0.0000000E+00;  5.5056100E-04;  1.0000581E+03;  1.0000000E-01;  4.8097404E+01;3;  5.9620142E-02;  0.0000000E+00; -1.8980816E-01;0;  2.5591520E-03;  4.0019285E+04;  0.0000000E+00; -1.5939348E+00;  4.0000000E+04;  0.0000000E+00;  3.9999367E+04;  6.4359480E-03;  0.0000000E+00; -3.8767960E-03;  2.2093770E+03;
  3.3072585E-01;  9.9999998E-03; -2.9001525E-01;4460; -1.5053409E-03;  0.0000000E+00;  5.1719433E-04;  9.9993683E+02;  1.0000000E-01; -5.2344200E+01;3;  3.3497003E-01;  0.0000000E+00; -2.0610702E-01;0;  2.6605518E-03;  4.0006758E+04;  0.0000000E+00; -9.7741944E-01;  4.0000000E+04;  0.0000000E+00;  4.0000664E+04;  6.0516484E-03;  0.0000000E+00; -3.3910966E-03;  1.3466891E+03;
  3.3070579E-01;  9.9999998E-03; -2.8001431E-01;4461; -1.6731396E-03;  0.0000000E+00;  4.7902038E-04;  9.9982281E+02;  1.0000000E-01; -1.4681067E+02;3;  5.2919948E-01;  0.0000000E+00; -1.9615409E-01;0;  2.8534515E-03;  3.9994984E+04;  0.0000000E+00; -4.6826079E-01;  4.0000000E+04;  0.0000000E+00;  4.0001730E+04;  5.6178924E-03;  0.0000000E+00; -2.7644408E-03;  6.7578088E+02;
  3.4072438E-01;  9.9999998E-03; -3.0001697E-01;4520; -9.4710360E-04;  0.0000000E+00;  5.3467200E-04;  9.9992603E+02;  1.0000000E-01; -6.1282219E+01;3;  9.9410868E-01;  0.0000000E+00; -1.6624500E-01;0;  3.5082304E-03;  4.0004984E+04;  0.0000000E+00; -7.9621863E-01;  4.0000000E+04;  0.0000000E+00;  4.0000516E+04;  6.1566378E-03;  0.0000000E+00; -2.6484074E-03;  1.1113026E+03;
  3.4072241E-01;  9.9999998E-03; -2.9001662E-01;4521; -1.2150948E-03;  0.0000000E+00;  5.3975842E-04;  9.9984631E+02;  1.0000000E-01; -1.2730504E+02;3;  1.0303379E+00;  0.0000000E+00; -1.3782594E-01;0;  2.9694273E-03;  3.9996199E+04;  0.0000000E+00; -4.3501464E-01;  4.0000000E+04;  0.0000000E+00;  4.0001383E+04;  5.8028828E-03;  0.0000000E+00; -2.8334556E-03;  6.2479114E+02;
  3.4073499E-01;  9.9999998E-03; -2.8001639E-01;4522; -1.4627068E-03;  0.0000000E+00;  5.2840915E-04;  9.9977301E+02;  1.0000000E-01; -1.8804407E+02;3;  1.0149739E+00;  0.0000000E+00; -1.0195903E-01;0;  2.7775890E-03;  3.9988934E+04;  0.0000000E+00; -1.0775207E-01;  4.0000000E+04;  0.0000000E+00;  4.0002125E+04;  5.4080812E-03;  0.0000000E+00; -2.6304922E-03;  3.1432285E+02;
  3.5067618E-01;  9.9999998E-03; -3.0001786E-01;4581; -6.6661194E-04;  0.0000000E+00;  4.8213187E-04;  9.9979895E+02;  1.0000000E-01; -1.6656319E+02;3;  1.3273094E+00;  0.0000000E+00; -1.6915493E-01;0;  4.8615676E-03;  3.9991344E+04;  0.0000000E+00; -3.6528128E-01;  4.0000000E+04;  0.0000000E+00;  4.0001398E+04;  5.6322506E-03;  0.0000000E+00; -7.7068299E-04;  5.4184753E+02;
  3.5070366E-01;  9.9999998E-03; -2.9001811E-01;4582; -9.4458362E-04;  0.0000000E+00;  4.9559725E-04;  9.9976630E+02;  1.0000000E-01; -1.9362416E+02;3;  1.3443602E+00;  0.0000000E+00; -1.6252553E-01;0;  4.1542142E-03;  3.9987059E+04;  0.0000000E+00; -1.3047761E-01;  4.0000000E+04;  0.0000000E+00;  4.0001941E+04;  5.3494051E-03;  0.0000000E+00; -1.1951909E-03;  3.0355652E+02;
  3.5075542E-01;  9.9999998E-03; -2.8001857E-01;4583; -1.1988238E-03;  0.0000000E+00;  4.9213518E-04;  9.9974426E+02;  1.0000000E-01; -2.1189525E+02;3;  1.3249508E+00;  0.0000000E+00; -1.4038463E-01;0;  3.7455412E-03;  3.9984242E+04;  0.0000000E+00;  8.5003041E-02;  4.0000000E+04;  0.0000000E+00;  4.0002410E+04;  5.0317524E-03;  0.0000000E+00; -1.2862112E-03;  3.2292621E+02;
  3.6063129E-01;  9.9999998E-03; -3.0001864E-01;4642; -5.1378371E-04;  0.0000000E+00;  4.7390480E-04;  9.9968219E+02;  1.0000000E-01; -2.6330121E+02;3;  1.4098703E+00;  0.0000000E+00; -1.6217306E-01;0;  5.3099259E-03;  3.9978254E+04;  0.0000000E+00; -2.1574631E-01;  4.0000000E+04;  0.0000000E+00;  4.0002227E+04;  4.9564508E-03;  0.0000000E+00;  3.5347507E-04;  4.2765341E+02;
  3.6068484E-01;  9.9999998E-03; -2.9001930E-01;4643; -7.9972512E-04;  0.0000000E+00;  4.8018471E-04;  9.9968756E+02;  1.0000000E-01; -2.5885687E+02;3;  1.4161620E+00;  0.0000000E+00; -1.6977264E-01;0;  4.7436487E-03;  3.9977980E+04;  0.0000000E+00; -4.3406844E-02;  4.0000000E+04;  0.0000000E+00;  4.0002520E+04;  4.7557238E-03;  0.0000000E+00; -1.2075029E-05;  3.2836850E+02;
  3.6075133E-01;  9.9999998E-03; -2.8002030E-01;4644; -1.0376844E-03;  0.0000000E+00;  4.6264095E-04;  9.9970911E+02;  1.0000000E-01; -2.4098083E+02;3;  1.4091715E+00;  0.0000000E+00; -1.6498779E-01;0;  4.4938899E-03;  3.9979027E+04;  0.0000000E+00;  1.1288886E-01;  4.0000000E+04;  0.0000000E+00;  4.0002309E+04;  4.5295809E-03;  0.0000000E+00; -3.5691195E-05;  3.6252087E+02;
  3.7060741E-01;  9.9999998E-03; -3.0001882E-01;4703; -4.5820084E-04;  0.0000000E+00;  5.0581340E-04;  9.9955762E+02;  1.0000000E-01; -3.6650815E+02;3;  1.4344873E+00;  0.0000000E+00; -1.7411946E-01;0;  5.0286842E-03;  3.9964969E+04;  0.0000000E+00; -1.9611457E-01;  4.0000000E+04;  0.0000000E+00;  4.0003316E+04;  4.2438470E-03;  0.0000000E+00;  7.8483729E-04;  5.3086169E+02;
  3.7066928E-01;  9.9999998E-03; -2.9001987E-01;4704; -7.4228580E-04;  0.0000000E+00;  5.0470536E-04;  9.9959949E+02;  1.0000000E-01; -3.3179309E+02;3;  1.4405723E+00;  0.0000000E+00; -1.8505326E-01;0;  4.6374351E-03;  3.9967930E+04;  0.0000000E+00; -6.3155614E-02;  4.0000000E+04;  0.0000000E+00;  4.0003250E+04;  4.1231159E-03;  0.0000000E+00;  5.1431911E-04;  4.3516077E+02;
  3.7073407E-01;  9.9999998E-03; -2.8002116E-01;4705; -9.6927985E-04;  0.0000000E+00;  4.7735558E-04;  9.9965283E+02;  1.0000000E-01; -2.8764618E+02;3;  1.4357413E+00;  0.0000000E+00; -1.8414779E-01;0;  4.5525078E-03;  3.9972445E+04;  0.0000000E+00;  5.8464654E-02;  4.0000000E+04;  0.0000000E+00;  4.0002777E+04;  3.9854911E-03;  0.0000000E+00;  5.6701654E-04;  3.9563849E+02;
  3.8061619E-01;  9.9999998E-03; -3.0001840E-01;4764; -4.7549704E-04;  0.0000000E+00;  5.6820444E-04;  9.9942993E+02;  1.0000000E-01; -4.7228293E+02;3;  1.4555246E+00;  0.0000000E+00; -1.8977687E-01;0;  4.3600020E-03;  3.9951512E+04;  0.0000000E+00; -1.9967468E-01;  4.0000000E+04;  0.0000000E+00;  4.0004672E+04;  3.6461975E-03;  0.0000000E+00;  7.1380439E-04;  6.8622009E+02;
  3.8067529E-01;  9.9999998E-03; -2.9001966E-01;4765; -7.4464688E-04;  0.0000000E+00;  5.6118181E-04;  9.9949573E+02;  1.0000000E-01; -4.1776596E+02;3;  1.4577731E+00;  0.0000000E+00; -1.9853847E-01;0;  4.1251318E-03;  3.9956984E+04;  0.0000000E+00; -1.0384145E-01;  4.0000000E+04;  0.0000000E+00;  4.0004027E+04;  3.5947193E-03;  0.0000000E+00;  5.3041248E-04;  5.8196783E+02;
  3.8072959E-01;  9.9999998E-03; -2.8002110E-01;4766; -9.5756323E-04;  0.0000000E+00;  5.2712188E-04;  9.9957422E+02;  1.0000000E-01; -3.5273077E+02;3;  1.4535240E+00;  0.0000000E+00; -2.0034128E-01;0;  4.1911937E-03;  3.9963734E+04;  0.0000000E+00; -1.2979890E-02;  4.0000000E+04;  0.0000000E+00;  4.0003652E+04;  3.5314565E-03;  0.0000000E+00;  6.5973750E-04;  4.9004840E+02;
  3.9064968E-01;  9.9999998E-03; -3.0001754E-01;4825; -5.4398453E-04;  0.0000000E+00;  6.5439404E-04;  9.9930566E+02;  1.0000000E-01; -5.7524298E+02;3;  1.4773960E+00;  0.0000000E+00; -2.0738684E-01;0;  3.6359585E-03;  3.9938562E+04;  0.0000000E+00; -1.8953596E-01;  4.0000000E+04;  0.0000000E+00;  4.0005852E+04;  3.3618086E-03;  0.0000000E+00;  2.7414988E-04;  8.4714575E+02;
  3.9070261E-01;  9.9999998E-03; -2.9001886E-01;4826; -7.8565418E-04;  0.0000000E+00;  6.3944131E-04;  9.9938599E+02;  1.0000000E-01; -5.0867697E+02;3;  1.4727623E+00;  0.0000000E+00; -2.0860270E-01;0;  3.5816631E-03;  3.9945328E+04;  0.0000000E+00; -1.3077670E-01;  4.0000000E+04;  0.0000000E+00;  4.0005230E+04;  3.3620875E-03;  0.0000000E+00;  2.1957558E-04;  7.4030243E+02;
  3.9074582E-01;  9.9999998E-03; -2.8002027E-01;4827; -9.8044251E-04;  0.0000000E+00;  5.9955643E-04;  9.9947858E+02;  1.0000000E-01; -4.3198779E+02;3;  1.4651521E+00;  0.0000000E+00; -2.0710307E-01;0;  3.7881592E-03;  3.9953445E+04;  0.0000000E+00; -7.2610267E-02;  4.0000000E+04;  0.0000000E+00;  4.0004902E+04;  3.3514604E-03;  0.0000000E+00;  4.3669879E-04;  6.3359070E+02;
  4.0067983E-01;  9.9999998E-03; -3.0001643E-01;4886; -6.4657954E-04;  0.0000000E+00;  7.6095585E-04;  9.9919446E+02;  1.0000000E-01; -6.6738855E+02;3;  1.4919419E+00;  0.0000000E+00; -2.1347462E-01;0;  3.1662805E-03;  3.9927426E+04;  0.0000000E+00; -1.7273417E-01;  4.0000000E+04;  0.0000000E+00;  4.0007141E+04;  3.6237137E-03;  0.0000000E+00; -4.5743320E-04;  9.9734265E+02;
  4.0072367E-01;  9.9999998E-03; -2.9001772E-01;4887; -8.5099856E-04;  0.0000000E+00;  7.3311204E-04;  9.9928351E+02;  1.0000000E-01; -5.9361285E+02;3;  1.4828421E+00;  0.0000000E+00; -2.1114105E-01;0;  3.3512153E-03;  3.9934992E+04;  0.0000000E+00; -1.4444681E-01;  4.0000000E+04;  0.0000000E+00;  4.0006355E+04;  3.6524530E-03;  0.0000000E+00; -3.0123760E-04;  8.8856744E+02;
  4.0075496E-01;  9.9999998E-03; -2.8001893E-01;4888; -1.0266756E-03;  0.0000000E+00;  6.8866182E-04;  9.9937946E+02;  1.0000000E-01; -5.1410889E+02;3;  1.4755790E+00;  0.0000000E+00; -2.1240114E-01;0;  3.6583755E-03;  3.9943527E+04;  0.0000000E+00; -1.1343968E-01;  4.0000000E+04;  0.0000000E+00;  4.0005734E+04;  3.6676037E-03;  0.0000000E+00; -9.2281762E-06;  7.8583704E+02;
  4.1069832E-01;  9.9999998E-03; -3.0001536E-01;4947; -7.5031159E-04;  0.0000000E+00;  8.6647668E-04;  9.9911438E+02;  1.0000000E-01; -7.3370764E+02;3;  1.4986408E+00;  0.0000000E+00; -2.1047585E-01;0;  3.5773823E-03;  3.9919191E+04;  0.0000000E+00; -1.5717424E-01;  4.0000000E+04;  0.0000000E+00;  4.0008078E+04;  4.6750349E-03;  0.0000000E+00; -1.0976525E-03;  1.1077695E+03;
  4.1074112E-01;  9.9999998E-03; -2.9001650E-01;4948; -9.2489383E-04;  0.0000000E+00;  8.3030097E-04;  9.9919958E+02;  1.0000000E-01; -6.6314172E+02;3;  1.4898394E+00;  0.0000000E+00; -2.0919257E-01;0;  3.8781425E-03;  3.9926703E+04;  0.0000000E+00; -1.5928434E-01;  4.0000000E+04;  0.0000000E+00;  4.0007359E+04;  4.7054519E-03;  0.0000000E+00; -8.2730944E-04;  1.0122947E+03;
  4.1077119E-01;  9.9999998E-03; -2.8001747E-01;4949; -1.0831840E-03;  0.0000000E+00;  7.8298809E-04;  9.9929767E+02;  1.0000000E-01; -5.8186011E+02;3;  1.4812281E+00;  0.0000000E+00; -2.0797211E-01;0;  4.2192861E-03;  3.9935379E+04;  0.0000000E+00; -1.5111509E-01;  4.0000000E+04;  0.0000000E+00;  4.0006535E+04;  4.7178385E-03;  0.0000000E+00; -4.9855240E-04;  9.1616547E+02;
  4.2071724E-01;  9.9999998E-03; -3.0001453E-01;5008; -8.4591151E-04;  0.0000000E+00;  9.6856232E-04;  9.9907770E+02;  1.0000000E-01; -7.6412653E+02;3;  1.5064867E+00;  0.0000000E+00; -2.0250899E-01;0;  5.1475614E-03;  3.9915430E+04;  0.0000000E+00; -1.1113369E-01;  4.0000000E+04;  0.0000000E+00;  4.0008535E+04;  6.7505790E-03;  0.0000000E+00; -1.6030178E-03;  1.1533159E+03;
  4.2076853E-01;  9.9999998E-03; -2.9001555E-01;5009; -9.9761982E-04;  0.0000000E+00;  9.2832639E-04;  9.9915930E+02;  1.0000000E-01; -6.9652350E+02;3;  1.4944450E+00;  0.0000000E+00; -1.9898134E-01;0;  5.4499097E-03;  3.9922668E+04;  0.0000000E+00; -1.5539134E-01;  4.0000000E+04;  0.0000000E+00;  4.0007871E+04;  6.7556738E-03;  0.0000000E+00; -1.3057640E-03;  1.0716909E+03;
  4.2080373E-01;  9.9999998E-03; -2.8001630E-01;5010; -1.1431484E-03;  0.0000000E+00;  8.8053377E-04;  9.9925256E+02;  1.0000000E-01; -6.1924176E+02;3;  1.4863859E+00;  0.0000000E+00; -1.9995016E-01;0;  5.7390183E-03;  3.9930805E+04;  0.0000000E+00; -1.7741920E-01;  4.0000000E+04;  0.0000000E+00;  4.0007148E+04;  6.7368424E-03;  0.0000000E+00; -9.9782436E-04;  9.9217859E+02;
  4.3075293E-01;  9.9999998E-03; -3.0001414E-01;5069; -9.2835177E-04;  0.0000000E+00;  1.0703657E-03;  9.9909595E+02;  1.0000000E-01; -7.4896649E+02;3;  1.5129147E+00;  0.0000000E+00; -1.9160411E-01;0;  8.0340318E-03;  3.9916691E+04;  0.0000000E+00; -1.4048675E-02;  4.0000000E+04;  0.0000000E+00;  4.0008199E+04;  1.0058792E-02;  0.0000000E+00; -2.0247605E-03;  1.1245094E+03;
  4.3080834E-01;  9.9999998E-03; -2.9001504E-01;5070; -1.0640628E-03;  0.0000000E+00;  1.0278812E-03;  9.9917206E+02;  1.0000000E-01; -6.8595593E+02;3;  1.5016875E+00;  0.0000000E+00; -1.9018757E-01;0;  8.2554976E-03;  3.9923473E+04;  0.0000000E+00; -1.1088362E-01;  4.0000000E+04;  0.0000000E+00;  4.0007785E+04;  1.0007871E-02;  0.0000000E+00; -1.7523734E-03;  1.0491465E+03;
  4.3084607E-01;  9.9999998E-03; -2.8001562E-01;5071; -1.2002912E-03;  0.0000000E+00;  9.7967952E-04;  9.9925580E+02;  1.0000000E-01; -6.1657513E+02;3;  1.4902214E+00;  0.0000000E+00; -1.8889304E-01;0;  8.4441332E-03;  3.9931070E+04;  0.0000000E+00; -1.7068493E-01;  4.0000000E+04;  0.0000000E+00;  4.0007316E+04;  9.9270549E-03;  0.0000000E+00; -1.4829218E-03;  9.9114929E+02;
  4.4081366E-01;  9.9999998E-03; -3.0001423E-01;5130; -9.9507009E-04;  0.0000000E+00;  1.1747965E-03;  9.9916901E+02;  1.0000000E-01; -6.8847437E+02;3;  1.5198027E+00;  0.0000000E+00; -1.7579369E-01;0;  1.2338260E-02;  3.9923520E+04;  0.0000000E+00;  1.1436640E-01;  4.0000000E+04;  0.0000000E+00;  4.0007750E+04;  1.4754480E-02;  0.0000000E+00; -2.4162191E-03;  1.0439272E+03;
  4.4086671E-01;  9.9999998E-03; -2.9001504E-01;5131; -1.1201735E-03;  0.0000000E+00;  1.1303575E-03;  9.9923688E+02;  1.0000000E-01; -6.3222900E+02;3;  1.5049623E+00;  0.0000000E+00; -1.7590819E-01;0;  1.2426016E-02;  3.9929480E+04;  0.0000000E+00; -3.2987256E-02;  4.0000000E+04;  0.0000000E+00;  4.0007117E+04;  1.4613224E-02;  0.0000000E+00; -2.1872080E-03;  9.5540814E+02;
  4.4090149E-01;  9.9999998E-03; -2.8001559E-01;5132; -1.2492833E-03;  0.0000000E+00;  1.0814301E-03;  9.9931604E+02;  1.0000000E-01; -5.6665063E+02;3;  1.4932489E+00;  0.0000000E+00; -1.7578781E-01;0;  1.2465780E-02;  3.9936602E+04;  0.0000000E+00; -1.3068695E-01;  4.0000000E+04;  0.0000000E+00;  4.0006695E+04;  1.4435956E-02;  0.0000000E+00; -1.9701764E-03;  9.0128326E+02;
  4.5090163E-01;  9.9999998E-03; -3.0001476E-01;5191; -1.0405228E-03;  0.0000000E+00;  1.2839792E-03;  9.9928577E+02;  1.0000000E-01; -5.9173633E+02;3;  1.5270194E+00;  0.0000000E+00; -1.5974991E-01;0;  1.8083978E-02;  3.9934531E+04;  0.0000000E+00;  2.4418820E-01;  4.0000000E+04;  0.0000000E+00;  4.0006305E+04;  2.0906417E-02;  0.0000000E+00; -2.8224383E-03;  9.4399634E+02;
  4.5094678E-01;  9.9999998E-03; -2.9001558E-01;5192; -1.1605234E-03;  0.0000000E+00;  1.2368803E-03;  9.9934869E+02;  1.0000000E-01; -5.3958966E+02;3;  1.5118181E+00;  0.0000000E+00; -1.6093443E-01;0;  1.8003363E-02;  3.9939926E+04;  0.0000000E+00;  5.9346557E-02;  4.0000000E+04;  0.0000000E+00;  4.0006016E+04;  2.0638946E-02;  0.0000000E+00; -2.6355824E-03;  8.1108459E+02;
  4.5097303E-01;  9.9999998E-03; -2.8001612E-01;5193; -1.2867441E-03;  0.0000000E+00;  1.1866353E-03;  9.9941772E+02;  1.0000000E-01; -4.8240610E+02;3;  1.4974744E+00;  0.0000000E+00; -1.6171092E-01;0;  1.7853782E-02;  3.9946184E+04;  0.0000000E+00; -6.9217555E-02;  4.0000000E+04;  0.0000000E+00;  4.0005605E+04;  2.0327276E-02;  0.0000000E+00; -2.4734936E-03;  7.5148505E+02;
  4.6095228E-01;  9.9999998E-03; -3.0001551E-01;5252; -1.0567880E-03;  0.0000000E+00;  1.4006889E-03;  9.9941571E+02;  1.0000000E-01; -4.8408508E+02;3;  1.5366831E+00;  0.0000000E+00; -1.4275344E-01;0;  2.5101861E-02;  3.9946879E+04;  0.0000000E+00;  3.5308430E-01;  4.0000000E+04;  0.0000000E+00;  4.0005164E+04;  2.8410701E-02;  0.0000000E+00; -3.3088394E-03;  8.6693274E+02;
  4.6099207E-01;  9.9999998E-03; -2.9001635E-01;5253; -1.1792495E-03;  0.0000000E+00;  1.3501350E-03;  9.9947552E+02;  1.0000000E-01; -4.3450623E+02;3;  1.5178946E+00;  0.0000000E+00; -1.4508976E-01;0;  2.4835592E-02;  3.9952012E+04;  0.0000000E+00;  1.5192892E-01;  4.0000000E+04;  0.0000000E+00;  4.0004875E+04;  2.7989134E-02;  0.0000000E+00; -3.1535428E-03;  6.7386383E+02;
  4.6101609E-01;  9.9999998E-03; -2.8001702E-01;5254; -1.3061536E-03;  0.0000000E+00;  1.2975467E-03;  9.9954077E+02;  1.0000000E-01; -3.8048306E+02;3;  1.5022107E+00;  0.0000000E+00; -1.4624117E-01;0;  2.4482777E-02;  3.9957398E+04;  0.0000000E+00;  4.0074256E-03;  4.0000000E+04;  0.0000000E+00;  4.0004113E+04;  2.7513197E-02;  0.0000000E+00; -3.0304187E-03;  5.7701782E+02;
  4.7091755E-01;  9.9999998E-03; -3.0001608E-01;5313; -1.0305006E-03;  0.0000000E+00;  1.5302402E-03;  9.9952271E+02;  1.0000000E-01; -3.9544559E+02;3;  1.5460519E+00;  0.0000000E+00; -1.2374488E-01;0;  3.3019405E-02;  3.9956879E+04;  0.0000000E+00;  3.9559603E-01;  4.0000000E+04;  0.0000000E+00;  4.0004348E+04;  3.7000045E-02;  0.0000000E+00; -3.9806417E-03;  8.0175305E+02;
  4.7095269E-01;  9.9999998E-03; -2.9001698E-01;5314; -1.1659529E-03;  0.0000000E+00;  1.4728587E-03;  9.9957800E+02;  1.0000000E-01; -3.4961972E+02;3;  1.5245634E+00;  0.0000000E+00; -1.2642315E-01;0;  3.2608308E-02;  3.9961742E+04;  0.0000000E+00;  2.0936258E-01;  4.0000000E+04;  0.0000000E+00;  4.0003723E+04;  3.6402490E-02;  0.0000000E+00; -3.7941805E-03;  5.8656653E+02;
  4.7097862E-01;  9.9999998E-03; -2.8001782E-01;5315; -1.2998591E-03;  0.0000000E+00;  1.4160422E-03;  9.9963989E+02;  1.0000000E-01; -2.9836191E+02;3;  1.5065037E+00;  0.0000000E+00; -1.3155772E-01;0;  3.2063033E-02;  3.9966848E+04;  0.0000000E+00;  6.3812487E-02;  4.0000000E+04;  0.0000000E+00;  4.0003418E+04;  3.5736617E-02;  0.0000000E+00; -3.6735847E-03;  4.5088077E+02;
  4.8083720E-01;  9.9999998E-03; -3.0001619E-01;5374; -9.4503339E-04;  0.0000000E+00;  1.6776089E-03;  9.9957794E+02;  1.0000147E-01; -3.4966910E+02;3;  1.5558990E+00;  0.0000000E+00; -1.0744631E-01;0;  4.1399315E-02;  3.9961016E+04;  0.0000000E+00;  3.4420586E-01;  4.0000000E+04;  0.0000000E+00;  4.0003941E+04;  4.6323892E-02;  0.0000000E+00; -4.9245758E-03;  7.1162640E+02;
  4.8086575E-01;  9.9999998E-03; -2.9001725E-01;5375; -1.1092402E-03;  0.0000000E+00;  1.6100869E-03;  9.9963257E+02;  1.0000147E-01; -3.0438644E+02;3;  1.5333513E+00;  0.0000000E+00; -1.0948116E-01;0;  4.0895056E-02;  3.9966121E+04;  0.0000000E+00;  2.0055392E-01;  4.0000000E+04;  0.0000000E+00;  4.0003344E+04;  4.5532364E-02;  0.0000000E+00; -4.6373080E-03;  5.2765472E+02;
  4.8088732E-01;  9.9999998E-03; -2.8001824E-01;5376; -1.2600566E-03;  0.0000000E+00;  1.5433955E-03;  9.9969507E+02;  1.0000148E-01; -2.5263481E+02;3;  1.5120801E+00;  0.0000000E+00; -1.1767863E-01;0;  4.0236309E-02;  3.9971297E+04;  0.0000000E+00;  8.0790676E-02;  4.0000000E+04;  0.0000000E+00;  4.0002711E+04;  4.4646710E-02;  0.0000000E+00; -4.4104015E-03;  3.8678027E+02;
  4.9082094E-01;  9.9999998E-03; -2.8001788E-01;5437; -1.1100419E-03;  0.0000000E+00;  1.6878027E-03;  9.9966522E+02;  1.0000204E-01; -2.7737485E+02;3;  1.5536952E+00;  0.0000000E+00; -1.0699786E-01;0;  4.8467822E-02;  3.9968355E+04;  0.0000000E+00;  4.3608494E-02;  4.0000000E+04;  0.0000000E+00;  4.0003055E+04;  5.3804763E-02;  0.0000000E+00; -5.3369412E-03;  4.2589322E+02;
  4.9080053E-01;  9.9999998E-03; -2.9001671E-01;5436; -8.9233974E-04;  0.0000000E+00;  1.7710506E-03;  9.9960089E+02;  1.0000199E-01; -3.3065729E+02;3;  1.5950745E+00;  0.0000000E+00; -9.8266266E-02;0;  4.9111106E-02;  3.9962598E+04;  0.0000000E+00;  1.2169953E-01;  4.0000000E+04;  0.0000000E+00;  4.0003863E+04;  5.4926209E-02;  0.0000000E+00; -5.8151041E-03;  5.4281384E+02;
  4.9078086E-01;  9.9999998E-03; -3.0001554E-01;5435; -6.4397865E-04;  0.0000000E+00;  1.8529149E-03;  9.9954150E+02;  1.0000207E-01; -3.7984109E+02;3;  1.6465492E+00;  0.0000000E+00; -9.0323202E-02;0;  4.9626444E-02;  3.9957391E+04;  0.0000000E+00;  2.0834021E-01;  4.0000000E+04;  0.0000000E+00;  4.0004500E+04;  5.5926714E-02;  0.0000000E+00; -6.3002720E-03;  6.7237299E+02;
  5.0086093E-01;  9.9999998E-03; -3.0001426E-01;5496;  5.7355524E-04;  0.0000000E+00;  2.0225181E-03;  9.9943176E+02;  1.0000388E-01; -4.7075208E+02;3;  2.0463946E+00;  0.0000000E+00; -8.6386397E-02;0;  5.7777189E-02;  3.9945973E+04;  0.0000000E+00;  5.9918173E-02;  4.0000000E+04;  0.0000000E+00;  4.0005938E+04;  6.5274209E-02;  0.0000000E+00; -7.4970201E-03;  7.9785284E+02;
  5.0086468E-01;  9.9999998E-03; -2.9001552E-01;5497;  2.1852678E-04;  0.0000000E+00;  1.9416566E-03;  9.9949707E+02;  1.0000371E-01; -4.1667953E+02;3;  1.9925622E+00;  0.0000000E+00; -8.8725522E-02;0;  5.6982085E-02;  3.9951668E+04;  0.0000000E+00;  1.5454737E-02;  4.0000000E+04;  0.0000000E+00;  4.0005219E+04;  6.4041182E-02;  0.0000000E+00; -7.0590968E-03;  6.9101062E+02;
  5.0087225E-01;  9.9999998E-03; -2.8001678E-01;5498; -1.8311286E-04;  0.0000000E+00;  1.8563155E-03;  9.9956610E+02;  1.0000388E-01; -3.5949597E+02;3;  1.9127090E+00;  0.0000000E+00; -9.8387331E-02;0;  5.6141496E-02;  3.9957949E+04;  0.0000000E+00; -2.6098769E-02;  4.0000000E+04;  0.0000000E+00;  4.0004527E+04;  6.2659390E-02;  0.0000000E+00; -6.5178950E-03;  5.8104419E+02;
  5.1083142E-01;  9.9999998E-03; -3.0001265E-01;5557;  2.1301643E-03;  0.0000000E+00;  2.1681830E-03;  9.9926483E+02;  1.0000626E-01; -6.0906915E+02;3;  2.4159946E+00;  0.0000000E+00; -5.3248540E-02;0;  6.5290846E-02;  3.9928688E+04;  0.0000000E+00; -3.4455862E-02;  4.0000000E+04;  0.0000000E+00;  4.0007641E+04;  7.3486097E-02;  0.0000000E+00; -8.1952531E-03;  1.0338407E+03;
  5.1082098E-01;  9.9999998E-03; -2.9001388E-01;5558;  1.8140064E-03;  0.0000000E+00;  2.0805297E-03;  9.9933405E+02;  1.0000617E-01; -5.5173743E+02;3;  2.3984385E+00;  0.0000000E+00; -6.4625464E-02;0;  6.4313523E-02;  3.9934852E+04;  0.0000000E+00; -5.6572337E-02;  4.0000000E+04;  0.0000000E+00;  4.0006949E+04;  7.2004385E-02;  0.0000000E+00; -7.6908623E-03;  9.2712024E+02;
  5.1082182E-01;  9.9999998E-03; -2.8001511E-01;5559;  1.4257857E-03;  0.0000000E+00;  1.9871725E-03;  9.9940991E+02;  1.0000617E-01; -4.8887503E+02;3;  2.3539882E+00;  0.0000000E+00; -7.5849563E-02;0;  6.3311212E-02;  3.9941855E+04;  0.0000000E+00; -7.6686151E-02;  4.0000000E+04;  0.0000000E+00;  4.0006008E+04;  7.0360914E-02;  0.0000000E+00; -7.0496998E-03;  8.1191272E+02;
  5.2079529E-01;  9.9999998E-03; -3.0001092E-01;5618;  3.4277386E-03;  0.0000000E+00;  2.3160365E-03;  9.9907178E+02;  1.0001039E-01; -7.6901526E+02;3;  2.6393132E+00;  0.0000000E+00; -3.7607187E-03;0;  7.1361184E-02;  3.9907625E+04;  0.0000000E+00; -8.7815009E-02;  4.0000000E+04;  0.0000000E+00;  4.0009434E+04;  8.0163836E-02;  0.0000000E+00; -8.8026505E-03;  1.2888262E+03;
  5.2077818E-01;  9.9999998E-03; -2.9001209E-01;5619;  3.1645249E-03;  0.0000000E+00;  2.2208991E-03;  9.9914465E+02;  1.0001048E-01; -7.0862189E+02;3;  2.6617744E+00;  0.0000000E+00; -2.0240484E-02;0;  7.0217535E-02;  3.9914379E+04;  0.0000000E+00; -9.7900584E-02;  4.0000000E+04;  0.0000000E+00;  4.0008688E+04;  7.8416377E-02;  0.0000000E+00; -8.1988424E-03;  1.1745259E+03;
  5.2077663E-01;  9.9999998E-03; -2.8001326E-01;5620;  2.8472270E-03;  0.0000000E+00;  2.1231410E-03;  9.9922467E+02;  1.0001054E-01; -6.4235217E+02;3;  2.6633744E+00;  0.0000000E+00; -3.8852174E-02;0;  6.9002680E-02;  3.9921801E+04;  0.0000000E+00; -1.0919491E-01;  4.0000000E+04;  0.0000000E+00;  4.0007621E+04;  7.6497994E-02;  0.0000000E+00; -7.4953153E-03;  1.0479972E+03;
  5.3080052E-01;  9.9999998E-03; -3.0000943E-01;5679;  4.4283974E-03;  0.0000000E+00;  2.4470091E-03;  9.9890564E+02;  1.0001730E-01; -9.0664093E+02;3;  2.7673905E+00;  0.0000000E+00;  2.5946956E-02;0;  7.6109856E-02;  3.9887223E+04;  0.0000000E+00; -1.0241713E-01;  4.0000000E+04;  0.0000000E+00;  4.0010969E+04;  8.5059799E-02;  0.0000000E+00; -8.9499457E-03;  1.4881552E+03;
  5.3077555E-01;  9.9999998E-03; -2.9001045E-01;5680;  4.1683256E-03;  0.0000000E+00;  2.3434740E-03;  9.9897614E+02;  1.0001743E-01; -8.4827222E+02;3;  2.8134015E+00;  0.0000000E+00;  1.1511187E-02;0;  7.4812643E-02;  3.9893523E+04;  0.0000000E+00; -1.0195298E-01;  4.0000000E+04;  0.0000000E+00;  4.0010176E+04;  8.3035737E-02;  0.0000000E+00; -8.2230931E-03;  1.3721781E+03;
  5.3076845E-01;  9.9999998E-03; -2.8001148E-01;5681;  3.8880107E-03;  0.0000000E+00;  2.2380780E-03;  9.9906018E+02;  1.0001760E-01; -7.7864459E+02;3;  2.8550265E+00;  0.0000000E+00; -1.5091754E-02;0;  7.3389955E-02;  3.9901504E+04;  0.0000000E+00; -1.1454985E-01;  4.0000000E+04;  0.0000000E+00;  4.0008941E+04;  8.0826193E-02;  0.0000000E+00; -7.4362359E-03;  1.2326322E+03;
  5.4084480E-01;  9.9999998E-03; -3.0000874E-01;5740;  5.3688358E-03;  0.0000000E+00;  2.5580276E-03;  9.9882941E+02;  1.0002959E-01; -9.6979968E+02;3;  2.8982506E+00;  0.0000000E+00;  4.0023580E-02;0;  7.9553328E-02;  3.9870391E+04;  0.0000000E+00; -1.0648628E-01;  4.0000000E+04;  0.0000000E+00;  4.0011250E+04;  8.8072561E-02;  0.0000000E+00; -8.5192295E-03;  1.5514456E+03;
  5.4081005E-01;  9.9999998E-03; -2.9000941E-01;5741;  5.0543859E-03;  0.0000000E+00;  2.4435977E-03;  9.9888904E+02;  1.0002951E-01; -9.2041833E+02;3;  2.9509597E+00;  0.0000000E+00;  1.8948222E-02;0;  7.8156978E-02;  3.9876230E+04;  0.0000000E+00; -8.1170186E-02;  4.0000000E+04;  0.0000000E+00;  4.0010629E+04;  8.5793346E-02;  0.0000000E+00; -7.6363720E-03;  1.4450481E+03;
  5.4079580E-01;  9.9999998E-03; -2.8001019E-01;5742;  4.7643576E-03;  0.0000000E+00;  2.3249008E-03;  9.9896844E+02;  1.0002955E-01; -8.5464246E+02;3;  3.0146062E+00;  0.0000000E+00; -1.1920872E-02;0;  7.6583363E-02;  3.9883820E+04;  0.0000000E+00; -9.4766654E-02;  4.0000000E+04;  0.0000000E+00;  4.0009539E+04;  8.3301127E-02;  0.0000000E+00; -6.7177634E-03;  1.3069679E+03;
  5.5091715E-01;  9.9999998E-03; -3.0000916E-01;5801;  6.4665703E-03;  0.0000000E+00;  2.6654473E-03;  9.9886670E+02;  1.0004847E-01; -9.3893634E+02;3;  3.0972960E+00;  0.0000000E+00;  3.0850247E-02;0;  8.1486933E-02;  3.9858984E+04;  0.0000000E+00; -1.3532536E-01;  4.0000000E+04;  0.0000000E+00;  4.0010430E+04;  8.9227132E-02;  0.0000000E+00; -7.7401977E-03;  1.4517108E+03;
  5.5087841E-01;  9.9999998E-03; -2.9000938E-01;5802;  6.0476032E-03;  0.0000000E+00;  2.5392098E-03;  9.9891663E+02;  1.0004845E-01; -8.9755481E+02;3;  3.1449757E+00;  0.0000000E+00; -1.5738601E-04;0;  8.0084413E-02;  3.9863566E+04;  0.0000000E+00; -7.2399937E-02;  4.0000000E+04;  0.0000000E+00;  4.0009680E+04;  8.6758234E-02;  0.0000000E+00; -6.6738217E-03;  1.3538093E+03;
  5.5086112E-01;  9.9999998E-03; -2.8000975E-01;5803;  5.6879381E-03;  0.0000000E+00;  2.4042823E-03;  9.9899011E+02;  1.0004848E-01; -8.3666760E+02;3;  3.2121162E+00;  0.0000000E+00; -3.7869893E-02;0;  7.8445546E-02;  3.9870328E+04;  0.0000000E+00; -7.8358322E-02;  4.0000000E+04;  0.0000000E+00;  4.0008758E+04;  8.4035642E-02;  0.0000000E+00; -5.5900966E-03;  1.2231613E+03;
  5.6101269E-01;  9.9999998E-03; -3.0001101E-01;5862;  7.8146551E-03;  0.0000000E+00;  2.7776854E-03;  9.9902795E+02;  1.0007981E-01; -8.0531049E+02;3;  3.4002681E+00;  0.0000000E+00;  2.3778347E-02;0;  8.1973009E-02;  3.9849469E+04;  0.0000000E+00; -2.3767091E-01;  4.0000000E+04;  0.0000000E+00;  4.0008078E+04;  8.8660866E-02;  0.0000000E+00; -6.6878558E-03;  1.1915281E+03;
  5.6098002E-01;  9.9999998E-03; -2.9001057E-01;5863;  7.2538410E-03;  0.0000000E+00;  2.6409903E-03;  9.9906244E+02;  1.0007969E-01; -7.7676807E+02;3;  3.4172912E+00;  0.0000000E+00; -2.0209346E-02;0;  8.0661401E-02;  3.9852246E+04;  0.0000000E+00; -1.4402425E-01;  4.0000000E+04;  0.0000000E+00;  4.0007684E+04;  8.6104713E-02;  0.0000000E+00; -5.4433099E-03;  1.1020659E+03;
  5.6096673E-01;  9.9999998E-03; -2.8001031E-01;5864;  6.7720977E-03;  0.0000000E+00;  2.4943838E-03;  9.9912030E+02;  1.0007984E-01; -7.2881885E+02;3;  3.4709282E+00;  0.0000000E+00; -7.3152952E-02;0;  7.8992747E-02;  3.9857762E+04;  0.0000000E+00; -1.2690522E-01;  4.0000000E+04;  0.0000000E+00;  4.0006707E+04;  8.3253518E-02;  0.0000000E+00; -4.2607742E-03;  9.9650378E+02;
  5.7111293E-01;  9.9999998E-03; -3.0001432E-01;5923;  9.3765510E-03;  0.0000000E+00;  2.8994903E-03;  9.9927026E+02;  1.0013096E-01; -6.0457544E+02;3;  3.7862322E+00;  0.0000000E+00;  5.4894999E-04;0;  8.1236288E-02;  3.9831055E+04;  0.0000000E+00; -4.2770368E-01;  4.0000000E+04;  0.0000000E+00;  4.0004711E+04;  8.6649030E-02;  0.0000000E+00; -5.4127434E-03;  9.2253845E+02;
  5.7109684E-01;  9.9999998E-03; -2.9001305E-01;5924;  8.6662667E-03;  0.0000000E+00;  2.7569511E-03;  9.9929126E+02;  1.0013096E-01; -5.8719324E+02;3;  3.7858403E+00;  0.0000000E+00; -3.9206669E-02;0;  8.0086209E-02;  3.9832699E+04;  0.0000000E+00; -3.2875958E-01;  4.0000000E+04;  0.0000000E+00;  4.0004176E+04;  8.4128745E-02;  0.0000000E+00; -4.0425379E-03;  8.1774347E+02;
  5.7109702E-01;  9.9999998E-03; -2.8001195E-01;5925;  8.0318032E-03;  0.0000000E+00;  2.5983525E-03;  9.9933752E+02;  1.0013135E-01; -5.4882391E+02;3;  3.8081098E+00;  0.0000000E+00; -9.0296373E-02;0;  7.8548521E-02;  3.9837164E+04;  0.0000000E+00; -2.8116786E-01;  4.0000000E+04;  0.0000000E+00;  4.0003598E+04;  8.1289291E-02;  0.0000000E+00; -2.7407685E-03;  7.2360162E+02;
  5.8119303E-01;  9.9999998E-03; -3.0001882E-01;5984;  1.1015021E-02;  0.0000000E+00;  3.0200058E-03;  9.9950122E+02;  1.0021381E-01; -4.1322284E+02;3;  4.2452583E+00;  0.0000000E+00;  1.8403541E-03;0;  7.9955876E-02;  3.9787770E+04;  0.0000000E+00; -6.4578629E-01;  4.0000000E+04;  0.0000000E+00;  4.0000938E+04;  8.3641745E-02;  0.0000000E+00; -3.6858695E-03;  9.1972522E+02;
  5.8120036E-01;  9.9999998E-03; -2.9001653E-01;5985;  1.0197301E-02;  0.0000000E+00;  2.8667813E-03;  9.9951202E+02;  1.0021405E-01; -4.0428482E+02;3;  4.1964502E+00;  0.0000000E+00; -4.3861419E-02;0;  7.9150066E-02;  3.9788277E+04;  0.0000000E+00; -5.6521863E-01;  4.0000000E+04;  0.0000000E+00;  4.0000727E+04;  8.1272595E-02;  0.0000000E+00; -2.1225263E-03;  8.1678729E+02;
  5.8121884E-01;  9.9999998E-03; -2.8001434E-01;5986;  9.4435494E-03;  0.0000000E+00;  2.6917215E-03;  9.9955042E+02;  1.0021434E-01; -3.7248328E+02;3;  4.1974802E+00;  0.0000000E+00; -1.1606269E-01;0;  7.7897631E-02;  3.9791578E+04;  0.0000000E+00; -4.8608288E-01;  4.0000000E+04;  0.0000000E+00;  4.0000629E+04;  7.8591332E-02;  0.0000000E+00; -6.9370249E-04;  7.0396899E+02;
  5.9124434E-01;  9.9999998E-03; -3.0002430E-01;6045;  1.2571490E-02;  0.0000000E+00;  3.1436335E-03;  9.9962152E+02;  1.0034749E-01; -3.1357135E+02;3;  4.7310324E+00;  0.0000000E+00; -1.9157717E-02;0;  7.8627251E-02;  3.9694734E+04;  0.0000000E+00; -8.2271504E-01;  4.0000000E+04;  0.0000000E+00;  3.9998305E+04;  8.0234066E-02;  0.0000000E+00; -1.6068112E-03;  1.1233107E+03;
  5.9126419E-01;  9.9999998E-03; -2.9002085E-01;6046;  1.1705726E-02;  0.0000000E+00;  2.9789391E-03;  9.9962628E+02;  1.0034800E-01; -3.0962085E+02;3;  4.6763239E+00;  0.0000000E+00; -7.6232471E-02;0;  7.8255087E-02;  3.9694465E+04;  0.0000000E+00; -7.0719546E-01;  4.0000000E+04;  0.0000000E+00;  3.9998262E+04;  7.8115650E-02;  0.0000000E+00;  1.3943632E-04;  9.6580505E+02;
  5.9128982E-01;  9.9999998E-03; -2.8001720E-01;6047;  1.0857733E-02;  0.0000000E+00;  2.7936068E-03;  9.9965802E+02;  1.0034849E-01; -2.8330060E+02;3;  4.6601863E+00;  0.0000000E+00; -1.5621489E-01;0;  7.7300966E-02;  3.9696727E+04;  0.0000000E+00; -5.7486689E-01;  4.0000000E+04;  0.0000000E+00;  3.9998281E+04;  7.5737230E-02;  0.0000000E+00;  1.5637388E-03;  7.8376660E+02;
  6.0121602E-01;  9.9999998E-03; -3.0003074E-01;6106;  1.3872380E-02;  0.0000000E+00;  3.2894330E-03;  9.9952856E+02;  1.0056060E-01; -3.9055682E+02;3;  5.2024512E+00;  0.0000000E+00; -5.9086349E-02;0;  7.7564798E-02;  3.9522004E+04;  0.0000000E+00; -4.7508511E-01;  4.0000000E+04;  0.0000000E+00;  3.9997637E+04;  7.7115178E-02;  0.0000000E+00;  4.4961937E-04;  6.7009991E+02;
  6.0124487E-01;  9.9999998E-03; -2.9002595E-01;6107;  1.2979954E-02;  0.0000000E+00;  3.1232215E-03;  9.9954419E+02;  1.0056145E-01; -3.7761893E+02;3;  5.1325564E+00;  0.0000000E+00; -1.1499938E-01;0;  7.7541120E-02;  3.9521934E+04;  0.0000000E+00; -4.3942448E-01;  4.0000000E+04;  0.0000000E+00;  3.9997273E+04;  7.5328656E-02;  0.0000000E+00;  2.2124622E-03;  6.2521558E+02;
  6.0127521E-01;  9.9999998E-03; -2.8002051E-01;6108;  1.2090137E-02;  0.0000000E+00;  2.9335578E-03;  9.9957660E+02;  1.0056195E-01; -3.5075549E+02;3;  5.0923166E+00;  0.0000000E+00; -1.9210668E-01;0;  7.6910339E-02;  3.9523750E+04;  0.0000000E+00; -3.6011371E-01;  4.0000000E+04;  0.0000000E+00;  3.9997762E+04;  7.3358372E-02;  0.0000000E+00;  3.5519672E-03;  5.2485303E+02;
  6.1113423E-01;  9.9999998E-03; -3.0003875E-01;6167;  1.4762118E-02;  0.0000000E+00;  3.4997950E-03;  9.9922540E+02;  1.0089329E-01; -6.4175958E+02;3;  5.5071950E+00;  0.0000000E+00; -1.0251897E-01;0;  7.6633789E-02;  3.9239188E+04;  0.0000000E+00;  1.8191722E-01;  4.0000000E+04;  0.0000000E+00;  3.9998590E+04;  7.4909180E-02;  0.0000000E+00;  1.7246059E-03;  6.8548840E+02;
  6.1117381E-01;  9.9999998E-03; -2.9003254E-01;6168;  1.3898841E-02;  0.0000000E+00;  3.3342275E-03;  9.9925427E+02;  1.0089496E-01; -6.1780963E+02;3;  5.4712358E+00;  0.0000000E+00; -1.5390004E-01;0;  7.6988645E-02;  3.9239883E+04;  0.0000000E+00;  4.9651120E-02;  4.0000000E+04;  0.0000000E+00;  3.9998473E+04;  7.3497467E-02;  0.0000000E+00;  3.4911775E-03;  6.3523486E+02;
  6.1120999E-01;  9.9999998E-03; -2.8002512E-01;6169;  1.2995282E-02;  0.0000000E+00;  3.1470649E-03;  9.9929840E+02;  1.0089624E-01; -5.8126746E+02;3;  5.4347167E+00;  0.0000000E+00; -2.3867078E-01;0;  7.6713897E-02;  3.9241473E+04;  0.0000000E+00;  1.2422437E-02;  4.0000000E+04;  0.0000000E+00;  3.9998598E+04;  7.2009765E-02;  0.0000000E+00;  4.7041341E-03;  6.3986792E+02;
  6.2101644E-01;  9.9999998E-03; -3.0004981E-01;6228;  1.5290324E-02;  0.0000000E+00;  3.8031437E-03;  9.9879651E+02;  1.0139926E-01; -9.9705817E+02;3;  5.6940918E+00;  0.0000000E+00; -1.4947072E-01;0;  7.5694673E-02;  3.8816320E+04;  0.0000000E+00;  7.1043998E-01;  4.0000000E+04;  0.0000000E+00;  4.0000176E+04;  7.4027017E-02;  0.0000000E+00;  1.6676558E-03;  1.6561829E+03;
  6.2106490E-01;  9.9999998E-03; -2.9004225E-01;6229;  1.4427698E-02;  0.0000000E+00;  3.6527666E-03;  9.9885498E+02;  1.0140163E-01; -9.4861505E+02;3;  5.6831255E+00;  0.0000000E+00; -2.0270960E-01;0;  7.6271668E-02;  3.8817980E+04;  0.0000000E+00;  4.6377435E-01;  4.0000000E+04;  0.0000000E+00;  3.9999906E+04;  7.3032454E-02;  0.0000000E+00;  3.2392123E-03;  1.4429836E+03;
  6.2110609E-01;  9.9999998E-03; -2.8003287E-01;6230;  1.3551398E-02;  0.0000000E+00;  3.4863383E-03;  9.9891803E+02;  1.0140407E-01; -8.9636963E+02;3;  5.6769743E+00;  0.0000000E+00; -2.8668308E-01;0;  7.6263405E-02;  3.8820637E+04;  0.0000000E+00;  3.4213877E-01;  4.0000000E+04;  0.0000000E+00;  4.0000062E+04;  7.2059736E-02;  0.0000000E+00;  4.2036716E-03;  1.3697537E+03;
  6.3084507E-01;  9.9999998E-03; -3.0006590E-01;6289;  1.5545215E-02;  0.0000000E+00;  4.1830223E-03;  9.9841132E+02;  1.0213719E-01; -1.3162096E+03;3;  5.8130245E+00;  0.0000000E+00; -2.0058054E-01;0;  7.5106934E-02;  3.8229145E+04;  0.0000000E+00;  6.2600446E-01;  4.0000000E+04;  0.0000000E+00;  4.0000176E+04;  7.4622281E-02;  0.0000000E+00;  4.8465014E-04;  2.1534766E+03;
  6.3090354E-01;  9.9999998E-03; -2.9005724E-01;6290;  1.4671082E-02;  0.0000000E+00;  4.0615494E-03;  9.9850293E+02;  1.0214166E-01; -1.2403105E+03;3;  5.8111801E+00;  0.0000000E+00; -2.5001422E-01;0;  7.5718358E-02;  3.8232254E+04;  0.0000000E+00;  4.1832188E-01;  4.0000000E+04;  0.0000000E+00;  3.9999898E+04;  7.4054666E-02;  0.0000000E+00;  1.6636939E-03;  1.9918147E+03;
  6.3095069E-01;  9.9999998E-03; -2.8004634E-01;6291;  1.3799087E-02;  0.0000000E+00;  3.9332085E-03;  9.9859515E+02;  1.0214505E-01; -1.1638683E+03;3;  5.8243227E+00;  0.0000000E+00; -3.2899547E-01;0;  7.5843915E-02;  3.8236391E+04;  0.0000000E+00;  3.5275215E-01;  4.0000000E+04;  0.0000000E+00;  3.9999602E+04;  7.3606342E-02;  0.0000000E+00;  2.2375735E-03;  1.9383671E+03;
  6.4065802E-01;  9.9999998E-03; -3.0008915E-01;6350;  1.5572659E-02;  0.0000000E+00;  4.6211346E-03;  9.9824634E+02;  1.0316130E-01; -1.4528971E+03;3;  5.8984752E+00;  0.0000000E+00; -2.5436115E-01;0;  7.5004332E-02;  3.7464570E+04;  0.0000000E+00; -9.1687787E-01;  4.0000000E+04;  0.0000000E+00;  3.9996395E+04;  7.6563768E-02;  0.0000000E+00; -1.5594373E-03;  2.7103303E+03;
  6.4072043E-01;  9.9999998E-03; -2.9007974E-01;6351;  1.4708001E-02;  0.0000000E+00;  4.5269192E-03;  9.9837097E+02;  1.0316780E-01; -1.3496407E+03;3;  5.8958755E+00;  0.0000000E+00; -2.9576373E-01;0;  7.5666636E-02;  3.7468672E+04;  0.0000000E+00; -7.4334645E-01;  4.0000000E+04;  0.0000000E+00;  3.9995641E+04;  7.6407380E-02;  0.0000000E+00; -7.4074115E-04;  2.4997710E+03;
  6.4076936E-01;  9.9999998E-03; -2.8006795E-01;6352;  1.3844423E-02;  0.0000000E+00;  4.4363360E-03;  9.9849670E+02;  1.0317304E-01; -1.2454462E+03;3;  5.9044476E+00;  0.0000000E+00; -3.6700526E-01;0;  7.5943798E-02;  3.7473910E+04;  0.0000000E+00; -4.2827979E-01;  4.0000000E+04;  0.0000000E+00;  3.9995234E+04;  7.6451302E-02;  0.0000000E+00; -5.0750381E-04;  2.2582705E+03;
  6.5052927E-01;  9.9999998E-03; -3.0012038E-01;6411;  1.5580507E-02;  0.0000000E+00;  5.0555035E-03;  9.9833929E+02;  1.0450064E-01; -1.3758622E+03;3;  5.9668565E+00;  0.0000000E+00; -2.9684803E-01;0;  7.6040737E-02;  3.6521754E+04;  0.0000000E+00; -4.3209977E+00;  4.0000000E+04;  0.0000000E+00;  3.9987688E+04;  7.9436548E-02;  0.0000000E+00; -3.3958124E-03;  7.0772026E+03;
  6.5057898E-01;  9.9999998E-03; -2.9011050E-01;6412;  1.4711634E-02;  0.0000000E+00;  4.9810656E-03;  9.9849060E+02;  1.0450911E-01; -1.2505325E+03;3;  5.9445324E+00;  0.0000000E+00; -3.2879779E-01;0;  7.6786146E-02;  3.6526055E+04;  0.0000000E+00; -3.3999760E+00;  4.0000000E+04;  0.0000000E+00;  3.9986332E+04;  7.9665028E-02;  0.0000000E+00; -2.8788785E-03;  5.7110918E+03;
  6.5061748E-01;  9.9999998E-03; -2.8009844E-01;6413;  1.3846409E-02;  0.0000000E+00;  4.9239499E-03;  9.9864337E+02;  1.0451498E-01; -1.1239187E+03;3;  5.9488997E+00;  0.0000000E+00; -4.0002295E-01;0;  7.7127360E-02;  3.6532695E+04;  0.0000000E+00; -2.3089998E+00;  4.0000000E+04;  0.0000000E+00;  3.9985875E+04;  8.0144949E-02;  0.0000000E+00; -3.0175888E-03;  4.1616313E+03;
  6.6057968E-01;  9.9999998E-03; -3.0015886E-01;6472;  1.6267778E-02;  0.0000000E+00;  5.3704949E-03;  9.9854187E+02;  1.0615193E-01; -1.2080151E+03;3;  6.1952987E+00;  0.0000000E+00; -3.3300176E-01;0;  7.9715163E-02;  3.5413066E+04;  0.0000000E+00; -8.8720713E+00;  4.0000000E+04;  0.0000000E+00;  3.9975008E+04;  8.2692519E-02;  0.0000000E+00; -2.9773556E-03;  1.4253418E+04;
  6.6060191E-01;  9.9999998E-03; -2.9014850E-01;6473;  1.4961461E-02;  0.0000000E+00;  5.3483397E-03;  9.9870209E+02;  1.0616234E-01; -1.0752782E+03;3;  6.0141826E+00;  0.0000000E+00; -3.5421064E-01;0;  7.9751417E-02;  3.5416645E+04;  0.0000000E+00; -7.0532041E+00;  4.0000000E+04;  0.0000000E+00;  3.9974195E+04;  8.3225332E-02;  0.0000000E+00; -3.4739124E-03;  1.1418134E+04;
  6.6062456E-01;  9.9999998E-03; -2.8013659E-01;6474;  1.3996420E-02;  0.0000000E+00;  5.3251204E-03;  9.9887915E+02;  1.0616936E-01; -9.2861566E+02;3;  6.0058856E+00;  0.0000000E+00; -4.3206897E-01;0;  7.9846099E-02;  3.5424254E+04;  0.0000000E+00; -4.9535546E+00;  4.0000000E+04;  0.0000000E+00;  3.9973309E+04;  8.4073663E-02;  0.0000000E+00; -4.2275637E-03;  8.1524751E+03;
  6.7091483E-01;  9.9999998E-03; -3.0020303E-01;6533;  1.8631337E-02;  0.0000000E+00;  5.5719414E-03;  9.9862299E+02;  1.0809884E-01; -1.1408071E+03;3;  6.4407902E+00;  0.0000000E+00; -2.7451944E-01;0;  8.5494496E-02;  3.4159766E+04;  0.0000000E+00; -1.2584678E+01;  4.0000000E+04;  0.0000000E+00;  3.9961016E+04;  8.5787825E-02;  0.0000000E+00; -2.9333163E-04;  2.0704186E+04;
  6.7085689E-01;  9.9999998E-03; -2.9019183E-01;6534;  1.5968373E-02;  0.0000000E+00;  5.6161764E-03;  9.9879108E+02;  1.0810918E-01; -1.0015518E+03;3;  6.2298522E+00;  0.0000000E+00; -3.5884494E-01;0;  8.4093511E-02;  3.4163039E+04;  0.0000000E+00; -1.0402871E+01;  4.0000000E+04;  0.0000000E+00;  3.9960781E+04;  8.6361215E-02;  0.0000000E+00; -2.2677013E-03;  1.7226930E+04;
  6.7082530E-01;  9.9999998E-03; -2.8017986E-01;6535;  1.4367520E-02;  0.0000000E+00;  5.6725270E-03;  9.9897626E+02;  1.0811486E-01; -8.4817346E+02;3;  6.0654068E+00;  0.0000000E+00; -4.3214542E-01;0;  8.2841568E-02;  3.4170965E+04;  0.0000000E+00; -7.5667658E+00;  4.0000000E+04;  0.0000000E+00;  3.9959770E+04;  8.7403223E-02;  0.0000000E+00; -4.5616538E-03;  1.2661185E+04;
  6.8159986E-01;  9.9999998E-03; -3.0025217E-01;6594;  2.0978978E-02;  0.0000000E+00;  5.9206490E-03;  9.9853076E+02;  1.1036925E-01; -1.2172494E+03;3;  6.5449805E+00;  0.0000000E+00; -1.6370954E-01;0;  8.7520443E-02;  3.2770223E+04;  0.0000000E+00; -1.3855507E+01;  4.0000000E+04;  0.0000000E+00;  3.9947211E+04;  8.7348841E-02;  0.0000000E+00;  1.7160396E-04;  2.3656410E+04;
  6.8142062E-01;  9.9999998E-03; -2.9023993E-01;6595;  1.8319691E-02;  0.0000000E+00;  5.8766007E-03;  9.9868689E+02;  1.1036934E-01; -1.0878704E+03;3;  6.4867640E+00;  0.0000000E+00; -3.1733403E-01;0;  8.7615870E-02;  3.2778023E+04;  0.0000000E+00; -1.2240752E+01;  4.0000000E+04;  0.0000000E+00;  3.9947141E+04;  8.8278390E-02;  0.0000000E+00; -6.6252152E-04;  2.1051852E+04;
  6.8126887E-01;  9.9999998E-03; -2.8022724E-01;6596;  1.5327218E-02;  0.0000000E+00;  5.9931809E-03;  9.9887128E+02;  1.1036328E-01; -9.3513397E+02;3;  6.2339525E+00;  0.0000000E+00; -4.3164289E-01;0;  8.4933832E-02;  3.2792367E+04;  0.0000000E+00; -9.4972925E+00;  4.0000000E+04;  0.0000000E+00;  3.9946719E+04;  8.9267418E-02;  0.0000000E+00; -4.3335841E-03;  1.6495820E+04;
  6.9342500E-01;  9.9999998E-03; -3.0030996E-01;6655;  2.1520117E-02;  0.0000000E+00;  6.5085404E-03;  9.9846173E+02;  1.1312354E-01; -1.2744330E+03;3;  6.6605053E+00;  0.0000000E+00; -2.0453741E-01;0;  8.2587138E-02;  3.1202863E+04;  0.0000000E+00; -9.4128017E+00;  4.0000000E+04;  0.0000000E+00;  3.9932254E+04;  8.5291311E-02;  0.0000000E+00; -2.7041696E-03;  1.7229738E+04;
  6.9316083E-01;  9.9999998E-03; -2.9029623E-01;6656;  1.9585442E-02;  0.0000000E+00;  6.4024790E-03;  9.9854102E+02;  1.1310323E-01; -1.2087559E+03;3;  6.6330409E+00;  0.0000000E+00; -2.4253669E-01;0;  8.4349319E-02;  3.1216643E+04;  0.0000000E+00; -9.0497828E+00;  4.0000000E+04;  0.0000000E+00;  3.9932297E+04;  8.6890973E-02;  0.0000000E+00; -2.5416508E-03;  1.6692920E+04;
  6.9286907E-01;  9.9999998E-03; -2.8028208E-01;6657;  1.7080843E-02;  0.0000000E+00;  6.4453082E-03;  9.9866437E+02;  1.1306655E-01; -1.1065365E+03;3;  6.4789152E+00;  0.0000000E+00; -3.5999334E-01;0;  8.3244361E-02;  3.1242291E+04;  0.0000000E+00; -7.6178904E+00;  4.0000000E+04;  0.0000000E+00;  3.9932180E+04;  8.8483803E-02;  0.0000000E+00; -5.2394397E-03;  1.4212200E+04;
  7.0584047E-01;  9.9999998E-03; -3.0038092E-01;6716;  2.2921674E-02;  0.0000000E+00;  7.0437128E-03;  9.9879712E+02;  1.1638054E-01; -9.9656433E+02;3;  5.7891617E+00;  0.0000000E+00; -2.9521865E-01;0;  7.4805617E-02;  2.9522791E+04;  0.0000000E+00; -6.8726945E+00;  4.0000000E+04;  0.0000000E+00;  3.9909254E+04;  7.8832060E-02;  0.0000000E+00; -4.0264390E-03;  1.3847501E+04;
  7.0563322E-01;  9.9999998E-03; -2.9036584E-01;6717;  2.1061156E-02;  0.0000000E+00;  6.9426810E-03;  9.9881195E+02;  1.1636343E-01; -9.8426837E+02;3;  6.3793592E+00;  0.0000000E+00; -1.0502575E-01;0;  7.7026874E-02;  2.9530129E+04;  0.0000000E+00; -6.6340308E+00;  4.0000000E+04;  0.0000000E+00;  3.9909867E+04;  8.0865882E-02;  0.0000000E+00; -3.8390111E-03;  1.3482411E+04;
  7.0537543E-01;  9.9999998E-03; -2.8035054E-01;6718;  1.9129016E-02;  0.0000000E+00;  6.8644150E-03;  9.9883929E+02;  1.1632180E-01; -9.6160236E+02;3;  6.4446344E+00;  0.0000000E+00; -1.6870345E-01;0;  7.8289561E-02;  2.9550523E+04;  0.0000000E+00; -5.5442719E+00;  4.0000000E+04;  0.0000000E+00;  3.9910367E+04;  8.3067603E-02;  0.0000000E+00; -4.7780420E-03;  1.1463549E+04;
  7.1730381E-01;  9.9999998E-03; -3.0045256E-01;6777;  2.4641490E-02;  0.0000000E+00;  7.0903078E-03;  9.9909021E+02;  1.1970387E-01; -7.5375641E+02;3; -1.7374879E+00;  0.0000000E+00; -9.2643774E-01;0;  7.1424015E-02;  2.7943682E+04;  0.0000000E+00; -8.4485474E+00;  4.0000000E+04;  0.0000000E+00;  3.9885688E+04;  6.8693608E-02;  0.0000000E+00;  2.7304082E-03;  1.7496291E+04;
  7.1728635E-01;  9.9999998E-03; -2.9043716E-01;6778;  2.3635926E-02;  0.0000000E+00;  7.1486719E-03;  9.9912286E+02;  1.1973148E-01; -7.2669543E+02;3; -4.2189914E-01;  0.0000000E+00; -8.0240047E-01;0;  7.0872009E-02;  2.7930857E+04;  0.0000000E+00; -7.7826424E+00;  4.0000000E+04;  0.0000000E+00;  3.9885938E+04;  7.0990227E-02;  0.0000000E+00; -1.1821868E-04;  1.6308081E+04;
  7.1724510E-01;  9.9999998E-03; -2.8042191E-01;6779;  2.2116447E-02;  0.0000000E+00;  7.2567849E-03;  9.9913702E+02;  1.1974011E-01; -7.1494269E+02;3;  4.4742455E+00;  0.0000000E+00;  3.3560086E-02;0;  6.9636554E-02;  2.7926090E+04;  0.0000000E+00; -6.2372046E+00;  4.0000000E+04;  0.0000000E+00;  3.9886234E+04;  7.3398031E-02;  0.0000000E+00; -3.7614787E-03;  1.3342072E+04;
  7.2854024E-01;  9.9999998E-03; -3.0052114E-01;6838;  2.4553815E-02;  0.0000000E+00;  7.5625237E-03;  9.9888239E+02;  1.2316205E-01; -9.2589960E+02;3; -3.7366271E+00;  0.0000000E+00; -2.1729998E-01;0;  5.7984810E-02;  2.6401459E+04;  0.0000000E+00; -7.4744940E+00;  4.0000000E+04;  0.0000000E+00;  3.9868246E+04;  5.5115167E-02;  0.0000000E+00;  2.8696442E-03;  1.6161753E+04;
  7.2859740E-01;  9.9999998E-03; -2.9050460E-01;6839;  2.3694597E-02;  0.0000000E+00;  7.6259580E-03;  9.9894489E+02;  1.2320504E-01; -8.7414801E+02;3; -3.5305986E+00;  0.0000000E+00;  2.3923939E-02;0;  5.7576586E-02;  2.6385064E+04;  0.0000000E+00; -7.0706811E+00;  4.0000000E+04;  0.0000000E+00;  3.9867766E+04;  5.7445798E-02;  0.0000000E+00;  1.3078893E-04;  1.5403232E+04;
  7.2863007E-01;  9.9999998E-03; -2.8048819E-01;6840;  2.2884374E-02;  0.0000000E+00;  7.6965061E-03;  9.9897089E+02;  1.2323156E-01; -8.5261774E+02;3; -2.5641651E+00;  0.0000000E+00;  5.1385965E-03;0;  5.6764897E-02;  2.6374547E+04;  0.0000000E+00; -5.8141332E+00;  4.0000000E+04;  0.0000000E+00;  3.9867555E+04;  6.0041793E-02;  0.0000000E+00; -3.2768948E-03;  1.2901661E+04;
  7.4061638E-01;  9.9999998E-03; -3.0059198E-01;6899;  2.4140079E-02;  0.0000000E+00;  8.1468746E-03;  9.9815753E+02;  1.2707587E-01; -1.5264258E+03;3; -4.6388941E+00;  0.0000000E+00;  1.1763857E-02;0;  3.9851692E-02;  2.4777252E+04;  0.0000000E+00; -9.3023068E-01;  4.0000000E+04;  0.0000000E+00;  3.9855211E+04;  3.8167052E-02;  0.0000000E+00;  1.6846387E-03;  3.6569753E+03;
  7.4065143E-01;  9.9999998E-03; -2.9057288E-01;6900;  2.3323817E-02;  0.0000000E+00;  8.2863569E-03;  9.9824054E+02;  1.2709706E-01; -1.4576869E+03;3; -4.3930879E+00;  0.0000000E+00;  2.1560113E-01;0;  3.8532019E-02;  2.4772180E+04;  0.0000000E+00; -1.9386462E+00;  4.0000000E+04;  0.0000000E+00;  3.9854234E+04;  4.0631499E-02;  0.0000000E+00; -2.0994823E-03;  5.3882930E+03;
  7.4065524E-01;  9.9999998E-03; -2.8055391E-01;6901;  2.2638010E-02;  0.0000000E+00;  8.3741844E-03;  9.9829761E+02;  1.2710489E-01; -1.4103796E+03;3; -4.0542784E+00;  0.0000000E+00;  2.5270003E-01;0;  3.8100790E-02;  2.4771648E+04;  0.0000000E+00; -2.2425189E+00;  4.0000000E+04;  0.0000000E+00;  3.9853312E+04;  4.3391868E-02;  0.0000000E+00; -5.2910778E-03;  5.9470034E+03;
  7.5312150E-01;  9.9999998E-03; -3.0066660E-01;6960;  2.3707002E-02;  0.0000000E+00;  9.0244077E-03;  9.9730518E+02;  1.3126996E-01; -2.2326279E+03;3; -4.9698853E+00;  0.0000000E+00; -2.1311924E-01;0;  1.5096968E-02;  2.3191254E+04;  0.0000000E+00;  7.7926989E+00;  4.0000000E+04;  0.0000000E+00;  3.9841156E+04;  1.9450037E-02;  0.0000000E+00; -4.3530692E-03;  1.8078168E+04;
  7.5320733E-01;  9.9999998E-03; -2.9064482E-01;6961;  2.2930250E-02;  0.0000000E+00;  9.0677999E-03;  9.9741809E+02;  1.3130464E-01; -2.1390503E+03;3; -4.5134430E+00;  0.0000000E+00; -2.7909738E-01;0;  1.6038472E-02;  2.3183621E+04;  0.0000000E+00;  4.8099923E+00;  4.0000000E+04;  0.0000000E+00;  3.9840129E+04;  2.2017218E-02;  0.0000000E+00; -5.9787459E-03;  1.1494842E+04;
  7.5327492E-01;  9.9999998E-03; -2.8062320E-01;6962;  2.2301735E-02;  0.0000000E+00;  9.1109267E-03;  9.9752808E+02;  1.3132791E-01; -2.0479418E+03;3; -4.1510682E+00;  0.0000000E+00; -3.0395719E-01;0;  1.7173724E-02;  2.3180420E+04;  0.0000000E+00;  2.5391443E+00;  4.0000000E+04;  0.0000000E+00;  3.9838801E+04;  2.4857642E-02;  0.0000000E+00; -7.6839179E-03;  6.5608096E+03;
  7.6729095E-01;  9.9999998E-03; -3.0075872E-01;7021;  2.3358352E-02;  0.0000000E+00;  9.8409588E-03;  9.9732184E+02;  1.3613868E-01; -2.2188010E+03;3; -4.9532943E+00;  0.0000000E+00; -9.9666089E-01;0; -1.0228316E-02;  2.1574684E+04;  0.0000000E+00;  1.1051030E+01;  4.0000000E+04;  0.0000000E+00;  3.9814523E+04; -1.8605589E-03;  0.0000000E+00; -8.3677573E-03;  2.8980285E+04;
  7.6722974E-01;  9.9999998E-03; -2.9073358E-01;7022;  2.2579545E-02;  0.0000000E+00;  9.8635415E-03;  9.9741205E+02;  1.3614008E-01; -2.1440872E+03;3; -4.5186009E+00;  0.0000000E+00; -1.0265589E+00;0; -7.6902551E-03;  2.1577746E+04;  0.0000000E+00;  7.5895476E+00;  4.0000000E+04;  0.0000000E+00;  3.9814148E+04;  1.2473626E-03;  0.0000000E+00; -8.9376178E-03;  2.0359238E+04;
  7.6717013E-01;  9.9999998E-03; -2.8070921E-01;7023;  2.1984860E-02;  0.0000000E+00;  9.9013299E-03;  9.9753101E+02;  1.3612975E-01; -2.0455221E+03;3; -4.1505628E+00;  0.0000000E+00; -9.6775270E-01;0; -5.0843605E-03;  2.1586607E+04;  0.0000000E+00;  4.6342974E+00;  4.0000000E+04;  0.0000000E+00;  3.9812586E+04;  4.5744996E-03;  0.0000000E+00; -9.6588600E-03;  1.2838192E+04;
  7.8290856E-01;  9.9999998E-03; -3.0087024E-01;7082;  2.2825623E-02;  0.0000000E+00;  1.0422598E-02;  9.9837793E+02;  1.4183947E-01; -1.3438629E+03;3; -5.1176677E+00;  0.0000000E+00; -1.5801212E+00;0; -3.2108624E-02;  1.9925061E+04;  0.0000000E+00;  7.4610734E+00;  4.0000000E+04;  0.0000000E+00;  3.9773465E+04; -2.4425710E-02;  0.0000000E+00; -7.6829125E-03;  2.5181213E+04;
  7.8259015E-01;  9.9999998E-03; -2.9084152E-01;7083;  2.2106048E-02;  0.0000000E+00;  1.0500893E-02;  9.9844733E+02;  1.4175479E-01; -1.2863831E+03;3; -4.6976271E+00;  0.0000000E+00; -1.5480856E+00;0; -2.8921571E-02;  1.9951270E+04;  0.0000000E+00;  5.1268973E+00;  4.0000000E+04;  0.0000000E+00;  3.9774168E+04; -2.0513177E-02;  0.0000000E+00; -8.4083937E-03;  1.7913486E+04;
  7.8226131E-01;  9.9999998E-03; -2.8081459E-01;7084;  2.1588145E-02;  0.0000000E+00;  1.0611936E-02;  9.9852533E+02;  1.4165220E-01; -1.2217429E+03;3; -4.3352809E+00;  0.0000000E+00; -1.4143325E+00;0; -2.5808696E-02;  1.9983717E+04;  0.0000000E+00;  3.1415427E+00;  4.0000000E+04;  0.0000000E+00;  3.9773336E+04; -1.6379159E-02;  0.0000000E+00; -9.4295377E-03;  1.1464064E+04;
  7.9822522E-01;  9.9999998E-03; -3.0097911E-01;7143;  2.2129681E-02;  0.0000000E+00;  1.0761851E-02;  9.9898077E+02;  1.4782649E-01; -8.4442023E+02;3; -5.3162446E+00;  0.0000000E+00; -2.2276285E+00;0; -4.9407978E-02;  1.8366180E+04;  0.0000000E+00;  6.7128901E+00;  4.0000000E+04;  0.0000000E+00;  3.9737145E+04; -4.5267817E-02;  0.0000000E+00; -4.1401596E-03;  2.6420588E+04;
  7.9809892E-01;  9.9999998E-03; -2.9095063E-01;7144;  2.1474112E-02;  0.0000000E+00;  1.0942002E-02;  9.9921576E+02;  1.4780945E-01; -6.4970978E+02;3; -4.9947829E+00;  0.0000000E+00; -2.0454459E+00;0; -4.6383828E-02;  1.8378076E+04;  0.0000000E+00;  3.7951701E+00;  4.0000000E+04;  0.0000000E+00;  3.9735980E+04; -4.1144148E-02;  0.0000000E+00; -5.2396823E-03;  1.6734715E+04;
  7.9784036E-01;  9.9999998E-03; -2.8092378E-01;7145;  2.1052493E-02;  0.0000000E+00;  1.1151432E-02;  9.9940594E+02;  1.4771856E-01; -4.9218341E+02;3; -4.6753802E+00;  0.0000000E+00; -1.7933810E+00;0; -4.3156676E-02;  1.8408285E+04;  0.0000000E+00;  1.8084410E+00;  4.0000000E+04;  0.0000000E+00;  3.9734383E+04; -3.6569349E-02;  0.0000000E+00; -6.5873261E-03;  9.4067529E+03;
  8.1237870E-01;  9.9999998E-03; -3.0107000E-01;7204;  2.1119157E-02;  0.0000000E+00;  1.0528387E-02;  9.9854779E+02;  1.5358791E-01; -1.2031260E+03;3; -5.5811901E+00;  0.0000000E+00; -2.7860990E+00;0; -5.5878758E-02;  1.6997846E+04;  0.0000000E+00;  5.6051455E+00;  4.0000000E+04;  0.0000000E+00;  3.9715062E+04; -6.3254878E-02;  0.0000000E+00;  7.3761204E-03;  2.0977426E+04;
  8.1226826E-01;  9.9999998E-03; -2.9103953E-01;7205;  2.0637121E-02;  0.0000000E+00;  1.0955677E-02;  9.9887085E+02;  1.5355936E-01; -9.3547937E+02;3; -5.3231792E+00;  0.0000000E+00; -2.5922542E+00;0; -5.5661861E-02;  1.7013369E+04;  0.0000000E+00;  3.5137131E+00;  4.0000000E+04;  0.0000000E+00;  3.9713438E+04; -5.8731694E-02;  0.0000000E+00;  3.0698334E-03;  1.3856304E+04;
  8.1209046E-01;  9.9999998E-03; -2.8101104E-01;7206;  2.0352080E-02;  0.0000000E+00;  1.1376432E-02;  9.9911084E+02;  1.5350109E-01; -7.3667023E+02;3; -5.0543056E+00;  0.0000000E+00; -2.2142584E+00;0; -5.4306183E-02;  1.7034449E+04;  0.0000000E+00;  2.1777184E+00;  4.0000000E+04;  0.0000000E+00;  3.9711793E+04; -5.3680982E-02;  0.0000000E+00; -6.2519999E-04;  8.8912607E+03;
  8.2562506E-01;  9.9999998E-03; -2.8108463E-01;7267;  1.9304221E-02;  0.0000000E+00;  1.1179451E-02;  9.9788953E+02;  1.5926766E-01; -1.7484929E+03;3; -5.3908248E+00;  0.0000000E+00; -2.5668514E+00;0; -5.8405027E-02;  1.5789377E+04;  0.0000000E+00;  2.1301627E+00;  4.0000000E+04;  0.0000000E+00;  3.9701973E+04; -6.8704039E-02;  0.0000000E+00;  1.0299014E-02;  6.2307539E+03;
  8.2579988E-01;  9.9999998E-03; -2.9111680E-01;7266;  1.9417277E-02;  0.0000000E+00;  1.0469785E-02;  9.9753809E+02;  1.5933076E-01; -2.0396451E+03;3; -5.6203594E+00;  0.0000000E+00; -2.7705574E+00;0; -5.6138366E-02;  1.5766922E+04;  0.0000000E+00;  2.7611005E+00;  4.0000000E+04;  0.0000000E+00;  3.9703504E+04; -7.4404232E-02;  0.0000000E+00;  1.8265866E-02;  7.9710596E+03;
  8.2597220E-01;  9.9999998E-03; -3.0115092E-01;7265;  1.9694554E-02;  0.0000000E+00;  9.7325360E-03;  9.9713104E+02;  1.5939461E-01; -2.3768699E+03;3; -5.7995877E+00;  0.0000000E+00; -2.7142065E+00;0; -5.2188210E-02;  1.5744079E+04;  0.0000000E+00;  3.7719858E+00;  4.0000000E+04;  0.0000000E+00;  3.9704785E+04; -7.9469472E-02;  0.0000000E+00;  2.7281262E-02;  1.0881279E+04;
  8.4176260E-01;  9.9999998E-03; -3.0124575E-01;7326;  1.7500717E-02;  0.0000000E+00;  8.8445684E-03;  9.9564264E+02;  1.6614172E-01; -3.6099700E+03;3; -6.0977678E+00;  0.0000000E+00; -1.8740692E+00;0; -4.9160909E-02;  1.4467953E+04;  0.0000000E+00;  4.7517890E-01;  4.0000000E+04;  0.0000000E+00;  3.9691645E+04; -9.7220674E-02;  0.0000000E+00;  4.8059765E-02;  8.2128037E+03;
  8.4164459E-01;  9.9999998E-03; -2.9120818E-01;7327;  1.7410811E-02;  0.0000000E+00;  9.6170483E-03;  9.9613416E+02;  1.6607633E-01; -3.2027720E+03;3; -5.9667706E+00;  0.0000000E+00; -2.4181154E+00;0; -5.2326549E-02;  1.4489087E+04;  0.0000000E+00;  8.0235940E-01;  4.0000000E+04;  0.0000000E+00;  3.9690836E+04; -9.1546193E-02;  0.0000000E+00;  3.9219644E-02;  6.4735127E+03;
  8.4141248E-01;  9.9999998E-03; -2.8117111E-01;7328;  1.7517390E-02;  0.0000000E+00;  1.0573043E-02;  9.9658630E+02;  1.6597450E-01; -2.8281655E+03;3; -5.7885151E+00;  0.0000000E+00; -2.6374118E+00;0; -5.7544228E-02;  1.4517077E+04;  0.0000000E+00;  1.3115175E+00;  4.0000000E+04;  0.0000000E+00;  3.9689957E+04; -8.4888138E-02;  0.0000000E+00;  2.7343910E-02;  5.0665859E+03;
  8.5803682E-01;  9.9999998E-03; -2.8127941E-01;7389;  1.5073802E-02;  0.0000000E+00;  9.8569598E-03;  9.9591754E+02;  1.7360236E-01; -3.3822229E+03;3; -6.1273489E+00;  0.0000000E+00; -2.2730255E+00;0; -5.6250729E-02;  1.3281404E+04;  0.0000000E+00;  1.8615529E-02;  4.0000000E+04;  0.0000000E+00;  3.9667340E+04; -1.0054233E-01;  0.0000000E+00;  4.4291601E-02;  9.7646484E+03;
  8.5806000E-01;  9.9999998E-03; -2.9131901E-01;7388;  1.4812539E-02;  0.0000000E+00;  8.9086993E-03;  9.9541034E+02;  1.7363393E-01; -3.8024575E+03;3; -6.2612705E+00;  0.0000000E+00; -1.8924216E+00;0; -5.2608389E-02;  1.3267132E+04;  0.0000000E+00; -1.2311212E+00;  4.0000000E+04;  0.0000000E+00;  3.9667438E+04; -1.0798976E-01;  0.0000000E+00;  5.5381369E-02;  1.5717107E+04;
  8.5800475E-01;  9.9999998E-03; -3.0135870E-01;7387;  1.4793670E-02;  0.0000000E+00;  8.3052581E-03;  9.9488861E+02;  1.7362770E-01; -4.2346919E+03;3; -6.3555064E+00;  0.0000000E+00; -1.1551764E+00;0; -5.4347053E-02;  1.3259297E+04;  0.0000000E+00; -2.5608819E+00;  4.0000000E+04;  0.0000000E+00;  3.9667887E+04; -1.1423769E-01;  0.0000000E+00;  5.9890635E-02;  2.1942598E+04;
  8.7673801E-01;  9.9999998E-03; -2.8141221E-01;7450;  1.1976128E-02;  0.0000000E+00;  9.0261484E-03;  9.9602094E+02;  1.8255147E-01; -3.2965952E+03;3; -6.4169950E+00;  0.0000000E+00; -1.9497312E+00;0; -5.7581335E-02;  1.2048622E+04;  0.0000000E+00; -6.0367841E-01;  4.0000000E+04;  0.0000000E+00;  3.9630672E+04; -1.1676564E-01;  0.0000000E+00;  5.9184305E-02;  1.2198380E+04;
  8.7658578E-01;  9.9999998E-03; -2.9145378E-01;7449;  1.1542184E-02;  0.0000000E+00;  8.2584815E-03;  9.9550385E+02;  1.8250178E-01; -3.7249778E+03;3; -6.5742660E+00;  0.0000000E+00; -1.4155068E+00;0; -5.8884308E-02;  1.2047210E+04;  0.0000000E+00; -1.7765158E+00;  4.0000000E+04;  0.0000000E+00;  3.9630289E+04; -1.2506978E-01;  0.0000000E+00;  6.6185474E-02;  1.8869025E+04;
  8.7634403E-01;  9.9999998E-03; -3.0149487E-01;7448;  1.1268736E-02;  0.0000000E+00;  7.5089447E-03;  9.9497034E+02;  1.8238860E-01; -4.1669893E+03;3; -6.6623120E+00;  0.0000000E+00; -9.7592676E-01;0; -6.0802564E-02;  1.2054077E+04;  0.0000000E+00; -3.2428465E+00;  4.0000000E+04;  0.0000000E+00;  3.9631270E+04; -1.3202731E-01;  0.0000000E+00;  7.1224749E-02;  2.6025391E+04;
  8.9547873E-01;  9.9999998E-03; -3.0164129E-01;7509;  7.4366862E-03;  0.0000000E+00;  6.3291644E-03;  9.9592365E+02;  1.9194493E-01; -3.3771841E+03;3; -7.1544719E+00;  0.0000000E+00; -7.5889188E-01;0; -6.8789430E-02;  1.0933799E+04;  0.0000000E+00; -4.1406536E+00;  4.0000000E+04;  0.0000000E+00;  3.9583602E+04; -1.4959347E-01;  0.0000000E+00;  8.0804043E-02;  2.9711590E+04;
  8.9574265E-01;  9.9999998E-03; -2.9159668E-01;7510;  7.9658637E-03;  0.0000000E+00;  7.1034594E-03;  9.9641235E+02;  1.9208662E-01; -2.9723071E+03;3; -6.8955059E+00;  0.0000000E+00; -1.1367632E+00;0; -6.5064408E-02;  1.0923670E+04;  0.0000000E+00; -2.6689606E+00;  4.0000000E+04;  0.0000000E+00;  3.9583086E+04; -1.4199691E-01;  0.0000000E+00;  7.6932497E-02;  2.1698070E+04;
  8.9585525E-01;  9.9999998E-03; -2.8155211E-01;7511;  8.6642653E-03;  0.0000000E+00;  8.1138965E-03;  9.9690198E+02;  1.9212674E-01; -2.5666401E+03;3; -6.7340641E+00;  0.0000000E+00; -1.9931732E+00;0; -6.5479055E-02;  1.0925194E+04;  0.0000000E+00; -1.4861078E+00;  4.0000000E+04;  0.0000000E+00;  3.9584016E+04; -1.3290405E-01;  0.0000000E+00;  6.7424998E-02;  1.4146415E+04;
  9.1608816E-01;  9.9999998E-03; -3.0178660E-01;7570;  2.9051390E-03;  0.0000000E+00;  3.8660942E-03;  9.9637897E+02;  2.0259312E-01; -2.9999595E+03;3; -7.7346559E+00;  0.0000000E+00; -3.5805762E-01;0; -7.1321242E-02;  9.8396611E+03;  0.0000000E+00; -1.5436605E+00;  4.0000000E+04;  0.0000000E+00;  3.9539816E+04; -1.6942099E-01;  0.0000000E+00;  9.8099746E-02;  1.2338449E+04;
  9.1633648E-01;  9.9999998E-03; -2.9173672E-01;7571;  3.8361992E-03;  0.0000000E+00;  5.1896386E-03;  9.9683435E+02;  2.0270415E-01; -2.6226870E+03;3; -7.4485226E+00;  0.0000000E+00; -1.9451438E+00;0; -7.6308914E-02;  9.8335801E+03;  0.0000000E+00; -1.2168218E+00;  4.0000000E+04;  0.0000000E+00;  3.9539992E+04; -1.6146439E-01;  0.0000000E+00;  8.5155480E-02;  9.7654482E+03;
  9.1640621E-01;  9.9999998E-03; -2.8168988E-01;7572;  4.9105543E-03;  0.0000000E+00;  7.5692111E-03;  9.9728809E+02;  2.0270887E-01; -2.2467476E+03;3; -7.1808443E+00;  0.0000000E+00; -3.3177993E+00;0; -9.5489457E-02;  9.8382441E+03;  0.0000000E+00; -9.4938534E-01;  4.0000000E+04;  0.0000000E+00;  3.9538379E+04; -1.5196286E-01;  0.0000000E+00;  5.6473400E-02;  7.2671440E+03;
  9.3896377E-01;  9.9999998E-03; -3.0193308E-01;7631; -1.7093058E-03;  0.0000000E+00;  3.8361754E-03;  9.9610718E+02;  2.1482496E-01; -3.2251355E+03;3; -8.5081406E+00;  0.0000000E+00; -5.1256828E+00;0; -1.5062335E-01;  8.7554746E+03;  0.0000000E+00;  2.8304865E+00;  4.0000000E+04;  0.0000000E+00;  3.9495531E+04; -1.9546892E-01;  0.0000000E+00;  4.4845566E-02;  2.5213686E+04;
  9.3884712E-01;  9.9999998E-03; -2.9187998E-01;7632; -6.3512474E-04;  0.0000000E+00;  6.8922304E-03;  9.9653772E+02;  2.1475312E-01; -2.8684058E+03;3; -8.0410986E+00;  0.0000000E+00; -5.2545118E+00;0; -1.7823519E-01;  8.7664189E+03;  0.0000000E+00;  1.2884712E+00;  4.0000000E+04;  0.0000000E+00;  3.9489641E+04; -1.8702379E-01;  0.0000000E+00;  8.7885978E-03;  1.5817356E+04;
  9.3867570E-01;  9.9999998E-03; -2.8183520E-01;7633;  7.7207241E-04;  0.0000000E+00;  9.6314326E-03;  9.9695270E+02;  2.1462871E-01; -2.5246138E+03;3; -7.7796750E+00;  0.0000000E+00; -4.9078484E+00;0; -1.9115256E-01;  8.7826230E+03;  0.0000000E+00;  8.6720385E-02;  4.0000000E+04;  0.0000000E+00;  3.9478387E+04; -1.7726010E-01;  0.0000000E+00; -1.3892462E-02;  7.5804824E+03;
  9.6371937E-01;  9.9999998E-03; -3.0208379E-01;7692; -7.1692150E-03;  0.0000000E+00; -6.1150751E-04;  9.9591742E+02;  2.2882847E-01; -3.3823123E+03;3; -8.8770638E+00;  0.0000000E+00; -5.6616354E+00;0; -1.9590220E-01;  7.7202881E+03;  0.0000000E+00;  3.4095685E+00;  4.0000000E+04;  0.0000000E+00;  3.9444551E+04; -2.3037125E-01;  0.0000000E+00;  3.4469057E-02;  5.2722594E+04;
  9.6305412E-01;  9.9999998E-03; -2.9201794E-01;7693; -6.2238965E-03;  0.0000000E+00;  2.1347217E-03;  9.9624512E+02;  2.2846401E-01; -3.1108147E+03;3; -8.6562672E+00;  0.0000000E+00; -5.6692634E+00;0; -2.1375278E-01;  7.7469360E+03;  0.0000000E+00;  1.8577063E+00;  4.0000000E+04;  0.0000000E+00;  3.9442898E+04; -2.2050326E-01;  0.0000000E+00;  6.7504854E-03;  3.7374699E+04;
  9.6246409E-01;  9.9999998E-03; -2.8196046E-01;7694; -4.4753817E-03;  0.0000000E+00;  4.5792074E-03;  9.9663782E+02;  2.2809944E-01; -2.7854919E+03;3; -8.4746561E+00;  0.0000000E+00; -4.9276896E+00;0; -2.1919499E-01;  7.7757812E+03;  0.0000000E+00;  2.7863491E-01;  4.0000000E+04;  0.0000000E+00;  3.9435719E+04; -2.1010479E-01;  0.0000000E+00; -9.0901945E-03;  2.0740549E+04;
  9.8869938E-01;  9.9999998E-03; -3.0223221E-01;7753; -1.4169665E-02;  0.0000000E+00; -9.5735826E-03;  9.9541290E+02;  2.4371126E-01; -3.8003179E+03;3; -9.4640961E+00;  0.0000000E+00; -4.9751191E+00;0; -1.9466706E-01;  6.8038867E+03;  0.0000000E+00;  1.8476837E+00;  4.0000000E+04;  0.0000000E+00;  3.9400547E+04; -2.6653495E-01;  0.0000000E+00;  7.1867898E-02;  6.6067406E+04;
  9.8779029E-01;  9.9999998E-03; -2.9215312E-01;7754; -1.3074948E-02;  0.0000000E+00; -7.0876987E-03;  9.9579016E+02;  2.4313715E-01; -3.4877358E+03;3; -9.3469858E+00;  0.0000000E+00; -5.0153527E+00;0; -2.0814337E-01;  6.8366543E+03;  0.0000000E+00;  5.9711987E-01;  4.0000000E+04;  0.0000000E+00;  3.9404234E+04; -2.5563589E-01;  0.0000000E+00;  4.7492515E-02;  4.6344879E+04;
  9.8695576E-01;  9.9999998E-03; -2.8207844E-01;7755; -1.0815964E-02;  0.0000000E+00; -4.8282240E-03;  9.9619391E+02;  2.4258065E-01; -3.1532781E+03;3; -9.2927742E+00;  0.0000000E+00; -4.6923547E+00;0; -2.1431901E-01;  6.8704165E+03;  0.0000000E+00; -6.2421453E-01;  4.0000000E+04;  0.0000000E+00;  3.9405695E+04; -2.4476865E-01;  0.0000000E+00;  3.0449640E-02;  2.5511438E+04;
  9.8626077E-01;  9.9999998E-03; -2.7200401E-01;7756; -8.0168843E-03;  0.0000000E+00; -3.6993423E-03;  9.9666577E+02;  2.4209976E-01; -2.7623281E+03;3; -9.2167711E+00;  0.0000000E+00; -4.1909175E+00;0; -2.0103815E-01;  6.9011040E+03;  0.0000000E+00; -1.2813833E+00;  4.0000000E+04;  0.0000000E+00;  3.9409238E+04; -2.3324676E-01;  0.0000000E+00;  3.2208599E-02;  9.7901104E+03;
  9.6191061E-01;  9.9999998E-03; -2.7190831E-01;7695; -2.2401561E-03;  0.0000000E+00;  5.6845350E-03;  9.9707288E+02;  2.2774112E-01; -2.4250591E+03;3; -8.3182344E+00;  0.0000000E+00; -4.1466727E+00;0; -1.9920014E-01;  7.8054575E+03;  0.0000000E+00; -6.9576544E-01;  4.0000000E+04;  0.0000000E+00;  3.9428977E+04; -1.9867074E-01;  0.0000000E+00; -5.2939926E-04;  8.1236226E+03;
  1.0117651E+00;  9.9999998E-03; -2.8220752E-01;7816; -1.9038236E-02;  0.0000000E+00; -1.5104449E-02;  9.9470007E+02;  2.5780353E-01; -4.3908569E+03;3; -1.0039633E+01;  0.0000000E+00; -4.1955619E+00;0; -1.9700877E-01;  6.0656670E+03;  0.0000000E+00; -1.8474014E+00;  4.0000000E+04;  0.0000000E+00;  3.9386867E+04; -2.5313705E-01;  0.0000000E+00;  5.6128275E-02;  1.9848850E+04;
  1.0125937E+00;  9.9999998E-03; -2.9229432E-01;7815; -2.2037685E-02;  0.0000000E+00; -1.7020255E-02;  9.9414819E+02;  2.5844240E-01; -4.8480752E+03;3; -1.0043269E+01;  0.0000000E+00; -4.4660096E+00;0; -1.8863282E-01;  6.0329165E+03;  0.0000000E+00; -1.2152086E+00;  4.0000000E+04;  0.0000000E+00;  3.9380727E+04; -2.6308626E-01;  0.0000000E+00;  7.4453436E-02;  3.7824500E+04;
  1.0134469E+00;  9.9999998E-03; -3.0238035E-01;7814; -2.4219792E-02;  0.0000000E+00; -1.9020988E-02;  9.9355951E+02;  2.5911230E-01; -5.3358101E+03;3; -1.0027884E+01;  0.0000000E+00; -4.6021352E+00;0; -1.7764750E-01;  5.9996392E+03;  0.0000000E+00; -1.5711930E-01;  4.0000000E+04;  0.0000000E+00;  3.9376777E+04; -2.7272767E-01;  0.0000000E+00;  9.5080175E-02;  5.7842016E+04;
  1.0361652E+00;  9.9999998E-03; -2.8235671E-01;7877; -2.8991876E-02;  0.0000000E+00; -2.3215489E-02;  9.9254663E+02;  2.7307835E-01; -6.1749224E+03;3; -1.0865880E+01;  0.0000000E+00; -3.8527191E+00;0; -5.5727959E-02;  5.3856050E+03;  0.0000000E+00; -2.3312318E+00;  4.0000000E+04;  0.0000000E+00;  3.9368109E+04; -8.2811534E-02;  0.0000000E+00;  2.7083574E-02;  1.0613304E+04;
  1.0365940E+00;  9.9999998E-03; -2.9244462E-01;7876; -3.2755401E-02;  0.0000000E+00; -2.4745330E-02;  9.9193115E+02;  2.7351004E-01; -6.6848286E+03;3; -1.0834537E+01;  0.0000000E+00; -4.3650837E+00;0; -4.4859555E-02;  5.3656108E+03;  0.0000000E+00; -2.2123694E+00;  4.0000000E+04;  0.0000000E+00;  3.9363348E+04; -9.1060594E-02;  0.0000000E+00;  4.6201039E-02;  1.3379595E+04;
  1.0371726E+00;  9.9999998E-03; -3.0253193E-01;7875; -3.6508303E-02;  0.0000000E+00; -2.6200583E-02;  9.9123602E+02;  2.7410287E-01; -7.2607070E+03;3; -1.0753621E+01;  0.0000000E+00; -4.8463497E+00;0; -3.3127338E-02;  5.3399507E+03;  0.0000000E+00; -1.6734872E+00;  4.0000000E+04;  0.0000000E+00;  3.9361512E+04; -9.7462624E-02;  0.0000000E+00;  6.4335287E-02;  1.9970564E+04;
  1.0625919E+00;  9.9999998E-03; -2.8256193E-01;7938; -3.9964564E-02;  0.0000000E+00; -3.1360876E-02;  9.9173291E+02;  2.8964317E-01; -6.8490356E+03;3; -1.2094800E+01;  0.0000000E+00; -3.5182896E+00;0;  4.7825781E-01;  4.7863096E+03;  0.0000000E+00; -2.0941002E+00;  4.0000000E+04;  0.0000000E+00;  3.9313020E+04;  5.2339768E-01;  0.0000000E+00; -4.5139872E-02;  1.8579703E+04;
  1.0625348E+00;  9.9999998E-03; -2.9264012E-01;7937; -4.4391628E-02;  0.0000000E+00; -3.1536095E-02;  9.9116003E+02;  2.8976581E-01; -7.3236323E+03;3; -1.2119694E+01;  0.0000000E+00; -4.0385890E+00;0;  4.7220975E-01;  4.7795161E+03;  0.0000000E+00; -2.2786396E+00;  4.0000000E+04;  0.0000000E+00;  3.9315480E+04;  5.1194042E-01;  0.0000000E+00; -3.9730661E-02;  2.7248566E+04;
  1.0623682E+00;  9.9999998E-03; -3.0271927E-01;7936; -4.8792817E-02;  0.0000000E+00; -3.1898543E-02;  9.9051837E+02;  2.8987113E-01; -7.8552144E+03;3; -1.2090849E+01;  0.0000000E+00; -4.6541381E+00;0;  4.6767807E-01;  4.7741592E+03;  0.0000000E+00; -2.5166919E+00;  4.0000000E+04;  0.0000000E+00;  3.9319465E+04;  4.9534002E-01;  0.0000000E+00; -2.7661953E-02;  3.7353520E+04;
  1.0918669E+00;  9.9999998E-03; -2.8282449E-01;7999; -4.8581168E-02;  0.0000000E+00; -4.2208176E-02;  9.9458142E+02;  3.0672610E-01; -4.4891006E+03;3; -1.3937355E+01;  0.0000000E+00; -3.8998036E+00;0;  1.6694014E+00;  4.3048789E+03;  0.0000000E+00; -2.2988205E+00;  4.0000000E+04;  0.0000000E+00;  3.9197254E+04;  1.7999756E+00;  0.0000000E+00; -1.3057421E-01;  1.7613803E+04;
  1.0914475E+00;  9.9999998E-03; -2.9288706E-01;7998; -5.3820148E-02;  0.0000000E+00; -4.0970765E-02;  9.9401001E+02;  3.0661547E-01; -4.9624595E+03;3; -1.4217732E+01;  0.0000000E+00; -4.2888699E+00;0;  1.6524434E+00;  4.3045483E+03;  0.0000000E+00; -2.2908869E+00;  4.0000000E+04;  0.0000000E+00;  3.9209578E+04;  1.7910796E+00;  0.0000000E+00; -1.3863619E-01;  3.3008574E+04;
  1.0907218E+00;  9.9999998E-03; -3.0295539E-01;7997; -5.8564447E-02;  0.0000000E+00; -4.0198527E-02;  9.9348053E+02;  3.0631942E-01; -5.4011543E+03;3; -1.4437142E+01;  0.0000000E+00; -4.6871462E+00;0;  1.6336542E+00;  4.3108052E+03;  0.0000000E+00; -3.2415984E+00;  4.0000000E+04;  0.0000000E+00;  3.9222684E+04;  1.7643616E+00;  0.0000000E+00; -1.3070741E-01;  5.9528812E+04;
  1.1254497E+00;  9.9999998E-03; -2.8303948E-01;8060; -5.0628833E-02;  0.0000000E+00; -5.7037380E-02;  9.9964758E+02;  3.1971037E-01; -2.9198035E+02;3; -1.7195774E+01;  0.0000000E+00; -5.7603173E+00;0;  3.3782704E+00;  4.0130718E+03;  0.0000000E+00; -4.4644232E+00;  4.0000000E+04;  0.0000000E+00;  3.9078426E+04;  3.5516665E+00;  0.0000000E+00; -1.7339607E-01;  1.1683569E+04;
  1.1251506E+00;  9.9999998E-03; -2.9309016E-01;8059; -5.7221908E-02;  0.0000000E+00; -5.5062298E-02;  9.9878870E+02;  3.1975552E-01; -1.0034883E+03;3; -1.7999495E+01;  0.0000000E+00; -6.1032276E+00;0;  3.4013648E+00;  4.0054175E+03;  0.0000000E+00; -4.0958319E+00;  4.0000000E+04;  0.0000000E+00;  3.9106449E+04;  3.5911818E+00;  0.0000000E+00; -1.8981698E-01;  7.5121138E+03;
  1.1244940E+00;  9.9999998E-03; -3.0315429E-01;8058; -6.4716302E-02;  0.0000000E+00; -5.4305449E-02;  9.9803302E+02;  3.1967670E-01; -1.6295210E+03;3; -1.9172274E+01;  0.0000000E+00; -6.3715539E+00;0;  3.4302058E+00;  4.0027102E+03;  0.0000000E+00; -3.9999156E+00;  4.0000000E+04;  0.0000000E+00;  3.9133543E+04;  3.6047480E+00;  0.0000000E+00; -1.7454226E-01;  9.7960762E+03;
  1.1628323E+00;  9.9999998E-03; -2.8308344E-01;8121;  4.1684839E-01;  0.0000000E+00; -8.1889749E-02;  1.0020949E+03;  3.2106745E-01;  1.7354375E+03;3; -4.5389466E+00;  0.0000000E+00; -1.6314011E+01;0;  4.1276264E+00;  4.0038921E+03;  0.0000000E+00; -6.8751812E+00;  4.0000000E+04;  0.0000000E+00;  3.9017438E+04;  4.0132961E+00;  0.0000000E+00;  1.1433050E-01;  1.9901322E+04;
  1.1633322E+00;  9.9999998E-03; -2.9314771E-01;8120;  4.2006469E-01;  0.0000000E+00; -7.7030756E-02;  1.0009476E+03;  3.2122031E-01;  7.8501025E+02;3; -8.4047165E+00;  0.0000000E+00; -1.5888348E+01;0;  4.1630468E+00;  3.9921741E+03;  0.0000000E+00; -7.3598866E+00;  4.0000000E+04;  0.0000000E+00;  3.9040719E+04;  4.0921059E+00;  0.0000000E+00;  7.0941091E-02;  1.3802944E+04;
  1.1642314E+00;  9.9999998E-03; -3.0322093E-01;8119;  4.2846692E-01;  0.0000000E+00; -7.3250331E-02;  9.9978192E+02;  3.2139727E-01; -1.8067366E+02;3; -9.7303572E+00;  0.0000000E+00; -1.5164287E+01;0;  4.1801176E+00;  3.9797668E+03;  0.0000000E+00; -6.7619486E+00;  4.0000000E+04;  0.0000000E+00;  3.9071426E+04;  4.1444683E+00;  0.0000000E+00;  3.5649180E-02;  1.3622633E+04;
  1.0111847E+00;  9.9999998E-03; -2.7211839E-01;7817; -1.5733024E-02;  0.0000000E+00; -1.3614403E-02;  9.9528052E+02;  2.5734267E-01; -3.9099854E+03;3; -1.0031796E+01;  0.0000000E+00; -3.8298151E+00;0; -1.9689029E-01;  6.0908726E+03;  0.0000000E+00; -1.9123534E+00;  4.0000000E+04;  0.0000000E+00;  3.9394836E+04; -2.4199063E-01;  0.0000000E+00;  4.5100324E-02;  9.1914434E+03;
  1.0359682E+00;  9.9999998E-03; -2.7226812E-01;7878; -2.5168940E-02;  0.0000000E+00; -2.1840382E-02;  9.9313348E+02;  2.7283794E-01; -5.6887192E+03;3; -1.0911916E+01;  0.0000000E+00; -3.3085046E+00;0; -5.9047833E-02;  5.3986587E+03;  0.0000000E+00; -2.0560732E+00;  4.0000000E+04;  0.0000000E+00;  3.9371707E+04; -7.1711540E-02;  0.0000000E+00;  1.2663706E-02;  1.0896854E+04;
  1.0624318E+00;  9.9999998E-03; -2.7248552E-01;7939; -3.5272658E-02;  0.0000000E+00; -3.1122252E-02;  9.9228094E+02;  2.8941116E-01; -6.3949814E+03;3; -1.2024214E+01;  0.0000000E+00; -3.1880429E+00;0;  4.8007506E-01;  4.7979150E+03;  0.0000000E+00; -2.0147290E+00;  4.0000000E+04;  0.0000000E+00;  3.9307988E+04;  5.2616036E-01;  0.0000000E+00; -4.6085309E-02;  1.2228140E+04;
  1.0918221E+00;  9.9999998E-03; -2.7276668E-01;8000; -4.3055721E-02;  0.0000000E+00; -4.3703064E-02;  9.9530389E+02;  3.0656332E-01; -3.8905637E+03;3; -1.3622424E+01;  0.0000000E+00; -3.6360986E+00;0;  1.6715666E+00;  4.3145962E+03;  0.0000000E+00; -2.7679596E+00;  4.0000000E+04;  0.0000000E+00;  3.9187727E+04;  1.7821984E+00;  0.0000000E+00; -1.1063185E-01;  1.0195341E+04;
  1.1256164E+00;  9.9999998E-03; -2.7299875E-01;8061; -4.4607159E-02;  0.0000000E+00; -6.0500484E-02;  1.0006832E+03;  3.1962585E-01;  5.6598657E+02;3; -1.6480238E+01;  0.0000000E+00; -5.3500423E+00;0;  3.3667896E+00;  4.0227004E+03;  0.0000000E+00; -4.5928349E+00;  4.0000000E+04;  0.0000000E+00;  3.9060250E+04;  3.4966319E+00;  0.0000000E+00; -1.2984239E-01;  1.5765253E+04;
  1.1628518E+00;  9.9999998E-03; -2.7301824E-01;8122;  4.1727209E-01;  0.0000000E+00; -8.7836444E-02;  1.0033630E+03;  3.2094470E-01;  2.7860027E+03;3;  7.9452622E-01;  0.0000000E+00; -1.6903498E+01;0;  4.0626884E+00;  4.0142708E+03;  0.0000000E+00; -5.6656752E+00;  4.0000000E+04;  0.0000000E+00;  3.9014430E+04;  3.9044242E+00;  0.0000000E+00;  1.5826394E-01;  2.2316660E+04;
  1.1974187E+00;  9.9999998E-03; -2.7285230E-01;8183;  5.0096762E-01;  0.0000000E+00; -8.3351411E-02;  1.0041186E+03;  3.1345195E-01;  3.4117598E+03;3;  6.8470726E+01;  0.0000000E+00; -3.3498089E+01;0;  2.6750693E+00;  4.2103188E+03;  0.0000000E+00; -5.3884134E+00;  4.0000000E+04;  0.0000000E+00;  3.9068301E+04;  2.2701252E+00;  0.0000000E+00;  4.0494424E-01;  1.8433863E+04;
  1.1980565E+00;  9.9999998E-03; -2.8295311E-01;8182;  5.1424801E-01;  0.0000000E+00; -7.6548047E-02;  1.0030327E+03;  3.1347835E-01;  2.5122310E+03;3;  6.8051949E+01;  0.0000000E+00; -3.3303623E+01;0;  2.6631610E+00;  4.2053623E+03;  0.0000000E+00; -6.9721541E+00;  4.0000000E+04;  0.0000000E+00;  3.9052930E+04;  2.3025475E+00;  0.0000000E+00;  3.6061367E-01;  2.0050721E+04;
  1.1989913E+00;  9.9999998E-03; -2.9304358E-01;8181;  5.2704734E-01;  0.0000000E+00; -7.1292639E-02;  1.0020611E+03;  3.1348604E-01;  1.7074059E+03;3;  6.7867409E+01;  0.0000000E+00; -3.2957790E+01;0;  2.6198833E+00;  4.2001353E+03;  0.0000000E+00; -7.7976599E+00;  4.0000000E+04;  0.0000000E+00;  3.9058766E+04;  2.3094049E+00;  0.0000000E+00;  3.1047842E-01;  1.5800576E+04;
  1.2005088E+00;  9.9999998E-03; -3.0313620E-01;8180;  5.4066777E-01;  0.0000000E+00; -6.7096993E-02;  1.0011806E+03;  3.1346855E-01;  9.7802783E+02;3;  6.7572426E+01;  0.0000000E+00; -3.2078423E+01;0;  2.5385649E+00;  4.1956992E+03;  0.0000000E+00; -7.8610477E+00;  4.0000000E+04;  0.0000000E+00;  3.9074152E+04;  2.2738678E+00;  0.0000000E+00;  2.6469713E-01;  9.5963525E+03;
  1.2303479E+00;  9.9999998E-03; -2.8280681E-01;8243;  5.1784492E-01;  0.0000000E+00; -4.2393100E-02;  1.0006087E+03;  3.0270362E-01;  5.0418741E+02;3;  7.7522461E+01;  0.0000000E+00; -3.4593327E+01;0;  1.2429612E+00;  4.4798496E+03;  0.0000000E+00; -7.4872627E+00;  4.0000000E+04;  0.0000000E+00;  3.9124723E+04;  7.5204414E-01;  0.0000000E+00;  4.9091706E-01;  1.8040867E+04;
  1.2313578E+00;  9.9999998E-03; -2.9291829E-01;8242;  5.3212053E-01;  0.0000000E+00; -3.6617901E-02;  9.9948639E+02;  3.0257475E-01; -4.2543777E+02;3;  7.8782822E+01;  0.0000000E+00; -3.4238281E+01;0;  1.1331781E+00;  4.4790020E+03;  0.0000000E+00; -8.4066992E+00;  4.0000000E+04;  0.0000000E+00;  3.9114027E+04;  7.2839582E-01;  0.0000000E+00;  4.0478227E-01;  1.1764590E+04;
  1.2328992E+00;  9.9999998E-03; -3.0302274E-01;8241;  5.4787809E-01;  0.0000000E+00; -3.3025395E-02;  9.9845648E+02;  3.0240354E-01; -1.2785294E+03;3;  8.0036514E+01;  0.0000000E+00; -3.3710361E+01;0;  1.0169495E+00;  4.4792202E+03;  0.0000000E+00; -8.4206820E+00;  4.0000000E+04;  0.0000000E+00;  3.9119926E+04;  6.7773992E-01;  0.0000000E+00;  3.3920962E-01;  3.5991514E+03;
  1.2601904E+00;  9.9999998E-03; -2.8272277E-01;8304;  5.1214272E-01;  0.0000000E+00; -4.5117917E-03;  9.9658746E+02;  2.9029766E-01; -2.8263989E+03;3;  8.2034538E+01;  0.0000000E+00; -2.9421780E+01;0;  6.5012103E-01;  4.8182217E+03;  0.0000000E+00; -9.3376713E+00;  4.0000000E+04;  0.0000000E+00;  3.9197910E+04; -6.8262185E-04;  0.0000000E+00;  6.5080363E-01;  2.5451070E+04;
  1.2605414E+00;  9.9999998E-03; -2.9284468E-01;8303;  5.2657074E-01;  0.0000000E+00;  6.5931451E-04;  9.9529169E+02;  2.9025894E-01; -3.8995784E+03;3;  8.3195000E+01;  0.0000000E+00; -2.8699070E+01;0;  5.1197433E-01;  4.8148657E+03;  0.0000000E+00; -1.0453359E+01;  4.0000000E+04;  0.0000000E+00;  3.9174598E+04; -2.5167843E-02;  0.0000000E+00;  5.3714216E-01;  1.8986428E+04;
  1.2615511E+00;  9.9999998E-03; -3.0295628E-01;8302;  5.4106361E-01;  0.0000000E+00;  3.5785937E-03;  9.9411224E+02;  2.9016522E-01; -4.8764253E+03;3;  8.5462952E+01;  0.0000000E+00; -2.8666040E+01;0;  3.8101041E-01;  4.8132192E+03;  0.0000000E+00; -1.0502239E+01;  4.0000000E+04;  0.0000000E+00;  3.9170070E+04; -5.8342203E-02;  0.0000000E+00;  4.3935260E-01;  9.3264277E+03;
  1.2873075E+00;  9.9999998E-03; -2.8269395E-01;8365;  5.0235879E-01;  0.0000000E+00;  2.7197322E-02;  9.9311877E+02;  2.7686158E-01; -5.6984624E+03;3;  8.7175156E+01;  0.0000000E+00; -2.3542778E+01;0;  7.7560151E-01;  5.2429375E+03;  0.0000000E+00; -1.0413687E+01;  4.0000000E+04;  0.0000000E+00;  3.9270387E+04; -1.1226547E-02;  0.0000000E+00;  7.8682804E-01;  3.3509059E+04;
  1.2878834E+00;  9.9999998E-03; -2.9282203E-01;8364;  5.1622188E-01;  0.0000000E+00;  3.2422636E-02;  9.9179364E+02;  2.7674079E-01; -6.7957974E+03;3;  8.8937973E+01;  0.0000000E+00; -1.8150335E+01;0;  6.1836743E-01;  5.2426167E+03;  0.0000000E+00; -1.1933209E+01;  4.0000000E+04;  0.0000000E+00;  3.9236484E+04; -6.1387885E-02;  0.0000000E+00;  6.7975533E-01;  3.2281080E+04;
  1.2890943E+00;  9.9999998E-03; -3.0293736E-01;8363;  5.2927119E-01;  0.0000000E+00;  3.6680788E-02;  9.9048743E+02;  2.7650878E-01; -7.8773950E+03;3;  9.1314705E+01;  0.0000000E+00; -2.0083462E+01;0;  4.4995046E-01;  5.2456768E+03;  0.0000000E+00; -1.2149762E+01;  4.0000000E+04;  0.0000000E+00;  3.9221578E+04; -9.8633215E-02;  0.0000000E+00;  5.4858369E-01;  2.8050793E+04;
  1.3137470E+00;  9.9999998E-03; -2.8269833E-01;8426;  4.8853442E-01;  0.0000000E+00;  6.6325597E-02;  9.9029657E+02;  2.6196155E-01; -8.0338657E+03;3;  9.6098625E+01;  0.0000000E+00; -3.9515129E+01;0;  1.2474178E+00;  5.8026255E+03;  0.0000000E+00; -9.9322462E+00;  4.0000000E+04;  0.0000000E+00;  3.9345348E+04;  6.3776344E-01;  0.0000000E+00;  6.0965437E-01;  3.7725992E+04;
  1.3149526E+00;  9.9999998E-03; -2.9282513E-01;8425;  5.0153011E-01;  0.0000000E+00;  5.3495020E-02;  9.8903448E+02;  2.6160541E-01; -9.0786719E+03;3;  9.5359337E+01;  0.0000000E+00; -8.9095793E+00;0;  1.3937865E+00;  5.8122783E+03;  0.0000000E+00; -1.1081767E+01;  4.0000000E+04;  0.0000000E+00;  3.9313777E+04;  5.8231080E-01;  0.0000000E+00;  8.1147575E-01;  3.6664008E+04;
  1.3166655E+00;  9.9999998E-03; -3.0295020E-01;8424;  5.1291949E-01;  0.0000000E+00;  6.5640688E-02;  9.8747693E+02;  2.6109946E-01; -1.0368016E+04;3;  9.7987892E+01;  0.0000000E+00; -4.5079012E+00;0;  1.1201365E+00;  5.8272505E+03;  0.0000000E+00; -1.0366676E+01;  4.0000000E+04;  0.0000000E+00;  3.9282883E+04;  5.5707753E-01;  0.0000000E+00;  5.6305897E-01;  2.9723133E+04;
  1.2295179E+00;  9.9999998E-03; -2.7267849E-01;8244;  5.0337440E-01;  0.0000000E+00; -4.8615828E-02;  1.0017144E+03;  3.0281076E-01;  1.4201411E+03;3;  7.6823502E+01;  0.0000000E+00; -3.5782295E+01;0;  1.3056948E+00;  4.4800713E+03;  0.0000000E+00; -5.5307174E+00;  4.0000000E+04;  0.0000000E+00;  3.9154301E+04;  7.6350057E-01;  0.0000000E+00;  5.4219425E-01;  1.6230329E+04;
  1.2597461E+00;  9.9999998E-03; -2.7258456E-01;8305;  4.9729103E-01;  0.0000000E+00; -7.9176221E-03;  9.9779871E+02;  2.9040959E-01; -1.8232191E+03;3;  8.1209694E+01;  0.0000000E+00; -3.3153404E+01;0;  7.0531553E-01;  4.8181621E+03;  0.0000000E+00; -6.7267227E+00;  4.0000000E+04;  0.0000000E+00;  3.9233477E+04;  2.6404155E-02;  0.0000000E+00;  6.7891139E-01;  2.2860486E+04;
  1.2869217E+00;  9.9999998E-03; -2.7256027E-01;8366;  4.8673108E-01;  0.0000000E+00;  3.6382291E-02;  9.9419659E+02;  2.7696791E-01; -4.8059058E+03;3;  8.8170113E+01;  0.0000000E+00; -4.8533180E+01;0;  6.9399273E-01;  5.2426509E+03;  0.0000000E+00; -7.6361217E+00;  4.0000000E+04;  0.0000000E+00;  3.9302266E+04;  4.9418628E-02;  0.0000000E+00;  6.4457411E-01;  2.9628750E+04;
  1.3126606E+00;  9.9999998E-03; -2.7259511E-01;8427;  4.7096997E-01;  0.0000000E+00;  9.8723859E-02;  9.9090314E+02;  2.6228136E-01; -7.5317217E+03;3;  9.5575089E+01;  0.0000000E+00; -5.0835262E+01;0;  9.1236806E-01;  5.7935586E+03;  0.0000000E+00; -7.5210028E+00;  4.0000000E+04;  0.0000000E+00;  3.9343391E+04;  7.1028429E-01;  0.0000000E+00;  2.0208374E-01;  3.2296615E+04;
  1.3380686E+00;  9.9999998E-03; -2.7268830E-01;8488;  4.5484954E-01;  0.0000000E+00;  1.4257249E-01;  9.8845422E+02;  2.4668938E-01; -9.5564404E+03;3;  9.9675179E+01;  0.0000000E+00; -2.1571390E+01;0;  1.7431332E+00;  6.5106943E+03;  0.0000000E+00; -7.7794089E+00;  4.0000000E+04;  0.0000000E+00;  3.9338836E+04;  2.0031495E+00;  0.0000000E+00; -2.6001635E-01;  3.2786988E+04;
  1.3393005E+00;  9.9999998E-03; -2.8275838E-01;8487;  4.7091818E-01;  0.0000000E+00;  1.2436346E-01;  9.8827386E+02;  2.4629019E-01; -9.7055566E+03;3;  1.0725430E+02;  0.0000000E+00; -2.2966105E+01;0;  1.8148196E+00;  6.5260161E+03;  0.0000000E+00; -9.4726391E+00;  4.0000000E+04;  0.0000000E+00;  3.9371324E+04;  1.9268552E+00;  0.0000000E+00; -1.1203564E-01;  3.7889508E+04;
  1.3408674E+00;  9.9999998E-03; -2.9285198E-01;8486;  4.8309129E-01;  0.0000000E+00;  9.7425804E-02;  9.8753247E+02;  2.4575585E-01; -1.0318938E+04;3;  1.0681274E+02;  0.0000000E+00; -3.7963413E+01;0;  2.1346750E+00;  6.5472383E+03;  0.0000000E+00; -9.4236145E+00;  4.0000000E+04;  0.0000000E+00;  3.9381289E+04;  1.8898404E+00;  0.0000000E+00;  2.4483457E-01;  3.5824719E+04;
  1.3428934E+00;  9.9999998E-03; -3.0297151E-01;8485;  4.8842552E-01;  0.0000000E+00;  7.7098295E-02;  9.8597510E+02;  2.4505550E-01; -1.1607602E+04;3;  1.1063808E+02;  0.0000000E+00; -1.7484138E+01;0;  2.4656446E+00;  6.5756499E+03;  0.0000000E+00; -6.3025646E+00;  4.0000000E+04;  0.0000000E+00;  3.9357801E+04;  1.9002209E+00;  0.0000000E+00;  5.6542367E-01;  2.4224826E+04;
  1.3618640E+00;  9.9999998E-03; -2.7281019E-01;8549;  4.3908846E-01;  0.0000000E+00;  1.6848786E-01;  9.8757556E+02;  2.3158041E-01; -1.0279534E+04;3;  9.6381569E+01;  0.0000000E+00;  1.4897609E+01;0;  2.9103749E+00;  7.3783779E+03;  0.0000000E+00; -9.1707726E+00;  4.0000000E+04;  0.0000000E+00;  3.9293293E+04;  3.6575327E+00;  0.0000000E+00; -7.4715787E-01;  3.4734969E+04;
  1.3632828E+00;  9.9999998E-03; -2.8286612E-01;8548;  4.5047930E-01;  0.0000000E+00;  1.6163756E-01;  9.8752057E+02;  2.3107372E-01; -1.0324754E+04;3;  1.0139883E+02;  0.0000000E+00; -1.1439396E+00;0;  2.7865624E+00;  7.4045317E+03;  0.0000000E+00; -1.0563839E+01;  4.0000000E+04;  0.0000000E+00;  3.9332699E+04;  3.6023350E+00;  0.0000000E+00; -8.1577247E-01;  3.8487961E+04;
  1.3651351E+00;  9.9999998E-03; -2.9293588E-01;8547;  4.5859188E-01;  0.0000000E+00;  1.4352663E-01;  9.8706317E+02;  2.3039402E-01; -1.0702771E+04;3;  1.0998842E+02;  0.0000000E+00; -1.6665514E+01;0;  2.9499993E+00;  7.4401313E+03;  0.0000000E+00; -9.1678848E+00;  4.0000000E+04;  0.0000000E+00;  3.9368699E+04;  3.6009538E+00;  0.0000000E+00; -6.5095460E-01;  3.3483746E+04;
  1.3672686E+00;  9.9999998E-03; -3.0302280E-01;8546;  4.6030051E-01;  0.0000000E+00;  1.1961754E-01;  9.8587415E+02;  2.2962989E-01; -1.1685950E+04;3;  1.1442941E+02;  0.0000000E+00; -2.5191591E+01;0;  3.3427510E+00;  7.4785151E+03;  0.0000000E+00; -2.3381302E+00;  4.0000000E+04;  0.0000000E+00;  3.9387805E+04;  3.6429048E+00;  0.0000000E+00; -3.0015361E-01;  2.4145373E+04;
  1.3856543E+00;  9.9999998E-03; -2.8298023E-01;8609;  4.7845316E-01;  0.0000000E+00;  1.3524292E-01;  9.8831641E+02;  2.1676035E-01; -9.6610342E+03;3; -1.0802300E+02;  0.0000000E+00;  3.6343239E+01;0;  4.4108014E+00;  8.4409629E+03;  0.0000000E+00; -1.5103535E+01;  4.0000000E+04;  0.0000000E+00;  3.9264625E+04;  5.1978569E+00;  0.0000000E+00; -7.8705531E-01;  5.1748371E+04;
  1.3876202E+00;  9.9999998E-03; -2.9304177E-01;8608;  4.7865829E-01;  0.0000000E+00;  1.3482420E-01;  9.8772833E+02;  2.1604949E-01; -1.0146714E+04;3; -1.0101333E+02;  0.0000000E+00;  2.9672283E+01;0;  4.3589320E+00;  8.4855918E+03;  0.0000000E+00; -1.2082147E+01;  4.0000000E+04;  0.0000000E+00;  3.9305473E+04;  5.2180872E+00;  0.0000000E+00; -8.5915536E-01;  4.0298453E+04;
  1.3897874E+00;  9.9999998E-03; -3.0311173E-01;8607;  4.8089138E-01;  0.0000000E+00;  1.3269453E-01;  9.8641650E+02;  2.1534149E-01; -1.1230664E+04;3; -9.8229073E+01;  0.0000000E+00;  2.1879303E+01;0;  4.3999820E+00;  8.5248428E+03;  0.0000000E+00;  2.6513469E-01;  4.0000000E+04;  0.0000000E+00;  3.9345285E+04;  5.2647743E+00;  0.0000000E+00; -8.6479247E-01;  1.8207895E+04;
  1.4061657E+00;  9.9999998E-03; -2.8305411E-01;8670;  6.7234039E-01;  0.0000000E+00;  9.9480197E-02;  9.9048071E+02;  2.0365132E-01; -7.8659653E+03;3; -1.5688377E+02;  0.0000000E+00;  4.8384438E+01;0;  5.5016127E+00;  9.6190723E+03;  0.0000000E+00; -2.2238817E+01;  4.0000000E+04;  0.0000000E+00;  3.9216766E+04;  6.2104130E+00;  0.0000000E+00; -7.0880049E-01;  7.3373938E+04;
  1.4083487E+00;  9.9999998E-03; -2.9311714E-01;8669;  6.8157899E-01;  0.0000000E+00;  1.0360429E-01;  9.8936450E+02;  2.0291391E-01; -8.7875557E+03;3; -1.6022804E+02;  0.0000000E+00;  4.5107620E+01;0;  5.4271007E+00;  9.6710029E+03;  0.0000000E+00; -1.7327538E+01;  4.0000000E+04;  0.0000000E+00;  3.9255312E+04;  6.2386732E+00;  0.0000000E+00; -8.1157237E-01;  5.7683977E+04;
  1.4105735E+00;  9.9999998E-03; -3.0318564E-01;8668;  6.9907403E-01;  0.0000000E+00;  1.0715263E-01;  9.8735205E+02;  2.0231611E-01; -1.0449370E+04;3; -1.6108704E+02;  0.0000000E+00;  4.3093235E+01;0;  5.3933268E+00;  9.6989727E+03;  0.0000000E+00;  3.2976897E+00;  4.0000000E+04;  0.0000000E+00;  3.9297496E+04;  6.2736444E+00;  0.0000000E+00; -8.8031793E-01;  1.3102155E+04;
  1.4246447E+00;  9.9999998E-03; -2.8309715E-01;8731;  8.4313488E-01;  0.0000000E+00;  6.2492702E-02;  9.9320776E+02;  1.9205073E-01; -5.6079092E+03;3; -1.6930876E+02;  0.0000000E+00;  5.5817303E+01;0;  5.9427876E+00;  1.0890169E+04;  0.0000000E+00; -2.7511782E+01;  4.0000000E+04;  0.0000000E+00;  3.9186184E+04;  6.5372863E+00;  0.0000000E+00; -5.9449875E-01;  8.3426219E+04;
  1.4270117E+00;  9.9999998E-03; -2.9316384E-01;8730;  8.5999781E-01;  0.0000000E+00;  6.9032677E-02;  9.9130048E+02;  1.9132663E-01; -7.1817427E+03;3; -1.6986151E+02;  0.0000000E+00;  5.3628212E+01;0;  5.8587546E+00;  1.0941109E+04;  0.0000000E+00; -2.0904449E+01;  4.0000000E+04;  0.0000000E+00;  3.9223258E+04;  6.5612459E+00;  0.0000000E+00; -7.0249116E-01;  6.6285398E+04;
  1.4290102E+00;  9.9999998E-03; -3.0323634E-01;8729;  8.8862276E-01;  0.0000000E+00;  7.5530827E-02;  9.8848419E+02;  1.9096468E-01; -9.5056289E+03;3; -1.6672346E+02;  0.0000000E+00;  5.4341766E+01;0;  5.8074226E+00;  1.0934218E+04;  0.0000000E+00;  9.3685083E+00;  4.0000000E+04;  0.0000000E+00;  3.9261715E+04;  6.5946345E+00;  0.0000000E+00; -7.8721201E-01;  2.0787908E+04;
  1.4419285E+00;  9.9999998E-03; -2.8311953E-01;8792;  1.0024463E+00;  0.0000000E+00;  2.9944180E-02;  9.9582721E+02;  1.8181677E-01; -3.4417217E+03;3; -1.6007472E+02;  0.0000000E+00;  5.7727612E+01;0;  5.8301044E+00;  1.2228360E+04;  0.0000000E+00; -2.8573132E+01;  4.0000000E+04;  0.0000000E+00;  3.9168508E+04;  6.3261461E+00;  0.0000000E+00; -4.9604163E-01;  7.7683383E+04;
  1.4442130E+00;  9.9999998E-03; -2.9319313E-01;8791;  1.0182052E+00;  0.0000000E+00;  3.7238162E-02;  9.9306860E+02;  1.8120356E-01; -5.7161479E+03;3; -1.5850529E+02;  0.0000000E+00;  5.7530792E+01;0;  5.7617097E+00;  1.2261815E+04;  0.0000000E+00; -1.9913790E+01;  4.0000000E+04;  0.0000000E+00;  3.9202441E+04;  6.3501391E+00;  0.0000000E+00; -5.8842963E-01;  5.9227348E+04;
  1.4454943E+00;  9.9999998E-03; -3.0327669E-01;8790;  1.0438781E+00;  0.0000000E+00;  4.4579014E-02;  9.8999207E+02;  1.8115495E-01; -8.2525117E+03;3; -1.5476924E+02;  0.0000000E+00;  5.9039162E+01;0;  5.7701969E+00;  1.2204941E+04;  0.0000000E+00;  1.9617296E+01;  4.0000000E+04;  0.0000000E+00;  3.9229734E+04;  6.4213629E+00;  0.0000000E+00; -6.5116596E-01;  4.2893145E+04;
  1.4583412E+00;  9.9999998E-03; -2.8313521E-01;8853;  1.1411307E+00;  0.0000000E+00;  6.6579005E-04;  9.9782391E+02;  1.7288674E-01; -1.7926382E+03;3; -1.3252946E+02;  0.0000000E+00;  5.7882538E+01;0;  5.3800836E+00;  1.3590124E+04;  0.0000000E+00; -2.5659081E+01;  4.0000000E+04;  0.0000000E+00;  3.9155020E+04;  5.7560458E+00;  0.0000000E+00; -3.7596214E-01;  6.3422012E+04;
  1.4605051E+00;  9.9999998E-03; -3.0331960E-01;8851;  1.1640924E+00;  0.0000000E+00;  1.4493637E-02;  9.9227570E+02;  1.7268153E-01; -6.3619482E+03;3; -1.3076146E+02;  0.0000000E+00;  6.1158577E+01;0;  5.4847641E+00;  1.3499081E+04;  0.0000000E+00;  3.0876974E+01;  4.0000000E+04;  0.0000000E+00;  3.9191461E+04;  5.9468932E+00;  0.0000000E+00; -4.6212935E-01;  6.6254219E+04;
  1.4602574E+00;  9.9999998E-03; -2.9321808E-01;8852;  1.1511645E+00;  0.0000000E+00;  7.0543075E-03;  9.9447974E+02;  1.7244536E-01; -4.5467666E+03;3; -1.3141081E+02;  0.0000000E+00;  5.9051434E+01;0;  5.3739061E+00;  1.3592585E+04;  0.0000000E+00; -1.4038729E+01;  4.0000000E+04;  0.0000000E+00;  3.9184230E+04;  5.8028440E+00;  0.0000000E+00; -4.2893815E-01;  4.1375871E+04;
  1.4741701E+00;  9.9999998E-03; -2.8314993E-01;8913;  1.2466831E+00;  0.0000000E+00; -2.7228907E-02;  9.9865491E+02;  1.6504441E-01; -1.1063992E+03;3; -9.8436089E+01;  0.0000000E+00;  5.5381569E+01;0;  4.7793560E+00;  1.4950223E+04;  0.0000000E+00; -2.1476620E+01;  4.0000000E+04;  0.0000000E+00;  3.9145664E+04;  4.9783540E+00;  0.0000000E+00; -1.9899775E-01;  4.9173836E+04;
  1.4755179E+00;  9.9999998E-03; -2.9324219E-01;8912;  1.2524389E+00;  0.0000000E+00; -2.1448310E-02;  9.9520801E+02;  1.6480556E-01; -3.9410264E+03;3; -9.8580780E+01;  0.0000000E+00;  5.7241154E+01;0;  4.8487396E+00;  1.4914687E+04;  0.0000000E+00; -4.3436384E+00;  4.0000000E+04;  0.0000000E+00;  3.9170160E+04;  5.0716019E+00;  0.0000000E+00; -2.2286229E-01;  1.8319115E+04;
  1.4892477E+00;  9.9999998E-03; -2.8316811E-01;8972;  1.3170062E+00;  0.0000000E+00; -4.8050586E-02;  9.9874213E+02;  1.5820743E-01; -1.0328104E+03;3; -6.3771732E+01;  0.0000000E+00;  4.9428967E+01;0;  4.0769124E+00;  1.6284136E+04;  0.0000000E+00; -1.5589808E+01;  4.0000000E+04;  0.0000000E+00;  3.9142777E+04;  4.1301970E+00;  0.0000000E+00; -5.3284831E-02;  3.3145516E+04;
  1.4898887E+00;  9.9999998E-03; -2.9327208E-01;8971;  1.3207339E+00;  0.0000000E+00; -4.3076519E-02;  9.9592651E+02;  1.5816253E-01; -3.3443081E+03;3; -6.6175751E+01;  0.0000000E+00;  5.1110256E+01;0;  4.2196045E+00;  1.6219497E+04;  0.0000000E+00;  8.2079468E+00;  4.0000000E+04;  0.0000000E+00;  3.9158609E+04;  4.2798800E+00;  0.0000000E+00; -6.0275670E-02;  1.0317566E+04;
  1.5033937E+00;  9.9999998E-03; -2.9332030E-01;9030;  1.3635589E+00;  0.0000000E+00; -5.7713211E-02;  9.9742981E+02;  1.5237188E-01; -2.1058945E+03;3; -3.8381062E+01;  0.0000000E+00;  4.3385471E+01;0;  3.5622849E+00;  1.7524826E+04;  0.0000000E+00;  2.0531698E+01;  4.0000000E+04;  0.0000000E+00;  3.9137211E+04;  3.5165908E+00;  0.0000000E+00;  4.5694131E-02;  3.1760121E+04;
  1.5035272E+00;  9.9999998E-03; -2.8320187E-01;9031;  1.3614652E+00;  0.0000000E+00; -6.1660841E-02;  9.9872308E+02;  1.5227745E-01; -1.0462094E+03;3; -3.3989796E+01;  0.0000000E+00;  4.1231823E+01;0;  3.3635962E+00;  1.7584600E+04;  0.0000000E+00; -7.5001326E+00;  4.0000000E+04;  0.0000000E+00;  3.9137469E+04;  3.3195338E+00;  0.0000000E+00;  4.4062376E-02;  1.5484158E+04;
  1.5035864E+00;  9.9999998E-03; -2.7307323E-01;9032;  1.3635247E+00;  0.0000000E+00; -6.6671550E-02;  9.9961591E+02;  1.5229005E-01; -3.1469485E+02;3; -2.8079262E+01;  0.0000000E+00;  3.9936714E+01;0;  3.1935947E+00;  1.7595393E+04;  0.0000000E+00; -1.0003077E+01;  4.0000000E+04;  0.0000000E+00;  3.9142289E+04;  3.1393814E+00;  0.0000000E+00;  5.4213353E-02;  1.6194468E+04;
  1.4891149E+00;  9.9999998E-03; -2.7304536E-01;8973;  1.3234185E+00;  0.0000000E+00; -5.4942895E-02;  9.9977289E+02;  1.5828608E-01; -1.8646118E+02;3; -5.6796364E+01;  0.0000000E+00;  4.8716732E+01;0;  3.9343505E+00;  1.6283829E+04;  0.0000000E+00; -1.5709696E+01;  4.0000000E+04;  0.0000000E+00;  3.9146680E+04;  3.9636405E+00;  0.0000000E+00; -2.9289993E-02;  3.1409246E+04;
  1.4739264E+00;  9.9999998E-03; -2.7303234E-01;8914;  1.2592525E+00;  0.0000000E+00; -3.5524506E-02;  9.9958344E+02;  1.6517985E-01; -3.4266071E+02;3; -9.0081284E+01;  0.0000000E+00;  5.4808609E+01;0;  4.6759644E+00;  1.4937578E+04;  0.0000000E+00; -2.0641703E+01;  4.0000000E+04;  0.0000000E+00;  3.9152121E+04;  4.8345385E+00;  0.0000000E+00; -1.5857397E-01;  4.6570961E+04;
  1.4579687E+00;  9.9999998E-03; -2.7302450E-01;8854;  1.1584857E+00;  0.0000000E+00; -8.1129177E-03;  9.9866516E+02;  1.7307100E-01; -1.0996573E+03;3; -1.2522076E+02;  0.0000000E+00;  5.7720852E+01;0;  5.3296528E+00;  1.3570848E+04;  0.0000000E+00; -2.4542068E+01;  4.0000000E+04;  0.0000000E+00;  3.9162703E+04;  5.6476130E+00;  0.0000000E+00; -3.1796002E-01;  6.0499234E+04;
  1.3843696E+00;  9.9999998E-03; -2.7291790E-01;8610;  4.8064601E-01;  0.0000000E+00;  1.3061208E-01;  9.8856860E+02;  2.1725884E-01; -9.4528496E+03;3; -1.1889579E+02;  0.0000000E+00;  3.8754868E+01;0;  4.5945005E+00;  8.4090195E+03;  0.0000000E+00; -1.3574699E+01;  4.0000000E+04;  0.0000000E+00;  3.9239602E+04;  5.2370968E+00;  0.0000000E+00; -6.4259601E-01;  4.8238172E+04;
  1.4051290E+00;  9.9999998E-03; -2.7298039E-01;8671;  6.8405700E-01;  0.0000000E+00;  9.1701746E-02;  9.9104083E+02;  2.0409811E-01; -7.4034375E+03;3; -1.5402953E+02;  0.0000000E+00;  5.1436871E+01;0;  5.6482658E+00;  9.5857656E+03;  0.0000000E+00; -2.0472898E+01;  4.0000000E+04;  0.0000000E+00;  3.9204652E+04;  6.2264552E+00;  0.0000000E+00; -5.7818955E-01;  6.8862453E+04;
  1.4239174E+00;  9.9999998E-03; -2.7301025E-01;8732;  8.6378551E-01;  0.0000000E+00;  5.3017456E-02;  9.9397186E+02;  1.9240139E-01; -4.9772012E+03;3; -1.6407320E+02;  0.0000000E+00;  5.8009464E+01;0;  6.0294061E+00;  1.0860588E+04;  0.0000000E+00; -2.6016937E+01;  4.0000000E+04;  0.0000000E+00;  3.9183938E+04;  6.5174417E+00;  0.0000000E+00; -4.8803550E-01;  8.0143398E+04;
  1.4414212E+00;  9.9999998E-03; -2.7301949E-01;8793;  1.0242923E+00;  0.0000000E+00;  2.0026043E-02;  9.9664709E+02;  1.8206821E-01; -2.7655442E+03;3; -1.5334482E+02;  0.0000000E+00;  5.8351555E+01;0;  5.8520226E+00;  1.2204473E+04;  0.0000000E+00; -2.7552763E+01;  4.0000000E+04;  0.0000000E+00;  3.9172867E+04;  6.2616315E+00;  0.0000000E+00; -4.0960878E-01;  7.5637898E+04;
  1.5163418E+00;  9.9999998E-03; -2.9339156E-01;9089;  1.3895661E+00;  0.0000000E+00; -6.6472553E-02;  9.9974384E+02;  1.4728330E-01; -2.0941270E+02;3; -1.6844225E+01;  0.0000000E+00;  3.5407234E+01;0;  2.9182069E+00;  1.8841273E+04;  0.0000000E+00;  2.8164608E+01;  4.0000000E+04;  0.0000000E+00;  3.9102520E+04;  2.8185077E+00;  0.0000000E+00;  9.9699296E-02;  4.1156594E+04;
  1.5170814E+00;  9.9999998E-03; -2.8326106E-01;9090;  1.3872607E+00;  0.0000000E+00; -6.9168285E-02;  9.9917767E+02;  1.4713436E-01; -6.7208801E+02;3; -1.1424832E+01;  0.0000000E+00;  3.3272465E+01;0;  2.6922781E+00;  1.8861066E+04;  0.0000000E+00;  1.9203006E+00;  4.0000000E+04;  0.0000000E+00;  3.9120141E+04;  2.5977948E+00;  0.0000000E+00;  9.4483428E-02;  5.9734673E+03;
  1.5173994E+00;  9.9999998E-03; -2.7312714E-01;9091;  1.3861477E+00;  0.0000000E+00; -7.2521530E-02;  9.9951764E+02;  1.4709280E-01; -3.9423480E+02;3; -6.5363660E+00;  0.0000000E+00;  3.1421337E+01;0;  2.5118585E+00;  1.8869172E+04;  0.0000000E+00; -3.6244266E+00;  4.0000000E+04;  0.0000000E+00;  3.9128855E+04;  2.4125953E+00;  0.0000000E+00;  9.9263281E-02;  4.6995278E+03;
  1.5301031E+00;  9.9999998E-03; -2.8334802E-01;9148;  1.4012982E+00;  0.0000000E+00; -7.2473831E-02;  1.0002779E+03;  1.4265926E-01;  2.2646774E+02;3;  3.9079986E+00;  0.0000000E+00;  2.5921961E+01;0;  2.0969617E+00;  2.0116738E+04;  0.0000000E+00;  9.7576828E+00;  4.0000000E+04;  0.0000000E+00;  3.9088637E+04;  1.9829094E+00;  0.0000000E+00;  1.1405230E-01;  1.3980036E+04;
  1.5306826E+00;  9.9999998E-03; -2.7321187E-01;9149;  1.3981602E+00;  0.0000000E+00; -7.4336216E-02;  9.9973254E+02;  1.4258432E-01; -2.1793628E+02;3;  8.1295033E+00;  0.0000000E+00;  2.4275389E+01;0;  1.9204249E+00;  2.0105441E+04;  0.0000000E+00;  2.2148702E+00;  4.0000000E+04;  0.0000000E+00;  3.9102867E+04;  1.8032894E+00;  0.0000000E+00;  1.1713550E-01;  1.0717467E+04;
  1.5427821E+00;  9.9999998E-03; -2.8346238E-01;9205;  1.4094981E+00;  0.0000000E+00; -7.2864756E-02;  1.0018184E+03;  1.3875964E-01;  1.4770638E+03;3;  1.3765915E+01;  0.0000000E+00;  2.0387365E+01;0;  1.5949725E+00;  2.1341105E+04;  0.0000000E+00;  1.3251768E+01;  4.0000000E+04;  0.0000000E+00;  3.9043734E+04;  1.4812858E+00;  0.0000000E+00;  1.1368668E-01;  1.4128731E+04;
  1.5435191E+00;  9.9999998E-03; -2.7332866E-01;9206;  1.4041255E+00;  0.0000000E+00; -7.3297031E-02;  1.0005210E+03;  1.3867760E-01;  4.2306247E+02;3;  1.6821756E+01;  0.0000000E+00;  1.8981998E+01;0;  1.4264416E+00;  2.1308104E+04;  0.0000000E+00;  6.4463296E+00;  4.0000000E+04;  0.0000000E+00;  3.9062367E+04;  1.3123924E+00;  0.0000000E+00;  1.1404917E-01;  1.5029621E+04;
  1.5552911E+00;  9.9999998E-03; -2.8360009E-01;9262;  1.4166538E+00;  0.0000000E+00; -7.2485551E-02;  1.0032688E+03;  1.3536337E-01;  2.6447949E+03;3;  2.0228403E+01;  0.0000000E+00;  1.6312487E+01;0;  1.2218680E+00;  2.2508148E+04;  0.0000000E+00;  1.2976021E+01;  4.0000000E+04;  0.0000000E+00;  3.8990586E+04;  1.1002294E+00;  0.0000000E+00;  1.2163869E-01;  9.5951553E+03;
  1.5560503E+00;  9.9999998E-03; -2.7347445E-01;9263;  1.4077715E+00;  0.0000000E+00; -7.0882380E-02;  1.0017996E+03;  1.3528854E-01;  1.4556503E+03;3;  2.2438862E+01;  0.0000000E+00;  1.4507750E+01;0;  1.0391061E+00;  2.2470705E+04;  0.0000000E+00;  7.3692999E+00;  4.0000000E+04;  0.0000000E+00;  3.9009883E+04;  9.3473345E-01;  0.0000000E+00;  1.0437266E-01;  1.2087980E+04;
  1.5684365E+00;  9.9999998E-03; -2.7364209E-01;9319;  1.4108070E+00;  0.0000000E+00; -6.8193957E-02;  1.0030131E+03;  1.3235010E-01;  2.4258022E+03;3;  2.6913546E+01;  0.0000000E+00;  1.1104530E+01;0;  7.5905651E-01;  2.3563584E+04;  0.0000000E+00;  5.4407969E+00;  4.0000000E+04;  0.0000000E+00;  3.8951852E+04;  6.5795952E-01;  0.0000000E+00;  1.0109701E-01;  7.0472119E+03;
  1.5806907E+00;  9.9999998E-03; -2.7382806E-01;9374;  1.4141228E+00;  0.0000000E+00; -6.5952703E-02;  1.0039623E+03;  1.2980901E-01;  3.1726375E+03;3;  3.0999182E+01;  0.0000000E+00;  7.7319236E+00;0;  5.8856404E-01;  2.4572367E+04;  0.0000000E+00;  5.8756952E+00;  4.0000000E+04;  0.0000000E+00;  3.8889160E+04;  4.7667530E-01;  0.0000000E+00;  1.1188871E-01;  9.2617100E+03;
  9.6051616E-04;  9.9999998E-03; -2.6985204E-01;2450;  3.6533893E-04;  0.0000000E+00; -6.1316311E-04;  9.9400549E+02;  1.0000000E-01; -4.9663286E+03;3;  3.5882107E+01;  0.0000000E+00;  2.2913385E+01;0; -1.0591220E-02;  3.9512699E+04;  0.0000000E+00; -5.0954741E-01;  4.0000000E+04;  0.0000000E+00;  4.0008473E+04; -1.0189730E-02;  0.0000000E+00; -4.0149072E-04;  1.7494277E+03;
  1.3795281E-03;  9.9999998E-03; -2.5986698E-01;2451;  5.8213872E-04;  0.0000000E+00; -6.1968114E-04;  9.9290448E+02;  1.0000000E-01; -5.8785005E+03;3;  4.5396114E+01;  0.0000000E+00;  2.2863260E+01;0; -1.1712754E-02;  3.9421828E+04;  0.0000000E+00; -5.6814569E-01;  4.0000000E+04;  0.0000000E+00;  4.0013637E+04; -1.1472424E-02;  0.0000000E+00; -2.4033070E-04;  2.5563142E+03;
  1.7784258E-03;  9.9999998E-03; -2.4989450E-01;2452;  7.4229459E-04;  0.0000000E+00; -6.1234599E-04;  9.9180975E+02;  1.0000000E-01; -6.7854873E+03;3;  5.4442947E+01;  0.0000000E+00;  2.2503847E+01;0; -1.2815456E-02;  3.9332816E+04;  0.0000000E+00; -6.2483299E-01;  4.0000000E+04;  0.0000000E+00;  4.0019379E+04; -1.2726658E-02;  0.0000000E+00; -8.8797882E-05;  3.1553579E+03;
  2.1422268E-03;  9.9999998E-03; -2.3992231E-01;2453;  8.3089067E-04;  0.0000000E+00; -5.9320935E-04;  9.9075000E+02;  1.0000000E-01; -7.6634375E+03;3;  6.2332314E+01;  0.0000000E+00;  2.1698008E+01;0; -1.3883201E-02;  3.9249305E+04;  0.0000000E+00; -6.7212117E-01;  4.0000000E+04;  0.0000000E+00;  4.0020492E+04; -1.3926124E-02;  0.0000000E+00;  4.2923260E-05;  3.4739250E+03;
  2.4687340E-03;  9.9999998E-03; -2.2994615E-01;2454;  8.5203629E-04;  0.0000000E+00; -5.6041329E-04;  9.8976691E+02;  1.0000000E-01; -8.4779326E+03;3;  6.8498955E+01;  0.0000000E+00;  2.0299561E+01;0; -1.4895650E-02;  3.9174398E+04;  0.0000000E+00; -7.0115393E-01;  4.0000000E+04;  0.0000000E+00;  4.0020973E+04; -1.5044749E-02;  0.0000000E+00;  1.4909869E-04;  3.5122461E+03;
  2.7497087E-03;  9.9999998E-03; -2.1996488E-01;2455;  8.1982400E-04;  0.0000000E+00; -5.1521894E-04;  9.8889111E+02;  1.0000000E-01; -9.2034932E+03;3;  7.2759972E+01;  0.0000000E+00;  1.8341389E+01;0; -1.5827443E-02;  3.9109289E+04;  0.0000000E+00; -7.0442557E-01;  4.0000000E+04;  0.0000000E+00;  4.0018746E+04; -1.6055377E-02;  0.0000000E+00;  2.2793305E-04;  3.3199475E+03;
  2.9792394E-03;  9.9999998E-03; -2.0997919E-01;2456;  7.5522368E-04;  0.0000000E+00; -4.5914124E-04;  9.8814246E+02;  1.0000000E-01; -9.8237715E+03;3;  7.5237663E+01;  0.0000000E+00;  1.6012659E+01;0; -1.6652536E-02;  3.9054902E+04;  0.0000000E+00; -6.7846173E-01;  4.0000000E+04;  0.0000000E+00;  4.0014777E+04; -1.6934132E-02;  0.0000000E+00;  2.8159635E-04;  2.9718999E+03;
  3.1581137E-03;  9.9999998E-03; -1.9998950E-01;2457;  6.8031589E-04;  0.0000000E+00; -3.9524987E-04;  9.8752539E+02;  1.0000000E-01; -1.0334967E+04;3;  7.6273537E+01;  0.0000000E+00;  1.3584532E+01;0; -1.7348673E-02;  3.9011246E+04;  0.0000000E+00; -6.2483239E-01;  4.0000000E+04;  0.0000000E+00;  4.0010777E+04; -1.7663674E-02;  0.0000000E+00;  3.1500167E-04;  2.5458323E+03;
  3.2925277E-03;  9.9999998E-03; -1.8999676E-01;2458;  6.1481266E-04;  0.0000000E+00; -3.2619777E-04;  9.8704620E+02;  1.0000000E-01; -1.0731993E+04;3;  7.6191788E+01;  0.0000000E+00;  1.1292140E+01;0; -1.7900256E-02;  3.8977719E+04;  0.0000000E+00; -5.4951334E-01;  4.0000000E+04;  0.0000000E+00;  4.0006902E+04; -1.8234562E-02;  0.0000000E+00;  3.3430627E-04;  2.1076660E+03;
  3.3891269E-03;  9.9999998E-03; -1.8000177E-01;2459;  5.7353819E-04;  0.0000000E+00; -2.5507176E-04;  9.8668854E+02;  1.0000000E-01; -1.1028280E+04;3;  7.5403229E+01;  0.0000000E+00;  9.2846832E+00;0; -1.8299822E-02;  3.8953242E+04;  0.0000000E+00; -4.6111488E-01;  4.0000000E+04;  0.0000000E+00;  4.0003371E+04; -1.8644992E-02;  0.0000000E+00;  3.4517114E-04;  1.7034431E+03;
  3.4566240E-03;  9.9999998E-03; -1.7000435E-01;2460;  5.6499685E-04;  0.0000000E+00; -1.8348335E-04;  9.8644019E+02;  1.0000000E-01; -1.1234053E+04;3;  7.4169670E+01;  0.0000000E+00;  7.5859265E+00;0; -1.8549608E-02;  3.8936359E+04;  0.0000000E+00; -3.6886823E-01;  4.0000000E+04;  0.0000000E+00;  4.0000867E+04; -1.8901166E-02;  0.0000000E+00;  3.5155684E-04;  1.3582804E+03;
  3.5023766E-03;  9.9999998E-03; -1.6000475E-01;2461;  5.9022492E-04;  0.0000000E+00; -1.1477552E-04;  9.8628302E+02;  1.0000000E-01; -1.1364271E+04;3;  7.2706070E+01;  0.0000000E+00;  6.1481161E+00;0; -1.8660543E-02;  3.8925988E+04;  0.0000000E+00; -2.8086746E-01;  4.0000000E+04;  0.0000000E+00;  3.9998473E+04; -1.9015661E-02;  0.0000000E+00;  3.5511679E-04;  1.0809678E+03;
  3.5330455E-03;  9.9999998E-03; -1.5000379E-01;2462;  6.4301683E-04;  0.0000000E+00; -5.7876721E-05;  9.8619055E+02;  1.0000000E-01; -1.1440861E+04;3;  7.1222038E+01;  0.0000000E+00;  4.9151835E+00;0; -1.8650837E-02;  3.8920070E+04;  0.0000000E+00; -2.0301515E-01;  4.0000000E+04;  0.0000000E+00;  3.9997910E+04; -1.9006351E-02;  0.0000000E+00;  3.5551356E-04;  8.6906049E+02;
  3.5531803E-03;  9.9999998E-03; -1.4000268E-01;2463;  7.1349985E-04;  0.0000000E+00; -1.6496590E-05;  9.8614874E+02;  1.0000000E-01; -1.1475527E+04;3;  6.9794411E+01;  0.0000000E+00;  3.8630860E+00;0; -1.8544054E-02;  3.8917684E+04;  0.0000000E+00; -1.3874124E-01;  4.0000000E+04;  0.0000000E+00;  3.9996547E+04; -1.8895483E-02;  0.0000000E+00;  3.5142829E-04;  7.1333478E+02;
  3.5652157E-03;  9.9999998E-03; -1.3000102E-01;2464;  7.9034065E-04;  0.0000000E+00;  8.9127498E-06;  9.8613605E+02;  1.0000000E-01; -1.1486046E+04;3;  6.8525375E+01;  0.0000000E+00;  2.9653239E+00;0; -1.8367320E-02;  3.8917156E+04;  0.0000000E+00; -8.9232966E-02;  4.0000000E+04;  0.0000000E+00;  3.9996168E+04; -1.8708522E-02;  0.0000000E+00;  3.4120193E-04;  6.0108643E+02;
  3.5707017E-03;  9.9999998E-03; -1.1999703E-01;2465;  8.6261064E-04;  0.0000000E+00;  1.9928049E-05;  9.8613806E+02;  1.0000000E-01; -1.1484366E+04;3;  6.7467064E+01;  0.0000000E+00;  2.2080276E+00;0; -1.8149281E-02;  3.8918047E+04;  0.0000000E+00; -5.3976983E-02;  4.0000000E+04;  0.0000000E+00;  3.9995156E+04; -1.8473022E-02;  0.0000000E+00;  3.2373986E-04;  5.2002252E+02;
  3.5708838E-03;  9.9999998E-03; -1.0999093E-01;2466;  9.2164561E-04;  0.0000000E+00;  1.9459903E-05;  9.8614728E+02;  1.0000000E-01; -1.1476713E+04;3;  6.6646004E+01;  0.0000000E+00;  1.5845832E+00;0; -1.7916808E-02;  3.8918945E+04;  0.0000000E+00; -3.0873977E-02;  4.0000000E+04;  0.0000000E+00;  3.9994242E+04; -1.8216636E-02;  0.0000000E+00;  2.9982891E-04;  4.6306049E+02;
  1.0917610E-02;  9.9999998E-03; -2.6982313E-01;2510; -5.1908322E-05;  0.0000000E+00; -3.5165087E-04;  9.9501263E+02;  1.0000000E-01; -4.1319326E+03;3;  2.5478909E+01;  0.0000000E+00;  1.8521692E+01;0; -1.1742803E-02;  3.9589609E+04;  0.0000000E+00; -6.2770659E-01;  4.0000000E+04;  0.0000000E+00;  4.0011211E+04; -1.1374013E-02;  0.0000000E+00; -3.6878954E-04;  2.0681628E+03;
  1.1323390E-02;  9.9999998E-03; -2.5985649E-01;2511;  4.0048231E-05;  0.0000000E+00; -3.4045870E-04;  9.9415649E+02;  1.0000000E-01; -4.8412456E+03;3;  3.2716640E+01;  0.0000000E+00;  1.8059898E+01;0; -1.2984392E-02;  3.9516867E+04;  0.0000000E+00; -6.9507557E-01;  4.0000000E+04;  0.0000000E+00;  4.0016703E+04; -1.2780097E-02;  0.0000000E+00; -2.0429515E-04;  2.8640334E+03;
  1.1692228E-02;  9.9999998E-03; -2.4989924E-01;2512;  8.8200883E-05;  0.0000000E+00; -3.2605953E-04;  9.9330090E+02;  1.0000000E-01; -5.5500654E+03;3;  3.9124889E+01;  0.0000000E+00;  1.7726341E+01;0; -1.4192712E-02;  3.9447297E+04;  0.0000000E+00; -7.6682347E-01;  4.0000000E+04;  0.0000000E+00;  4.0021312E+04; -1.4135938E-02;  0.0000000E+00; -5.6774064E-05;  3.4062188E+03;
  1.2016776E-02;  9.9999998E-03; -2.3993854E-01;2513;  8.1220453E-05;  0.0000000E+00; -3.0338022E-04;  9.9248834E+02;  1.0000000E-01; -6.2232808E+03;3;  4.3996281E+01;  0.0000000E+00;  1.7171629E+01;0; -1.5348537E-02;  3.9383434E+04;  0.0000000E+00; -8.3262116E-01;  4.0000000E+04;  0.0000000E+00;  4.0023148E+04; -1.5412887E-02;  0.0000000E+00;  6.4350083E-05;  3.6328621E+03;
  1.2300494E-02;  9.9999998E-03; -2.2996917E-01;2514;  2.5649184E-05;  0.0000000E+00; -2.6983159E-04;  9.9174658E+02;  1.0000000E-01; -6.8377817E+03;3;  4.6990627E+01;  0.0000000E+00;  1.6139080E+01;0; -1.6430380E-02;  3.9327016E+04;  0.0000000E+00; -8.7877101E-01;  4.0000000E+04;  0.0000000E+00;  4.0021953E+04; -1.6584899E-02;  0.0000000E+00;  1.5451858E-04;  3.5615002E+03;
  1.2536460E-02;  9.9999998E-03; -2.1999203E-01;2515; -5.5922676E-05;  0.0000000E+00; -2.2822722E-04;  9.9109912E+02;  1.0000000E-01; -7.3742114E+03;3;  4.8066830E+01;  0.0000000E+00;  1.4579123E+01;0; -1.7415006E-02;  3.9280059E+04;  0.0000000E+00; -8.9285457E-01;  4.0000000E+04;  0.0000000E+00;  4.0018805E+04; -1.7629031E-02;  0.0000000E+00;  2.1402549E-04;  3.2630481E+03;
  1.2721976E-02;  9.9999998E-03; -2.1000741E-01;2516; -1.3926849E-04;  0.0000000E+00; -1.8757068E-04;  9.9055072E+02;  1.0000000E-01; -7.8285688E+03;3;  4.7546524E+01;  0.0000000E+00;  1.2700508E+01;0; -1.8279998E-02;  3.9241785E+04;  0.0000000E+00; -8.6814040E-01;  4.0000000E+04;  0.0000000E+00;  4.0014023E+04; -1.8527612E-02;  0.0000000E+00;  2.4761431E-04;  2.8274087E+03;
  1.2861286E-02;  9.9999998E-03; -2.0001656E-01;2517; -2.1248269E-04;  0.0000000E+00; -1.5253230E-04;  9.9012225E+02;  1.0000000E-01; -8.1835215E+03;3;  4.5860855E+01;  0.0000000E+00;  1.0761961E+01;0; -1.9002780E-02;  3.9212523E+04;  0.0000000E+00; -8.0526221E-01;  4.0000000E+04;  0.0000000E+00;  4.0009422E+04; -1.9266387E-02;  0.0000000E+00;  2.6360777E-04;  2.3411113E+03;
  1.2961310E-02;  9.9999998E-03; -1.9002128E-01;2518; -2.6890737E-04;  0.0000000E+00; -1.2084686E-04;  9.8980328E+02;  1.0000000E-01; -8.4478105E+03;3;  4.3634216E+01;  0.0000000E+00;  8.9548092E+00;0; -1.9565335E-02;  3.9191531E+04;  0.0000000E+00; -7.1145797E-01;  4.0000000E+04;  0.0000000E+00;  4.0005477E+04; -1.9836813E-02;  0.0000000E+00;  2.7147928E-04;  1.8708818E+03;
  1.3029051E-02;  9.9999998E-03; -1.8002264E-01;2519; -3.0264742E-04;  0.0000000E+00; -9.0933710E-05;  9.8958386E+02;  1.0000000E-01; -8.6295830E+03;3;  4.1302128E+01;  0.0000000E+00;  7.3781643E+00;0; -1.9959226E-02;  3.9177359E+04;  0.0000000E+00; -5.9820414E-01;  4.0000000E+04;  0.0000000E+00;  4.0002121E+04; -2.0238280E-02;  0.0000000E+00;  2.7905381E-04;  1.4567412E+03;
  1.3072661E-02;  9.9999998E-03; -1.7002138E-01;2520; -3.1078563E-04;  0.0000000E+00; -6.1968829E-05;  9.8944745E+02;  1.0000000E-01; -8.7425674E+03;3;  3.9153378E+01;  0.0000000E+00;  6.0624270E+00;0; -2.0187188E-02;  3.9168992E+04;  0.0000000E+00; -4.7827113E-01;  4.0000000E+04;  0.0000000E+00;  3.9999211E+04; -2.0478139E-02;  0.0000000E+00;  2.9095128E-04;  1.1151653E+03;
  1.3099544E-02;  9.9999998E-03; -1.6001898E-01;2521; -2.9447605E-04;  0.0000000E+00; -3.5738951E-05;  9.8937677E+02;  1.0000000E-01; -8.8011338E+03;3;  3.7318413E+01;  0.0000000E+00;  4.9728484E+00;0; -2.0262646E-02;  3.9165055E+04;  0.0000000E+00; -3.6312556E-01;  4.0000000E+04;  0.0000000E+00;  3.9998258E+04; -2.0570701E-02;  0.0000000E+00;  3.0805593E-04;  8.4660718E+02;
  1.3116105E-02;  9.9999998E-03; -1.5001695E-01;2522; -2.5845706E-04;  0.0000000E+00; -1.3720534E-05;  9.8935553E+02;  1.0000000E-01; -8.8187627E+03;3;  3.5811081E+01;  0.0000000E+00;  4.0553541E+00;0; -2.0207917E-02;  3.9164246E+04;  0.0000000E+00; -2.6127288E-01;  4.0000000E+04;  0.0000000E+00;  3.9996516E+04; -2.0536000E-02;  0.0000000E+00;  3.2808317E-04;  6.4300977E+02;
  1.3125644E-02;  9.9999998E-03; -1.4001471E-01;2523; -2.0985851E-04;  0.0000000E+00;  2.4659494E-06;  9.8936218E+02;  1.0000000E-01; -8.8132324E+03;3;  3.4625797E+01;  0.0000000E+00;  3.2592354E+00;0; -2.0051375E-02;  3.9165516E+04;  0.0000000E+00; -1.7764890E-01;  4.0000000E+04;  0.0000000E+00;  3.9995895E+04; -2.0398164E-02;  0.0000000E+00;  3.4678873E-04;  4.9236719E+02;
  1.3130385E-02;  9.9999998E-03; -1.3001150E-01;2524; -1.5683987E-04;  0.0000000E+00;  1.1930584E-05;  9.8938037E+02;  1.0000000E-01; -8.7981709E+03;3;  3.3715809E+01;  0.0000000E+00;  2.5541823E+00;0; -1.9824922E-02;  3.9167270E+04;  0.0000000E+00; -1.1388008E-01;  4.0000000E+04;  0.0000000E+00;  3.9996129E+04; -2.0184329E-02;  0.0000000E+00;  3.5940719E-04;  3.8040884E+02;
  1.3131876E-02;  9.9999998E-03; -1.2000686E-01;2525; -1.0704875E-04;  0.0000000E+00;  1.5375361E-05;  9.8940546E+02;  1.0000000E-01; -8.7773818E+03;3;  3.2975571E+01;  0.0000000E+00;  1.9343194E+00;0; -1.9561375E-02;  3.9169461E+04;  0.0000000E+00; -6.9023363E-02;  4.0000000E+04;  0.0000000E+00;  3.9995305E+04; -1.9923482E-02;  0.0000000E+00;  3.6210762E-04;  2.9237567E+02;
  1.3131020E-02;  9.9999998E-03; -1.1000079E-01;2526; -6.6276596E-05;  0.0000000E+00;  1.3206504E-05;  9.8942224E+02;  1.0000000E-01; -8.7634561E+03;3;  3.2425785E+01;  0.0000000E+00;  1.3955654E+00;0; -1.9290527E-02;  3.9171219E+04;  0.0000000E+00; -4.0014204E-02;  4.0000000E+04;  0.0000000E+00;  3.9995211E+04; -1.9644259E-02;  0.0000000E+00;  3.5373191E-04;  2.1917905E+02;
  2.0830128E-02;  9.9999998E-03; -2.6987112E-01;2571; -4.0400098E-04;  0.0000000E+00; -1.8516673E-04;  9.9625360E+02;  1.0000000E-01; -3.1038135E+03;3;  1.3550511E+01;  0.0000000E+00;  1.1466166E+01;0; -1.2403308E-02;  3.9684660E+04;  0.0000000E+00; -7.4174309E-01;  4.0000000E+04;  0.0000000E+00;  4.0014332E+04; -1.2063649E-02;  0.0000000E+00; -3.3965905E-04;  2.3728962E+03;
  2.1217091E-02;  9.9999998E-03; -2.5991085E-01;2572; -3.7966928E-04;  0.0000000E+00; -1.6543650E-04;  9.9567261E+02;  1.0000000E-01; -3.5851826E+03;3;  1.7503643E+01;  0.0000000E+00;  1.0832077E+01;0; -1.3712887E-02;  3.9634078E+04;  0.0000000E+00; -8.0849874E-01;  4.0000000E+04;  0.0000000E+00;  4.0019824E+04; -1.3533385E-02;  0.0000000E+00; -1.7950163E-04;  3.1021189E+03;
  2.1555701E-02;  9.9999998E-03; -2.4995801E-01;2573; -3.9580284E-04;  0.0000000E+00; -1.4868657E-04;  9.9510480E+02;  1.0000000E-01; -4.0555891E+03;3;  2.0340858E+01;  0.0000000E+00;  1.0814270E+01;0; -1.4977021E-02;  3.9587043E+04;  0.0000000E+00; -8.8353419E-01;  4.0000000E+04;  0.0000000E+00;  4.0023207E+04; -1.4934771E-02;  0.0000000E+00; -4.2250060E-05;  3.5425779E+03;
  2.1845829E-02;  9.9999998E-03; -2.3999730E-01;2574; -4.5159046E-04;  0.0000000E+00; -1.3373645E-04;  9.9457312E+02;  1.0000000E-01; -4.4960703E+03;3;  2.1506361E+01;  0.0000000E+00;  1.0995059E+01;0; -1.6178157E-02;  3.9545770E+04;  0.0000000E+00; -9.5512122E-01;  4.0000000E+04;  0.0000000E+00;  4.0023059E+04; -1.6240532E-02;  0.0000000E+00;  6.2374107E-05;  3.6460659E+03;
  2.2092139E-02;  9.9999998E-03; -2.3002353E-01;2575; -5.4034329E-04;  0.0000000E+00; -1.2085482E-04;  9.9409973E+02;  1.0000000E-01; -4.8882568E+03;3;  2.0865711E+01;  0.0000000E+00;  1.0952767E+01;0; -1.7294066E-02;  3.9511352E+04;  0.0000000E+00; -1.0066379E+00;  4.0000000E+04;  0.0000000E+00;  4.0021387E+04; -1.7424826E-02;  0.0000000E+00;  1.3076019E-04;  3.4492676E+03;
  2.2288619E-02;  9.9999998E-03; -2.2003818E-01;2576; -6.4914272E-04;  0.0000000E+00; -1.0911703E-04;  9.9370123E+02;  1.0000000E-01; -5.2184204E+03;3;  1.8700579E+01;  0.0000000E+00;  1.0472522E+01;0; -1.8298943E-02;  3.9484594E+04;  0.0000000E+00; -1.0227168E+00;  4.0000000E+04;  0.0000000E+00;  4.0017156E+04; -1.8464910E-02;  0.0000000E+00;  1.6596721E-04;  3.0439250E+03;
  2.2434738E-02;  9.9999998E-03; -2.1004352E-01;2577; -7.6296378E-04;  0.0000000E+00; -9.8539836E-05;  9.9338239E+02;  1.0000000E-01; -5.4825610E+03;3;  1.5544735E+01;  0.0000000E+00;  9.5716696E+00;0; -1.9167179E-02;  3.9464895E+04;  0.0000000E+00; -9.9469382E-01;  4.0000000E+04;  0.0000000E+00;  4.0012227E+04; -1.9343870E-02;  0.0000000E+00;  1.7669119E-04;  2.5376382E+03;
  2.2537326E-02;  9.9999998E-03; -2.0004243E-01;2578; -8.6649688E-04;  0.0000000E+00; -8.7354056E-05;  9.9315356E+02;  1.0000000E-01; -5.6721357E+03;3;  1.1911731E+01;  0.0000000E+00;  8.4075489E+00;0; -1.9876914E-02;  3.9451379E+04;  0.0000000E+00; -9.2266655E-01;  4.0000000E+04;  0.0000000E+00;  4.0007766E+04; -2.0051884E-02;  0.0000000E+00;  1.7496898E-04;  2.0245273E+03;
  2.2603713E-02;  9.9999998E-03; -1.9003758E-01;2579; -9.4684085E-04;  0.0000000E+00; -7.5165939E-05;  9.9300397E+02;  1.0000000E-01; -5.7960830E+03;3;  8.3317652E+00;  0.0000000E+00;  7.1719060E+00;0; -2.0413205E-02;  3.9443766E+04;  0.0000000E+00; -8.1468987E-01;  4.0000000E+04;  0.0000000E+00;  4.0003367E+04; -2.0586206E-02;  0.0000000E+00;  1.7300106E-04;  1.5670033E+03;
  2.2642231E-02;  9.9999998E-03; -1.8003094E-01;2580; -9.9563634E-04;  0.0000000E+00; -6.1322062E-05;  9.9293048E+02;  1.0000000E-01; -5.8569702E+03;3;  5.1005569E+00;  0.0000000E+00;  6.0028214E+00;0; -2.0770779E-02;  3.9440633E+04;  0.0000000E+00; -6.8402469E-01;  4.0000000E+04;  0.0000000E+00;  4.0000559E+04; -2.0951152E-02;  0.0000000E+00;  1.8037338E-04;  1.1902908E+03;
  2.2662068E-02;  9.9999998E-03; -1.7002460E-01;2581; -1.0097700E-03;  0.0000000E+00; -4.5944980E-05;  9.9291205E+02;  1.0000000E-01; -5.8722290E+03;3;  2.4337001E+00;  0.0000000E+00;  4.9669600E+00;0; -2.0955354E-02;  3.9440984E+04;  0.0000000E+00; -5.4560149E-01;  4.0000000E+04;  0.0000000E+00;  3.9999434E+04; -2.1157496E-02;  0.0000000E+00;  2.0214125E-04;  8.9130969E+02;
  2.2670828E-02;  9.9999998E-03; -1.6001961E-01;2582; -9.9155691E-04;  0.0000000E+00; -3.0323306E-05;  9.9293335E+02;  1.0000000E-01; -5.8545996E+03;3;  3.5273358E-01;  0.0000000E+00;  4.0695801E+00;0; -2.0983428E-02;  3.9443582E+04;  0.0000000E+00; -4.1293171E-01;  4.0000000E+04;  0.0000000E+00;  3.9997766E+04; -2.1221668E-02;  0.0000000E+00;  2.3824020E-04;  6.5537085E+02;
  2.2673918E-02;  9.9999998E-03; -1.5001564E-01;2583; -9.4765297E-04;  0.0000000E+00; -1.5743435E-05;  9.9298071E+02;  1.0000000E-01; -5.8153418E+03;3; -1.2291135E+00;  0.0000000E+00;  3.2934237E+00;0; -2.0880368E-02;  3.9447758E+04;  0.0000000E+00; -2.9607785E-01;  4.0000000E+04;  0.0000000E+00;  3.9997223E+04; -2.1164451E-02;  0.0000000E+00;  2.8408412E-04;  4.6985626E+02;
  2.2674294E-02;  9.9999998E-03; -1.4001198E-01;2584; -8.8740140E-04;  0.0000000E+00; -3.9437405E-06;  9.9303516E+02;  1.0000000E-01; -5.7702563E+03;3; -2.3971267E+00;  0.0000000E+00;  2.6180880E+00;0; -2.0677689E-02;  3.9452281E+04;  0.0000000E+00; -2.0083150E-01;  4.0000000E+04;  0.0000000E+00;  3.9996242E+04; -2.1009814E-02;  0.0000000E+00;  3.3212543E-04;  3.2643710E+02;
  2.2673585E-02;  9.9999998E-03; -1.3000825E-01;2585; -8.2124554E-04;  0.0000000E+00;  3.9045358E-06;  9.9308594E+02;  1.0000000E-01; -5.7281836E+03;3; -3.2763484E+00;  0.0000000E+00;  2.0303783E+00;0; -2.0409927E-02;  3.9456445E+04;  0.0000000E+00; -1.2893361E-01;  4.0000000E+04;  0.0000000E+00;  3.9996609E+04; -2.0783870E-02;  0.0000000E+00;  3.7394234E-04;  2.1570105E+02;
  2.2672754E-02;  9.9999998E-03; -1.2000416E-01;2586; -7.5883156E-04;  0.0000000E+00;  7.3676201E-06;  9.9312469E+02;  1.0000000E-01; -5.6960366E+03;3; -3.9663923E+00;  0.0000000E+00;  1.5231282E+00;0; -2.0111643E-02;  3.9459961E+04;  0.0000000E+00; -7.8926295E-02;  4.0000000E+04;  0.0000000E+00;  3.9996039E+04; -2.0514000E-02;  0.0000000E+00;  4.0235691E-04;  1.2639000E+02;
  2.2672188E-02;  9.9999998E-03; -1.1000005E-01;2587; -7.0762722E-04;  0.0000000E+00;  6.1729652E-06;  9.9314941E+02;  1.0000000E-01; -5.6755928E+03;3; -4.5372162E+00;  0.0000000E+00;  1.0902447E+00;0; -1.9813368E-02;  3.9462574E+04;  0.0000000E+00; -4.6908978E-02;  4.0000000E+04;  0.0000000E+00;  3.9995215E+04; -2.0227123E-02;  0.0000000E+00;  4.1375440E-04;  7.0081963E+01;
  3.0737979E-02;  9.9999998E-03; -2.6992825E-01;2632; -7.6117925E-04;  0.0000000E+00; -6.0154609E-05;  9.9753821E+02;  1.0000000E-01; -2.0395472E+03;3;  3.7085283E+00;  0.0000000E+00;  2.7624841E+00;0; -1.2477430E-02;  3.9784219E+04;  0.0000000E+00; -8.1972164E-01;  4.0000000E+04;  0.0000000E+00;  4.0016105E+04; -1.2168854E-02;  0.0000000E+00; -3.0857578E-04;  2.5808015E+03;
  3.1109452E-02;  9.9999998E-03; -2.5996315E-01;2633; -7.7856862E-04;  0.0000000E+00; -5.1311352E-05;  9.9723920E+02;  1.0000000E-01; -2.2872932E+03;3;  4.5560102E+00;  0.0000000E+00;  2.2621326E+00;0; -1.3787564E-02;  3.9756723E+04;  0.0000000E+00; -8.6702871E-01;  4.0000000E+04;  0.0000000E+00;  4.0021738E+04; -1.3632325E-02;  0.0000000E+00; -1.5523820E-04;  3.2022642E+03;
  3.1422894E-02;  9.9999998E-03; -2.5000581E-01;2634; -8.3862891E-04;  0.0000000E+00; -4.5753546E-05;  9.9696344E+02;  1.0000000E-01; -2.5157312E+03;3;  4.1994948E+00;  0.0000000E+00;  2.8864570E+00;0; -1.5043832E-02;  3.9733305E+04;  0.0000000E+00; -9.2458302E-01;  4.0000000E+04;  0.0000000E+00;  4.0024125E+04; -1.5013500E-02;  0.0000000E+00; -3.0332216E-05;  3.5073638E+03;
  3.1680197E-02;  9.9999998E-03; -2.4003914E-01;2635; -9.3952636E-04;  0.0000000E+00; -4.2279305E-05;  9.9671838E+02;  1.0000000E-01; -2.7187380E+03;3;  2.3536291E+00;  0.0000000E+00;  4.0593085E+00;0; -1.6228627E-02;  3.9715582E+04;  0.0000000E+00; -9.8206359E-01;  4.0000000E+04;  0.0000000E+00;  4.0023355E+04; -1.6284570E-02;  0.0000000E+00;  5.5942830E-05;  3.4665305E+03;
  3.1888969E-02;  9.9999998E-03; -2.3005654E-01;2636; -1.0729928E-03;  0.0000000E+00; -4.0505394E-05;  9.9651532E+02;  1.0000000E-01; -2.8869800E+03;3; -9.1303194E-01;  0.0000000E+00;  5.1721940E+00;0; -1.7319512E-02;  3.9703477E+04;  0.0000000E+00; -1.0230911E+00;  4.0000000E+04;  0.0000000E+00;  4.0019953E+04; -1.7420340E-02;  0.0000000E+00;  1.0082889E-04;  3.1387520E+03;
  3.2046437E-02;  9.9999998E-03; -2.2006048E-01;2637; -1.2243845E-03;  0.0000000E+00; -4.0010116E-05;  9.9636224E+02;  1.0000000E-01; -3.0137913E+03;3; -5.2006350E+00;  0.0000000E+00;  5.8480177E+00;0; -1.8291272E-02;  3.9697129E+04;  0.0000000E+00; -1.0319953E+00;  4.0000000E+04;  0.0000000E+00;  4.0015324E+04; -1.8400997E-02;  0.0000000E+00;  1.0972542E-04;  2.6398838E+03;
  3.2154389E-02;  9.9999998E-03; -2.1005552E-01;2638; -1.3754874E-03;  0.0000000E+00; -4.0804178E-05;  9.9626788E+02;  1.0000000E-01; -3.0920112E+03;3; -9.9801044E+00;  0.0000000E+00;  5.9876027E+00;0; -1.9119047E-02;  3.9695242E+04;  0.0000000E+00; -9.9952656E-01;  4.0000000E+04;  0.0000000E+00;  4.0009539E+04; -1.9214038E-02;  0.0000000E+00;  9.4991527E-05;  2.0984563E+03;
  3.2221325E-02;  9.9999998E-03; -2.0004576E-01;2639; -1.5086593E-03;  0.0000000E+00; -4.2296171E-05;  9.9622711E+02;  1.0000000E-01; -3.1257881E+03;3; -1.4689625E+01;  0.0000000E+00;  5.6991882E+00;0; -1.9781571E-02;  3.9697375E+04;  0.0000000E+00; -9.2506784E-01;  4.0000000E+04;  0.0000000E+00;  4.0005203E+04; -1.9854333E-02;  0.0000000E+00;  7.2762487E-05;  1.6184351E+03;
  3.2256018E-02;  9.9999998E-03; -1.9003437E-01;2640; -1.6098801E-03;  0.0000000E+00; -4.4085904E-05;  9.9624298E+02;  1.0000000E-01; -3.1126033E+03;3; -1.8955502E+01;  0.0000000E+00;  5.1477232E+00;0; -2.0264916E-02;  3.9702648E+04;  0.0000000E+00; -8.1599456E-01;  4.0000000E+04;  0.0000000E+00;  4.0001391E+04; -2.0323846E-02;  0.0000000E+00;  5.8930007E-05;  1.2518273E+03;
  3.2268837E-02;  9.9999998E-03; -1.8002419E-01;2641; -1.6709748E-03;  0.0000000E+00; -4.5036279E-05;  9.9630292E+02;  1.0000000E-01; -3.0629751E+03;3; -2.2518532E+01;  0.0000000E+00;  4.4833608E+00;0; -2.0564996E-02;  3.9709879E+04;  0.0000000E+00; -6.8491805E-01;  4.0000000E+04;  0.0000000E+00;  3.9998918E+04; -2.0630462E-02;  0.0000000E+00;  6.5465669E-05;  9.8887762E+02;
  3.2267865E-02;  9.9999998E-03; -1.7001644E-01;2642; -1.6895736E-03;  0.0000000E+00; -4.3554046E-05;  9.9639044E+02;  1.0000000E-01; -2.9904338E+03;3; -2.5280338E+01;  0.0000000E+00;  3.7974377E+00;0; -2.0689379E-02;  3.9718328E+04;  0.0000000E+00; -5.4634994E-01;  4.0000000E+04;  0.0000000E+00;  3.9996965E+04; -2.0787511E-02;  0.0000000E+00;  9.8132237E-05;  7.8417377E+02;
  3.2260347E-02;  9.9999998E-03; -1.6001113E-01;2643; -1.6689694E-03;  0.0000000E+00; -3.8759077E-05;  9.9649542E+02;  1.0000000E-01; -2.9034734E+03;3; -2.7318827E+01;  0.0000000E+00;  3.1371269E+00;0; -2.0657025E-02;  3.9726918E+04;  0.0000000E+00; -4.1365755E-01;  4.0000000E+04;  0.0000000E+00;  3.9996777E+04; -2.0812824E-02;  0.0000000E+00;  1.5579975E-04;  6.0258179E+02;
  3.2250959E-02;  9.9999998E-03; -1.5000759E-01;2644; -1.6169043E-03;  0.0000000E+00; -3.0836891E-05;  9.9659631E+02;  1.0000000E-01; -2.8198708E+03;3; -2.8729387E+01;  0.0000000E+00;  2.5291564E+00;0; -2.0496361E-02;  3.9735258E+04;  0.0000000E+00; -2.9695341E-01;  4.0000000E+04;  0.0000000E+00;  3.9997211E+04; -2.0727620E-02;  0.0000000E+00;  2.3125780E-04;  4.3773337E+02;
  3.2242354E-02;  9.9999998E-03; -1.4000510E-01;2645; -1.5446258E-03;  0.0000000E+00; -2.1779944E-05;  9.9669110E+02;  1.0000000E-01; -2.7413545E+03;3; -2.9731207E+01;  0.0000000E+00;  1.9906557E+00;0; -2.0241736E-02;  3.9742199E+04;  0.0000000E+00; -2.0211600E-01;  4.0000000E+04;  0.0000000E+00;  3.9997262E+04; -2.0554891E-02;  0.0000000E+00;  3.1315468E-04;  2.9995737E+02;
  3.2236245E-02;  9.9999998E-03; -1.3000309E-01;2646; -1.4648708E-03;  0.0000000E+00; -1.3754732E-05;  9.9676343E+02;  1.0000000E-01; -2.6814551E+03;3; -3.0446095E+01;  0.0000000E+00;  1.5282223E+00;0; -1.9930145E-02;  3.9748035E+04;  0.0000000E+00; -1.3090289E-01;  4.0000000E+04;  0.0000000E+00;  3.9997762E+04; -2.0318873E-02;  0.0000000E+00;  3.8872915E-04;  2.0050273E+02;
  3.2233234E-02;  9.9999998E-03; -1.2000142E-01;2647; -1.3894000E-03;  0.0000000E+00; -8.1081998E-06;  9.9681360E+02;  1.0000000E-01; -2.6398760E+03;3; -3.1031488E+01;  0.0000000E+00;  1.1350396E+00;0; -1.9597653E-02;  3.9752066E+04;  0.0000000E+00; -8.1618145E-02;  4.0000000E+04;  0.0000000E+00;  3.9997465E+04; -2.0044427E-02;  0.0000000E+00;  4.4677343E-04;  1.5674529E+02;
  3.2232780E-02;  9.9999998E-03; -1.1000034E-01;2648; -1.3271004E-03;  0.0000000E+00; -6.1781752E-06;  9.9683972E+02;  1.0000000E-01; -2.6182468E+03;3; -3.1549984E+01;  0.0000000E+00;  8.0600774E-01;0; -1.9275207E-02;  3.9755074E+04;  0.0000000E+00; -5.0096262E-02;  4.0000000E+04;  0.0000000E+00;  3.9996668E+04; -1.9755859E-02;  0.0000000E+00;  4.8065250E-04;  1.9650331E+02;
  4.0663838E-02;  9.9999998E-03; -2.6996720E-01;2693; -1.0932590E-03;  0.0000000E+00;  3.0282403E-05;  9.9870673E+02;  1.0000000E-01; -1.0714758E+03;3; -2.4788103E+00;  0.0000000E+00; -6.3353539E+00;0; -1.1961418E-02;  3.9876000E+04;  0.0000000E+00; -8.2749474E-01;  4.0000000E+04;  0.0000000E+00;  4.0018309E+04; -1.1687566E-02;  0.0000000E+00; -2.7385249E-04;  2.6626665E+03;
  4.1015904E-02;  9.9999998E-03; -2.5999683E-01;2694; -1.1413086E-03;  0.0000000E+00;  2.7854439E-05;  9.9867444E+02;  1.0000000E-01; -1.0981912E+03;3; -3.8637500E+00;  0.0000000E+00; -6.5863380E+00;0; -1.3197493E-02;  3.9870211E+04;  0.0000000E+00; -8.2830685E-01;  4.0000000E+04;  0.0000000E+00;  4.0022711E+04; -1.3073853E-02;  0.0000000E+00; -1.2363985E-04;  3.1522173E+03;
  4.1302972E-02;  9.9999998E-03; -2.5003242E-01;2695; -1.2359950E-03;  0.0000000E+00;  2.4255221E-05;  9.9866461E+02;  1.0000000E-01; -1.1063391E+03;3; -6.3806705E+00;  0.0000000E+00; -5.1965075E+00;0; -1.4376590E-02;  3.9869309E+04;  0.0000000E+00; -8.4131646E-01;  4.0000000E+04;  0.0000000E+00;  4.0023375E+04; -1.4368739E-02;  0.0000000E+00; -7.8511803E-06;  3.3036511E+03;
  4.1528665E-02;  9.9999998E-03; -2.4005732E-01;2696; -1.3746468E-03;  0.0000000E+00;  2.1614953E-05;  9.9867212E+02;  1.0000000E-01; -1.1001171E+03;3; -1.0096473E+01;  0.0000000E+00; -2.9295516E+00;0; -1.5482723E-02;  3.9873160E+04;  0.0000000E+00; -8.6163616E-01;  4.0000000E+04;  0.0000000E+00;  4.0022328E+04; -1.5544666E-02;  0.0000000E+00;  6.1943028E-05;  3.1076792E+03;
  4.1701626E-02;  9.9999998E-03; -2.3006560E-01;2697; -1.5462305E-03;  0.0000000E+00;  1.9659941E-05;  9.9871289E+02;  1.0000000E-01; -1.0663402E+03;3; -1.4855097E+01;  0.0000000E+00; -6.1433196E-01;0; -1.6494691E-02;  3.9881387E+04;  0.0000000E+00; -8.7686342E-01;  4.0000000E+04;  0.0000000E+00;  4.0018105E+04; -1.6578019E-02;  0.0000000E+00;  8.3327468E-05;  2.6471628E+03;
  4.1822210E-02;  9.9999998E-03; -2.2006129E-01;2698; -1.7328709E-03;  0.0000000E+00;  1.7008648E-05;  9.9878326E+02;  1.0000000E-01; -1.0080209E+03;3; -2.0189039E+01;  0.0000000E+00;  1.2399530E+00;0; -1.7388592E-02;  3.9893242E+04;  0.0000000E+00; -8.7335408E-01;  4.0000000E+04;  0.0000000E+00;  4.0012773E+04; -1.7452717E-02;  0.0000000E+00;  6.4125255E-05;  2.0658420E+03;
  4.1895464E-02;  9.9999998E-03; -2.1004966E-01;2699; -1.9139578E-03;  0.0000000E+00;  1.0749445E-05;  9.9888269E+02;  1.0000000E-01; -9.2565283E+02;3; -2.5578876E+01;  0.0000000E+00;  2.4407876E+00;0; -1.8139774E-02;  3.9907656E+04;  0.0000000E+00; -8.4184825E-01;  4.0000000E+04;  0.0000000E+00;  4.0006688E+04; -1.8160610E-02;  0.0000000E+00;  2.0835259E-05;  1.5247633E+03;
  4.1931555E-02;  9.9999998E-03; -2.0003508E-01;2700; -2.0744943E-03;  0.0000000E+00; -2.2098923E-06;  9.9901093E+02;  1.0000000E-01; -8.1943359E+02;3; -3.0597652E+01;  0.0000000E+00;  3.0361943E+00;0; -1.8725436E-02;  3.9923516E+04;  0.0000000E+00; -7.7982062E-01;  4.0000000E+04;  0.0000000E+00;  4.0002711E+04; -1.8699946E-02;  0.0000000E+00; -2.5489706E-05;  1.1575211E+03;
  4.1941259E-02;  9.9999998E-03; -1.9002168E-01;2701; -2.1975606E-03;  0.0000000E+00; -2.0545334E-05;  9.9916412E+02;  1.0000000E-01; -6.9252362E+02;3; -3.4908562E+01;  0.0000000E+00;  3.1814854E+00;0; -1.9131407E-02;  3.9939867E+04;  0.0000000E+00; -6.9119018E-01;  4.0000000E+04;  0.0000000E+00;  3.9998766E+04; -1.9076983E-02;  0.0000000E+00; -5.4424927E-05;  9.9037262E+02;
  4.1933134E-02;  9.9999998E-03; -1.8001115E-01;2702; -2.2726823E-03;  0.0000000E+00; -3.9099621E-05;  9.9933417E+02;  1.0000000E-01; -5.5163873E+02;3; -3.8341763E+01;  0.0000000E+00;  3.0338228E+00;0; -1.9354805E-02;  3.9955805E+04;  0.0000000E+00; -5.8458990E-01;  4.0000000E+04;  0.0000000E+00;  3.9996816E+04; -1.9303894E-02;  0.0000000E+00; -5.0910894E-05;  9.1212817E+02;
  4.1914746E-02;  9.9999998E-03; -1.7000389E-01;2703; -2.2961558E-03;  0.0000000E+00; -5.4348417E-05;  9.9950555E+02;  1.0000000E-01; -4.0961804E+02;3; -4.0866528E+01;  0.0000000E+00;  2.7077262E+00;0; -1.9405292E-02;  3.9970223E+04;  0.0000000E+00; -4.7074631E-01;  4.0000000E+04;  0.0000000E+00;  3.9996172E+04; -1.9397115E-02;  0.0000000E+00; -8.1771432E-06;  8.1144989E+02;
  4.1892737E-02;  9.9999998E-03; -1.5999992E-01;2704; -2.2727826E-03;  0.0000000E+00; -6.3889624E-05;  9.9966779E+02;  1.0000000E-01; -2.7525146E+02;3; -4.2601177E+01;  0.0000000E+00;  2.2849877E+00;0; -1.9303732E-02;  3.9983363E+04;  0.0000000E+00; -3.6026070E-01;  4.0000000E+04;  0.0000000E+00;  3.9997078E+04; -1.9375257E-02;  0.0000000E+00;  7.1526192E-05;  6.6050854E+02;
  4.1871898E-02;  9.9999998E-03; -1.4999890E-01;2705; -2.2121980E-03;  0.0000000E+00; -6.6084984E-05;  9.9981287E+02;  1.0000000E-01; -1.5505734E+02;3; -4.3736771E+01;  0.0000000E+00;  1.8383070E+00;0; -1.9080745E-02;  3.9994414E+04;  0.0000000E+00; -2.6174629E-01;  4.0000000E+04;  0.0000000E+00;  3.9997562E+04; -1.9258814E-02;  0.0000000E+00;  1.7806960E-04;  4.8651013E+02;
  4.1855011E-02;  9.9999998E-03; -1.3999927E-01;2706; -2.1273356E-03;  0.0000000E+00; -6.1767038E-05;  9.9993268E+02;  1.0000000E-01; -5.5751511E+01;3; -4.4473103E+01;  0.0000000E+00;  1.4242109E+00;0; -1.8773273E-02;  4.0003059E+04;  0.0000000E+00; -1.8073964E-01;  4.0000000E+04;  0.0000000E+00;  3.9999348E+04; -1.9069180E-02;  0.0000000E+00;  2.9590743E-04;  3.3137888E+02;
  4.1843824E-02;  9.9999998E-03; -1.3000078E-01;2707; -2.0333212E-03;  0.0000000E+00; -5.3346354E-05;  1.0000176E+03;  1.0000000E-01;  1.4616871E+01;3; -4.4978184E+01;  0.0000000E+00;  1.0712718E+00;0; -1.8420270E-02;  4.0009617E+04;  0.0000000E+00; -1.1935640E-01;  4.0000000E+04;  0.0000000E+00;  3.9998934E+04; -1.8827666E-02;  0.0000000E+00;  4.0739615E-04;  2.2739059E+02;
  4.1838463E-02;  9.9999998E-03; -1.2000296E-01;2708; -1.9440685E-03;  0.0000000E+00; -4.3344131E-05;  1.0000700E+03;  1.0000000E-01;  5.7973667E+01;3; -4.5409645E+01;  0.0000000E+00;  7.8167468E-01;0; -1.8058784E-02;  4.0013695E+04;  0.0000000E+00; -7.6432906E-02;  4.0000000E+04;  0.0000000E+00;  3.9999426E+04; -1.8555522E-02;  0.0000000E+00;  4.9673807E-04;  1.9841046E+02;
  4.1837625E-02;  9.9999998E-03; -1.1000507E-01;2709; -1.8706692E-03;  0.0000000E+00; -3.5833098E-05;  1.0000912E+03;  1.0000000E-01;  7.5553421E+01;3; -4.5843472E+01;  0.0000000E+00;  5.4154086E-01;0; -1.7719476E-02;  4.0016176E+04;  0.0000000E+00; -4.8501164E-02;  4.0000000E+04;  0.0000000E+00;  3.9998227E+04; -1.8273275E-02;  0.0000000E+00;  5.5379979E-04;  2.6386307E+02;
  5.0610032E-02;  9.9999998E-03; -2.6999035E-01;2754; -1.3704086E-03;  0.0000000E+00;  8.4042571E-05;  9.9964941E+02;  1.0000000E-01; -2.9046091E+02;3; -4.9573531E+00;  0.0000000E+00; -1.4518665E+01;0; -1.0931660E-02;  3.9950734E+04;  0.0000000E+00; -7.4436581E-01;  4.0000000E+04;  0.0000000E+00;  4.0018609E+04; -1.0698383E-02;  0.0000000E+00; -2.3327747E-04;  2.6244751E+03;
  5.0937023E-02;  9.9999998E-03; -2.6001686E-01;2755; -1.4402927E-03;  0.0000000E+00;  7.5751050E-05;  9.9983606E+02;  1.0000000E-01; -1.3579863E+02;3; -7.5630617E+00;  0.0000000E+00; -1.4475693E+01;0; -1.2026758E-02;  3.9963590E+04;  0.0000000E+00; -6.6822809E-01;  4.0000000E+04;  0.0000000E+00;  4.0022367E+04; -1.1948287E-02;  0.0000000E+00; -7.8470213E-05;  2.9855493E+03;
  5.1196206E-02;  9.9999998E-03; -2.5004479E-01;2756; -1.5624576E-03;  0.0000000E+00;  7.2676405E-05;  1.0000488E+03;  1.0000000E-01;  4.0492683E+01;3; -1.1161538E+01;  0.0000000E+00; -1.2364222E+01;0; -1.3066493E-02;  3.9981461E+04;  0.0000000E+00; -6.0856289E-01;  4.0000000E+04;  0.0000000E+00;  4.0023039E+04; -1.3101198E-02;  0.0000000E+00;  3.4705066E-05;  2.9905840E+03;
  5.1390242E-02;  9.9999998E-03; -2.4006119E-01;2757; -1.7327478E-03;  0.0000000E+00;  7.7965939E-05;  1.0002745E+03;  1.0000000E-01;  2.2745036E+02;3; -1.5680829E+01;  0.0000000E+00; -9.1143694E+00;0; -1.4038106E-02;  4.0003508E+04;  0.0000000E+00; -5.7098961E-01;  4.0000000E+04;  0.0000000E+00;  4.0020512E+04; -1.4130456E-02;  0.0000000E+00;  9.2349728E-05;  2.6459270E+03;
  5.1530104E-02;  9.9999998E-03; -2.3006195E-01;2758; -1.9364267E-03;  0.0000000E+00;  8.6805558E-05;  1.0005135E+03;  1.0000000E-01;  4.2537070E+02;3; -2.0860832E+01;  0.0000000E+00; -5.7078600E+00;0; -1.4922655E-02;  4.0028918E+04;  0.0000000E+00; -5.5025941E-01;  4.0000000E+04;  0.0000000E+00;  4.0015375E+04; -1.5014831E-02;  0.0000000E+00;  9.2175600E-05;  2.0512759E+03;
  5.1619299E-02;  9.9999998E-03; -2.2005183E-01;2759; -2.1568374E-03;  0.0000000E+00;  8.4461171E-05;  1.0007565E+03;  1.0000000E-01;  6.2674768E+02;3; -2.6282364E+01;  0.0000000E+00; -2.8059866E+00;0; -1.5696915E-02;  4.0055758E+04;  0.0000000E+00; -5.3592092E-01;  4.0000000E+04;  0.0000000E+00;  4.0010031E+04; -1.5741741E-02;  0.0000000E+00;  4.4826804E-05;  1.3733138E+03;
  5.1665504E-02;  9.9999998E-03; -2.1003570E-01;2760; -2.3717603E-03;  0.0000000E+00;  6.7209774E-05;  1.0010106E+03;  1.0000000E-01;  8.3721088E+02;3; -3.1511097E+01;  0.0000000E+00; -6.7897153E-01;0; -1.6335925E-02;  4.0082926E+04;  0.0000000E+00; -5.1783723E-01;  4.0000000E+04;  0.0000000E+00;  4.0004047E+04; -1.6307212E-02;  0.0000000E+00; -2.8712224E-05;  8.3871753E+02;
  5.1680431E-02;  9.9999998E-03; -2.0001943E-01;2761; -2.5569045E-03;  0.0000000E+00;  3.6769332E-05;  1.0012672E+03;  1.0000000E-01;  1.0498468E+03;3; -3.6151711E+01;  0.0000000E+00;  7.0039016E-01;0; -1.6817378E-02;  4.0109262E+04;  0.0000000E+00; -4.8906878E-01;  4.0000000E+04;  0.0000000E+00;  3.9999113E+04; -1.6715320E-02;  0.0000000E+00; -1.0205828E-04;  7.1622290E+02;
  5.1672902E-02;  9.9999998E-03; -1.9000608E-01;2762; -2.6958673E-03;  0.0000000E+00; -3.1844916E-06;  1.0015222E+03;  1.0000000E-01;  1.2611001E+03;3; -3.9981483E+01;  0.0000000E+00;  1.4648509E+00;0; -1.7126575E-02;  4.0133633E+04;  0.0000000E+00; -4.4676295E-01;  4.0000000E+04;  0.0000000E+00;  3.9996551E+04; -1.6976871E-02;  0.0000000E+00; -1.4970501E-04;  8.6325708E+02;
  5.1649556E-02;  9.9999998E-03; -1.7999667E-01;2763; -2.7786153E-03;  0.0000000E+00; -4.4206998E-05;  1.0017651E+03;  1.0000000E-01;  1.4623784E+03;3; -4.2897560E+01;  0.0000000E+00;  1.7798635E+00;0; -1.7260775E-02;  4.0155258E+04;  0.0000000E+00; -3.9193687E-01;  4.0000000E+04;  0.0000000E+00;  3.9994922E+04; -1.7107952E-02;  0.0000000E+00; -1.5282173E-04;  9.4740942E+02;
  5.1617794E-02;  9.9999998E-03; -1.6999157E-01;2764; -2.8029559E-03;  0.0000000E+00; -8.0763057E-05;  1.0019949E+03;  1.0000000E-01;  1.6526940E+03;3; -4.4967533E+01;  0.0000000E+00;  1.7740024E+00;0; -1.7229954E-02;  4.0174164E+04;  0.0000000E+00; -3.2828525E-01;  4.0000000E+04;  0.0000000E+00;  3.9994535E+04; -1.7126923E-02;  0.0000000E+00; -1.0303064E-04;  8.8690747E+02;
  5.1584356E-02;  9.9999998E-03; -1.5999129E-01;2765; -2.7757667E-03;  0.0000000E+00; -1.0891206E-04;  1.0021924E+03;  1.0000000E-01;  1.8164425E+03;3; -4.6295826E+01;  0.0000000E+00;  1.5641279E+00;0; -1.7056258E-02;  4.0189496E+04;  0.0000000E+00; -2.6132214E-01;  4.0000000E+04;  0.0000000E+00;  3.9996723E+04; -1.7052783E-02;  0.0000000E+00; -3.4748687E-06;  7.1336212E+02;
  5.1554147E-02;  9.9999998E-03; -1.4999400E-01;2766; -2.7077368E-03;  0.0000000E+00; -1.2492435E-04;  1.0023588E+03;  1.0000000E-01;  1.9542163E+03;3; -4.7097588E+01;  0.0000000E+00;  1.2602186E+00;0; -1.6772145E-02;  4.0201395E+04;  0.0000000E+00; -1.9719569E-01;  4.0000000E+04;  0.0000000E+00;  3.9999504E+04; -1.6904855E-02;  0.0000000E+00;  1.3270904E-04;  4.9416422E+02;
  5.1530160E-02;  9.9999998E-03; -1.3999869E-01;2767; -2.6117305E-03;  0.0000000E+00; -1.2756720E-04;  1.0024808E+03;  1.0000000E-01;  2.0552505E+03;3; -4.7539368E+01;  0.0000000E+00;  9.5622820E-01;0; -1.6416751E-02;  4.0210301E+04;  0.0000000E+00; -1.4125237E-01;  4.0000000E+04;  0.0000000E+00;  4.0000000E+04; -1.6702268E-02;  0.0000000E+00;  2.8551681E-04;  3.0027029E+02;
  5.1514216E-02;  9.9999998E-03; -1.3000478E-01;2768; -2.5033760E-03;  0.0000000E+00; -1.1687845E-04;  1.0025662E+03;  1.0000000E-01;  2.1260632E+03;3; -4.7837067E+01;  0.0000000E+00;  7.0250261E-01;0; -1.6030772E-02;  4.0216203E+04;  0.0000000E+00; -9.6783511E-02;  4.0000000E+04;  0.0000000E+00;  4.0001359E+04; -1.6462866E-02;  0.0000000E+00;  4.3209491E-04;  1.7967371E+02;
  5.1505938E-02;  9.9999998E-03; -1.2001091E-01;2769; -2.3983014E-03;  0.0000000E+00; -9.6838026E-05;  1.0026083E+03;  1.0000000E-01;  2.1609265E+03;3; -4.8095165E+01;  0.0000000E+00;  5.0155258E-01;0; -1.5651783E-02;  4.0220051E+04;  0.0000000E+00; -6.4207062E-02;  4.0000000E+04;  0.0000000E+00;  4.0000945E+04; -1.6203515E-02;  0.0000000E+00;  5.5173144E-04;  1.4537488E+02;
  5.1503617E-02;  9.9999998E-03; -1.1001575E-01;2770; -2.3119403E-03;  0.0000000E+00; -7.7187666E-05;  1.0026170E+03;  1.0000000E-01;  2.1681362E+03;3; -4.8412411E+01;  0.0000000E+00;  3.4157941E-01;0; -1.5308811E-02;  4.0221648E+04;  0.0000000E+00; -4.1857541E-02;  4.0000000E+04;  0.0000000E+00;  4.0000062E+04; -1.5939251E-02;  0.0000000E+00;  6.3043961E-04;  2.2282915E+02;
  6.0572442E-02;  9.9999998E-03; -2.7000841E-01;2815; -1.5815028E-03;  0.0000000E+00;  9.8582736E-05;  1.0002942E+03;  1.0000000E-01;  2.4374619E+02;3; -4.5468812E+00;  0.0000000E+00; -2.0910290E+01;0; -9.5396535E-03;  4.0002602E+04;  0.0000000E+00; -5.6019258E-01;  4.0000000E+04;  0.0000000E+00;  4.0019426E+04; -9.3555525E-03;  0.0000000E+00; -1.8410065E-04;  2.5000688E+03;
  6.0870234E-02;  9.9999998E-03; -2.6003280E-01;2816; -1.6661999E-03;  0.0000000E+00;  9.5286880E-05;  1.0006539E+03;  1.0000000E-01;  5.4171307E+02;3; -7.5553880E+00;  0.0000000E+00; -2.0708628E+01;0; -1.0442302E-02;  4.0030023E+04;  0.0000000E+00; -3.8747489E-01;  4.0000000E+04;  0.0000000E+00;  4.0021840E+04; -1.0427533E-02;  0.0000000E+00; -1.4769379E-05;  2.7836121E+03;
  6.1100479E-02;  9.9999998E-03; -2.5005376E-01;2817; -1.8093364E-03;  0.0000000E+00;  1.0859559E-04;  1.0010342E+03;  1.0000000E-01;  8.5686469E+02;3; -1.1349863E+01;  0.0000000E+00; -1.8027483E+01;0; -1.1294640E-02;  4.0062383E+04;  0.0000000E+00; -2.3721983E-01;  4.0000000E+04;  0.0000000E+00;  4.0022016E+04; -1.1398599E-02;  0.0000000E+00;  1.0395961E-04;  2.6956724E+03;
  6.1266102E-02;  9.9999998E-03; -2.4006343E-01;2818; -1.9987638E-03;  0.0000000E+00;  1.2918214E-04;  1.0014215E+03;  1.0000000E-01;  1.1776458E+03;3; -1.5786527E+01;  0.0000000E+00; -1.4006237E+01;0; -1.2088067E-02;  4.0098324E+04;  0.0000000E+00; -1.2947053E-01;  4.0000000E+04;  0.0000000E+00;  4.0018609E+04; -1.2243828E-02;  0.0000000E+00;  1.5576063E-04;  2.2514243E+03;
  6.1378431E-02;  9.9999998E-03; -2.3005813E-01;2819; -2.2263583E-03;  0.0000000E+00;  1.4025698E-04;  1.0018043E+03;  1.0000000E-01;  1.4947726E+03;3; -2.0614563E+01;  0.0000000E+00; -9.7669239E+00;0; -1.2805964E-02;  4.0136191E+04;  0.0000000E+00; -7.0335932E-02;  4.0000000E+04;  0.0000000E+00;  4.0013340E+04; -1.2944433E-02;  0.0000000E+00;  1.3846910E-04;  1.5546796E+03;
  6.1444350E-02;  9.9999998E-03; -2.2004206E-01;2820; -2.4692144E-03;  0.0000000E+00;  1.3267202E-04;  1.0021748E+03;  1.0000000E-01;  1.8018256E+03;3; -2.5435495E+01;  0.0000000E+00; -6.0486665E+00;0; -1.3427427E-02;  4.0173703E+04;  0.0000000E+00; -5.3840201E-02;  4.0000000E+04;  0.0000000E+00;  4.0007273E+04; -1.3492484E-02;  0.0000000E+00;  6.5056360E-05;  7.5850220E+02;
  6.1473057E-02;  9.9999998E-03; -2.1002229E-01;2821; -2.7023333E-03;  0.0000000E+00;  1.0524777E-04;  1.0025308E+03;  1.0000000E-01;  2.0967307E+03;3; -2.9899576E+01;  0.0000000E+00; -3.1757371E+00;0; -1.3928221E-02;  4.0209496E+04;  0.0000000E+00; -6.6262253E-02;  4.0000000E+04;  0.0000000E+00;  4.0002152E+04; -1.3889348E-02;  0.0000000E+00; -3.8872589E-05;  8.7499847E+01;
  6.1475169E-02;  9.9999998E-03; -2.0000486E-01;2822; -2.8999406E-03;  0.0000000E+00;  5.9948419E-05;  1.0028675E+03;  1.0000000E-01;  2.3756365E+03;3; -3.3728172E+01;  0.0000000E+00; -1.1704208E+00;0; -1.4285956E-02;  4.0242551E+04;  0.0000000E+00; -9.2624590E-02;  4.0000000E+04;  0.0000000E+00;  3.9997770E+04; -1.4144703E-02;  0.0000000E+00; -1.4125297E-04;  5.8278644E+02;
  6.1456591E-02;  9.9999998E-03; -1.8999183E-01;2823; -3.0450244E-03;  0.0000000E+00;  7.9597862E-07;  1.0031798E+03;  1.0000000E-01;  2.6343945E+03;3; -3.6774155E+01;  0.0000000E+00;  9.6332505E-02;0; -1.4485980E-02;  4.0271562E+04;  0.0000000E+00; -1.2008975E-01;  4.0000000E+04;  0.0000000E+00;  3.9994621E+04; -1.4274828E-02;  0.0000000E+00; -2.1115213E-04;  9.2892114E+02;
  6.1423302E-02;  9.9999998E-03; -1.7998420E-01;2824; -3.1292925E-03;  0.0000000E+00; -6.1779116E-05;  1.0034603E+03;  1.0000000E-01;  2.8667832E+03;3; -3.9012630E+01;  0.0000000E+00;  7.8210020E-01;0; -1.4524817E-02;  4.0296102E+04;  0.0000000E+00; -1.3918291E-01;  4.0000000E+04;  0.0000000E+00;  3.9994445E+04; -1.4299249E-02;  0.0000000E+00; -2.2556793E-04;  1.0336831E+03;
  6.1382651E-02;  9.9999998E-03; -1.6998310E-01;2825; -3.1536219E-03;  0.0000000E+00; -1.2068306E-04;  1.0037081E+03;  1.0000000E-01;  3.0721106E+03;3; -4.0527649E+01;  0.0000000E+00;  1.0366098E+00;0; -1.4411994E-02;  4.0315980E+04;  0.0000000E+00; -1.4461032E-01;  4.0000000E+04;  0.0000000E+00;  3.9994734E+04; -1.4238136E-02;  0.0000000E+00; -1.7385880E-04;  9.3170337E+02;
  6.1341710E-02;  9.9999998E-03; -1.5998714E-01;2826; -3.1219989E-03;  0.0000000E+00; -1.6725426E-04;  1.0039109E+03;  1.0000000E-01;  3.2401060E+03;3; -4.1428295E+01;  0.0000000E+00;  1.0024407E+00;0; -1.4170656E-02;  4.0331262E+04;  0.0000000E+00; -1.3573599E-01;  4.0000000E+04;  0.0000000E+00;  3.9997922E+04; -1.4111152E-02;  0.0000000E+00; -5.9503989E-05;  6.9238477E+02;
  6.1305001E-02;  9.9999998E-03; -1.4999449E-01;2827; -3.0467252E-03;  0.0000000E+00; -2.0016615E-04;  1.0040735E+03;  1.0000000E-01;  3.3748181E+03;3; -4.1909431E+01;  0.0000000E+00;  8.1739545E-01;0; -1.3834571E-02;  4.0342453E+04;  0.0000000E+00; -1.1611833E-01;  4.0000000E+04;  0.0000000E+00;  3.9999863E+04; -1.3936218E-02;  0.0000000E+00;  1.0164610E-04;  4.0531558E+02;
  6.1275788E-02;  9.9999998E-03; -1.4000411E-01;2828; -2.9430555E-03;  0.0000000E+00; -2.1293963E-04;  1.0041862E+03;  1.0000000E-01;  3.4682476E+03;3; -4.2128586E+01;  0.0000000E+00;  6.0469550E-01;0; -1.3443750E-02;  4.0349914E+04;  0.0000000E+00; -9.1597572E-02;  4.0000000E+04;  0.0000000E+00;  4.0002680E+04; -1.3728814E-02;  0.0000000E+00;  2.8506346E-04;  1.7170763E+02;
  6.1255749E-02;  9.9999998E-03; -1.3001505E-01;2829; -2.8266204E-03;  0.0000000E+00; -2.0611763E-04;  1.0042564E+03;  1.0000000E-01;  3.5263201E+03;3; -4.2262077E+01;  0.0000000E+00;  4.2699042E-01;0; -1.3039637E-02;  4.0354621E+04;  0.0000000E+00; -6.7605115E-02;  4.0000000E+04;  0.0000000E+00;  4.0003359E+04; -1.3502253E-02;  0.0000000E+00;  4.6261557E-04;  1.0547858E+02;
  6.1244506E-02;  9.9999998E-03; -1.2002514E-01;2830; -2.7132379E-03;  0.0000000E+00; -1.8161387E-04;  1.0042842E+03;  1.0000000E-01;  3.5494304E+03;3; -4.2413651E+01;  0.0000000E+00;  2.8931731E-01;0; -1.2659283E-02;  4.0356957E+04;  0.0000000E+00; -4.7118496E-02;  4.0000000E+04;  0.0000000E+00;  4.0003301E+04; -1.3267882E-02;  0.0000000E+00;  6.0859899E-04;  8.9044121E+01;
  6.1240900E-02;  9.9999998E-03; -1.1003163E-01;2831; -2.6172758E-03;  0.0000000E+00; -1.4529248E-04;  1.0042802E+03;  1.0000000E-01;  3.5460725E+03;3; -4.2646839E+01;  0.0000000E+00;  1.8743578E-01;0; -1.2330016E-02;  4.0357598E+04;  0.0000000E+00; -3.1151626E-02;  4.0000000E+04;  0.0000000E+00;  4.0002430E+04; -1.3035076E-02;  0.0000000E+00;  7.0505915E-04;  7.3414391E+01;
  7.0550136E-02;  9.9999998E-03; -2.7002969E-01;2876; -1.7104917E-03;  0.0000000E+00;  6.5344291E-05;  1.0006265E+03;  1.0000000E-01;  5.1909644E+02;3; -2.4508233E+00;  0.0000000E+00; -2.5204933E+01;0; -7.9956204E-03;  4.0030215E+04;  0.0000000E+00; -2.3427743E-01;  4.0000000E+04;  0.0000000E+00;  4.0019523E+04; -7.8726774E-03;  0.0000000E+00; -1.2294308E-04;  2.3460217E+03;
  7.0817232E-02;  9.9999998E-03; -2.6005471E-01;2877; -1.7960090E-03;  0.0000000E+00;  6.9581904E-05;  1.0011083E+03;  1.0000000E-01;  9.1819623E+02;3; -5.2916131E+00;  0.0000000E+00; -2.5068493E+01;0; -8.6731836E-03;  4.0067488E+04;  0.0000000E+00;  2.3812216E-02;  4.0000000E+04;  0.0000000E+00;  4.0022156E+04; -8.7448806E-03;  0.0000000E+00;  7.1697345E-05;  2.6654175E+03;
  7.1019076E-02;  9.9999998E-03; -2.5007173E-01;2878; -1.9398901E-03;  0.0000000E+00;  9.6747077E-05;  1.0016072E+03;  1.0000000E-01;  1.3315179E+03;3; -8.7069635E+00;  0.0000000E+00; -2.2085320E+01;0; -9.3070762E-03;  4.0109691E+04;  0.0000000E+00;  2.4991825E-01;  4.0000000E+04;  0.0000000E+00;  4.0021422E+04; -9.5126070E-03;  0.0000000E+00;  2.0553119E-04;  2.5976980E+03;
  7.1161196E-02;  9.9999998E-03; -2.4007429E-01;2879; -2.1348197E-03;  0.0000000E+00;  1.2914444E-04;  1.0020979E+03;  1.0000000E-01;  1.7380249E+03;3; -1.2542652E+01;  0.0000000E+00; -1.7544899E+01;0; -9.8925764E-03;  4.0154758E+04;  0.0000000E+00;  4.1297993E-01;  4.0000000E+04;  0.0000000E+00;  4.0018148E+04; -1.0151902E-02;  0.0000000E+00;  2.5932543E-04;  2.1764409E+03;
  7.1253411E-02;  9.9999998E-03; -2.3006135E-01;2880; -2.3678078E-03;  0.0000000E+00;  1.4829793E-04;  1.0025699E+03;  1.0000000E-01;  2.1291250E+03;3; -1.6544033E+01;  0.0000000E+00; -1.2695324E+01;0; -1.0418032E-02;  4.0200484E+04;  0.0000000E+00;  4.9671462E-01;  4.0000000E+04;  0.0000000E+00;  4.0012449E+04; -1.0648292E-02;  0.0000000E+00;  2.3025912E-04;  1.5341047E+03;
  7.1304440E-02;  9.9999998E-03; -2.2003865E-01;2881; -2.6144513E-03;  0.0000000E+00;  1.4233551E-04;  1.0030111E+03;  1.0000000E-01;  2.4946455E+03;3; -2.0409697E+01;  0.0000000E+00; -8.3772984E+00;0; -1.0865159E-02;  4.0244164E+04;  0.0000000E+00;  5.0132966E-01;  4.0000000E+04;  0.0000000E+00;  4.0006824E+04; -1.0998875E-02;  0.0000000E+00;  1.3371525E-04;  8.9600000E+02;
  7.1323194E-02;  9.9999998E-03; -2.1001445E-01;2882; -2.8512173E-03;  0.0000000E+00;  1.1010330E-04;  1.0034189E+03;  1.0000000E-01;  2.8325125E+03;3; -2.3878761E+01;  0.0000000E+00; -4.9687233E+00;0; -1.1211201E-02;  4.0284535E+04;  0.0000000E+00;  4.4201532E-01;  4.0000000E+04;  0.0000000E+00;  4.0000652E+04; -1.1211267E-02;  0.0000000E+00;  6.6138455E-08;  6.7045001E+02;
  7.1317859E-02;  9.9999998E-03; -1.9999433E-01;2883; -3.0510563E-03;  0.0000000E+00;  5.5713088E-05;  1.0037874E+03;  1.0000000E-01;  3.1377878E+03;3; -2.6758959E+01;  0.0000000E+00; -2.5138805E+00;0; -1.1434617E-02;  4.0320172E+04;  0.0000000E+00;  3.4363279E-01;  4.0000000E+04;  0.0000000E+00;  3.9996699E+04; -1.1301866E-02;  0.0000000E+00; -1.3275159E-04;  9.1652722E+02;
  7.1293205E-02;  9.9999998E-03; -1.8998107E-01;2884; -3.1957673E-03;  0.0000000E+00; -1.5234697E-05;  1.0041138E+03;  1.0000000E-01;  3.4082000E+03;3; -2.8974339E+01;  0.0000000E+00; -8.9382714E-01;0; -1.1521081E-02;  4.0350230E+04;  0.0000000E+00;  2.3226430E-01;  4.0000000E+04;  0.0000000E+00;  3.9994332E+04; -1.1292899E-02;  0.0000000E+00; -2.2818171E-04;  1.1195471E+03;
  7.1254775E-02;  9.9999998E-03; -1.7997548E-01;2885; -3.2762042E-03;  0.0000000E+00; -9.3477036E-05;  1.0043950E+03;  1.0000000E-01;  3.6411809E+03;3; -3.0539148E+01;  0.0000000E+00;  5.5026703E-02;0; -1.1466797E-02;  4.0374328E+04;  0.0000000E+00;  1.2881483E-01;  4.0000000E+04;  0.0000000E+00;  3.9994652E+04; -1.1207908E-02;  0.0000000E+00; -2.5888931E-04;  1.1162584E+03;
  7.1210667E-02;  9.9999998E-03; -1.6997805E-01;2886; -3.2948463E-03;  0.0000000E+00; -1.6677823E-04;  1.0046275E+03;  1.0000000E-01;  3.8337681E+03;3; -3.1532536E+01;  0.0000000E+00;  4.9741259E-01;0; -1.1280403E-02;  4.0392844E+04;  0.0000000E+00;  4.7351643E-02;  4.0000000E+04;  0.0000000E+00;  3.9995352E+04; -1.1068568E-02;  0.0000000E+00; -2.1183612E-04;  9.1568231E+02;
  7.1166627E-02;  9.9999998E-03; -1.5998605E-01;2887; -3.2555969E-03;  0.0000000E+00; -2.2825931E-04;  1.0048167E+03;  1.0000000E-01;  3.9906033E+03;3; -3.2079304E+01;  0.0000000E+00;  5.9335208E-01;0; -1.0984885E-02;  4.0405941E+04;  0.0000000E+00; -6.0039079E-03;  4.0000000E+04;  0.0000000E+00;  3.9998648E+04; -1.0894803E-02;  0.0000000E+00; -9.0081696E-05;  5.8349390E+02;
  7.1127392E-02;  9.9999998E-03; -1.4999755E-01;2888; -3.1720751E-03;  0.0000000E+00; -2.7022322E-04;  1.0049546E+03;  1.0000000E-01;  4.1047729E+03;3; -3.2307243E+01;  0.0000000E+00;  5.0466931E-01;0; -1.0614178E-02;  4.0414562E+04;  0.0000000E+00; -3.2953069E-02;  4.0000000E+04;  0.0000000E+00;  4.0001812E+04; -1.0702534E-02;  0.0000000E+00;  8.8355810E-05;  2.1291803E+02;
  7.1096107E-02;  9.9999998E-03; -1.4001191E-01;2889; -3.0589178E-03;  0.0000000E+00; -2.8848427E-04;  1.0050403E+03;  1.0000000E-01;  4.1757832E+03;3; -3.2355045E+01;  0.0000000E+00;  3.6807391E-01;0; -1.0208632E-02;  4.0419574E+04;  0.0000000E+00; -4.0602006E-02;  4.0000000E+04;  0.0000000E+00;  4.0004578E+04; -1.0503436E-02;  0.0000000E+00;  2.9480338E-04;  1.2941017E+02;
  7.1074158E-02;  9.9999998E-03; -1.3002770E-01;2890; -2.9335320E-03;  0.0000000E+00; -2.8319098E-04;  1.0050865E+03;  1.0000000E-01;  4.2141030E+03;3; -3.2372112E+01;  0.0000000E+00;  2.5113717E-01;0; -9.8092509E-03;  4.0421973E+04;  0.0000000E+00; -3.7075229E-02;  4.0000000E+04;  0.0000000E+00;  4.0005293E+04; -1.0305313E-02;  0.0000000E+00;  4.9606204E-04;  3.1420856E+02;
  7.1061343E-02;  9.9999998E-03; -1.2004110E-01;2891; -2.8131141E-03;  0.0000000E+00; -2.5229339E-04;  1.0050898E+03;  1.0000000E-01;  4.2167695E+03;3; -3.2431648E+01;  0.0000000E+00;  1.6191435E-01;0; -9.4510317E-03;  4.0422504E+04;  0.0000000E+00; -2.8520314E-02;  4.0000000E+04;  0.0000000E+00;  4.0005957E+04; -1.0112712E-02;  0.0000000E+00;  6.6168024E-04;  3.3910263E+02;
  7.1056195E-02;  9.9999998E-03; -1.1004910E-01;2892; -2.7113454E-03;  0.0000000E+00; -1.9623166E-04;  1.0050721E+03;  1.0000000E-01;  4.2021528E+03;3; -3.2597054E+01;  0.0000000E+00;  9.9276088E-02;0; -9.1582080E-03;  4.0421793E+04;  0.0000000E+00; -1.8924171E-02;  4.0000000E+04;  0.0000000E+00;  4.0005141E+04; -9.9280868E-03;  0.0000000E+00;  7.6987891E-04;  2.0694618E+02;
  8.0551229E-02;  9.9999998E-03; -2.7005166E-01;2937; -1.7221359E-03;  0.0000000E+00; -4.0119798E-05;  1.0006760E+03;  1.0000000E-01;  5.6008295E+02;3;  1.8690886E-01;  0.0000000E+00; -2.7596952E+01;0; -6.5293238E-03;  4.0034887E+04;  0.0000000E+00;  3.2814395E-01;  4.0000000E+04;  0.0000000E+00;  4.0018969E+04; -6.4857220E-03;  0.0000000E+00; -4.3601671E-05;  2.3329541E+03;
  8.0784805E-02;  9.9999998E-03; -2.6008281E-01;2938; -1.7952017E-03;  0.0000000E+00; -3.5514640E-05;  1.0012336E+03;  1.0000000E-01;  1.0220945E+03;3; -2.2295680E+00;  0.0000000E+00; -2.7781044E+01;0; -6.9693979E-03;  4.0077961E+04;  0.0000000E+00;  6.1732525E-01;  4.0000000E+04;  0.0000000E+00;  4.0022496E+04; -7.1552442E-03;  0.0000000E+00;  1.8584650E-04;  2.8153628E+03;
  8.0957495E-02;  9.9999998E-03; -2.5010002E-01;2939; -1.9304199E-03;  0.0000000E+00;  3.9031725E-06;  1.0017988E+03;  1.0000000E-01;  1.4902295E+03;3; -5.0283647E+00;  0.0000000E+00; -2.4705894E+01;0; -7.3723020E-03;  4.0125961E+04;  0.0000000E+00;  8.5727477E-01;  4.0000000E+04;  0.0000000E+00;  4.0021500E+04; -7.7149784E-03;  0.0000000E+00;  3.4267645E-04;  2.8701172E+03;
  8.1080094E-02;  9.9999998E-03; -2.4009652E-01;2940; -2.1209407E-03;  0.0000000E+00;  6.0832990E-05;  1.0023505E+03;  1.0000000E-01;  1.9474017E+03;3; -8.0665693E+00;  0.0000000E+00; -1.9850521E+01;0; -7.7375788E-03;  4.0175684E+04;  0.0000000E+00;  1.0178039E+00;  4.0000000E+04;  0.0000000E+00;  4.0018438E+04; -8.1420522E-03;  0.0000000E+00;  4.0447328E-04;  2.5611870E+03;
  8.1158474E-02;  9.9999998E-03; -2.3007581E-01;2941; -2.3451447E-03;  0.0000000E+00;  1.0185614E-04;  1.0028604E+03;  1.0000000E-01;  2.3697107E+03;3; -1.1122767E+01;  0.0000000E+00; -1.4580826E+01;0; -8.0589904E-03;  4.0224664E+04;  0.0000000E+00;  1.0811801E+00;  4.0000000E+04;  0.0000000E+00;  4.0013367E+04; -8.4272623E-03;  0.0000000E+00;  3.6827181E-04;  2.0531023E+03;
  8.1201069E-02;  9.9999998E-03; -2.2004530E-01;2942; -2.5814532E-03;  0.0000000E+00;  1.1240139E-04;  1.0033251E+03;  1.0000000E-01;  2.7547864E+03;3; -1.3991263E+01;  0.0000000E+00; -9.8516941E+00;0; -8.3229523E-03;  4.0270723E+04;  0.0000000E+00;  1.0452991E+00;  4.0000000E+04;  0.0000000E+00;  4.0006496E+04; -8.5744485E-03;  0.0000000E+00;  2.5149577E-04;  1.5766514E+03;
  8.1215277E-02;  9.9999998E-03; -2.1001327E-01;2943; -2.8067001E-03;  0.0000000E+00;  8.3942716E-05;  1.0037350E+03;  1.0000000E-01;  3.0943323E+03;3; -1.6490133E+01;  0.0000000E+00; -6.0931187E+00;0; -8.5098585E-03;  4.0311656E+04;  0.0000000E+00;  9.2483985E-01;  4.0000000E+04;  0.0000000E+00;  4.0000598E+04; -8.5991528E-03;  0.0000000E+00;  8.9294139E-05;  1.3412677E+03;
  8.1206404E-02;  9.9999998E-03; -1.9998889E-01;2944; -2.9965308E-03;  0.0000000E+00;  2.9673638E-05;  1.0040975E+03;  1.0000000E-01;  3.3947681E+03;3; -1.8508476E+01;  0.0000000E+00; -3.3596497E+00;0; -8.6001400E-03;  4.0346477E+04;  0.0000000E+00;  7.4878198E-01;  4.0000000E+04;  0.0000000E+00;  3.9996586E+04; -8.5254125E-03;  0.0000000E+00; -7.4727694E-05;  1.3273152E+03;
  8.1180125E-02;  9.9999998E-03; -1.8997455E-01;2945; -3.1317903E-03;  0.0000000E+00; -4.6802426E-05;  1.0044023E+03;  1.0000000E-01;  3.6472056E+03;3; -2.0005766E+01;  0.0000000E+00; -1.5297648E+00;0; -8.5793287E-03;  4.0374574E+04;  0.0000000E+00;  5.5288303E-01;  4.0000000E+04;  0.0000000E+00;  3.9994914E+04; -8.3810426E-03;  0.0000000E+00; -1.9828559E-04;  1.3157006E+03;
  8.1141047E-02;  9.9999998E-03; -1.7997029E-01;2946; -3.2019187E-03;  0.0000000E+00; -1.3187193E-04;  1.0046522E+03;  1.0000000E-01;  3.8543108E+03;3; -2.1014444E+01;  0.0000000E+00; -4.2468598E-01;0; -8.4437272E-03;  4.0395703E+04;  0.0000000E+00;  3.6899325E-01;  4.0000000E+04;  0.0000000E+00;  3.9994980E+04; -8.1938328E-03;  0.0000000E+00; -2.4989442E-04;  1.1615890E+03;
  8.1097044E-02;  9.9999998E-03; -1.6997489E-01;2947; -3.2090445E-03;  0.0000000E+00; -2.1265337E-04;  1.0048460E+03;  1.0000000E-01;  4.0148000E+03;3; -2.1606728E+01;  0.0000000E+00;  1.3036951E-01;0; -8.2014566E-03;  4.0410645E+04;  0.0000000E+00;  2.1769784E-01;  4.0000000E+04;  0.0000000E+00;  3.9996770E+04; -7.9873046E-03;  0.0000000E+00; -2.1415247E-04;  8.4392181E+02;
  8.1054337E-02;  9.9999998E-03; -1.5998515E-01;2948; -3.1608171E-03;  0.0000000E+00; -2.8192298E-04;  1.0049930E+03;  1.0000000E-01;  4.1365742E+03;3; -2.1886477E+01;  0.0000000E+00;  3.1134331E-01;0; -7.8738518E-03;  4.0420043E+04;  0.0000000E+00;  1.0839730E-01;  4.0000000E+04;  0.0000000E+00;  4.0000422E+04; -7.7802665E-03;  0.0000000E+00; -9.3585804E-05;  4.1593359E+02;
  8.1017129E-02;  9.9999998E-03; -1.4999950E-01;2949; -3.0666012E-03;  0.0000000E+00; -3.3102607E-04;  1.0050880E+03;  1.0000000E-01;  4.2152881E+03;3; -2.1944941E+01;  0.0000000E+00;  2.9086000E-01;0; -7.4937190E-03;  4.0424906E+04;  0.0000000E+00;  4.0069945E-02;  4.0000000E+04;  0.0000000E+00;  4.0004242E+04; -7.5861653E-03;  0.0000000E+00;  9.2446120E-05;  8.0274292E+01;
  8.0988891E-02;  9.9999998E-03; -1.4001803E-01;2950; -2.9433675E-03;  0.0000000E+00; -3.5533367E-04;  1.0051392E+03;  1.0000000E-01;  4.2577563E+03;3; -2.1894306E+01;  0.0000000E+00;  2.0869926E-01;0; -7.1004131E-03;  4.0426305E+04;  0.0000000E+00;  4.0527168E-03;  4.0000000E+04;  0.0000000E+00;  4.0008359E+04; -7.4122478E-03;  0.0000000E+00;  3.1183480E-04;  4.3352313E+02;
  8.0969587E-02;  9.9999998E-03; -1.3003756E-01;2951; -2.8069341E-03;  0.0000000E+00; -3.5009373E-04;  1.0051510E+03;  1.0000000E-01;  4.2675337E+03;3; -2.1828899E+01;  0.0000000E+00;  1.3467588E-01;0; -6.7333574E-03;  4.0425719E+04;  0.0000000E+00; -1.0383683E-02;  4.0000000E+04;  0.0000000E+00;  4.0009203E+04; -7.2603538E-03;  0.0000000E+00;  5.2699650E-04;  6.6141644E+02;
  8.0958888E-02;  9.9999998E-03; -1.2005349E-01;2952; -2.6765724E-03;  0.0000000E+00; -3.0988912E-04;  1.0051351E+03;  1.0000000E-01;  4.2543984E+03;3; -2.1828892E+01;  0.0000000E+00;  7.7473342E-02;0; -6.4244084E-03;  4.0424324E+04;  0.0000000E+00; -1.2496160E-02;  4.0000000E+04;  0.0000000E+00;  4.0008992E+04; -7.1277115E-03;  0.0000000E+00;  7.0330314E-04;  6.9853345E+02;
  8.0954015E-02;  9.9999998E-03; -1.1006265E-01;2953; -2.5663876E-03;  0.0000000E+00; -2.3429759E-04;  1.0050994E+03;  1.0000000E-01;  4.2247695E+03;3; -2.1917450E+01;  0.0000000E+00;  4.1289583E-02;0; -6.1933850E-03;  4.0422570E+04;  0.0000000E+00; -8.9116571E-03;  4.0000000E+04;  0.0000000E+00;  4.0008004E+04; -7.0091020E-03;  0.0000000E+00;  8.1571698E-04;  5.5558203E+02;
  9.0575121E-02;  9.9999998E-03; -2.7006701E-01;2998; -1.6030368E-03;  0.0000000E+00; -2.2010683E-04;  1.0004948E+03;  1.0000000E-01;  4.0986496E+02;3;  2.5018697E+00;  0.0000000E+00; -2.8534782E+01;0; -5.3459289E-03;  4.0021141E+04;  0.0000000E+00;  1.2657536E+00;  4.0000000E+04;  0.0000000E+00;  4.0018250E+04; -5.4086428E-03;  0.0000000E+00;  6.2713749E-05;  2.9127639E+03;
  9.0775736E-02;  9.9999998E-03; -2.6010609E-01;2999; -1.6632185E-03;  0.0000000E+00; -2.2522606E-04;  1.0010930E+03;  1.0000000E-01;  9.0555463E+02;3;  5.1977998E-01;  0.0000000E+00; -2.9295328E+01;0; -5.5565499E-03;  4.0066855E+04;  0.0000000E+00;  1.4845512E+00;  4.0000000E+04;  0.0000000E+00;  4.0022758E+04; -5.8885128E-03;  0.0000000E+00;  3.3196283E-04;  3.4954788E+03;
  9.0921186E-02;  9.9999998E-03; -2.5012490E-01;3000; -1.7880405E-03;  0.0000000E+00; -1.7544557E-04;  1.0016954E+03;  1.0000000E-01;  1.4046023E+03;3; -1.6677551E+00;  0.0000000E+00; -2.6334938E+01;0; -5.7359831E-03;  4.0116672E+04;  0.0000000E+00;  1.6263098E+00;  4.0000000E+04;  0.0000000E+00;  4.0023223E+04; -6.2506716E-03;  0.0000000E+00;  5.1468820E-04;  3.6121250E+03;
  9.1025092E-02;  9.9999998E-03; -2.4011789E-01;3001; -1.9667353E-03;  0.0000000E+00; -8.9666493E-05;  1.0022590E+03;  1.0000000E-01;  1.8715520E+03;3; -3.9261458E+00;  0.0000000E+00; -2.1252741E+01;0; -5.8878036E-03;  4.0167895E+04;  0.0000000E+00;  1.6807419E+00;  4.0000000E+04;  0.0000000E+00;  4.0020023E+04; -6.4744796E-03;  0.0000000E+00;  5.8667583E-04;  3.3287964E+03;
  9.1093116E-02;  9.9999998E-03; -2.3009259E-01;3002; -2.1751826E-03;  0.0000000E+00; -8.6720720E-06;  1.0027714E+03;  1.0000000E-01;  2.2960339E+03;3; -6.1263609E+00;  0.0000000E+00; -1.5675566E+01;0; -6.0111866E-03;  4.0216883E+04;  0.0000000E+00;  1.6435771E+00;  4.0000000E+04;  0.0000000E+00;  4.0015004E+04; -6.5563614E-03;  0.0000000E+00;  5.4517476E-04;  2.8119280E+03;
  9.1132849E-02;  9.9999998E-03; -2.2005740E-01;3003; -2.3869490E-03;  0.0000000E+00;  3.0911779E-05;  1.0032249E+03;  1.0000000E-01;  2.6717268E+03;3; -8.1334610E+00;  0.0000000E+00; -1.0673045E+01;0; -6.0979910E-03;  4.0261875E+04;  0.0000000E+00;  1.5179486E+00;  4.0000000E+04;  0.0000000E+00;  4.0008117E+04; -6.5083280E-03;  0.0000000E+00;  4.1033709E-04;  2.2719558E+03;
  9.1144748E-02;  9.9999998E-03; -2.1001993E-01;3004; -2.5877426E-03;  0.0000000E+00;  2.6525888E-05;  1.0036088E+03;  1.0000000E-01;  2.9898413E+03;3; -9.8383961E+00;  0.0000000E+00; -6.6994076E+00;0; -6.1353673E-03;  4.0300480E+04;  0.0000000E+00;  1.3168625E+00;  4.0000000E+04;  0.0000000E+00;  4.0001516E+04; -6.3561173E-03;  0.0000000E+00;  2.2075014E-04;  1.8766476E+03;
  9.1136150E-02;  9.9999998E-03; -1.9998860E-01;3005; -2.7572331E-03;  0.0000000E+00; -2.0020414E-05;  1.0039292E+03;  1.0000000E-01;  3.2553154E+03;3; -1.1188852E+01;  0.0000000E+00; -3.8165188E+00;0; -6.1055683E-03;  4.0332227E+04;  0.0000000E+00;  1.0657340E+00;  4.0000000E+04;  0.0000000E+00;  3.9997848E+04; -6.1312374E-03;  0.0000000E+00;  2.5668965E-05;  1.6437167E+03;
  9.1109559E-02;  9.9999998E-03; -1.8997161E-01;3006; -2.8734389E-03;  0.0000000E+00; -9.0389316E-05;  1.0041803E+03;  1.0000000E-01;  3.4633096E+03;3; -1.2148612E+01;  0.0000000E+00; -1.8818855E+00;0; -5.9956731E-03;  4.0355852E+04;  0.0000000E+00;  7.9891628E-01;  4.0000000E+04;  0.0000000E+00;  3.9996172E+04; -5.8680121E-03;  0.0000000E+00; -1.2766101E-04;  1.4456987E+03;
  9.1071367E-02;  9.9999998E-03; -1.7996688E-01;3007; -2.9267478E-03;  0.0000000E+00; -1.7389204E-04;  1.0043754E+03;  1.0000000E-01;  3.6249839E+03;3; -1.2764164E+01;  0.0000000E+00; -7.1021605E-01;0; -5.8012111E-03;  4.0372457E+04;  0.0000000E+00;  5.5095935E-01;  4.0000000E+04;  0.0000000E+00;  3.9996750E+04; -5.5974023E-03;  0.0000000E+00; -2.0380858E-04;  1.1580876E+03;
  9.1029823E-02;  9.9999998E-03; -1.6997151E-01;3008; -2.9178180E-03;  0.0000000E+00; -2.6084585E-04;  1.0045150E+03;  1.0000000E-01;  3.7405361E+03;3; -1.3091469E+01;  0.0000000E+00; -1.0561612E-01;0; -5.5294652E-03;  4.0382129E+04;  0.0000000E+00;  3.4627065E-01;  4.0000000E+04;  0.0000000E+00;  3.9998645E+04; -5.3441855E-03;  0.0000000E+00; -1.8527982E-04;  7.4730273E+02;
  9.0991311E-02;  9.9999998E-03; -1.5998174E-01;3009; -2.8493977E-03;  0.0000000E+00; -3.3437234E-04;  1.0046033E+03;  1.0000000E-01;  3.8138181E+03;3; -1.3193571E+01;  0.0000000E+00;  1.1922837E-01;0; -5.1996424E-03;  4.0386645E+04;  0.0000000E+00;  1.9477674E-01;  4.0000000E+04;  0.0000000E+00;  4.0002434E+04; -5.1253326E-03;  0.0000000E+00; -7.4309864E-05;  2.9975238E+02;
  9.0960748E-02;  9.9999998E-03; -1.4999762E-01;3010; -2.7376283E-03;  0.0000000E+00; -3.8885648E-04;  1.0046517E+03;  1.0000000E-01;  3.8539158E+03;3; -1.3149107E+01;  0.0000000E+00;  1.3653593E-01;0; -4.8419586E-03;  4.0386934E+04;  0.0000000E+00;  9.4897181E-02;  4.0000000E+04;  0.0000000E+00;  4.0006949E+04; -4.9507860E-03;  0.0000000E+00;  1.0882757E-04;  4.0441348E+02;
  9.0940379E-02;  9.9999998E-03; -1.4001922E-01;3011; -2.6068850E-03;  0.0000000E+00; -4.0540769E-04;  1.0046628E+03;  1.0000000E-01;  3.8631006E+03;3; -1.3044440E+01;  0.0000000E+00;  8.8297069E-02;0; -4.4938647E-03;  4.0384648E+04;  0.0000000E+00;  3.6916789E-02;  4.0000000E+04;  0.0000000E+00;  4.0010348E+04; -4.8236810E-03;  0.0000000E+00;  3.2981636E-04;  8.0415009E+02;
  9.0930216E-02;  9.9999998E-03; -1.3004149E-01;3012; -2.4640618E-03;  0.0000000E+00; -3.8131577E-04;  1.0046423E+03;  1.0000000E-01;  3.8461135E+03;3; -1.2941870E+01;  0.0000000E+00;  4.8362080E-02;0; -4.1905488E-03;  4.0381359E+04;  0.0000000E+00;  8.1048571E-03;  4.0000000E+04;  0.0000000E+00;  4.0011773E+04; -4.7384361E-03;  0.0000000E+00;  5.4788741E-04;  1.0601440E+03;
  9.0927497E-02;  9.9999998E-03; -1.2005930E-01;3013; -2.3223199E-03;  0.0000000E+00; -3.1583328E-04;  1.0046028E+03;  1.0000000E-01;  3.8133242E+03;3; -1.2890460E+01;  0.0000000E+00;  2.1538351E-02;0; -3.9593130E-03;  4.0378016E+04;  0.0000000E+00; -3.0866270E-03;  4.0000000E+04;  0.0000000E+00;  4.0012242E+04; -4.6844003E-03;  0.0000000E+00;  7.2508707E-04;  1.1090560E+03;
  9.0929069E-02;  9.9999998E-03; -1.1006828E-01;3014; -2.1977988E-03;  0.0000000E+00; -2.0615513E-04;  1.0045550E+03;  1.0000000E-01;  3.7737205E+03;3; -1.2917853E+01;  0.0000000E+00;  1.0374770E-02;0; -3.8138689E-03;  4.0375285E+04;  0.0000000E+00; -5.0490173E-03;  4.0000000E+04;  0.0000000E+00;  4.0010578E+04; -4.6479385E-03;  0.0000000E+00;  8.3406962E-04;  9.6109747E+02;
  1.0062661E-01;  9.9999998E-03; -2.7005294E-01;3059; -1.3933957E-03;  0.0000000E+00; -4.3599762E-04;  1.0001522E+03;  1.0000000E-01;  1.2611989E+02;3;  4.0932922E+00;  0.0000000E+00; -2.8715675E+01;0; -4.5838482E-03;  3.9994340E+04;  0.0000000E+00;  2.7270997E+00;  4.0000000E+04;  0.0000000E+00;  4.0018801E+04; -4.7915792E-03;  0.0000000E+00;  2.0773103E-04;  4.5646162E+03;
  1.0079507E-01;  9.9999998E-03; -2.6010224E-01;3060; -1.4623954E-03;  0.0000000E+00; -4.5821327E-04;  1.0007711E+03;  1.0000000E-01;  6.3879675E+02;3;  2.4079294E+00;  0.0000000E+00; -3.0228329E+01;0; -4.5930343E-03;  4.0040246E+04;  0.0000000E+00;  2.7285450E+00;  4.0000000E+04;  0.0000000E+00;  4.0024051E+04; -5.1075574E-03;  0.0000000E+00;  5.1452336E-04;  4.9277749E+03;
  1.0092030E-01;  9.9999998E-03; -2.5012311E-01;3061; -1.5856083E-03;  0.0000000E+00; -4.1025240E-04;  1.0013826E+03;  1.0000000E-01;  1.1454491E+03;3;  6.8968964E-01;  0.0000000E+00; -2.7442421E+01;0; -4.5744805E-03;  4.0090145E+04;  0.0000000E+00;  2.6182971E+00;  4.0000000E+04;  0.0000000E+00;  4.0025613E+04; -5.2935602E-03;  0.0000000E+00;  7.1907951E-04;  4.8583237E+03;
  1.0100586E-01;  9.9999998E-03; -2.4011597E-01;3062; -1.7524956E-03;  0.0000000E+00; -2.9615479E-04;  1.0019443E+03;  1.0000000E-01;  1.6108186E+03;3; -9.6036088E-01;  0.0000000E+00; -2.2182289E+01;0; -4.5381291E-03;  4.0140215E+04;  0.0000000E+00;  2.4274254E+00;  4.0000000E+04;  0.0000000E+00;  4.0022637E+04; -5.3344630E-03;  0.0000000E+00;  7.9633400E-04;  4.3894731E+03;
  1.0106164E-01;  9.9999998E-03; -2.3009126E-01;3063; -1.9395748E-03;  0.0000000E+00; -1.6692342E-04;  1.0024378E+03;  1.0000000E-01;  2.0196959E+03;3; -2.4810958E+00;  0.0000000E+00; -1.6325382E+01;0; -4.4876486E-03;  4.0187629E+04;  0.0000000E+00;  2.1826007E+00;  4.0000000E+04;  0.0000000E+00;  4.0016855E+04; -5.2343067E-03;  0.0000000E+00;  7.4665830E-04;  3.6721729E+03;
  1.0109393E-01;  9.9999998E-03; -2.2005880E-01;3064; -2.1183090E-03;  0.0000000E+00; -8.4789164E-05;  1.0028507E+03;  1.0000000E-01;  2.3617109E+03;3; -3.8134978E+00;  0.0000000E+00; -1.1094259E+01;0; -4.4211363E-03;  4.0229176E+04;  0.0000000E+00;  1.9002976E+00;  4.0000000E+04;  0.0000000E+00;  4.0010102E+04; -5.0145965E-03;  0.0000000E+00;  5.9346040E-04;  2.9103608E+03;
  1.0110921E-01;  9.9999998E-03; -2.1002355E-01;3065; -2.2728874E-03;  0.0000000E+00; -6.0328704E-05;  1.0031843E+03;  1.0000000E-01;  2.6381477E+03;3; -4.9141684E+00;  0.0000000E+00; -6.9689479E+00;0; -4.3309070E-03;  4.0263980E+04;  0.0000000E+00;  1.5908744E+00;  4.0000000E+04;  0.0000000E+00;  4.0004730E+04; -4.7089895E-03;  0.0000000E+00;  3.7808239E-04;  2.2792468E+03;
  1.0109998E-01;  9.9999998E-03; -1.9999158E-01;3066; -2.3921914E-03;  0.0000000E+00; -8.5473417E-05;  1.0034443E+03;  1.0000000E-01;  2.8535488E+03;3; -5.7582912E+00;  0.0000000E+00; -4.0126534E+00;0; -4.2058146E-03;  4.0290500E+04;  0.0000000E+00;  1.2670931E+00;  4.0000000E+04;  0.0000000E+00;  3.9999711E+04; -4.3588690E-03;  0.0000000E+00;  1.5305437E-04;  1.8360264E+03;
  1.0107327E-01;  9.9999998E-03; -1.8997076E-01;3067; -2.4638933E-03;  0.0000000E+00; -1.4555376E-04;  1.0036328E+03;  1.0000000E-01;  3.0096926E+03;3; -6.3405294E+00;  0.0000000E+00; -2.0534637E+00;0; -4.0338505E-03;  4.0308910E+04;  0.0000000E+00;  9.4912785E-01;  4.0000000E+04;  0.0000000E+00;  3.9997008E+04; -4.0036803E-03;  0.0000000E+00; -3.0170388E-05;  1.4911135E+03;
  1.0103685E-01;  9.9999998E-03; -1.7996424E-01;3068; -2.4846988E-03;  0.0000000E+00; -2.2276287E-04;  1.0037568E+03;  1.0000000E-01;  3.1124058E+03;3; -6.6943188E+00;  0.0000000E+00; -8.7414062E-01;0; -3.8107808E-03;  4.0319723E+04;  0.0000000E+00;  6.6159290E-01;  4.0000000E+04;  0.0000000E+00;  3.9998008E+04; -3.6777477E-03;  0.0000000E+00; -1.3303307E-04;  1.1159138E+03;
  1.0099834E-01;  9.9999998E-03; -1.6996615E-01;3069; -2.4542466E-03;  0.0000000E+00; -2.9445259E-04;  1.0038315E+03;  1.0000000E-01;  3.1743301E+03;3; -6.8521271E+00;  0.0000000E+00; -2.5595945E-01;0; -3.5428687E-03;  4.0324074E+04;  0.0000000E+00;  4.2499235E-01;  4.0000000E+04;  0.0000000E+00;  4.0000254E+04; -3.4064753E-03;  0.0000000E+00; -1.3639328E-04;  6.7262360E+02;
  1.0096444E-01;  9.9999998E-03; -1.5997356E-01;3070; -2.3851476E-03;  0.0000000E+00; -3.3585541E-04;  1.0038653E+03;  1.0000000E-01;  3.2022798E+03;3; -6.8789630E+00;  0.0000000E+00; -3.6356573E-03;0; -3.2479519E-03;  4.0323125E+04;  0.0000000E+00;  2.4813914E-01;  4.0000000E+04;  0.0000000E+00;  4.0004473E+04; -3.2058642E-03;  0.0000000E+00; -4.2087573E-05;  4.0100919E+02;
  1.0094115E-01;  9.9999998E-03; -1.4998984E-01;3071; -2.2793072E-03;  0.0000000E+00; -3.5342429E-04;  1.0038596E+03;  1.0000000E-01;  3.1975393E+03;3; -6.8157816E+00;  0.0000000E+00;  5.0414536E-02;0; -2.9515037E-03;  4.0318941E+04;  0.0000000E+00;  1.2814792E-01;  4.0000000E+04;  0.0000000E+00;  4.0009160E+04; -3.0802379E-03;  0.0000000E+00;  1.2873409E-04;  7.4297998E+02;
  1.0093042E-01;  9.9999998E-03; -1.4001305E-01;3072; -2.1496129E-03;  0.0000000E+00; -3.3862004E-04;  1.0038301E+03;  1.0000000E-01;  3.1731448E+03;3; -6.7201824E+00;  0.0000000E+00;  4.1008860E-02;0; -2.6849983E-03;  4.0313098E+04;  0.0000000E+00;  5.5134855E-02;  4.0000000E+04;  0.0000000E+00;  4.0012906E+04; -3.0256903E-03;  0.0000000E+00;  3.4069212E-04;  1.1806084E+03;
  1.0093047E-01;  9.9999998E-03; -1.3003668E-01;3073; -2.0063587E-03;  0.0000000E+00; -2.8305582E-04;  1.0037859E+03;  1.0000000E-01;  3.1365039E+03;3; -6.6213899E+00;  0.0000000E+00;  4.0401332E-02;0; -2.4787576E-03;  4.0307277E+04;  0.0000000E+00;  1.5507421E-02;  4.0000000E+04;  0.0000000E+00;  4.0014250E+04; -3.0300217E-03;  0.0000000E+00;  5.5126409E-04;  1.4642887E+03;
  1.0093767E-01;  9.9999998E-03; -1.2005387E-01;3074; -1.8642774E-03;  0.0000000E+00; -1.8426499E-04;  1.0037333E+03;  1.0000000E-01;  3.0929495E+03;3; -6.5614867E+00;  0.0000000E+00;  4.9051072E-02;0; -2.3541239E-03;  4.0302387E+04;  0.0000000E+00; -3.2028619E-03;  4.0000000E+04;  0.0000000E+00;  4.0014844E+04; -3.0745179E-03;  0.0000000E+00;  7.2039413E-04;  1.5290657E+03;
  1.0094901E-01;  9.9999998E-03; -1.1005932E-01;3075; -1.7417920E-03;  0.0000000E+00; -4.6569145E-05;  1.0036786E+03;  1.0000000E-01;  3.0477163E+03;3; -6.5511174E+00;  0.0000000E+00;  6.3337073E-02;0; -2.3175813E-03;  4.0299410E+04;  0.0000000E+00; -1.0071300E-02;  4.0000000E+04;  0.0000000E+00;  4.0013863E+04; -3.1371110E-03;  0.0000000E+00;  8.1952958E-04;  1.3843051E+03;
  1.1068795E-01;  9.9999998E-03; -2.6999056E-01;3120; -1.2118700E-03;  0.0000000E+00; -5.4977043E-04;  9.9973157E+02;  1.0000000E-01; -2.2241347E+02;3;  5.0469270E+00;  0.0000000E+00; -2.8594078E+01;0; -4.3188594E-03;  3.9959895E+04;  0.0000000E+00;  4.8242402E+00;  4.0000000E+04;  0.0000000E+00;  4.0020102E+04; -4.7066784E-03;  0.0000000E+00;  3.8781879E-04;  7.4106631E+03;
  1.1083151E-01;  9.9999998E-03; -2.6004973E-01;3121; -1.3231153E-03;  0.0000000E+00; -5.7242421E-04;  1.0003620E+03;  1.0000000E-01;  2.9994214E+02;3;  3.4634788E+00;  0.0000000E+00; -3.0754862E+01;0; -4.1669169E-03;  4.0005066E+04;  0.0000000E+00;  4.4227028E+00;  4.0000000E+04;  0.0000000E+00;  4.0027293E+04; -4.8893504E-03;  0.0000000E+00;  7.2243321E-04;  7.2031934E+03;
  1.1094791E-01;  9.9999998E-03; -2.5007588E-01;3122; -1.4571988E-03;  0.0000000E+00; -5.2751269E-04;  1.0009725E+03;  1.0000000E-01;  8.0570563E+02;3;  2.0010703E+00;  0.0000000E+00; -2.8160597E+01;0; -3.9839391E-03;  4.0054055E+04;  0.0000000E+00;  3.8797777E+00;  4.0000000E+04;  0.0000000E+00;  4.0029031E+04; -4.9232356E-03;  0.0000000E+00;  9.3929633E-04;  6.6229668E+03;
  1.1103304E-01;  9.9999998E-03; -2.4007335E-01;3123; -1.6116893E-03;  0.0000000E+00; -4.1976522E-04;  1.0015213E+03;  1.0000000E-01;  1.2604088E+03;3;  7.3310721E-01;  0.0000000E+00; -2.2810139E+01;0; -3.7890128E-03;  4.0102398E+04;  0.0000000E+00;  3.2886374E+00;  4.0000000E+04;  0.0000000E+00;  4.0027336E+04; -4.8044976E-03;  0.0000000E+00;  1.0154848E-03;  5.7147622E+03;
  1.1108351E-01;  9.9999998E-03; -2.3005289E-01;3124; -1.7757844E-03;  0.0000000E+00; -2.6930138E-04;  1.0019886E+03;  1.0000000E-01;  1.6475583E+03;3; -3.2673442E-01;  0.0000000E+00; -1.6722004E+01;0; -3.5967121E-03;  4.0147000E+04;  0.0000000E+00;  2.7195878E+00;  4.0000000E+04;  0.0000000E+00;  4.0021176E+04; -4.5493003E-03;  0.0000000E+00;  9.5258816E-04;  4.6176118E+03;
  1.1111125E-01;  9.9999998E-03; -2.2002627E-01;3125; -1.9219880E-03;  0.0000000E+00; -1.4221837E-04;  1.0023559E+03;  1.0000000E-01;  1.9518461E+03;3; -1.1904452E+00;  0.0000000E+00; -1.1262114E+01;0; -3.4103629E-03;  4.0185074E+04;  0.0000000E+00;  2.2072899E+00;  4.0000000E+04;  0.0000000E+00;  4.0014102E+04; -4.1892510E-03;  0.0000000E+00;  7.7888812E-04;  3.5184849E+03;
  1.1111458E-01;  9.9999998E-03; -2.1000239E-01;3126; -2.0318546E-03;  0.0000000E+00; -8.9053661E-05;  1.0026266E+03;  1.0000000E-01;  2.1760371E+03;3; -1.8662002E+00;  0.0000000E+00; -7.0270281E+00;0; -3.2283179E-03;  4.0215375E+04;  0.0000000E+00;  1.7561052E+00;  4.0000000E+04;  0.0000000E+00;  4.0007281E+04; -3.7674548E-03;  0.0000000E+00;  5.3913688E-04;  2.5948552E+03;
  1.1109920E-01;  9.9999998E-03; -1.9998239E-01;3127; -2.1041569E-03;  0.0000000E+00; -9.4382900E-05;  1.0028198E+03;  1.0000000E-01;  2.3361313E+03;3; -2.3755283E+00;  0.0000000E+00; -4.0373144E+00;0; -3.0433959E-03;  4.0236605E+04;  0.0000000E+00;  1.3574046E+00;  4.0000000E+04;  0.0000000E+00;  4.0001895E+04; -3.3304859E-03;  0.0000000E+00;  2.8708993E-04;  1.9334526E+03;
  1.1107215E-01;  9.9999998E-03; -1.8996543E-01;3128; -2.1366088E-03;  0.0000000E+00; -1.3001659E-04;  1.0029362E+03;  1.0000000E-01;  2.4325237E+03;3; -2.7143798E+00;  0.0000000E+00; -2.0792208E+00;0; -2.8458741E-03;  4.0249410E+04;  0.0000000E+00;  1.0050945E+00;  4.0000000E+04;  0.0000000E+00;  3.9999262E+04; -2.9218432E-03;  0.0000000E+00;  7.5969030E-05;  1.4690088E+03;
  1.1103553E-01;  9.9999998E-03; -1.7995720E-01;3129; -2.1320821E-03;  0.0000000E+00; -1.6837716E-04;  1.0029926E+03;  1.0000000E-01;  2.4792385E+03;3; -2.9111297E+00;  0.0000000E+00; -8.9705539E-01;0; -2.6320233E-03;  4.0254492E+04;  0.0000000E+00;  7.0195073E-01;  4.0000000E+04;  0.0000000E+00;  3.9999543E+04; -2.5784350E-03;  0.0000000E+00; -5.3588185E-05;  1.0538313E+03;
  1.1099940E-01;  9.9999998E-03; -1.6995575E-01;3130; -2.0876059E-03;  0.0000000E+00; -1.9962447E-04;  1.0030016E+03;  1.0000000E-01;  2.4867444E+03;3; -2.9881482E+00;  0.0000000E+00; -2.8009766E-01;0; -2.4061452E-03;  4.0253203E+04;  0.0000000E+00;  4.5527568E-01;  4.0000000E+04;  0.0000000E+00;  4.0002105E+04; -2.3248948E-03;  0.0000000E+00; -8.1250437E-05;  6.4978662E+02;
  1.1097113E-01;  9.9999998E-03; -1.5995899E-01;3131; -2.0055817E-03;  0.0000000E+00; -2.1660452E-04;  1.0029755E+03;  1.0000000E-01;  2.4652141E+03;3; -2.9757190E+00;  0.0000000E+00; -1.7445762E-02;0; -2.1823614E-03;  4.0247402E+04;  0.0000000E+00;  2.6904017E-01;  4.0000000E+04;  0.0000000E+00;  4.0005910E+04; -2.1735639E-03;  0.0000000E+00; -8.7974131E-06;  6.0271887E+02;
  1.1095849E-01;  9.9999998E-03; -1.4997417E-01;3132; -1.8967392E-03;  0.0000000E+00; -2.1291424E-04;  1.0029266E+03;  1.0000000E-01;  2.4246228E+03;3; -2.9154534E+00;  0.0000000E+00;  5.4345284E-02;0; -1.9822363E-03;  4.0239254E+04;  0.0000000E+00;  1.3979501E-01;  4.0000000E+04;  0.0000000E+00;  4.0010258E+04; -2.1245158E-03;  0.0000000E+00;  1.4227944E-04;  1.0453156E+03;
  1.1096366E-01;  9.9999998E-03; -1.3999686E-01;3133; -1.7722222E-03;  0.0000000E+00; -1.8100017E-04;  1.0028671E+03;  1.0000000E-01;  2.3753403E+03;3; -2.8426101E+00;  0.0000000E+00;  6.8523005E-02;0; -1.8302521E-03;  4.0230484E+04;  0.0000000E+00;  5.8005009E-02;  4.0000000E+04;  0.0000000E+00;  4.0014953E+04; -2.1667515E-03;  0.0000000E+00;  3.3649942E-04;  1.5189365E+03;
  1.1098457E-01;  9.9999998E-03; -1.3001753E-01;3134; -1.6459269E-03;  0.0000000E+00; -1.1356609E-04;  1.0028049E+03;  1.0000000E-01;  2.3237861E+03;3; -2.7802095E+00;  0.0000000E+00;  8.0336601E-02;0; -1.7498395E-03;  4.0222695E+04;  0.0000000E+00;  1.0870405E-02;  4.0000000E+04;  0.0000000E+00;  4.0016578E+04; -2.2810251E-03;  0.0000000E+00;  5.3118553E-04;  1.8321652E+03;
  1.1102448E-01;  9.9999998E-03; -1.2002867E-01;3135; -1.5298257E-03;  0.0000000E+00; -1.9965471E-05;  1.0027422E+03;  1.0000000E-01;  2.2718369E+03;3; -2.7352993E+00;  0.0000000E+00;  9.2550166E-02;0; -1.7550443E-03;  4.0217090E+04;  0.0000000E+00; -1.3564477E-02;  4.0000000E+04;  0.0000000E+00;  4.0016836E+04; -2.4405590E-03;  0.0000000E+00;  6.8551465E-04;  1.9181332E+03;
  1.1111844E-01;  9.9999998E-03; -1.1002158E-01;3136; -1.4380333E-03;  0.0000000E+00;  6.6399851E-05;  1.0026897E+03;  1.0000000E-01;  2.2283813E+03;3; -2.7136796E+00;  0.0000000E+00;  8.6687617E-02;0; -1.8445784E-03;  4.0213703E+04;  0.0000000E+00; -2.4113163E-02;  4.0000000E+04;  0.0000000E+00;  4.0016363E+04; -2.6152160E-03;  0.0000000E+00;  7.7063753E-04;  1.7846497E+03;
  1.2068907E-01;  9.9999998E-03; -2.6989374E-01;3181; -1.1609870E-03;  0.0000000E+00; -4.9165869E-04;  9.9931360E+02;  1.0000000E-01; -5.6867529E+02;3;  5.6725559E+00;  0.0000000E+00; -2.8739319E+01;0; -4.5703175E-03;  3.9923699E+04;  0.0000000E+00;  7.6037016E+00;  4.0000000E+04;  0.0000000E+00;  4.0023738E+04; -5.1468508E-03;  0.0000000E+00;  5.7653361E-04;  1.1419072E+04;
  1.2082664E-01;  9.9999998E-03; -2.5996122E-01;3182; -1.3130733E-03;  0.0000000E+00; -5.1117456E-04;  9.9995135E+02;  1.0000000E-01; -4.0295158E+01;3;  3.9923210E+00;  0.0000000E+00; -3.1210293E+01;0; -4.2802254E-03;  3.9968582E+04;  0.0000000E+00;  6.5740876E+00;  4.0000000E+04;  0.0000000E+00;  4.0031270E+04; -5.2117798E-03;  0.0000000E+00;  9.3155471E-04;  1.0294531E+04;
  1.2095280E-01;  9.9999998E-03; -2.4999754E-01;3183; -1.4557823E-03;  0.0000000E+00; -4.6880537E-04;  1.0005598E+03;  1.0000000E-01;  4.6378934E+02;3;  2.5736978E+00;  0.0000000E+00; -2.8664009E+01;0; -3.9552897E-03;  4.0016367E+04;  0.0000000E+00;  5.4060149E+00;  4.0000000E+04;  0.0000000E+00;  4.0033707E+04; -5.1073907E-03;  0.0000000E+00;  1.1521010E-03;  8.8703555E+03;
  1.2105735E-01;  9.9999998E-03; -2.4000458E-01;3184; -1.5998646E-03;  0.0000000E+00; -3.6806552E-04;  1.0010945E+03;  1.0000000E-01;  9.0673981E+02;3;  1.4781710E+00;  0.0000000E+00; -2.3205048E+01;0; -3.6298891E-03;  4.0063102E+04;  0.0000000E+00;  4.2671928E+00;  4.0000000E+04;  0.0000000E+00;  4.0031980E+04; -4.8492034E-03;  0.0000000E+00;  1.2193143E-03;  7.2708950E+03;
  1.2113327E-01;  9.9999998E-03; -2.2999379E-01;3185; -1.7413226E-03;  0.0000000E+00; -2.1528400E-04;  1.0015335E+03;  1.0000000E-01;  1.2704825E+03;3;  6.8145752E-01;  0.0000000E+00; -1.6912519E+01;0; -3.3269878E-03;  4.0105398E+04;  0.0000000E+00;  3.2712433E+00;  4.0000000E+04;  0.0000000E+00;  4.0026070E+04; -4.4659227E-03;  0.0000000E+00;  1.1389350E-03;  5.6334390E+03;
  1.2116818E-01;  9.9999998E-03; -2.1997592E-01;3186; -1.8568629E-03;  0.0000000E+00; -7.8840589E-05;  1.0018616E+03;  1.0000000E-01;  1.5422773E+03;3;  1.0981148E-01;  0.0000000E+00; -1.1289514E+01;0; -3.0539746E-03;  4.0140605E+04;  0.0000000E+00;  2.4661021E+00;  4.0000000E+04;  0.0000000E+00;  4.0018480E+04; -3.9988365E-03;  0.0000000E+00;  9.4486191E-04;  4.1148813E+03;
  1.2117890E-01;  9.9999998E-03; -2.0996040E-01;3187; -1.9322612E-03;  0.0000000E+00; -1.2934591E-05;  1.0020828E+03;  1.0000000E-01;  1.7255808E+03;3; -2.9699877E-01;  0.0000000E+00; -6.9536309E+00;0; -2.8146952E-03;  4.0166742E+04;  0.0000000E+00;  1.8423183E+00;  4.0000000E+04;  0.0000000E+00;  4.0010309E+04; -3.4984956E-03;  0.0000000E+00;  6.8380032E-04;  2.8649050E+03;
  1.2117556E-01;  9.9999998E-03; -1.9994925E-01;3188; -1.9683158E-03;  0.0000000E+00;  4.0976497E-07;  1.0022067E+03;  1.0000000E-01;  1.8281952E+03;3; -5.7616138E-01;  0.0000000E+00; -3.9322803E+00;0; -2.6065474E-03;  4.0183289E+04;  0.0000000E+00;  1.3618712E+00;  4.0000000E+04;  0.0000000E+00;  4.0004578E+04; -3.0156223E-03;  0.0000000E+00;  4.0907494E-04;  1.9762435E+03;
  1.2115253E-01;  9.9999998E-03; -1.8994011E-01;3189; -1.9700299E-03;  0.0000000E+00; -1.4302112E-05;  1.0022546E+03;  1.0000000E-01;  1.8678978E+03;3; -7.5712979E-01;  0.0000000E+00; -1.9920959E+00;0; -2.4214343E-03;  4.0191008E+04;  0.0000000E+00;  9.8432165E-01;  4.0000000E+04;  0.0000000E+00;  4.0000738E+04; -2.5953928E-03;  0.0000000E+00;  1.7395854E-04;  1.4040615E+03;
  1.2111893E-01;  9.9999998E-03; -1.7993277E-01;3190; -1.9381538E-03;  0.0000000E+00; -3.8734266E-05;  1.0022469E+03;  1.0000000E-01;  1.8614783E+03;3; -8.5545731E-01;  0.0000000E+00; -8.4389740E-01;0; -2.2538146E-03;  4.0190879E+04;  0.0000000E+00;  6.8222702E-01;  4.0000000E+04;  0.0000000E+00;  4.0000469E+04; -2.2733561E-03;  0.0000000E+00;  1.9541450E-05;  9.7930280E+02;
  1.2109356E-01;  9.9999998E-03; -1.6992570E-01;3191; -1.8768348E-03;  0.0000000E+00; -6.0709430E-05;  1.0022002E+03;  1.0000000E-01;  1.8228621E+03;3; -8.8672918E-01;  0.0000000E+00; -2.4271083E-01;0; -2.1058710E-03;  4.0185012E+04;  0.0000000E+00;  4.4257554E-01;  4.0000000E+04;  0.0000000E+00;  4.0003250E+04; -2.0726600E-03;  0.0000000E+00; -3.3210861E-05;  6.5209137E+02;
  1.2109407E-01;  9.9999998E-03; -1.5992166E-01;3192; -1.7922643E-03;  0.0000000E+00; -7.3328418E-05;  1.0021285E+03;  1.0000000E-01;  1.7634069E+03;3; -8.6932874E-01;  0.0000000E+00;  1.0979401E-02;0; -1.9881399E-03;  4.0174758E+04;  0.0000000E+00;  2.6043287E-01;  4.0000000E+04;  0.0000000E+00;  4.0007523E+04; -2.0025172E-03;  0.0000000E+00;  1.4377335E-05;  7.6748425E+02;
  1.2114143E-01;  9.9999998E-03; -1.4993162E-01;3193; -1.6930742E-03;  0.0000000E+00; -7.0377901E-05;  1.0020429E+03;  1.0000000E-01;  1.6924954E+03;3; -8.2670999E-01;  0.0000000E+00;  8.1358910E-02;0; -1.9170240E-03;  4.0163305E+04;  0.0000000E+00;  1.3109872E-01;  4.0000000E+04;  0.0000000E+00;  4.0012438E+04; -2.0581281E-03;  0.0000000E+00;  1.4110410E-04;  1.2717395E+03;
  1.2123880E-01;  9.9999998E-03; -1.3994797E-01;3194; -1.5891031E-03;  0.0000000E+00; -4.8699174E-05;  1.0019538E+03;  1.0000000E-01;  1.6187196E+03;3; -7.7061629E-01;  0.0000000E+00;  8.9602731E-02;0; -1.9102201E-03;  4.0152203E+04;  0.0000000E+00;  4.6287213E-02;  4.0000000E+04;  0.0000000E+00;  4.0015250E+04; -2.2221487E-03;  0.0000000E+00;  3.1192863E-04;  1.7810570E+03;
  1.2137879E-01;  9.9999998E-03; -1.2995887E-01;3195; -1.4896952E-03;  0.0000000E+00; -5.1225952E-06;  1.0018741E+03;  1.0000000E-01;  1.5526475E+03;3; -7.2046793E-01;  0.0000000E+00;  8.8572092E-02;0; -1.9827934E-03;  4.0142812E+04;  0.0000000E+00; -4.6321042E-03;  4.0000000E+04;  0.0000000E+00;  4.0018391E+04; -2.4679573E-03;  0.0000000E+00;  4.8516382E-04;  2.1248059E+03;
  1.2151148E-01;  9.9999998E-03; -1.1995961E-01;3196; -1.4040634E-03;  0.0000000E+00;  4.9902577E-05;  1.0018121E+03;  1.0000000E-01;  1.5012909E+03;3; -6.8796319E-01;  0.0000000E+00;  8.0029607E-02;0; -2.1377823E-03;  4.0136758E+04;  0.0000000E+00; -3.2060128E-02;  4.0000000E+04;  0.0000000E+00;  4.0018887E+04; -2.7588515E-03;  0.0000000E+00;  6.2106928E-04;  2.2334729E+03;
  1.2159204E-01;  9.9999998E-03; -1.0995539E-01;3197; -1.3382684E-03;  0.0000000E+00;  9.4206684E-05;  1.0017706E+03;  1.0000000E-01;  1.4669215E+03;3; -6.7476195E-01;  0.0000000E+00;  7.1606740E-02;0; -2.3601535E-03;  4.0134250E+04;  0.0000000E+00; -4.3931339E-02;  4.0000000E+04;  0.0000000E+00;  4.0017941E+04; -3.0525536E-03;  0.0000000E+00;  6.9240021E-04;  2.1142615E+03;
  1.3064648E-01;  9.9999998E-03; -2.6977536E-01;3242; -1.2628104E-03;  0.0000000E+00; -3.1545330E-04;  9.9899048E+02;  1.0000000E-01; -8.3637140E+02;3;  6.5393834E+00;  0.0000000E+00; -3.0645956E+01;0; -5.3016343E-03;  3.9891352E+04;  0.0000000E+00;  1.1032608E+01;  4.0000000E+04;  0.0000000E+00;  4.0030637E+04; -6.0403896E-03;  0.0000000E+00;  7.3875533E-04;  1.6525643E+04;
  1.3078597E-01;  9.9999998E-03; -2.5985765E-01;3243; -1.4299345E-03;  0.0000000E+00; -3.3690926E-04;  9.9962219E+02;  1.0000000E-01; -3.1302820E+02;3;  4.4508448E+00;  0.0000000E+00; -3.2520641E+01;0; -4.8547247E-03;  3.9935621E+04;  0.0000000E+00;  9.0928659E+00;  4.0000000E+04;  0.0000000E+00;  4.0038086E+04; -5.9680138E-03;  0.0000000E+00;  1.1132892E-03;  1.4064917E+04;
  1.3092799E-01;  9.9999998E-03; -2.4990875E-01;3244; -1.5721342E-03;  0.0000000E+00; -3.0101958E-04;  1.0002231E+03;  1.0000000E-01;  1.8488367E+02;3;  2.8017879E+00;  0.0000000E+00; -2.9505133E+01;0; -4.3848571E-03;  3.9983277E+04;  0.0000000E+00;  7.1100507E+00;  4.0000000E+04;  0.0000000E+00;  4.0040758E+04; -5.7183402E-03;  0.0000000E+00;  1.3334831E-03;  1.1472946E+04;
  1.3105063E-01;  9.9999998E-03; -2.3993164E-01;3245; -1.7057249E-03;  0.0000000E+00; -2.0124996E-04;  1.0007487E+03;  1.0000000E-01;  6.2022937E+02;3;  1.6630243E+00;  0.0000000E+00; -2.3664654E+01;0; -3.9425101E-03;  4.0029770E+04;  0.0000000E+00;  5.3088007E+00;  4.0000000E+04;  0.0000000E+00;  4.0037141E+04; -5.3273835E-03;  0.0000000E+00;  1.3848736E-03;  8.9600605E+03;
  1.3114394E-01;  9.9999998E-03; -2.2993694E-01;3246; -1.8235787E-03;  0.0000000E+00; -6.1586637E-05;  1.0011689E+03;  1.0000000E-01;  9.6846643E+02;3;  9.5538753E-01;  0.0000000E+00; -1.7110285E+01;0; -3.5498107E-03;  4.0071043E+04;  0.0000000E+00;  3.8235185E+00;  4.0000000E+04;  0.0000000E+00;  4.0030703E+04; -4.8349127E-03;  0.0000000E+00;  1.2851020E-03;  6.6582354E+03;
  1.3120641E-01;  9.9999998E-03; -2.1993500E-01;3247; -1.9074038E-03;  0.0000000E+00;  3.8212864E-05;  1.0014678E+03;  1.0000000E-01;  1.2160643E+03;3;  5.4540980E-01;  0.0000000E+00; -1.1322301E+01;0; -3.2155248E-03;  4.0104078E+04;  0.0000000E+00;  2.6919422E+00;  4.0000000E+04;  0.0000000E+00;  4.0022070E+04; -4.2901607E-03;  0.0000000E+00;  1.0746360E-03;  4.6671133E+03;
  1.3124046E-01;  9.9999998E-03; -2.0993119E-01;3248; -1.9503961E-03;  0.0000000E+00;  8.0354825E-05;  1.0016478E+03;  1.0000000E-01;  1.3651959E+03;3;  3.1577227E-01;  0.0000000E+00; -6.9074445E+00;0; -2.9506218E-03;  4.0127785E+04;  0.0000000E+00;  1.8786291E+00;  4.0000000E+04;  0.0000000E+00;  4.0013043E+04; -3.7472728E-03;  0.0000000E+00;  7.9665100E-04;  3.0823525E+03;
  1.3125290E-01;  9.9999998E-03; -1.9992639E-01;3249; -1.9598578E-03;  0.0000000E+00;  8.7341068E-05;  1.0017225E+03;  1.0000000E-01;  1.4271201E+03;3;  1.8985757E-01;  0.0000000E+00; -3.8679409E+00;0; -2.7538436E-03;  4.0140871E+04;  0.0000000E+00;  1.3100219E+00;  4.0000000E+04;  0.0000000E+00;  4.0006691E+04; -3.2575924E-03;  0.0000000E+00;  5.0374895E-04;  1.9722026E+03;
  1.3125101E-01;  9.9999998E-03; -1.8991731E-01;3250; -1.9389465E-03;  0.0000000E+00;  7.4262927E-05;  1.0017191E+03;  1.0000000E-01;  1.4242560E+03;3;  1.2094865E-01;  0.0000000E+00; -1.9452202E+00;0; -2.6152472E-03;  4.0144766E+04;  0.0000000E+00;  9.0870559E-01;  4.0000000E+04;  0.0000000E+00;  4.0002078E+04; -2.8642816E-03;  0.0000000E+00;  2.4903440E-04;  1.3003785E+03;
  1.3125105E-01;  9.9999998E-03; -1.7990440E-01;3251; -1.8925647E-03;  0.0000000E+00;  5.1923176E-05;  1.0016595E+03;  1.0000000E-01;  1.3748748E+03;3;  8.8897154E-02;  0.0000000E+00; -8.2174146E-01;0; -2.5272414E-03;  4.0140410E+04;  0.0000000E+00;  6.1478919E-01;  4.0000000E+04;  0.0000000E+00;  4.0001281E+04; -2.6004605E-03;  0.0000000E+00;  7.3219227E-05;  8.7680377E+02;
  1.3127282E-01;  9.9999998E-03; -1.6988695E-01;3252; -1.8273824E-03;  0.0000000E+00;  2.7866507E-05;  1.0015666E+03;  1.0000000E-01;  1.2979386E+03;3;  8.5262254E-02;  0.0000000E+00; -2.3861986E-01;0; -2.4888681E-03;  4.0130781E+04;  0.0000000E+00;  3.9251754E-01;  4.0000000E+04;  0.0000000E+00;  4.0003246E+04; -2.4860904E-03;  0.0000000E+00; -2.7776414E-06;  6.1745532E+02;
  1.3134006E-01;  9.9999998E-03; -1.5986942E-01;3253; -1.7507995E-03;  0.0000000E+00;  9.3920344E-06;  1.0014587E+03;  1.0000000E-01;  1.2084596E+03;3;  1.0277011E-01;  0.0000000E+00;  6.3870498E-03;0; -2.5062012E-03;  4.0117902E+04;  0.0000000E+00;  2.2476585E-01;  4.0000000E+04;  0.0000000E+00;  4.0007578E+04; -2.5264982E-03;  0.0000000E+00;  2.0296920E-05;  8.3727045E+02;
  1.3146137E-01;  9.9999998E-03; -1.4986418E-01;3254; -1.6703724E-03;  0.0000000E+00;  1.1328366E-06;  1.0013506E+03;  1.0000000E-01;  1.1189807E+03;3;  1.3376077E-01;  0.0000000E+00;  6.9671810E-02;0; -2.5885694E-03;  4.0104277E+04;  0.0000000E+00;  1.0342500E-01;  4.0000000E+04;  0.0000000E+00;  4.0012395E+04; -2.7106458E-03;  0.0000000E+00;  1.2207629E-04;  1.3866747E+03;
  1.3156036E-01;  9.9999998E-03; -1.3987434E-01;3255; -1.5910714E-03;  0.0000000E+00;  6.1268620E-06;  1.0012538E+03;  1.0000000E-01;  1.0387854E+03;3;  1.6345055E-01;  0.0000000E+00;  7.3149443E-02;0; -2.7365412E-03;  4.0092062E+04;  0.0000000E+00;  2.1991519E-02;  4.0000000E+04;  0.0000000E+00;  4.0016754E+04; -3.0054322E-03;  0.0000000E+00;  2.6889093E-04;  1.9258680E+03;
  1.3158548E-01;  9.9999998E-03; -1.2990421E-01;3256; -1.5185970E-03;  0.0000000E+00;  2.7623020E-05;  1.0011784E+03;  1.0000000E-01;  9.7626868E+02;3;  1.8452863E-01;  0.0000000E+00;  6.8154395E-02;0; -2.9462439E-03;  4.0082730E+04;  0.0000000E+00; -2.7192522E-02;  4.0000000E+04;  0.0000000E+00;  4.0018871E+04; -3.3675574E-03;  0.0000000E+00;  4.2131348E-04;  2.2975657E+03;
  1.3157406E-01;  9.9999998E-03; -1.1993116E-01;3257; -1.4571765E-03;  0.0000000E+00;  6.0865968E-05;  1.0011235E+03;  1.0000000E-01;  9.3083789E+02;3;  1.9759400E-01;  0.0000000E+00;  6.3105263E-02;0; -3.2172301E-03;  4.0077289E+04;  0.0000000E+00; -5.2592006E-02;  4.0000000E+04;  0.0000000E+00;  4.0019652E+04; -3.7589087E-03;  0.0000000E+00;  5.4167851E-04;  2.4297747E+03;
  1.3154897E-01;  9.9999998E-03; -1.0994782E-01;3258; -1.4087582E-03;  0.0000000E+00;  9.2654940E-05;  1.0010901E+03;  1.0000000E-01;  9.0318433E+02;3;  2.0578428E-01;  0.0000000E+00;  5.8709752E-02;0; -3.5367615E-03;  4.0075180E+04;  0.0000000E+00; -6.1606999E-02;  4.0000000E+04;  0.0000000E+00;  4.0019246E+04; -4.1399053E-03;  0.0000000E+00;  6.0314388E-04;  2.3269905E+03;
  1.4059648E-01;  9.9999998E-03; -2.6966295E-01;3303; -1.4886502E-03;  0.0000000E+00; -1.1527343E-04;  9.9881604E+02;  1.0000000E-01; -9.8091052E+02;3;  8.3192711E+00;  0.0000000E+00; -3.5460083E+01;0; -6.4231018E-03;  3.9865641E+04;  0.0000000E+00;  1.4984168E+01;  4.0000000E+04;  0.0000000E+00;  4.0043340E+04; -7.2705508E-03;  0.0000000E+00;  8.4744883E-04;  2.2569781E+04;
  1.4076051E-01;  9.9999998E-03; -2.5975537E-01;3304; -1.6517519E-03;  0.0000000E+00; -1.2972053E-04;  9.9941998E+02;  1.0000000E-01; -4.8052963E+02;3;  5.2525549E+00;  0.0000000E+00; -3.5373138E+01;0; -5.7676360E-03;  3.9910008E+04;  0.0000000E+00;  1.1781507E+01;  4.0000000E+04;  0.0000000E+00;  4.0048488E+04; -7.0073702E-03;  0.0000000E+00;  1.2397340E-03;  1.8250967E+04;
  1.4090952E-01;  9.9999998E-03; -2.4982923E-01;3305; -1.7818294E-03;  0.0000000E+00; -9.1814254E-05;  1.0000121E+03;  1.0000000E-01;  1.0073790E+01;3;  2.9950087E+00;  0.0000000E+00; -3.0963316E+01;0; -5.1231333E-03;  3.9958648E+04;  0.0000000E+00;  8.8062248E+00;  4.0000000E+04;  0.0000000E+00;  4.0048238E+04; -6.5789763E-03;  0.0000000E+00;  1.4558430E-03;  1.4170029E+04;
  1.4103143E-01;  9.9999998E-03; -2.3987702E-01;3306; -1.8944840E-03;  0.0000000E+00; -1.0327592E-05;  1.0005369E+03;  1.0000000E-01;  4.4482693E+02;3;  1.5756477E+00;  0.0000000E+00; -2.4340029E+01;0; -4.5475056E-03;  4.0006441E+04;  0.0000000E+00;  6.2911196E+00;  4.0000000E+04;  0.0000000E+00;  4.0042719E+04; -6.0419342E-03;  0.0000000E+00;  1.4944288E-03;  1.0587397E+04;
  1.4112949E-01;  9.9999998E-03; -2.2990136E-01;3307; -1.9813166E-03;  0.0000000E+00;  7.3371601E-05;  1.0009479E+03;  1.0000000E-01;  7.8536053E+02;3;  8.0701357E-01;  0.0000000E+00; -1.7403172E+01;0; -4.0612086E-03;  4.0048500E+04;  0.0000000E+00;  4.3178115E+00;  4.0000000E+04;  0.0000000E+00;  4.0034348E+04; -5.4449197E-03;  0.0000000E+00;  1.3837110E-03;  7.5620771E+03;
  1.4120495E-01;  9.9999998E-03; -2.1991315E-01;3308; -2.0342877E-03;  0.0000000E+00;  1.2565669E-04;  1.0012333E+03;  1.0000000E-01;  1.0217983E+03;3;  4.6973482E-01;  0.0000000E+00; -1.1424035E+01;0; -3.6808907E-03;  4.0081406E+04;  0.0000000E+00;  2.8732309E+00;  4.0000000E+04;  0.0000000E+00;  4.0024684E+04; -4.8410944E-03;  0.0000000E+00;  1.1602037E-03;  5.0939058E+03;
  1.4125364E-01;  9.9999998E-03; -2.0991935E-01;3309; -2.0563516E-03;  0.0000000E+00;  1.4610871E-04;  1.0013863E+03;  1.0000000E-01;  1.1485107E+03;3;  3.7234637E-01;  0.0000000E+00; -6.9149914E+00;0; -3.4142132E-03;  4.0103656E+04;  0.0000000E+00;  1.8775995E+00;  4.0000000E+04;  0.0000000E+00;  4.0014918E+04; -4.2827437E-03;  0.0000000E+00;  8.6853042E-04;  3.1950110E+03;
  1.4128220E-01;  9.9999998E-03; -1.9991884E-01;3310; -2.0476803E-03;  0.0000000E+00;  1.3988667E-04;  1.0014316E+03;  1.0000000E-01;  1.1860405E+03;3;  3.7808248E-01;  0.0000000E+00; -3.8519723E+00;0; -3.2535028E-03;  4.0114895E+04;  0.0000000E+00;  1.2208165E+00;  4.0000000E+04;  0.0000000E+00;  4.0006961E+04; -3.8161101E-03;  0.0000000E+00;  5.6260737E-04;  1.8903459E+03;
  1.4131323E-01;  9.9999998E-03; -1.8990453E-01;3311; -2.0144593E-03;  0.0000000E+00;  1.1624172E-04;  1.0013941E+03;  1.0000000E-01;  1.1550291E+03;3;  4.0346575E-01;  0.0000000E+00; -1.9399692E+00;0; -3.1860403E-03;  4.0116121E+04;  0.0000000E+00;  7.9334140E-01;  4.0000000E+04;  0.0000000E+00;  4.0001918E+04; -3.4800337E-03;  0.0000000E+00;  2.9399336E-04;  1.1400585E+03;
  1.4137177E-01;  9.9999998E-03; -1.7987245E-01;3312; -1.9636189E-03;  0.0000000E+00;  8.5285224E-05;  1.0013024E+03;  1.0000000E-01;  1.0789818E+03;3;  4.2282313E-01;  0.0000000E+00; -8.3238190E-01;0; -3.2008793E-03;  4.0109473E+04;  0.0000000E+00;  5.0819176E-01;  4.0000000E+04;  0.0000000E+00;  4.0000238E+04; -3.3030352E-03;  0.0000000E+00;  1.0215592E-04;  7.2566425E+02;
  1.4145295E-01;  9.9999998E-03; -1.6982888E-01;3313; -1.9028293E-03;  0.0000000E+00;  5.4312342E-05;  1.0011799E+03;  1.0000000E-01;  9.7755261E+02;3;  4.4093540E-01;  0.0000000E+00; -2.5741068E-01;0; -3.2900628E-03;  4.0097488E+04;  0.0000000E+00;  3.0819955E-01;  4.0000000E+04;  0.0000000E+00;  4.0002203E+04; -3.2979229E-03;  0.0000000E+00;  7.8602170E-06;  4.9520013E+02;
  1.4151217E-01;  9.9999998E-03; -1.5981230E-01;3314; -1.8385430E-03;  0.0000000E+00;  2.8311639E-05;  1.0010534E+03;  1.0000000E-01;  8.7276544E+02;3;  4.5877618E-01;  0.0000000E+00; -1.4093517E-02;0; -3.4452882E-03;  4.0083125E+04;  0.0000000E+00;  1.6272685E-01;  4.0000000E+04;  0.0000000E+00;  4.0006984E+04; -3.4560093E-03;  0.0000000E+00;  1.0721258E-05;  7.8033624E+02;
  1.4153560E-01;  9.9999998E-03; -1.4983341E-01;3315; -1.7770958E-03;  0.0000000E+00;  1.1573302E-05;  1.0009366E+03;  1.0000000E-01;  7.7597803E+02;3;  4.7798502E-01;  0.0000000E+00;  5.1584721E-02;0; -3.6616456E-03;  4.0068363E+04;  0.0000000E+00;  5.8438588E-02;  4.0000000E+04;  0.0000000E+00;  4.0011266E+04; -3.7528344E-03;  0.0000000E+00;  9.1188915E-05;  1.3707524E+03;
  1.4153226E-01;  9.9999998E-03; -1.3986810E-01;3316; -1.7223018E-03;  0.0000000E+00;  6.7900987E-06;  1.0008309E+03;  1.0000000E-01;  6.8837561E+02;3;  4.9616653E-01;  0.0000000E+00;  5.4807801E-02;0; -3.9370935E-03;  4.0055254E+04;  0.0000000E+00; -1.0758067E-02;  4.0000000E+04;  0.0000000E+00;  4.0016469E+04; -4.1544647E-03;  0.0000000E+00;  2.1737121E-04;  1.9371885E+03;
  1.4151366E-01;  9.9999998E-03; -1.2990168E-01;3317; -1.6737982E-03;  0.0000000E+00;  1.7056289E-05;  1.0007458E+03;  1.0000000E-01;  6.1785907E+02;3;  5.1097029E-01;  0.0000000E+00;  5.0681643E-02;0; -4.2682327E-03;  4.0044910E+04;  0.0000000E+00; -5.0594345E-02;  4.0000000E+04;  0.0000000E+00;  4.0019234E+04; -4.6200138E-03;  0.0000000E+00;  3.5178088E-04;  2.3290037E+03;
  1.4148434E-01;  9.9999998E-03; -1.1992712E-01;3318; -1.6326696E-03;  0.0000000E+00;  4.0903175E-05;  1.0006790E+03;  1.0000000E-01;  5.6255200E+02;3;  5.2482897E-01;  0.0000000E+00;  4.8414405E-02;0; -4.6467283E-03;  4.0038117E+04;  0.0000000E+00; -6.8222798E-02;  4.0000000E+04;  0.0000000E+00;  4.0019609E+04; -5.1051700E-03;  0.0000000E+00;  4.5844153E-04;  2.4763108E+03;
  1.4144716E-01;  9.9999998E-03; -1.0994148E-01;3319; -1.5992222E-03;  0.0000000E+00;  6.8631110E-05;  1.0006307E+03;  1.0000000E-01;  5.2245435E+02;3;  5.3430545E-01;  0.0000000E+00;  4.6117343E-02;0; -5.0549782E-03;  4.0034852E+04;  0.0000000E+00; -7.0739388E-02;  4.0000000E+04;  0.0000000E+00;  4.0019156E+04; -5.5663134E-03;  0.0000000E+00;  5.1133533E-04;  2.3842227E+03;
  1.5134424E-01;  9.9999998E-03; -1.0992933E-01;3380; -1.8498136E-03;  0.0000000E+00;  3.8330403E-05;  1.0003771E+03;  1.0000000E-01;  3.1248499E+02;3;  6.1439896E-01;  0.0000000E+00;  3.3569075E-02;0; -6.6044261E-03;  4.0012656E+04;  0.0000000E+00; -6.9685452E-02;  4.0000000E+04;  0.0000000E+00;  4.0017844E+04; -7.0303576E-03;  0.0000000E+00;  4.2593153E-04;  2.2640754E+03;
  1.5138505E-01;  9.9999998E-03; -1.1991967E-01;3379; -1.8683202E-03;  0.0000000E+00;  1.3373358E-05;  1.0004454E+03;  1.0000000E-01;  3.6897723E+02;3;  6.0128736E-01;  0.0000000E+00;  3.3924777E-02;0; -6.1237756E-03;  4.0017812E+04;  0.0000000E+00; -7.5994544E-02;  4.0000000E+04;  0.0000000E+00;  4.0018848E+04; -6.5049962E-03;  0.0000000E+00;  3.8122048E-04;  2.3506631E+03;
  1.5141889E-01;  9.9999998E-03; -1.2989876E-01;3378; -1.8890410E-03;  0.0000000E+00; -4.3834102E-06;  1.0005372E+03;  1.0000000E-01;  4.4512320E+02;3;  5.9093708E-01;  0.0000000E+00;  3.4821607E-02;0; -5.6535262E-03;  4.0026398E+04;  0.0000000E+00; -7.1249276E-02;  4.0000000E+04;  0.0000000E+00;  4.0018523E+04; -5.9407894E-03;  0.0000000E+00;  2.8726328E-04;  2.1988684E+03;
  1.5144412E-01;  9.9999998E-03; -1.3987015E-01;3377; -1.9155169E-03;  0.0000000E+00; -8.0772916E-06;  1.0006397E+03;  1.0000000E-01;  5.2996033E+02;3;  5.7962412E-01;  0.0000000E+00;  3.5609309E-02;0; -5.2135214E-03;  4.0038328E+04;  0.0000000E+00; -4.8614282E-02;  4.0000000E+04;  0.0000000E+00;  4.0014707E+04; -5.3821960E-03;  0.0000000E+00;  1.6867442E-04;  1.8017883E+03;
  1.5146150E-01;  9.9999998E-03; -1.4983936E-01;3376; -1.9490635E-03;  0.0000000E+00;  2.7006570E-06;  1.0007595E+03;  1.0000000E-01;  6.2921680E+02;3;  5.6340539E-01;  0.0000000E+00;  3.0041937E-02;0; -4.8177433E-03;  4.0052938E+04;  0.0000000E+00; -1.4267908E-03;  4.0000000E+04;  0.0000000E+00;  4.0010453E+04; -4.8770146E-03;  0.0000000E+00;  5.9271453E-05;  1.2244829E+03;
  1.5147156E-01;  9.9999998E-03; -1.5981737E-01;3375; -1.9918722E-03;  0.0000000E+00;  2.5670681E-05;  1.0008943E+03;  1.0000000E-01;  7.4091730E+02;3;  5.4595327E-01;  0.0000000E+00; -3.9909754E-02;0; -4.4766301E-03;  4.0069223E+04;  0.0000000E+00;  7.5734295E-02;  4.0000000E+04;  0.0000000E+00;  4.0005398E+04; -4.4714031E-03;  0.0000000E+00; -5.2271998E-06;  6.0210461E+02;
  1.5146829E-01;  9.9999998E-03; -1.6982336E-01;3374; -2.0410786E-03;  0.0000000E+00;  5.8034268E-05;  1.0010356E+03;  1.0000000E-01;  8.5804980E+02;3;  5.2071565E-01;  0.0000000E+00; -2.8479642E-01;0; -4.1984553E-03;  4.0084953E+04;  0.0000000E+00;  1.9128837E-01;  4.0000000E+04;  0.0000000E+00;  4.0001605E+04; -4.2040874E-03;  0.0000000E+00;  5.6321733E-06;  2.8214951E+02;
  1.5143277E-01;  9.9999998E-03; -1.7985585E-01;3373; -2.0943063E-03;  0.0000000E+00;  9.6691678E-05;  1.0011678E+03;  1.0000000E-01;  9.6747882E+02;3;  4.7708902E-01;  0.0000000E+00; -8.5566527E-01;0; -3.9922115E-03;  4.0098363E+04;  0.0000000E+00;  3.6619291E-01;  4.0000000E+04;  0.0000000E+00;  3.9999570E+04; -4.1027088E-03;  0.0000000E+00;  1.1049746E-04;  5.5330347E+02;
  1.5136397E-01;  9.9999998E-03; -1.8989582E-01;3372; -2.1450548E-03;  0.0000000E+00;  1.3751116E-04;  1.0012764E+03;  1.0000000E-01;  1.0574515E+03;3;  3.9609495E-01;  0.0000000E+00; -1.9488772E+00;0; -3.8718360E-03;  4.0106219E+04;  0.0000000E+00;  6.4421523E-01;  4.0000000E+04;  0.0000000E+00;  4.0000664E+04; -4.1820016E-03;  0.0000000E+00;  3.1016560E-04;  9.2139838E+02;
  1.5129378E-01;  9.9999998E-03; -1.9992621E-01;3371; -2.1833084E-03;  0.0000000E+00;  1.7353581E-04;  1.0013301E+03;  1.0000000E-01;  1.1019935E+03;3;  2.7832645E-01;  0.0000000E+00; -3.8414345E+00;0; -3.8567791E-03;  4.0106043E+04;  0.0000000E+00;  1.0985903E+00;  4.0000000E+04;  0.0000000E+00;  4.0005758E+04; -4.4417311E-03;  0.0000000E+00;  5.8495195E-04;  1.6948239E+03;
  1.5122893E-01;  9.9999998E-03; -2.0993188E-01;3370; -2.2039532E-03;  0.0000000E+00;  1.9480445E-04;  1.0013015E+03;  1.0000000E-01;  1.0782905E+03;3;  1.6145590E-01;  0.0000000E+00; -6.8834238E+00;0; -3.9673396E-03;  4.0095734E+04;  0.0000000E+00;  1.8336190E+00;  4.0000000E+04;  0.0000000E+00;  4.0014309E+04; -4.8639928E-03;  0.0000000E+00;  8.9665310E-04;  3.1351875E+03;
  1.5060088E-01;  9.9999998E-03; -2.6958963E-01;3364; -1.7706249E-03;  0.0000000E+00; -3.5361005E-05;  9.9876953E+02;  1.0000000E-01; -1.0194280E+03;3;  1.1368580E+01;  0.0000000E+00; -4.2610001E+01;0; -7.6948963E-03;  3.9845938E+04;  0.0000000E+00;  1.9082932E+01;  4.0000000E+04;  0.0000000E+00;  4.0059488E+04; -8.6595193E-03;  0.0000000E+00;  9.6462294E-04;  2.9026102E+04;
  1.5077733E-01;  9.9999998E-03; -2.5969741E-01;3365; -1.9252158E-03;  0.0000000E+00; -1.7015913E-06;  9.9934149E+02;  1.0000000E-01; -5.4556482E+02;3;  6.5294003E+00;  0.0000000E+00; -3.9158356E+01;0; -6.8033091E-03;  3.9892188E+04;  0.0000000E+00;  1.4265977E+01;  4.0000000E+04;  0.0000000E+00;  4.0059227E+04; -8.1340177E-03;  0.0000000E+00;  1.3307087E-03;  2.2286201E+04;
  1.5092051E-01;  9.9999998E-03; -2.4979091E-01;3366; -2.0351096E-03;  0.0000000E+00;  4.9817849E-05;  9.9992871E+02;  1.0000000E-01; -5.9060059E+01;3;  3.2426801E+00;  0.0000000E+00; -3.2637608E+01;0; -5.9520481E-03;  3.9944684E+04;  0.0000000E+00;  1.0214366E+01;  4.0000000E+04;  0.0000000E+00;  4.0055023E+04; -7.4799140E-03;  0.0000000E+00;  1.5278658E-03;  1.6517047E+04;
  1.5103224E-01;  9.9999998E-03; -2.3985949E-01;3367; -2.1172229E-03;  0.0000000E+00;  1.1013526E-04;  1.0004570E+03;  1.0000000E-01;  3.7855719E+02;3;  1.3428305E+00;  0.0000000E+00; -2.4945898E+01;0; -5.2207997E-03;  3.9995379E+04;  0.0000000E+00;  7.0362310E+00;  4.0000000E+04;  0.0000000E+00;  4.0046773E+04; -6.7745643E-03;  0.0000000E+00;  1.5537646E-03;  1.1849959E+04;
  1.5111309E-01;  9.9999998E-03; -2.2990210E-01;3368; -2.1732971E-03;  0.0000000E+00;  1.6116674E-04;  1.0008734E+03;  1.0000000E-01;  7.2353510E+02;3;  4.3978330E-01;  0.0000000E+00; -1.7554949E+01;0; -4.6406165E-03;  4.0039500E+04;  0.0000000E+00;  4.6645293E+00;  4.0000000E+04;  0.0000000E+00;  4.0036562E+04; -6.0718013E-03;  0.0000000E+00;  1.4311847E-03;  8.1566001E+03;
  1.5117238E-01;  9.9999998E-03; -2.1992396E-01;3369; -2.2018838E-03;  0.0000000E+00;  1.9154613E-04;  1.0011550E+03;  1.0000000E-01;  9.5691119E+02;3;  1.4800571E-01;  0.0000000E+00; -1.1416385E+01;0; -4.2238296E-03;  4.0073598E+04;  0.0000000E+00;  2.9763458E+00;  4.0000000E+04;  0.0000000E+00;  4.0025199E+04; -5.4200268E-03;  0.0000000E+00;  1.1961971E-03;  5.2815371E+03;
  1.6068619E-01;  9.9999998E-03; -2.6960674E-01;3425; -2.0632206E-03;  0.0000000E+00; -1.8681910E-04;  9.9873438E+02;  1.0000000E-01; -1.0485630E+03;3;  1.5066952E+01;  0.0000000E+00; -4.8503883E+01;0; -8.6933933E-03;  3.9827938E+04;  0.0000000E+00;  2.2327620E+01;  4.0000000E+04;  0.0000000E+00;  4.0073773E+04; -9.9879634E-03;  0.0000000E+00;  1.2945700E-03;  3.4340715E+04;
  1.6087227E-01;  9.9999998E-03; -2.5971544E-01;3426; -2.2271718E-03;  0.0000000E+00; -2.9941099E-05;  9.9929980E+02;  1.0000000E-01; -5.8008234E+02;3;  7.8695450E+00;  0.0000000E+00; -4.1736702E+01;0; -7.6672044E-03;  3.9879656E+04;  0.0000000E+00;  1.5855480E+01;  4.0000000E+04;  0.0000000E+00;  4.0068207E+04; -9.1463737E-03;  0.0000000E+00;  1.4791691E-03;  2.5062898E+04;
  1.6100404E-01;  9.9999998E-03; -2.4981573E-01;3427; -2.3168083E-03;  0.0000000E+00;  8.1922488E-05;  9.9990765E+02;  1.0000000E-01; -7.6491661E+01;3;  3.3450005E+00;  0.0000000E+00; -3.3258942E+01;0; -6.6359029E-03;  3.9938594E+04;  0.0000000E+00;  1.0921944E+01;  4.0000000E+04;  0.0000000E+00;  4.0058879E+04; -8.2200440E-03;  0.0000000E+00;  1.5841410E-03;  1.7808146E+04;
  1.6106348E-01;  9.9999998E-03; -2.3989284E-01;3428; -2.3650555E-03;  0.0000000E+00;  1.6392721E-04;  1.0004752E+03;  1.0000000E-01;  3.9366788E+02;3;  9.3500417E-01;  0.0000000E+00; -2.4775137E+01;0; -5.7582529E-03;  3.9995871E+04;  0.0000000E+00;  7.3512444E+00;  4.0000000E+04;  0.0000000E+00;  4.0047406E+04; -7.3228120E-03;  0.0000000E+00;  1.5645593E-03;  1.2371556E+04;
  1.6109230E-01;  9.9999998E-03; -2.2994305E-01;3429; -2.3862424E-03;  0.0000000E+00;  2.1759518E-04;  1.0009146E+03;  1.0000000E-01;  7.5770697E+02;3; -7.7108830E-02;  0.0000000E+00; -1.7199026E+01;0; -5.0904825E-03;  4.0043461E+04;  0.0000000E+00;  4.7836132E+00;  4.0000000E+04;  0.0000000E+00;  4.0035578E+04; -6.5115001E-03;  0.0000000E+00;  1.4210175E-03;  8.2563057E+03;
  1.6111664E-01;  9.9999998E-03; -2.1996613E-01;3430; -2.3854373E-03;  0.0000000E+00;  2.3768021E-04;  1.0012014E+03;  1.0000000E-01;  9.9532990E+02;3; -2.9816756E-01;  0.0000000E+00; -1.1134305E+01;0; -4.6406286E-03;  4.0078586E+04;  0.0000000E+00;  2.9700501E+00;  4.0000000E+04;  0.0000000E+00;  4.0023652E+04; -5.8209649E-03;  0.0000000E+00;  1.1803362E-03;  5.1428091E+03;
  1.6117193E-01;  9.9999998E-03; -2.0996755E-01;3431; -2.3664699E-03;  0.0000000E+00;  2.2721328E-04;  1.0013484E+03;  1.0000000E-01;  1.1171042E+03;3; -1.5549050E-01;  0.0000000E+00; -6.7269273E+00;0; -4.3984866E-03;  4.0100676E+04;  0.0000000E+00;  1.7362021E+00;  4.0000000E+04;  0.0000000E+00;  4.0012191E+04; -5.2806344E-03;  0.0000000E+00;  8.8214758E-04;  2.8690813E+03;
  1.6127244E-01;  9.9999998E-03; -1.9994678E-01;3432; -2.3328185E-03;  0.0000000E+00;  1.9425826E-04;  1.0013746E+03;  1.0000000E-01;  1.1388320E+03;3;  8.9885831E-02;  0.0000000E+00; -3.7802765E+00;0; -4.3405928E-03;  4.0110672E+04;  0.0000000E+00;  9.4238508E-01;  4.0000000E+04;  0.0000000E+00;  4.0003402E+04; -4.9150186E-03;  0.0000000E+00;  5.7442556E-04;  1.3957134E+03;
  1.6137257E-01;  9.9999998E-03; -1.8991601E-01;3433; -2.2883890E-03;  0.0000000E+00;  1.4880320E-04;  1.0013158E+03;  1.0000000E-01;  1.0901420E+03;3;  3.0038676E-01;  0.0000000E+00; -1.9459968E+00;0; -4.4362536E-03;  4.0110418E+04;  0.0000000E+00;  4.6352047E-01;  4.0000000E+04;  0.0000000E+00;  3.9998676E+04; -4.7405618E-03;  0.0000000E+00;  3.0430805E-04;  7.3136938E+02;
  1.6141078E-01;  9.9999998E-03; -1.7988062E-01;3434; -2.2405130E-03;  0.0000000E+00;  1.0046898E-04;  1.0012045E+03;  1.0000000E-01;  9.9789771E+02;3;  4.3516630E-01;  0.0000000E+00; -8.7839729E-01;0; -4.6532676E-03;  4.0101969E+04;  0.0000000E+00;  1.9214800E-01;  4.0000000E+04;  0.0000000E+00;  3.9996848E+04; -4.7604195E-03;  0.0000000E+00;  1.0715182E-04;  5.3369299E+02;
  1.6141951E-01;  9.9999998E-03; -1.6984791E-01;3435; -2.1967895E-03;  0.0000000E+00;  5.5824003E-05;  1.0010643E+03;  1.0000000E-01;  8.8175287E+02;3;  5.0915879E-01;  0.0000000E+00; -3.1380990E-01;0; -4.9672639E-03;  4.0087660E+04;  0.0000000E+00;  4.5369435E-02;  4.0000000E+04;  0.0000000E+00;  3.9999215E+04; -4.9678776E-03;  0.0000000E+00;  6.1371884E-07;  2.1053372E+02;
  1.6140902E-01;  9.9999998E-03; -1.5983845E-01;3436; -2.1624123E-03;  0.0000000E+00;  1.9230283E-05;  1.0009105E+03;  1.0000000E-01;  7.5434906E+02;3;  5.4750049E-01;  0.0000000E+00; -6.5508440E-02;0; -5.3576608E-03;  4.0070578E+04;  0.0000000E+00; -3.2640737E-02;  4.0000000E+04;  0.0000000E+00;  4.0003531E+04; -5.3410456E-03;  0.0000000E+00; -1.6615442E-05;  3.3040042E+02;
  1.6139445E-01;  9.9999998E-03; -1.4985693E-01;3437; -2.1400687E-03;  0.0000000E+00; -6.8254594E-06;  1.0007624E+03;  1.0000000E-01;  6.3158710E+02;3;  5.6853026E-01;  0.0000000E+00;  7.6004304E-03;0; -5.8085308E-03;  4.0053184E+04;  0.0000000E+00; -7.2823234E-02;  4.0000000E+04;  0.0000000E+00;  4.0007988E+04; -5.8458871E-03;  0.0000000E+00;  3.7356389E-05;  9.5979541E+02;
  1.6138025E-01;  9.9999998E-03; -1.3988589E-01;3438; -2.1288530E-03;  0.0000000E+00; -2.0280426E-05;  1.0006210E+03;  1.0000000E-01;  5.1455334E+02;3;  5.8376074E-01;  0.0000000E+00;  1.5424856E-02;0; -6.3060634E-03;  4.0036766E+04;  0.0000000E+00; -8.8987306E-02;  4.0000000E+04;  0.0000000E+00;  4.0012379E+04; -6.4394115E-03;  0.0000000E+00;  1.3334797E-04;  1.5268379E+03;
  1.6136330E-01;  9.9999998E-03; -1.2991507E-01;3439; -2.1251831E-03;  0.0000000E+00; -1.9338444E-05;  1.0004926E+03;  1.0000000E-01;  4.0808722E+02;3;  5.9647793E-01;  0.0000000E+00;  1.6508816E-02;0; -6.8349871E-03;  4.0022871E+04;  0.0000000E+00; -8.8171549E-02;  4.0000000E+04;  0.0000000E+00;  4.0016141E+04; -7.0725093E-03;  0.0000000E+00;  2.3752211E-04;  1.9142697E+03;
  1.6133757E-01;  9.9999998E-03; -1.1993793E-01;3440; -2.1245827E-03;  0.0000000E+00; -3.8391054E-06;  1.0003798E+03;  1.0000000E-01;  3.1465778E+02;3;  6.0837483E-01;  0.0000000E+00;  1.8737163E-02;0; -7.3772282E-03;  4.0012586E+04;  0.0000000E+00; -7.7012181E-02;  4.0000000E+04;  0.0000000E+00;  4.0017199E+04; -7.6958030E-03;  0.0000000E+00;  3.1857492E-04;  2.0626631E+03;
  1.6130227E-01;  9.9999998E-03; -1.0995089E-01;3441; -2.1230129E-03;  0.0000000E+00;  2.0037423E-05;  1.0002898E+03;  1.0000000E-01;  2.4009198E+02;3;  6.1903542E-01;  0.0000000E+00;  2.0411517E-02;0; -7.9111038E-03;  4.0005355E+04;  0.0000000E+00; -6.1617300E-02;  4.0000000E+04;  0.0000000E+00;  4.0016125E+04; -8.2651824E-03;  0.0000000E+00;  3.5407903E-04;  1.9803389E+03;
  1.7086445E-01;  9.9999998E-03; -2.6974621E-01;3486; -2.3386788E-03;  0.0000000E+00; -4.9010414E-04;  9.9848364E+02;  1.0000000E-01; -1.2562607E+03;3;  1.6874144E+01;  0.0000000E+00; -4.6342079E+01;0; -9.0207802E-03;  3.9807477E+04;  0.0000000E+00;  2.2769444E+01;  4.0000000E+04;  0.0000000E+00;  4.0073539E+04; -1.1011194E-02;  0.0000000E+00;  1.9904131E-03;  3.5412590E+04;
  1.7101564E-01;  9.9999998E-03; -2.5983259E-01;3487; -2.5409281E-03;  0.0000000E+00; -1.6620463E-04;  9.9917120E+02;  1.0000000E-01; -6.8664722E+02;3;  8.0103903E+00;  0.0000000E+00; -3.9414375E+01;0; -8.0973636E-03;  3.9871852E+04;  0.0000000E+00;  1.5607007E+01;  4.0000000E+04;  0.0000000E+00;  4.0065367E+04; -9.8454030E-03;  0.0000000E+00;  1.7480394E-03;  2.4934129E+04;
  1.7108878E-01;  9.9999998E-03; -2.4992336E-01;3488; -2.6054259E-03;  0.0000000E+00;  4.3183420E-05;  9.9987842E+02;  1.0000000E-01; -1.0073789E+02;3;  2.7516580E+00;  0.0000000E+00; -3.0877005E+01;0; -6.9748745E-03;  3.9941500E+04;  0.0000000E+00;  1.0579390E+01;  4.0000000E+04;  0.0000000E+00;  4.0053055E+04; -8.6124530E-03;  0.0000000E+00;  1.6375786E-03;  1.7275094E+04;
  1.7108144E-01;  9.9999998E-03; -2.3998618E-01;3489; -2.6173678E-03;  0.0000000E+00;  1.6283309E-04;  1.0005239E+03;  1.0000000E-01;  4.3396304E+02;3;  1.7044757E-01;  0.0000000E+00; -2.2991985E+01;0; -5.9826337E-03;  4.0005691E+04;  0.0000000E+00;  7.1353860E+00;  4.0000000E+04;  0.0000000E+00;  4.0041270E+04; -7.5167152E-03;  0.0000000E+00;  1.5340818E-03;  1.1839643E+04;
  1.7104848E-01;  9.9999998E-03; -2.3002161E-01;3490; -2.6027255E-03;  0.0000000E+00;  2.2894799E-04;  1.0010045E+03;  1.0000000E-01;  8.3217401E+02;3; -7.6770365E-01;  0.0000000E+00; -1.6040194E+01;0; -5.2438481E-03;  4.0056367E+04;  0.0000000E+00;  4.6587481E+00;  4.0000000E+04;  0.0000000E+00;  4.0028891E+04; -6.6052610E-03;  0.0000000E+00;  1.3614129E-03;  7.7762104E+03;
  1.7104228E-01;  9.9999998E-03; -2.2003244E-01;3491; -2.5700757E-03;  0.0000000E+00;  2.5259051E-04;  1.0013083E+03;  1.0000000E-01;  1.0839199E+03;3; -8.2312620E-01;  0.0000000E+00; -1.0457934E+01;0; -4.7724470E-03;  4.0091738E+04;  0.0000000E+00;  2.8551290E+00;  4.0000000E+04;  0.0000000E+00;  4.0017539E+04; -5.8897957E-03;  0.0000000E+00;  1.1173489E-03;  4.6867305E+03;
  1.7109832E-01;  9.9999998E-03; -2.1001711E-01;3492; -2.5257815E-03;  0.0000000E+00;  2.3925352E-04;  1.0014567E+03;  1.0000000E-01;  1.2068794E+03;3; -5.0254095E-01;  0.0000000E+00; -6.3799162E+00;0; -4.5482107E-03;  4.0113254E+04;  0.0000000E+00;  1.5888340E+00;  4.0000000E+04;  0.0000000E+00;  4.0007281E+04; -5.3777099E-03;  0.0000000E+00;  8.2949921E-04;  2.4552954E+03;
  1.7121398E-01;  9.9999998E-03; -1.9997941E-01;3493; -2.4755457E-03;  0.0000000E+00;  2.0098781E-04;  1.0014906E+03;  1.0000000E-01;  1.2349280E+03;3; -1.1426479E-01;  0.0000000E+00; -3.6307197E+00;0; -4.5389864E-03;  4.0122410E+04;  0.0000000E+00;  7.5771391E-01;  4.0000000E+04;  0.0000000E+00;  3.9999492E+04; -5.0765923E-03;  0.0000000E+00;  5.3760607E-04;  1.1124484E+03;
  1.7132178E-01;  9.9999998E-03; -1.8994594E-01;3494; -2.4248175E-03;  0.0000000E+00;  1.5054722E-04;  1.0014346E+03;  1.0000000E-01;  1.1885096E+03;3;  1.9745184E-01;  0.0000000E+00; -1.8969375E+00;0; -4.7055096E-03;  4.0121891E+04;  0.0000000E+00;  2.5963804E-01;  4.0000000E+04;  0.0000000E+00;  3.9995680E+04; -4.9898024E-03;  0.0000000E+00;  2.8429268E-04;  8.0114288E+02;
  1.7138377E-01;  9.9999998E-03; -1.7991996E-01;3495; -2.3790535E-03;  0.0000000E+00;  9.8236749E-05;  1.0013242E+03;  1.0000000E-01;  1.0970554E+03;3;  3.9534163E-01;  0.0000000E+00; -8.7649143E-01;0; -5.0084633E-03;  4.0112875E+04;  0.0000000E+00; -3.7839087E-03;  4.0000000E+04;  0.0000000E+00;  3.9994531E+04; -5.1095346E-03;  0.0000000E+00;  1.0107126E-04;  8.1358630E+02;
  1.7139737E-01;  9.9999998E-03; -1.6989636E-01;3496; -2.3452588E-03;  0.0000000E+00;  5.1086161E-05;  1.0011793E+03;  1.0000000E-01;  9.7705878E+02;3;  4.9736923E-01;  0.0000000E+00; -3.2975724E-01;0; -5.4145190E-03;  4.0098266E+04;  0.0000000E+00; -1.1879019E-01;  4.0000000E+04;  0.0000000E+00;  3.9996422E+04; -5.4172543E-03;  0.0000000E+00;  2.7353117E-06;  5.6186652E+02;
  1.7139168E-01;  9.9999998E-03; -1.5989846E-01;3497; -2.3275814E-03;  0.0000000E+00;  1.2862512E-05;  1.0010206E+03;  1.0000000E-01;  8.4550696E+02;3;  5.4476207E-01;  0.0000000E+00; -8.6717084E-02;0; -5.8964044E-03;  4.0080422E+04;  0.0000000E+00; -1.5260619E-01;  4.0000000E+04;  0.0000000E+00;  4.0001078E+04; -5.8831321E-03;  0.0000000E+00; -1.3272134E-05;  2.1585443E+02;
  1.7138530E-01;  9.9999998E-03; -1.4992124E-01;3498; -2.3261497E-03;  0.0000000E+00; -1.4420100E-05;  1.0008580E+03;  1.0000000E-01;  7.1089349E+02;3;  5.6868368E-01;  0.0000000E+00; -1.3452530E-02;0; -6.4331549E-03;  4.0062082E+04;  0.0000000E+00; -1.4838402E-01;  4.0000000E+04;  0.0000000E+00;  4.0005195E+04; -6.4683594E-03;  0.0000000E+00;  3.5204579E-05;  6.3021985E+02;
  1.7137751E-01;  9.9999998E-03; -1.3995171E-01;3499; -2.3379109E-03;  0.0000000E+00; -2.8639415E-05;  1.0006982E+03;  1.0000000E-01;  5.7845276E+02;3;  5.8323759E-01;  0.0000000E+00; -3.8931635E-03;0; -7.0063714E-03;  4.0044516E+04;  0.0000000E+00; -1.2781322E-01;  4.0000000E+04;  0.0000000E+00;  4.0009613E+04; -7.1267840E-03;  0.0000000E+00;  1.2041241E-04;  1.1500409E+03;
  1.7136231E-01;  9.9999998E-03; -1.2998019E-01;3500; -2.3574093E-03;  0.0000000E+00; -2.8014765E-05;  1.0005537E+03;  1.0000000E-01;  4.5875247E+02;3;  5.9691966E-01;  0.0000000E+00; -1.0421214E-03;0; -7.5975102E-03;  4.0029598E+04;  0.0000000E+00; -1.0088925E-01;  4.0000000E+04;  0.0000000E+00;  4.0012965E+04; -7.8082164E-03;  0.0000000E+00;  2.1070632E-04;  1.5079534E+03;
  1.7133306E-01;  9.9999998E-03; -1.2000208E-01;3501; -2.3776405E-03;  0.0000000E+00; -1.2973638E-05;  1.0004215E+03;  1.0000000E-01;  3.4922470E+02;3;  6.1043990E-01;  0.0000000E+00;  2.1806390E-03;0; -8.1861997E-03;  4.0017438E+04;  0.0000000E+00; -7.4032836E-02;  4.0000000E+04;  0.0000000E+00;  4.0013109E+04; -8.4638335E-03;  0.0000000E+00;  2.7763369E-04;  1.6414272E+03;
  1.7128751E-01;  9.9999998E-03; -1.1001533E-01;3502; -2.3926953E-03;  0.0000000E+00;  1.1026189E-05;  1.0003130E+03;  1.0000000E-01;  2.5935068E+02;3;  6.2148499E-01;  0.0000000E+00;  6.5020025E-03;0; -8.7498473E-03;  4.0008777E+04;  0.0000000E+00; -5.1670257E-02;  4.0000000E+04;  0.0000000E+00;  4.0012531E+04; -9.0515399E-03;  0.0000000E+00;  3.0169287E-04;  1.5577615E+03;
  1.8102352E-01;  9.9999998E-03; -2.6995093E-01;3547; -2.5317704E-03;  0.0000000E+00; -5.3068326E-04;  9.9804980E+02;  1.0000000E-01; -1.6157074E+03;3;  1.4084808E+01;  0.0000000E+00; -3.2563240E+01;0; -9.0031773E-03;  3.9795219E+04;  0.0000000E+00;  1.9509438E+01;  4.0000000E+04;  0.0000000E+00;  4.0050473E+04; -1.1394922E-02;  0.0000000E+00;  2.3917439E-03;  3.0735342E+04;
  1.8106782E-01;  9.9999998E-03; -2.6000971E-01;3548; -2.7843995E-03;  0.0000000E+00; -2.2128530E-04;  9.9901361E+02;  1.0000000E-01; -8.1721143E+02;3;  5.6609049E+00;  0.0000000E+00; -3.0430099E+01;0; -8.0558248E-03;  3.9879605E+04;  0.0000000E+00;  1.3619703E+01;  4.0000000E+04;  0.0000000E+00;  4.0044453E+04; -9.9797687E-03;  0.0000000E+00;  1.9239436E-03;  2.1793311E+04;
  1.8106908E-01;  9.9999998E-03; -2.5007799E-01;3549; -2.8470324E-03;  0.0000000E+00;  1.4381399E-05;  9.9985193E+02;  1.0000000E-01; -1.2266320E+02;3;  9.1175061E-01;  0.0000000E+00; -2.4871809E+01;0; -6.8690283E-03;  3.9957785E+04;  0.0000000E+00;  9.4402885E+00;  4.0000000E+04;  0.0000000E+00;  4.0034320E+04; -8.4977560E-03;  0.0000000E+00;  1.6287279E-03;  1.5149445E+04;
  1.8102418E-01;  9.9999998E-03; -2.4011682E-01;3550; -2.8425897E-03;  0.0000000E+00;  1.4133015E-04;  1.0005593E+03;  1.0000000E-01;  4.6339429E+02;3; -1.1514642E+00;  0.0000000E+00; -1.9291691E+01;0; -5.7910010E-03;  4.0023656E+04;  0.0000000E+00;  6.5509434E+00;  4.0000000E+04;  0.0000000E+00;  4.0025625E+04; -7.2452868E-03;  0.0000000E+00;  1.4542860E-03;  1.0456908E+04;
  1.8096420E-01;  9.9999998E-03; -2.3012571E-01;3551; -2.8000954E-03;  0.0000000E+00;  2.1053634E-04;  1.0010760E+03;  1.0000000E-01;  8.9153033E+02;3; -1.6694582E+00;  0.0000000E+00; -1.3960522E+01;0; -5.0038286E-03;  4.0073422E+04;  0.0000000E+00;  4.3749590E+00;  4.0000000E+04;  0.0000000E+00;  4.0017832E+04; -6.2614437E-03;  0.0000000E+00;  1.2576149E-03;  6.8924121E+03;
  1.8094705E-01;  9.9999998E-03; -2.2011214E-01;3552; -2.7379063E-03;  0.0000000E+00;  2.3689923E-04;  1.0013908E+03;  1.0000000E-01;  1.1522637E+03;3; -1.4109324E+00;  0.0000000E+00; -9.3549137E+00;0; -4.5251446E-03;  4.0106617E+04;  0.0000000E+00;  2.6760578E+00;  4.0000000E+04;  0.0000000E+00;  4.0008891E+04; -5.5413870E-03;  0.0000000E+00;  1.0162427E-03;  4.0972388E+03;
  1.8101341E-01;  9.9999998E-03; -2.1006939E-01;3553; -2.6679120E-03;  0.0000000E+00;  2.2384671E-04;  1.0015464E+03;  1.0000000E-01;  1.2812477E+03;3; -8.5909605E-01;  0.0000000E+00; -5.8411708E+00;0; -4.3233228E-03;  4.0125840E+04;  0.0000000E+00;  1.4160206E+00;  4.0000000E+04;  0.0000000E+00;  4.0001117E+04; -5.0712642E-03;  0.0000000E+00;  7.4794143E-04;  2.0908250E+03;
  1.8112527E-01;  9.9999998E-03; -2.0001727E-01;3554; -2.5994065E-03;  0.0000000E+00;  1.8497292E-04;  1.0015836E+03;  1.0000000E-01;  1.3119629E+03;3; -3.1029016E-01;  0.0000000E+00; -3.3793855E+00;0; -4.3594018E-03;  4.0133957E+04;  0.0000000E+00;  5.6385601E-01;  4.0000000E+04;  0.0000000E+00;  3.9995312E+04; -4.8429263E-03;  0.0000000E+00;  4.8352437E-04;  1.1085096E+03;
  1.8122484E-01;  9.9999998E-03; -1.8997733E-01;3555; -2.5395898E-03;  0.0000000E+00;  1.3481609E-04;  1.0015381E+03;  1.0000000E-01;  1.2743344E+03;3;  1.0523541E-01;  0.0000000E+00; -1.7910074E+00;0; -4.5861090E-03;  4.0132625E+04;  0.0000000E+00;  5.2954782E-02;  4.0000000E+04;  0.0000000E+00;  3.9991699E+04; -4.8448090E-03;  0.0000000E+00;  2.5870017E-04;  1.1607828E+03;
  1.8130143E-01;  9.9999998E-03; -1.7995140E-01;3556; -2.4962851E-03;  0.0000000E+00;  8.4290965E-05;  1.0014334E+03;  1.0000000E-01;  1.1875220E+03;3;  3.5820058E-01;  0.0000000E+00; -8.4029466E-01;0; -4.9560880E-03;  4.0123523E+04;  0.0000000E+00; -1.9929601E-01;  4.0000000E+04;  0.0000000E+00;  3.9991465E+04; -5.0563910E-03;  0.0000000E+00;  1.0030308E-04;  1.2276252E+03;
  1.8133774E-01;  9.9999998E-03; -1.6994490E-01;3557; -2.4734566E-03;  0.0000000E+00;  3.9213824E-05;  1.0012903E+03;  1.0000000E-01;  1.0690068E+03;3;  4.8823935E-01;  0.0000000E+00; -3.2613540E-01;0; -5.4297680E-03;  4.0109062E+04;  0.0000000E+00; -2.7932483E-01;  4.0000000E+04;  0.0000000E+00;  3.9993836E+04; -5.4496550E-03;  0.0000000E+00;  1.9887069E-05;  9.8176215E+02;
  1.8134862E-01;  9.9999998E-03; -1.5995777E-01;3558; -2.4728815E-03;  0.0000000E+00;  3.2026210E-06;  1.0011292E+03;  1.0000000E-01;  9.3547974E+02;3;  5.4704076E-01;  0.0000000E+00; -9.6110247E-02;0; -5.9753777E-03;  4.0091129E+04;  0.0000000E+00; -2.6547238E-01;  4.0000000E+04;  0.0000000E+00;  3.9997707E+04; -5.9879548E-03;  0.0000000E+00;  1.2576861E-05;  5.4329645E+02;
  1.8134773E-01;  9.9999998E-03; -1.4998432E-01;3559; -2.4925636E-03;  0.0000000E+00; -2.1550048E-05;  1.0009616E+03;  1.0000000E-01;  7.9671820E+02;3;  5.7257330E-01;  0.0000000E+00; -2.5221514E-02;0; -6.5680207E-03;  4.0072570E+04;  0.0000000E+00; -2.1423320E-01;  4.0000000E+04;  0.0000000E+00;  4.0001574E+04; -6.6283518E-03;  0.0000000E+00;  6.0331186E-05;  3.5040549E+02;
  1.8133461E-01;  9.9999998E-03; -1.4001414E-01;3560; -2.5272903E-03;  0.0000000E+00; -3.3107161E-05;  1.0007967E+03;  1.0000000E-01;  6.6003070E+02;3;  5.8576947E-01;  0.0000000E+00; -1.5283272E-02;0; -7.1866950E-03;  4.0054914E+04;  0.0000000E+00; -1.5651435E-01;  4.0000000E+04;  0.0000000E+00;  4.0005727E+04; -7.3233992E-03;  0.0000000E+00;  1.3670408E-04;  7.0340503E+02;
  1.8130869E-01;  9.9999998E-03; -1.3003972E-01;3561; -2.5688936E-03;  0.0000000E+00; -3.0117064E-05;  1.0006434E+03;  1.0000000E-01;  5.3302197E+02;3;  5.9914440E-01;  0.0000000E+00; -1.2851702E-02;0; -7.8113098E-03;  4.0039598E+04;  0.0000000E+00; -1.0544974E-01;  4.0000000E+04;  0.0000000E+00;  4.0008621E+04; -8.0238795E-03;  0.0000000E+00;  2.1256972E-04;  1.0019834E+03;
  1.8127252E-01;  9.9999998E-03; -1.2005770E-01;3562; -2.6088846E-03;  0.0000000E+00; -1.3106167E-05;  1.0005054E+03;  1.0000000E-01;  4.1875360E+02;3;  6.1011618E-01;  0.0000000E+00; -8.8570910E-03;0; -8.4207645E-03;  4.0027141E+04;  0.0000000E+00; -6.6380411E-02;  4.0000000E+04;  0.0000000E+00;  4.0008977E+04; -8.6836517E-03;  0.0000000E+00;  2.6288707E-04;  1.1056243E+03;
  1.8122831E-01;  9.9999998E-03; -1.1006832E-01;3563; -2.6400180E-03;  0.0000000E+00;  1.2753723E-05;  1.0003864E+03;  1.0000000E-01;  3.2008972E+02;3;  6.2177819E-01;  0.0000000E+00; -4.1535217E-03;0; -8.9924037E-03;  4.0017727E+04;  0.0000000E+00; -4.0921606E-02;  4.0000000E+04;  0.0000000E+00;  4.0008164E+04; -9.2642475E-03;  0.0000000E+00;  2.7184366E-04;  1.0138878E+03;
  1.9103870E-01;  9.9999998E-03; -2.7009538E-01;3608; -2.5035981E-03;  0.0000000E+00; -2.8191516E-04;  9.9788824E+02;  1.0000000E-01; -1.7495308E+03;3;  8.0243073E+00;  0.0000000E+00; -1.6204271E+01;0; -8.7209176E-03;  3.9812195E+04;  0.0000000E+00;  1.5281389E+01;  4.0000000E+04;  0.0000000E+00;  4.0019832E+04; -1.0669639E-02;  0.0000000E+00;  1.9487218E-03;  2.4551270E+04;
  1.9099504E-01;  9.9999998E-03; -2.6014271E-01;3609; -2.8676642E-03;  0.0000000E+00; -7.3693132E-05;  9.9901251E+02;  1.0000000E-01; -8.1810034E+02;3;  1.5504686E+00;  0.0000000E+00; -1.9046663E+01;0; -7.7201901E-03;  3.9907793E+04;  0.0000000E+00;  1.1436514E+01;  4.0000000E+04;  0.0000000E+00;  4.0016020E+04; -9.3172546E-03;  0.0000000E+00;  1.5970644E-03;  1.8304836E+04;
  1.9095679E-01;  9.9999998E-03; -2.5020239E-01;3610; -2.9951385E-03;  0.0000000E+00;  9.7977616E-05;  9.9986810E+02;  1.0000000E-01; -1.0928086E+02;3; -1.8692435E+00;  0.0000000E+00; -1.7110052E+01;0; -6.4315330E-03;  3.9984715E+04;  0.0000000E+00;  8.2709389E+00;  4.0000000E+04;  0.0000000E+00;  4.0008535E+04; -7.7851722E-03;  0.0000000E+00;  1.3536391E-03;  1.3035409E+04;
  1.9090016E-01;  9.9999998E-03; -2.4023286E-01;3611; -3.0100890E-03;  0.0000000E+00;  1.6543103E-04;  1.0005627E+03;  1.0000000E-01;  4.6615967E+02;3; -2.9121885E+00;  0.0000000E+00; -1.4429955E+01;0; -5.2221036E-03;  4.0045574E+04;  0.0000000E+00;  5.9675646E+00;  4.0000000E+04;  0.0000000E+00;  4.0004031E+04; -6.4737489E-03;  0.0000000E+00;  1.2516455E-03;  9.2171006E+03;
  1.9084410E-01;  9.9999998E-03; -2.3022333E-01;3612; -2.9581033E-03;  0.0000000E+00;  1.9168828E-04;  1.0010841E+03;  1.0000000E-01;  8.9814746E+02;3; -2.7098010E+00;  0.0000000E+00; -1.1267372E+01;0; -4.3666181E-03;  4.0089773E+04;  0.0000000E+00;  4.0936036E+00;  4.0000000E+04;  0.0000000E+00;  4.0001441E+04; -5.4681893E-03;  0.0000000E+00;  1.1015711E-03;  6.2099634E+03;
  1.9084367E-01;  9.9999998E-03; -2.2018148E-01;3613; -2.8724626E-03;  0.0000000E+00;  1.9934399E-04;  1.0014032E+03;  1.0000000E-01;  1.1625350E+03;3; -1.9952320E+00;  0.0000000E+00; -7.9844389E+00;0; -3.8830389E-03;  4.0117809E+04;  0.0000000E+00;  2.5001433E+00;  4.0000000E+04;  0.0000000E+00;  3.9998570E+04; -4.7707912E-03;  0.0000000E+00;  8.8775234E-04;  3.7642498E+03;
  1.9092502E-01;  9.9999998E-03; -2.1011050E-01;3614; -2.7780612E-03;  0.0000000E+00;  1.8354089E-04;  1.0015654E+03;  1.0000000E-01;  1.2969509E+03;3; -1.1724737E+00;  0.0000000E+00; -5.1664505E+00;0; -3.7102674E-03;  4.0133551E+04;  0.0000000E+00;  1.2529666E+00;  4.0000000E+04;  0.0000000E+00;  3.9994445E+04; -4.3593887E-03;  0.0000000E+00;  6.4912142E-04;  2.0424740E+03;
  1.9101970E-01;  9.9999998E-03; -2.0005140E-01;3615; -2.6915360E-03;  0.0000000E+00;  1.4828795E-04;  1.0016054E+03;  1.0000000E-01;  1.3300365E+03;3; -4.7006688E-01;  0.0000000E+00; -3.0459611E+00;0; -3.7922342E-03;  4.0139594E+04;  0.0000000E+00;  3.8964444E-01;  4.0000000E+04;  0.0000000E+00;  3.9990594E+04; -4.2136661E-03;  0.0000000E+00;  4.2143196E-04;  1.4428738E+03;
  1.9111063E-01;  9.9999998E-03; -1.9000600E-01;3616; -2.6245397E-03;  0.0000000E+00;  1.0319299E-04;  1.0015646E+03;  1.0000000E-01;  1.2962596E+03;3;  3.3797294E-02;  0.0000000E+00; -1.6349082E+00;0; -4.0688985E-03;  4.0137242E+04;  0.0000000E+00; -1.2605038E-01;  4.0000000E+04;  0.0000000E+00;  3.9988617E+04; -4.3037236E-03;  0.0000000E+00;  2.3482500E-04;  1.5916078E+03;
  1.9118440E-01;  9.9999998E-03; -1.7998432E-01;3617; -2.5834269E-03;  0.0000000E+00;  5.8653783E-05;  1.0014669E+03;  1.0000000E-01;  1.2152743E+03;3;  3.3676943E-01;  0.0000000E+00; -7.7576005E-01;0; -4.4863867E-03;  4.0128113E+04;  0.0000000E+00; -3.6160985E-01;  4.0000000E+04;  0.0000000E+00;  3.9988695E+04; -4.5971340E-03;  0.0000000E+00;  1.1074725E-04;  1.6286885E+03;
  1.9122951E-01;  9.9999998E-03; -1.6998877E-01;3618; -2.5715167E-03;  0.0000000E+00;  1.9984895E-05;  1.0013321E+03;  1.0000000E-01;  1.1035737E+03;3;  4.8831102E-01;  0.0000000E+00; -3.0944985E-01;0; -5.0011589E-03;  4.0113836E+04;  0.0000000E+00; -4.0438047E-01;  4.0000000E+04;  0.0000000E+00;  3.9990848E+04; -5.0575607E-03;  0.0000000E+00;  5.6401914E-05;  1.3642738E+03;
  1.9125223E-01;  9.9999998E-03; -1.6000877E-01;3619; -2.5885496E-03;  0.0000000E+00; -9.5581045E-06;  1.0011799E+03;  1.0000000E-01;  9.7755261E+02;3;  5.5106407E-01;  0.0000000E+00; -1.0095233E-01;0; -5.5797379E-03;  4.0097133E+04;  0.0000000E+00; -3.4387019E-01;  4.0000000E+04;  0.0000000E+00;  3.9994926E+04; -5.6438548E-03;  0.0000000E+00;  6.4116859E-05;  9.0822455E+02;
  1.9125746E-01;  9.9999998E-03; -1.5003493E-01;3620; -2.6302242E-03;  0.0000000E+00; -2.7098969E-05;  1.0010193E+03;  1.0000000E-01;  8.4442053E+02;3;  5.7757926E-01;  0.0000000E+00; -3.7134588E-02;0; -6.1964137E-03;  4.0079801E+04;  0.0000000E+00; -2.4936822E-01;  4.0000000E+04;  0.0000000E+00;  3.9998566E+04; -6.3113752E-03;  0.0000000E+00;  1.1496146E-04;  4.4104883E+02;
  1.9124880E-01;  9.9999998E-03; -1.4006005E-01;3621; -2.6884750E-03;  0.0000000E+00; -3.1140131E-05;  1.0008577E+03;  1.0000000E-01;  7.1059717E+02;3;  5.8947778E-01;  0.0000000E+00; -2.8488258E-02;0; -6.8294830E-03;  4.0062938E+04;  0.0000000E+00; -1.6037285E-01;  4.0000000E+04;  0.0000000E+00;  4.0001797E+04; -7.0130541E-03;  0.0000000E+00;  1.8357120E-04;  2.7656543E+02;
  1.9122848E-01;  9.9999998E-03; -1.3007927E-01;3622; -2.7534924E-03;  0.0000000E+00; -2.0712627E-05;  1.0007113E+03;  1.0000000E-01;  5.8931665E+02;3;  5.9996837E-01;  0.0000000E+00; -2.6382230E-02;0; -7.4585495E-03;  4.0048430E+04;  0.0000000E+00; -9.2052184E-02;  4.0000000E+04;  0.0000000E+00;  4.0004066E+04; -7.7022030E-03;  0.0000000E+00;  2.4365370E-04;  4.4053488E+02;
  1.9120266E-01;  9.9999998E-03; -1.2009127E-01;3623; -2.8139735E-03;  0.0000000E+00;  1.0466289E-06;  1.0005797E+03;  1.0000000E-01;  4.8028271E+02;3;  6.0760087E-01;  0.0000000E+00; -2.3532268E-02;0; -8.0623543E-03;  4.0037230E+04;  0.0000000E+00; -4.7318470E-02;  4.0000000E+04;  0.0000000E+00;  4.0004266E+04; -8.3365366E-03;  0.0000000E+00;  2.7418209E-04;  4.9968134E+02;
  1.9118026E-01;  9.9999998E-03; -1.1009713E-01;3624; -2.8598921E-03;  0.0000000E+00;  2.4686658E-05;  1.0004712E+03;  1.0000000E-01;  3.9040872E+02;3;  6.1867499E-01;  0.0000000E+00; -2.1005718E-02;0; -8.6182840E-03;  4.0028836E+04;  0.0000000E+00; -2.4003349E-02;  4.0000000E+04;  0.0000000E+00;  4.0003227E+04; -8.8821389E-03;  0.0000000E+00;  2.6385454E-04;  3.9598624E+02;
  2.0095617E-01;  9.9999998E-03; -2.7014869E-01;3669; -2.3006801E-03;  0.0000000E+00; -1.4897222E-04;  9.9812341E+02;  1.0000000E-01; -1.5547214E+03;3;  1.8114420E+00;  0.0000000E+00; -5.7870135E+00;0; -7.3068095E-03;  3.9852703E+04;  0.0000000E+00;  1.2739379E+01;  4.0000000E+04;  0.0000000E+00;  3.9997645E+04; -8.8655865E-03;  0.0000000E+00;  1.5587772E-03;  2.0892994E+04;
  2.0086105E-01;  9.9999998E-03; -2.6018628E-01;3670; -2.8100947E-03;  0.0000000E+00;  6.4179963E-05;  9.9923883E+02;  1.0000000E-01; -6.3059943E+02;3; -2.4040787E+00;  0.0000000E+00; -1.1071073E+01;0; -6.8050902E-03;  3.9946910E+04;  0.0000000E+00;  1.0462688E+01;  4.0000000E+04;  0.0000000E+00;  3.9995199E+04; -7.8728870E-03;  0.0000000E+00;  1.0677967E-03;  1.6901096E+04;
  2.0080726E-01;  9.9999998E-03; -2.5024363E-01;3671; -3.0420087E-03;  0.0000000E+00;  2.2606971E-04;  9.9997229E+02;  1.0000000E-01; -2.2962313E+01;3; -4.4890304E+00;  0.0000000E+00; -1.1090415E+01;0; -5.6696255E-03;  4.0014578E+04;  0.0000000E+00;  7.8024759E+00;  4.0000000E+04;  0.0000000E+00;  3.9987672E+04; -6.4963317E-03;  0.0000000E+00;  8.2670606E-04;  1.2465888E+04;
  2.0075420E-01;  9.9999998E-03; -2.4028049E-01;3672; -3.0970324E-03;  0.0000000E+00;  2.3266347E-04;  1.0005604E+03;  1.0000000E-01;  4.6428317E+02;3; -4.5628061E+00;  0.0000000E+00; -1.0198122E+01;0; -4.3459022E-03;  4.0065051E+04;  0.0000000E+00;  5.7195196E+00;  4.0000000E+04;  0.0000000E+00;  3.9984613E+04; -5.2404720E-03;  0.0000000E+00;  8.9456956E-04;  9.0817402E+03;
  2.0072159E-01;  9.9999998E-03; -2.3026754E-01;3673; -3.0531425E-03;  0.0000000E+00;  1.8721374E-04;  1.0010244E+03;  1.0000000E-01;  8.4866736E+02;3; -3.6277208E+00;  0.0000000E+00; -8.7449942E+00;0; -3.3952813E-03;  4.0099898E+04;  0.0000000E+00;  3.9373581E+00;  4.0000000E+04;  0.0000000E+00;  3.9986785E+04; -4.2812470E-03;  0.0000000E+00;  8.8596588E-04;  6.2446636E+03;
  2.0074889E-01;  9.9999998E-03; -2.2020766E-01;3674; -2.9557508E-03;  0.0000000E+00;  1.5436455E-04;  1.0013278E+03;  1.0000000E-01;  1.1000183E+03;3; -2.4510179E+00;  0.0000000E+00; -6.6421251E+00;0; -2.9051017E-03;  4.0120930E+04;  0.0000000E+00;  2.3714554E+00;  4.0000000E+04;  0.0000000E+00;  3.9988746E+04; -3.6453228E-03;  0.0000000E+00;  7.4022094E-04;  3.8763176E+03;
  2.0082909E-01;  9.9999998E-03; -2.1012805E-01;3675; -2.8418608E-03;  0.0000000E+00;  1.2925458E-04;  1.0014816E+03;  1.0000000E-01;  1.2275209E+03;3; -1.3914964E+00;  0.0000000E+00; -4.4480767E+00;0; -2.7725690E-03;  4.0132172E+04;  0.0000000E+00;  1.1290003E+00;  4.0000000E+04;  0.0000000E+00;  3.9988730E+04; -3.3161256E-03;  0.0000000E+00;  5.4355658E-04;  2.2986589E+03;
  2.0090602E-01;  9.9999998E-03; -2.0007262E-01;3676; -2.7417557E-03;  0.0000000E+00;  9.7686403E-05;  1.0015132E+03;  1.0000000E-01;  1.2536930E+03;3; -5.6564385E-01;  0.0000000E+00; -2.6610055E+00;0; -2.9029106E-03;  4.0135887E+04;  0.0000000E+00;  2.6373959E-01;  4.0000000E+04;  0.0000000E+00;  3.9986477E+04; -3.2621208E-03;  0.0000000E+00;  3.5921027E-04;  1.8477662E+03;
  2.0099320E-01;  9.9999998E-03; -1.9002892E-01;3677; -2.6702390E-03;  0.0000000E+00;  6.0421356E-05;  1.0014805E+03;  1.0000000E-01;  1.2266320E+03;3;  7.9229569E-05;  0.0000000E+00; -1.4414585E+00;0; -3.2194427E-03;  4.0132230E+04;  0.0000000E+00; -2.4433427E-01;  4.0000000E+04;  0.0000000E+00;  3.9986176E+04; -3.4368192E-03;  0.0000000E+00;  2.1737658E-04;  1.9432507E+03;
  2.0106451E-01;  9.9999998E-03; -1.8001753E-01;3678; -2.6342997E-03;  0.0000000E+00;  2.4669998E-05;  1.0013907E+03;  1.0000000E-01;  1.1521649E+03;3;  3.3049282E-01;  0.0000000E+00; -6.8995821E-01;0; -3.6647385E-03;  4.0123422E+04;  0.0000000E+00; -4.5489651E-01;  4.0000000E+04;  0.0000000E+00;  3.9986656E+04; -3.7991216E-03;  0.0000000E+00;  1.3438320E-04;  1.9276357E+03;
  2.0111594E-01;  9.9999998E-03; -1.7002949E-01;3679; -2.6354508E-03;  0.0000000E+00; -4.7236858E-06;  1.0012701E+03;  1.0000000E-01;  1.0523159E+03;3;  4.9331856E-01;  0.0000000E+00; -2.8213111E-01;0; -4.1938578E-03;  4.0110805E+04;  0.0000000E+00; -4.5973036E-01;  4.0000000E+04;  0.0000000E+00;  3.9988969E+04; -4.3060551E-03;  0.0000000E+00;  1.1219735E-04;  1.6464358E+03;
  2.0114915E-01;  9.9999998E-03; -1.6005099E-01;3680; -2.6715153E-03;  0.0000000E+00; -2.3723147E-05;  1.0011342E+03;  1.0000000E-01;  9.3962775E+02;3;  5.6137657E-01;  0.0000000E+00; -1.0295524E-01;0; -4.7743618E-03;  4.0095898E+04;  0.0000000E+00; -3.5888353E-01;  4.0000000E+04;  0.0000000E+00;  3.9992105E+04; -4.9140425E-03;  0.0000000E+00;  1.3968075E-04;  1.2075737E+03;
  2.0116374E-01;  9.9999998E-03; -1.5007369E-01;3681; -2.7362916E-03;  0.0000000E+00; -2.9051918E-05;  1.0009955E+03;  1.0000000E-01;  8.2476678E+02;3;  5.8189738E-01;  0.0000000E+00; -4.9920317E-02;0; -5.3823194E-03;  4.0080496E+04;  0.0000000E+00; -2.3191167E-01;  4.0000000E+04;  0.0000000E+00;  3.9995133E+04; -5.5786329E-03;  0.0000000E+00;  1.9631354E-04;  7.5278290E+02;
  2.0116571E-01;  9.9999998E-03; -1.4009209E-01;3682; -2.8191055E-03;  0.0000000E+00; -2.0864758E-05;  1.0008581E+03;  1.0000000E-01;  7.1089349E+02;3;  5.9080827E-01;  0.0000000E+00; -4.2392809E-02;0; -5.9973975E-03;  4.0066375E+04;  0.0000000E+00; -1.2398955E-01;  4.0000000E+04;  0.0000000E+00;  3.9997629E+04; -6.2548961E-03;  0.0000000E+00;  2.5749853E-04;  3.8676346E+02;
  2.0116374E-01;  9.9999998E-03; -1.3010330E-01;3683; -2.9073420E-03;  0.0000000E+00; -2.3939549E-06;  1.0007338E+03;  1.0000000E-01;  6.0798279E+02;3;  5.9582824E-01;  0.0000000E+00; -3.8478475E-02;0; -6.6000638E-03;  4.0054707E+04;  0.0000000E+00; -4.9873937E-02;  4.0000000E+04;  0.0000000E+00;  3.9999652E+04; -6.9001568E-03;  0.0000000E+00;  3.0009291E-04;  1.6754305E+02;
  2.0116851E-01;  9.9999998E-03; -1.2010764E-01;3684; -2.9877261E-03;  0.0000000E+00;  2.0219291E-05;  1.0006332E+03;  1.0000000E-01;  5.2462714E+02;3;  6.0467541E-01;  0.0000000E+00; -3.6108606E-02;0; -7.1696863E-03;  4.0045922E+04;  0.0000000E+00; -8.5362205E-03;  4.0000000E+04;  0.0000000E+00;  3.9999711E+04; -7.4774292E-03;  0.0000000E+00;  3.0774309E-04;  1.1991633E+02;
  2.0118456E-01;  9.9999998E-03; -1.1010645E-01;3685; -3.0473012E-03;  0.0000000E+00;  3.8161568E-05;  1.0005570E+03;  1.0000000E-01;  4.6151782E+02;3;  6.1808389E-01;  0.0000000E+00; -3.5191316E-02;0; -7.6848948E-03;  4.0040629E+04;  0.0000000E+00;  6.7081223E-03;  4.0000000E+04;  0.0000000E+00;  3.9998484E+04; -7.9592885E-03;  0.0000000E+00;  2.7439382E-04;  2.3182382E+02;
  2.1086581E-01;  9.9999998E-03; -2.7014989E-01;3730; -1.9771373E-03;  0.0000000E+00; -2.0616787E-04;  9.9853937E+02;  1.0000000E-01; -1.2100892E+03;3; -3.1428630E+00;  0.0000000E+00; -9.0080047E-01;0; -4.4437088E-03;  3.9898164E+04;  0.0000000E+00;  1.1746067E+01;  4.0000000E+04;  0.0000000E+00;  3.9986527E+04; -6.2782019E-03;  0.0000000E+00;  1.8344934E-03;  1.9358307E+04;
  2.1072841E-01;  9.9999998E-03; -2.6017120E-01;3731; -2.6416846E-03;  0.0000000E+00;  5.3071140E-05;  9.9958063E+02;  1.0000000E-01; -3.4744696E+02;3; -5.2604332E+00;  0.0000000E+00; -7.4755945E+00;0; -4.9500638E-03;  3.9984742E+04;  0.0000000E+00;  1.0690278E+01;  4.0000000E+04;  0.0000000E+00;  3.9985715E+04; -5.8267596E-03;  0.0000000E+00;  8.7669585E-04;  1.7222656E+04;
  2.1067369E-01;  9.9999998E-03; -2.5021487E-01;3732; -3.0127284E-03;  0.0000000E+00;  2.7263077E-04;  1.0001512E+03;  1.0000000E-01;  1.2532979E+02;3; -6.1819921E+00;  0.0000000E+00; -8.2857990E+00;0; -4.4282959E-03;  4.0038160E+04;  0.0000000E+00;  7.9996972E+00;  4.0000000E+04;  0.0000000E+00;  3.9978777E+04; -4.7804890E-03;  0.0000000E+00;  3.5219328E-04;  1.2875475E+04;
  2.1063685E-01;  9.9999998E-03; -2.4025342E-01;3733; -3.1003775E-03;  0.0000000E+00;  2.7985827E-04;  1.0005704E+03;  1.0000000E-01;  4.7257922E+02;3; -5.5745950E+00;  0.0000000E+00; -7.7781048E+00;0; -3.1808973E-03;  4.0075617E+04;  0.0000000E+00;  5.7479692E+00;  4.0000000E+04;  0.0000000E+00;  3.9975410E+04; -3.6639650E-03;  0.0000000E+00;  4.8306762E-04;  9.4237979E+03;
  2.1062976E-01;  9.9999998E-03; -2.3024206E-01;3734; -3.0689975E-03;  0.0000000E+00;  1.7858257E-04;  1.0009303E+03;  1.0000000E-01;  7.7074365E+02;3; -4.1404486E+00;  0.0000000E+00; -7.0351906E+00;0; -2.1749153E-03;  4.0100043E+04;  0.0000000E+00;  3.8696182E+00;  4.0000000E+04;  0.0000000E+00;  3.9978570E+04; -2.8182562E-03;  0.0000000E+00;  6.4334093E-04;  6.4850513E+03;
  2.1067923E-01;  9.9999998E-03; -2.2017743E-01;3735; -2.9686631E-03;  0.0000000E+00;  1.0442064E-04;  1.0011810E+03;  1.0000000E-01;  9.7844147E+02;3; -2.6572490E+00;  0.0000000E+00; -5.5736332E+00;0; -1.6999147E-03;  4.0113832E+04;  0.0000000E+00;  2.2743995E+00;  4.0000000E+04;  0.0000000E+00;  3.9984102E+04; -2.2889131E-03;  0.0000000E+00;  5.8899837E-04;  4.0217893E+03;
  2.1074148E-01;  9.9999998E-03; -2.1011485E-01;3736; -2.8440827E-03;  0.0000000E+00;  7.1511924E-05;  1.0012988E+03;  1.0000000E-01;  1.0760189E+03;3; -1.4615202E+00;  0.0000000E+00; -3.7611082E+00;0; -1.6290518E-03;  4.0120656E+04;  0.0000000E+00;  1.0476162E+00;  4.0000000E+04;  0.0000000E+00;  3.9985090E+04; -2.0684206E-03;  0.0000000E+00;  4.3936886E-04;  2.5388660E+03;
  2.1081029E-01;  9.9999998E-03; -2.0007041E-01;3737; -2.7378779E-03;  0.0000000E+00;  4.1625659E-05;  1.0013221E+03;  1.0000000E-01;  1.0952777E+03;3; -5.7531863E-01;  0.0000000E+00; -2.2634933E+00;0; -1.8104062E-03;  4.0121695E+04;  0.0000000E+00;  2.0216468E-01;  4.0000000E+04;  0.0000000E+00;  3.9984047E+04; -2.1121188E-03;  0.0000000E+00;  3.0171257E-04;  2.1053540E+03;
  2.1089286E-01;  9.9999998E-03; -1.9004308E-01;3738; -2.6688192E-03;  0.0000000E+00;  9.1903548E-06;  1.0012795E+03;  1.0000000E-01;  1.0601182E+03;3;  1.1165202E-02;  0.0000000E+00; -1.2276771E+00;0; -2.1574537E-03;  4.0117488E+04;  0.0000000E+00; -2.7663660E-01;  4.0000000E+04;  0.0000000E+00;  3.9984059E+04; -2.3655547E-03;  0.0000000E+00;  2.0810093E-04;  2.1374199E+03;
  2.1095996E-01;  9.9999998E-03; -1.8004668E-01;3739; -2.6409563E-03;  0.0000000E+00; -2.0991996E-05;  1.0012037E+03;  1.0000000E-01;  9.9730511E+02;3;  3.4657910E-01;  0.0000000E+00; -5.9053797E-01;0; -2.6116276E-03;  4.0109320E+04;  0.0000000E+00; -4.5067093E-01;  4.0000000E+04;  0.0000000E+00;  3.9985141E+04; -2.7810470E-03;  0.0000000E+00;  1.6941939E-04;  2.0721968E+03;
  2.1101430E-01;  9.9999998E-03; -1.7006545E-01;3740; -2.6559024E-03;  0.0000000E+00; -4.1705211E-05;  1.0011089E+03;  1.0000000E-01;  9.1869006E+02;3;  5.0882488E-01;  0.0000000E+00; -2.4985027E-01;0; -3.1293575E-03;  4.0098484E+04;  0.0000000E+00; -4.1935787E-01;  4.0000000E+04;  0.0000000E+00;  3.9987289E+04; -3.3117521E-03;  0.0000000E+00;  1.8239475E-04;  1.7903387E+03;
  2.1105395E-01;  9.9999998E-03; -1.6008829E-01;3741; -2.7113063E-03;  0.0000000E+00; -4.6553145E-05;  1.0010005E+03;  1.0000000E-01;  8.2891486E+02;3;  5.7261443E-01;  0.0000000E+00; -1.0467930E-01;0; -3.6815067E-03;  4.0086762E+04;  0.0000000E+00; -2.9042044E-01;  4.0000000E+04;  0.0000000E+00;  3.9989914E+04; -3.9136750E-03;  0.0000000E+00;  2.3216827E-04;  1.4053583E+03;
  2.1108402E-01;  9.9999998E-03; -1.5010695E-01;3742; -2.8002730E-03;  0.0000000E+00; -3.4844474E-05;  1.0008967E+03;  1.0000000E-01;  7.4289258E+02;3;  5.8997041E-01;  0.0000000E+00; -6.3600488E-02;0; -4.2476775E-03;  4.0075250E+04;  0.0000000E+00; -1.4857545E-01;  4.0000000E+04;  0.0000000E+00;  3.9992621E+04; -4.5437873E-03;  0.0000000E+00;  2.9610962E-04;  1.0448376E+03;
  2.1111336E-01;  9.9999998E-03; -1.4011586E-01;3743; -2.9109330E-03;  0.0000000E+00; -1.1168681E-05;  1.0008009E+03;  1.0000000E-01;  6.6348743E+02;3;  5.8751380E-01;  0.0000000E+00; -5.5459555E-02;0; -4.8112907E-03;  4.0065207E+04;  0.0000000E+00; -3.9528616E-02;  4.0000000E+04;  0.0000000E+00;  3.9994410E+04; -5.1612621E-03;  0.0000000E+00;  3.4997170E-04;  7.8966486E+02;
  2.1115077E-01;  9.9999998E-03; -1.3011254E-01;3744; -3.0241122E-03;  0.0000000E+00;  1.5171392E-05;  1.0007247E+03;  1.0000000E-01;  6.0037805E+02;3;  5.9681970E-01;  0.0000000E+00; -5.1680084E-02;0; -5.3559798E-03;  4.0057949E+04;  0.0000000E+00;  2.5775807E-02;  4.0000000E+04;  0.0000000E+00;  3.9995145E+04; -5.7297945E-03;  0.0000000E+00;  3.7381481E-04;  6.7104547E+02;
  2.1120690E-01;  9.9999998E-03; -1.2009928E-01;3745; -3.1212685E-03;  0.0000000E+00;  3.5904184E-05;  1.0006734E+03;  1.0000000E-01;  5.5791016E+02;3;  6.0950994E-01;  0.0000000E+00; -4.9989969E-02;0; -5.8632586E-03;  4.0053691E+04;  0.0000000E+00;  5.3651161E-02;  4.0000000E+04;  0.0000000E+00;  3.9995117E+04; -6.2196394E-03;  0.0000000E+00;  3.5638068E-04;  6.8461176E+02;
  2.1129057E-01;  9.9999998E-03; -1.1007579E-01;3746; -3.1935435E-03;  0.0000000E+00;  4.6982695E-05;  1.0006509E+03;  1.0000000E-01;  5.3924402E+02;3;  6.2364906E-01;  0.0000000E+00; -4.9420837E-02;0; -6.3128686E-03;  4.0052738E+04;  0.0000000E+00;  5.5256881E-02;  4.0000000E+04;  0.0000000E+00;  3.9994461E+04; -6.6102031E-03;  0.0000000E+00;  2.9733466E-04;  8.0894635E+02;
  2.2086369E-01;  9.9999998E-03; -2.7012539E-01;3791; -1.8067359E-03;  0.0000000E+00; -2.9843792E-04;  9.9886548E+02;  1.0000000E-01; -9.3992401E+02;3; -6.9377294E+00;  0.0000000E+00; -2.8268352E-01;0; -1.3904364E-03;  3.9927023E+04;  0.0000000E+00;  9.4861469E+00;  4.0000000E+04;  0.0000000E+00;  3.9985719E+04; -3.7845520E-03;  0.0000000E+00;  2.3941156E-03;  1.5793089E+04;
  2.2067882E-01;  9.9999998E-03; -2.6013705E-01;3792; -2.3746190E-03;  0.0000000E+00; -1.0452899E-04;  9.9982318E+02;  1.0000000E-01; -1.4651437E+02;3; -7.2066374E+00;  0.0000000E+00; -6.1377654E+00;0; -2.0842676E-03;  4.0006773E+04;  0.0000000E+00;  1.0265458E+01;  4.0000000E+04;  0.0000000E+00;  3.9984406E+04; -3.4276554E-03;  0.0000000E+00;  1.3433879E-03;  1.6422268E+04;
  2.2061114E-01;  9.9999998E-03; -2.5015968E-01;3793; -2.9263212E-03;  0.0000000E+00;  2.2336200E-04;  1.0002827E+03;  1.0000000E-01;  2.3416621E+02;3; -6.9654918E+00;  0.0000000E+00; -7.4220328E+00;0; -2.7244007E-03;  4.0048887E+04;  0.0000000E+00;  7.9318409E+00;  4.0000000E+04;  0.0000000E+00;  3.9980410E+04; -2.8449714E-03;  0.0000000E+00;  1.2057074E-04;  1.2635916E+04;
  2.2058672E-01;  9.9999998E-03; -2.4018493E-01;3794; -3.0445356E-03;  0.0000000E+00;  2.5056864E-04;  1.0005579E+03;  1.0000000E-01;  4.6220914E+02;3; -5.8313737E+00;  0.0000000E+00; -6.8547421E+00;0; -1.7356102E-03;  4.0074102E+04;  0.0000000E+00;  5.6155238E+00;  4.0000000E+04;  0.0000000E+00;  3.9976215E+04; -1.9340961E-03;  0.0000000E+00;  1.9848590E-04;  9.1522705E+03;
  2.2060013E-01;  9.9999998E-03; -2.3016638E-01;3795; -3.0151289E-03;  0.0000000E+00;  1.3093727E-04;  1.0008063E+03;  1.0000000E-01;  6.6803052E+02;3; -4.1402988E+00;  0.0000000E+00; -6.1095004E+00;0; -7.9423143E-04;  4.0088961E+04;  0.0000000E+00;  3.6930628E+00;  4.0000000E+04;  0.0000000E+00;  3.9980113E+04; -1.2486995E-03;  0.0000000E+00;  4.5446810E-04;  6.1748447E+03;
  2.2063428E-01;  9.9999998E-03; -2.2011834E-01;3796; -2.9071285E-03;  0.0000000E+00;  5.1794166E-05;  1.0009702E+03;  1.0000000E-01;  8.0373035E+02;3; -2.5841911E+00;  0.0000000E+00; -4.6977692E+00;0; -4.1665958E-04;  4.0096988E+04;  0.0000000E+00;  2.1570451E+00;  4.0000000E+04;  0.0000000E+00;  3.9983996E+04; -8.6575432E-04;  0.0000000E+00;  4.4909475E-04;  3.8795413E+03;
  2.2067922E-01;  9.9999998E-03; -2.1008027E-01;3797; -2.7770170E-03;  0.0000000E+00;  1.6417533E-05;  1.0010317E+03;  1.0000000E-01;  8.5469189E+02;3; -1.3681822E+00;  0.0000000E+00; -3.1130106E+00;0; -4.2958450E-04;  4.0099855E+04;  0.0000000E+00;  9.9044567E-01;  4.0000000E+04;  0.0000000E+00;  3.9984273E+04; -7.7192741E-04;  0.0000000E+00;  3.4234292E-04;  2.5598394E+03;
  2.2075081E-01;  9.9999998E-03; -2.0005262E-01;3798; -2.6715656E-03;  0.0000000E+00; -1.9943645E-05;  1.0010297E+03;  1.0000000E-01;  8.5301294E+02;3; -4.8460898E-01;  0.0000000E+00; -1.8537161E+00;0; -6.6122331E-04;  4.0098746E+04;  0.0000000E+00;  2.0623186E-01;  4.0000000E+04;  0.0000000E+00;  3.9983496E+04; -9.1465848E-04;  0.0000000E+00;  2.5343520E-04;  2.1558311E+03;
  2.2083381E-01;  9.9999998E-03; -1.9004568E-01;3799; -2.6064012E-03;  0.0000000E+00; -6.6579240E-05;  1.0009870E+03;  1.0000000E-01;  8.1775464E+02;3;  8.0947511E-02;  0.0000000E+00; -1.0013107E+00;0; -1.0275574E-03;  4.0094000E+04;  0.0000000E+00; -2.1265043E-01;  4.0000000E+04;  0.0000000E+00;  3.9983738E+04; -1.2365669E-03;  0.0000000E+00;  2.0900955E-04;  2.1473523E+03;
  2.2090396E-01;  9.9999998E-03; -1.8006192E-01;3800; -2.5888931E-03;  0.0000000E+00; -9.7992481E-05;  1.0009294E+03;  1.0000000E-01;  7.7005231E+02;3;  3.9663666E-01;  0.0000000E+00; -4.9090236E-01;0; -1.4743917E-03;  4.0087641E+04;  0.0000000E+00; -3.3809844E-01;  4.0000000E+04;  0.0000000E+00;  3.9984445E+04; -1.6861920E-03;  0.0000000E+00;  2.1180033E-04;  2.0487324E+03;
  2.2095872E-01;  9.9999998E-03; -1.7008771E-01;3801; -2.6226346E-03;  0.0000000E+00; -1.0517112E-04;  1.0008658E+03;  1.0000000E-01;  7.1731305E+02;3;  5.4446042E-01;  0.0000000E+00; -2.2140713E-01;0; -1.9581215E-03;  4.0079812E+04;  0.0000000E+00; -2.7650002E-01;  4.0000000E+04;  0.0000000E+00;  3.9986375E+04; -2.2162630E-03;  0.0000000E+00;  2.5814134E-04;  1.7953735E+03;
  2.2100346E-01;  9.9999998E-03; -1.6011156E-01;3802; -2.7022166E-03;  0.0000000E+00; -8.8151261E-05;  1.0008062E+03;  1.0000000E-01;  6.6783295E+02;3;  5.9690428E-01;  0.0000000E+00; -1.0949060E-01;0; -2.4537432E-03;  4.0072113E+04;  0.0000000E+00; -1.3746861E-01;  4.0000000E+04;  0.0000000E+00;  3.9988652E+04; -2.7837278E-03;  0.0000000E+00;  3.2998464E-04;  1.5022657E+03;
  2.2105905E-01;  9.9999998E-03; -1.5012275E-01;3803; -2.8186897E-03;  0.0000000E+00; -5.2165880E-05;  1.0007515E+03;  1.0000000E-01;  6.2259967E+02;3;  6.0111278E-01;  0.0000000E+00; -7.7444315E-02;0; -2.9466362E-03;  4.0065785E+04;  0.0000000E+00; -3.2979732E-03;  4.0000000E+04;  0.0000000E+00;  3.9990535E+04; -3.3482241E-03;  0.0000000E+00;  4.0158792E-04;  1.2709175E+03;
  2.2114234E-01;  9.9999998E-03; -1.4011203E-01;3804; -2.9585601E-03;  0.0000000E+00; -9.4993020E-06;  1.0007170E+03;  1.0000000E-01;  5.9405725E+02;3;  5.9188837E-01;  0.0000000E+00; -6.8064399E-02;0; -3.4260920E-03;  4.0061594E+04;  0.0000000E+00;  8.6352877E-02;  4.0000000E+04;  0.0000000E+00;  3.9991234E+04; -3.8743634E-03;  0.0000000E+00;  4.4827137E-04;  1.1384353E+03;
  2.2125939E-01;  9.9999998E-03; -1.3007557E-01;3805; -3.0952524E-03;  0.0000000E+00;  2.5577014E-05;  1.0007064E+03;  1.0000000E-01;  5.8516864E+02;3;  6.0264134E-01;  0.0000000E+00; -6.5090075E-02;0; -3.8810307E-03;  4.0059957E+04;  0.0000000E+00;  1.2789062E-01;  4.0000000E+04;  0.0000000E+00;  3.9991832E+04; -4.3339981E-03;  0.0000000E+00;  4.5296742E-04;  1.1026189E+03;
  2.2138114E-01;  9.9999998E-03; -1.2003686E-01;3806; -3.2095062E-03;  0.0000000E+00;  4.5290068E-05;  1.0007159E+03;  1.0000000E-01;  5.9306964E+02;3;  6.1501557E-01;  0.0000000E+00; -6.3862480E-02;0; -4.3018470E-03;  4.0061430E+04;  0.0000000E+00;  1.3312708E-01;  4.0000000E+04;  0.0000000E+00;  3.9991246E+04; -4.7112606E-03;  0.0000000E+00;  4.0941348E-04;  1.1527634E+03;
  2.2146325E-01;  9.9999998E-03; -1.1001163E-01;3807; -3.2917880E-03;  0.0000000E+00;  4.9981743E-05;  1.0007539E+03;  1.0000000E-01;  6.2457495E+02;3;  6.2937737E-01;  0.0000000E+00; -6.3094735E-02;0; -4.6799672E-03;  4.0065094E+04;  0.0000000E+00;  1.1663087E-01;  4.0000000E+04;  0.0000000E+00;  3.9990535E+04; -5.0035091E-03;  0.0000000E+00;  3.2354190E-04;  1.2737371E+03;
  2.3088638E-01;  9.9999998E-03; -2.7009720E-01;3852; -1.7801101E-03;  0.0000000E+00; -3.1612566E-04;  9.9916254E+02;  1.0000000E-01; -6.9380756E+02;3; -9.4836416E+00;  0.0000000E+00; -1.1725603E+00;0;  9.8406780E-04;  3.9950262E+04;  0.0000000E+00;  6.5827603E+00;  4.0000000E+04;  0.0000000E+00;  3.9988492E+04; -1.6185639E-03;  0.0000000E+00;  2.6026317E-03;  1.1272239E+04;
  2.3071072E-01;  9.9999998E-03; -2.6010054E-01;3853; -2.1477211E-03;  0.0000000E+00; -3.0276520E-04;  9.9993555E+02;  1.0000000E-01; -5.3381207E+01;3; -8.2585182E+00;  0.0000000E+00; -5.8852091E+00;0;  1.0903282E-03;  4.0013957E+04;  0.0000000E+00;  8.3010521E+00;  4.0000000E+04;  0.0000000E+00;  3.9988219E+04; -1.1491752E-03;  0.0000000E+00;  2.2395034E-03;  1.3328702E+04;
  2.3062500E-01;  9.9999998E-03; -2.5010395E-01;3854; -2.7977130E-03;  0.0000000E+00;  7.3628027E-05;  1.0003188E+03;  1.0000000E-01;  2.6409131E+02;3; -7.0580902E+00;  0.0000000E+00; -7.1467352E+00;0; -5.8573636E-04;  4.0046246E+04;  0.0000000E+00;  6.9617467E+00;  4.0000000E+04;  0.0000000E+00;  3.9986402E+04; -9.1660407E-04;  0.0000000E+00;  3.3086771E-04;  1.0982838E+04;
  2.3060374E-01;  9.9999998E-03; -2.4010558E-01;3855; -2.9403456E-03;  0.0000000E+00;  1.1580486E-04;  1.0005070E+03;  1.0000000E-01;  4.2003751E+02;3; -5.4745483E+00;  0.0000000E+00; -6.5393844E+00;0; -1.6574370E-05;  4.0062078E+04;  0.0000000E+00;  4.9992127E+00;  4.0000000E+04;  0.0000000E+00;  3.9984762E+04; -2.4982053E-04;  0.0000000E+00;  2.3324616E-04;  7.9334673E+03;
  2.3059659E-01;  9.9999998E-03; -2.3008640E-01;3856; -2.8964886E-03;  0.0000000E+00;  4.3792392E-05;  1.0006442E+03;  1.0000000E-01;  5.3371332E+02;3; -3.7600503E+00;  0.0000000E+00; -5.3822303E+00;0;  6.0735137E-04;  4.0070355E+04;  0.0000000E+00;  3.3488586E+00;  4.0000000E+04;  0.0000000E+00;  3.9986047E+04;  2.4044095E-04;  0.0000000E+00;  3.6691042E-04;  5.4062178E+03;
  2.3060820E-01;  9.9999998E-03; -2.2005865E-01;3857; -2.7672001E-03;  0.0000000E+00; -7.0524043E-06;  1.0007118E+03;  1.0000000E-01;  5.8971173E+02;3; -2.2768414E+00;  0.0000000E+00; -3.8851407E+00;0;  7.9478050E-04;  4.0073191E+04;  0.0000000E+00;  1.9761444E+00;  4.0000000E+04;  0.0000000E+00;  3.9986695E+04;  4.5742735E-04;  0.0000000E+00;  3.3735315E-04;  3.4656289E+03;
  2.3066004E-01;  9.9999998E-03; -2.1003585E-01;3858; -2.6133377E-03;  0.0000000E+00; -5.7021629E-05;  1.0007117E+03;  1.0000000E-01;  5.8961298E+02;3; -1.1054558E+00;  0.0000000E+00; -2.4977357E+00;0;  6.9517386E-04;  4.0072379E+04;  0.0000000E+00;  9.3168020E-01;  4.0000000E+04;  0.0000000E+00;  3.9985652E+04;  4.2140720E-04;  0.0000000E+00;  2.7376667E-04;  2.3318547E+03;
  2.3073994E-01;  9.9999998E-03; -2.0002668E-01;3859; -2.4899170E-03;  0.0000000E+00; -1.2915014E-04;  1.0006850E+03;  1.0000000E-01;  5.6749011E+02;3; -2.5584733E-01;  0.0000000E+00; -1.4712294E+00;0;  4.1801907E-04;  4.0069582E+04;  0.0000000E+00;  2.6525357E-01;  4.0000000E+04;  0.0000000E+00;  3.9984660E+04;  1.8419151E-04;  0.0000000E+00;  2.3382755E-04;  2.0155588E+03;
  2.3081823E-01;  9.9999998E-03; -1.9003932E-01;3860; -2.4467399E-03;  0.0000000E+00; -1.8953532E-04;  1.0006489E+03;  1.0000000E-01;  5.3756506E+02;3;  2.6619479E-01;  0.0000000E+00; -8.0532628E-01;0;  2.7015180E-05;  4.0066051E+04;  0.0000000E+00; -6.0659837E-02;  4.0000000E+04;  0.0000000E+00;  3.9984172E+04; -1.9543928E-04;  0.0000000E+00;  2.2245446E-04;  1.9986357E+03;
  2.3089242E-01;  9.9999998E-03; -1.8006454E-01;3861; -2.4685811E-03;  0.0000000E+00; -2.1893394E-04;  1.0006192E+03;  1.0000000E-01;  5.1297314E+02;3;  5.1751179E-01;  0.0000000E+00; -4.2497233E-01;0; -4.0506042E-04;  4.0061777E+04;  0.0000000E+00; -1.3013202E-01;  4.0000000E+04;  0.0000000E+00;  3.9985277E+04; -6.5972994E-04;  0.0000000E+00;  2.5466952E-04;  1.8928003E+03;
  2.3096439E-01;  9.9999998E-03; -1.7009102E-01;3862; -2.5361776E-03;  0.0000000E+00; -2.0612995E-04;  1.0006006E+03;  1.0000000E-01;  4.9756616E+02;3;  6.2432832E-01;  0.0000000E+00; -2.1892826E-01;0; -8.3550112E-04;  4.0058359E+04;  0.0000000E+00; -4.9894549E-02;  4.0000000E+04;  0.0000000E+00;  3.9986727E+04; -1.1626480E-03;  0.0000000E+00;  3.2714684E-04;  1.7013799E+03;
  2.3104370E-01;  9.9999998E-03; -1.6010591E-01;3863; -2.6460967E-03;  0.0000000E+00; -1.5849581E-04;  1.0005959E+03;  1.0000000E-01;  4.9371442E+02;3;  6.4547557E-01;  0.0000000E+00; -1.3083120E-01;0; -1.2477437E-03;  4.0055922E+04;  0.0000000E+00;  7.7076674E-02;  4.0000000E+04;  0.0000000E+00;  3.9988145E+04; -1.6656414E-03;  0.0000000E+00;  4.1789768E-04;  1.5278491E+03;
  2.3114575E-01;  9.9999998E-03; -1.5009536E-01;3864; -2.7908934E-03;  0.0000000E+00; -8.8011853E-05;  1.0006097E+03;  1.0000000E-01;  5.0517090E+02;3;  6.3207376E-01;  0.0000000E+00; -9.8675013E-02;0; -1.6395219E-03;  4.0055555E+04;  0.0000000E+00;  1.7963339E-01;  4.0000000E+04;  0.0000000E+00;  3.9989219E+04; -2.1357292E-03;  0.0000000E+00;  4.9620727E-04;  1.4254515E+03;
  2.3128499E-01;  9.9999998E-03; -1.4005892E-01;3865; -2.9617252E-03;  0.0000000E+00; -1.9283354E-05;  1.0006440E+03;  1.0000000E-01;  5.3351575E+02;3;  5.9982121E-01;  0.0000000E+00; -8.0864839E-02;0; -2.0106009E-03;  4.0057875E+04;  0.0000000E+00;  2.3052156E-01;  4.0000000E+04;  0.0000000E+00;  3.9989543E+04; -2.5460515E-03;  0.0000000E+00;  5.3545058E-04;  1.3879735E+03;
  2.3140959E-01;  9.9999998E-03; -1.3002214E-01;3866; -3.1210803E-03;  0.0000000E+00;  2.7929758E-05;  1.0007030E+03;  1.0000000E-01;  5.8240326E+02;3;  6.0820264E-01;  0.0000000E+00; -7.7036656E-02;0; -2.3651503E-03;  4.0062750E+04;  0.0000000E+00;  2.3550475E-01;  4.0000000E+04;  0.0000000E+00;  3.9989492E+04; -2.8860823E-03;  0.0000000E+00;  5.2093208E-04;  1.4013124E+03;
  2.3147914E-01;  9.9999998E-03; -1.1999855E-01;3867; -3.2471863E-03;  0.0000000E+00;  4.7923935E-05;  1.0007784E+03;  1.0000000E-01;  6.4492004E+02;3;  6.2094843E-01;  0.0000000E+00; -7.5551845E-02;0; -2.7031817E-03;  4.0069367E+04;  0.0000000E+00;  2.1186939E-01;  4.0000000E+04;  0.0000000E+00;  3.9988906E+04; -3.1555742E-03;  0.0000000E+00;  4.5239241E-04;  1.4641144E+03;
  2.3150119E-01;  9.9999998E-03; -1.0998694E-01;3868; -3.3340962E-03;  0.0000000E+00;  4.8383936E-05;  1.0008654E+03;  1.0000000E-01;  7.1691797E+02;3;  6.3473034E-01;  0.0000000E+00; -7.6080561E-02;0; -3.0136278E-03;  4.0077578E+04;  0.0000000E+00;  1.7579639E-01;  4.0000000E+04;  0.0000000E+00;  3.9988137E+04; -3.3555371E-03;  0.0000000E+00;  3.4190921E-04;  1.5748594E+03;
  2.4089926E-01;  9.9999998E-03; -2.7007216E-01;3913; -1.8201615E-03;  0.0000000E+00; -2.6501049E-04;  9.9945709E+02;  1.0000000E-01; -4.4976505E+02;3; -1.0626307E+01;  0.0000000E+00; -2.2124274E+00;0;  2.5169442E-03;  3.9973223E+04;  0.0000000E+00;  3.9210358E+00;  4.0000000E+04;  0.0000000E+00;  3.9991164E+04;  2.2027059E-04;  0.0000000E+00;  2.2966736E-03;  7.1624473E+03;
  2.4077961E-01;  9.9999998E-03; -2.6006982E-01;3914; -2.0912366E-03;  0.0000000E+00; -3.7656724E-04;  9.9997491E+02;  1.0000000E-01; -2.0789536E+01;3; -8.4615421E+00;  0.0000000E+00; -5.7190003E+00;0;  3.3037786E-03;  4.0014168E+04;  0.0000000E+00;  5.3662372E+00;  4.0000000E+04;  0.0000000E+00;  3.9992570E+04;  6.5229065E-04;  0.0000000E+00;  2.6514879E-03;  8.8614619E+03;
  2.4068999E-01;  9.9999998E-03; -2.5006118E-01;3915; -2.5810364E-03;  0.0000000E+00; -1.6596344E-04;  1.0002625E+03;  1.0000000E-01;  2.1747533E+02;3; -6.6601572E+00;  0.0000000E+00; -6.5766897E+00;0;  1.9732686E-03;  4.0035824E+04;  0.0000000E+00;  5.1599607E+00;  4.0000000E+04;  0.0000000E+00;  3.9993316E+04;  8.5056154E-04;  0.0000000E+00;  1.1227070E-03;  8.1724453E+03;
  2.4062900E-01;  9.9999998E-03; -2.4004857E-01;3916; -2.7571318E-03;  0.0000000E+00; -5.8445596E-05;  1.0003956E+03;  1.0000000E-01;  3.2769443E+02;3; -4.8191013E+00;  0.0000000E+00; -5.8471255E+00;0;  1.7357753E-03;  4.0045512E+04;  0.0000000E+00;  4.1207352E+00;  4.0000000E+04;  0.0000000E+00;  3.9992930E+04;  1.2306398E-03;  0.0000000E+00;  5.0513545E-04;  6.4206846E+03;
  2.4059543E-01;  9.9999998E-03; -2.3002768E-01;3917; -2.6766902E-03;  0.0000000E+00; -7.4614436E-05;  1.0004396E+03;  1.0000000E-01;  3.6423660E+02;3; -3.1582658E+00;  0.0000000E+00; -4.5281529E+00;0;  1.9107762E-03;  4.0047508E+04;  0.0000000E+00;  2.8646827E+00;  4.0000000E+04;  0.0000000E+00;  3.9992277E+04;  1.5093789E-03;  0.0000000E+00;  4.0139735E-04;  4.4771289E+03;
  2.4061354E-01;  9.9999998E-03; -2.2000439E-01;3918; -2.4701331E-03;  0.0000000E+00; -1.2441420E-04;  1.0004231E+03;  1.0000000E-01;  3.5050861E+02;3; -1.7040951E+00;  0.0000000E+00; -3.1178627E+00;0;  1.8980876E-03;  4.0045387E+04;  0.0000000E+00;  1.7058200E+00;  4.0000000E+04;  0.0000000E+00;  3.9991359E+04;  1.5617402E-03;  0.0000000E+00;  3.3634741E-04;  2.8327097E+03;
  2.4066979E-01;  9.9999998E-03; -2.0999436E-01;3919; -2.3120316E-03;  0.0000000E+00; -1.9627778E-04;  1.0003738E+03;  1.0000000E-01;  3.0962088E+02;3; -5.7912207E-01;  0.0000000E+00; -1.9795336E+00;0;  1.6658717E-03;  4.0042172E+04;  0.0000000E+00;  8.6701310E-01;  4.0000000E+04;  0.0000000E+00;  3.9988902E+04;  1.3862583E-03;  0.0000000E+00;  2.7961345E-04;  1.9523818E+03;
  2.4074179E-01;  9.9999998E-03; -2.0000499E-01;3920; -2.2689975E-03;  0.0000000E+00; -2.5204191E-04;  1.0003318E+03;  1.0000000E-01;  2.7485641E+02;3;  1.0574811E-01;  0.0000000E+00; -1.1655178E+00;0;  1.2844475E-03;  4.0039234E+04;  0.0000000E+00;  3.6865807E-01;  4.0000000E+04;  0.0000000E+00;  3.9987000E+04;  1.0539435E-03;  0.0000000E+00;  2.3050401E-04;  1.7762123E+03;
  2.4082874E-01;  9.9999998E-03; -1.9002782E-01;3921; -2.2882742E-03;  0.0000000E+00; -2.9285389E-04;  1.0003100E+03;  1.0000000E-01;  2.5678287E+02;3;  4.8626870E-01;  0.0000000E+00; -6.4756650E-01;0;  8.6502510E-04;  4.0037129E+04;  0.0000000E+00;  1.5391544E-01;  4.0000000E+04;  0.0000000E+00;  3.9986332E+04;  6.3631259E-04;  0.0000000E+00;  2.2871254E-04;  1.7585459E+03;
  2.4092759E-01;  9.9999998E-03; -1.8005306E-01;3922; -2.3518552E-03;  0.0000000E+00; -3.1455819E-04;  1.0003235E+03;  1.0000000E-01;  2.6804181E+02;3;  6.6710788E-01;  0.0000000E+00; -3.5775617E-01;0;  4.6375545E-04;  4.0036641E+04;  0.0000000E+00;  1.3705173E-01;  4.0000000E+04;  0.0000000E+00;  3.9987363E+04;  1.8247891E-04;  0.0000000E+00;  2.8127653E-04;  1.6753865E+03;
  2.4104556E-01;  9.9999998E-03; -1.7006829E-01;3923; -2.4461097E-03;  0.0000000E+00; -3.0387894E-04;  1.0003593E+03;  1.0000000E-01;  2.9767059E+02;3;  7.1221262E-01;  0.0000000E+00; -2.2974128E-01;0;  1.0633591E-04;  4.0037996E+04;  0.0000000E+00;  2.1816313E-01;  4.0000000E+04;  0.0000000E+00;  3.9988008E+04; -2.6741295E-04;  0.0000000E+00;  3.7374886E-04;  1.5732498E+03;
  2.4118146E-01;  9.9999998E-03; -1.6006324E-01;3924; -2.5697965E-03;  0.0000000E+00; -2.4821138E-04;  1.0004208E+03;  1.0000000E-01;  3.4863211E+02;3;  7.1274281E-01;  0.0000000E+00; -1.7615512E-01;0; -2.0365434E-04;  4.0041691E+04;  0.0000000E+00;  3.0966094E-01;  4.0000000E+04;  0.0000000E+00;  3.9988938E+04; -6.8180246E-04;  0.0000000E+00;  4.7814811E-04;  1.5165149E+03;
  2.4131830E-01;  9.9999998E-03; -1.5003827E-01;3925; -2.7280760E-03;  0.0000000E+00; -1.5098040E-04;  1.0005064E+03;  1.0000000E-01;  4.1954370E+02;3;  6.8879503E-01;  0.0000000E+00; -1.4239287E-01;0; -4.7864724E-04;  4.0048160E+04;  0.0000000E+00;  3.5945719E-01;  4.0000000E+04;  0.0000000E+00;  3.9989105E+04; -1.0387438E-03;  0.0000000E+00;  5.6009652E-04;  1.5032524E+03;
  2.4141940E-01;  9.9999998E-03; -1.4001305E-01;3926; -2.9213184E-03;  0.0000000E+00; -4.3388023E-05;  1.0006130E+03;  1.0000000E-01;  5.0783749E+02;3;  6.1426216E-01;  0.0000000E+00; -9.8330438E-02;0; -7.3739287E-04;  4.0056758E+04;  0.0000000E+00;  3.5780555E-01;  4.0000000E+04;  0.0000000E+00;  3.9989238E+04; -1.3285934E-03;  0.0000000E+00;  5.9120049E-04;  1.5130935E+03;
  2.4146724E-01;  9.9999998E-03; -1.2999807E-01;3927; -3.1047598E-03;  0.0000000E+00;  2.6058973E-05;  1.0007321E+03;  1.0000000E-01;  6.0650134E+02;3;  6.1576200E-01;  0.0000000E+00; -8.8062488E-02;0; -9.9229743E-04;  4.0066895E+04;  0.0000000E+00;  3.2108012E-01;  4.0000000E+04;  0.0000000E+00;  3.9988617E+04; -1.5522033E-03;  0.0000000E+00;  5.5990595E-04;  1.5482832E+03;
  2.4147479E-01;  9.9999998E-03; -1.1998932E-01;3928; -3.2390228E-03;  0.0000000E+00;  4.9256261E-05;  1.0008542E+03;  1.0000000E-01;  7.0763428E+02;3;  6.2659866E-01;  0.0000000E+00; -8.7570526E-02;0; -1.2437588E-03;  4.0077645E+04;  0.0000000E+00;  2.6905930E-01;  4.0000000E+04;  0.0000000E+00;  3.9987938E+04; -1.7146904E-03;  0.0000000E+00;  4.7093150E-04;  1.6194255E+03;
  2.4144647E-01;  9.9999998E-03; -1.0998879E-01;3929; -3.3252083E-03;  0.0000000E+00;  4.5687160E-05;  1.0009701E+03;  1.0000000E-01;  8.0373035E+02;3;  6.4068943E-01;  0.0000000E+00; -8.5978150E-02;0; -1.4847745E-03;  4.0088020E+04;  0.0000000E+00;  2.1623275E-01;  4.0000000E+04;  0.0000000E+00;  3.9987113E+04; -1.8253829E-03;  0.0000000E+00;  3.4060847E-04;  1.7265088E+03;
  2.5088504E-01;  9.9999998E-03; -2.7005187E-01;3974; -1.8621228E-03;  0.0000000E+00; -1.9985251E-04;  9.9973712E+02;  1.0000000E-01; -2.1777162E+02;3; -1.0457064E+01;  0.0000000E+00; -2.8924913E+00;0;  3.5516014E-03;  3.9995148E+04;  0.0000000E+00;  2.1391332E+00;  4.0000000E+04;  0.0000000E+00;  3.9993637E+04;  1.7504133E-03;  0.0000000E+00;  1.8011881E-03;  4.3569810E+03;
  2.5080919E-01;  9.9999998E-03; -2.6004693E-01;3975; -2.0807765E-03;  0.0000000E+00; -3.3223824E-04;  1.0000162E+03;  1.0000000E-01;  1.3431719E+01;3; -7.8551393E+00;  0.0000000E+00; -5.1464477E+00;0;  4.4348976E-03;  4.0015977E+04;  0.0000000E+00;  3.1839669E+00;  4.0000000E+04;  0.0000000E+00;  3.9995367E+04;  2.0596965E-03;  0.0000000E+00;  2.3752011E-03;  5.4999756E+03;
  2.5071713E-01;  9.9999998E-03; -2.5003457E-01;3976; -2.2999519E-03;  0.0000000E+00; -3.3646380E-04;  1.0001816E+03;  1.0000000E-01;  1.5041550E+02;3; -5.7549624E+00;  0.0000000E+00; -5.5356312E+00;0;  4.0985830E-03;  4.0025875E+04;  0.0000000E+00;  3.6590002E+00;  4.0000000E+04;  0.0000000E+00;  3.9997414E+04;  2.2774686E-03;  0.0000000E+00;  1.8211146E-03;  5.8493926E+03;
  2.5063479E-01;  9.9999998E-03; -2.4001503E-01;3977; -2.3927984E-03;  0.0000000E+00; -2.5904764E-04;  1.0002345E+03;  1.0000000E-01;  1.9426611E+02;3; -3.8912690E+00;  0.0000000E+00; -4.7850590E+00;0;  3.4468211E-03;  4.0027414E+04;  0.0000000E+00;  3.2100306E+00;  4.0000000E+04;  0.0000000E+00;  3.9998230E+04;  2.4350144E-03;  0.0000000E+00;  1.0118069E-03;  4.9754048E+03;
  2.5060421E-01;  9.9999998E-03; -2.2998689E-01;3978; -2.2777002E-03;  0.0000000E+00; -2.4872960E-04;  1.0002161E+03;  1.0000000E-01;  1.7895790E+02;3; -2.1943619E+00;  0.0000000E+00; -3.6257091E+00;0;  3.1194449E-03;  4.0023363E+04;  0.0000000E+00;  2.2659574E+00;  4.0000000E+04;  0.0000000E+00;  3.9998637E+04;  2.4808988E-03;  0.0000000E+00;  6.3854613E-04;  3.4766804E+03;
  2.5062987E-01;  9.9999998E-03; -2.1996370E-01;3979; -2.2004112E-03;  0.0000000E+00; -2.2321024E-04;  1.0001419E+03;  1.0000000E-01;  1.1752754E+02;3; -9.7579151E-01;  0.0000000E+00; -2.4080498E+00;0;  2.6705519E-03;  4.0017500E+04;  0.0000000E+00;  1.3954538E+00;  4.0000000E+04;  0.0000000E+00;  3.9996367E+04;  2.3211052E-03;  0.0000000E+00;  3.4944672E-04;  2.1824585E+03;
  2.5068149E-01;  9.9999998E-03; -2.0996739E-01;3980; -2.1658125E-03;  0.0000000E+00; -2.3063476E-04;  1.0000557E+03;  1.0000000E-01;  4.6122154E+01;3; -1.6703674E-01;  0.0000000E+00; -1.4645109E+00;0;  2.2313634E-03;  4.0013266E+04;  0.0000000E+00;  8.1218290E-01;  4.0000000E+04;  0.0000000E+00;  3.9991902E+04;  2.0171362E-03;  0.0000000E+00;  2.1422733E-04;  1.5816124E+03;
  2.5076929E-01;  9.9999998E-03; -1.9998650E-01;3981; -2.1728685E-03;  0.0000000E+00; -2.6749077E-04;  1.0000143E+03;  1.0000000E-01;  1.1851517E+01;3;  3.4816805E-01;  0.0000000E+00; -8.5070944E-01;0;  1.8029455E-03;  4.0011148E+04;  0.0000000E+00;  4.9716866E-01;  4.0000000E+04;  0.0000000E+00;  3.9989523E+04;  1.6272307E-03;  0.0000000E+00;  1.7571481E-04;  1.5050173E+03;
  2.5088376E-01;  9.9999998E-03; -1.9001006E-01;3982; -2.2176891E-03;  0.0000000E+00; -3.0037045E-04;  1.0000280E+03;  1.0000000E-01;  2.3110458E+01;3;  6.3996458E-01;  0.0000000E+00; -4.7148860E-01;0;  1.3981303E-03;  4.0011797E+04;  0.0000000E+00;  3.9185017E-01;  4.0000000E+04;  0.0000000E+00;  3.9988852E+04;  1.2011112E-03;  0.0000000E+00;  1.9701911E-04;  1.5085223E+03;
  2.5102243E-01;  9.9999998E-03; -1.8002670E-01;3983; -2.2975397E-03;  0.0000000E+00; -3.1975470E-04;  1.0000891E+03;  1.0000000E-01;  7.3775688E+01;3;  7.5893199E-01;  0.0000000E+00; -2.7122518E-01;0;  1.0524691E-03;  4.0015691E+04;  0.0000000E+00;  4.1159233E-01;  4.0000000E+04;  0.0000000E+00;  3.9989234E+04;  7.8113709E-04;  0.0000000E+00;  2.7133207E-04;  1.4815422E+03;
  2.5117835E-01;  9.9999998E-03; -1.7002906E-01;3984; -2.4051589E-03;  0.0000000E+00; -3.1907257E-04;  1.0001885E+03;  1.0000000E-01;  1.5624249E+02;3;  7.7996171E-01;  0.0000000E+00; -1.9346102E-01;0;  7.8160258E-04;  4.0022871E+04;  0.0000000E+00;  4.7140098E-01;  4.0000000E+04;  0.0000000E+00;  3.9989844E+04;  4.0154019E-04;  0.0000000E+00;  3.8006235E-04;  1.4700276E+03;
  2.5133082E-01;  9.9999998E-03; -1.6001731E-01;3985; -2.5274400E-03;  0.0000000E+00; -2.8520229E-04;  1.0003165E+03;  1.0000000E-01;  2.6221481E+02;3;  7.5742906E-01;  0.0000000E+00; -1.8510154E-01;0;  5.7882530E-04;  4.0032828E+04;  0.0000000E+00;  5.0730586E-01;  4.0000000E+04;  0.0000000E+00;  3.9990336E+04;  8.6200416E-05;  0.0000000E+00;  4.9262488E-04;  1.4821399E+03;
  2.5144094E-01;  9.9999998E-03; -1.5000221E-01;3986; -2.6723437E-03;  0.0000000E+00; -2.0824050E-04;  1.0004726E+03;  1.0000000E-01;  3.9149509E+02;3;  7.3870450E-01;  0.0000000E+00; -1.8327489E-01;0;  4.1997369E-04;  4.0045211E+04;  0.0000000E+00;  4.9288699E-01;  4.0000000E+04;  0.0000000E+00;  3.9989801E+04; -1.5456864E-04;  0.0000000E+00;  5.7454233E-04;  1.4984841E+03;
  2.5148284E-01;  9.9999998E-03; -1.3999230E-01;3987; -2.8496068E-03;  0.0000000E+00; -8.1764985E-05;  1.0006337E+03;  1.0000000E-01;  5.2502222E+02;3;  6.8071645E-01;  0.0000000E+00; -1.5139408E-01;0;  2.7484016E-04;  4.0058828E+04;  0.0000000E+00;  4.3752053E-01;  4.0000000E+04;  0.0000000E+00;  3.9989480E+04; -3.2357650E-04;  0.0000000E+00;  5.9841666E-04;  1.5213468E+03;
  2.5147149E-01;  9.9999998E-03; -1.2999007E-01;3988; -3.0532228E-03;  0.0000000E+00;  1.7615121E-05;  1.0007924E+03;  1.0000000E-01;  6.5647528E+02;3;  6.2518948E-01;  0.0000000E+00; -9.6383870E-02;0;  1.2341252E-04;  4.0072684E+04;  0.0000000E+00;  3.6355895E-01;  4.0000000E+04;  0.0000000E+00;  3.9988828E+04; -4.3141312E-04;  0.0000000E+00;  5.5482564E-04;  1.5698346E+03;
  2.5142011E-01;  9.9999998E-03; -1.1999234E-01;3989; -3.1927142E-03;  0.0000000E+00;  5.0259492E-05;  1.0009359E+03;  1.0000000E-01;  7.7538550E+02;3;  6.3533676E-01;  0.0000000E+00; -9.1556534E-02;0; -4.2054860E-05;  4.0085387E+04;  0.0000000E+00;  2.8938657E-01;  4.0000000E+04;  0.0000000E+00;  3.9987750E+04; -4.9374462E-04;  0.0000000E+00;  4.5168976E-04;  1.6532493E+03;
  2.5135565E-01;  9.9999998E-03; -1.0999726E-01;3990; -3.2724631E-03;  0.0000000E+00;  4.6720001E-05;  1.0010535E+03;  1.0000000E-01;  8.7276544E+02;3;  6.4726353E-01;  0.0000000E+00; -9.6956946E-02;0; -2.1660168E-04;  4.0095820E+04;  0.0000000E+00;  2.2573543E-01;  4.0000000E+04;  0.0000000E+00;  3.9986844E+04; -5.2453519E-04;  0.0000000E+00;  3.0793351E-04;  1.7655389E+03;
  2.6083678E-01;  9.9999998E-03; -2.7003640E-01;4035; -1.8834333E-03;  0.0000000E+00; -1.2960794E-04;  9.9996661E+02;  1.0000000E-01; -2.7653540E+01;3; -9.2828960E+00;  0.0000000E+00; -3.0698104E+00;0;  4.1755172E-03;  4.0013711E+04;  0.0000000E+00;  1.4276923E+00;  4.0000000E+04;  0.0000000E+00;  3.9995754E+04;  2.9533159E-03;  0.0000000E+00;  1.2222015E-03;  3.0805757E+03;
  2.6078188E-01;  9.9999998E-03; -2.6003009E-01;4036; -2.0613100E-03;  0.0000000E+00; -2.4304565E-04;  1.0000590E+03;  1.0000000E-01;  4.8887505E+01;3; -6.6349392E+00;  0.0000000E+00; -4.3437867E+00;0;  4.8644203E-03;  4.0018004E+04;  0.0000000E+00;  2.1331537E+00;  4.0000000E+04;  0.0000000E+00;  3.9998082E+04;  3.1056493E-03;  0.0000000E+00;  1.7587711E-03;  3.7776558E+03;
  2.6069784E-01;  9.9999998E-03; -2.5001627E-01;4037; -2.1800848E-03;  0.0000000E+00; -3.0817155E-04;  1.0000922E+03;  1.0000000E-01;  7.6442284E+01;3; -4.5268574E+00;  0.0000000E+00; -4.4025726E+00;0;  4.7955858E-03;  4.0016273E+04;  0.0000000E+00;  2.6384614E+00;  4.0000000E+04;  0.0000000E+00;  4.0000395E+04;  3.1844703E-03;  0.0000000E+00;  1.6111156E-03;  4.2474136E+03;
  2.6062489E-01;  9.9999998E-03; -2.3999314E-01;4038; -2.1998314E-03;  0.0000000E+00; -2.9254446E-04;  1.0000622E+03;  1.0000000E-01;  5.1554096E+01;3; -2.7628429E+00;  0.0000000E+00; -3.6903191E+00;0;  4.1854372E-03;  4.0009578E+04;  0.0000000E+00;  2.3537729E+00;  4.0000000E+04;  0.0000000E+00;  4.0002227E+04;  3.1649729E-03;  0.0000000E+00;  1.0204641E-03;  3.6796021E+03;
  2.6061299E-01;  9.9999998E-03; -2.2996029E-01;4039; -2.1610882E-03;  0.0000000E+00; -2.5472109E-04;  9.9999414E+02;  1.0000000E-01; -4.8393693E+00;3; -1.3850973E+00;  0.0000000E+00; -2.6984444E+00;0;  3.5377680E-03;  4.0000449E+04;  0.0000000E+00;  1.6679190E+00;  4.0000000E+04;  0.0000000E+00;  4.0003664E+04;  3.0079437E-03;  0.0000000E+00;  5.2982417E-04;  2.6117109E+03;
  2.6064509E-01;  9.9999998E-03; -2.1994314E-01;4040; -2.1212995E-03;  0.0000000E+00; -1.8949965E-04;  9.9987708E+02;  1.0000000E-01; -1.0182428E+02;3; -4.4601181E-01;  0.0000000E+00; -1.7231385E+00;0;  2.8973506E-03;  3.9992820E+04;  0.0000000E+00;  1.1079801E+00;  4.0000000E+04;  0.0000000E+00;  4.0000406E+04;  2.7194258E-03;  0.0000000E+00;  1.7792464E-04;  1.6953149E+03;
  2.6072091E-01;  9.9999998E-03; -2.0995300E-01;4041; -2.1135488E-03;  0.0000000E+00; -1.8504063E-04;  9.9978680E+02;  1.0000000E-01; -1.7663698E+02;3;  1.7116459E-01;  0.0000000E+00; -1.0139978E+00;0;  2.4138978E-03;  3.9988430E+04;  0.0000000E+00;  7.7162069E-01;  4.0000000E+04;  0.0000000E+00;  3.9995363E+04;  2.3410912E-03;  0.0000000E+00;  7.2806550E-05;  1.2919938E+03;
  2.6083669E-01;  9.9999998E-03; -1.9997470E-01;4042; -2.1399809E-03;  0.0000000E+00; -2.1936552E-04;  9.9976746E+02;  1.0000000E-01; -1.9263652E+02;3;  5.5339438E-01;  0.0000000E+00; -5.6246620E-01;0;  1.9962853E-03;  3.9988375E+04;  0.0000000E+00;  6.2850261E-01;  4.0000000E+04;  0.0000000E+00;  3.9992586E+04;  1.9225833E-03;  0.0000000E+00;  7.3702002E-05;  1.2984264E+03;
  2.6097995E-01;  9.9999998E-03; -1.8999361E-01;4043; -2.1992354E-03;  0.0000000E+00; -2.5701846E-04;  9.9982538E+02;  1.0000000E-01; -1.4468727E+02;3;  7.5282973E-01;  0.0000000E+00; -3.0867565E-01;0;  1.6345016E-03;  3.9993145E+04;  0.0000000E+00;  6.0921115E-01;  4.0000000E+04;  0.0000000E+00;  3.9991777E+04;  1.5086238E-03;  0.0000000E+00;  1.2587784E-04;  1.3446686E+03;
  2.6113796E-01;  9.9999998E-03; -1.8000264E-01;4044; -2.2874775E-03;  0.0000000E+00; -2.7509697E-04;  9.9994403E+02;  1.0000000E-01; -4.6369061E+01;3;  8.2749200E-01;  0.0000000E+00; -1.8878616E-01;0;  1.3548635E-03;  4.0002105E+04;  0.0000000E+00;  6.3907331E-01;  4.0000000E+04;  0.0000000E+00;  3.9991777E+04;  1.1369043E-03;  0.0000000E+00;  2.1795920E-04;  1.3761119E+03;
  2.6129234E-01;  9.9999998E-03; -1.7000082E-01;4045; -2.3999384E-03;  0.0000000E+00; -2.7468649E-04;  1.0001075E+03;  1.0000000E-01;  8.9083900E+01;3;  8.2543194E-01;  0.0000000E+00; -1.5102060E-01;0;  1.1709861E-03;  4.0015016E+04;  0.0000000E+00;  6.5660554E-01;  4.0000000E+04;  0.0000000E+00;  3.9991668E+04;  8.3538046E-04;  0.0000000E+00;  3.3560558E-04;  1.4023629E+03;
  2.6141688E-01;  9.9999998E-03; -1.5999371E-01;4046; -2.5245589E-03;  0.0000000E+00; -2.5287090E-04;  1.0003022E+03;  1.0000000E-01;  2.5036330E+02;3;  7.8372735E-01;  0.0000000E+00; -1.6754425E-01;0;  1.0690214E-03;  4.0030461E+04;  0.0000000E+00;  6.2764871E-01;  4.0000000E+04;  0.0000000E+00;  3.9991297E+04;  6.1931578E-04;  0.0000000E+00;  4.4970561E-04;  1.4140743E+03;
  2.6148584E-01;  9.9999998E-03; -1.4998901E-01;4047; -2.6541064E-03;  0.0000000E+00; -2.0046531E-04;  1.0005028E+03;  1.0000000E-01;  4.1658081E+02;3;  7.6679063E-01;  0.0000000E+00; -1.8218356E-01;0;  1.0171909E-03;  4.0047496E+04;  0.0000000E+00;  5.5236834E-01;  4.0000000E+04;  0.0000000E+00;  3.9990816E+04;  4.8922998E-04;  0.0000000E+00;  5.2796089E-04;  1.4184890E+03;
  2.6148778E-01;  9.9999998E-03; -1.3998893E-01;4048; -2.8003561E-03;  0.0000000E+00; -1.0275045E-04;  1.0006965E+03;  1.0000000E-01;  5.7707013E+02;3;  7.3828965E-01;  0.0000000E+00; -1.8672161E-01;0;  9.7774528E-04;  4.0064258E+04;  0.0000000E+00;  4.5341226E-01;  4.0000000E+04;  0.0000000E+00;  3.9990191E+04;  4.3216269E-04;  0.0000000E+00;  5.4558256E-04;  1.4438289E+03;
  2.6143748E-01;  9.9999998E-03; -1.2999237E-01;4049; -2.9787831E-03;  0.0000000E+00;  8.5165184E-06;  1.0008709E+03;  1.0000000E-01;  7.2155981E+02;3;  6.4573658E-01;  0.0000000E+00; -1.0753223E-01;0;  9.2170888E-04;  4.0079324E+04;  0.0000000E+00;  3.5323942E-01;  4.0000000E+04;  0.0000000E+00;  3.9989312E+04;  4.2739123E-04;  0.0000000E+00;  4.9431762E-04;  1.5094911E+03;
  2.6136285E-01;  9.9999998E-03; -1.1999868E-01;4050; -3.1173376E-03;  0.0000000E+00;  5.1144285E-05;  1.0010072E+03;  1.0000000E-01;  8.3444556E+02;3;  6.4634079E-01;  0.0000000E+00; -9.9762395E-02;0;  8.3572970E-04;  4.0091820E+04;  0.0000000E+00;  2.6652387E-01;  4.0000000E+04;  0.0000000E+00;  3.9988086E+04;  4.5196334E-04;  0.0000000E+00;  3.8376637E-04;  1.6130195E+03;
  2.6127687E-01;  9.9999998E-03; -1.1000494E-01;4051; -3.1832517E-03;  0.0000000E+00;  4.9730246E-05;  1.0011031E+03;  1.0000000E-01;  9.1385071E+02;3;  6.6106719E-01;  0.0000000E+00; -9.9409610E-02;0;  7.1773864E-04;  4.0100922E+04;  0.0000000E+00;  1.9943309E-01;  4.0000000E+04;  0.0000000E+00;  3.9987277E+04;  4.8384865E-04;  0.0000000E+00;  2.3389002E-04;  1.7357351E+03;
  2.7076137E-01;  9.9999998E-03; -2.7002507E-01;4096; -1.8994918E-03;  0.0000000E+00; -6.2707455E-05;  1.0001107E+03;  1.0000000E-01;  9.1750488E+01;3; -7.5036478E+00;  0.0000000E+00; -2.8799753E+00;0;  4.5033945E-03;  4.0025121E+04;  0.0000000E+00;  1.3462061E+00;  4.0000000E+04;  0.0000000E+00;  3.9997145E+04;  3.8172659E-03;  0.0000000E+00;  6.8612851E-04;  2.6984822E+03;
  2.7071494E-01;  9.9999998E-03; -2.6001796E-01;4097; -2.0540881E-03;  0.0000000E+00; -1.4789427E-04;  1.0000599E+03;  1.0000000E-01;  4.9677608E+01;3; -5.1150203E+00;  0.0000000E+00; -3.4609373E+00;0;  4.8870775E-03;  4.0017055E+04;  0.0000000E+00;  1.7247081E+00;  4.0000000E+04;  0.0000000E+00;  4.0000012E+04;  3.8033845E-03;  0.0000000E+00;  1.0836929E-03;  2.9988735E+03;
  2.7065498E-01;  9.9999998E-03; -2.5000390E-01;4098; -2.1401828E-03;  0.0000000E+00; -2.1479159E-04;  9.9998474E+02;  1.0000000E-01; -1.2641618E+01;3; -3.2770770E+00;  0.0000000E+00; -3.2887013E+00;0;  4.7819228E-03;  4.0005387E+04;  0.0000000E+00;  1.8740396E+00;  4.0000000E+04;  0.0000000E+00;  4.0002840E+04;  3.7153079E-03;  0.0000000E+00;  1.0666150E-03;  3.0552620E+03;
  2.7061629E-01;  9.9999998E-03; -2.3997998E-01;4099; -2.1461188E-03;  0.0000000E+00; -2.3645593E-04;  9.9988977E+02;  1.0000000E-01; -9.1306061E+01;3; -1.7753526E+00;  0.0000000E+00; -2.6553955E+00;0;  4.2566285E-03;  3.9992516E+04;  0.0000000E+00;  1.5721605E+00;  4.0000000E+04;  0.0000000E+00;  4.0005738E+04;  3.5308916E-03;  0.0000000E+00;  7.2573696E-04;  2.5822585E+03;
  2.7063394E-01;  9.9999998E-03; -2.2994901E-01;4100; -2.1230250E-03;  0.0000000E+00; -1.9923333E-04;  9.9978461E+02;  1.0000000E-01; -1.7846408E+02;3; -7.0544130E-01;  0.0000000E+00; -1.8731266E+00;0;  3.5159981E-03;  3.9980742E+04;  0.0000000E+00;  1.1428177E+00;  4.0000000E+04;  0.0000000E+00;  4.0007164E+04;  3.2362021E-03;  0.0000000E+00;  2.7979605E-04;  1.9860112E+03;
  2.7069810E-01;  9.9999998E-03; -2.1993941E-01;4101; -2.1036214E-03;  0.0000000E+00; -1.2819571E-04;  9.9966022E+02;  1.0000000E-01; -2.8152289E+02;3; -6.9566336E-03;  0.0000000E+00; -1.1542333E+00;0;  2.8182885E-03;  3.9972832E+04;  0.0000000E+00;  8.6594856E-01;  4.0000000E+04;  0.0000000E+00;  4.0002570E+04;  2.8552483E-03;  0.0000000E+00; -3.6959776E-05;  1.3731737E+03;
  2.7080372E-01;  9.9999998E-03; -2.0995377E-01;4102; -2.1136354E-03;  0.0000000E+00; -1.2043009E-04;  9.9958490E+02;  1.0000000E-01; -3.4389151E+02;3;  4.4078445E-01;  0.0000000E+00; -6.5980065E-01;0;  2.3320073E-03;  3.9970473E+04;  0.0000000E+00;  7.5126249E-01;  4.0000000E+04;  0.0000000E+00;  3.9997867E+04;  2.4289568E-03;  0.0000000E+00; -9.6949436E-05;  1.1466255E+03;
  2.7093834E-01;  9.9999998E-03; -1.9997360E-01;4103; -2.1536534E-03;  0.0000000E+00; -1.4928407E-04;  9.9961218E+02;  1.0000000E-01; -3.2127487E+02;3;  7.0602793E-01;  0.0000000E+00; -3.5722110E-01;0;  1.9408024E-03;  3.9973656E+04;  0.0000000E+00;  7.4065238E-01;  4.0000000E+04;  0.0000000E+00;  3.9995090E+04;  2.0020604E-03;  0.0000000E+00; -6.1257968E-05;  1.2175385E+03;
  2.7108663E-01;  9.9999998E-03; -1.8998741E-01;4104; -2.2217256E-03;  0.0000000E+00; -1.8005935E-04;  9.9972504E+02;  1.0000000E-01; -2.2779602E+02;3;  8.3320707E-01;  0.0000000E+00; -1.9099708E-01;0;  1.6285045E-03;  3.9982777E+04;  0.0000000E+00;  7.6717055E-01;  4.0000000E+04;  0.0000000E+00;  3.9994277E+04;  1.6146766E-03;  0.0000000E+00;  1.3827907E-05;  1.2934856E+03;
  2.7123070E-01;  9.9999998E-03; -1.7999268E-01;4105; -2.3137357E-03;  0.0000000E+00; -1.9747838E-04;  9.9990314E+02;  1.0000000E-01; -8.0244644E+01;3;  8.6992860E-01;  0.0000000E+00; -1.2281120E-01;0;  1.4173592E-03;  3.9996938E+04;  0.0000000E+00;  7.7786958E-01;  4.0000000E+04;  0.0000000E+00;  3.9994000E+04;  1.2989615E-03;  0.0000000E+00;  1.1839772E-04;  1.3299817E+03;
  2.7135262E-01;  9.9999998E-03; -1.6999117E-01;4106; -2.4245065E-03;  0.0000000E+00; -1.9699299E-04;  1.0001187E+03;  1.0000000E-01;  9.8367592E+01;3;  8.5517901E-01;  0.0000000E+00; -1.1420760E-01;0;  1.3134392E-03;  4.0014434E+04;  0.0000000E+00;  7.4092889E-01;  4.0000000E+04;  0.0000000E+00;  3.9993660E+04;  1.0755702E-03;  0.0000000E+00;  2.3786901E-04;  1.3252812E+03;
  2.7143431E-01;  9.9999998E-03; -1.5998916E-01;4107; -2.5447456E-03;  0.0000000E+00; -1.7926966E-04;  1.0003535E+03;  1.0000000E-01;  2.9292999E+02;3;  8.1200683E-01;  0.0000000E+00; -1.3368772E-01;0;  1.2979158E-03;  4.0034055E+04;  0.0000000E+00;  6.5197122E-01;  4.0000000E+04;  0.0000000E+00;  3.9992703E+04;  9.5095218E-04;  0.0000000E+00;  3.4696367E-04;  1.2958931E+03;
  2.7146548E-01;  9.9999998E-03; -1.4999115E-01;4108; -2.6638634E-03;  0.0000000E+00; -1.3909726E-04;  1.0005841E+03;  1.0000000E-01;  4.8393692E+02;3;  7.8219825E-01;  0.0000000E+00; -1.6188495E-01;0;  1.3339141E-03;  4.0053648E+04;  0.0000000E+00;  5.3106922E-01;  4.0000000E+04;  0.0000000E+00;  3.9991938E+04;  9.1643963E-04;  0.0000000E+00;  4.1747445E-04;  1.2826141E+03;
  2.7144462E-01;  9.9999998E-03; -1.3999628E-01;4109; -2.7855404E-03;  0.0000000E+00; -6.7264868E-05;  1.0007867E+03;  1.0000000E-01;  6.5173468E+02;3;  7.6515836E-01;  0.0000000E+00; -1.7749472E-01;0;  1.3789878E-03;  4.0071707E+04;  0.0000000E+00;  4.0504351E-01;  4.0000000E+04;  0.0000000E+00;  3.9991023E+04;  9.5073134E-04;  0.0000000E+00;  4.2825643E-04;  1.3220216E+03;
  2.7138153E-01;  9.9999998E-03; -1.3000193E-01;4110; -2.9088585E-03;  0.0000000E+00;  1.2050365E-05;  1.0009484E+03;  1.0000000E-01;  7.8575555E+02;3;  7.0867449E-01;  0.0000000E+00; -1.3007389E-01;0;  1.3986309E-03;  4.0086266E+04;  0.0000000E+00;  2.9263711E-01;  4.0000000E+04;  0.0000000E+00;  3.9989875E+04;  1.0255969E-03;  0.0000000E+00;  3.7303407E-04;  1.4176646E+03;
  2.7129865E-01;  9.9999998E-03; -1.2000716E-01;4111; -3.0211983E-03;  0.0000000E+00;  5.7351881E-05;  1.0010646E+03;  1.0000000E-01;  8.8204913E+02;3;  6.7813492E-01;  0.0000000E+00; -8.6340420E-02;0;  1.3730885E-03;  4.0096852E+04;  0.0000000E+00;  2.0398884E-01;  4.0000000E+04;  0.0000000E+00;  3.9988691E+04;  1.1119107E-03;  0.0000000E+00;  2.6117772E-04;  1.5467791E+03;
  2.7121592E-01;  9.9999998E-03; -1.1001194E-01;4112; -3.0591486E-03;  0.0000000E+00;  6.0491693E-05;  1.0011233E+03;  1.0000000E-01;  9.3064032E+02;3;  6.9755721E-01;  0.0000000E+00; -8.2146034E-02;0;  1.2948846E-03;  4.0102953E+04;  0.0000000E+00;  1.4103433E-01;  4.0000000E+04;  0.0000000E+00;  3.9987434E+04;  1.1827889E-03;  0.0000000E+00;  1.1209572E-04;  1.6791256E+03;
  2.8067523E-01;  9.9999998E-03; -2.7001718E-01;4157; -1.9333118E-03;  0.0000000E+00;  1.8092336E-05;  1.0001459E+03;  1.0000000E-01;  1.2088547E+02;3; -5.4909458E+00;  0.0000000E+00; -2.4253979E+00;0;  4.4419793E-03;  4.0027082E+04;  0.0000000E+00;  1.2872268E+00;  4.0000000E+04;  0.0000000E+00;  3.9998516E+04;  4.3854006E-03;  0.0000000E+00;  5.6578643E-05;  2.3741394E+03;
  2.8064540E-01;  9.9999998E-03; -2.6001000E-01;4158; -2.0613526E-03;  0.0000000E+00; -4.4418346E-05;  9.9999835E+02;  1.0000000E-01; -1.3826770E+00;3; -3.5447516E+00;  0.0000000E+00; -2.5740380E+00;0;  4.5884009E-03;  4.0010734E+04;  0.0000000E+00;  1.2894036E+00;  4.0000000E+04;  0.0000000E+00;  4.0001559E+04;  4.2273044E-03;  0.0000000E+00;  3.6109664E-04;  2.2233547E+03;
  2.8062734E-01;  9.9999998E-03; -2.4999689E-01;4159; -2.1205337E-03;  0.0000000E+00; -1.1008749E-04;  9.9984949E+02;  1.0000000E-01; -1.2468783E+02;3; -2.0610678E+00;  0.0000000E+00; -2.2929354E+00;0;  4.4691795E-03;  3.9993188E+04;  0.0000000E+00;  1.1362882E+00;  4.0000000E+04;  0.0000000E+00;  4.0004508E+04;  3.9926460E-03;  0.0000000E+00;  4.7653340E-04;  1.9638259E+03;
  2.8064290E-01;  9.9999998E-03; -2.3997478E-01;4160; -2.1290586E-03;  0.0000000E+00; -1.5047743E-04;  9.9972510E+02;  1.0000000E-01; -2.2774664E+02;3; -9.2166871E-01;  0.0000000E+00; -1.7792497E+00;0;  4.0048286E-03;  3.9977449E+04;  0.0000000E+00;  8.9253569E-01;  4.0000000E+04;  0.0000000E+00;  4.0007789E+04;  3.6704601E-03;  0.0000000E+00;  3.3436838E-04;  1.7471129E+03;
  2.8070480E-01;  9.9999998E-03; -2.2994943E-01;4161; -2.1234604E-03;  0.0000000E+00; -1.1868840E-04;  9.9961505E+02;  1.0000000E-01; -3.1890457E+02;3; -1.5022011E-01;  0.0000000E+00; -1.2076000E+00;0;  3.2481889E-03;  3.9965781E+04;  0.0000000E+00;  7.3193580E-01;  4.0000000E+04;  0.0000000E+00;  4.0008535E+04;  3.2706293E-03;  0.0000000E+00; -2.2440516E-05;  1.5842565E+03;
  2.8079018E-01;  9.9999998E-03; -2.1994792E-01;4162; -2.1244895E-03;  0.0000000E+00; -5.2958374E-05;  9.9950494E+02;  1.0000000E-01; -4.1016122E+02;3;  3.3814916E-01;  0.0000000E+00; -7.1510071E-01;0;  2.5538895E-03;  3.9959699E+04;  0.0000000E+00;  7.0914310E-01;  4.0000000E+04;  0.0000000E+00;  4.0003773E+04;  2.8250958E-03;  0.0000000E+00; -2.7120614E-04;  1.1913547E+03;
  2.8090736E-01;  9.9999998E-03; -2.0996383E-01;4163; -2.1513526E-03;  0.0000000E+00; -4.9751714E-05;  9.9947827E+02;  1.0000000E-01; -4.3223468E+02;3;  6.4184016E-01;  0.0000000E+00; -3.9930385E-01;0;  2.0921929E-03;  3.9960434E+04;  0.0000000E+00;  7.5434941E-01;  4.0000000E+04;  0.0000000E+00;  3.9999285E+04;  2.3728127E-03;  0.0000000E+00; -2.8061980E-04;  1.1115933E+03;
  2.8103927E-01;  9.9999998E-03; -1.9998114E-01;4164; -2.2024980E-03;  0.0000000E+00; -7.4057782E-05;  9.9955615E+02;  1.0000000E-01; -3.6774268E+02;3;  8.0701602E-01;  0.0000000E+00; -2.1545446E-01;0;  1.7346410E-03;  3.9967848E+04;  0.0000000E+00;  8.1275564E-01;  4.0000000E+04;  0.0000000E+00;  3.9997113E+04;  1.9535634E-03;  0.0000000E+00; -2.1892242E-04;  1.2137729E+03;
  2.8116873E-01;  9.9999998E-03; -1.8999267E-01;4165; -2.2749209E-03;  0.0000000E+00; -9.5469506E-05;  9.9972351E+02;  1.0000000E-01; -2.2907994E+02;3;  8.7644660E-01;  0.0000000E+00; -1.1995175E-01;0;  1.4706558E-03;  3.9981191E+04;  0.0000000E+00;  8.3917439E-01;  4.0000000E+04;  0.0000000E+00;  3.9996438E+04;  1.6019118E-03;  0.0000000E+00; -1.3125606E-04;  1.2734000E+03;
  2.8128055E-01;  9.9999998E-03; -1.7999621E-01;4166; -2.3656806E-03;  0.0000000E+00; -1.0468625E-04;  9.9994623E+02;  1.0000000E-01; -4.4541950E+01;3;  8.8667601E-01;  0.0000000E+00; -8.4804721E-02;0;  1.3195111E-03;  3.9999195E+04;  0.0000000E+00;  8.0853331E-01;  4.0000000E+04;  0.0000000E+00;  3.9995805E+04;  1.3432965E-03;  0.0000000E+00; -2.3785389E-05;  1.2589854E+03;
  2.8135583E-01;  9.9999998E-03; -1.6999604E-01;4167; -2.4708624E-03;  0.0000000E+00; -1.0065642E-04;  1.0001982E+03;  1.0000000E-01;  1.6414351E+02;3;  8.6722648E-01;  0.0000000E+00; -8.2749024E-02;0;  1.2808697E-03;  4.0020289E+04;  0.0000000E+00;  7.1787590E-01;  4.0000000E+04;  0.0000000E+00;  3.9995285E+04;  1.1906076E-03;  0.0000000E+00;  9.0262103E-05;  1.1934065E+03;
  2.8139505E-01;  9.9999998E-03; -1.5999757E-01;4168; -2.5820583E-03;  0.0000000E+00; -8.3983126E-05;  1.0004536E+03;  1.0000000E-01;  3.7579184E+02;3;  8.3186722E-01;  0.0000000E+00; -1.0149474E-01;0;  1.3303708E-03;  4.0041996E+04;  0.0000000E+00;  5.8537400E-01;  4.0000000E+04;  0.0000000E+00;  3.9994016E+04;  1.1418145E-03;  0.0000000E+00;  1.8855627E-04;  1.1287267E+03;
  2.8139800E-01;  9.9999998E-03; -1.5000291E-01;4169; -2.6897693E-03;  0.0000000E+00; -5.0461465E-05;  1.0006879E+03;  1.0000000E-01;  5.6986041E+02;3;  8.0010629E-01;  0.0000000E+00; -1.2713638E-01;0;  1.4277590E-03;  4.0062539E+04;  0.0000000E+00;  4.4003180E-01;  4.0000000E+04;  0.0000000E+00;  3.9992906E+04;  1.1802282E-03;  0.0000000E+00;  2.4753073E-04;  1.1253230E+03;
  2.8136474E-01;  9.9999998E-03; -1.4000863E-01;4170; -2.7920562E-03;  0.0000000E+00;  3.0461131E-06;  1.0008832E+03;  1.0000000E-01;  7.3173242E+02;3;  7.8408957E-01;  0.0000000E+00; -1.3390578E-01;0;  1.5284719E-03;  4.0079863E+04;  0.0000000E+00;  3.0505908E-01;  4.0000000E+04;  0.0000000E+00;  3.9991770E+04;  1.2781406E-03;  0.0000000E+00;  2.5033133E-04;  1.2053467E+03;
  2.8130475E-01;  9.9999998E-03; -1.3001299E-01;4171; -2.8768007E-03;  0.0000000E+00;  4.8464841E-05;  1.0010193E+03;  1.0000000E-01;  8.4442053E+02;3;  7.6701075E-01;  0.0000000E+00; -1.0707732E-01;0;  1.5955040E-03;  4.0092379E+04;  0.0000000E+00;  1.9441681E-01;  4.0000000E+04;  0.0000000E+00;  3.9990281E+04;  1.4025861E-03;  0.0000000E+00;  1.9291793E-04;  1.3431251E+03;
  2.8123352E-01;  9.9999998E-03; -1.2001586E-01;4172; -2.9311881E-03;  0.0000000E+00;  7.0689865E-05;  1.0010955E+03;  1.0000000E-01;  9.0752991E+02;3;  7.6477873E-01;  0.0000000E+00; -7.5289413E-02;0;  1.6047296E-03;  4.0099969E+04;  0.0000000E+00;  1.1381944E-01;  4.0000000E+04;  0.0000000E+00;  3.9988879E+04;  1.5205962E-03;  0.0000000E+00;  8.4133324E-05;  1.4960592E+03;
  2.8116417E-01;  9.9999998E-03; -1.1001738E-01;4173; -2.9236907E-03;  0.0000000E+00;  8.0065984E-05;  1.0011111E+03;  1.0000000E-01;  9.2056653E+02;3;  8.2402277E-01;  0.0000000E+00; -4.5245714E-02;0;  1.5438694E-03;  4.0102344E+04;  0.0000000E+00;  6.1852075E-02;  4.0000000E+04;  0.0000000E+00;  3.9987629E+04;  1.6024041E-03;  0.0000000E+00; -5.8534653E-05;  1.6289686E+03;
  2.9060921E-01;  9.9999998E-03; -2.7001220E-01;4218; -1.9710683E-03;  0.0000000E+00;  1.1263796E-04;  1.0000792E+03;  1.0000000E-01;  6.5677155E+01;3; -3.5491152E+00;  0.0000000E+00; -1.8346559E+00;0;  4.0916954E-03;  4.0020480E+04;  0.0000000E+00;  8.3474267E-01;  4.0000000E+04;  0.0000000E+00;  3.9999918E+04;  4.7513428E-03;  0.0000000E+00; -6.5964734E-04;  1.5377649E+03;
  2.9061860E-01;  9.9999998E-03; -2.6000568E-01;4219; -2.0685957E-03;  0.0000000E+00;  6.1718973E-05;  9.9988104E+02;  1.0000000E-01; -9.8565117E+01;3; -2.1049142E+00;  0.0000000E+00; -1.7599151E+00;0;  4.1313889E-03;  4.0000062E+04;  0.0000000E+00;  6.0528064E-01;  4.0000000E+04;  0.0000000E+00;  4.0002520E+04;  4.4679069E-03;  0.0000000E+00; -3.3651822E-04;  1.1585298E+03;
  2.9066801E-01;  9.9999998E-03; -2.4999447E-01;4220; -2.1089637E-03;  0.0000000E+00;  2.8598101E-06;  9.9970630E+02;  1.0000000E-01; -2.4330176E+02;3; -1.0138774E+00;  0.0000000E+00; -1.4692830E+00;0;  3.9859405E-03;  3.9980961E+04;  0.0000000E+00;  4.0268198E-01;  4.0000000E+04;  0.0000000E+00;  4.0005215E+04;  4.1100909E-03;  0.0000000E+00; -1.2415047E-04;  1.0280248E+03;
  2.9072425E-01;  9.9999998E-03; -2.3997644E-01;4221; -2.1290286E-03;  0.0000000E+00; -4.4546578E-05;  9.9958862E+02;  1.0000000E-01; -3.4082986E+02;3; -2.3397367E-01;  0.0000000E+00; -1.0921516E+00;0;  3.5753206E-03;  3.9966188E+04;  0.0000000E+00;  4.1603801E-01;  4.0000000E+04;  0.0000000E+00;  4.0008336E+04;  3.6821472E-03;  0.0000000E+00; -1.0682671E-04;  1.2840215E+03;
  2.9079288E-01;  9.9999998E-03; -2.2995885E-01;4222; -2.1453234E-03;  0.0000000E+00; -2.1765200E-05;  9.9950238E+02;  1.0000000E-01; -4.1228464E+02;3;  2.7477279E-01;  0.0000000E+00; -7.1399516E-01;0;  2.8623599E-03;  3.9957102E+04;  0.0000000E+00;  5.2130723E-01;  4.0000000E+04;  0.0000000E+00;  4.0008270E+04;  3.2094948E-03;  0.0000000E+00; -3.4713495E-04;  1.3551997E+03;
  2.9088539E-01;  9.9999998E-03; -2.1996187E-01;4223; -2.1684109E-03;  0.0000000E+00;  2.2987444E-05;  9.9943866E+02;  1.0000000E-01; -4.6507327E+02;3;  5.8873916E-01;  0.0000000E+00; -4.1475636E-01;0;  2.2305422E-03;  3.9954547E+04;  0.0000000E+00;  6.5122730E-01;  4.0000000E+04;  0.0000000E+00;  4.0004133E+04;  2.7260177E-03;  0.0000000E+00; -4.9547543E-04;  1.1185826E+03;
  2.9099485E-01;  9.9999998E-03; -2.0997807E-01;4224; -2.2103756E-03;  0.0000000E+00;  2.1269536E-05;  9.9946448E+02;  1.0000000E-01; -4.4369116E+02;3;  7.6852423E-01;  0.0000000E+00; -2.2970778E-01;0;  1.8002462E-03;  3.9958852E+04;  0.0000000E+00;  7.6439083E-01;  4.0000000E+04;  0.0000000E+00;  4.0000668E+04;  2.2673812E-03;  0.0000000E+00; -4.6713499E-04;  1.1179700E+03;
  2.9110712E-01;  9.9999998E-03; -1.9999424E-01;4225; -2.2695910E-03;  0.0000000E+00;  1.8959743E-06;  9.9959290E+02;  1.0000000E-01; -3.3727441E+02;3;  8.5787582E-01;  0.0000000E+00; -1.2888558E-01;0;  1.4756848E-03;  3.9969969E+04;  0.0000000E+00;  8.2545811E-01;  4.0000000E+04;  0.0000000E+00;  3.9998707E+04;  1.8677189E-03;  0.0000000E+00; -3.9203410E-04;  1.1964366E+03;
  2.9121065E-01;  9.9999998E-03; -1.9000354E-01;4226; -2.3440965E-03;  0.0000000E+00; -1.1211907E-05;  9.9980078E+02;  1.0000000E-01; -1.6503236E+02;3;  8.8997126E-01;  0.0000000E+00; -8.1259713E-02;0;  1.2533056E-03;  3.9986852E+04;  0.0000000E+00;  8.1575590E-01;  4.0000000E+04;  0.0000000E+00;  3.9997930E+04;  1.5553115E-03;  0.0000000E+00; -3.0200588E-04;  1.1942120E+03;
  2.9128078E-01;  9.9999998E-03; -1.8000759E-01;4227; -2.4322388E-03;  0.0000000E+00; -1.2400345E-05;  1.0000523E+03;  1.0000000E-01;  4.3356800E+01;3;  8.9078444E-01;  0.0000000E+00; -6.5078340E-02;0;  1.1483044E-03;  4.0007684E+04;  0.0000000E+00;  7.3607349E-01;  4.0000000E+04;  0.0000000E+00;  3.9997328E+04;  1.3487916E-03;  0.0000000E+00; -2.0048719E-04;  1.1111437E+03;
  2.9131296E-01;  9.9999998E-03; -1.7000854E-01;4228; -2.5301948E-03;  0.0000000E+00; -2.8221480E-06;  1.0003204E+03;  1.0000000E-01;  2.6547397E+02;3;  8.6984473E-01;  0.0000000E+00; -6.5664321E-02;0;  1.1543087E-03;  4.0030152E+04;  0.0000000E+00;  6.0463542E-01;  4.0000000E+04;  0.0000000E+00;  3.9996344E+04;  1.2533703E-03;  0.0000000E+00; -9.9061639E-05;  1.0008543E+03;
  2.9131898E-01;  9.9999998E-03; -1.6001202E-01;4229; -2.6307004E-03;  0.0000000E+00;  1.5112136E-05;  1.0005783E+03;  1.0000000E-01;  4.7909756E+02;3;  8.4007514E-01;  0.0000000E+00; -7.4429832E-02;0;  1.2429138E-03;  4.0052082E+04;  0.0000000E+00;  4.5087674E-01;  4.0000000E+04;  0.0000000E+00;  3.9994910E+04;  1.2596161E-03;  0.0000000E+00; -1.6702372E-05;  9.4561597E+02;
  2.9130277E-01;  9.9999998E-03; -1.5001756E-01;4230; -2.7265437E-03;  0.0000000E+00;  4.3627653E-05;  1.0007979E+03;  1.0000000E-01;  6.6101837E+02;3;  8.1443405E-01;  0.0000000E+00; -8.3229400E-02;0;  1.3722779E-03;  4.0071801E+04;  0.0000000E+00;  3.0186719E-01;  4.0000000E+04;  0.0000000E+00;  3.9993281E+04;  1.3446925E-03;  0.0000000E+00;  2.7585291E-05;  1.0001965E+03;
  2.9126361E-01;  9.9999998E-03; -1.4002214E-01;4231; -2.8105252E-03;  0.0000000E+00;  7.1319177E-05;  1.0009603E+03;  1.0000000E-01;  7.9553308E+02;3;  7.9866970E-01;  0.0000000E+00; -8.5170567E-02;0;  1.4980979E-03;  4.0087113E+04;  0.0000000E+00;  1.7427678E-01;  4.0000000E+04;  0.0000000E+00;  3.9991836E+04;  1.4766960E-03;  0.0000000E+00;  2.1401876E-05;  1.1455597E+03;
  2.9120919E-01;  9.9999998E-03; -1.3002421E-01;4232; -2.8713834E-03;  0.0000000E+00;  8.7714223E-05;  1.0010648E+03;  1.0000000E-01;  8.8214789E+02;3;  7.9447722E-01;  0.0000000E+00; -7.7347890E-02;0;  1.5826088E-03;  4.0096828E+04;  0.0000000E+00;  7.7406995E-02;  4.0000000E+04;  0.0000000E+00;  3.9990180E+04;  1.6200391E-03;  0.0000000E+00; -3.7430287E-05;  1.3239775E+03;
  2.9115072E-01;  9.9999998E-03; -1.2002412E-01;4233; -2.8888709E-03;  0.0000000E+00;  9.5502830E-05;  1.0010965E+03;  1.0000000E-01;  9.0841876E+02;3;  8.3624089E-01;  0.0000000E+00; -5.3518280E-02;0;  1.5995748E-03;  4.0101016E+04;  0.0000000E+00;  1.3168525E-02;  4.0000000E+04;  0.0000000E+00;  3.9988918E+04;  1.7402340E-03;  0.0000000E+00; -1.4065921E-04;  1.4865236E+03;
  2.9109648E-01;  9.9999998E-03; -1.1002242E-01;4234; -2.8484759E-03;  0.0000000E+00;  1.0677759E-04;  1.0010685E+03;  1.0000000E-01;  8.8520953E+02;3;  9.3606567E-01;  0.0000000E+00; -9.3338033E-03;0;  1.5340126E-03;  4.0099625E+04;  0.0000000E+00; -2.2280904E-02;  4.0000000E+04;  0.0000000E+00;  3.9988070E+04;  1.8071372E-03;  0.0000000E+00; -2.7312458E-04;  1.6033901E+03;
  3.0060151E-01;  9.9999998E-03; -2.7000979E-01;4279; -1.9848095E-03;  0.0000000E+00;  2.0618056E-04;  9.9995764E+02;  1.0000000E-01; -3.5110119E+01;3; -1.8954051E+00;  0.0000000E+00; -1.2340816E+00;0;  3.7038499E-03;  4.0008703E+04;  0.0000000E+00;  5.6911986E-02;  4.0000000E+04;  0.0000000E+00;  4.0001250E+04;  4.9899975E-03;  0.0000000E+00; -1.2861477E-03;  3.2182584E+02;
  3.0062637E-01;  9.9999998E-03; -2.6000455E-01;4280; -2.0609144E-03;  0.0000000E+00;  1.6290673E-04;  9.9976367E+02;  1.0000000E-01; -1.9579694E+02;3; -9.3936044E-01;  0.0000000E+00; -1.0953076E+00;0;  3.6722643E-03;  3.9989195E+04;  0.0000000E+00;  8.7686062E-02;  4.0000000E+04;  0.0000000E+00;  4.0003281E+04;  4.5979931E-03;  0.0000000E+00; -9.2572882E-04;  5.0539716E+02;
  3.0070862E-01;  9.9999998E-03; -2.4999619E-01;4281; -2.1031678E-03;  0.0000000E+00;  1.1034035E-04;  9.9960724E+02;  1.0000000E-01; -3.2537350E+02;3; -2.2311999E-01;  0.0000000E+00; -8.6096370E-01;0;  3.5084928E-03;  3.9972242E+04;  0.0000000E+00;  1.0474969E-01;  4.0000000E+04;  0.0000000E+00;  4.0005820E+04;  4.1446560E-03;  0.0000000E+00; -6.3616323E-04;  7.7448975E+02;
  3.0079091E-01;  9.9999998E-03; -2.3998322E-01;4282; -2.1409229E-03;  0.0000000E+00;  6.7164445E-05;  9.9951245E+02;  1.0000000E-01; -4.0393918E+02;3;  2.6083314E-01;  0.0000000E+00; -6.1655712E-01;0;  3.1165057E-03;  3.9960688E+04;  0.0000000E+00;  2.7753708E-01;  4.0000000E+04;  0.0000000E+00;  4.0008102E+04;  3.6471351E-03;  0.0000000E+00; -5.3062954E-04;  1.1088055E+03;
  3.0087072E-01;  9.9999998E-03; -2.2997262E-01;4283; -2.1799419E-03;  0.0000000E+00;  7.5563199E-05;  9.9946442E+02;  1.0000000E-01; -4.4374054E+02;3;  5.6558537E-01;  0.0000000E+00; -3.9323294E-01;0;  2.4921892E-03;  3.9955195E+04;  0.0000000E+00;  4.8301968E-01;  4.0000000E+04;  0.0000000E+00;  4.0007328E+04;  3.1341421E-03;  0.0000000E+00; -6.4195303E-04;  1.2039885E+03;
  3.0095747E-01;  9.9999998E-03; -2.1997912E-01;4284; -2.2243257E-03;  0.0000000E+00;  9.9617289E-05;  9.9945172E+02;  1.0000000E-01; -4.5425876E+02;3;  7.4874353E-01;  0.0000000E+00; -2.2929677E-01;0;  1.9350606E-03;  3.9956434E+04;  0.0000000E+00;  6.5073848E-01;  4.0000000E+04;  0.0000000E+00;  4.0003898E+04;  2.6377107E-03;  0.0000000E+00; -7.0265011E-04;  1.0755999E+03;
  3.0105066E-01;  9.9999998E-03; -2.0999534E-01;4285; -2.2780211E-03;  0.0000000E+00;  9.2892216E-05;  9.9952954E+02;  1.0000000E-01; -3.8976675E+02;3;  8.4639120E-01;  0.0000000E+00; -1.3312903E-01;0;  1.5387826E-03;  3.9964617E+04;  0.0000000E+00;  7.4981743E-01;  4.0000000E+04;  0.0000000E+00;  4.0000609E+04;  2.1891769E-03;  0.0000000E+00; -6.5039430E-04;  1.0905934E+03;
  3.0113924E-01;  9.9999998E-03; -2.0000924E-01;4286; -2.3433119E-03;  0.0000000E+00;  7.7316174E-05;  9.9970111E+02;  1.0000000E-01; -2.4764732E+02;3;  8.8652438E-01;  0.0000000E+00; -8.5462697E-02;0;  1.2435780E-03;  3.9978715E+04;  0.0000000E+00;  7.6749003E-01;  4.0000000E+04;  0.0000000E+00;  3.9999543E+04;  1.8169201E-03;  0.0000000E+00; -5.7334214E-04;  1.1033049E+03;
  3.0120662E-01;  9.9999998E-03; -1.9001715E-01;4287; -2.4192228E-03;  0.0000000E+00;  7.0525406E-05;  9.9993500E+02;  1.0000000E-01; -5.3875019E+01;3;  8.9512670E-01;  0.0000000E+00; -6.4332716E-02;0;  1.0528432E-03;  3.9997734E+04;  0.0000000E+00;  7.0656413E-01;  4.0000000E+04;  0.0000000E+00;  3.9998605E+04;  1.5430654E-03;  0.0000000E+00; -4.9022224E-04;  1.0257307E+03;
  3.0123976E-01;  9.9999998E-03; -1.8002148E-01;4288; -2.5040510E-03;  0.0000000E+00;  7.4571130E-05;  1.0001996E+03;  1.0000000E-01;  1.6532866E+02;3;  8.8610071E-01;  0.0000000E+00; -5.5164471E-02;0;  9.7712060E-04;  4.0019523E+04;  0.0000000E+00;  5.8560085E-01;  4.0000000E+04;  0.0000000E+00;  3.9997691E+04;  1.3794054E-03;  0.0000000E+00; -4.0228479E-04;  8.9301868E+02;
  3.0124158E-01;  9.9999998E-03; -1.7002308E-01;4289; -2.5943485E-03;  0.0000000E+00;  8.5981432E-05;  1.0004604E+03;  1.0000000E-01;  3.8142133E+02;3;  8.6923146E-01;  0.0000000E+00; -4.9844701E-02;0;  1.0051583E-03;  4.0042137E+04;  0.0000000E+00;  4.3375432E-01;  4.0000000E+04;  0.0000000E+00;  3.9996336E+04;  1.3245252E-03;  0.0000000E+00; -3.1936695E-04;  7.9257025E+02;
  3.0122489E-01;  9.9999998E-03; -1.6002628E-01;4290; -2.6844051E-03;  0.0000000E+00;  1.0174871E-04;  1.0006979E+03;  1.0000000E-01;  5.7825525E+02;3;  8.4476256E-01;  0.0000000E+00; -4.9063910E-02;0;  1.1062811E-03;  4.0063016E+04;  0.0000000E+00;  2.8020403E-01;  4.0000000E+04;  0.0000000E+00;  3.9995016E+04;  1.3633255E-03;  0.0000000E+00; -2.5704448E-04;  8.1750244E+02;
  3.0119568E-01;  9.9999998E-03; -1.5003075E-01;4291; -2.7664488E-03;  0.0000000E+00;  1.1648686E-04;  1.0008915E+03;  1.0000000E-01;  7.3864575E+02;3;  8.2856178E-01;  0.0000000E+00; -5.1677056E-02;0;  1.2394816E-03;  4.0080402E+04;  0.0000000E+00;  1.4392336E-01;  4.0000000E+04;  0.0000000E+00;  3.9993000E+04;  1.4691683E-03;  0.0000000E+00; -2.2968678E-04;  9.6914209E+02;
  3.0115581E-01;  9.9999998E-03; -1.4003326E-01;4292; -2.8340865E-03;  0.0000000E+00;  1.2285814E-04;  1.0010193E+03;  1.0000000E-01;  8.4442053E+02;3;  8.1516743E-01;  0.0000000E+00; -5.7144027E-02;0;  1.3622306E-03;  4.0092594E+04;  0.0000000E+00;  3.6199555E-02;  4.0000000E+04;  0.0000000E+00;  3.9991277E+04;  1.6081653E-03;  0.0000000E+00; -2.4593470E-04;  1.1751487E+03;
  3.0111161E-01;  9.9999998E-03; -1.3003278E-01;4293; -2.8755704E-03;  0.0000000E+00;  1.1963509E-04;  1.0010799E+03;  1.0000000E-01;  8.9469073E+02;3;  8.1638354E-01;  0.0000000E+00; -6.3837543E-02;0;  1.4378063E-03;  4.0099289E+04;  0.0000000E+00; -3.8024604E-02;  4.0000000E+04;  0.0000000E+00;  3.9989621E+04;  1.7440387E-03;  0.0000000E+00; -3.0623237E-04;  1.3711544E+03;
  3.0107027E-01;  9.9999998E-03; -1.2003015E-01;4294; -2.8725846E-03;  0.0000000E+00;  1.1611296E-04;  1.0010755E+03;  1.0000000E-01;  8.9103650E+02;3;  8.7559342E-01;  0.0000000E+00; -4.9483873E-02;0;  1.4397304E-03;  4.0100340E+04;  0.0000000E+00; -8.0018088E-02;  4.0000000E+04;  0.0000000E+00;  3.9988594E+04;  1.8427563E-03;  0.0000000E+00; -4.0302586E-04;  1.5195519E+03;
  3.0103803E-01;  9.9999998E-03; -1.1002602E-01;4295; -2.8104880E-03;  0.0000000E+00;  1.2203598E-04;  1.0010126E+03;  1.0000000E-01;  8.3888983E+02;3;  1.0103760E+00;  0.0000000E+00; -3.9577815E-03;0;  1.3520588E-03;  4.0095707E+04;  0.0000000E+00; -9.5405504E-02;  4.0000000E+04;  0.0000000E+00;  3.9987996E+04;  1.8757256E-03;  0.0000000E+00; -5.2366673E-04;  1.6015114E+03;
  3.1062159E-01;  9.9999998E-03; -2.7000961E-01;4340; -1.9617444E-03;  0.0000000E+00;  2.9702965E-04;  9.9984027E+02;  1.0000000E-01; -1.3234193E+02;3; -6.6148400E-01;  0.0000000E+00; -7.3222351E-01;0;  3.3341770E-03;  3.9997543E+04;  0.0000000E+00; -3.3734030E-01;  4.0000000E+04;  0.0000000E+00;  4.0001730E+04;  5.1341327E-03;  0.0000000E+00; -1.7999557E-03;  4.4278143E+02;
  3.1065524E-01;  9.9999998E-03; -2.6000601E-01;4341; -2.0400225E-03;  0.0000000E+00;  2.6115307E-04;  9.9967596E+02;  1.0000000E-01; -2.6843686E+02;3; -9.3884662E-02;  0.0000000E+00; -6.1478537E-01;0;  3.2464885E-03;  3.9981160E+04;  0.0000000E+00; -8.5560583E-02;  4.0000000E+04;  0.0000000E+00;  4.0003766E+04;  4.6624895E-03;  0.0000000E+00; -1.4160010E-03;  4.6935809E+02;
  3.1076255E-01;  9.9999998E-03; -2.5000072E-01;4342; -2.1014106E-03;  0.0000000E+00;  2.1465070E-04;  9.9955640E+02;  1.0000000E-01; -3.6749579E+02;3;  3.1297404E-01;  0.0000000E+00; -4.6396419E-01;0;  3.0832342E-03;  3.9968297E+04;  0.0000000E+00;  8.8912092E-02;  4.0000000E+04;  0.0000000E+00;  4.0005055E+04;  4.1507450E-03;  0.0000000E+00; -1.0675109E-03;  6.9908710E+02;
  3.1086877E-01;  9.9999998E-03; -2.3999311E-01;4343; -2.1598036E-03;  0.0000000E+00;  1.7657521E-04;  9.9950183E+02;  1.0000000E-01; -4.1272906E+02;3;  5.8044291E-01;  0.0000000E+00; -3.2155654E-01;0;  2.7241318E-03;  3.9960883E+04;  0.0000000E+00;  3.1386188E-01;  4.0000000E+04;  0.0000000E+00;  4.0006184E+04;  3.6200469E-03;  0.0000000E+00; -8.9591503E-04;  9.6295483E+02;
  3.1094676E-01;  9.9999998E-03; -2.2998919E-01;4344; -2.2203668E-03;  0.0000000E+00;  1.7346312E-04;  9.9949359E+02;  1.0000000E-01; -4.1954370E+02;3;  7.4414462E-01;  0.0000000E+00; -2.0671010E-01;0;  2.1946724E-03;  3.9959621E+04;  0.0000000E+00;  5.1863533E-01;  4.0000000E+04;  0.0000000E+00;  4.0005496E+04;  3.0969570E-03;  0.0000000E+00; -9.0228469E-04;  1.0498817E+03;
  3.1101653E-01;  9.9999998E-03; -2.1999899E-01;4345; -2.2809852E-03;  0.0000000E+00;  1.7984718E-04;  9.9953430E+02;  1.0000000E-01; -3.8581625E+02;3;  8.3341354E-01;  0.0000000E+00; -1.2832958E-01;0;  1.7159879E-03;  3.9964703E+04;  0.0000000E+00;  6.4669007E-01;  4.0000000E+04;  0.0000000E+00;  4.0002496E+04;  2.6096408E-03;  0.0000000E+00; -8.9365296E-04;  9.9261475E+02;
  3.1108308E-01;  9.9999998E-03; -2.1001387E-01;4346; -2.3459976E-03;  0.0000000E+00;  1.6604686E-04;  9.9965594E+02;  1.0000000E-01; -2.8502896E+02;3;  8.7508500E-01;  0.0000000E+00; -8.6830117E-02;0;  1.3588336E-03;  3.9975738E+04;  0.0000000E+00;  6.8725157E-01;  4.0000000E+04;  0.0000000E+00;  4.0000293E+04;  2.1844977E-03;  0.0000000E+00; -8.2566397E-04;  9.8867371E+02;
  3.1113666E-01;  9.9999998E-03; -2.0002493E-01;4347; -2.4163129E-03;  0.0000000E+00;  1.5223635E-04;  9.9985480E+02;  1.0000000E-01; -1.2029289E+02;3;  8.8916093E-01;  0.0000000E+00; -6.8627104E-02;0;  1.0888444E-03;  3.9991816E+04;  0.0000000E+00;  6.4533335E-01;  4.0000000E+04;  0.0000000E+00;  3.9999266E+04;  1.8444039E-03;  0.0000000E+00; -7.5555954E-04;  9.2677686E+02;
  3.1116664E-01;  9.9999998E-03; -1.9003122E-01;4348; -2.4928404E-03;  0.0000000E+00;  1.4843578E-04;  1.0000952E+03;  1.0000000E-01;  7.8911346E+01;3;  8.8901788E-01;  0.0000000E+00; -5.8919292E-02;0;  9.1871293E-04;  4.0011602E+04;  0.0000000E+00;  5.3861672E-01;  4.0000000E+04;  0.0000000E+00;  3.9998340E+04;  1.6054909E-03;  0.0000000E+00; -6.8677799E-04;  7.9444183E+02;
  3.1117257E-01;  9.9999998E-03; -1.8003426E-01;4349; -2.5743966E-03;  0.0000000E+00;  1.5287848E-04;  1.0003482E+03;  1.0000000E-01;  2.8848566E+02;3;  8.7880260E-01;  0.0000000E+00; -5.3238850E-02;0;  8.5513794E-04;  4.0032898E+04;  0.0000000E+00;  3.9477482E-01;  4.0000000E+04;  0.0000000E+00;  3.9997344E+04;  1.4735821E-03;  0.0000000E+00; -6.1844417E-04;  6.6907733E+02;
  3.1115669E-01;  9.9999998E-03; -1.7003524E-01;4350; -2.6565886E-03;  0.0000000E+00;  1.5998889E-04;  1.0005923E+03;  1.0000000E-01;  4.9065280E+02;3;  8.6352909E-01;  0.0000000E+00; -4.7361668E-02;0;  8.8348746E-04;  4.0053906E+04;  0.0000000E+00;  2.4322216E-01;  4.0000000E+04;  0.0000000E+00;  3.9995867E+04;  1.4421077E-03;  0.0000000E+00; -5.5862026E-04;  6.6790460E+02;
  3.1112677E-01;  9.9999998E-03; -1.6003741E-01;4351; -2.7343971E-03;  0.0000000E+00;  1.6583610E-04;  1.0008002E+03;  1.0000000E-01;  6.6299359E+02;3;  8.5035062E-01;  0.0000000E+00; -4.5665961E-02;0;  9.7320933E-04;  4.0072355E+04;  0.0000000E+00;  1.0494090E-01;  4.0000000E+04;  0.0000000E+00;  3.9994109E+04;  1.4924998E-03;  0.0000000E+00; -5.1929051E-04;  8.2435516E+02;
  3.1109074E-01;  9.9999998E-03; -1.5003996E-01;4352; -2.8020500E-03;  0.0000000E+00;  1.6654596E-04;  1.0009503E+03;  1.0000000E-01;  7.8723700E+02;3;  8.3750910E-01;  0.0000000E+00; -4.7390785E-02;0;  1.0861019E-03;  4.0086789E+04;  0.0000000E+00; -7.6189232E-03;  4.0000000E+04;  0.0000000E+00;  3.9992109E+04;  1.5966475E-03;  0.0000000E+00; -5.1054562E-04;  1.0553088E+03;
  3.1105518E-01;  9.9999998E-03; -1.4003968E-01;4353; -2.8521214E-03;  0.0000000E+00;  1.6070396E-04;  1.0010417E+03;  1.0000000E-01;  8.6308673E+02;3;  8.3216494E-01;  0.0000000E+00; -5.3881135E-02;0;  1.1828800E-03;  4.0095898E+04;  0.0000000E+00; -8.7688468E-02;  4.0000000E+04;  0.0000000E+00;  3.9990535E+04;  1.7206306E-03;  0.0000000E+00; -5.3775049E-04;  1.2836096E+03;
  3.1102499E-01;  9.9999998E-03; -1.3003595E-01;4354; -2.8757087E-03;  0.0000000E+00;  1.4922553E-04;  1.0010696E+03;  1.0000000E-01;  8.8619714E+02;3;  8.4518874E-01;  0.0000000E+00; -6.1020635E-02;0;  1.2292630E-03;  4.0099629E+04;  0.0000000E+00; -1.3424754E-01;  4.0000000E+04;  0.0000000E+00;  3.9989133E+04;  1.8292754E-03;  0.0000000E+00; -6.0001237E-04;  1.4649298E+03;
  3.1100649E-01;  9.9999998E-03; -1.2002977E-01;4355; -2.8588679E-03;  0.0000000E+00;  1.3613478E-04;  1.0010398E+03;  1.0000000E-01;  8.6140771E+02;3;  9.1153872E-01;  0.0000000E+00; -5.6575093E-02;0;  1.1997717E-03;  4.0097871E+04;  0.0000000E+00; -1.5124062E-01;  4.0000000E+04;  0.0000000E+00;  3.9988426E+04;  1.8905449E-03;  0.0000000E+00; -6.9077319E-04;  1.5763889E+03;
  3.1100756E-01;  9.9999998E-03; -1.1002047E-01;4356; -2.7918436E-03;  0.0000000E+00;  1.3218129E-04;  1.0009572E+03;  1.0000000E-01;  7.9296521E+02;3;  1.0532999E+00;  0.0000000E+00; -1.9851517E-02;0;  1.0787915E-03;  4.0091668E+04;  0.0000000E+00; -1.4569862E-01;  4.0000000E+04;  0.0000000E+00;  3.9987836E+04;  1.8786906E-03;  0.0000000E+00; -7.9989905E-04;  1.6093938E+03;
  3.2105255E-01;  9.9999998E-03; -1.1000751E-01;4417; -2.7740013E-03;  0.0000000E+00;  1.4251906E-04;  1.0009131E+03;  1.0000000E-01;  7.5652179E+02;3;  1.0910165E+00;  0.0000000E+00; -4.0338002E-02;0;  7.7461684E-04;  4.0088527E+04;  0.0000000E+00; -1.6786204E-01;  4.0000000E+04;  0.0000000E+00;  3.9988051E+04;  1.8666128E-03;  0.0000000E+00; -1.0919960E-03;  1.6091718E+03;
  3.2100570E-01;  9.9999998E-03; -1.2002144E-01;4416; -2.8342151E-03;  0.0000000E+00;  1.5660810E-04;  1.0009974E+03;  1.0000000E-01;  8.2634698E+02;3;  9.5920759E-01;  0.0000000E+00; -6.4219885E-02;0;  9.3323237E-04;  4.0095426E+04;  0.0000000E+00; -1.9221595E-01;  4.0000000E+04;  0.0000000E+00;  3.9987973E+04;  1.9257874E-03;  0.0000000E+00; -9.9255505E-04;  1.6303241E+03;
  3.2098112E-01;  9.9999998E-03; -1.3003416E-01;4415; -2.8635671E-03;  0.0000000E+00;  1.7626901E-04;  1.0010450E+03;  1.0000000E-01;  8.6575330E+02;3;  8.8286889E-01;  0.0000000E+00; -6.7248128E-02;0;  1.0038608E-03;  4.0098594E+04;  0.0000000E+00; -1.9941819E-01;  4.0000000E+04;  0.0000000E+00;  3.9988645E+04;  1.9097943E-03;  0.0000000E+00; -9.0593344E-04;  1.5698821E+03;
  3.2098356E-01;  9.9999998E-03; -1.4004205E-01;4414; -2.8568362E-03;  0.0000000E+00;  1.9491451E-04;  1.0010447E+03;  1.0000000E-01;  8.6545703E+02;3;  8.5405487E-01;  0.0000000E+00; -5.8451489E-02;0;  1.0001508E-03;  4.0097121E+04;  0.0000000E+00; -1.8139265E-01;  4.0000000E+04;  0.0000000E+00;  3.9989492E+04;  1.8406061E-03;  0.0000000E+00; -8.4045524E-04;  1.4278986E+03;
  3.2100388E-01;  9.9999998E-03; -1.5004535E-01;4413; -2.8239880E-03;  0.0000000E+00;  2.0873698E-04;  1.0009857E+03;  1.0000000E-01;  8.1666827E+02;3;  8.4911525E-01;  0.0000000E+00; -5.1425241E-02;0;  9.4564661E-04;  4.0090930E+04;  0.0000000E+00; -1.3194154E-01;  4.0000000E+04;  0.0000000E+00;  3.9991074E+04;  1.7470761E-03;  0.0000000E+00; -8.0142944E-04;  1.2170765E+03;
  3.2103458E-01;  9.9999998E-03; -1.6004486E-01;4412; -2.7717140E-03;  0.0000000E+00;  2.1746953E-04;  1.0008698E+03;  1.0000000E-01;  7.2057220E+02;3;  8.5406017E-01;  0.0000000E+00; -4.9481295E-02;0;  8.7127910E-04;  4.0079707E+04;  0.0000000E+00; -4.8616715E-02;  4.0000000E+04;  0.0000000E+00;  3.9992988E+04;  1.6617049E-03;  0.0000000E+00; -7.9042575E-04;  9.6503491E+02;
  3.2106784E-01;  9.9999998E-03; -1.7004311E-01;4411; -2.7065605E-03;  0.0000000E+00;  2.2123755E-04;  1.0007017E+03;  1.0000000E-01;  5.8131689E+02;3;  8.6286551E-01;  0.0000000E+00; -5.0244212E-02;0;  8.1198168E-04;  4.0064395E+04;  0.0000000E+00;  6.5882742E-02;  4.0000000E+04;  0.0000000E+00;  3.9994809E+04;  1.6167550E-03;  0.0000000E+00; -8.0477336E-04;  7.1917151E+02;
  3.2109487E-01;  9.9999998E-03; -1.8004243E-01;4410; -2.6331346E-03;  0.0000000E+00;  2.2217886E-04;  1.0004957E+03;  1.0000000E-01;  4.1065506E+02;3;  8.7276757E-01;  0.0000000E+00; -5.2675653E-02;0;  8.0167333E-04;  4.0045941E+04;  0.0000000E+00;  2.0316219E-01;  4.0000000E+04;  0.0000000E+00;  3.9996242E+04;  1.6399621E-03;  0.0000000E+00; -8.3828875E-04;  5.6289990E+02;
  3.2111153E-01;  9.9999998E-03; -1.9004193E-01;4409; -2.5563512E-03;  0.0000000E+00;  2.2235053E-04;  1.0002616E+03;  1.0000000E-01;  2.1668523E+02;3;  8.8087440E-01;  0.0000000E+00; -5.7872906E-02;0;  8.6841627E-04;  4.0026238E+04;  0.0000000E+00;  3.4949824E-01;  4.0000000E+04;  0.0000000E+00;  3.9997523E+04;  1.7512141E-03;  0.0000000E+00; -8.8279787E-04;  5.8118005E+02;
  3.2111552E-01;  9.9999998E-03; -2.0003919E-01;4408; -2.4793898E-03;  0.0000000E+00;  2.2744652E-04;  1.0000277E+03;  1.0000000E-01;  2.2912931E+01;3;  8.8682222E-01;  0.0000000E+00; -6.4281099E-02;0;  1.0278956E-03;  4.0007102E+04;  0.0000000E+00;  4.8304206E-01;  4.0000000E+04;  0.0000000E+00;  3.9998844E+04;  1.9602634E-03;  0.0000000E+00; -9.3236769E-04;  7.1154700E+02;
  3.2110953E-01;  9.9999998E-03; -2.1003202E-01;4407; -2.4050374E-03;  0.0000000E+00;  2.4167733E-04;  9.9982294E+02;  1.0000000E-01; -1.4671190E+02;3;  8.8533992E-01;  0.0000000E+00; -6.9389626E-02;0;  1.2765229E-03;  3.9990176E+04;  0.0000000E+00;  5.7562441E-01;  4.0000000E+04;  0.0000000E+00;  3.9999047E+04;  2.2659979E-03;  0.0000000E+00; -9.8947505E-04;  8.2727502E+02;
  3.2108504E-01;  9.9999998E-03; -2.2001825E-01;4406; -2.3315267E-03;  0.0000000E+00;  2.6158328E-04;  9.9966925E+02;  1.0000000E-01; -2.7401694E+02;3;  8.6936122E-01;  0.0000000E+00; -8.5421734E-02;0;  1.5947829E-03;  3.9977281E+04;  0.0000000E+00;  6.0192949E-01;  4.0000000E+04;  0.0000000E+00;  4.0000781E+04;  2.6572985E-03;  0.0000000E+00; -1.0625155E-03;  8.6983771E+02;
  3.2103962E-01;  9.9999998E-03; -2.3000553E-01;4405; -2.2556812E-03;  0.0000000E+00;  2.6911576E-04;  9.9958679E+02;  1.0000000E-01; -3.4231131E+02;3;  8.3222288E-01;  0.0000000E+00; -1.1473375E-01;0;  1.9971388E-03;  3.9969445E+04;  0.0000000E+00;  5.4586935E-01;  4.0000000E+04;  0.0000000E+00;  4.0003508E+04;  3.1165627E-03;  0.0000000E+00; -1.1194239E-03;  9.0496771E+02;
  3.2096919E-01;  9.9999998E-03; -2.4000397E-01;4404; -2.1768173E-03;  0.0000000E+00;  2.8102522E-04;  9.9955255E+02;  1.0000000E-01; -3.7070557E+02;3;  7.6019669E-01;  0.0000000E+00; -1.6330698E-01;0;  2.4313591E-03;  3.9966582E+04;  0.0000000E+00;  4.0429577E-01;  4.0000000E+04;  0.0000000E+00;  4.0004520E+04;  3.6224809E-03;  0.0000000E+00; -1.1911216E-03;  8.4681726E+02;
  3.2086268E-01;  9.9999998E-03; -2.5000688E-01;4403; -2.0955265E-03;  0.0000000E+00;  3.1763283E-04;  9.9956592E+02;  1.0000000E-01; -3.5964413E+02;3;  6.4036256E-01;  0.0000000E+00; -2.3011050E-01;0;  2.7212610E-03;  3.9969301E+04;  0.0000000E+00;  1.9570363E-01;  4.0000000E+04;  0.0000000E+00;  4.0004395E+04;  4.1515143E-03;  0.0000000E+00; -1.4302533E-03;  6.3239374E+02;
  3.2073998E-01;  9.9999998E-03; -2.6000917E-01;4402; -2.0071487E-03;  0.0000000E+00;  3.5596697E-04;  9.9963751E+02;  1.0000000E-01; -3.0033719E+02;3;  4.4962141E-01;  0.0000000E+00; -3.0789584E-01;0;  2.8754696E-03;  3.9977324E+04;  0.0000000E+00; -4.5683477E-02;  4.0000000E+04;  0.0000000E+00;  4.0003520E+04;  4.6806415E-03;  0.0000000E+00; -1.8051717E-03;  4.5723932E+02;
  3.2067916E-01;  9.9999998E-03; -2.7001107E-01;4401; -1.9097766E-03;  0.0000000E+00;  3.8275143E-04;  9.9975793E+02;  1.0000000E-01; -2.0053754E+02;3;  1.6546136E-01;  0.0000000E+00; -3.8244143E-01;0;  3.0092394E-03;  3.9989281E+04;  0.0000000E+00; -3.6314380E-01;  4.0000000E+04;  0.0000000E+00;  4.0002531E+04;  5.1890248E-03;  0.0000000E+00; -2.1797854E-03;  5.6318927E+02;
  3.3072335E-01;  9.9999998E-03; -2.7001357E-01;4462; -1.8234698E-03;  0.0000000E+00;  4.5743544E-04;  9.9972583E+02;  1.0000000E-01; -2.2715407E+02;3;  6.6587305E-01;  0.0000000E+00; -1.7311056E-01;0;  2.7692842E-03;  3.9985000E+04;  0.0000000E+00; -9.0849027E-02;  4.0000000E+04;  0.0000000E+00;  4.0002742E+04;  5.1446268E-03;  0.0000000E+00; -2.3753427E-03;  3.6795792E+02;
  3.3080530E-01;  9.9999998E-03; -2.6001334E-01;4463; -1.9582964E-03;  0.0000000E+00;  4.4189149E-04;  9.9965601E+02;  1.0000000E-01; -2.8497958E+02;3;  7.6271355E-01;  0.0000000E+00; -1.3899492E-01;0;  2.5836765E-03;  3.9977949E+04;  0.0000000E+00;  1.7463535E-01;  4.0000000E+04;  0.0000000E+00;  4.0003078E+04;  4.6461262E-03;  0.0000000E+00; -2.0624497E-03;  4.8068005E+02;
  3.3092797E-01;  9.9999998E-03; -2.5001365E-01;4464; -2.0762507E-03;  0.0000000E+00;  4.1532455E-04;  9.9962915E+02;  1.0000000E-01; -3.0725058E+02;3;  8.2211232E-01;  0.0000000E+00; -1.0815141E-01;0;  2.4280031E-03;  3.9974840E+04;  0.0000000E+00;  3.6348635E-01;  4.0000000E+04;  0.0000000E+00;  4.0002871E+04;  4.1396627E-03;  0.0000000E+00; -1.7116595E-03;  6.6056097E+02;
  3.3102715E-01;  9.9999998E-03; -2.4001493E-01;4465; -2.1816802E-03;  0.0000000E+00;  3.8241025E-04;  9.9965625E+02;  1.0000000E-01; -2.8478207E+02;3;  8.5083985E-01;  0.0000000E+00; -8.8099353E-02;0;  2.2112359E-03;  3.9976242E+04;  0.0000000E+00;  4.8622304E-01;  4.0000000E+04;  0.0000000E+00;  4.0002570E+04;  3.6441418E-03;  0.0000000E+00; -1.4329059E-03;  7.7606171E+02;
  3.3108598E-01;  9.9999998E-03; -2.3002048E-01;4466; -2.2774907E-03;  0.0000000E+00;  3.6255480E-04;  9.9972266E+02;  1.0000000E-01; -2.2977129E+02;3;  8.7026882E-01;  0.0000000E+00; -7.6224178E-02;0;  1.8813191E-03;  3.9982031E+04;  0.0000000E+00;  5.3751111E-01;  4.0000000E+04;  0.0000000E+00;  4.0001129E+04;  3.1790053E-03;  0.0000000E+00; -1.2976862E-03;  7.8349451E+02;
  3.3111617E-01;  9.9999998E-03; -2.2003327E-01;4467; -2.3651435E-03;  0.0000000E+00;  3.4268090E-04;  9.9983655E+02;  1.0000000E-01; -1.3540358E+02;3;  8.7699103E-01;  0.0000000E+00; -6.9894992E-02;0;  1.5578393E-03;  3.9992129E+04;  0.0000000E+00;  5.1738566E-01;  4.0000000E+04;  0.0000000E+00;  3.9999000E+04;  2.7633524E-03;  0.0000000E+00; -1.2055130E-03;  7.4653101E+02;
  3.3112597E-01;  9.9999998E-03; -2.1004361E-01;4468; -2.4468116E-03;  0.0000000E+00;  3.1680131E-04;  1.0000024E+03;  1.0000000E-01;  1.9752527E+00;3;  8.7956768E-01;  0.0000000E+00; -6.5882616E-02;0;  1.2784272E-03;  4.0005949E+04;  0.0000000E+00;  4.3714640E-01;  4.0000000E+04;  0.0000000E+00;  3.9998246E+04;  2.4139904E-03;  0.0000000E+00; -1.1355632E-03;  6.6419141E+02;
  3.3111325E-01;  9.9999998E-03; -2.0004730E-01;4469; -2.5256660E-03;  0.0000000E+00;  2.9981253E-04;  1.0002042E+03;  1.0000000E-01;  1.6918040E+02;3;  8.7848872E-01;  0.0000000E+00; -6.2476259E-02;0;  1.0475541E-03;  4.0022324E+04;  0.0000000E+00;  3.1580207E-01;  4.0000000E+04;  0.0000000E+00;  3.9997742E+04;  2.1438617E-03;  0.0000000E+00; -1.0963076E-03;  5.4538593E+02;
  3.3107772E-01;  9.9999998E-03; -1.9004640E-01;4470; -2.6016433E-03;  0.0000000E+00;  2.9065681E-04;  1.0004099E+03;  1.0000000E-01;  3.3954596E+02;3;  8.7572640E-01;  0.0000000E+00; -5.8526959E-02;0;  8.8931865E-04;  4.0039801E+04;  0.0000000E+00;  1.7685245E-01;  4.0000000E+04;  0.0000000E+00;  3.9996766E+04;  1.9595325E-03;  0.0000000E+00; -1.0702139E-03;  5.1044559E+02;
  3.3103329E-01;  9.9999998E-03; -1.8004517E-01;4471; -2.6727316E-03;  0.0000000E+00;  2.8398095E-04;  1.0006083E+03;  1.0000000E-01;  5.0398575E+02;3;  8.7115097E-01;  0.0000000E+00; -5.4573365E-02;0;  8.0677727E-04;  4.0057070E+04;  0.0000000E+00;  4.1477367E-02;  4.0000000E+04;  0.0000000E+00;  3.9995180E+04;  1.8594293E-03;  0.0000000E+00; -1.0526520E-03;  6.5121405E+02;
  3.3099499E-01;  9.9999998E-03; -1.7004584E-01;4472; -2.7360867E-03;  0.0000000E+00;  2.7535850E-04;  1.0007836E+03;  1.0000000E-01;  6.4926556E+02;3;  8.6635756E-01;  0.0000000E+00; -5.3515382E-02;0;  7.8563089E-04;  4.0072328E+04;  0.0000000E+00; -7.5071543E-02;  4.0000000E+04;  0.0000000E+00;  3.9993535E+04;  1.8329024E-03;  0.0000000E+00; -1.0472715E-03;  8.9687183E+02;
  3.3096707E-01;  9.9999998E-03; -1.6004749E-01;4473; -2.7878676E-03;  0.0000000E+00;  2.6286795E-04;  1.0009103E+03;  1.0000000E-01;  7.5415149E+02;3;  8.6398506E-01;  0.0000000E+00; -5.5125546E-02;0;  8.0167805E-04;  4.0084672E+04;  0.0000000E+00; -1.6243832E-01;  4.0000000E+04;  0.0000000E+00;  3.9991707E+04;  1.8604414E-03;  0.0000000E+00; -1.0587634E-03;  1.1597058E+03;
  3.3095777E-01;  9.9999998E-03; -1.5004687E-01;4474; -2.8240539E-03;  0.0000000E+00;  2.4579527E-04;  1.0009952E+03;  1.0000000E-01;  8.2456927E+02;3;  8.6749429E-01;  0.0000000E+00; -5.9890360E-02;0;  8.2590710E-04;  4.0093172E+04;  0.0000000E+00; -2.1583603E-01;  4.0000000E+04;  0.0000000E+00;  3.9989902E+04;  1.9161284E-03;  0.0000000E+00; -1.0902213E-03;  1.3913865E+03;
  3.3097455E-01;  9.9999998E-03; -1.4004067E-01;4475; -2.8408107E-03;  0.0000000E+00;  2.2376604E-04;  1.0010308E+03;  1.0000000E-01;  8.5400055E+02;3;  8.8326609E-01;  0.0000000E+00; -6.8163805E-02;0;  8.2848559E-04;  4.0097234E+04;  0.0000000E+00; -2.3614764E-01;  4.0000000E+04;  0.0000000E+00;  3.9988590E+04;  1.9707968E-03;  0.0000000E+00; -1.1423113E-03;  1.5615702E+03;
  3.3101976E-01;  9.9999998E-03; -1.3002677E-01;4476; -2.8308316E-03;  0.0000000E+00;  1.9840905E-04;  1.0010216E+03;  1.0000000E-01;  8.4639581E+02;3;  9.3402725E-01;  0.0000000E+00; -7.6830782E-02;0;  7.8274973E-04;  4.0097332E+04;  0.0000000E+00; -2.2870970E-01;  4.0000000E+04;  0.0000000E+00;  3.9987836E+04;  1.9957619E-03;  0.0000000E+00; -1.2130121E-03;  1.6522550E+03;
  3.3108041E-01;  9.9999998E-03; -1.2000780E-01;4477; -2.7935070E-03;  0.0000000E+00;  1.7444250E-04;  1.0009771E+03;  1.0000000E-01;  8.0955737E+02;3;  1.0275631E+00;  0.0000000E+00; -7.4031517E-02;0;  6.6885480E-04;  4.0093828E+04;  0.0000000E+00; -2.0146601E-01;  4.0000000E+04;  0.0000000E+00;  3.9987516E+04;  1.9663495E-03;  0.0000000E+00; -1.2974947E-03;  1.6587678E+03;
  3.3113846E-01;  9.9999998E-03; -1.0999553E-01;4478; -2.7483683E-03;  0.0000000E+00;  1.5502522E-04;  1.0009079E+03;  1.0000000E-01;  7.5217627E+02;3;  1.1385405E+00;  0.0000000E+00; -6.1699461E-02;0;  4.7675776E-04;  4.0087566E+04;  0.0000000E+00; -1.6306922E-01;  4.0000000E+04;  0.0000000E+00;  3.9987914E+04;  1.8657867E-03;  0.0000000E+00; -1.3890290E-03;  1.5877164E+03;
  3.4078017E-01;  9.9999998E-03; -2.7001658E-01;4523; -1.6896895E-03;  0.0000000E+00;  5.1664480E-04;  9.9972986E+02;  1.0000000E-01; -2.2379614E+02;3;  9.7740501E-01;  0.0000000E+00; -7.2951697E-02;0;  2.6215345E-03;  3.9983582E+04;  0.0000000E+00;  1.5249299E-01;  4.0000000E+04;  0.0000000E+00;  4.0002691E+04;  4.9813157E-03;  0.0000000E+00; -2.3597812E-03;  4.0859158E+02;
  3.4086642E-01;  9.9999998E-03; -2.6001751E-01;4524; -1.8822977E-03;  0.0000000E+00;  5.1034696E-04;  9.9971100E+02;  1.0000000E-01; -2.3945001E+02;3;  9.3878841E-01;  0.0000000E+00; -5.8634549E-02;0;  2.4057503E-03;  3.9981195E+04;  0.0000000E+00;  3.3703098E-01;  4.0000000E+04;  0.0000000E+00;  4.0002523E+04;  4.5357170E-03;  0.0000000E+00; -2.1299666E-03;  5.8848224E+02;
  3.4097710E-01;  9.9999998E-03; -2.5001988E-01;4525; -2.0386181E-03;  0.0000000E+00;  5.0017965E-04;  9.9972736E+02;  1.0000000E-01; -2.2587015E+02;3;  9.1722471E-01;  0.0000000E+00; -5.1698238E-02;0;  2.2083768E-03;  3.9982398E+04;  0.0000000E+00;  4.4869310E-01;  4.0000000E+04;  0.0000000E+00;  4.0001914E+04;  4.0868637E-03;  0.0000000E+00; -1.8784868E-03;  6.8584900E+02;
  3.4106144E-01;  9.9999998E-03; -2.4002446E-01;4526; -2.1682575E-03;  0.0000000E+00;  4.8138041E-04;  9.9977631E+02;  1.0000000E-01; -1.8532809E+02;3;  9.0297699E-01;  0.0000000E+00; -5.0845321E-02;0;  2.0158768E-03;  3.9987375E+04;  0.0000000E+00;  4.9350509E-01;  4.0000000E+04;  0.0000000E+00;  4.0000629E+04;  3.6515738E-03;  0.0000000E+00; -1.6356970E-03;  7.0926239E+02;
  3.4110048E-01;  9.9999998E-03; -2.3003407E-01;4527; -2.2787140E-03;  0.0000000E+00;  4.5876115E-04;  9.9986700E+02;  1.0000000E-01; -1.1016972E+02;3;  8.8867515E-01;  0.0000000E+00; -5.5485327E-02;0;  1.7866261E-03;  3.9995562E+04;  0.0000000E+00;  4.7766316E-01;  4.0000000E+04;  0.0000000E+00;  3.9998438E+04;  3.2461449E-03;  0.0000000E+00; -1.4595188E-03;  7.0080518E+02;
  3.4110898E-01;  9.9999998E-03; -2.2004658E-01;4528; -2.3753974E-03;  0.0000000E+00;  4.2449174E-04;  9.9999615E+02;  1.0000000E-01; -3.2097857E+00;3;  8.8237637E-01;  0.0000000E+00; -5.8908682E-02;0;  1.5572064E-03;  4.0006855E+04;  0.0000000E+00;  4.0953150E-01;  4.0000000E+04;  0.0000000E+00;  3.9997043E+04;  2.8857682E-03;  0.0000000E+00; -1.3285618E-03;  6.8309698E+02;
  3.4110272E-01;  9.9999998E-03; -2.1005213E-01;4529; -2.4639990E-03;  0.0000000E+00;  3.9032675E-04;  1.0001687E+03;  1.0000000E-01;  1.3974913E+02;3;  8.8028622E-01;  0.0000000E+00; -6.0449056E-02;0;  1.3216130E-03;  4.0020406E+04;  0.0000000E+00;  3.0304942E-01;  4.0000000E+04;  0.0000000E+00;  3.9997031E+04;  2.5835258E-03;  0.0000000E+00; -1.2619129E-03;  5.8469397E+02;
  3.4108695E-01;  9.9999998E-03; -2.0005053E-01;4530; -2.5455274E-03;  0.0000000E+00;  3.6924885E-04;  1.0003563E+03;  1.0000000E-01;  2.9520154E+02;3;  8.8057637E-01;  0.0000000E+00; -5.9465244E-02;0;  1.1057152E-03;  4.0035688E+04;  0.0000000E+00;  1.7598495E-01;  4.0000000E+04;  0.0000000E+00;  3.9996621E+04;  2.3490458E-03;  0.0000000E+00; -1.2433307E-03;  5.1850873E+02;
  3.4106138E-01;  9.9999998E-03; -1.9004771E-01;4531; -2.6194572E-03;  0.0000000E+00;  3.5577224E-04;  1.0005365E+03;  1.0000000E-01;  4.4443188E+02;3;  8.7925601E-01;  0.0000000E+00; -5.7572175E-02;0;  9.4243884E-04;  4.0050898E+04;  0.0000000E+00;  4.5431688E-02;  4.0000000E+04;  0.0000000E+00;  3.9995477E+04;  2.1862353E-03;  0.0000000E+00; -1.2437964E-03;  6.1376868E+02;
  3.4102771E-01;  9.9999998E-03; -1.8004605E-01;4532; -2.6836935E-03;  0.0000000E+00;  3.4212030E-04;  1.0006958E+03;  1.0000000E-01;  5.7647754E+02;3;  8.7801105E-01;  0.0000000E+00; -5.7083204E-02;0;  8.3665317E-04;  4.0065578E+04;  0.0000000E+00; -7.3002800E-02;  4.0000000E+04;  0.0000000E+00;  3.9993809E+04;  2.0918204E-03;  0.0000000E+00; -1.2551672E-03;  8.3567072E+02;
  3.4099978E-01;  9.9999998E-03; -1.7004538E-01;4533; -2.7359747E-03;  0.0000000E+00;  3.2533862E-04;  1.0008326E+03;  1.0000000E-01;  6.8985706E+02;3;  8.7756634E-01;  0.0000000E+00; -5.8223233E-02;0;  7.7640300E-04;  4.0077930E+04;  0.0000000E+00; -1.6653529E-01;  4.0000000E+04;  0.0000000E+00;  3.9992066E+04;  2.0551423E-03;  0.0000000E+00; -1.2787393E-03;  1.0946962E+03;
  3.4099534E-01;  9.9999998E-03; -1.6004366E-01;4534; -2.7741550E-03;  0.0000000E+00;  3.0437481E-04;  1.0009296E+03;  1.0000000E-01;  7.7015106E+02;3;  8.8108134E-01;  0.0000000E+00; -6.2820718E-02;0;  7.4224197E-04;  4.0087598E+04;  0.0000000E+00; -2.2751266E-01;  4.0000000E+04;  0.0000000E+00;  3.9990387E+04;  2.0586541E-03;  0.0000000E+00; -1.3164121E-03;  1.3365248E+03;
  3.4102383E-01;  9.9999998E-03; -1.5003721E-01;4535; -2.7950010E-03;  0.0000000E+00;  2.7873501E-04;  1.0009906E+03;  1.0000000E-01;  8.2071753E+02;3;  8.9700288E-01;  0.0000000E+00; -7.0560999E-02;0;  7.1085058E-04;  4.0093887E+04;  0.0000000E+00; -2.5423241E-01;  4.0000000E+04;  0.0000000E+00;  3.9988766E+04;  2.0796522E-03;  0.0000000E+00; -1.3688016E-03;  1.5286055E+03;
  3.4108105E-01;  9.9999998E-03; -1.4002354E-01;4536; -2.7920029E-03;  0.0000000E+00;  2.4911397E-04;  1.0010141E+03;  1.0000000E-01;  8.4017377E+02;3;  9.4041628E-01;  0.0000000E+00; -8.0788672E-02;0;  6.5840385E-04;  4.0096828E+04;  0.0000000E+00; -2.5045693E-01;  4.0000000E+04;  0.0000000E+00;  3.9987754E+04;  2.0932795E-03;  0.0000000E+00; -1.4348757E-03;  1.6492136E+03;
  3.4114262E-01;  9.9999998E-03; -1.3000664E-01;4537; -2.7655598E-03;  0.0000000E+00;  2.1974179E-04;  1.0010075E+03;  1.0000000E-01;  8.3474182E+02;3;  1.0181731E+00;  0.0000000E+00; -8.6059019E-02;0;  5.6400651E-04;  4.0096391E+04;  0.0000000E+00; -2.2367816E-01;  4.0000000E+04;  0.0000000E+00;  3.9987516E+04;  2.0758214E-03;  0.0000000E+00; -1.5118149E-03;  1.6885193E+03;
  3.4118575E-01;  9.9999998E-03; -1.1999324E-01;4538; -2.7318534E-03;  0.0000000E+00;  1.9495020E-04;  1.0009760E+03;  1.0000000E-01;  8.0856970E+02;3;  1.1216543E+00;  0.0000000E+00; -8.6089417E-02;0;  4.1280128E-04;  4.0093605E+04;  0.0000000E+00; -1.8291347E-01;  4.0000000E+04;  0.0000000E+00;  3.9987664E+04;  2.0084355E-03;  0.0000000E+00; -1.5956343E-03;  1.6484791E+03;
  3.4120947E-01;  9.9999998E-03; -1.0998736E-01;4539; -2.7106698E-03;  0.0000000E+00;  1.7355006E-04;  1.0009243E+03;  1.0000000E-01;  7.6580548E+02;3;  1.1938990E+00;  0.0000000E+00; -7.6310992E-02;0;  1.9796006E-04;  4.0088691E+04;  0.0000000E+00; -1.3676867E-01;  4.0000000E+04;  0.0000000E+00;  3.9988477E+04;  1.8799908E-03;  0.0000000E+00; -1.6820307E-03;  1.5409193E+03;
  3.5081953E-01;  9.9999998E-03; -2.7001950E-01;4584; -1.4777520E-03;  0.0000000E+00;  5.1934493E-04;  9.9974304E+02;  1.0000000E-01; -2.1288287E+02;3;  1.2348524E+00;  0.0000000E+00; -9.1482505E-02;0;  2.9941858E-03;  3.9983199E+04;  0.0000000E+00;  2.5653860E-01;  4.0000000E+04;  0.0000000E+00;  4.0002422E+04;  4.6872185E-03;  0.0000000E+00; -1.6930328E-03;  4.8142685E+02;
  3.5089999E-01;  9.9999998E-03; -2.6002127E-01;4585; -1.7535969E-03;  0.0000000E+00;  5.5532047E-04;  9.9976910E+02;  1.0000000E-01; -1.9130324E+02;3;  1.0930355E+00;  0.0000000E+00; -3.3280816E-02;0;  2.3453676E-03;  3.9985141E+04;  0.0000000E+00;  3.7404886E-01;  4.0000000E+04;  0.0000000E+00;  4.0002145E+04;  4.3260613E-03;  0.0000000E+00; -1.9806938E-03;  5.9404895E+02;
  3.5099116E-01;  9.9999998E-03; -2.5002453E-01;4586; -1.9651868E-03;  0.0000000E+00;  5.6332053E-04;  9.9982220E+02;  1.0000000E-01; -1.4730447E+02;3;  1.0000569E+00;  0.0000000E+00; -2.2706496E-02;0;  2.0677100E-03;  3.9989871E+04;  0.0000000E+00;  4.3195650E-01;  4.0000000E+04;  0.0000000E+00;  4.0000996E+04;  3.9601643E-03;  0.0000000E+00; -1.8924542E-03;  6.2997955E+02;
  3.5105738E-01;  9.9999998E-03; -2.4003126E-01;4587; -2.1270877E-03;  0.0000000E+00;  5.6179817E-04;  9.9989850E+02;  1.0000000E-01; -8.4096390E+01;3;  9.5258820E-01;  0.0000000E+00; -2.3056483E-02;0;  1.8627436E-03;  3.9997156E+04;  0.0000000E+00;  4.3364739E-01;  4.0000000E+04;  0.0000000E+00;  3.9999258E+04;  3.6036905E-03;  0.0000000E+00; -1.7409469E-03;  6.2735840E+02;
  3.5108203E-01;  9.9999998E-03; -2.3004347E-01;4588; -2.2542018E-03;  0.0000000E+00;  5.4400211E-04;  9.9999640E+02;  1.0000000E-01; -2.9628792E+00;3;  9.1798174E-01;  0.0000000E+00; -3.3111475E-02;0;  1.6965498E-03;  4.0007211E+04;  0.0000000E+00;  3.8762817E-01;  4.0000000E+04;  0.0000000E+00;  3.9996551E+04;  3.2702882E-03;  0.0000000E+00; -1.5737384E-03;  6.8762091E+02;
  3.5108021E-01;  9.9999998E-03; -2.2005528E-01;4589; -2.3582717E-03;  0.0000000E+00;  5.0163898E-04;  1.0001305E+03;  1.0000000E-01;  1.0814509E+02;3;  8.9769208E-01;  0.0000000E+00; -4.6263147E-02;0;  1.5443234E-03;  4.0018836E+04;  0.0000000E+00;  3.0439952E-01;  4.0000000E+04;  0.0000000E+00;  3.9995539E+04;  2.9722096E-03;  0.0000000E+00; -1.4278862E-03;  7.0522321E+02;
  3.5106391E-01;  9.9999998E-03; -2.1005696E-01;4590; -2.4505339E-03;  0.0000000E+00;  4.6109949E-04;  1.0003008E+03;  1.0000000E-01;  2.4917813E+02;3;  8.9007717E-01;  0.0000000E+00; -5.3232294E-02;0;  1.3494770E-03;  4.0031867E+04;  0.0000000E+00;  1.9673005E-01;  4.0000000E+04;  0.0000000E+00;  3.9996004E+04;  2.7197483E-03;  0.0000000E+00; -1.3702713E-03;  6.1272241E+02;
  3.5104018E-01;  9.9999998E-03; -2.0005152E-01;4591; -2.5330461E-03;  0.0000000E+00;  4.3633973E-04;  1.0004678E+03;  1.0000000E-01;  3.8754459E+02;3;  8.8903666E-01;  0.0000000E+00; -5.4964535E-02;0;  1.1464496E-03;  4.0045523E+04;  0.0000000E+00;  7.8128859E-02;  4.0000000E+04;  0.0000000E+00;  3.9995754E+04;  2.5202483E-03;  0.0000000E+00; -1.3737987E-03;  6.0726001E+02;
  3.5101572E-01;  9.9999998E-03; -1.9004568E-01;4592; -2.6032852E-03;  0.0000000E+00;  4.1716811E-04;  1.0006180E+03;  1.0000000E-01;  5.1198553E+02;3;  8.8946229E-01;  0.0000000E+00; -5.5880010E-02;0;  9.7588694E-04;  4.0058707E+04;  0.0000000E+00; -3.6983103E-02;  4.0000000E+04;  0.0000000E+00;  3.9994625E+04;  2.3762328E-03;  0.0000000E+00; -1.4003458E-03;  7.6371710E+02;
  3.5099965E-01;  9.9999998E-03; -1.8004151E-01;4593; -2.6595136E-03;  0.0000000E+00;  3.9610299E-04;  1.0007498E+03;  1.0000000E-01;  6.2111823E+02;3;  8.9220792E-01;  0.0000000E+00; -5.8512043E-02;0;  8.4408163E-04;  4.0070793E+04;  0.0000000E+00; -1.3509586E-01;  4.0000000E+04;  0.0000000E+00;  3.9992773E+04;  2.2842756E-03;  0.0000000E+00; -1.4401940E-03;  1.0021627E+03;
  3.5100147E-01;  9.9999998E-03; -1.7003712E-01;4594; -2.7001270E-03;  0.0000000E+00;  3.7123446E-04;  1.0008574E+03;  1.0000000E-01;  7.1030090E+02;3;  9.0049994E-01;  0.0000000E+00; -6.4566478E-02;0;  7.4263103E-04;  4.0080934E+04;  0.0000000E+00; -2.0583470E-01;  4.0000000E+04;  0.0000000E+00;  3.9990941E+04;  2.2347479E-03;  0.0000000E+00; -1.4921168E-03;  1.2462207E+03;
  3.5102507E-01;  9.9999998E-03; -1.6002914E-01;4595; -2.7209858E-03;  0.0000000E+00;  3.4152105E-04;  1.0009294E+03;  1.0000000E-01;  7.7005231E+02;3;  9.2272657E-01;  0.0000000E+00; -7.5511515E-02;0;  6.5763004E-04;  4.0088395E+04;  0.0000000E+00; -2.4389224E-01;  4.0000000E+04;  0.0000000E+00;  3.9989457E+04;  2.2126925E-03;  0.0000000E+00; -1.5550625E-03;  1.4548723E+03;
  3.5106498E-01;  9.9999998E-03; -1.5001629E-01;4596; -2.7166866E-03;  0.0000000E+00;  3.0789225E-04;  1.0009782E+03;  1.0000000E-01;  8.1044623E+02;3;  9.7104812E-01;  0.0000000E+00; -8.7374121E-02;0;  5.7249318E-04;  4.0093445E+04;  0.0000000E+00; -2.4979675E-01;  4.0000000E+04;  0.0000000E+00;  3.9988223E+04;  2.1998142E-03;  0.0000000E+00; -1.6273210E-03;  1.6034713E+03;
  3.5110709E-01;  9.9999998E-03; -1.4000277E-01;4597; -2.6912061E-03;  0.0000000E+00;  2.7561493E-04;  1.0009991E+03;  1.0000000E-01;  8.2772968E+02;3;  1.0602411E+00;  0.0000000E+00; -9.2290692E-02;0;  4.7039788E-04;  4.0095691E+04;  0.0000000E+00; -2.2916718E-01;  4.0000000E+04;  0.0000000E+00;  3.9987531E+04;  2.1770659E-03;  0.0000000E+00; -1.7066681E-03;  1.6775262E+03;
  3.5113734E-01;  9.9999998E-03; -1.2999427E-01;4598; -2.6648422E-03;  0.0000000E+00;  2.4889360E-04;  1.0009979E+03;  1.0000000E-01;  8.2674207E+02;3;  1.1668446E+00;  0.0000000E+00; -9.6209295E-02;0;  3.3638836E-04;  4.0095645E+04;  0.0000000E+00; -1.9066817E-01;  4.0000000E+04;  0.0000000E+00;  3.9987598E+04;  2.1271687E-03;  0.0000000E+00; -1.7907803E-03;  1.6743053E+03;
  3.5115546E-01;  9.9999998E-03; -1.1999024E-01;4599; -2.6524721E-03;  0.0000000E+00;  2.2649017E-04;  1.0009831E+03;  1.0000000E-01;  8.1449548E+02;3;  1.2329555E+00;  0.0000000E+00; -8.7545693E-02;0;  1.5974161E-04;  4.0093766E+04;  0.0000000E+00; -1.4359912E-01;  4.0000000E+04;  0.0000000E+00;  3.9987875E+04;  2.0372118E-03;  0.0000000E+00; -1.8774702E-03;  1.6013300E+03;
  3.5116479E-01;  9.9999998E-03; -1.0998908E-01;4600; -2.6594840E-03;  0.0000000E+00;  2.0313852E-04;  1.0009532E+03;  1.0000000E-01;  7.8970605E+02;3;  1.2596742E+00;  0.0000000E+00; -8.1376970E-02;0; -6.3722138E-05;  4.0090516E+04;  0.0000000E+00; -9.6040212E-02;  4.0000000E+04;  0.0000000E+00;  3.9988801E+04;  1.9004192E-03;  0.0000000E+00; -1.9641414E-03;  1.4740804E+03;
  3.6081725E-01;  9.9999998E-03; -2.7002168E-01;4645; -1.2676583E-03;  0.0000000E+00;  4.5485035E-04;  9.9975055E+02;  1.0000000E-01; -2.0666083E+02;3;  1.3854133E+00;  0.0000000E+00; -1.5732162E-01;0;  4.0269867E-03;  3.9982129E+04;  0.0000000E+00;  2.3616296E-01;  4.0000000E+04;  0.0000000E+00;  4.0002172E+04;  4.2819311E-03;  0.0000000E+00; -2.5494420E-04;  4.5082895E+02;
  3.6088929E-01;  9.9999998E-03; -2.6002383E-01;4646; -1.5365056E-03;  0.0000000E+00;  5.0644809E-04;  9.9980933E+02;  1.0000000E-01; -1.5797084E+02;3;  1.3021141E+00;  0.0000000E+00; -1.1631297E-01;0;  3.0018045E-03;  3.9987348E+04;  0.0000000E+00;  3.1701058E-01;  4.0000000E+04;  0.0000000E+00;  4.0001617E+04;  4.0181056E-03;  0.0000000E+00; -1.0163010E-03;  5.0435114E+02;
  3.6096597E-01;  9.9999998E-03; -2.5002763E-01;4647; -1.8314210E-03;  0.0000000E+00;  5.8750005E-04;  9.9989203E+02;  1.0000000E-01; -8.9429573E+01;3;  1.1422161E+00;  0.0000000E+00; -4.3569203E-02;0;  2.0792075E-03;  3.9994711E+04;  0.0000000E+00;  3.5173240E-01;  4.0000000E+04;  0.0000000E+00;  4.0000547E+04;  3.7461128E-03;  0.0000000E+00; -1.6669052E-03;  5.0498477E+02;
  3.6101618E-01;  9.9999998E-03; -2.4003465E-01;4648; -2.0463150E-03;  0.0000000E+00;  6.1939750E-04;  9.9998254E+02;  1.0000000E-01; -1.4468726E+01;3;  1.0332811E+00;  0.0000000E+00; -1.0394308E-02;0;  1.7278071E-03;  4.0003859E+04;  0.0000000E+00;  3.4271666E-01;  4.0000000E+04;  0.0000000E+00;  3.9998562E+04;  3.4758553E-03;  0.0000000E+00; -1.7480482E-03;  5.2696088E+02;
  3.6103320E-01;  9.9999998E-03; -2.3004699E-01;4649; -2.1949043E-03;  0.0000000E+00;  6.1071932E-04;  1.0000906E+03;  1.0000000E-01;  7.5059608E+01;3;  9.8147845E-01;  0.0000000E+00; -1.2188921E-02;0;  1.5869817E-03;  4.0014711E+04;  0.0000000E+00;  2.9544401E-01;  4.0000000E+04;  0.0000000E+00;  3.9995918E+04;  3.2180748E-03;  0.0000000E+00; -1.6310931E-03;  6.6613776E+02;
  3.6102992E-01;  9.9999998E-03; -2.2005698E-01;4650; -2.3081647E-03;  0.0000000E+00;  5.6670757E-04;  1.0002255E+03;  1.0000000E-01;  1.8676015E+02;3;  9.3847489E-01;  0.0000000E+00; -2.5872396E-02;0;  1.4844663E-03;  4.0026469E+04;  0.0000000E+00;  2.1857652E-01;  4.0000000E+04;  0.0000000E+00;  3.9995031E+04;  2.9831151E-03;  0.0000000E+00; -1.4986489E-03;  7.1522375E+02;
  3.6101311E-01;  9.9999998E-03; -2.1005638E-01;4651; -2.4022744E-03;  0.0000000E+00;  5.2389776E-04;  1.0003824E+03;  1.0000000E-01;  3.1683054E+02;3;  9.1779292E-01;  0.0000000E+00; -3.9190356E-02;0;  1.3186093E-03;  4.0038793E+04;  0.0000000E+00;  1.2327937E-01;  4.0000000E+04;  0.0000000E+00;  3.9995141E+04;  2.7796521E-03;  0.0000000E+00; -1.4610428E-03;  6.5695605E+02;
  3.6099181E-01;  9.9999998E-03; -2.0004919E-01;4652; -2.4821337E-03;  0.0000000E+00;  4.9565110E-04;  1.0005272E+03;  1.0000000E-01;  4.3672839E+02;3;  9.1579229E-01;  0.0000000E+00; -4.8828796E-02;0;  1.1251285E-03;  4.0050910E+04;  0.0000000E+00;  2.2040803E-02;  4.0000000E+04;  0.0000000E+00;  3.9994859E+04;  2.6136131E-03;  0.0000000E+00; -1.4884847E-03;  6.9998193E+02;
  3.6097690E-01;  9.9999998E-03; -1.9004144E-01;4653; -2.5456401E-03;  0.0000000E+00;  4.7106724E-04;  1.0006563E+03;  1.0000000E-01;  5.4378711E+02;3;  9.2129177E-01;  0.0000000E+00; -5.6963176E-02;0;  9.4550021E-04;  4.0062273E+04;  0.0000000E+00; -7.2434820E-02;  4.0000000E+04;  0.0000000E+00;  3.9993469E+04;  2.4868387E-03;  0.0000000E+00; -1.5413385E-03;  8.7690839E+02;
  3.6097530E-01;  9.9999998E-03; -1.8003385E-01;4654; -2.5879901E-03;  0.0000000E+00;  4.4292811E-04;  1.0007669E+03;  1.0000000E-01;  6.3534003E+02;3;  9.3898815E-01;  0.0000000E+00; -6.5091029E-02;0;  7.8780076E-04;  4.0072410E+04;  0.0000000E+00; -1.4880124E-01;  4.0000000E+04;  0.0000000E+00;  3.9991902E+04;  2.3963712E-03;  0.0000000E+00; -1.6085705E-03;  1.1056641E+03;
  3.6099032E-01;  9.9999998E-03; -1.7002466E-01;4655; -2.6047702E-03;  0.0000000E+00;  4.0938865E-04;  1.0008444E+03;  1.0000000E-01;  6.9963452E+02;3;  9.7712833E-01;  0.0000000E+00; -7.7066809E-02;0;  6.4780354E-04;  4.0080785E+04;  0.0000000E+00; -1.9875817E-01;  4.0000000E+04;  0.0000000E+00;  3.9990316E+04;  2.3346869E-03;  0.0000000E+00; -1.6868834E-03;  1.3242915E+03;
  3.6102137E-01;  9.9999998E-03; -1.6001269E-01;4656; -2.5942777E-03;  0.0000000E+00;  3.7428140E-04;  1.0009117E+03;  1.0000000E-01;  7.5533667E+02;3;  1.0526587E+00;  0.0000000E+00; -8.7876469E-02;0;  5.1752978E-04;  4.0086906E+04;  0.0000000E+00; -2.1871014E-01;  4.0000000E+04;  0.0000000E+00;  3.9988836E+04;  2.2908151E-03;  0.0000000E+00; -1.7732853E-03;  1.4981367E+03;
  3.6105642E-01;  9.9999998E-03; -1.5000108E-01;4657; -2.5703963E-03;  0.0000000E+00;  3.4260712E-04;  1.0009526E+03;  1.0000000E-01;  7.8921222E+02;3;  1.1796752E+00;  0.0000000E+00; -9.4683230E-02;0;  3.8742030E-04;  4.0091258E+04;  0.0000000E+00; -2.1049069E-01;  4.0000000E+04;  0.0000000E+00;  3.9988086E+04;  2.2519317E-03;  0.0000000E+00; -1.8645114E-03;  1.6069333E+03;
  3.6108252E-01;  9.9999998E-03; -1.3999435E-01;4658; -2.5565817E-03;  0.0000000E+00;  3.1873205E-04;  1.0009781E+03;  1.0000000E-01;  8.1034747E+02;3;  1.2735780E+00;  0.0000000E+00; -9.2290208E-02;0;  2.4713483E-04;  4.0093305E+04;  0.0000000E+00; -1.8053313E-01;  4.0000000E+04;  0.0000000E+00;  3.9987707E+04;  2.2051774E-03;  0.0000000E+00; -1.9580426E-03;  1.6430957E+03;
  3.6110017E-01;  9.9999998E-03; -1.2999181E-01;4659; -2.5546919E-03;  0.0000000E+00;  2.9708355E-04;  1.0009862E+03;  1.0000000E-01;  8.1706329E+02;3;  1.3242984E+00;  0.0000000E+00; -7.9956651E-02;0;  8.6991582E-05;  4.0093805E+04;  0.0000000E+00; -1.3773954E-01;  4.0000000E+04;  0.0000000E+00;  3.9987738E+04;  2.1393192E-03;  0.0000000E+00; -2.0523276E-03;  1.6110841E+03;
  3.6111179E-01;  9.9999998E-03; -1.1999168E-01;4660; -2.5677988E-03;  0.0000000E+00;  2.7388605E-04;  1.0009842E+03;  1.0000000E-01;  8.1538434E+02;3;  1.3465689E+00;  0.0000000E+00; -7.0879273E-02;0; -9.9654077E-05;  4.0092762E+04;  0.0000000E+00; -9.1041371E-02;  4.0000000E+04;  0.0000000E+00;  3.9988609E+04;  2.0464754E-03;  0.0000000E+00; -2.1461295E-03;  1.5225721E+03;
  3.6111823E-01;  9.9999998E-03; -1.0999289E-01;4661; -2.5983006E-03;  0.0000000E+00;  2.4773946E-04;  1.0009750E+03;  1.0000000E-01;  8.0777960E+02;3;  1.3379360E+00;  0.0000000E+00; -7.0691824E-02;0; -3.1467597E-04;  4.0090910E+04;  0.0000000E+00; -4.7609154E-02;  4.0000000E+04;  0.0000000E+00;  3.9989609E+04;  1.9232829E-03;  0.0000000E+00; -2.2379588E-03;  1.3942361E+03;
  3.7079135E-01;  9.9999998E-03; -2.7002284E-01;4706; -1.1757839E-03;  0.0000000E+00;  4.5127625E-04;  9.9972845E+02;  1.0000000E-01; -2.2498129E+02;3;  1.4269084E+00;  0.0000000E+00; -1.8281648E-01;0;  4.2834287E-03;  3.9978293E+04;  0.0000000E+00;  1.5671524E-01;  4.0000000E+04;  0.0000000E+00;  4.0002441E+04;  3.8308483E-03;  0.0000000E+00;  4.5258051E-04;  3.9266461E+02;
  3.7084615E-01;  9.9999998E-03; -2.6002511E-01;4707; -1.3899698E-03;  0.0000000E+00;  4.6561923E-04;  9.9981708E+02;  1.0000000E-01; -1.5155127E+02;3;  1.4069258E+00;  0.0000000E+00; -1.7353205E-01;0;  3.5143308E-03;  3.9986145E+04;  0.0000000E+00;  2.2322741E-01;  4.0000000E+04;  0.0000000E+00;  4.0001680E+04;  3.6601601E-03;  0.0000000E+00; -1.4582931E-04;  3.9000162E+02;
  3.7090331E-01;  9.9999998E-03; -2.5002864E-01;4708; -1.6362341E-03;  0.0000000E+00;  5.3448125E-04;  9.9991803E+02;  1.0000000E-01; -6.7899315E+01;3;  1.3355508E+00;  0.0000000E+00; -1.2901655E-01;0;  2.5083425E-03;  3.9995520E+04;  0.0000000E+00;  2.5317103E-01;  4.0000000E+04;  0.0000000E+00;  4.0000375E+04;  3.4768071E-03;  0.0000000E+00; -9.6846471E-04;  3.6644312E+02;
  3.7094826E-01;  9.9999998E-03; -2.4003513E-01;4709; -1.8997459E-03;  0.0000000E+00;  6.2121503E-04;  1.0000233E+03;  1.0000000E-01;  1.9258715E+01;3;  1.2050068E+00;  0.0000000E+00; -5.9124548E-02;0;  1.7591014E-03;  4.0005812E+04;  0.0000000E+00;  2.4726120E-01;  4.0000000E+04;  0.0000000E+00;  3.9998270E+04;  3.2870776E-03;  0.0000000E+00; -1.5279762E-03;  4.0503491E+02;
  3.7096930E-01;  9.9999998E-03; -2.3004572E-01;4710; -2.0825458E-03;  0.0000000E+00;  6.3995202E-04;  1.0001329E+03;  1.0000000E-01;  1.1012035E+02;3;  1.1162171E+00;  0.0000000E+00; -2.8205102E-02;0;  1.5075718E-03;  4.0017004E+04;  0.0000000E+00;  2.1058032E-01;  4.0000000E+04;  0.0000000E+00;  3.9995996E+04;  3.0989039E-03;  0.0000000E+00; -1.5913321E-03;  5.8375348E+02;
  3.7097371E-01;  9.9999998E-03; -2.2005321E-01;4711; -2.1995828E-03;  0.0000000E+00;  6.0312526E-04;  1.0002688E+03;  1.0000000E-01;  2.2270975E+02;3;  1.0721570E+00;  0.0000000E+00; -3.1949494E-02;0;  1.3976238E-03;  4.0028527E+04;  0.0000000E+00;  1.5054083E-01;  4.0000000E+04;  0.0000000E+00;  3.9995039E+04;  2.9208602E-03;  0.0000000E+00; -1.5232364E-03;  6.6133496E+02;
  3.7097102E-01;  9.9999998E-03; -2.1005073E-01;4712; -2.2931595E-03;  0.0000000E+00;  5.6543143E-04;  1.0004108E+03;  1.0000000E-01;  3.4033606E+02;3;  1.0455278E+00;  0.0000000E+00; -4.0965833E-02;0;  1.2305481E-03;  4.0040387E+04;  0.0000000E+00;  7.6618947E-02;  4.0000000E+04;  0.0000000E+00;  3.9995281E+04;  2.7606573E-03;  0.0000000E+00; -1.5301092E-03;  6.4847113E+02;
  3.7096760E-01;  9.9999998E-03; -2.0004174E-01;4713; -2.3677731E-03;  0.0000000E+00;  5.3774915E-04;  1.0005427E+03;  1.0000000E-01;  4.4966629E+02;3;  1.0381492E+00;  0.0000000E+00; -5.0337978E-02;0;  1.0335804E-03;  4.0051246E+04;  0.0000000E+00; -8.0430519E-04;  4.0000000E+04;  0.0000000E+00;  3.9994551E+04;  2.6237569E-03;  0.0000000E+00; -1.5901765E-03;  7.2584473E+02;
  3.7097067E-01;  9.9999998E-03; -1.9003101E-01;4714; -2.4153693E-03;  0.0000000E+00;  5.0950621E-04;  1.0006537E+03;  1.0000000E-01;  5.4161432E+02;3;  1.0633302E+00;  0.0000000E+00; -6.1480325E-02;0;  8.4075483E-04;  4.0061520E+04;  0.0000000E+00; -7.1273185E-02;  4.0000000E+04;  0.0000000E+00;  3.9993270E+04;  2.5121719E-03;  0.0000000E+00; -1.6714170E-03;  9.0796838E+02;
  3.7098342E-01;  9.9999998E-03; -1.8001959E-01;4715; -2.4346798E-03;  0.0000000E+00;  4.7752238E-04;  1.0007440E+03;  1.0000000E-01;  6.1637762E+02;3;  1.1350667E+00;  0.0000000E+00; -7.2148427E-02;0;  6.5853621E-04;  4.0070203E+04;  0.0000000E+00; -1.2559450E-01;  4.0000000E+04;  0.0000000E+00;  3.9991781E+04;  2.4243025E-03;  0.0000000E+00; -1.7657663E-03;  1.1244266E+03;
  3.7100503E-01;  9.9999998E-03; -1.7000750E-01;4716; -2.4364290E-03;  0.0000000E+00;  4.4574344E-04;  1.0008145E+03;  1.0000000E-01;  6.7474634E+02;3;  1.2436075E+00;  0.0000000E+00; -7.9296388E-02;0;  4.8645469E-04;  4.0077742E+04;  0.0000000E+00; -1.5724365E-01;  4.0000000E+04;  0.0000000E+00;  3.9990375E+04;  2.3555139E-03;  0.0000000E+00; -1.8690592E-03;  1.3205813E+03;
  3.7102893E-01;  9.9999998E-03; -1.5999755E-01;4717; -2.4404887E-03;  0.0000000E+00;  4.1862833E-04;  1.0008724E+03;  1.0000000E-01;  7.2274500E+02;3;  1.3266323E+00;  0.0000000E+00; -8.3172224E-02;0;  3.2227347E-04;  4.0083207E+04;  0.0000000E+00; -1.6377689E-01;  4.0000000E+04;  0.0000000E+00;  3.9989164E+04;  2.2991898E-03;  0.0000000E+00; -1.9769163E-03;  1.4649653E+03;
  3.7104917E-01;  9.9999998E-03; -1.4999254E-01;4718; -2.4498722E-03;  0.0000000E+00;  3.9734135E-04;  1.0009148E+03;  1.0000000E-01;  7.5790448E+02;3;  1.3704014E+00;  0.0000000E+00; -7.7468373E-02;0;  1.6173837E-04;  4.0087125E+04;  0.0000000E+00; -1.4746623E-01;  4.0000000E+04;  0.0000000E+00;  3.9988637E+04;  2.2478863E-03;  0.0000000E+00; -2.0861479E-03;  1.5429753E+03;
  3.7106434E-01;  9.9999998E-03; -1.3999145E-01;4719; -2.4618460E-03;  0.0000000E+00;  3.7666073E-04;  1.0009377E+03;  1.0000000E-01;  7.7686694E+02;3;  1.3974524E+00;  0.0000000E+00; -6.5566249E-02;0; -5.4505654E-07;  4.0089250E+04;  0.0000000E+00; -1.1467525E-01;  4.0000000E+04;  0.0000000E+00;  3.9988355E+04;  2.1941692E-03;  0.0000000E+00; -2.1947143E-03;  1.5554376E+03;
  3.7107486E-01;  9.9999998E-03; -1.2999268E-01;4720; -2.4798617E-03;  0.0000000E+00;  3.5404344E-04;  1.0009542E+03;  1.0000000E-01;  7.9059491E+02;3;  1.4120797E+00;  0.0000000E+00; -5.5525437E-02;0; -1.6951724E-04;  4.0090234E+04;  0.0000000E+00; -7.3806964E-02;  4.0000000E+04;  0.0000000E+00;  3.9988574E+04;  2.1317273E-03;  0.0000000E+00; -2.3012445E-03;  1.5118328E+03;
  3.7108222E-01;  9.9999998E-03; -1.1999518E-01;4721; -2.5068976E-03;  0.0000000E+00;  3.2951924E-04;  1.0009619E+03;  1.0000000E-01;  7.9691571E+02;3;  1.4155712E+00;  0.0000000E+00; -4.9124721E-02;0; -3.4841546E-04;  4.0090035E+04;  0.0000000E+00; -3.2833122E-02;  4.0000000E+04;  0.0000000E+00;  3.9989160E+04;  2.0566918E-03;  0.0000000E+00; -2.4051073E-03;  1.4255006E+03;
  3.7108555E-01;  9.9999998E-03; -1.0999811E-01;4722; -2.5443763E-03;  0.0000000E+00;  3.0341581E-04;  1.0009673E+03;  1.0000000E-01;  8.0145880E+02;3;  1.4104379E+00;  0.0000000E+00; -4.7088385E-02;0; -5.3760386E-04;  4.0089398E+04;  0.0000000E+00;  2.3370043E-03;  4.0000000E+04;  0.0000000E+00;  3.9990219E+04;  1.9681177E-03;  0.0000000E+00; -2.5057215E-03;  1.3121434E+03;
  3.8077074E-01;  9.9999998E-03; -2.7002278E-01;4767; -1.1471855E-03;  0.0000000E+00;  4.9248547E-04;  9.9966907E+02;  1.0000000E-01; -2.7416510E+02;3;  1.4506717E+00;  0.0000000E+00; -2.0087045E-01;0;  4.0637637E-03;  3.9971672E+04;  0.0000000E+00;  6.4680822E-02;  4.0000000E+04;  0.0000000E+00;  4.0003176E+04;  3.4532242E-03;  0.0000000E+00;  6.1053957E-04;  4.1437637E+02;
  3.8080314E-01;  9.9999998E-03; -2.6002488E-01;4768; -1.3346318E-03;  0.0000000E+00;  4.8749070E-04;  9.9977637E+02;  1.0000000E-01; -1.8527872E+02;3;  1.4383684E+00;  0.0000000E+00; -1.9964835E-01;0;  3.4878121E-03;  3.9981113E+04;  0.0000000E+00;  1.2155757E-01;  4.0000000E+04;  0.0000000E+00;  4.0002172E+04;  3.3580074E-03;  0.0000000E+00;  1.2980471E-04;  3.3966287E+02;
  3.8084388E-01;  9.9999998E-03; -2.5002775E-01;4769; -1.5303344E-03;  0.0000000E+00;  5.1770266E-04;  9.9989362E+02;  1.0000000E-01; -8.8145653E+01;3;  1.4127903E+00;  0.0000000E+00; -1.8427697E-01;0;  2.7070083E-03;  3.9991586E+04;  0.0000000E+00;  1.5026732E-01;  4.0000000E+04;  0.0000000E+00;  4.0000906E+04;  3.2459931E-03;  0.0000000E+00; -5.3898466E-04;  2.5354785E+02;
  3.8088688E-01;  9.9999998E-03; -2.4003230E-01;4770; -1.7398060E-03;  0.0000000E+00;  5.7815312E-04;  1.0000092E+03;  1.0000000E-01;  7.6047230E+00;3;  1.3537185E+00;  0.0000000E+00; -1.3698414E-01;0;  1.9824421E-03;  4.0002613E+04;  0.0000000E+00;  1.5207058E-01;  4.0000000E+04;  0.0000000E+00;  3.9999402E+04;  3.1203639E-03;  0.0000000E+00; -1.1379217E-03;  2.3172136E+02;
  3.8091919E-01;  9.9999998E-03; -2.3003972E-01;4771; -1.9259197E-03;  0.0000000E+00;  6.1677565E-04;  1.0001282E+03;  1.0000000E-01;  1.0626860E+02;3;  1.2976693E+00;  0.0000000E+00; -1.0102871E-01;0;  1.5620205E-03;  4.0014242E+04;  0.0000000E+00;  1.3152972E-01;  4.0000000E+04;  0.0000000E+00;  3.9997352E+04;  2.9867701E-03;  0.0000000E+00; -1.4247496E-03;  3.9649890E+02;
  3.8094079E-01;  9.9999998E-03; -2.2004409E-01;4772; -2.0509311E-03;  0.0000000E+00;  6.0112763E-04;  1.0002587E+03;  1.0000000E-01;  2.1431493E+02;3;  1.2722534E+00;  0.0000000E+00; -8.9598753E-02;0;  1.3543782E-03;  4.0025781E+04;  0.0000000E+00;  9.3972713E-02;  4.0000000E+04;  0.0000000E+00;  3.9996141E+04;  2.8525353E-03;  0.0000000E+00; -1.4981572E-03;  5.0559433E+02;
  3.8095710E-01;  9.9999998E-03; -2.1003930E-01;4773; -2.1452587E-03;  0.0000000E+00;  5.7823694E-04;  1.0003938E+03;  1.0000000E-01;  3.2621298E+02;3;  1.2699618E+00;  0.0000000E+00; -8.5790500E-02;0;  1.1419649E-03;  4.0037121E+04;  0.0000000E+00;  4.6134111E-02;  4.0000000E+04;  0.0000000E+00;  3.9995891E+04;  2.7249374E-03;  0.0000000E+00; -1.5829725E-03;  5.4457159E+02;
  3.8097119E-01;  9.9999998E-03; -2.0002839E-01;4774; -2.2185668E-03;  0.0000000E+00;  5.6039594E-04;  1.0005097E+03;  1.0000000E-01;  4.2230905E+02;3;  1.2829517E+00;  0.0000000E+00; -8.3940879E-02;0;  9.1993622E-04;  4.0047535E+04;  0.0000000E+00; -4.2498484E-03;  4.0000000E+04;  0.0000000E+00;  3.9995035E+04;  2.6098865E-03;  0.0000000E+00; -1.6899502E-03;  6.5979578E+02;
  3.8098660E-01;  9.9999998E-03; -1.9001584E-01;4775; -2.2696278E-03;  0.0000000E+00;  5.3860591E-04;  1.0006077E+03;  1.0000000E-01;  5.0339316E+02;3;  1.3128703E+00;  0.0000000E+00; -8.6342581E-02;0;  7.0703914E-04;  4.0056984E+04;  0.0000000E+00; -4.9212717E-02;  4.0000000E+04;  0.0000000E+00;  3.9993586E+04;  2.5106214E-03;  0.0000000E+00; -1.8035823E-03;  8.5506927E+02;
  3.8100460E-01;  9.9999998E-03; -1.8000403E-01;4776; -2.3074730E-03;  0.0000000E+00;  5.1443797E-04;  1.0006885E+03;  1.0000000E-01;  5.7045300E+02;3;  1.3518394E+00;  0.0000000E+00; -8.9447111E-02;0;  5.0388102E-04;  4.0065207E+04;  0.0000000E+00; -8.1740133E-02;  4.0000000E+04;  0.0000000E+00;  3.9992070E+04;  2.4275843E-03;  0.0000000E+00; -1.9237032E-03;  1.0677104E+03;
  3.8102198E-01;  9.9999998E-03; -1.6999504E-01;4777; -2.3409887E-03;  0.0000000E+00;  4.9375632E-04;  1.0007620E+03;  1.0000000E-01;  6.3129077E+02;3;  1.3783897E+00;  0.0000000E+00; -9.0323262E-02;0;  3.1070365E-04;  4.0071914E+04;  0.0000000E+00; -9.7000957E-02;  4.0000000E+04;  0.0000000E+00;  3.9990590E+04;  2.3591879E-03;  0.0000000E+00; -2.0484843E-03;  1.2478918E+03;
  3.8103431E-01;  9.9999998E-03; -1.5999039E-01;4778; -2.3687168E-03;  0.0000000E+00;  4.7500164E-04;  1.0008130E+03;  1.0000000E-01;  6.7356122E+02;3;  1.3999000E+00;  0.0000000E+00; -8.0710463E-02;0;  1.2770132E-04;  4.0077273E+04;  0.0000000E+00; -9.3445688E-02;  4.0000000E+04;  0.0000000E+00;  3.9989613E+04;  2.3025926E-03;  0.0000000E+00; -2.1748913E-03;  1.3699519E+03;
  3.8104376E-01;  9.9999998E-03; -1.4998966E-01;4779; -2.3923952E-03;  0.0000000E+00;  4.5525222E-04;  1.0008517E+03;  1.0000000E-01;  7.0565906E+02;3;  1.4126221E+00;  0.0000000E+00; -7.1350738E-02;0; -4.6573579E-05;  4.0080863E+04;  0.0000000E+00; -7.3334336E-02;  4.0000000E+04;  0.0000000E+00;  3.9988941E+04;  2.2542982E-03;  0.0000000E+00; -2.3008718E-03;  1.4294226E+03;
  3.8105300E-01;  9.9999998E-03; -1.3999166E-01;4780; -2.4157700E-03;  0.0000000E+00;  4.3381198E-04;  1.0008820E+03;  1.0000000E-01;  7.3074475E+02;3;  1.4223797E+00;  0.0000000E+00; -6.0869843E-02;0; -2.1361024E-04;  4.0083336E+04;  0.0000000E+00; -4.2314436E-02;  4.0000000E+04;  0.0000000E+00;  3.9989340E+04;  2.2108033E-03;  0.0000000E+00; -2.4244136E-03;  1.4338674E+03;
  3.8106042E-01;  9.9999998E-03; -1.2999523E-01;4781; -2.4427902E-03;  0.0000000E+00;  4.1046875E-04;  1.0009036E+03;  1.0000000E-01;  7.4862079E+02;3;  1.4302669E+00;  0.0000000E+00; -4.9348939E-02;0; -3.7455186E-04;  4.0084375E+04;  0.0000000E+00; -7.6339934E-03;  4.0000000E+04;  0.0000000E+00;  3.9989543E+04;  2.1695313E-03;  0.0000000E+00; -2.5440832E-03;  1.3948994E+03;
  3.8106492E-01;  9.9999998E-03; -1.1999949E-01;4782; -2.4753823E-03;  0.0000000E+00;  3.8581397E-04;  1.0009184E+03;  1.0000000E-01;  7.6086737E+02;3;  1.4362370E+00;  0.0000000E+00; -4.0726386E-02;0; -5.3020241E-04;  4.0084941E+04;  0.0000000E+00;  2.4197852E-02;  4.0000000E+04;  0.0000000E+00;  3.9990078E+04;  2.1294579E-03;  0.0000000E+00; -2.6596603E-03;  1.3253107E+03;
  3.8106677E-01;  9.9999998E-03; -1.1000354E-01;4783; -2.5141055E-03;  0.0000000E+00;  3.6027606E-04;  1.0009296E+03;  1.0000000E-01;  7.7015106E+02;3;  1.4387217E+00;  0.0000000E+00; -3.2611590E-02;0; -6.8021775E-04;  4.0085191E+04;  0.0000000E+00;  4.8798531E-02;  4.0000000E+04;  0.0000000E+00;  3.9990805E+04;  2.0910781E-03;  0.0000000E+00; -2.7712958E-03;  1.2383892E+03;
  3.9077210E-01;  9.9999998E-03; -2.7002177E-01;4828; -1.1578414E-03;  0.0000000E+00;  5.6330790E-04;  9.9958618E+02;  1.0000000E-01; -3.4285449E+02;3;  1.4628540E+00;  0.0000000E+00; -2.1189198E-01;0;  3.7324489E-03;  3.9962832E+04;  0.0000000E+00; -1.8177733E-02;  4.0000000E+04;  0.0000000E+00;  4.0003922E+04;  3.3249168E-03;  0.0000000E+00;  4.0753206E-04;  5.2668848E+02;
  3.9079204E-01;  9.9999998E-03; -2.6002336E-01;4829; -1.3302292E-03;  0.0000000E+00;  5.4887350E-04;  9.9970081E+02;  1.0000000E-01; -2.4789423E+02;3;  1.4526304E+00;  0.0000000E+00; -2.1215677E-01;0;  3.2998798E-03;  3.9973230E+04;  0.0000000E+00;  2.5128629E-02;  4.0000000E+04;  0.0000000E+00;  4.0003336E+04;  3.2788438E-03;  0.0000000E+00;  2.1036129E-05;  4.1647061E+02;
  3.9082378E-01;  9.9999998E-03; -2.5002524E-01;4830; -1.5004987E-03;  0.0000000E+00;  5.5510818E-04;  9.9982904E+02;  1.0000000E-01; -1.4162563E+02;3;  1.4387209E+00;  0.0000000E+00; -2.0511623E-01;0;  2.7134647E-03;  3.9984344E+04;  0.0000000E+00;  5.1118970E-02;  4.0000000E+04;  0.0000000E+00;  4.0001934E+04;  3.2123867E-03;  0.0000000E+00; -4.9892219E-04;  2.8380032E+02;
  3.9086372E-01;  9.9999998E-03; -2.4002703E-01;4831; -1.6655214E-03;  0.0000000E+00;  5.7268597E-04;  9.9995648E+02;  1.0000000E-01; -3.6048363E+01;3;  1.4184754E+00;  0.0000000E+00; -1.8638383E-01;0;  2.1704710E-03;  3.9996172E+04;  0.0000000E+00;  6.0837869E-02;  4.0000000E+04;  0.0000000E+00;  4.0000930E+04;  3.1271391E-03;  0.0000000E+00; -9.5666805E-04;  1.5301791E+02;
  3.9089853E-01;  9.9999998E-03; -2.3002957E-01;4832; -1.8260941E-03;  0.0000000E+00;  6.0016505E-04;  1.0000857E+03;  1.0000000E-01;  7.1010338E+01;3;  1.3849362E+00;  0.0000000E+00; -1.5646161E-01;0;  1.7123537E-03;  4.0007719E+04;  0.0000000E+00;  5.6825273E-02;  4.0000000E+04;  0.0000000E+00;  3.9999594E+04;  3.0269998E-03;  0.0000000E+00; -1.3146461E-03;  1.0477937E+02;
  3.9092574E-01;  9.9999998E-03; -2.2002989E-01;4833; -1.9608086E-03;  0.0000000E+00;  6.0821825E-04;  1.0002157E+03;  1.0000000E-01;  1.7866162E+02;3;  1.3633583E+00;  0.0000000E+00; -1.3539797E-01;0;  1.3947752E-03;  4.0019484E+04;  0.0000000E+00;  4.1926768E-02;  4.0000000E+04;  0.0000000E+00;  3.9998332E+04;  2.9185475E-03;  0.0000000E+00; -1.5237723E-03;  2.3451210E+02;
  3.9094886E-01;  9.9999998E-03; -2.1002389E-01;4834; -2.0671498E-03;  0.0000000E+00;  6.0430041E-04;  1.0003347E+03;  1.0000000E-01;  2.7732550E+02;3;  1.3562772E+00;  0.0000000E+00; -1.2432592E-01;0;  1.1299768E-03;  4.0030285E+04;  0.0000000E+00;  2.0307034E-02;  4.0000000E+04;  0.0000000E+00;  3.9997398E+04;  2.8094454E-03;  0.0000000E+00; -1.6794686E-03;  3.5495404E+02;
  3.9096972E-01;  9.9999998E-03; -2.0001407E-01;4835; -2.1501959E-03;  0.0000000E+00;  5.9536373E-04;  1.0004431E+03;  1.0000000E-01;  3.6710074E+02;3;  1.3624122E+00;  0.0000000E+00; -1.1604914E-01;0;  8.8610768E-04;  4.0040531E+04;  0.0000000E+00; -2.9774094E-03;  4.0000000E+04;  0.0000000E+00;  3.9996094E+04;  2.7067233E-03;  0.0000000E+00; -1.8206156E-03;  5.3248108E+02;
  3.9098847E-01;  9.9999998E-03; -1.9000421E-01;4836; -2.2142329E-03;  0.0000000E+00;  5.8144896E-04;  1.0005363E+03;  1.0000000E-01;  4.4433310E+02;3;  1.3769152E+00;  0.0000000E+00; -1.1082426E-01;0;  6.5769698E-04;  4.0049668E+04;  0.0000000E+00; -2.2625929E-02;  4.0000000E+04;  0.0000000E+00;  3.9994363E+04;  2.6154730E-03;  0.0000000E+00; -1.9577760E-03;  7.5267841E+02;
  3.9100400E-01;  9.9999998E-03; -1.7999659E-01;4837; -2.2669684E-03;  0.0000000E+00;  5.6606595E-04;  1.0006140E+03;  1.0000000E-01;  5.0862759E+02;3;  1.3877808E+00;  0.0000000E+00; -1.0482050E-01;0;  4.4197286E-04;  4.0057617E+04;  0.0000000E+00; -3.4013163E-02;  4.0000000E+04;  0.0000000E+00;  3.9992703E+04;  2.5384231E-03;  0.0000000E+00; -2.0964502E-03;  9.6340753E+02;
  3.9101633E-01;  9.9999998E-03; -1.6999213E-01;4838; -2.3082492E-03;  0.0000000E+00;  5.4961577E-04;  1.0006803E+03;  1.0000000E-01;  5.6363837E+02;3;  1.4005846E+00;  0.0000000E+00; -9.7035915E-02;0;  2.3933034E-04;  4.0063988E+04;  0.0000000E+00; -3.4083880E-02;  4.0000000E+04;  0.0000000E+00;  3.9991574E+04;  2.4764379E-03;  0.0000000E+00; -2.2371076E-03;  1.1285605E+03;
  3.9102650E-01;  9.9999998E-03; -1.5999100E-01;4839; -2.3414544E-03;  0.0000000E+00;  5.3170283E-04;  1.0007371E+03;  1.0000000E-01;  6.1064941E+02;3;  1.4101168E+00;  0.0000000E+00; -8.5827298E-02;0;  5.0229020E-05;  4.0069402E+04;  0.0000000E+00; -2.2196798E-02;  4.0000000E+04;  0.0000000E+00;  3.9990570E+04;  2.4290383E-03;  0.0000000E+00; -2.3788093E-03;  1.2362209E+03;
  3.9103353E-01;  9.9999998E-03; -1.4999256E-01;4840; -2.3701850E-03;  0.0000000E+00;  5.1188964E-04;  1.0007764E+03;  1.0000000E-01;  6.4324109E+02;3;  1.4193852E+00;  0.0000000E+00; -7.4544191E-02;0; -1.2435066E-04;  4.0073121E+04;  0.0000000E+00; -5.0615746E-04;  4.0000000E+04;  0.0000000E+00;  3.9990406E+04;  2.3951232E-03;  0.0000000E+00; -2.5194739E-03;  1.2900912E+03;
  3.9104018E-01;  9.9999998E-03; -1.3999605E-01;4841; -2.3987587E-03;  0.0000000E+00;  4.8997573E-04;  1.0008072E+03;  1.0000000E-01;  6.6872180E+02;3;  1.4281431E+00;  0.0000000E+00; -6.1873384E-02;0; -2.8284756E-04;  4.0075613E+04;  0.0000000E+00;  2.6428035E-02;  4.0000000E+04;  0.0000000E+00;  3.9990332E+04;  2.3738598E-03;  0.0000000E+00; -2.6567073E-03;  1.3004509E+03;
  3.9104751E-01;  9.9999998E-03; -1.3000055E-01;4842; -2.4296299E-03;  0.0000000E+00;  4.6629659E-04;  1.0008287E+03;  1.0000000E-01;  6.8659784E+02;3;  1.4345133E+00;  0.0000000E+00; -5.0798573E-02;0; -4.2395131E-04;  4.0077199E+04;  0.0000000E+00;  5.3005975E-02;  4.0000000E+04;  0.0000000E+00;  3.9990312E+04;  2.3651004E-03;  0.0000000E+00; -2.7890517E-03;  1.2785505E+03;
  3.9105317E-01;  9.9999998E-03; -1.2000509E-01;4843; -2.4639841E-03;  0.0000000E+00;  4.4144483E-04;  1.0008463E+03;  1.0000000E-01;  7.0111597E+02;3;  1.4416115E+00;  0.0000000E+00; -3.9705433E-02;0; -5.4718275E-04;  4.0078137E+04;  0.0000000E+00;  7.4510828E-02;  4.0000000E+04;  0.0000000E+00;  3.9990633E+04;  2.3693393E-03;  0.0000000E+00; -2.9165221E-03;  1.2353193E+03;
  3.9105585E-01;  9.9999998E-03; -1.1000871E-01;4844; -2.5018542E-03;  0.0000000E+00;  4.1585608E-04;  1.0008610E+03;  1.0000000E-01;  7.1326379E+02;3;  1.4460143E+00;  0.0000000E+00; -2.9314052E-02;0; -6.5226294E-04;  4.0078570E+04;  0.0000000E+00;  8.8213526E-02;  4.0000000E+04;  0.0000000E+00;  3.9991418E+04;  2.3874296E-03;  0.0000000E+00; -3.0396925E-03;  1.1809282E+03;
  4.0077445E-01;  9.9999998E-03; -2.7002007E-01;4889; -1.1900959E-03;  0.0000000E+00;  6.4768124E-04;  9.9949219E+02;  1.0000000E-01; -4.2072885E+02;3;  1.4688305E+00;  0.0000000E+00; -2.1126957E-01;0;  3.7072990E-03;  3.9953207E+04;  0.0000000E+00; -8.2450159E-02;  4.0000000E+04;  0.0000000E+00;  4.0005008E+04;  3.6639173E-03;  0.0000000E+00;  4.3381631E-05;  6.7825458E+02;
  4.0079021E-01;  9.9999998E-03; -2.6002115E-01;4890; -1.3510387E-03;  0.0000000E+00;  6.2804384E-04;  9.9961456E+02;  1.0000000E-01; -3.1934900E+02;3;  1.4587296E+00;  0.0000000E+00; -2.1179950E-01;0;  3.3682534E-03;  3.9964105E+04;  0.0000000E+00; -5.5844143E-02;  4.0000000E+04;  0.0000000E+00;  4.0004270E+04;  3.6374561E-03;  0.0000000E+00; -2.6920275E-04;  5.6346179E+02;
  4.0081558E-01;  9.9999998E-03; -2.5002190E-01;4891; -1.5088184E-03;  0.0000000E+00;  6.2268932E-04;  9.9974646E+02;  1.0000000E-01; -2.1006813E+02;3;  1.4481435E+00;  0.0000000E+00; -2.0754987E-01;0;  2.8959136E-03;  3.9975422E+04;  0.0000000E+00; -3.6456812E-02;  4.0000000E+04;  0.0000000E+00;  4.0003285E+04;  3.5873656E-03;  0.0000000E+00; -6.9145212E-04;  4.4588104E+02;
  4.0084994E-01;  9.9999998E-03; -2.4002087E-01;4892; -1.6575946E-03;  0.0000000E+00;  6.1728241E-04;  9.9988403E+02;  1.0000000E-01; -9.6096046E+01;3;  1.4351684E+00;  0.0000000E+00; -1.9935094E-01;0;  2.4711380E-03;  3.9987316E+04;  0.0000000E+00; -2.2916425E-02;  4.0000000E+04;  0.0000000E+00;  4.0002848E+04;  3.5148941E-03;  0.0000000E+00; -1.0437560E-03;  3.7200153E+02;
  4.0088388E-01;  9.9999998E-03; -2.3001894E-01;4893; -1.8045541E-03;  0.0000000E+00;  6.3510053E-04;  1.0000180E+03;  1.0000000E-01;  1.4913158E+01;3;  1.4139793E+00;  0.0000000E+00; -1.8024097E-01;0;  2.0193907E-03;  3.9998863E+04;  0.0000000E+00; -1.4512539E-02;  4.0000000E+04;  0.0000000E+00;  4.0001832E+04;  3.4235611E-03;  0.0000000E+00; -1.4041704E-03;  2.3989809E+02;
  4.0091145E-01;  9.9999998E-03; -2.2001776E-01;4894; -1.9401849E-03;  0.0000000E+00;  6.5746397E-04;  1.0001394E+03;  1.0000000E-01;  1.1545352E+02;3;  1.3926212E+00;  0.0000000E+00; -1.5527256E-01;0;  1.6469723E-03;  4.0010445E+04;  0.0000000E+00; -1.0525856E-02;  4.0000000E+04;  0.0000000E+00;  4.0000195E+04;  3.3199107E-03;  0.0000000E+00; -1.6729385E-03;  2.6055620E+01;
  4.0093398E-01;  9.9999998E-03; -2.1001405E-01;4895; -2.0493553E-03;  0.0000000E+00;  6.6104392E-04;  1.0002515E+03;  1.0000000E-01;  2.0838918E+02;3;  1.3822955E+00;  0.0000000E+00; -1.3929011E-01;0;  1.3616987E-03;  4.0021430E+04;  0.0000000E+00; -9.1749476E-03;  4.0000000E+04;  0.0000000E+00;  3.9998785E+04;  3.2124633E-03;  0.0000000E+00; -1.8507646E-03;  1.9388367E+02;
  4.0095329E-01;  9.9999998E-03; -2.0000841E-01;4896; -2.1354978E-03;  0.0000000E+00;  6.5306271E-04;  1.0003544E+03;  1.0000000E-01;  2.9362134E+02;3;  1.3819482E+00;  0.0000000E+00; -1.3098156E-01;0;  1.1085689E-03;  4.0031586E+04;  0.0000000E+00; -8.0060549E-03;  4.0000000E+04;  0.0000000E+00;  3.9996867E+04;  3.1096886E-03;  0.0000000E+00; -2.0011198E-03;  4.1722977E+02;
  4.0096974E-01;  9.9999998E-03; -1.9000310E-01;4897; -2.2050231E-03;  0.0000000E+00;  6.3988374E-04;  1.0004460E+03;  1.0000000E-01;  3.6947104E+02;3;  1.3865790E+00;  0.0000000E+00; -1.2271225E-01;0;  8.7102037E-04;  4.0040598E+04;  0.0000000E+00; -4.3725157E-03;  4.0000000E+04;  0.0000000E+00;  3.9995133E+04;  3.0185450E-03;  0.0000000E+00; -2.1475246E-03;  6.4164703E+02;
  4.0098333E-01;  9.9999998E-03; -1.7999938E-01;4898; -2.2601529E-03;  0.0000000E+00;  6.2453287E-04;  1.0005228E+03;  1.0000000E-01;  4.3307416E+02;3;  1.3950882E+00;  0.0000000E+00; -1.1516840E-01;0;  6.4774696E-04;  4.0048770E+04;  0.0000000E+00;  3.9094123E-03;  4.0000000E+04;  0.0000000E+00;  3.9993566E+04;  2.9438366E-03;  0.0000000E+00; -2.2960897E-03;  8.3781995E+02;
  4.0099493E-01;  9.9999998E-03; -1.6999786E-01;4899; -2.3042515E-03;  0.0000000E+00;  6.0769421E-04;  1.0005895E+03;  1.0000000E-01;  4.8838126E+02;3;  1.4033816E+00;  0.0000000E+00; -1.0475105E-01;0;  4.4055772E-04;  4.0055281E+04;  0.0000000E+00;  1.7988725E-02;  4.0000000E+04;  0.0000000E+00;  3.9992566E+04;  2.8881305E-03;  0.0000000E+00; -2.4475728E-03;  9.8802246E+02;
  4.0100521E-01;  9.9999998E-03; -1.5999854E-01;4900; -2.3399258E-03;  0.0000000E+00;  5.8889965E-04;  1.0006494E+03;  1.0000000E-01;  5.3796008E+02;3;  1.4106592E+00;  0.0000000E+00; -9.2016429E-02;0;  2.5148061E-04;  4.0060422E+04;  0.0000000E+00;  3.7473880E-02;  4.0000000E+04;  0.0000000E+00;  3.9991734E+04;  2.8522217E-03;  0.0000000E+00; -2.6007411E-03;  1.0894188E+03;
  4.0101567E-01;  9.9999998E-03; -1.5000108E-01;4901; -2.3713054E-03;  0.0000000E+00;  5.6797510E-04;  1.0006910E+03;  1.0000000E-01;  5.7242828E+02;3;  1.4203804E+00;  0.0000000E+00; -7.7346481E-02;0;  8.3222985E-05;  4.0064211E+04;  0.0000000E+00;  6.0286939E-02;  4.0000000E+04;  0.0000000E+00;  3.9991246E+04;  2.8363019E-03;  0.0000000E+00; -2.7530789E-03;  1.1484181E+03;
  4.0102458E-01;  9.9999998E-03; -1.4000472E-01;4902; -2.4022185E-03;  0.0000000E+00;  5.4509443E-04;  1.0007203E+03;  1.0000000E-01;  5.9682263E+02;3;  1.4274254E+00;  0.0000000E+00; -6.5675773E-02;0; -6.1073806E-05;  4.0067098E+04;  0.0000000E+00;  8.3003379E-02;  4.0000000E+04;  0.0000000E+00;  3.9991449E+04;  2.8405830E-03;  0.0000000E+00; -2.9016568E-03;  1.1745493E+03;
  4.0103310E-01;  9.9999998E-03; -1.3000859E-01;4903; -2.4344041E-03;  0.0000000E+00;  5.2067637E-04;  1.0007455E+03;  1.0000000E-01;  6.1766156E+02;3;  1.4337996E+00;  0.0000000E+00; -5.3894330E-02;0; -1.7891149E-04;  4.0068984E+04;  0.0000000E+00;  1.0182337E-01;  4.0000000E+04;  0.0000000E+00;  3.9991160E+04;  2.8659252E-03;  0.0000000E+00; -3.0448367E-03;  1.1769884E+03;
  4.0104127E-01;  9.9999998E-03; -1.2001187E-01;4904; -2.4685566E-03;  0.0000000E+00;  4.9511320E-04;  1.0007583E+03;  1.0000000E-01;  6.2822913E+02;3;  1.4406279E+00;  0.0000000E+00; -4.2032037E-02;0; -2.6958040E-04;  4.0070152E+04;  0.0000000E+00;  1.1392507E-01;  4.0000000E+04;  0.0000000E+00;  3.9991250E+04;  2.9131835E-03;  0.0000000E+00; -3.1827639E-03;  1.1643020E+03;
  4.0104595E-01;  9.9999998E-03; -1.1001402E-01;4905; -2.5040917E-03;  0.0000000E+00;  4.6869696E-04;  1.0007670E+03;  1.0000000E-01;  6.3543884E+02;3;  1.4483411E+00;  0.0000000E+00; -3.0309239E-02;0; -3.3361162E-04;  4.0070641E+04;  0.0000000E+00;  1.1816525E-01;  4.0000000E+04;  0.0000000E+00;  3.9991555E+04;  2.9825468E-03;  0.0000000E+00; -3.3161584E-03;  1.1435896E+03;
  4.1078937E-01;  9.9999998E-03; -2.7001825E-01;4950; -1.2358140E-03;  0.0000000E+00;  7.3992141E-04;  9.9940912E+02;  1.0000000E-01; -4.8951703E+02;3;  1.4741571E+00;  0.0000000E+00; -2.0843337E-01;0;  4.2987182E-03;  3.9945367E+04;  0.0000000E+00; -1.3825604E-01;  4.0000000E+04;  0.0000000E+00;  4.0005770E+04;  4.7073541E-03;  0.0000000E+00; -4.0863603E-04;  8.1926068E+02;
  4.1080275E-01;  9.9999998E-03; -2.6001874E-01;4951; -1.3863209E-03;  0.0000000E+00;  7.1474892E-04;  9.9953253E+02;  1.0000000E-01; -3.8729770E+02;3;  1.4638486E+00;  0.0000000E+00; -2.0799465E-01;0;  4.0262039E-03;  3.9955742E+04;  0.0000000E+00; -1.2530687E-01;  4.0000000E+04;  0.0000000E+00;  4.0005250E+04;  4.6704486E-03;  0.0000000E+00; -6.4424489E-04;  7.1725671E+02;
  4.1081959E-01;  9.9999998E-03; -2.5001854E-01;4952; -1.5360273E-03;  0.0000000E+00;  7.0311793E-04;  9.9966492E+02;  1.0000000E-01; -2.7762177E+02;3;  1.4516138E+00;  0.0000000E+00; -2.0353563E-01;0;  3.6055730E-03;  3.9966898E+04;  0.0000000E+00; -1.1258028E-01;  4.0000000E+04;  0.0000000E+00;  4.0004441E+04;  4.6066032E-03;  0.0000000E+00; -1.0010301E-03;  6.2290082E+02;
  4.1084370E-01;  9.9999998E-03; -2.4001546E-01;4953; -1.6782789E-03;  0.0000000E+00;  6.8972935E-04;  9.9980096E+02;  1.0000000E-01; -1.6488423E+02;3;  1.4390912E+00;  0.0000000E+00; -1.9684759E-01;0;  3.2174720E-03;  3.9978445E+04;  0.0000000E+00; -9.8191291E-02;  4.0000000E+04;  0.0000000E+00;  4.0004316E+04;  4.5180735E-03;  0.0000000E+00; -1.3006015E-03;  5.9747638E+02;
  4.1086978E-01;  9.9999998E-03; -2.3001181E-01;4954; -1.8214027E-03;  0.0000000E+00;  7.0808001E-04;  9.9993628E+02;  1.0000000E-01; -5.2788631E+01;3;  1.4205464E+00;  0.0000000E+00; -1.7960520E-01;0;  2.7526501E-03;  3.9990203E+04;  0.0000000E+00; -8.2024977E-02;  4.0000000E+04;  0.0000000E+00;  4.0003625E+04;  4.4091353E-03;  0.0000000E+00; -1.6564853E-03;  4.6608569E+02;
  4.1089240E-01;  9.9999998E-03; -2.2001249E-01;4955; -1.9547136E-03;  0.0000000E+00;  7.3426758E-04;  1.0000471E+03;  1.0000000E-01;  3.9011242E+01;3;  1.3990151E+00;  0.0000000E+00; -1.5699996E-01;0;  2.3623139E-03;  4.0001445E+04;  0.0000000E+00; -6.4471267E-02;  4.0000000E+04;  0.0000000E+00;  4.0001320E+04;  4.2870911E-03;  0.0000000E+00; -1.9247772E-03;  1.7971942E+02;
  4.1091135E-01;  9.9999998E-03; -2.1001320E-01;4956; -2.0610068E-03;  0.0000000E+00;  7.3370489E-04;  1.0001536E+03;  1.0000000E-01;  1.2720628E+02;3;  1.3889357E+00;  0.0000000E+00; -1.4399207E-01;0;  2.0724314E-03;  4.0012246E+04;  0.0000000E+00; -4.5448892E-02;  4.0000000E+04;  0.0000000E+00;  3.9999266E+04;  4.1615125E-03;  0.0000000E+00; -2.0890811E-03;  1.3218642E+02;
  4.1092759E-01;  9.9999998E-03; -2.0001186E-01;4957; -2.1466292E-03;  0.0000000E+00;  7.2045997E-04;  1.0002562E+03;  1.0000000E-01;  2.1224091E+02;3;  1.3855247E+00;  0.0000000E+00; -1.3717118E-01;0;  1.8089574E-03;  4.0022371E+04;  0.0000000E+00; -2.4602575E-02;  4.0000000E+04;  0.0000000E+00;  3.9997637E+04;  4.0422278E-03;  0.0000000E+00; -2.2332703E-03;  3.4107254E+02;
  4.1094205E-01;  9.9999998E-03; -1.9001009E-01;4958; -2.2166329E-03;  0.0000000E+00;  7.0400489E-04;  1.0003472E+03;  1.0000000E-01;  2.8769556E+02;3;  1.3904116E+00;  0.0000000E+00; -1.3039611E-01;0;  1.5575541E-03;  4.0031527E+04;  0.0000000E+00; -1.5756891E-03;  4.0000000E+04;  0.0000000E+00;  3.9996188E+04;  3.9379606E-03;  0.0000000E+00; -2.3804065E-03;  5.4055585E+02;
  4.1095555E-01;  9.9999998E-03; -1.8000898E-01;4959; -2.2733405E-03;  0.0000000E+00;  6.8619527E-04;  1.0004304E+03;  1.0000000E-01;  3.5663190E+02;3;  1.3945512E+00;  0.0000000E+00; -1.2250952E-01;0;  1.3221463E-03;  4.0039422E+04;  0.0000000E+00;  2.3599138E-02;  4.0000000E+04;  0.0000000E+00;  3.9994730E+04;  3.8551637E-03;  0.0000000E+00; -2.5330174E-03;  7.1310114E+02;
  4.1096812E-01;  9.9999998E-03; -1.7000905E-01;4960; -2.3187222E-03;  0.0000000E+00;  6.6670199E-04;  1.0004984E+03;  1.0000000E-01;  4.1292661E+02;3;  1.4018840E+00;  0.0000000E+00; -1.0932397E-01;0;  1.1069467E-03;  4.0046211E+04;  0.0000000E+00;  5.0241482E-02;  4.0000000E+04;  0.0000000E+00;  3.9993602E+04;  3.7974664E-03;  0.0000000E+00; -2.6905197E-03;  8.5039362E+02;
  4.1098082E-01;  9.9999998E-03; -1.6001041E-01;4961; -2.3562759E-03;  0.0000000E+00;  6.4528460E-04;  1.0005558E+03;  1.0000000E-01;  4.6043143E+02;3;  1.4096555E+00;  0.0000000E+00; -9.6613847E-02;0;  9.1531756E-04;  4.0051621E+04;  0.0000000E+00;  7.6873139E-02;  4.0000000E+04;  0.0000000E+00;  3.9992938E+04;  3.7663234E-03;  0.0000000E+00; -2.8510059E-03;  9.5198975E+02;
  4.1099349E-01;  9.9999998E-03; -1.5001273E-01;4962; -2.3893972E-03;  0.0000000E+00;  6.2225445E-04;  1.0006026E+03;  1.0000000E-01;  4.9924515E+02;3;  1.4179609E+00;  0.0000000E+00; -8.4115699E-02;0;  7.5065182E-04;  4.0055949E+04;  0.0000000E+00;  1.0135172E-01;  4.0000000E+04;  0.0000000E+00;  3.9992234E+04;  3.7619094E-03;  0.0000000E+00; -3.0112576E-03;  1.0227650E+03;
  4.1100642E-01;  9.9999998E-03; -1.4001539E-01;4963; -2.4210301E-03;  0.0000000E+00;  5.9788307E-04;  1.0006352E+03;  1.0000000E-01;  5.2620734E+02;3;  1.4258174E+00;  0.0000000E+00; -7.1295746E-02;0;  6.1659957E-04;  4.0058719E+04;  0.0000000E+00;  1.2123644E-01;  4.0000000E+04;  0.0000000E+00;  3.9992004E+04;  3.7845178E-03;  0.0000000E+00; -3.1679182E-03;  1.0693619E+03;
  4.1101784E-01;  9.9999998E-03; -1.3001773E-01;4964; -2.4529363E-03;  0.0000000E+00;  5.7196710E-04;  1.0006569E+03;  1.0000000E-01;  5.4418213E+02;3;  1.4319654E+00;  0.0000000E+00; -5.9420642E-02;0;  5.1537505E-04;  4.0060859E+04;  0.0000000E+00;  1.3434766E-01;  4.0000000E+04;  0.0000000E+00;  3.9991918E+04;  3.8343852E-03;  0.0000000E+00; -3.3190101E-03;  1.0982913E+03;
  4.1102690E-01;  9.9999998E-03; -1.2001919E-01;4965; -2.4855551E-03;  0.0000000E+00;  5.4486940E-04;  1.0006702E+03;  1.0000000E-01;  5.5524353E+02;3;  1.4377056E+00;  0.0000000E+00; -4.6834987E-02;0;  4.4690236E-04;  4.0061926E+04;  0.0000000E+00;  1.3952835E-01;  4.0000000E+04;  0.0000000E+00;  3.9991707E+04;  3.9114463E-03;  0.0000000E+00; -3.4645440E-03;  1.1155876E+03;
  4.1103375E-01;  9.9999998E-03; -1.1001938E-01;4966; -2.5179780E-03;  0.0000000E+00;  5.1668560E-04;  1.0006703E+03;  1.0000000E-01;  5.5534235E+02;3;  1.4461392E+00;  0.0000000E+00; -3.5196990E-02;0;  4.0953280E-04;  4.0062508E+04;  0.0000000E+00;  1.3698529E-01;  4.0000000E+04;  0.0000000E+00;  3.9991738E+04;  4.0148594E-03;  0.0000000E+00; -3.6053266E-03;  1.1259156E+03;
  4.2082629E-01;  9.9999998E-03; -2.7001673E-01;5011; -1.2866342E-03;  0.0000000E+00;  8.3641766E-04;  9.9935687E+02;  1.0000000E-01; -5.3282446E+02;3;  1.4769191E+00;  0.0000000E+00; -2.0113195E-01;0;  5.7913093E-03;  3.9940074E+04;  0.0000000E+00; -1.8511401E-01;  4.0000000E+04;  0.0000000E+00;  4.0006719E+04;  6.6905576E-03;  0.0000000E+00; -8.9924823E-04;  9.1603711E+02;
  4.2084000E-01;  9.9999998E-03; -2.6001677E-01;5012; -1.4305832E-03;  0.0000000E+00;  8.0886227E-04;  9.9947675E+02;  1.0000000E-01; -4.3351862E+02;3;  1.4674814E+00;  0.0000000E+00; -1.9954585E-01;0;  5.5159694E-03;  3.9950109E+04;  0.0000000E+00; -1.8422560E-01;  4.0000000E+04;  0.0000000E+00;  4.0005957E+04;  6.6133891E-03;  0.0000000E+00; -1.0974200E-03;  8.3018964E+02;
  4.2084861E-01;  9.9999998E-03; -2.5001574E-01;5013; -1.5746517E-03;  0.0000000E+00;  7.9292880E-04;  9.9960077E+02;  1.0000000E-01; -3.3075607E+02;3;  1.4544677E+00;  0.0000000E+00; -1.9573623E-01;0;  5.1029008E-03;  3.9960676E+04;  0.0000000E+00; -1.7673339E-01;  4.0000000E+04;  0.0000000E+00;  4.0005605E+04;  6.5051126E-03;  0.0000000E+00; -1.4022118E-03;  7.6231964E+02;
  4.2085961E-01;  9.9999998E-03; -2.4001171E-01;5014; -1.7134516E-03;  0.0000000E+00;  7.7662041E-04;  9.9973706E+02;  1.0000000E-01; -2.1782100E+02;3;  1.4420332E+00;  0.0000000E+00; -1.8902200E-01;0;  4.7042882E-03;  3.9971770E+04;  0.0000000E+00; -1.6254975E-01;  4.0000000E+04;  0.0000000E+00;  4.0005656E+04;  6.3701933E-03;  0.0000000E+00; -1.6659054E-03;  7.5160468E+02;
  4.2087311E-01;  9.9999998E-03; -2.3000804E-01;5015; -1.8545054E-03;  0.0000000E+00;  7.9658837E-04;  9.9986224E+02;  1.0000000E-01; -1.1412023E+02;3;  1.4220217E+00;  0.0000000E+00; -1.7290069E-01;0;  4.2088488E-03;  3.9982898E+04;  0.0000000E+00; -1.4229958E-01;  4.0000000E+04;  0.0000000E+00;  4.0004492E+04;  6.2149805E-03;  0.0000000E+00; -2.0061317E-03;  5.9766986E+02;
  4.2088652E-01;  9.9999998E-03; -2.2001183E-01;5016; -1.9830633E-03;  0.0000000E+00;  8.1891712E-04;  9.9996136E+02;  1.0000000E-01; -3.1999096E+01;3;  1.3965021E+00;  0.0000000E+00; -1.5192030E-01;0;  3.8031302E-03;  3.9993695E+04;  0.0000000E+00; -1.1667527E-01;  4.0000000E+04;  0.0000000E+00;  4.0001484E+04;  6.0483096E-03;  0.0000000E+00; -2.2451794E-03;  2.5957727E+02;
  4.2089948E-01;  9.9999998E-03; -2.1001713E-01;5017; -2.0850257E-03;  0.0000000E+00;  8.1003539E-04;  1.0000664E+03;  1.0000000E-01;  5.5010788E+01;3;  1.3905749E+00;  0.0000000E+00; -1.4462502E-01;0;  3.4957088E-03;  4.0004336E+04;  0.0000000E+00; -8.6312264E-02;  4.0000000E+04;  0.0000000E+00;  3.9999488E+04;  5.8808639E-03;  0.0000000E+00; -2.3851551E-03;  1.5502893E+02;
  4.2091221E-01;  9.9999998E-03; -2.0001958E-01;5018; -2.1696440E-03;  0.0000000E+00;  7.9084939E-04;  1.0001683E+03;  1.0000000E-01;  1.3945285E+02;3;  1.3875721E+00;  0.0000000E+00; -1.4147377E-01;0;  3.2051418E-03;  4.0014336E+04;  0.0000000E+00; -5.2064348E-02;  4.0000000E+04;  0.0000000E+00;  3.9997707E+04;  5.7237404E-03;  0.0000000E+00; -2.5185987E-03;  3.0525644E+02;
  4.2092472E-01;  9.9999998E-03; -1.9002044E-01;5019; -2.2400091E-03;  0.0000000E+00;  7.7031553E-04;  1.0002635E+03;  1.0000000E-01;  2.1826543E+02;3;  1.3902168E+00;  0.0000000E+00; -1.3451365E-01;0;  2.9252118E-03;  4.0023316E+04;  0.0000000E+00; -1.5153809E-02;  4.0000000E+04;  0.0000000E+00;  3.9996496E+04;  5.5869026E-03;  0.0000000E+00; -2.6616908E-03;  4.6358557E+02;
  4.2093718E-01;  9.9999998E-03; -1.8002087E-01;5020; -2.2977358E-03;  0.0000000E+00;  7.4849563E-04;  1.0003467E+03;  1.0000000E-01;  2.8730051E+02;3;  1.3940356E+00;  0.0000000E+00; -1.2442139E-01;0;  2.6642368E-03;  4.0031586E+04;  0.0000000E+00;  2.2690494E-02;  4.0000000E+04;  0.0000000E+00;  3.9995430E+04;  5.4778736E-03;  0.0000000E+00; -2.8136368E-03;  6.0900049E+02;
  4.2095003E-01;  9.9999998E-03; -1.7002159E-01;5021; -2.3445615E-03;  0.0000000E+00;  7.2510692E-04;  1.0004223E+03;  1.0000000E-01;  3.4991602E+02;3;  1.4001545E+00;  0.0000000E+00; -1.1364529E-01;0;  2.4282455E-03;  4.0038488E+04;  0.0000000E+00;  5.9275787E-02;  4.0000000E+04;  0.0000000E+00;  3.9994477E+04;  5.4010493E-03;  0.0000000E+00; -2.9728038E-03;  7.3561499E+02;
  4.2096326E-01;  9.9999998E-03; -1.6002280E-01;5022; -2.3835995E-03;  0.0000000E+00;  7.0038799E-04;  1.0004808E+03;  1.0000000E-01;  3.9830972E+02;3;  1.4078653E+00;  0.0000000E+00; -1.0118858E-01;0;  2.2214625E-03;  4.0044332E+04;  0.0000000E+00;  9.2143983E-02;  4.0000000E+04;  0.0000000E+00;  3.9993711E+04;  5.3578373E-03;  0.0000000E+00; -3.1363748E-03;  8.4075397E+02;
  4.2097667E-01;  9.9999998E-03; -1.5002434E-01;5023; -2.4176191E-03;  0.0000000E+00;  6.7449274E-04;  1.0005312E+03;  1.0000000E-01;  4.4008630E+02;3;  1.4159493E+00;  0.0000000E+00; -9.0060517E-02;0;  2.0472400E-03;  4.0048887E+04;  0.0000000E+00;  1.1896783E-01;  4.0000000E+04;  0.0000000E+00;  3.9993211E+04;  5.3477581E-03;  0.0000000E+00; -3.3005180E-03;  9.2522717E+02;
  4.2099014E-01;  9.9999998E-03; -1.4002568E-01;5024; -2.4490247E-03;  0.0000000E+00;  6.4764183E-04;  1.0005659E+03;  1.0000000E-01;  4.6882623E+02;3;  1.4236618E+00;  0.0000000E+00; -7.7848755E-02;0;  1.9085321E-03;  4.0052082E+04;  0.0000000E+00;  1.3795424E-01;  4.0000000E+04;  0.0000000E+00;  3.9992559E+04;  5.3699301E-03;  0.0000000E+00; -3.4613980E-03;  9.9195471E+02;
  4.2100364E-01;  9.9999998E-03; -1.3002637E-01;5025; -2.4798114E-03;  0.0000000E+00;  6.1934174E-04;  1.0005862E+03;  1.0000000E-01;  4.8571466E+02;3;  1.4287035E+00;  0.0000000E+00; -6.6443346E-02;0;  1.8066177E-03;  4.0054266E+04;  0.0000000E+00;  1.4814745E-01;  4.0000000E+04;  0.0000000E+00;  3.9992312E+04;  5.4233731E-03;  0.0000000E+00; -3.6167554E-03;  1.0449049E+03;
  4.2101553E-01;  9.9999998E-03; -1.2002604E-01;5026; -2.5098957E-03;  0.0000000E+00;  5.8977230E-04;  1.0005959E+03;  1.0000000E-01;  4.9371442E+02;3;  1.4357409E+00;  0.0000000E+00; -5.4094952E-02;0;  1.7398677E-03;  4.0055410E+04;  0.0000000E+00;  1.4964738E-01;  4.0000000E+04;  0.0000000E+00;  3.9991906E+04;  5.5061621E-03;  0.0000000E+00; -3.7662943E-03;  1.0881454E+03;
  4.2102447E-01;  9.9999998E-03; -1.1002448E-01;5027; -2.5389285E-03;  0.0000000E+00;  5.5879256E-04;  1.0005910E+03;  1.0000000E-01;  4.8966516E+02;3;  1.4434530E+00;  0.0000000E+00; -4.1918688E-02;0;  1.7048139E-03;  4.0055426E+04;  0.0000000E+00;  1.4353886E-01;  4.0000000E+04;  0.0000000E+00;  3.9991441E+04;  5.6154225E-03;  0.0000000E+00; -3.9106086E-03;  1.1240316E+03;
  4.3087035E-01;  9.9999998E-03; -2.7001584E-01;5072; -1.3372904E-03;  0.0000000E+00;  9.3575940E-04;  9.9935394E+02;  1.0000000E-01; -5.3524414E+02;3;  1.4799349E+00;  0.0000000E+00; -1.9005142E-01;0;  8.4035834E-03;  3.9939484E+04;  0.0000000E+00; -2.0360167E-01;  4.0000000E+04;  0.0000000E+00;  4.0006699E+04;  9.8139159E-03;  0.0000000E+00; -1.4103324E-03;  9.3288751E+02;
  4.3088493E-01;  9.9999998E-03; -2.6001555E-01;5073; -1.4764485E-03;  0.0000000E+00;  9.0572558E-04;  9.9946448E+02;  1.0000000E-01; -4.4369116E+02;3;  1.4697422E+00;  0.0000000E+00; -1.8922915E-01;0;  8.0806678E-03;  3.9948762E+04;  0.0000000E+00; -2.1805614E-01;  4.0000000E+04;  0.0000000E+00;  4.0006227E+04;  9.6658254E-03;  0.0000000E+00; -1.5851577E-03;  8.7012573E+02;
  4.3088934E-01;  9.9999998E-03; -2.5001416E-01;5074; -1.6168694E-03;  0.0000000E+00;  8.8773825E-04;  9.9957898E+02;  1.0000000E-01; -3.4882965E+02;3;  1.4559543E+00;  0.0000000E+00; -1.8505639E-01;0;  7.6185167E-03;  3.9958500E+04;  0.0000000E+00; -2.1899071E-01;  4.0000000E+04;  0.0000000E+00;  4.0005816E+04;  9.4821891E-03;  0.0000000E+00; -1.8636725E-03;  8.2075616E+02;
  4.3089268E-01;  9.9999998E-03; -2.4000989E-01;5075; -1.7546610E-03;  0.0000000E+00;  8.7081955E-04;  9.9970807E+02;  1.0000000E-01; -2.4186971E+02;3;  1.4407361E+00;  0.0000000E+00; -1.7788300E-01;0;  7.1650436E-03;  3.9968809E+04;  0.0000000E+00; -2.0872116E-01;  4.0000000E+04;  0.0000000E+00;  4.0005922E+04;  9.2701344E-03;  0.0000000E+00; -2.1050910E-03;  8.1244293E+02;
  4.3089908E-01;  9.9999998E-03; -2.3000674E-01;5076; -1.8928937E-03;  0.0000000E+00;  8.8718301E-04;  9.9982269E+02;  1.0000000E-01; -1.4690942E+02;3;  1.4181842E+00;  0.0000000E+00; -1.6214903E-01;0;  6.6282693E-03;  3.9979227E+04;  0.0000000E+00; -1.8888883E-01;  4.0000000E+04;  0.0000000E+00;  4.0004512E+04;  9.0388898E-03;  0.0000000E+00; -2.4106207E-03;  6.4508490E+02;
  4.3090507E-01;  9.9999998E-03; -2.2001287E-01;5077; -2.0142174E-03;  0.0000000E+00;  9.0155640E-04;  9.9990979E+02;  1.0000000E-01; -7.4713936E+01;3;  1.3978384E+00;  0.0000000E+00; -1.4887446E-01;0;  6.1835181E-03;  3.9989684E+04;  0.0000000E+00; -1.6086844E-01;  4.0000000E+04;  0.0000000E+00;  4.0001480E+04;  8.7981438E-03;  0.0000000E+00; -2.6146257E-03;  2.9878262E+02;
  4.3091136E-01;  9.9999998E-03; -2.1002144E-01;5078; -2.1139542E-03;  0.0000000E+00;  8.8595581E-04;  1.0000085E+03;  1.0000000E-01;  7.1109099E+00;3;  1.3929327E+00;  0.0000000E+00; -1.4529018E-01;0;  5.8261594E-03;  3.9999691E+04;  0.0000000E+00; -1.2577032E-01;  4.0000000E+04;  0.0000000E+00;  3.9999051E+04;  8.5602235E-03;  0.0000000E+00; -2.7340644E-03;  2.0718175E+02;
  4.3091878E-01;  9.9999998E-03; -2.0002684E-01;5079; -2.1986037E-03;  0.0000000E+00;  8.6217618E-04;  1.0001071E+03;  1.0000000E-01;  8.8688850E+01;3;  1.3890541E+00;  0.0000000E+00; -1.4127934E-01;0;  5.4816655E-03;  4.0009535E+04;  0.0000000E+00; -8.5032582E-02;  4.0000000E+04;  0.0000000E+00;  3.9997738E+04;  8.3377175E-03;  0.0000000E+00; -2.8560520E-03;  3.0818341E+02;
  4.3092725E-01;  9.9999998E-03; -1.9002962E-01;5080; -2.2690117E-03;  0.0000000E+00;  8.3644054E-04;  1.0002059E+03;  1.0000000E-01;  1.7056308E+02;3;  1.3895406E+00;  0.0000000E+00; -1.3454208E-01;0;  5.1500481E-03;  4.0018395E+04;  0.0000000E+00; -4.0712003E-02;  4.0000000E+04;  0.0000000E+00;  3.9996941E+04;  8.1416341E-03;  0.0000000E+00; -2.9915862E-03;  4.2419061E+02;
  4.3093637E-01;  9.9999998E-03; -1.8003112E-01;5081; -2.3275088E-03;  0.0000000E+00;  8.0973923E-04;  1.0002978E+03;  1.0000000E-01;  2.4670908E+02;3;  1.3924055E+00;  0.0000000E+00; -1.2679312E-01;0;  4.8408555E-03;  4.0026664E+04;  0.0000000E+00;  4.4365008E-03;  4.0000000E+04;  0.0000000E+00;  3.9995984E+04;  7.9800868E-03;  0.0000000E+00; -3.1392314E-03;  5.4352570E+02;
  4.3094656E-01;  9.9999998E-03; -1.7003204E-01;5082; -2.3758053E-03;  0.0000000E+00;  7.8216579E-04;  1.0003729E+03;  1.0000000E-01;  3.0892953E+02;3;  1.3988423E+00;  0.0000000E+00; -1.1693770E-01;0;  4.5616562E-03;  4.0033664E+04;  0.0000000E+00;  4.7217362E-02;  4.0000000E+04;  0.0000000E+00;  3.9994980E+04;  7.8578759E-03;  0.0000000E+00; -3.2962197E-03;  6.6017487E+02;
  4.3095800E-01;  9.9999998E-03; -1.6003279E-01;5083; -2.4159509E-03;  0.0000000E+00;  7.5352739E-04;  1.0004363E+03;  1.0000000E-01;  3.6147125E+02;3;  1.4066194E+00;  0.0000000E+00; -1.0634542E-01;0;  4.3171495E-03;  4.0039566E+04;  0.0000000E+00;  8.4455505E-02;  4.0000000E+04;  0.0000000E+00;  3.9994180E+04;  7.7761221E-03;  0.0000000E+00; -3.4589723E-03;  7.6793652E+02;
  4.3097073E-01;  9.9999998E-03; -1.5003344E-01;5084; -2.4504857E-03;  0.0000000E+00;  7.2411721E-04;  1.0004859E+03;  1.0000000E-01;  4.0255652E+02;3;  1.4143064E+00;  0.0000000E+00; -9.6012570E-02;0;  4.1101119E-03;  4.0044250E+04;  0.0000000E+00;  1.1359543E-01;  4.0000000E+04;  0.0000000E+00;  3.9993434E+04;  7.7332654E-03;  0.0000000E+00; -3.6231533E-03;  8.6327301E+02;
  4.3098488E-01;  9.9999998E-03; -1.4003368E-01;5085; -2.4814424E-03;  0.0000000E+00;  6.9381093E-04;  1.0005185E+03;  1.0000000E-01;  4.2951871E+02;3;  1.4218298E+00;  0.0000000E+00; -8.4805526E-02;0;  3.9420379E-03;  4.0047754E+04;  0.0000000E+00;  1.3317163E-01;  4.0000000E+04;  0.0000000E+00;  3.9993016E+04;  7.7265729E-03;  0.0000000E+00; -3.7845348E-03;  9.4558698E+02;
  4.3099970E-01;  9.9999998E-03; -1.3003308E-01;5086; -2.5106424E-03;  0.0000000E+00;  6.6209224E-04;  1.0005402E+03;  1.0000000E-01;  4.4759229E+02;3;  1.4276184E+00;  0.0000000E+00; -7.3593758E-02;0;  3.8122484E-03;  4.0050121E+04;  0.0000000E+00;  1.4300562E-01;  4.0000000E+04;  0.0000000E+00;  3.9992453E+04;  7.7526402E-03;  0.0000000E+00; -3.9403918E-03;  1.0166873E+03;
  4.3101412E-01;  9.9999998E-03; -1.2003152E-01;5087; -2.5379956E-03;  0.0000000E+00;  6.2893023E-04;  1.0005494E+03;  1.0000000E-01;  4.5519699E+02;3;  1.4343417E+00;  0.0000000E+00; -6.2389307E-02;0;  3.7173256E-03;  4.0051254E+04;  0.0000000E+00;  1.4390291E-01;  4.0000000E+04;  0.0000000E+00;  3.9991781E+04;  7.8073600E-03;  0.0000000E+00; -4.0900344E-03;  1.0789166E+03;
  4.3102625E-01;  9.9999998E-03; -1.1002891E-01;5088; -2.5630926E-03;  0.0000000E+00;  5.9410470E-04;  1.0005361E+03;  1.0000000E-01;  4.4413559E+02;3;  1.4420130E+00;  0.0000000E+00; -5.1038574E-02;0;  3.6518476E-03;  4.0051141E+04;  0.0000000E+00;  1.3737680E-01;  4.0000000E+04;  0.0000000E+00;  3.9991492E+04;  7.8855865E-03;  0.0000000E+00; -4.2337389E-03;  1.1328672E+03;
  4.4092214E-01;  9.9999998E-03; -2.7001575E-01;5133; -1.3824399E-03;  0.0000000E+00;  1.0374895E-03;  9.9940552E+02;  1.0000000E-01; -4.9252927E+02;3;  1.4833993E+00;  0.0000000E+00; -1.7674471E-01;0;  1.2284702E-02;  3.9943988E+04;  0.0000000E+00; -1.9036447E-01;  4.0000000E+04;  0.0000000E+00;  4.0006117E+04;  1.4220820E-02;  0.0000000E+00; -1.9361182E-03;  8.6021124E+02;
  4.4093436E-01;  9.9999998E-03; -2.6001534E-01;5134; -1.5188884E-03;  0.0000000E+00;  1.0056591E-03;  9.9950342E+02;  1.0000000E-01; -4.1139578E+02;3;  1.4713143E+00;  0.0000000E+00; -1.7676380E-01;0;  1.1858985E-02;  3.9952504E+04;  0.0000000E+00; -2.2240333E-01;  4.0000000E+04;  0.0000000E+00;  4.0005746E+04;  1.3967053E-02;  0.0000000E+00; -2.1080684E-03;  8.2136816E+02;
  4.4093642E-01;  9.9999998E-03; -2.5001398E-01;5135; -1.6575778E-03;  0.0000000E+00;  9.8676397E-04;  9.9960834E+02;  1.0000000E-01; -3.2448465E+02;3;  1.4558543E+00;  0.0000000E+00; -1.7318688E-01;0;  1.1297490E-02;  3.9961215E+04;  0.0000000E+00; -2.3448531E-01;  4.0000000E+04;  0.0000000E+00;  4.0005230E+04;  1.3674288E-02;  0.0000000E+00; -2.3767974E-03;  7.8038562E+02;
  4.4093534E-01;  9.9999998E-03; -2.4001025E-01;5136; -1.7949861E-03;  0.0000000E+00;  9.7020500E-04;  9.9972217E+02;  1.0000000E-01; -2.3016634E+02;3;  1.4389095E+00;  0.0000000E+00; -1.6538003E-01;0;  1.0747662E-02;  3.9970547E+04;  0.0000000E+00; -2.3132880E-01;  4.0000000E+04;  0.0000000E+00;  4.0005184E+04;  1.3351137E-02;  0.0000000E+00; -2.6034748E-03;  7.6356818E+02;
  4.4093734E-01;  9.9999998E-03; -2.3000774E-01;5137; -1.9277444E-03;  0.0000000E+00;  9.7624614E-04;  9.9982648E+02;  1.0000000E-01; -1.4374902E+02;3;  1.4138837E+00;  0.0000000E+00; -1.5329808E-01;0;  1.0156252E-02;  3.9980082E+04;  0.0000000E+00; -2.1591544E-01;  4.0000000E+04;  0.0000000E+00;  4.0003965E+04;  1.3009886E-02;  0.0000000E+00; -2.8536338E-03;  6.0414105E+02;
  4.4093934E-01;  9.9999998E-03; -2.2001411E-01;5138; -2.0448465E-03;  0.0000000E+00;  9.8070211E-04;  9.9990967E+02;  1.0000000E-01; -7.4862083E+01;3;  1.3999256E+00;  0.0000000E+00; -1.4584462E-01;0;  9.6375505E-03;  3.9989672E+04;  0.0000000E+00; -1.9045343E-01;  4.0000000E+04;  0.0000000E+00;  4.0001375E+04;  1.2661571E-02;  0.0000000E+00; -3.0240202E-03;  3.0811172E+02;
  4.4094068E-01;  9.9999998E-03; -2.1002354E-01;5139; -2.1438547E-03;  0.0000000E+00;  9.6067216E-04;  9.9999689E+02;  1.0000000E-01; -2.5678287E+00;3;  1.3933462E+00;  0.0000000E+00; -1.4347728E-01;0;  9.1906646E-03;  3.9999051E+04;  0.0000000E+00; -1.5648982E-01;  4.0000000E+04;  0.0000000E+00;  3.9999023E+04;  1.2319488E-02;  0.0000000E+00; -3.1288229E-03;  2.5899490E+02;
  4.4094253E-01;  9.9999998E-03; -2.0003043E-01;5140; -2.2283590E-03;  0.0000000E+00;  9.3179953E-04;  1.0000980E+03;  1.0000000E-01;  8.1182892E+01;3;  1.3903666E+00;  0.0000000E+00; -1.3897948E-01;0;  8.7592732E-03;  4.0008227E+04;  0.0000000E+00; -1.1570714E-01;  4.0000000E+04;  0.0000000E+00;  3.9997613E+04;  1.1997745E-02;  0.0000000E+00; -3.2384726E-03;  3.4070010E+02;
  4.4094533E-01;  9.9999998E-03; -1.9003442E-01;5141; -2.2995898E-03;  0.0000000E+00;  9.0105471E-04;  1.0001901E+03;  1.0000000E-01;  1.5752641E+02;3;  1.3910462E+00;  0.0000000E+00; -1.3369806E-01;0;  8.3437990E-03;  4.0017090E+04;  0.0000000E+00; -7.0452690E-02;  4.0000000E+04;  0.0000000E+00;  3.9996773E+04;  1.1708519E-02;  0.0000000E+00; -3.3647199E-03;  4.3025790E+02;
  4.4094965E-01;  9.9999998E-03; -1.8003654E-01;5142; -2.3591409E-03;  0.0000000E+00;  8.6941500E-04;  1.0002824E+03;  1.0000000E-01;  2.3396869E+02;3;  1.3933314E+00;  0.0000000E+00; -1.2743241E-01;0;  7.9554003E-03;  4.0025152E+04;  0.0000000E+00; -2.3847649E-02;  4.0000000E+04;  0.0000000E+00;  3.9995688E+04;  1.1460802E-02;  0.0000000E+00; -3.5054011E-03;  5.2976648E+02;
  4.4095626E-01;  9.9999998E-03; -1.7003764E-01;5143; -2.4085264E-03;  0.0000000E+00;  8.3700707E-04;  1.0003566E+03;  1.0000000E-01;  2.9539905E+02;3;  1.3990033E+00;  0.0000000E+00; -1.1942877E-01;0;  7.6023070E-03;  4.0032105E+04;  0.0000000E+00;  2.0509839E-02;  4.0000000E+04;  0.0000000E+00;  3.9995074E+04;  1.1259471E-02;  0.0000000E+00; -3.6571641E-03;  6.3656244E+02;
  4.4096532E-01;  9.9999998E-03; -1.6003825E-01;5144; -2.4497693E-03;  0.0000000E+00;  8.0384786E-04;  1.0004212E+03;  1.0000000E-01;  3.4892841E+02;3;  1.4058379E+00;  0.0000000E+00; -1.1116951E-01;0;  7.2890166E-03;  4.0038234E+04;  0.0000000E+00;  5.9128616E-02;  4.0000000E+04;  0.0000000E+00;  3.9994527E+04;  1.1104951E-02;  0.0000000E+00; -3.8159338E-03;  7.4292120E+02;
  4.4097692E-01;  9.9999998E-03; -1.5003844E-01;5145; -2.4847265E-03;  0.0000000E+00;  7.7010231E-04;  1.0004768E+03;  1.0000000E-01;  3.9505057E+02;3;  1.4137521E+00;  0.0000000E+00; -1.0148452E-01;0;  7.0171785E-03;  4.0043301E+04;  0.0000000E+00;  8.9346863E-02;  4.0000000E+04;  0.0000000E+00;  3.9993660E+04;  1.0994159E-02;  0.0000000E+00; -3.9769802E-03;  8.4250458E+02;
  4.4099060E-01;  9.9999998E-03; -1.4003795E-01;5146; -2.5150073E-03;  0.0000000E+00;  7.3545874E-04;  1.0005104E+03;  1.0000000E-01;  4.2280286E+02;3;  1.4215724E+00;  0.0000000E+00; -9.1343820E-02;0;  6.7860610E-03;  4.0047047E+04;  0.0000000E+00;  1.0989459E-01;  4.0000000E+04;  0.0000000E+00;  3.9992922E+04;  1.0921713E-02;  0.0000000E+00; -4.1356520E-03;  9.3243713E+02;
  4.4100538E-01;  9.9999998E-03; -1.3003668E-01;5147; -2.5420350E-03;  0.0000000E+00;  6.9944165E-04;  1.0005316E+03;  1.0000000E-01;  4.4048138E+02;3;  1.4277112E+00;  0.0000000E+00; -8.1345037E-02;0;  6.5927021E-03;  4.0049590E+04;  0.0000000E+00;  1.2091551E-01;  4.0000000E+04;  0.0000000E+00;  3.9992473E+04;  1.0881404E-02;  0.0000000E+00; -4.2887023E-03;  1.0128779E+03;
  4.4102019E-01;  9.9999998E-03; -1.2003465E-01;5148; -2.5660668E-03;  0.0000000E+00;  6.6179375E-04;  1.0005361E+03;  1.0000000E-01;  4.4413559E+02;3;  1.4337941E+00;  0.0000000E+00; -7.1316428E-02;0;  6.4315405E-03;  4.0050449E+04;  0.0000000E+00;  1.2344512E-01;  4.0000000E+04;  0.0000000E+00;  3.9991809E+04;  1.0866479E-02;  0.0000000E+00; -4.4349385E-03;  1.0847373E+03;
  4.4103262E-01;  9.9999998E-03; -1.1003175E-01;5149; -2.5874467E-03;  0.0000000E+00;  6.2236370E-04;  1.0005254E+03;  1.0000000E-01;  4.3524695E+02;3;  1.4401864E+00;  0.0000000E+00; -6.0901310E-02;0;  6.2953578E-03;  4.0050137E+04;  0.0000000E+00;  1.1900407E-01;  4.0000000E+04;  0.0000000E+00;  3.9991281E+04;  1.0869554E-02;  0.0000000E+00; -4.5741964E-03;  1.1469396E+03;
  4.5098487E-01;  9.9999998E-03; -2.7001640E-01;5194; -1.4179253E-03;  0.0000000E+00;  1.1420732E-03;  9.9950098E+02;  1.0000000E-01; -4.1342041E+02;3;  1.4854916E+00;  0.0000000E+00; -1.6305336E-01;0;  1.7487857E-02;  3.9953012E+04;  0.0000000E+00; -1.5309007E-01;  4.0000000E+04;  0.0000000E+00;  4.0005055E+04;  1.9970402E-02;  0.0000000E+00; -2.4825439E-03;  7.1604846E+02;
  4.5099023E-01;  9.9999998E-03; -2.6001608E-01;5195; -1.5531676E-03;  0.0000000E+00;  1.1088378E-03;  9.9958630E+02;  1.0000000E-01; -3.4275574E+02;3;  1.4709724E+00;  0.0000000E+00; -1.6301446E-01;0;  1.6906356E-02;  3.9960141E+04;  0.0000000E+00; -2.0240878E-01;  4.0000000E+04;  0.0000000E+00;  4.0004652E+04;  1.9570522E-02;  0.0000000E+00; -2.6641656E-03;  6.9491980E+02;
  4.5099011E-01;  9.9999998E-03; -2.5001505E-01;5196; -1.6911438E-03;  0.0000000E+00;  1.0894330E-03;  9.9967627E+02;  1.0000000E-01; -2.6818994E+02;3;  1.4537627E+00;  0.0000000E+00; -1.5907231E-01;0;  1.6199071E-02;  3.9968035E+04;  0.0000000E+00; -2.2611019E-01;  4.0000000E+04;  0.0000000E+00;  4.0004262E+04;  1.9130098E-02;  0.0000000E+00; -2.9310277E-03;  6.6049017E+02;
  4.5098773E-01;  9.9999998E-03; -2.4001250E-01;5197; -1.8272125E-03;  0.0000000E+00;  1.0726085E-03;  9.9977148E+02;  1.0000000E-01; -1.8932797E+02;3;  1.4348028E+00;  0.0000000E+00; -1.5241325E-01;0;  1.5515265E-02;  3.9976207E+04;  0.0000000E+00; -2.3089492E-01;  4.0000000E+04;  0.0000000E+00;  4.0004094E+04;  1.8657839E-02;  0.0000000E+00; -3.1425739E-03;  6.2224927E+02;
  4.5098588E-01;  9.9999998E-03; -2.3001067E-01;5198; -1.9559218E-03;  0.0000000E+00;  1.0657035E-03;  9.9987201E+02;  1.0000000E-01; -1.0602169E+02;3;  1.4170573E+00;  0.0000000E+00; -1.4810990E-01;0;  1.4835509E-02;  3.9984871E+04;  0.0000000E+00; -2.2147880E-01;  4.0000000E+04;  0.0000000E+00;  4.0003148E+04;  1.8166611E-02;  0.0000000E+00; -3.3311013E-03;  4.8889529E+02;
  4.5098272E-01;  9.9999998E-03; -2.2001486E-01;5199; -2.0710242E-03;  0.0000000E+00;  1.0583844E-03;  9.9994666E+02;  1.0000000E-01; -4.4196281E+01;3;  1.4035158E+00;  0.0000000E+00; -1.4355135E-01;0;  1.4203462E-02;  3.9993629E+04;  0.0000000E+00; -2.0121975E-01;  4.0000000E+04;  0.0000000E+00;  4.0000605E+04;  1.7669719E-02;  0.0000000E+00; -3.4662567E-03;  2.9523889E+02;
  4.5097783E-01;  9.9999998E-03; -2.1002246E-01;5200; -2.1701346E-03;  0.0000000E+00;  1.0329417E-03;  1.0000341E+03;  1.0000000E-01;  2.8246115E+01;3;  1.3964224E+00;  0.0000000E+00; -1.4083929E-01;0;  1.3625538E-02;  4.0002625E+04;  0.0000000E+00; -1.7224140E-01;  4.0000000E+04;  0.0000000E+00;  3.9998637E+04;  1.7182298E-02;  0.0000000E+00; -3.5567600E-03;  2.9928464E+02;
  4.5097348E-01;  9.9999998E-03; -2.0002884E-01;5201; -2.2550756E-03;  0.0000000E+00;  9.9939480E-04;  1.0001249E+03;  1.0000000E-01;  1.0350324E+02;3;  1.3935679E+00;  0.0000000E+00; -1.3668758E-01;0;  1.3066038E-02;  4.0011270E+04;  0.0000000E+00; -1.3631020E-01;  4.0000000E+04;  0.0000000E+00;  3.9997348E+04;  1.6720671E-02;  0.0000000E+00; -3.6546323E-03;  3.8755591E+02;
  4.5097074E-01;  9.9999998E-03; -1.9003303E-01;5202; -2.3274419E-03;  0.0000000E+00;  9.6367247E-04;  1.0002176E+03;  1.0000000E-01;  1.8024182E+02;3;  1.3936795E+00;  0.0000000E+00; -1.3272332E-01;0;  1.2527765E-02;  4.0019500E+04;  0.0000000E+00; -9.5627189E-02;  4.0000000E+04;  0.0000000E+00;  3.9996508E+04;  1.6298294E-02;  0.0000000E+00; -3.7705295E-03;  4.7606812E+02;
  4.5097011E-01;  9.9999998E-03; -1.8003558E-01;5203; -2.3883118E-03;  0.0000000E+00;  9.2692766E-04;  1.0003035E+03;  1.0000000E-01;  2.5144968E+02;3;  1.3955015E+00;  0.0000000E+00; -1.2771416E-01;0;  1.2022016E-02;  4.0027441E+04;  0.0000000E+00; -5.3100288E-02;  4.0000000E+04;  0.0000000E+00;  3.9995867E+04;  1.5924521E-02;  0.0000000E+00; -3.9025049E-03;  5.6995197E+02;
  4.5097196E-01;  9.9999998E-03; -1.7003703E-01;5204; -2.4390477E-03;  0.0000000E+00;  8.8915700E-04;  1.0003856E+03;  1.0000000E-01;  3.1939838E+02;3;  1.3995734E+00;  0.0000000E+00; -1.2190399E-01;0;  1.1556722E-02;  4.0034406E+04;  0.0000000E+00; -1.2113752E-02;  4.0000000E+04;  0.0000000E+00;  3.9994617E+04;  1.5603703E-02;  0.0000000E+00; -4.0469808E-03;  6.6981519E+02;
  4.5097667E-01;  9.9999998E-03; -1.6003768E-01;5205; -2.4812922E-03;  0.0000000E+00;  8.5105182E-04;  1.0004481E+03;  1.0000000E-01;  3.7124875E+02;3;  1.4058776E+00;  0.0000000E+00; -1.1528865E-01;0;  1.1135693E-02;  4.0040594E+04;  0.0000000E+00;  2.4051130E-02;  4.0000000E+04;  0.0000000E+00;  3.9994121E+04;  1.5335317E-02;  0.0000000E+00; -4.1996241E-03;  7.7030334E+02;
  4.5098430E-01;  9.9999998E-03; -1.5003772E-01;5206; -2.5161232E-03;  0.0000000E+00;  8.1215013E-04;  1.0005020E+03;  1.0000000E-01;  4.1588947E+02;3;  1.4140495E+00;  0.0000000E+00; -1.0695260E-01;0;  1.0758976E-02;  4.0045578E+04;  0.0000000E+00;  5.2940968E-02;  4.0000000E+04;  0.0000000E+00;  3.9993414E+04;  1.5114319E-02;  0.0000000E+00; -4.3553426E-03;  8.6584430E+02;
  4.5099449E-01;  9.9999998E-03; -1.4003721E-01;5207; -2.5451682E-03;  0.0000000E+00;  7.7234203E-04;  1.0005391E+03;  1.0000000E-01;  4.4660464E+02;3;  1.4212902E+00;  0.0000000E+00; -9.8206088E-02;0;  1.0423657E-02;  4.0049566E+04;  0.0000000E+00;  7.3457740E-02;  4.0000000E+04;  0.0000000E+00;  3.9992898E+04;  1.4932743E-02;  0.0000000E+00; -4.5090867E-03;  9.5324158E+02;
  4.5100611E-01;  9.9999998E-03; -1.3003603E-01;5208; -2.5696170E-03;  0.0000000E+00;  7.3117425E-04;  1.0005610E+03;  1.0000000E-01;  4.6477698E+02;3;  1.4275843E+00;  0.0000000E+00; -8.9594252E-02;0;  1.0124143E-02;  4.0052160E+04;  0.0000000E+00;  8.5811213E-02;  4.0000000E+04;  0.0000000E+00;  3.9992211E+04;  1.4781212E-02;  0.0000000E+00; -4.6570692E-03;  1.0318630E+03;
  4.5101762E-01;  9.9999998E-03; -1.2003399E-01;5209; -2.5904728E-03;  0.0000000E+00;  6.8831519E-04;  1.0005685E+03;  1.0000000E-01;  4.7099902E+02;3;  1.4341468E+00;  0.0000000E+00; -8.0338165E-02;0;  9.8527865E-03;  4.0053324E+04;  0.0000000E+00;  9.0915516E-02;  4.0000000E+04;  0.0000000E+00;  3.9991711E+04;  1.4650254E-02;  0.0000000E+00; -4.7974670E-03;  1.1017670E+03;
  4.5102876E-01;  9.9999998E-03; -1.1003079E-01;5210; -2.6077211E-03;  0.0000000E+00;  6.4362568E-04;  1.0005558E+03;  1.0000000E-01;  4.6053018E+02;3;  1.4419698E+00;  0.0000000E+00; -7.0788547E-02;0;  9.6017551E-03;  4.0052742E+04;  0.0000000E+00;  8.9987800E-02;  4.0000000E+04;  0.0000000E+00;  3.9991129E+04;  1.4531442E-02;  0.0000000E+00; -4.9296874E-03;  1.1608882E+03;
  4.6102893E-01;  9.9999998E-03; -2.7001745E-01;5255; -1.4380731E-03;  0.0000000E+00;  1.2515524E-03;  9.9961157E+02;  1.0000000E-01; -3.2181805E+02;3;  1.4872395E+00;  0.0000000E+00; -1.4852765E-01;0;  2.3911219E-02;  3.9963484E+04;  0.0000000E+00; -9.8829940E-02;  4.0000000E+04;  0.0000000E+00;  4.0003805E+04;  2.6983259E-02;  0.0000000E+00; -3.0720411E-03;  5.4107562E+02;
  4.6103591E-01;  9.9999998E-03; -2.6001742E-01;5256; -1.5730850E-03;  0.0000000E+00;  1.2156072E-03;  9.9968811E+02;  1.0000000E-01; -2.5841245E+02;3;  1.4707464E+00;  0.0000000E+00; -1.4861655E-01;0;  2.3151832E-02;  3.9970184E+04;  0.0000000E+00; -1.6354349E-01;  4.0000000E+04;  0.0000000E+00;  4.0003484E+04;  2.6402179E-02;  0.0000000E+00; -3.2503479E-03;  5.2575238E+02;
  4.6103719E-01;  9.9999998E-03; -2.5001702E-01;5257; -1.7100744E-03;  0.0000000E+00;  1.1940544E-03;  9.9976697E+02;  1.0000000E-01; -1.9308096E+02;3;  1.4538493E+00;  0.0000000E+00; -1.4658190E-01;0;  2.2268688E-02;  3.9977070E+04;  0.0000000E+00; -1.9798706E-01;  4.0000000E+04;  0.0000000E+00;  4.0003156E+04;  2.5774250E-02;  0.0000000E+00; -3.5055608E-03;  4.9125183E+02;
  4.6103582E-01;  9.9999998E-03; -2.4001631E-01;5258; -1.8455276E-03;  0.0000000E+00;  1.1780394E-03;  9.9985144E+02;  1.0000000E-01; -1.2305825E+02;3;  1.4374205E+00;  0.0000000E+00; -1.4412212E-01;0;  2.1401063E-02;  3.9984465E+04;  0.0000000E+00; -2.0998743E-01;  4.0000000E+04;  0.0000000E+00;  4.0002293E+04;  2.5111027E-02;  0.0000000E+00; -3.7099642E-03;  4.2168475E+02;
  4.6103290E-01;  9.9999998E-03; -2.3001538E-01;5259; -1.9724430E-03;  0.0000000E+00;  1.1586393E-03;  9.9993640E+02;  1.0000000E-01; -5.2689869E+01;3;  1.4211435E+00;  0.0000000E+00; -1.4158347E-01;0;  2.0590087E-02;  3.9992473E+04;  0.0000000E+00; -2.0630080E-01;  4.0000000E+04;  0.0000000E+00;  4.0001297E+04;  2.4426702E-02;  0.0000000E+00; -3.8366155E-03;  3.3470609E+02;
  4.6102637E-01;  9.9999998E-03; -2.2001654E-01;5260; -2.0866117E-03;  0.0000000E+00;  1.1353274E-03;  1.0000190E+03;  1.0000000E-01;  1.5802022E+01;3;  1.4094516E+00;  0.0000000E+00; -1.4017662E-01;0;  1.9809786E-02;  4.0000582E+04;  0.0000000E+00; -1.9175972E-01;  4.0000000E+04;  0.0000000E+00;  3.9999941E+04;  2.3736348E-02;  0.0000000E+00; -3.9265626E-03;  2.7259625E+02;
  4.6101668E-01;  9.9999998E-03; -2.1001965E-01;5261; -2.1866967E-03;  0.0000000E+00;  1.1028297E-03;  1.0001088E+03;  1.0000000E-01;  9.0071526E+01;3;  1.4015775E+00;  0.0000000E+00; -1.3805719E-01;0;  1.9056182E-02;  4.0008977E+04;  0.0000000E+00; -1.6935910E-01;  4.0000000E+04;  0.0000000E+00;  3.9998156E+04;  2.3058087E-02;  0.0000000E+00; -4.0019047E-03;  3.3260559E+02;
  4.6100533E-01;  9.9999998E-03; -2.0002303E-01;5262; -2.2732278E-03;  0.0000000E+00;  1.0648834E-03;  1.0001916E+03;  1.0000000E-01;  1.5871156E+02;3;  1.3979882E+00;  0.0000000E+00; -1.3559067E-01;0;  1.8320978E-02;  4.0017355E+04;  0.0000000E+00; -1.4109449E-01;  4.0000000E+04;  0.0000000E+00;  3.9997113E+04;  2.2409817E-02;  0.0000000E+00; -4.0888386E-03;  4.4035651E+02;
  4.6099460E-01;  9.9999998E-03; -1.9002581E-01;5263; -2.3472118E-03;  0.0000000E+00;  1.0241623E-03;  1.0002809E+03;  1.0000000E-01;  2.3278354E+02;3;  1.3965229E+00;  0.0000000E+00; -1.3179976E-01;0;  1.7613109E-02;  4.0025516E+04;  0.0000000E+00; -1.0884014E-01;  4.0000000E+04;  0.0000000E+00;  3.9995918E+04;  2.1807108E-02;  0.0000000E+00; -4.1939998E-03;  5.4817749E+02;
  4.6098527E-01;  9.9999998E-03; -1.8002783E-01;5264; -2.4092365E-03;  0.0000000E+00;  9.8190538E-04;  1.0003629E+03;  1.0000000E-01;  3.0063348E+02;3;  1.3992741E+00;  0.0000000E+00; -1.2830749E-01;0;  1.6943604E-02;  4.0032883E+04;  0.0000000E+00; -7.4866965E-02;  4.0000000E+04;  0.0000000E+00;  3.9995094E+04;  2.1260060E-02;  0.0000000E+00; -4.3164566E-03;  6.5193951E+02;
  4.6097854E-01;  9.9999998E-03; -1.7002936E-01;5265; -2.4616539E-03;  0.0000000E+00;  9.3925017E-04;  1.0004372E+03;  1.0000000E-01;  3.6216260E+02;3;  1.4025968E+00;  0.0000000E+00; -1.2478475E-01;0;  1.6320255E-02;  4.0040004E+04;  0.0000000E+00; -4.1791849E-02;  4.0000000E+04;  0.0000000E+00;  3.9994504E+04;  2.0773087E-02;  0.0000000E+00; -4.4528330E-03;  7.5155029E+02;
  4.6097550E-01;  9.9999998E-03; -1.6003038E-01;5266; -2.5043911E-03;  0.0000000E+00;  8.9534809E-04;  1.0005019E+03;  1.0000000E-01;  4.1579071E+02;3;  1.4075562E+00;  0.0000000E+00; -1.1883370E-01;0;  1.5746079E-02;  4.0045875E+04;  0.0000000E+00; -1.2141620E-02;  4.0000000E+04;  0.0000000E+00;  3.9993438E+04;  2.0344593E-02;  0.0000000E+00; -4.5985137E-03;  8.4473621E+02;
  4.6097636E-01;  9.9999998E-03; -1.5003084E-01;5267; -2.5389341E-03;  0.0000000E+00;  8.5048389E-04;  1.0005555E+03;  1.0000000E-01;  4.6023389E+02;3;  1.4149476E+00;  0.0000000E+00; -1.1221941E-01;0;  1.5219251E-02;  4.0050836E+04;  0.0000000E+00;  1.2220246E-02;  4.0000000E+04;  0.0000000E+00;  3.9993074E+04;  1.9967441E-02;  0.0000000E+00; -4.7481898E-03;  9.2944293E+02;
  4.6098086E-01;  9.9999998E-03; -1.4003080E-01;5268; -2.5664300E-03;  0.0000000E+00;  8.0473867E-04;  1.0005961E+03;  1.0000000E-01;  4.9391196E+02;3;  1.4222832E+00;  0.0000000E+00; -1.0433766E-01;0;  1.4734464E-02;  4.0054613E+04;  0.0000000E+00;  3.0497056E-02;  4.0000000E+04;  0.0000000E+00;  3.9992441E+04;  1.9630864E-02;  0.0000000E+00; -4.8964005E-03;  1.0044265E+03;
  4.6098793E-01;  9.9999998E-03; -1.3002999E-01;5269; -2.5881757E-03;  0.0000000E+00;  7.5765391E-04;  1.0006232E+03;  1.0000000E-01;  5.1633105E+02;3;  1.4298054E+00;  0.0000000E+00; -9.7032256E-02;0;  1.4283685E-02;  4.0057328E+04;  0.0000000E+00;  4.2883921E-02;  4.0000000E+04;  0.0000000E+00;  3.9991855E+04;  1.9322466E-02;  0.0000000E+00; -5.0387806E-03;  1.0699747E+03;
  4.6099681E-01;  9.9999998E-03; -1.2002822E-01;5270; -2.6052156E-03;  0.0000000E+00;  7.0902286E-04;  1.0006286E+03;  1.0000000E-01;  5.2077539E+02;3;  1.4374020E+00;  0.0000000E+00; -8.8639595E-02;0;  1.3857691E-02;  4.0058453E+04;  0.0000000E+00;  5.0045740E-02;  4.0000000E+04;  0.0000000E+00;  3.9991535E+04;  1.9030534E-02;  0.0000000E+00; -5.1728436E-03;  1.1260479E+03;
  4.6100730E-01;  9.9999998E-03; -1.1002535E-01;5271; -2.6182409E-03;  0.0000000E+00;  6.5869134E-04;  1.0006188E+03;  1.0000000E-01;  5.1267688E+02;3;  1.4452343E+00;  0.0000000E+00; -8.1234738E-02;0;  1.3447827E-02;  4.0058223E+04;  0.0000000E+00;  5.2765716E-02;  4.0000000E+04;  0.0000000E+00;  3.9991082E+04;  1.8745279E-02;  0.0000000E+00; -5.2974527E-03;  1.1706890E+03;
  4.7099823E-01;  9.9999998E-03; -2.7001846E-01;5316; -1.4345158E-03;  0.0000000E+00;  1.3665386E-03;  9.9970404E+02;  1.0000000E-01; -2.4517824E+02;3;  1.4898148E+00;  0.0000000E+00; -1.3467985E-01;0;  3.1294573E-02;  3.9972637E+04;  0.0000000E+00; -4.3757282E-02;  4.0000000E+04;  0.0000000E+00;  4.0002676E+04;  3.5003901E-02;  0.0000000E+00; -3.7093284E-03;  3.8959555E+02;
  4.7100943E-01;  9.9999998E-03; -2.6001883E-01;5317; -1.5712741E-03;  0.0000000E+00;  1.3266016E-03;  9.9977246E+02;  1.0000000E-01; -1.8848848E+02;3;  1.4748451E+00;  0.0000000E+00; -1.3808998E-01;0;  3.0340692E-02;  3.9978812E+04;  0.0000000E+00; -1.1526489E-01;  4.0000000E+04;  0.0000000E+00;  4.0002570E+04;  3.4205053E-02;  0.0000000E+00; -3.8643612E-03;  3.6593182E+02;
  4.7101560E-01;  9.9999998E-03; -2.5001913E-01;5318; -1.7086115E-03;  0.0000000E+00;  1.3009983E-03;  9.9984857E+02;  1.0000000E-01; -1.2547792E+02;3;  1.4590805E+00;  0.0000000E+00; -1.3861215E-01;0;  2.9262021E-02;  3.9985410E+04;  0.0000000E+00; -1.5563583E-01;  4.0000000E+04;  0.0000000E+00;  4.0001879E+04;  3.3350974E-02;  0.0000000E+00; -4.0889536E-03;  3.2223529E+02;
  4.7102138E-01;  9.9999998E-03; -2.4002029E-01;5319; -1.8439463E-03;  0.0000000E+00;  1.2857369E-03;  9.9992163E+02;  1.0000000E-01; -6.4936432E+01;3;  1.4417859E+00;  0.0000000E+00; -1.3701598E-01;0;  2.8174758E-02;  3.9992664E+04;  0.0000000E+00; -1.7233120E-01;  4.0000000E+04;  0.0000000E+00;  4.0000578E+04;  3.2457959E-02;  0.0000000E+00; -4.2832000E-03;  2.5371350E+02;
  4.7102538E-01;  9.9999998E-03; -2.3002152E-01;5320; -1.9699899E-03;  0.0000000E+00;  1.2556005E-03;  1.0000023E+03;  1.0000000E-01;  1.8764900E+00;3;  1.4268647E+00;  0.0000000E+00; -1.3672444E-01;0;  2.7189469E-02;  4.0000234E+04;  0.0000000E+00; -1.7297274E-01;  4.0000000E+04;  0.0000000E+00;  3.9999570E+04;  3.1540997E-02;  0.0000000E+00; -4.3515279E-03;  2.5788242E+02;
  4.7102395E-01;  9.9999998E-03; -2.2002062E-01;5321; -2.0840303E-03;  0.0000000E+00;  1.2143761E-03;  1.0000920E+03;  1.0000000E-01;  7.6244751E+01;3;  1.4153464E+00;  0.0000000E+00; -1.3591233E-01;0;  2.6227320E-02;  4.0008336E+04;  0.0000000E+00; -1.6334826E-01;  4.0000000E+04;  0.0000000E+00;  3.9998512E+04;  3.0616203E-02;  0.0000000E+00; -4.3888842E-03;  3.0342310E+02;
  4.7101671E-01;  9.9999998E-03; -2.1001904E-01;5322; -2.1854567E-03;  0.0000000E+00;  1.1723051E-03;  1.0001828E+03;  1.0000000E-01;  1.5140311E+02;3;  1.4072995E+00;  0.0000000E+00; -1.3561092E-01;0;  2.5258478E-02;  4.0016559E+04;  0.0000000E+00; -1.4742579E-01;  4.0000000E+04;  0.0000000E+00;  3.9997531E+04;  2.9703690E-02;  0.0000000E+00; -4.4452110E-03;  3.8915695E+02;
  4.7100475E-01;  9.9999998E-03; -2.0001817E-01;5323; -2.2741309E-03;  0.0000000E+00;  1.1285910E-03;  1.0002722E+03;  1.0000000E-01;  2.2547508E+02;3;  1.4030902E+00;  0.0000000E+00; -1.3441652E-01;0;  2.4303095E-02;  4.0024691E+04;  0.0000000E+00; -1.2766649E-01;  4.0000000E+04;  0.0000000E+00;  3.9996312E+04;  2.8824022E-02;  0.0000000E+00; -4.5209266E-03;  5.1150201E+02;
  4.7099048E-01;  9.9999998E-03; -1.9001798E-01;5324; -2.3503082E-03;  0.0000000E+00;  1.0827904E-03;  1.0003558E+03;  1.0000000E-01;  2.9470770E+02;3;  1.4024056E+00;  0.0000000E+00; -1.3344488E-01;0;  2.3378676E-02;  4.0032617E+04;  0.0000000E+00; -1.0574349E-01;  4.0000000E+04;  0.0000000E+00;  3.9995258E+04;  2.7995009E-02;  0.0000000E+00; -4.6163332E-03;  6.4087305E+02;
  4.7097611E-01;  9.9999998E-03; -1.8001826E-01;5325; -2.4149322E-03;  0.0000000E+00;  1.0358987E-03;  1.0004377E+03;  1.0000000E-01;  3.6265637E+02;3;  1.4038677E+00;  0.0000000E+00; -1.3064538E-01;0;  2.2498503E-02;  4.0040215E+04;  0.0000000E+00; -8.3158925E-02;  4.0000000E+04;  0.0000000E+00;  3.9994051E+04;  2.7228821E-02;  0.0000000E+00; -4.7303177E-03;  7.6047687E+02;
  4.7096416E-01;  9.9999998E-03; -1.7001885E-01;5326; -2.4682556E-03;  0.0000000E+00;  9.8728575E-04;  1.0005074E+03;  1.0000000E-01;  4.2043253E+02;3;  1.4071620E+00;  0.0000000E+00; -1.2592077E-01;0;  2.1671038E-02;  4.0046906E+04;  0.0000000E+00; -6.1416857E-02;  4.0000000E+04;  0.0000000E+00;  3.9993441E+04;  2.6530543E-02;  0.0000000E+00; -4.8595048E-03;  8.6427997E+02;
  4.7095567E-01;  9.9999998E-03; -1.6001967E-01;5327; -2.5111646E-03;  0.0000000E+00;  9.3715632E-04;  1.0005751E+03;  1.0000000E-01;  4.7652969E+02;3;  1.4115082E+00;  0.0000000E+00; -1.2131667E-01;0;  2.0898025E-02;  4.0052891E+04;  0.0000000E+00; -4.1869409E-02;  4.0000000E+04;  0.0000000E+00;  3.9992918E+04;  2.5897410E-02;  0.0000000E+00; -4.9993838E-03;  9.5106464E+02;
  4.7095111E-01;  9.9999998E-03; -1.5002060E-01;5328; -2.5449789E-03;  0.0000000E+00;  8.8599120E-04;  1.0006278E+03;  1.0000000E-01;  5.2008405E+02;3;  1.4186459E+00;  0.0000000E+00; -1.1529518E-01;0;  2.0175805E-02;  4.0057715E+04;  0.0000000E+00; -2.5431272E-02;  4.0000000E+04;  0.0000000E+00;  3.9992148E+04;  2.5320129E-02;  0.0000000E+00; -5.1443237E-03;  1.0217080E+03;
  4.7095048E-01;  9.9999998E-03; -1.4002135E-01;5329; -2.5706401E-03;  0.0000000E+00;  8.3364896E-04;  1.0006689E+03;  1.0000000E-01;  5.5415710E+02;3;  1.4252659E+00;  0.0000000E+00; -1.1030868E-01;0;  1.9496633E-02;  4.0061441E+04;  0.0000000E+00; -1.2359732E-02;  4.0000000E+04;  0.0000000E+00;  3.9991883E+04;  2.4785107E-02;  0.0000000E+00; -5.2884747E-03;  1.0779821E+03;
  4.7095335E-01;  9.9999998E-03; -1.3002153E-01;5330; -2.5895119E-03;  0.0000000E+00;  7.8030635E-04;  1.0006958E+03;  1.0000000E-01;  5.7647748E+02;3;  1.4337538E+00;  0.0000000E+00; -1.0397131E-01;0;  1.8850580E-02;  4.0063898E+04;  0.0000000E+00; -2.3320767E-03;  4.0000000E+04;  0.0000000E+00;  3.9991344E+04;  2.4277478E-02;  0.0000000E+00; -5.4268986E-03;  1.1219246E+03;
  4.7095960E-01;  9.9999998E-03; -1.2002072E-01;5331; -2.6025127E-03;  0.0000000E+00;  7.2566723E-04;  1.0007088E+03;  1.0000000E-01;  5.8724261E+02;3;  1.4432831E+00;  0.0000000E+00; -9.7494259E-02;0;  1.8227205E-02;  4.0065254E+04;  0.0000000E+00;  5.1086452E-03;  4.0000000E+04;  0.0000000E+00;  3.9991336E+04;  2.3783615E-02;  0.0000000E+00; -5.5564102E-03;  1.1546879E+03;
  4.7096902E-01;  9.9999998E-03; -1.1001885E-01;5332; -2.6105181E-03;  0.0000000E+00;  6.6950120E-04;  1.0007045E+03;  1.0000000E-01;  5.8368713E+02;3;  1.4531516E+00;  0.0000000E+00; -9.0650648E-02;0;  1.7617196E-02;  4.0065211E+04;  0.0000000E+00;  1.0348951E-02;  4.0000000E+04;  0.0000000E+00;  3.9991164E+04;  2.3292458E-02;  0.0000000E+00; -5.6752618E-03;  1.1754219E+03;
  4.8095894E-01;  9.9999998E-03; -1.1001425E-01;5393; -2.5726592E-03;  0.0000000E+00;  6.7667646E-04;  1.0008072E+03;  1.0000146E-01;  6.6872180E+02;3;  1.4672827E+00;  0.0000000E+00; -9.8915324E-02;0;  2.1821233E-02;  4.0072273E+04;  0.0000000E+00; -3.3816222E-02;  4.0000000E+04;  0.0000000E+00;  3.9991191E+04;  2.7885279E-02;  0.0000000E+00; -6.0640466E-03;  1.1767795E+03;
  4.8095018E-01;  9.9999998E-03; -1.2001522E-01;5392; -2.5713963E-03;  0.0000000E+00;  7.3937606E-04;  1.0008029E+03;  1.0000150E-01;  6.6516632E+02;3;  1.4517990E+00;  0.0000000E+00; -1.0440107E-01;0;  2.2665849E-02;  4.0072320E+04;  0.0000000E+00; -3.9550897E-02;  4.0000000E+04;  0.0000000E+00;  3.9991027E+04;  2.8612094E-02;  0.0000000E+00; -5.9462455E-03;  1.1855043E+03;
  4.8094559E-01;  9.9999998E-03; -1.3001518E-01;5391; -2.5631066E-03;  0.0000000E+00;  8.0053537E-04;  1.0007885E+03;  1.0000146E-01;  6.5321606E+02;3;  1.4405985E+00;  0.0000000E+00; -1.1047224E-01;0;  2.3524147E-02;  4.0070578E+04;  0.0000000E+00; -4.4760041E-02;  4.0000000E+04;  0.0000000E+00;  3.9991137E+04;  2.9340999E-02;  0.0000000E+00; -5.8168517E-03;  1.1811716E+03;
  4.8094448E-01;  9.9999998E-03; -1.4001437E-01;5390; -2.5476580E-03;  0.0000000E+00;  8.6050772E-04;  1.0007547E+03;  1.0000150E-01;  6.2526624E+02;3;  1.4309440E+00;  0.0000000E+00; -1.1601138E-01;0;  2.4404960E-02;  4.0068441E+04;  0.0000000E+00; -4.9570270E-02;  4.0000000E+04;  0.0000000E+00;  3.9991012E+04;  3.0083174E-02;  0.0000000E+00; -5.6782146E-03;  1.1625718E+03;
  4.8094597E-01;  9.9999998E-03; -1.5001327E-01;5389; -2.5240784E-03;  0.0000000E+00;  9.1940298E-04;  1.0007126E+03;  1.0000141E-01;  5.9040302E+02;3;  1.4238040E+00;  0.0000000E+00; -1.2144582E-01;0;  2.5319465E-02;  4.0064699E+04;  0.0000000E+00; -5.4451484E-02;  4.0000000E+04;  0.0000000E+00;  3.9991488E+04;  3.0853670E-02;  0.0000000E+00; -5.5342065E-03;  1.1266523E+03;
  4.8094916E-01;  9.9999998E-03; -1.6001242E-01;5388; -2.4913729E-03;  0.0000000E+00;  9.7692758E-04;  1.0006616E+03;  1.0000144E-01;  5.4813263E+02;3;  1.4171954E+00;  0.0000000E+00; -1.2387351E-01;0;  2.6279086E-02;  4.0059871E+04;  0.0000000E+00; -6.0101666E-02;  4.0000000E+04;  0.0000000E+00;  3.9991863E+04;  3.1669386E-02;  0.0000000E+00; -5.3902995E-03;  1.0694696E+03;
  4.8095363E-01;  9.9999998E-03; -1.7001218E-01;5387; -2.4485872E-03;  0.0000000E+00;  1.0336647E-03;  1.0005948E+03;  1.0000145E-01;  4.9282553E+02;3;  1.4115796E+00;  0.0000000E+00; -1.2752563E-01;0;  2.7293123E-02;  4.0053758E+04;  0.0000000E+00; -6.7104749E-02;  4.0000000E+04;  0.0000000E+00;  3.9992430E+04;  3.2545865E-02;  0.0000000E+00; -5.2527422E-03;  9.8737726E+02;
  4.8095840E-01;  9.9999998E-03; -1.8001296E-01;5386; -2.3947968E-03;  0.0000000E+00;  1.0889929E-03;  1.0005206E+03;  1.0000140E-01;  4.3129642E+02;3;  1.4091152E+00;  0.0000000E+00; -1.3060084E-01;0;  2.8366381E-02;  4.0047211E+04;  0.0000000E+00; -7.5776607E-02;  4.0000000E+04;  0.0000000E+00;  3.9993352E+04;  3.3493891E-02;  0.0000000E+00; -5.1275101E-03;  8.7869196E+02;
  4.8096275E-01;  9.9999998E-03; -1.9001505E-01;5385; -2.3288941E-03;  0.0000000E+00;  1.1423206E-03;  1.0004398E+03;  1.0000148E-01;  3.6433536E+02;3;  1.4085191E+00;  0.0000000E+00; -1.3347669E-01;0;  2.9497720E-02;  4.0039516E+04;  0.0000000E+00; -8.6115792E-02;  4.0000000E+04;  0.0000000E+00;  3.9994457E+04;  3.4517225E-02;  0.0000000E+00; -5.0195041E-03;  7.4741895E+02;
  4.8096561E-01;  9.9999998E-03; -2.0001879E-01;5384; -2.2498250E-03;  0.0000000E+00;  1.1931246E-03;  1.0003477E+03;  1.0000140E-01;  2.8799182E+02;3;  1.4119411E+00;  0.0000000E+00; -1.3496526E-01;0;  3.0678896E-02;  4.0031105E+04;  0.0000000E+00; -9.7763404E-02;  4.0000000E+04;  0.0000000E+00;  3.9995516E+04;  3.5610568E-02;  0.0000000E+00; -4.9316711E-03;  6.1062823E+02;
  4.8096442E-01;  9.9999998E-03; -2.1002364E-01;5383; -2.1582104E-03;  0.0000000E+00;  1.2429700E-03;  1.0002512E+03;  1.0000147E-01;  2.0809286E+02;3;  1.4164512E+00;  0.0000000E+00; -1.3459213E-01;0;  3.1893566E-02;  4.0022535E+04;  0.0000000E+00; -1.0986398E-01;  4.0000000E+04;  0.0000000E+00;  3.9996426E+04;  3.6759660E-02;  0.0000000E+00; -4.8660929E-03;  5.0014453E+02;
  4.8095912E-01;  9.9999998E-03; -2.2002798E-01;5382; -2.0546690E-03;  0.0000000E+00;  1.2965703E-03;  1.0001497E+03;  1.0000146E-01;  1.2394711E+02;3;  1.4251473E+00;  0.0000000E+00; -1.3328613E-01;0;  3.3113185E-02;  4.0013969E+04;  0.0000000E+00; -1.2081391E-01;  4.0000000E+04;  0.0000000E+00;  3.9996852E+04;  3.7945312E-02;  0.0000000E+00; -4.8321267E-03;  4.4302374E+02;
  4.8095128E-01;  9.9999998E-03; -2.3002847E-01;5381; -1.9400954E-03;  0.0000000E+00;  1.3562839E-03;  1.0000507E+03;  1.0000141E-01;  4.1974117E+01;3;  1.4358189E+00;  0.0000000E+00; -1.3170104E-01;0;  3.4294143E-02;  4.0005539E+04;  0.0000000E+00; -1.2792049E-01;  4.0000000E+04;  0.0000000E+00;  3.9997312E+04;  3.9145909E-02;  0.0000000E+00; -4.8517664E-03;  3.8542645E+02;
  4.8094115E-01;  9.9999998E-03; -2.4002397E-01;5380; -1.8134657E-03;  0.0000000E+00;  1.3941521E-03;  9.9997009E+02;  1.0000148E-01; -2.4789421E+01;3;  1.4505270E+00;  0.0000000E+00; -1.3176952E-01;0;  3.5504896E-02;  3.9997414E+04;  0.0000000E+00; -1.2702948E-01;  4.0000000E+04;  0.0000000E+00;  3.9999227E+04;  4.0338434E-02;  0.0000000E+00; -4.8335372E-03;  2.1362842E+02;
  4.8092896E-01;  9.9999998E-03; -2.5002101E-01;5379; -1.6766434E-03;  0.0000000E+00;  1.4088590E-03;  9.9990326E+02;  1.0000146E-01; -8.0145874E+01;3;  1.4686661E+00;  0.0000000E+00; -1.3246344E-01;0;  3.6850519E-02;  3.9990012E+04;  0.0000000E+00; -1.1212648E-01;  4.0000000E+04;  0.0000000E+00;  4.0000863E+04;  4.1501969E-02;  0.0000000E+00; -4.6514487E-03;  1.8877325E+02;
  4.8091757E-01;  9.9999998E-03; -2.6002002E-01;5378; -1.5390967E-03;  0.0000000E+00;  1.4431392E-03;  9.9982727E+02;  1.0000148E-01; -1.4310706E+02;3;  1.4847770E+00;  0.0000000E+00; -1.3215037E-01;0;  3.8118213E-02;  3.9983234E+04;  0.0000000E+00; -7.5922109E-02;  4.0000000E+04;  0.0000000E+00;  4.0001539E+04;  4.2619620E-02;  0.0000000E+00; -4.5014066E-03;  2.4234431E+02;
  4.8090559E-01;  9.9999998E-03; -2.7001920E-01;5377; -1.4017627E-03;  0.0000000E+00;  1.4887981E-03;  9.9976031E+02;  1.0000148E-01; -1.9856227E+02;3;  1.4978762E+00;  0.0000000E+00; -1.2542902E-01;0;  3.9270390E-02;  3.9976879E+04;  0.0000000E+00; -1.2166534E-02;  4.0000000E+04;  0.0000000E+00;  4.0002059E+04;  4.3673810E-02;  0.0000000E+00; -4.4034198E-03;  2.9566144E+02;
  4.9101231E-01;  9.9999998E-03; -1.0999899E-01;5454; -2.4554976E-03;  0.0000000E+00;  6.8051805E-04;  1.0008857E+03;  1.0000202E-01;  7.3380634E+02;3;  1.5303781E+00;  0.0000000E+00; -1.1044361E-01;0;  2.5686476E-02;  4.0078406E+04;  0.0000000E+00; -7.5913124E-02;  4.0000000E+04;  0.0000000E+00;  3.9991125E+04;  3.2153696E-02;  0.0000000E+00; -6.4672199E-03;  1.1755902E+03;
  4.9099913E-01;  9.9999998E-03; -1.1999959E-01;5453; -2.4811558E-03;  0.0000000E+00;  7.5123500E-04;  1.0008755E+03;  1.0000196E-01;  7.2531274E+02;3;  1.4826123E+00;  0.0000000E+00; -1.1220099E-01;0;  2.6786651E-02;  4.0077984E+04;  0.0000000E+00; -7.9788119E-02;  4.0000000E+04;  0.0000000E+00;  3.9991000E+04;  3.3129197E-02;  0.0000000E+00; -6.3425452E-03;  1.2142944E+03;
  4.9099147E-01;  9.9999998E-03; -1.2999950E-01;5452; -2.4864590E-03;  0.0000000E+00;  8.1989996E-04;  1.0008563E+03;  1.0000198E-01;  7.0941199E+02;3;  1.4603364E+00;  0.0000000E+00; -1.1616566E-01;0;  2.7905568E-02;  4.0076320E+04;  0.0000000E+00; -8.0228560E-02;  4.0000000E+04;  0.0000000E+00;  3.9990781E+04;  3.4111459E-02;  0.0000000E+00; -6.2058894E-03;  1.2382545E+03;
  4.9098891E-01;  9.9999998E-03; -1.3999890E-01;5451; -2.4797819E-03;  0.0000000E+00;  8.8700821E-04;  1.0008268E+03;  1.0000201E-01;  6.8501764E+02;3;  1.4459016E+00;  0.0000000E+00; -1.2059481E-01;0;  2.9052244E-02;  4.0073902E+04;  0.0000000E+00; -7.7341102E-02;  4.0000000E+04;  0.0000000E+00;  3.9990621E+04;  3.5112455E-02;  0.0000000E+00; -6.0602115E-03;  1.2437378E+03;
  4.9099058E-01;  9.9999998E-03; -1.4999828E-01;5450; -2.4615396E-03;  0.0000000E+00;  9.5288263E-04;  1.0007781E+03;  1.0000207E-01;  6.4462372E+02;3;  1.4349842E+00;  0.0000000E+00; -1.2395645E-01;0;  3.0238889E-02;  4.0070383E+04;  0.0000000E+00; -7.1843646E-02;  4.0000000E+04;  0.0000000E+00;  3.9990719E+04;  3.6148950E-02;  0.0000000E+00; -5.9100608E-03;  1.2254670E+03;
  4.9099541E-01;  9.9999998E-03; -1.5999825E-01;5449; -2.4319889E-03;  0.0000000E+00;  1.0172484E-03;  1.0007247E+03;  1.0000201E-01;  6.0037805E+02;3;  1.4275103E+00;  0.0000000E+00; -1.2769161E-01;0;  3.1478614E-02;  4.0065430E+04;  0.0000000E+00; -6.5079682E-02;  4.0000000E+04;  0.0000000E+00;  3.9990926E+04;  3.7240088E-02;  0.0000000E+00; -5.7614725E-03;  1.1772599E+03;
  4.9100158E-01;  9.9999998E-03; -1.6999952E-01;5448; -2.3898650E-03;  0.0000000E+00;  1.0799234E-03;  1.0006561E+03;  1.0000210E-01;  5.4358954E+02;3;  1.4220419E+00;  0.0000000E+00; -1.3124909E-01;0;  3.2782070E-02;  4.0059672E+04;  0.0000000E+00; -5.8735039E-02;  4.0000000E+04;  0.0000000E+00;  3.9991836E+04;  3.8403090E-02;  0.0000000E+00; -5.6210184E-03;  1.0932456E+03;
  4.9100724E-01;  9.9999998E-03; -1.8000241E-01;5447; -2.3345107E-03;  0.0000000E+00;  1.1407845E-03;  1.0005809E+03;  1.0000210E-01;  4.8127029E+02;3;  1.4197320E+00;  0.0000000E+00; -1.3290827E-01;0;  3.4154553E-02;  4.0052262E+04;  0.0000000E+00; -5.4561093E-02;  4.0000000E+04;  0.0000000E+00;  3.9992551E+04;  3.9649419E-02;  0.0000000E+00; -5.4948661E-03;  9.7076862E+02;
  4.9100924E-01;  9.9999998E-03; -1.9000725E-01;5446; -2.2662184E-03;  0.0000000E+00;  1.2003551E-03;  1.0004916E+03;  1.0000215E-01;  4.0729709E+02;3;  1.4196702E+00;  0.0000000E+00; -1.3163491E-01;0;  3.5592668E-02;  4.0044074E+04;  0.0000000E+00; -5.4000523E-02;  4.0000000E+04;  0.0000000E+00;  3.9993801E+04;  4.0980816E-02;  0.0000000E+00; -5.3881495E-03;  8.1624365E+02;
  4.9100459E-01;  9.9999998E-03; -2.0001382E-01;5445; -2.1841142E-03;  0.0000000E+00;  1.2569218E-03;  1.0003936E+03;  1.0000205E-01;  3.2601544E+02;3;  1.4246428E+00;  0.0000000E+00; -1.3317493E-01;0;  3.7085041E-02;  4.0034957E+04;  0.0000000E+00; -5.7790808E-02;  4.0000000E+04;  0.0000000E+00;  3.9995078E+04;  4.2388815E-02;  0.0000000E+00; -5.3037726E-03;  6.5212543E+02;
  4.9099523E-01;  9.9999998E-03; -2.1002203E-01;5444; -2.0877826E-03;  0.0000000E+00;  1.3117424E-03;  1.0002856E+03;  1.0000203E-01;  2.3663527E+02;3;  1.4328325E+00;  0.0000000E+00; -1.3401777E-01;0;  3.8615562E-02;  4.0025504E+04;  0.0000000E+00; -6.5625682E-02;  4.0000000E+04;  0.0000000E+00;  3.9996102E+04;  4.3858573E-02;  0.0000000E+00; -5.2430127E-03;  5.2766937E+02;
  4.9098110E-01;  9.9999998E-03; -2.2002985E-01;5443; -1.9787783E-03;  0.0000000E+00;  1.3731191E-03;  1.0001705E+03;  1.0000205E-01;  1.4132933E+02;3;  1.4457420E+00;  0.0000000E+00; -1.3428648E-01;0;  4.0147316E-02;  4.0015895E+04;  0.0000000E+00; -7.5973317E-02;  4.0000000E+04;  0.0000000E+00;  3.9996133E+04;  4.5366976E-02;  0.0000000E+00; -5.2196616E-03;  4.9402936E+02;
  4.9096256E-01;  9.9999998E-03; -2.3003136E-01;5442; -1.8608852E-03;  0.0000000E+00;  1.4480425E-03;  1.0000508E+03;  1.0000207E-01;  4.2072880E+01;3;  1.4583342E+00;  0.0000000E+00; -1.3306683E-01;0;  4.1609596E-02;  4.0006172E+04;  0.0000000E+00; -8.5904039E-02;  4.0000000E+04;  0.0000000E+00;  3.9996418E+04;  4.6886791E-02;  0.0000000E+00; -5.2771955E-03;  4.5765002E+02;
  4.9093896E-01;  9.9999998E-03; -2.4002562E-01;5441; -1.7271569E-03;  0.0000000E+00;  1.4934404E-03;  9.9996478E+02;  1.0000210E-01; -2.9184357E+01;3;  1.4744271E+00;  0.0000000E+00; -1.3166255E-01;0;  4.3099202E-02;  3.9997242E+04;  0.0000000E+00; -9.1097869E-02;  4.0000000E+04;  0.0000000E+00;  3.9998379E+04;  4.8390370E-02;  0.0000000E+00; -5.2911681E-03;  2.2701447E+02;
  4.9090657E-01;  9.9999998E-03; -2.5002185E-01;5440; -1.5804664E-03;  0.0000000E+00;  1.5142864E-03;  9.9988806E+02;  1.0000207E-01; -9.2738113E+01;3;  1.4965889E+00;  0.0000000E+00; -1.3316965E-01;0;  4.4705480E-02;  3.9988980E+04;  0.0000000E+00; -8.5524149E-02;  4.0000000E+04;  0.0000000E+00;  4.0000363E+04;  4.9850311E-02;  0.0000000E+00; -5.1448322E-03;  1.3683894E+02;
  4.9087265E-01;  9.9999998E-03; -2.6002032E-01;5439; -1.4350422E-03;  0.0000000E+00;  1.5594201E-03;  9.9980579E+02;  1.0000200E-01; -1.6088432E+02;3;  1.5111686E+00;  0.0000000E+00; -1.2632999E-01;0;  4.6170335E-02;  3.9981391E+04;  0.0000000E+00; -6.3166089E-02;  4.0000000E+04;  0.0000000E+00;  4.0001676E+04;  5.1249579E-02;  0.0000000E+00; -5.0792438E-03;  2.2816522E+02;
  4.9084485E-01;  9.9999998E-03; -2.7001908E-01;5438; -1.2858995E-03;  0.0000000E+00;  1.6161208E-03;  9.9973419E+02;  1.0000207E-01; -2.2024066E+02;3;  1.5262265E+00;  0.0000000E+00; -1.1722534E-01;0;  4.7474239E-02;  3.9974539E+04;  0.0000000E+00; -1.9776577E-02;  4.0000000E+04;  0.0000000E+00;  4.0002465E+04;  5.2574188E-02;  0.0000000E+00; -5.0999490E-03;  3.2257095E+02;
  5.0088447E-01;  9.9999998E-03; -2.7001816E-01;5499; -5.7578459E-04;  0.0000000E+00;  1.7765069E-03;  9.9964227E+02;  1.0000364E-01; -2.9638666E+02;3;  1.8134246E+00;  0.0000000E+00; -1.0809776E-01;0;  5.5046506E-02;  3.9965230E+04;  0.0000000E+00; -5.8710389E-02;  4.0000000E+04;  0.0000000E+00;  4.0003402E+04;  6.1142035E-02;  0.0000000E+00; -6.0955267E-03;  4.5657407E+02;
  5.0090533E-01;  9.9999998E-03; -2.6001978E-01;5500; -9.2748977E-04;  0.0000000E+00;  1.7103949E-03;  9.9972363E+02;  1.0000370E-01; -2.2898116E+02;3;  1.7145630E+00;  0.0000000E+00; -1.1774938E-01;0;  5.3627811E-02;  3.9973020E+04;  0.0000000E+00; -7.6769449E-02;  4.0000000E+04;  0.0000000E+00;  4.0002176E+04;  5.9511259E-02;  0.0000000E+00; -5.8834478E-03;  3.1067953E+02;
  5.0092858E-01;  9.9999998E-03; -2.5002182E-01;5501; -1.2148408E-03;  0.0000000E+00;  1.6427784E-03;  9.9981464E+02;  1.0000373E-01; -1.5357590E+02;3;  1.6276402E+00;  0.0000000E+00; -1.2481500E-01;0;  5.2078582E-02;  3.9981730E+04;  0.0000000E+00; -7.8082941E-02;  4.0000000E+04;  0.0000000E+00;  4.0000633E+04;  5.7782881E-02;  0.0000000E+00; -5.7042977E-03;  1.5319514E+02;
  5.0094557E-01;  9.9999998E-03; -2.4002592E-01;5502; -1.4355151E-03;  0.0000000E+00;  1.5982628E-03;  9.9991058E+02;  1.0000383E-01; -7.4071976E+01;3;  1.5676450E+00;  0.0000000E+00; -1.3020515E-01;0;  5.0281029E-02;  3.9991441E+04;  0.0000000E+00; -6.6998124E-02;  4.0000000E+04;  0.0000000E+00;  3.9998656E+04;  5.5974148E-02;  0.0000000E+00; -5.6931176E-03;  1.8770155E+02;
  5.0095797E-01;  9.9999998E-03; -2.3003101E-01;5503; -1.6093359E-03;  0.0000000E+00;  1.5303527E-03;  1.0000154E+03;  1.0000373E-01;  1.2740379E+01;3;  1.5349053E+00;  0.0000000E+00; -1.3355140E-01;0;  4.8515819E-02;  4.0001969E+04;  0.0000000E+00; -5.0211903E-02;  4.0000000E+04;  0.0000000E+00;  3.9996926E+04;  5.4112799E-02;  0.0000000E+00; -5.5969805E-03;  4.0972552E+02;
  5.0097042E-01;  9.9999998E-03; -2.2002856E-01;5504; -1.7482950E-03;  0.0000000E+00;  1.4390855E-03;  1.0001484E+03;  1.0000384E-01;  1.2295947E+02;3;  1.5185728E+00;  0.0000000E+00; -1.3875869E-01;0;  4.6715166E-02;  4.0012906E+04;  0.0000000E+00; -3.3347979E-02;  4.0000000E+04;  0.0000000E+00;  3.9996492E+04;  5.2230131E-02;  0.0000000E+00; -5.5149654E-03;  4.4887817E+02;
  5.0098002E-01;  9.9999998E-03; -2.1002027E-01;5505; -1.8763838E-03;  0.0000000E+00;  1.3714303E-03;  1.0002835E+03;  1.0000365E-01;  2.3485754E+02;3;  1.5048342E+00;  0.0000000E+00; -1.4029820E-01;0;  4.4813279E-02;  4.0024164E+04;  0.0000000E+00; -2.0224595E-02;  4.0000000E+04;  0.0000000E+00;  3.9996191E+04;  5.0356451E-02;  0.0000000E+00; -5.5431714E-03;  5.0870856E+02;
  5.0098681E-01;  9.9999998E-03; -2.0001131E-01;5506; -1.9921225E-03;  0.0000000E+00;  1.3156676E-03;  1.0004059E+03;  1.0000372E-01;  3.3628677E+02;3;  1.4904485E+00;  0.0000000E+00; -1.4014842E-01;0;  4.2912137E-02;  4.0034758E+04;  0.0000000E+00; -1.3663686E-02;  4.0000000E+04;  0.0000000E+00;  3.9995148E+04;  4.8524506E-02;  0.0000000E+00; -5.6123687E-03;  6.6069678E+02;
  5.0099111E-01;  9.9999998E-03; -1.9000362E-01;5507; -2.0878024E-03;  0.0000000E+00;  1.2578656E-03;  1.0005158E+03;  1.0000368E-01;  4.2734592E+02;3;  1.4802235E+00;  0.0000000E+00; -1.3756938E-01;0;  4.1059963E-02;  4.0045000E+04;  0.0000000E+00; -1.4984404E-02;  4.0000000E+04;  0.0000000E+00;  3.9993531E+04;  4.6762824E-02;  0.0000000E+00; -5.7028621E-03;  8.4994690E+02;
  5.0099289E-01;  9.9999998E-03; -1.7999727E-01;5508; -2.1619292E-03;  0.0000000E+00;  1.1950627E-03;  1.0006120E+03;  1.0000376E-01;  5.0704736E+02;3;  1.4775201E+00;  0.0000000E+00; -1.3489814E-01;0;  3.9275587E-02;  4.0054223E+04;  0.0000000E+00; -2.4021506E-02;  4.0000000E+04;  0.0000000E+00;  3.9992211E+04;  4.5091525E-02;  0.0000000E+00; -5.8159367E-03;  1.0255691E+03;
  5.0099164E-01;  9.9999998E-03; -1.6999248E-01;5509; -2.2150059E-03;  0.0000000E+00;  1.1284496E-03;  1.0006964E+03;  1.0000373E-01;  5.7697131E+02;3;  1.4829384E+00;  0.0000000E+00; -1.3089731E-01;0;  3.7570078E-02;  4.0061984E+04;  0.0000000E+00; -3.9196830E-02;  4.0000000E+04;  0.0000000E+00;  3.9991086E+04;  4.3520503E-02;  0.0000000E+00; -5.9504253E-03;  1.1627365E+03;
  5.0098962E-01;  9.9999998E-03; -1.5998937E-01;5510; -2.2469945E-03;  0.0000000E+00;  1.0588872E-03;  1.0007649E+03;  1.0000366E-01;  6.3366107E+02;3;  1.4977891E+00;  0.0000000E+00; -1.2840927E-01;0;  3.5947420E-02;  4.0068348E+04;  0.0000000E+00; -5.7868876E-02;  4.0000000E+04;  0.0000000E+00;  3.9990730E+04;  4.2049080E-02;  0.0000000E+00; -6.1016586E-03;  1.2532823E+03;
  5.0098878E-01;  9.9999998E-03; -1.4998777E-01;5511; -2.2556337E-03;  0.0000000E+00;  9.8691112E-04;  1.0008268E+03;  1.0000379E-01;  6.8501764E+02;3;  1.5254368E+00;  0.0000000E+00; -1.3040298E-01;0;  3.4402635E-02;  4.0073191E+04;  0.0000000E+00; -7.6931827E-02;  4.0000000E+04;  0.0000000E+00;  3.9990000E+04;  4.0665880E-02;  0.0000000E+00; -6.2632463E-03;  1.2989673E+03;
  5.0099033E-01;  9.9999998E-03; -1.3998716E-01;5512; -2.2360657E-03;  0.0000000E+00;  9.1263786E-04;  1.0008716E+03;  1.0000389E-01;  7.2205359E+02;3;  1.5705688E+00;  0.0000000E+00; -1.2560117E-01;0;  3.2923941E-02;  4.0076801E+04;  0.0000000E+00; -9.3508445E-02;  4.0000000E+04;  0.0000000E+00;  3.9990184E+04;  3.9352201E-02;  0.0000000E+00; -6.4282594E-03;  1.3063130E+03;
  5.0099498E-01;  9.9999998E-03; -1.2998703E-01;5513; -2.1868572E-03;  0.0000000E+00;  8.3721161E-04;  1.0009048E+03;  1.0000376E-01;  7.4960840E+02;3;  1.6409700E+00;  0.0000000E+00; -1.2030905E-01;0;  3.1496957E-02;  4.0079188E+04;  0.0000000E+00; -1.0544693E-01;  4.0000000E+04;  0.0000000E+00;  3.9990414E+04;  3.8087085E-02;  0.0000000E+00; -6.5901270E-03;  1.2830852E+03;
  5.0100285E-01;  9.9999998E-03; -1.1998699E-01;5514; -2.1116741E-03;  0.0000000E+00;  7.6130207E-04;  1.0009245E+03;  1.0000389E-01;  7.6590424E+02;3;  1.7284591E+00;  0.0000000E+00; -1.1382196E-01;0;  3.0109225E-02;  4.0080578E+04;  0.0000000E+00; -1.1158733E-01;  4.0000000E+04;  0.0000000E+00;  3.9990793E+04;  3.6852863E-02;  0.0000000E+00; -6.7436383E-03;  1.2365446E+03;
  5.0101411E-01;  9.9999998E-03; -1.0998678E-01;5515; -2.0215244E-03;  0.0000000E+00;  6.8611297E-04;  1.0009424E+03;  1.0000384E-01;  7.8071863E+02;3;  1.8229696E+00;  0.0000000E+00; -9.9559709E-02;0;  2.8752632E-02;  4.0081090E+04;  0.0000000E+00; -1.1160755E-01;  4.0000000E+04;  0.0000000E+00;  3.9991340E+04;  3.5637908E-02;  0.0000000E+00; -6.8852748E-03;  1.1730109E+03;
  5.1083302E-01;  9.9999998E-03; -2.7001640E-01;5560;  9.9223817E-04;  0.0000000E+00;  1.8961328E-03;  9.9949487E+02;  1.0000632E-01; -4.1850665E+02;3;  2.2809594E+00;  0.0000000E+00; -9.7676046E-02;0;  6.2067427E-02;  3.9949922E+04;  0.0000000E+00; -8.9773864E-02;  4.0000000E+04;  0.0000000E+00;  4.0005090E+04;  6.8564020E-02;  0.0000000E+00; -6.4965943E-03;  6.7893158E+02;
  5.1085931E-01;  9.9999998E-03; -2.6001796E-01;5561;  5.4177124E-04;  0.0000000E+00;  1.8346248E-03;  9.9958850E+02;  1.0000619E-01; -3.4092859E+02;3;  2.1986578E+00;  0.0000000E+00; -1.1495528E-01;0;  6.0303319E-02;  3.9958855E+04;  0.0000000E+00; -9.0566903E-02;  4.0000000E+04;  0.0000000E+00;  4.0003750E+04;  6.6633835E-02;  0.0000000E+00; -6.3305176E-03;  5.0898383E+02;
  5.1088357E-01;  9.9999998E-03; -2.5002015E-01;5562;  1.0854672E-04;  0.0000000E+00;  1.7751276E-03;  9.9969580E+02;  1.0000618E-01; -2.5204224E+02;3;  2.1124232E+00;  0.0000000E+00; -1.2464742E-01;0;  5.8403857E-02;  3.9969129E+04;  0.0000000E+00; -7.5367138E-02;  4.0000000E+04;  0.0000000E+00;  4.0001965E+04;  6.4580671E-02;  0.0000000E+00; -6.1768149E-03;  2.9443225E+02;
  5.1090252E-01;  9.9999998E-03; -2.4002406E-01;5563; -2.8742233E-04;  0.0000000E+00;  1.7254229E-03;  9.9980676E+02;  1.0000615E-01; -1.6009422E+02;3;  2.0231400E+00;  0.0000000E+00; -1.2798901E-01;0;  5.6339599E-02;  3.9980270E+04;  0.0000000E+00; -5.0509974E-02;  4.0000000E+04;  0.0000000E+00;  3.9999887E+04;  6.2427960E-02;  0.0000000E+00; -6.0883625E-03;  7.0236778E+01;
  5.1091743E-01;  9.9999998E-03; -2.3002842E-01;5564; -6.2438624E-04;  0.0000000E+00;  1.6343626E-03;  9.9993384E+02;  1.0000625E-01; -5.4813259E+01;3;  1.9443086E+00;  0.0000000E+00; -1.3201179E-01;0;  5.4325361E-02;  3.9992355E+04;  0.0000000E+00; -2.3030190E-02;  4.0000000E+04;  0.0000000E+00;  3.9997809E+04;  6.0206179E-02;  0.0000000E+00; -5.8808164E-03;  2.5476045E+02;
  5.1092982E-01;  9.9999998E-03; -2.2002640E-01;5565; -8.9795882E-04;  0.0000000E+00;  1.5198487E-03;  1.0000839E+03;  1.0000622E-01;  6.9430130E+01;3;  1.8770214E+00;  0.0000000E+00; -1.4255351E-01;0;  5.2202713E-02;  4.0005000E+04;  0.0000000E+00;  1.5735618E-03;  4.0000000E+04;  0.0000000E+00;  3.9997230E+04;  5.7948876E-02;  0.0000000E+00; -5.7461625E-03;  3.3716199E+02;
  5.1094002E-01;  9.9999998E-03; -2.1001935E-01;5566; -1.1185356E-03;  0.0000000E+00;  1.4395055E-03;  1.0002354E+03;  1.0000617E-01;  1.9505620E+02;3;  1.8272949E+00;  0.0000000E+00; -1.4869913E-01;0;  4.9923684E-02;  4.0017672E+04;  0.0000000E+00;  1.9231353E-02;  4.0000000E+04;  0.0000000E+00;  3.9996699E+04;  5.5694748E-02;  0.0000000E+00; -5.7710642E-03;  4.4151178E+02;
  5.1094764E-01;  9.9999998E-03; -2.0001085E-01;5567; -1.2905586E-03;  0.0000000E+00;  1.3781210E-03;  1.0003705E+03;  1.0000618E-01;  3.0695425E+02;3;  1.7967434E+00;  0.0000000E+00; -1.4849307E-01;0;  4.7630485E-02;  4.0030023E+04;  0.0000000E+00;  2.7099833E-02;  4.0000000E+04;  0.0000000E+00;  3.9995305E+04;  5.3482771E-02;  0.0000000E+00; -5.8522872E-03;  6.1935126E+02;
  5.1095307E-01;  9.9999998E-03; -1.9000278E-01;5568; -1.4147195E-03;  0.0000000E+00;  1.3163897E-03;  1.0004979E+03;  1.0000610E-01;  4.1253152E+02;3;  1.7875329E+00;  0.0000000E+00; -1.4597687E-01;0;  4.5391344E-02;  4.0041379E+04;  0.0000000E+00;  2.3823366E-02;  4.0000000E+04;  0.0000000E+00;  3.9993875E+04;  5.1348761E-02;  0.0000000E+00; -5.9574172E-03;  8.2874878E+02;
  5.1095700E-01;  9.9999998E-03; -1.7999551E-01;5569; -1.4916766E-03;  0.0000000E+00;  1.2498833E-03;  1.0006060E+03;  1.0000620E-01;  5.0210922E+02;3;  1.8008362E+00;  0.0000000E+00; -1.4242968E-01;0;  4.3232709E-02;  4.0051535E+04;  0.0000000E+00;  9.7211162E-03;  4.0000000E+04;  0.0000000E+00;  3.9992164E+04;  4.9319427E-02;  0.0000000E+00; -6.0867197E-03;  1.0239023E+03;
  5.1095939E-01;  9.9999998E-03; -1.6998948E-01;5570; -1.5229722E-03;  0.0000000E+00;  1.1779186E-03;  1.0006959E+03;  1.0000616E-01;  5.7657623E+02;3;  1.8389317E+00;  0.0000000E+00; -1.3932225E-01;0;  4.1170891E-02;  4.0059988E+04;  0.0000000E+00; -1.3158591E-02;  4.0000000E+04;  0.0000000E+00;  3.9991180E+04;  4.7410350E-02;  0.0000000E+00; -6.2394580E-03;  1.1784503E+03;
  5.1096052E-01;  9.9999998E-03; -1.5998498E-01;5571; -1.5102078E-03;  0.0000000E+00;  1.1021231E-03;  1.0007706E+03;  1.0000635E-01;  6.3840167E+02;3;  1.9023372E+00;  0.0000000E+00; -1.3455647E-01;0;  3.9212368E-02;  4.0066582E+04;  0.0000000E+00; -4.1338351E-02;  4.0000000E+04;  0.0000000E+00;  3.9990324E+04;  4.5623742E-02;  0.0000000E+00; -6.4113745E-03;  1.2813813E+03;
  5.1096189E-01;  9.9999998E-03; -1.4998212E-01;5572; -1.4551081E-03;  0.0000000E+00;  1.0237789E-03;  1.0008295E+03;  1.0000607E-01;  6.8719037E+02;3;  1.9897015E+00;  0.0000000E+00; -1.2908091E-01;0;  3.7353817E-02;  4.0071820E+04;  0.0000000E+00; -7.0635512E-02;  4.0000000E+04;  0.0000000E+00;  3.9989992E+04;  4.3949883E-02;  0.0000000E+00; -6.5960656E-03;  1.3326658E+03;
  5.1096445E-01;  9.9999998E-03; -1.3998063E-01;5573; -1.3636248E-03;  0.0000000E+00;  9.4467233E-04;  1.0008737E+03;  1.0000619E-01;  7.2383130E+02;3;  2.0971544E+00;  0.0000000E+00; -1.1968774E-01;0;  3.5584215E-02;  4.0075039E+04;  0.0000000E+00; -9.7094394E-02;  4.0000000E+04;  0.0000000E+00;  3.9989953E+04;  4.2370629E-02;  0.0000000E+00; -6.7864121E-03;  1.3383043E+03;
  5.1096845E-01;  9.9999998E-03; -1.2998013E-01;5574; -1.2475636E-03;  0.0000000E+00;  8.6424052E-04;  1.0009022E+03;  1.0000630E-01;  7.4743561E+02;3;  2.2226284E+00;  0.0000000E+00; -1.0797857E-01;0;  3.3889588E-02;  4.0077129E+04;  0.0000000E+00; -1.1777934E-01;  4.0000000E+04;  0.0000000E+00;  3.9990211E+04;  4.0865015E-02;  0.0000000E+00; -6.9754287E-03;  1.3068745E+03;
  5.1097387E-01;  9.9999998E-03; -1.1998022E-01;5575; -1.1235964E-03;  0.0000000E+00;  7.8270986E-04;  1.0009226E+03;  1.0000610E-01;  7.6432397E+02;3;  2.3570373E+00;  0.0000000E+00; -9.3863644E-02;0;  3.2257929E-02;  4.0078297E+04;  0.0000000E+00; -1.3101028E-01;  4.0000000E+04;  0.0000000E+00;  3.9990906E+04;  3.9415240E-02;  0.0000000E+00; -7.1573090E-03;  1.2472521E+03;
  5.1098055E-01;  9.9999998E-03; -1.0998077E-01;5576; -1.0089418E-03;  0.0000000E+00;  7.0144318E-04;  1.0009359E+03;  1.0000629E-01;  7.7528668E+02;3;  2.4917510E+00;  0.0000000E+00; -7.8799739E-02;0;  3.0681957E-02;  4.0078543E+04;  0.0000000E+00; -1.3611084E-01;  4.0000000E+04;  0.0000000E+00;  3.9991422E+04;  3.8010024E-02;  0.0000000E+00; -7.3280670E-03;  1.1682294E+03;
  5.2079296E-01;  9.9999998E-03; -2.7001455E-01;5621;  2.4865456E-03;  0.0000000E+00;  2.0309396E-03;  9.9931989E+02;  1.0001041E-01; -5.6344080E+02;3;  2.6456008E+00;  0.0000000E+00; -6.8116710E-02;0;  6.7500032E-02;  3.9930730E+04;  0.0000000E+00; -1.1606639E-01;  4.0000000E+04;  0.0000000E+00;  4.0006375E+04;  7.4412279E-02;  0.0000000E+00; -6.9122431E-03;  8.9155353E+02;
  5.2082360E-01;  9.9999998E-03; -2.6001620E-01;5622;  2.0973079E-03;  0.0000000E+00;  1.9609313E-03;  9.9942670E+02;  1.0001060E-01; -4.7494949E+02;3;  2.6202691E+00;  0.0000000E+00; -9.4333366E-02;0;  6.5535322E-02;  3.9940754E+04;  0.0000000E+00; -1.0838192E-01;  4.0000000E+04;  0.0000000E+00;  4.0004980E+04;  7.2170153E-02;  0.0000000E+00; -6.6348319E-03;  6.9504932E+02;
  5.2085000E-01;  9.9999998E-03; -2.5001842E-01;5623;  1.7170601E-03;  0.0000000E+00;  1.8870607E-03;  9.9954742E+02;  1.0001060E-01; -3.7495233E+02;3;  2.5866392E+00;  0.0000000E+00; -1.1231199E-01;0;  6.3419171E-02;  3.9952145E+04;  0.0000000E+00; -8.1766307E-02;  4.0000000E+04;  0.0000000E+00;  4.0003199E+04;  6.9782242E-02;  0.0000000E+00; -6.3630692E-03;  4.6158035E+02;
  5.2086878E-01;  9.9999998E-03; -2.4002191E-01;5624;  1.3452389E-03;  0.0000000E+00;  1.8168251E-03;  9.9967847E+02;  1.0001048E-01; -2.6636282E+02;3;  2.5442107E+00;  0.0000000E+00; -1.2682961E-01;0;  6.1091363E-02;  3.9964785E+04;  0.0000000E+00; -4.5713697E-02;  4.0000000E+04;  0.0000000E+00;  4.0001305E+04;  6.7274258E-02;  0.0000000E+00; -6.1828922E-03;  1.8641000E+02;
  5.2088147E-01;  9.9999998E-03; -2.3002559E-01;5625;  1.0213230E-03;  0.0000000E+00;  1.7191683E-03;  9.9982690E+02;  1.0001051E-01; -1.4340334E+02;3;  2.5073762E+00;  0.0000000E+00; -1.3918391E-01;0;  5.8694471E-02;  3.9978395E+04;  0.0000000E+00; -8.6100027E-03;  4.0000000E+04;  0.0000000E+00;  3.9999359E+04;  6.4679384E-02;  0.0000000E+00; -5.9849131E-03;  5.9840717E+01;
  5.2089119E-01;  9.9999998E-03; -2.2002488E-01;5626;  7.3604326E-04;  0.0000000E+00;  1.6126267E-03;  9.9998877E+02;  1.0001040E-01; -9.2836876E+00;3;  2.4791741E+00;  0.0000000E+00; -1.4803790E-01;0;  5.6144223E-02;  3.9992562E+04;  0.0000000E+00;  2.3610549E-02;  4.0000000E+04;  0.0000000E+00;  3.9998336E+04;  6.2038328E-02;  0.0000000E+00; -5.8941077E-03;  1.9190889E+02;
  5.2089870E-01;  9.9999998E-03; -2.1002050E-01;5627;  4.7602531E-04;  0.0000000E+00;  1.5319715E-03;  1.0001545E+03;  1.0001054E-01;  1.2799637E+02;3;  2.4568996E+00;  0.0000000E+00; -1.5252066E-01;0;  5.3460870E-02;  4.0006715E+04;  0.0000000E+00;  4.6792187E-02;  4.0000000E+04;  0.0000000E+00;  3.9997469E+04;  5.9397325E-02;  0.0000000E+00; -5.9364554E-03;  3.4108923E+02;
  5.2090442E-01;  9.9999998E-03; -2.0001402E-01;5628;  2.6409447E-04;  0.0000000E+00;  1.4669047E-03;  1.0003079E+03;  1.0001054E-01;  2.5510388E+02;3;  2.4509304E+00;  0.0000000E+00; -1.5542039E-01;0;  5.0768927E-02;  4.0020336E+04;  0.0000000E+00;  5.8009591E-02;  4.0000000E+04;  0.0000000E+00;  3.9995770E+04;  5.6803096E-02;  0.0000000E+00; -6.0341698E-03;  5.3592505E+02;
  5.2090889E-01;  9.9999998E-03; -1.9000691E-01;5629;  1.1460813E-04;  0.0000000E+00;  1.4008183E-03;  1.0004449E+03;  1.0001057E-01;  3.6858215E+02;3;  2.4645259E+00;  0.0000000E+00; -1.5273555E-01;0;  4.8138756E-02;  4.0032766E+04;  0.0000000E+00;  5.5828337E-02;  4.0000000E+04;  0.0000000E+00;  3.9994320E+04;  5.4298744E-02;  0.0000000E+00; -6.1599873E-03;  7.5479553E+02;
  5.2091247E-01;  9.9999998E-03; -1.7999984E-01;5630;  2.8932918E-05;  0.0000000E+00;  1.3279610E-03;  1.0005615E+03;  1.0001040E-01;  4.6517200E+02;3;  2.5070336E+00;  0.0000000E+00; -1.4607371E-01;0;  4.5605548E-02;  4.0043965E+04;  0.0000000E+00;  4.0519699E-02;  4.0000000E+04;  0.0000000E+00;  3.9992617E+04;  5.1919375E-02;  0.0000000E+00; -6.3138288E-03;  9.6281354E+02;
  5.2091527E-01;  9.9999998E-03; -1.6999364E-01;5631;  1.8041220E-06;  0.0000000E+00;  1.2503095E-03;  1.0006612E+03;  1.0001042E-01;  5.4773755E+02;3;  2.5768120E+00;  0.0000000E+00; -1.4116421E-01;0;  4.3192849E-02;  4.0053102E+04;  0.0000000E+00;  1.4256055E-02;  4.0000000E+04;  0.0000000E+00;  3.9991438E+04;  4.9687937E-02;  0.0000000E+00; -6.4950888E-03;  1.1337872E+03;
  5.2091724E-01;  9.9999998E-03; -1.5998863E-01;5632;  2.2705735E-05;  0.0000000E+00;  1.1680375E-03;  1.0007386E+03;  1.0001034E-01;  6.1193329E+02;3;  2.6697912E+00;  0.0000000E+00; -1.3655747E-01;0;  4.0913671E-02;  4.0059941E+04;  0.0000000E+00; -1.9088937E-02;  4.0000000E+04;  0.0000000E+00;  3.9990457E+04;  4.7612432E-02;  0.0000000E+00; -6.6987597E-03;  1.2532341E+03;
  5.2091873E-01;  9.9999998E-03; -1.4998496E-01;5633;  7.8820711E-05;  0.0000000E+00;  1.0817638E-03;  1.0007963E+03;  1.0001054E-01;  6.5973438E+02;3;  2.7826834E+00;  0.0000000E+00; -1.2821658E-01;0;  3.8769003E-02;  4.0064996E+04;  0.0000000E+00; -5.4676581E-02;  4.0000000E+04;  0.0000000E+00;  3.9989922E+04;  4.5687106E-02;  0.0000000E+00; -6.9181016E-03;  1.3178051E+03;
  5.2092052E-01;  9.9999998E-03; -1.3998264E-01;5634;  1.5402694E-04;  0.0000000E+00;  9.9217822E-04;  1.0008351E+03;  1.0001052E-01;  6.9193097E+02;3;  2.9095633E+00;  0.0000000E+00; -1.2055411E-01;0;  3.6750447E-02;  4.0068047E+04;  0.0000000E+00; -8.7837592E-02;  4.0000000E+04;  0.0000000E+00;  3.9989957E+04;  4.3896053E-02;  0.0000000E+00; -7.1456074E-03;  1.3315972E+03;
  5.2092278E-01;  9.9999998E-03; -1.2998159E-01;5635;  2.3049035E-04;  0.0000000E+00;  9.0068660E-04;  1.0008587E+03;  1.0001041E-01;  7.1138721E+02;3;  3.0434256E+00;  0.0000000E+00; -1.1178108E-01;0;  3.4844793E-02;  4.0069562E+04;  0.0000000E+00; -1.1511630E-01;  4.0000000E+04;  0.0000000E+00;  3.9990387E+04;  4.2218715E-02;  0.0000000E+00; -7.3739234E-03;  1.3028646E+03;
  5.2092546E-01;  9.9999998E-03; -1.1998162E-01;5636;  2.8915194E-04;  0.0000000E+00;  8.0754486E-04;  1.0008712E+03;  1.0001054E-01;  7.2175732E+02;3;  3.1767011E+00;  0.0000000E+00; -1.0130649E-01;0;  3.3040024E-02;  4.0069992E+04;  0.0000000E+00; -1.3440551E-01;  4.0000000E+04;  0.0000000E+00;  3.9990883E+04;  4.0636841E-02;  0.0000000E+00; -7.5968164E-03;  1.2415120E+03;
  5.2092838E-01;  9.9999998E-03; -1.0998249E-01;5637;  3.1565936E-04;  0.0000000E+00;  7.1387610E-04;  1.0008749E+03;  1.0001040E-01;  7.2481897E+02;3;  3.2984822E+00;  0.0000000E+00; -8.9859605E-02;0;  3.1328037E-02;  4.0069516E+04;  0.0000000E+00; -1.4463785E-01;  4.0000000E+04;  0.0000000E+00;  3.9991512E+04;  3.9137915E-02;  0.0000000E+00; -7.8098793E-03;  1.1581929E+03;
  5.3078431E-01;  9.9999998E-03; -2.7001274E-01;5682;  3.5903642E-03;  0.0000000E+00;  2.1462217E-03;  9.9915753E+02;  1.0001741E-01; -6.9795551E+02;3;  2.8939207E+00;  0.0000000E+00; -5.1229682E-02;0;  7.1536705E-02;  3.9910660E+04;  0.0000000E+00; -1.2890263E-01;  4.0000000E+04;  0.0000000E+00;  4.0007750E+04;  7.8430817E-02;  0.0000000E+00; -6.8941098E-03;  1.0616908E+03;
  5.3081489E-01;  9.9999998E-03; -2.6001447E-01;5683;  3.2920716E-03;  0.0000000E+00;  2.0650993E-03;  9.9927264E+02;  1.0001738E-01; -6.0260022E+02;3;  2.9282889E+00;  0.0000000E+00; -8.2470454E-02;0;  6.9314167E-02;  3.9921902E+04;  0.0000000E+00; -1.2354144E-01;  4.0000000E+04;  0.0000000E+00;  4.0005949E+04;  7.5856857E-02;  0.0000000E+00; -6.5426924E-03;  8.4364624E+02;
  5.3083783E-01;  9.9999998E-03; -2.5001678E-01;5684;  3.0320906E-03;  0.0000000E+00;  1.9655456E-03;  9.9940582E+02;  1.0001735E-01; -4.9228235E+02;3;  2.9574010E+00;  0.0000000E+00; -1.0249367E-01;0;  6.6968799E-02;  3.9934043E+04;  0.0000000E+00; -9.2664085E-02;  4.0000000E+04;  0.0000000E+00;  4.0004297E+04;  7.3116638E-02;  0.0000000E+00; -6.1478377E-03;  6.0392505E+02;
  5.3085005E-01;  9.9999998E-03; -2.4002001E-01;5685;  2.7789313E-03;  0.0000000E+00;  1.8672229E-03;  9.9955426E+02;  1.0001748E-01; -3.6927347E+02;3;  2.9783890E+00;  0.0000000E+00; -1.2671363E-01;0;  6.4310431E-02;  3.9947680E+04;  0.0000000E+00; -5.0265923E-02;  4.0000000E+04;  0.0000000E+00;  4.0002406E+04;  7.0240624E-02;  0.0000000E+00; -5.9301890E-03;  3.5070425E+02;
  5.3085500E-01;  9.9999998E-03; -2.3002374E-01;5686;  2.5383430E-03;  0.0000000E+00;  1.7696581E-03;  9.9971625E+02;  1.0001731E-01; -2.3510445E+02;3;  2.9996550E+00;  0.0000000E+00; -1.4353752E-01;0;  6.1419964E-02;  3.9962191E+04;  0.0000000E+00; -6.9243019E-03;  4.0000000E+04;  0.0000000E+00;  4.0000605E+04;  6.7268543E-02;  0.0000000E+00; -5.8485800E-03;  1.1809749E+02;
  5.3085685E-01;  9.9999998E-03; -2.2002615E-01;5687;  2.3090779E-03;  0.0000000E+00;  1.6771901E-03;  9.9988928E+02;  1.0001730E-01; -9.1750488E+01;3;  3.0187299E+00;  0.0000000E+00; -1.5886293E-01;0;  5.8372624E-02;  3.9977539E+04;  0.0000000E+00;  3.0952271E-02;  4.0000000E+04;  0.0000000E+00;  3.9999348E+04;  6.4248800E-02;  0.0000000E+00; -5.8761779E-03;  7.7603134E+01;
  5.3085774E-01;  9.9999998E-03; -2.1002577E-01;5688;  2.0946094E-03;  0.0000000E+00;  1.6007120E-03;  1.0000648E+03;  1.0001735E-01;  5.3726871E+01;3;  3.0444417E+00;  0.0000000E+00; -1.6151860E-01;0;  5.5249389E-02;  3.9992641E+04;  0.0000000E+00;  5.9107039E-02;  4.0000000E+04;  0.0000000E+00;  3.9998027E+04;  6.1235219E-02;  0.0000000E+00; -5.9858304E-03;  2.4544943E+02;
  5.3085911E-01;  9.9999998E-03; -2.0002218E-01;5689;  1.9135642E-03;  0.0000000E+00;  1.5350217E-03;  1.0002307E+03;  1.0001750E-01;  1.9110570E+02;3;  3.0840688E+00;  0.0000000E+00; -1.6485871E-01;0;  5.2147206E-02;  4.0007266E+04;  0.0000000E+00;  7.4616052E-02;  4.0000000E+04;  0.0000000E+00;  3.9996840E+04;  5.8282103E-02;  0.0000000E+00; -6.1348965E-03;  4.3055542E+02;
  5.3086096E-01;  9.9999998E-03; -1.9001664E-01;5690;  1.7791449E-03;  0.0000000E+00;  1.4683736E-03;  1.0003773E+03;  1.0001754E-01;  3.1258374E+02;3;  3.1388054E+00;  0.0000000E+00; -1.6932201E-01;0;  4.9133431E-02;  4.0020426E+04;  0.0000000E+00;  7.5960457E-02;  4.0000000E+04;  0.0000000E+00;  3.9995066E+04;  5.5441156E-02;  0.0000000E+00; -6.3077239E-03;  6.3893988E+02;
  5.3086323E-01;  9.9999998E-03; -1.8001044E-01;5691;  1.6916869E-03;  0.0000000E+00;  1.3957894E-03;  1.0005034E+03;  1.0001744E-01;  4.1697583E+02;3;  3.2124321E+00;  0.0000000E+00; -1.6576035E-01;0;  4.6249945E-02;  4.0031980E+04;  0.0000000E+00;  6.3233688E-02;  4.0000000E+04;  0.0000000E+00;  3.9993543E+04;  5.2756317E-02;  0.0000000E+00; -6.5063732E-03;  8.4841730E+02;
  5.3086555E-01;  9.9999998E-03; -1.7000446E-01;5692;  1.6434907E-03;  0.0000000E+00;  1.3172487E-03;  1.0006031E+03;  1.0001736E-01;  4.9973892E+02;3;  3.3058829E+00;  0.0000000E+00; -1.6109952E-01;0;  4.3527000E-02;  4.0041594E+04;  0.0000000E+00;  3.8434487E-02;  4.0000000E+04;  0.0000000E+00;  3.9992059E+04;  5.0258916E-02;  0.0000000E+00; -6.7319158E-03;  1.0316809E+03;
  5.3086782E-01;  9.9999998E-03; -1.5999915E-01;5693;  1.6194950E-03;  0.0000000E+00;  1.2314207E-03;  1.0006779E+03;  1.0001750E-01;  5.6166309E+02;3;  3.4118981E+00;  0.0000000E+00; -1.5664355E-01;0;  4.0983405E-02;  4.0048461E+04;  0.0000000E+00;  5.3678174E-03;  4.0000000E+04;  0.0000000E+00;  3.9991012E+04;  4.7964413E-02;  0.0000000E+00; -6.9810082E-03;  1.1695944E+03;
  5.3087002E-01;  9.9999998E-03; -1.4999492E-01;5694;  1.6020722E-03;  0.0000000E+00;  1.1395735E-03;  1.0007310E+03;  1.0001726E-01;  6.0561243E+02;3;  3.5211973E+00;  0.0000000E+00; -1.5089229E-01;0;  3.8624555E-02;  4.0053074E+04;  0.0000000E+00; -3.1045351E-02;  4.0000000E+04;  0.0000000E+00;  3.9990316E+04;  4.5872342E-02;  0.0000000E+00; -7.2477860E-03;  1.2536420E+03;
  5.3087205E-01;  9.9999998E-03; -1.3999203E-01;5695;  1.5769963E-03;  0.0000000E+00;  1.0443076E-03;  1.0007587E+03;  1.0001726E-01;  6.2862415E+02;3;  3.6314609E+00;  0.0000000E+00; -1.5194766E-01;0;  3.6443695E-02;  4.0055414E+04;  0.0000000E+00; -6.6034459E-02;  4.0000000E+04;  0.0000000E+00;  3.9990121E+04;  4.3968618E-02;  0.0000000E+00; -7.5249216E-03;  1.2843051E+03;
  5.3087389E-01;  9.9999998E-03; -1.2999049E-01;5696;  1.5294317E-03;  0.0000000E+00;  9.4653101E-04;  1.0007697E+03;  1.0001732E-01;  6.3771033E+02;3;  3.7407289E+00;  0.0000000E+00; -1.4893119E-01;0;  3.4427468E-02;  4.0056133E+04;  0.0000000E+00; -9.6079022E-02;  4.0000000E+04;  0.0000000E+00;  3.9990277E+04;  4.2232409E-02;  0.0000000E+00; -7.8049428E-03;  1.2683615E+03;
  5.3087533E-01;  9.9999998E-03; -1.1999001E-01;5697;  1.4492851E-03;  0.0000000E+00;  8.4990344E-04;  1.0007685E+03;  1.0001743E-01;  6.3672266E+02;3;  3.8365340E+00;  0.0000000E+00; -1.5261480E-01;0;  3.2561511E-02;  4.0055574E+04;  0.0000000E+00; -1.1891921E-01;  4.0000000E+04;  0.0000000E+00;  3.9990824E+04;  4.0642887E-02;  0.0000000E+00; -8.0813775E-03;  1.2161952E+03;
  5.3087628E-01;  9.9999998E-03; -1.0999055E-01;5698;  1.3322558E-03;  0.0000000E+00;  7.5706479E-04;  1.0007599E+03;  1.0001746E-01;  6.2951300E+02;3;  3.9273138E+00;  0.0000000E+00; -1.5623865E-01;0;  3.0833356E-02;  4.0054062E+04;  0.0000000E+00; -1.3318935E-01;  4.0000000E+04;  0.0000000E+00;  3.9991457E+04;  3.9182909E-02;  0.0000000E+00; -8.3495537E-03;  1.1396670E+03;
  5.4080945E-01;  9.9999998E-03; -2.7001128E-01;5743;  4.4888551E-03;  0.0000000E+00;  2.2208353E-03;  9.9906702E+02;  1.0002949E-01; -7.7296576E+02;3;  3.0939085E+00;  0.0000000E+00; -5.4188568E-02;0;  7.4449964E-02;  3.9893324E+04;  0.0000000E+00; -1.2489273E-01;  4.0000000E+04;  0.0000000E+00;  4.0008203E+04;  8.0596380E-02;  0.0000000E+00; -6.1464184E-03;  1.1313118E+03;
  5.4083699E-01;  9.9999998E-03; -2.6001301E-01;5744;  4.2417147E-03;  0.0000000E+00;  2.1189970E-03;  9.9918805E+02;  1.0002950E-01; -6.7267230E+02;3;  3.1748078E+00;  0.0000000E+00; -9.1745712E-02;0;  7.1925648E-02;  3.9904426E+04;  0.0000000E+00; -1.3058555E-01;  4.0000000E+04;  0.0000000E+00;  4.0006223E+04;  7.7689201E-02;  0.0000000E+00; -5.7635535E-03;  9.1132867E+02;
  5.4085404E-01;  9.9999998E-03; -2.5001532E-01;5745;  4.0530879E-03;  0.0000000E+00;  1.9984380E-03;  9.9932703E+02;  1.0002951E-01; -5.5756445E+02;3;  3.2488794E+00;  0.0000000E+00; -1.1858862E-01;0;  6.9170088E-02;  3.9917227E+04;  0.0000000E+00; -1.0282958E-01;  4.0000000E+04;  0.0000000E+00;  4.0004883E+04;  7.4598782E-02;  0.0000000E+00; -5.4286919E-03;  6.8744293E+02;
  5.4085511E-01;  9.9999998E-03; -2.4001832E-01;5746;  3.8688835E-03;  0.0000000E+00;  1.8843900E-03;  9.9948608E+02;  1.0002956E-01; -4.2576572E+02;3;  3.3197546E+00;  0.0000000E+00; -1.4410511E-01;0;  6.6012248E-02;  3.9931445E+04;  0.0000000E+00; -5.9993226E-02;  4.0000000E+04;  0.0000000E+00;  4.0003160E+04;  7.1365483E-02;  0.0000000E+00; -5.3532352E-03;  4.7156732E+02;
  5.4084706E-01;  9.9999998E-03; -2.3002288E-01;5747;  3.6554239E-03;  0.0000000E+00;  1.7963959E-03;  9.9965546E+02;  1.0002951E-01; -2.8542401E+02;3;  3.3812768E+00;  0.0000000E+00; -1.6414851E-01;0;  6.2538981E-02;  3.9946250E+04;  0.0000000E+00; -1.5339790E-02;  4.0000000E+04;  0.0000000E+00;  4.0001461E+04;  6.8040371E-02;  0.0000000E+00; -5.5013886E-03;  2.4479813E+02;
  5.4083627E-01;  9.9999998E-03; -2.2002940E-01;5748;  3.4398611E-03;  0.0000000E+00;  1.7232386E-03;  9.9982715E+02;  1.0002942E-01; -1.4320581E+02;3;  3.4408555E+00;  0.0000000E+00; -1.7747761E-01;0;  5.8963064E-02;  3.9961715E+04;  0.0000000E+00;  2.4600744E-02;  4.0000000E+04;  0.0000000E+00;  3.9999828E+04;  6.4679034E-02;  0.0000000E+00; -5.7159690E-03;  4.2179890E+01;
  5.4082710E-01;  9.9999998E-03; -2.1003371E-01;5749;  3.2508182E-03;  0.0000000E+00;  1.6525852E-03;  1.0000070E+03;  1.0002949E-01;  5.7282324E+00;3;  3.5015981E+00;  0.0000000E+00; -1.8839031E-01;0;  5.5401776E-02;  3.9977199E+04;  0.0000000E+00;  5.5763531E-02;  4.0000000E+04;  0.0000000E+00;  3.9998559E+04;  6.1341174E-02;  0.0000000E+00; -5.9393994E-03;  1.6406795E+02;
  5.4082125E-01;  9.9999998E-03; -2.0003322E-01;5750;  3.0827348E-03;  0.0000000E+00;  1.5884973E-03;  1.0001799E+03;  1.0002949E-01;  1.4903281E+02;3;  3.5669770E+00;  0.0000000E+00; -1.9666697E-01;0;  5.1914293E-02;  3.9991895E+04;  0.0000000E+00;  7.5315095E-02;  4.0000000E+04;  0.0000000E+00;  3.9997586E+04;  5.8090501E-02;  0.0000000E+00; -6.1762072E-03;  3.1510242E+02;
  5.4081887E-01;  9.9999998E-03; -1.9002946E-01;5751;  2.9411165E-03;  0.0000000E+00;  1.5254847E-03;  1.0003307E+03;  1.0002939E-01;  2.7396753E+02;3;  3.6471353E+00;  0.0000000E+00; -1.9550300E-01;0;  4.8562892E-02;  4.0005340E+04;  0.0000000E+00;  8.1659637E-02;  4.0000000E+04;  0.0000000E+00;  3.9996137E+04;  5.4987300E-02;  0.0000000E+00; -6.4244084E-03;  4.9523276E+02;
  5.4081953E-01;  9.9999998E-03; -1.8002422E-01;5752;  2.8245386E-03;  0.0000000E+00;  1.4582319E-03;  1.0004573E+03;  1.0002954E-01;  3.7885345E+02;3;  3.7352021E+00;  0.0000000E+00; -1.9463848E-01;0;  4.5394160E-02;  4.0016695E+04;  0.0000000E+00;  7.4698694E-02;  4.0000000E+04;  0.0000000E+00;  3.9994719E+04;  5.2083828E-02;  0.0000000E+00; -6.6896686E-03;  6.9484113E+02;
  5.4082197E-01;  9.9999998E-03; -1.7001861E-01;5753;  2.7255416E-03;  0.0000000E+00;  1.3842399E-03;  1.0005525E+03;  1.0002955E-01;  4.5776480E+02;3;  3.8204525E+00;  0.0000000E+00; -2.0034185E-01;0;  4.2442370E-02;  4.0026062E+04;  0.0000000E+00;  5.6088027E-02;  4.0000000E+04;  0.0000000E+00;  3.9993121E+04;  4.9419060E-02;  0.0000000E+00; -6.9766892E-03;  8.8526111E+02;
  5.4082543E-01;  9.9999998E-03; -1.6001339E-01;5754;  2.6308566E-03;  0.0000000E+00;  1.3036996E-03;  1.0006232E+03;  1.0002933E-01;  5.1633105E+02;3;  3.9117813E+00;  0.0000000E+00; -1.9714333E-01;0;  3.9729707E-02;  4.0032602E+04;  0.0000000E+00;  2.9135367E-02;  4.0000000E+04;  0.0000000E+00;  3.9991812E+04;  4.7015365E-02;  0.0000000E+00; -7.2856573E-03;  1.0412975E+03;
  5.4082912E-01;  9.9999998E-03; -1.5000902E-01;5755;  2.5221284E-03;  0.0000000E+00;  1.2190463E-03;  1.0006626E+03;  1.0002962E-01;  5.4892273E+02;3;  3.9935088E+00;  0.0000000E+00; -1.9805597E-01;0;  3.7264008E-02;  4.0036816E+04;  0.0000000E+00; -1.8434074E-03;  4.0000000E+04;  0.0000000E+00;  3.9990953E+04;  4.4876717E-02;  0.0000000E+00; -7.6127076E-03;  1.1481770E+03;
  5.4083252E-01;  9.9999998E-03; -1.4000586E-01;5756;  2.3893898E-03;  0.0000000E+00;  1.1333821E-03;  1.0006833E+03;  1.0002943E-01;  5.6610742E+02;3;  4.0737724E+00;  0.0000000E+00; -2.0289434E-01;0;  3.5038810E-02;  4.0038457E+04;  0.0000000E+00; -3.2721024E-02;  4.0000000E+04;  0.0000000E+00;  3.9990621E+04;  4.2990193E-02;  0.0000000E+00; -7.9513825E-03;  1.2016941E+03;
  5.4083526E-01;  9.9999998E-03; -1.3000402E-01;5757;  2.2146252E-03;  0.0000000E+00;  1.0514505E-03;  1.0006766E+03;  1.0002955E-01;  5.6057672E+02;3;  4.1625066E+00;  0.0000000E+00; -2.1435735E-01;0;  3.3039093E-02;  4.0037965E+04;  0.0000000E+00; -6.0521979E-02;  4.0000000E+04;  0.0000000E+00;  3.9990680E+04;  4.1333441E-02;  0.0000000E+00; -8.2943495E-03;  1.2063619E+03;
  5.4083687E-01;  9.9999998E-03; -1.2000330E-01;5758;  1.9985605E-03;  0.0000000E+00;  9.7779883E-04;  1.0006569E+03;  1.0002952E-01;  5.4428088E+02;3;  4.2108326E+00;  0.0000000E+00; -2.2053118E-01;0;  3.1245094E-02;  4.0036090E+04;  0.0000000E+00; -8.3239891E-02;  4.0000000E+04;  0.0000000E+00;  3.9990941E+04;  3.9880209E-02;  0.0000000E+00; -8.6351158E-03;  1.1721309E+03;
  5.4083705E-01;  9.9999998E-03; -1.1000347E-01;5759;  1.7738746E-03;  0.0000000E+00;  9.0463838E-04;  1.0006271E+03;  1.0002936E-01;  5.1949146E+02;3;  4.2252517E+00;  0.0000000E+00; -2.1302347E-01;0;  2.9634371E-02;  4.0032961E+04;  0.0000000E+00; -9.9438392E-02;  4.0000000E+04;  0.0000000E+00;  3.9991535E+04;  3.8603235E-02;  0.0000000E+00; -8.9688627E-03;  1.1113231E+03;
  5.5087501E-01;  9.9999998E-03; -2.7001053E-01;5804;  5.3708004E-03;  0.0000000E+00;  2.2828963E-03;  9.9908405E+02;  1.0004872E-01; -7.5884265E+02;3;  3.3018811E+00;  0.0000000E+00; -8.6543590E-02;0;  7.6104164E-02;  3.9879230E+04;  0.0000000E+00; -1.2066177E-01;  4.0000000E+04;  0.0000000E+00;  4.0007293E+04;  8.1066735E-02;  0.0000000E+00; -4.9625696E-03;  1.0594626E+03;
  5.5089790E-01;  9.9999998E-03; -2.6001200E-01;5805;  5.1042465E-03;  0.0000000E+00;  2.1590802E-03;  9.9920209E+02;  1.0004855E-01; -6.6106769E+02;3;  3.3970377E+00;  0.0000000E+00; -1.3166285E-01;0;  7.3270373E-02;  3.9890164E+04;  0.0000000E+00; -1.3436948E-01;  4.0000000E+04;  0.0000000E+00;  4.0005883E+04;  7.7871218E-02;  0.0000000E+00; -4.6008443E-03;  8.6318054E+02;
  5.5090630E-01;  9.9999998E-03; -2.5001416E-01;5806;  4.9034315E-03;  0.0000000E+00;  2.0221863E-03;  9.9934229E+02;  1.0004877E-01; -5.4492279E+02;3;  3.4975350E+00;  0.0000000E+00; -1.6252193E-01;0;  7.0050746E-02;  3.9902770E+04;  0.0000000E+00; -1.1006450E-01;  4.0000000E+04;  0.0000000E+00;  4.0004309E+04;  7.4481390E-02;  0.0000000E+00; -4.4306470E-03;  6.7297217E+02;
  5.5089271E-01;  9.9999998E-03; -2.4001688E-01;5807;  4.6979534E-03;  0.0000000E+00;  1.9014628E-03;  9.9950372E+02;  1.0004855E-01; -4.1114883E+02;3;  3.5894079E+00;  0.0000000E+00; -1.8712887E-01;0;  6.6351131E-02;  3.9916543E+04;  0.0000000E+00; -6.9696538E-02;  4.0000000E+04;  0.0000000E+00;  4.0003352E+04;  7.0952334E-02;  0.0000000E+00; -4.6011992E-03;  5.1072763E+02;
  5.5086666E-01;  9.9999998E-03; -2.3002240E-01;5808;  4.4291797E-03;  0.0000000E+00;  1.8344976E-03;  9.9966809E+02;  1.0004845E-01; -2.7500455E+02;3;  3.6655667E+00;  0.0000000E+00; -2.0654708E-01;0;  6.2291481E-02;  3.9930945E+04;  0.0000000E+00; -2.8202683E-02;  4.0000000E+04;  0.0000000E+00;  4.0001762E+04;  6.7349650E-02;  0.0000000E+00; -5.0581703E-03;  3.0125241E+02;
  5.5084008E-01;  9.9999998E-03; -2.2003293E-01;5809;  4.1569909E-03;  0.0000000E+00;  1.7859549E-03;  9.9983374E+02;  1.0004871E-01; -1.3772449E+02;3;  3.7321508E+00;  0.0000000E+00; -2.2197317E-01;0;  5.8234852E-02;  3.9945941E+04;  0.0000000E+00;  9.2824716E-03;  4.0000000E+04;  0.0000000E+00;  4.0000133E+04;  6.3733429E-02;  0.0000000E+00; -5.4985760E-03;  5.9020508E+01;
  5.5081797E-01;  9.9999998E-03; -2.1004167E-01;5810;  3.9315191E-03;  0.0000000E+00;  1.7258654E-03;  1.0000098E+03;  1.0004860E-01;  8.0985355E+00;3;  3.8036892E+00;  0.0000000E+00; -2.2923544E-01;0;  5.4303519E-02;  3.9960699E+04;  0.0000000E+00;  4.0198319E-02;  4.0000000E+04;  0.0000000E+00;  3.9999105E+04;  6.0167857E-02;  0.0000000E+00; -5.8643362E-03;  1.0079380E+02;
  5.5080235E-01;  9.9999998E-03; -2.0004418E-01;5811;  3.7276291E-03;  0.0000000E+00;  1.6695447E-03;  1.0001767E+03;  1.0004871E-01;  1.4636623E+02;3;  3.8759916E+00;  0.0000000E+00; -2.3610027E-01;0;  5.0513979E-02;  3.9974863E+04;  0.0000000E+00;  6.2169947E-02;  4.0000000E+04;  0.0000000E+00;  3.9998309E+04;  5.6727141E-02;  0.0000000E+00; -6.2131607E-03;  2.0480690E+02;
  5.5079401E-01;  9.9999998E-03; -1.9004193E-01;5812;  3.5414533E-03;  0.0000000E+00;  1.6158069E-03;  1.0003272E+03;  1.0004846E-01;  2.7110342E+02;3;  3.9449055E+00;  0.0000000E+00; -2.3732905E-01;0;  4.6923403E-02;  3.9987863E+04;  0.0000000E+00;  7.3671974E-02;  4.0000000E+04;  0.0000000E+00;  3.9997203E+04;  5.3479571E-02;  0.0000000E+00; -6.5561673E-03;  3.4418213E+02;
  5.5079126E-01;  9.9999998E-03; -1.8003756E-01;5813;  3.3716578E-03;  0.0000000E+00;  1.5578177E-03;  1.0004440E+03;  1.0004858E-01;  3.6779205E+02;3;  4.0215769E+00;  0.0000000E+00; -2.4071959E-01;0;  4.3579791E-02;  3.9998613E+04;  0.0000000E+00;  7.4465953E-02;  4.0000000E+04;  0.0000000E+00;  3.9995953E+04;  5.0483797E-02;  0.0000000E+00; -6.9040069E-03;  5.2473035E+02;
  5.5079287E-01;  9.9999998E-03; -1.7003243E-01;5814;  3.2080561E-03;  0.0000000E+00;  1.4964036E-03;  1.0005345E+03;  1.0004850E-01;  4.4285165E+02;3;  4.0909376E+00;  0.0000000E+00; -2.4312007E-01;0;  4.0517934E-02;  4.0007141E+04;  0.0000000E+00;  6.5789446E-02;  4.0000000E+04;  0.0000000E+00;  3.9994129E+04;  4.7784869E-02;  0.0000000E+00; -7.2669364E-03;  7.1630560E+02;
  5.5079710E-01;  9.9999998E-03; -1.6002747E-01;5815;  3.0436984E-03;  0.0000000E+00;  1.4294958E-03;  1.0005934E+03;  1.0004857E-01;  4.9164038E+02;3;  4.1574984E+00;  0.0000000E+00; -2.4550067E-01;0;  3.7760161E-02;  4.0013195E+04;  0.0000000E+00;  5.0119527E-02;  4.0000000E+04;  0.0000000E+00;  3.9992910E+04;  4.5408733E-02;  0.0000000E+00; -7.6485737E-03;  8.8755212E+02;
  5.5080247E-01;  9.9999998E-03; -1.5002327E-01;5816;  2.8535377E-03;  0.0000000E+00;  1.3657577E-03;  1.0006212E+03;  1.0004828E-01;  5.1465210E+02;3;  4.2259188E+00;  0.0000000E+00; -2.5076589E-01;0;  3.5315890E-02;  4.0016375E+04;  0.0000000E+00;  3.0533079E-02;  4.0000000E+04;  0.0000000E+00;  3.9991988E+04;  4.3363184E-02;  0.0000000E+00; -8.0472939E-03;  1.0171307E+03;
  5.5080801E-01;  9.9999998E-03; -1.4002018E-01;5817;  2.6247483E-03;  0.0000000E+00;  1.3098036E-03;  1.0006254E+03;  1.0004857E-01;  5.1810876E+02;3;  4.2573733E+00;  0.0000000E+00; -2.5187385E-01;0;  3.3177800E-02;  4.0016898E+04;  0.0000000E+00;  9.7574582E-03;  4.0000000E+04;  0.0000000E+00;  3.9991383E+04;  4.1635260E-02;  0.0000000E+00; -8.4574614E-03;  1.0959445E+03;
  5.5081302E-01;  9.9999998E-03; -1.3001829E-01;5818;  2.3916929E-03;  0.0000000E+00;  1.2501571E-03;  1.0005981E+03;  1.0004845E-01;  4.9559088E+02;3;  4.2747202E+00;  0.0000000E+00; -2.4516743E-01;0;  3.1321667E-02;  4.0015352E+04;  0.0000000E+00; -1.0397332E-02;  4.0000000E+04;  0.0000000E+00;  3.9991148E+04;  4.0193565E-02;  0.0000000E+00; -8.8718990E-03;  1.1254550E+03;
  5.5081648E-01;  9.9999998E-03; -1.2001751E-01;5819;  2.1613319E-03;  0.0000000E+00;  1.1835338E-03;  1.0005599E+03;  1.0004851E-01;  4.6388809E+02;3;  4.2855835E+00;  0.0000000E+00; -2.3474337E-01;0;  2.9720221E-02;  4.0011875E+04;  0.0000000E+00; -2.8688638E-02;  4.0000000E+04;  0.0000000E+00;  3.9991125E+04;  3.9004572E-02;  0.0000000E+00; -9.2843520E-03;  1.1146057E+03;
  5.5081820E-01;  9.9999998E-03; -1.1001743E-01;5820;  1.9343861E-03;  0.0000000E+00;  1.1095634E-03;  1.0005112E+03;  1.0004858E-01;  4.2349417E+02;3;  4.2866788E+00;  0.0000000E+00; -2.2394113E-01;0;  2.8344475E-02;  4.0007387E+04;  0.0000000E+00; -4.3968141E-02;  4.0000000E+04;  0.0000000E+00;  3.9991438E+04;  3.8034569E-02;  0.0000000E+00; -9.6900957E-03;  1.0753210E+03;
  5.6098562E-01;  9.9999998E-03; -2.7001056E-01;5865;  6.3448427E-03;  0.0000000E+00;  2.3601409E-03;  9.9920886E+02;  1.0007987E-01; -6.5543823E+02;3;  3.5578854E+00;  0.0000000E+00; -1.2849474E-01;0;  7.6491334E-02;  3.9865887E+04;  0.0000000E+00; -1.5899755E-01;  4.0000000E+04;  0.0000000E+00;  4.0005465E+04;  8.0124065E-02;  0.0000000E+00; -3.6327308E-03;  8.5872546E+02;
  5.6100577E-01;  9.9999998E-03; -2.6001152E-01;5866;  5.9824609E-03;  0.0000000E+00;  2.2195538E-03;  9.9932159E+02;  1.0007985E-01; -5.6205811E+02;3;  3.6443396E+00;  0.0000000E+00; -1.7596149E-01;0;  7.3406264E-02;  3.9876004E+04;  0.0000000E+00; -1.5753992E-01;  4.0000000E+04;  0.0000000E+00;  4.0004242E+04;  7.6749302E-02;  0.0000000E+00; -3.3430380E-03;  6.9778699E+02;
  5.6100011E-01;  9.9999998E-03; -2.5001323E-01;5867;  5.6816954E-03;  0.0000000E+00;  2.0754558E-03;  9.9945520E+02;  1.0007981E-01; -4.5134521E+02;3;  3.7336874E+00;  0.0000000E+00; -2.1911368E-01;0;  6.9772691E-02;  3.9887754E+04;  0.0000000E+00; -1.1986928E-01;  4.0000000E+04;  0.0000000E+00;  4.0003332E+04;  7.3178381E-02;  0.0000000E+00; -3.4056890E-03;  5.5078345E+02;
  5.6096834E-01;  9.9999998E-03; -2.4001551E-01;5868;  5.3793993E-03;  0.0000000E+00;  1.9569381E-03;  9.9961023E+02;  1.0007977E-01; -3.2290442E+02;3;  3.8116028E+00;  0.0000000E+00; -2.4984327E-01;0;  6.5617897E-02;  3.9900445E+04;  0.0000000E+00; -7.6492213E-02;  4.0000000E+04;  0.0000000E+00;  4.0002469E+04;  6.9479398E-02;  0.0000000E+00; -3.8615018E-03;  4.4814789E+02;
  5.6092471E-01;  9.9999998E-03; -2.3002151E-01;5869;  4.9934681E-03;  0.0000000E+00;  1.9160153E-03;  9.9976550E+02;  1.0007978E-01; -1.9426610E+02;3;  3.8710582E+00;  0.0000000E+00; -2.6723751E-01;0;  6.1097085E-02;  3.9913680E+04;  0.0000000E+00; -3.9337922E-02;  4.0000000E+04;  0.0000000E+00;  4.0001363E+04;  6.5734148E-02;  0.0000000E+00; -4.6370639E-03;  2.7874463E+02;
  5.6088221E-01;  9.9999998E-03; -2.2003460E-01;5870;  4.6171937E-03;  0.0000000E+00;  1.8942807E-03;  9.9991840E+02;  1.0008001E-01; -6.7603020E+01;3;  3.9174414E+00;  0.0000000E+00; -2.7713397E-01;0;  5.6696892E-02;  3.9927480E+04;  0.0000000E+00; -7.8653209E-03;  4.0000000E+04;  0.0000000E+00;  3.9999883E+04;  6.2004242E-02;  0.0000000E+00; -5.3073494E-03;  4.9516193E+01;
  5.6084549E-01;  9.9999998E-03; -2.1004660E-01;5871;  4.3134936E-03;  0.0000000E+00;  1.8514897E-03;  1.0000848E+03;  1.0007975E-01;  7.0220230E+01;3;  3.9697270E+00;  0.0000000E+00; -2.8337422E-01;0;  5.2527152E-02;  3.9940980E+04;  0.0000000E+00;  1.9043429E-02;  4.0000000E+04;  0.0000000E+00;  3.9999164E+04;  5.8357548E-02;  0.0000000E+00; -5.8303950E-03;  5.9059429E+01;
  5.6081778E-01;  9.9999998E-03; -2.0005141E-01;5872;  4.0453053E-03;  0.0000000E+00;  1.8089270E-03;  1.0002401E+03;  1.0007975E-01;  1.9890794E+02;3;  4.0247345E+00;  0.0000000E+00; -2.8590697E-01;0;  4.8573904E-02;  3.9953676E+04;  0.0000000E+00;  4.0546514E-02;  4.0000000E+04;  0.0000000E+00;  3.9998879E+04;  5.4877367E-02;  0.0000000E+00; -6.3034617E-03;  1.1260468E+02;
  5.6079978E-01;  9.9999998E-03; -1.9005041E-01;5873;  3.8020054E-03;  0.0000000E+00;  1.7667681E-03;  1.0003747E+03;  1.0007992E-01;  3.1041095E+02;3;  4.0817089E+00;  0.0000000E+00; -2.8517151E-01;0;  4.4887204E-02;  3.9965086E+04;  0.0000000E+00;  5.5788789E-02;  4.0000000E+04;  0.0000000E+00;  3.9998172E+04;  5.1639013E-02;  0.0000000E+00; -6.7518093E-03;  2.0832738E+02;
  5.6079006E-01;  9.9999998E-03; -1.8004665E-01;5874;  3.5819754E-03;  0.0000000E+00;  1.7185604E-03;  1.0004816E+03;  1.0007997E-01;  3.9900104E+02;3;  4.1351762E+00;  0.0000000E+00; -2.8319943E-01;0;  4.1511409E-02;  3.9974734E+04;  0.0000000E+00;  6.4590514E-02;  4.0000000E+04;  0.0000000E+00;  3.9996926E+04;  4.8704986E-02;  0.0000000E+00; -7.1935779E-03;  3.6425534E+02;
  5.6078774E-01;  9.9999998E-03; -1.7004186E-01;5875;  3.3668068E-03;  0.0000000E+00;  1.6684501E-03;  1.0005540E+03;  1.0007987E-01;  4.5894995E+02;3;  4.1879740E+00;  0.0000000E+00; -2.8203726E-01;0;  3.8479764E-02;  3.9982000E+04;  0.0000000E+00;  6.7772195E-02;  4.0000000E+04;  0.0000000E+00;  3.9995418E+04;  4.6123717E-02;  0.0000000E+00; -7.6439520E-03;  5.5096539E+02;
  5.6079102E-01;  9.9999998E-03; -1.6003695E-01;5876;  3.1376302E-03;  0.0000000E+00;  1.6210316E-03;  1.0005988E+03;  1.0007964E-01;  4.9608469E+02;3;  4.2366881E+00;  0.0000000E+00; -2.8131980E-01;0;  3.5814755E-02;  3.9986777E+04;  0.0000000E+00;  6.6732489E-02;  4.0000000E+04;  0.0000000E+00;  3.9994105E+04;  4.3923892E-02;  0.0000000E+00; -8.1091374E-03;  7.3205121E+02;
  5.6079865E-01;  9.9999998E-03; -1.5003264E-01;5877;  2.9000700E-03;  0.0000000E+00;  1.5760886E-03;  1.0006112E+03;  1.0007985E-01;  5.0635602E+02;3;  4.2601299E+00;  0.0000000E+00; -2.7524734E-01;0;  3.3520274E-02;  3.9989109E+04;  0.0000000E+00;  6.2859088E-02;  4.0000000E+04;  0.0000000E+00;  3.9992859E+04;  4.2108946E-02;  0.0000000E+00; -8.5886698E-03;  8.8081775E+02;
  5.6080818E-01;  9.9999998E-03; -1.4002946E-01;5878;  2.6698140E-03;  0.0000000E+00;  1.5259585E-03;  1.0005996E+03;  1.0007970E-01;  4.9677603E+02;3;  4.2801385E+00;  0.0000000E+00; -2.6781985E-01;0;  3.1583190E-02;  3.9988672E+04;  0.0000000E+00;  5.6975730E-02;  4.0000000E+04;  0.0000000E+00;  3.9991883E+04;  4.0660441E-02;  0.0000000E+00; -9.0772528E-03;  9.8348676E+02;
  5.6081760E-01;  9.9999998E-03; -1.3002758E-01;5879;  2.4455350E-03;  0.0000000E+00;  1.4677505E-03;  1.0005626E+03;  1.0007964E-01;  4.6615961E+02;3;  4.2929254E+00;  0.0000000E+00; -2.5565216E-01;0;  2.9978761E-02;  3.9986074E+04;  0.0000000E+00;  4.9222581E-02;  4.0000000E+04;  0.0000000E+00;  3.9991750E+04;  3.9546523E-02;  0.0000000E+00; -9.5677618E-03;  1.0384559E+03;
  5.6082559E-01;  9.9999998E-03; -1.2002669E-01;5880;  2.2246216E-03;  0.0000000E+00;  1.3998136E-03;  1.0005049E+03;  1.0007966E-01;  4.1835852E+02;3;  4.3008580E+00;  0.0000000E+00; -2.4261229E-01;0;  2.8673492E-02;  3.9981617E+04;  0.0000000E+00;  3.9538391E-02;  4.0000000E+04;  0.0000000E+00;  3.9991391E+04;  3.8727988E-02;  0.0000000E+00; -1.0054494E-02;  1.0525802E+03;
  5.6083161E-01;  9.9999998E-03; -1.1002626E-01;5881;  2.0092302E-03;  0.0000000E+00;  1.3217082E-03;  1.0004333E+03;  1.0007960E-01;  3.5900217E+02;3;  4.3047915E+00;  0.0000000E+00; -2.2695494E-01;0;  2.7628724E-02;  3.9975930E+04;  0.0000000E+00;  2.8364589E-02;  4.0000000E+04;  0.0000000E+00;  3.9991273E+04;  3.8161978E-02;  0.0000000E+00; -1.0533256E-02;  1.0367147E+03;
  5.7112294E-01;  9.9999998E-03; -2.7001134E-01;5926;  7.4559306E-03;  0.0000000E+00;  2.4468615E-03;  9.9941486E+02;  1.0013127E-01; -4.8477637E+02;3;  3.8578975E+00;  0.0000000E+00; -1.5704742E-01;0;  7.6082118E-02;  3.9844148E+04;  0.0000000E+00; -2.6689136E-01;  4.0000000E+04;  0.0000000E+00;  4.0002918E+04;  7.8153923E-02;  0.0000000E+00; -2.0718030E-03;  6.2253577E+02;
  5.7113993E-01;  9.9999998E-03; -2.6001137E-01;5927;  6.9478508E-03;  0.0000000E+00;  2.2963544E-03;  9.9951831E+02;  1.0013119E-01; -3.9905042E+02;3;  3.9200087E+00;  0.0000000E+00; -2.2409831E-01;0;  7.2809130E-02;  3.9853023E+04;  0.0000000E+00; -2.1384306E-01;  4.0000000E+04;  0.0000000E+00;  4.0002113E+04;  7.4768461E-02;  0.0000000E+00; -1.9593297E-03;  4.8852823E+02;
  5.7112294E-01;  9.9999998E-03; -2.5001219E-01;5928;  6.4776712E-03;  0.0000000E+00;  2.1612130E-03;  9.9964282E+02;  1.0013124E-01; -2.9589285E+02;3;  3.9888754E+00;  0.0000000E+00; -2.7642784E-01;0;  6.8808384E-02;  3.9863320E+04;  0.0000000E+00; -1.3952945E-01;  4.0000000E+04;  0.0000000E+00;  4.0001371E+04;  7.1198002E-02;  0.0000000E+00; -2.3896163E-03;  3.6707068E+02;
  5.7107985E-01;  9.9999998E-03; -2.4001358E-01;5929;  6.0044159E-03;  0.0000000E+00;  2.0634301E-03;  9.9978674E+02;  1.0013139E-01; -1.7668634E+02;3;  4.0371242E+00;  0.0000000E+00; -3.0446827E-01;0;  6.4300217E-02;  3.9874426E+04;  0.0000000E+00; -8.2139626E-02;  4.0000000E+04;  0.0000000E+00;  4.0001312E+04;  6.7516901E-02;  0.0000000E+00; -3.2166834E-03;  3.1067270E+02;
  5.7102400E-01;  9.9999998E-03; -2.3001820E-01;5930;  5.4639811E-03;  0.0000000E+00;  2.0483583E-03;  9.9992798E+02;  1.0013141E-01; -5.9652630E+01;3;  4.0509305E+00;  0.0000000E+00; -3.1970301E-01;0;  5.9521373E-02;  3.9886082E+04;  0.0000000E+00; -4.5366276E-02;  4.0000000E+04;  0.0000000E+00;  4.0000719E+04;  6.3815460E-02;  0.0000000E+00; -4.2940872E-03;  2.2082423E+02;
  5.7096744E-01;  9.9999998E-03; -2.2003092E-01;5931;  4.9484349E-03;  0.0000000E+00;  2.0605361E-03;  1.0000651E+03;  1.0013144E-01;  5.3924397E+01;3;  4.0498648E+00;  0.0000000E+00; -3.2419366E-01;0;  5.4954760E-02;  3.9897918E+04;  0.0000000E+00; -2.0478990E-02;  4.0000000E+04;  0.0000000E+00;  3.9999477E+04;  6.0160760E-02;  0.0000000E+00; -5.2059987E-03;  4.6794189E+01;
  5.7091647E-01;  9.9999998E-03; -2.1004403E-01;5932;  4.5429012E-03;  0.0000000E+00;  2.0398884E-03;  1.0002084E+03;  1.0013153E-01;  1.7263708E+02;3;  4.0699563E+00;  0.0000000E+00; -3.2367304E-01;0;  5.0727557E-02;  3.9909754E+04;  0.0000000E+00; -4.9017207E-04;  4.0000000E+04;  0.0000000E+00;  3.9998934E+04;  5.6619737E-02;  0.0000000E+00; -5.8921799E-03;  2.8830824E+01;
  5.7087529E-01;  9.9999998E-03; -2.0005012E-01;5933;  4.2042099E-03;  0.0000000E+00;  2.0094996E-03;  1.0003487E+03;  1.0013146E-01;  2.8888071E+02;3;  4.1015716E+00;  0.0000000E+00; -3.2230109E-01;0;  4.6789464E-02;  3.9920766E+04;  0.0000000E+00;  1.7156109E-02;  4.0000000E+04;  0.0000000E+00;  3.9999117E+04;  5.3282242E-02;  0.0000000E+00; -6.4927787E-03;  4.0557453E+01;
  5.7084543E-01;  9.9999998E-03; -1.9005004E-01;5934;  3.9116750E-03;  0.0000000E+00;  1.9739820E-03;  1.0004671E+03;  1.0013139E-01;  3.8695200E+02;3;  4.1365099E+00;  0.0000000E+00; -3.1904063E-01;0;  4.3174110E-02;  3.9930469E+04;  0.0000000E+00;  3.3284433E-02;  4.0000000E+04;  0.0000000E+00;  3.9998742E+04;  5.0227586E-02;  0.0000000E+00; -7.0534763E-03;  1.0294408E+02;
  5.7082689E-01;  9.9999998E-03; -1.8004683E-01;5935;  3.6524024E-03;  0.0000000E+00;  1.9308764E-03;  1.0005520E+03;  1.0013138E-01;  4.5736975E+02;3;  4.1753893E+00;  0.0000000E+00; -3.1321180E-01;0;  3.9921638E-02;  3.9938363E+04;  0.0000000E+00;  4.8294444E-02;  4.0000000E+04;  0.0000000E+00;  3.9997582E+04;  4.7520936E-02;  0.0000000E+00; -7.5992988E-03;  2.3643163E+02;
  5.7081848E-01;  9.9999998E-03; -1.7004232E-01;5936;  3.3996077E-03;  0.0000000E+00;  1.8879446E-03;  1.0006115E+03;  1.0013123E-01;  5.0665231E+02;3;  4.2179847E+00;  0.0000000E+00; -3.1140763E-01;0;  3.7064444E-02;  3.9944160E+04;  0.0000000E+00;  6.2724553E-02;  4.0000000E+04;  0.0000000E+00;  3.9996227E+04;  4.5211870E-02;  0.0000000E+00; -8.1474259E-03;  4.1441461E+02;
  5.7081932E-01;  9.9999998E-03; -1.6003747E-01;5937;  3.1478340E-03;  0.0000000E+00;  1.8462979E-03;  1.0006360E+03;  1.0013103E-01;  5.2689862E+02;3;  4.2470837E+00;  0.0000000E+00; -3.0296353E-01;0;  3.4620173E-02;  3.9947543E+04;  0.0000000E+00;  7.6842964E-02;  4.0000000E+04;  0.0000000E+00;  3.9994910E+04;  4.3324780E-02;  0.0000000E+00; -8.7046074E-03;  5.9887396E+02;
  5.7082736E-01;  9.9999998E-03; -1.5003316E-01;5938;  2.9071530E-03;  0.0000000E+00;  1.8010468E-03;  1.0006374E+03;  1.0013118E-01;  5.2808380E+02;3;  4.2702084E+00;  0.0000000E+00; -2.9485935E-01;0;  3.2588318E-02;  3.9948609E+04;  0.0000000E+00;  9.0184771E-02;  4.0000000E+04;  0.0000000E+00;  3.9993539E+04;  4.1859113E-02;  0.0000000E+00; -9.2707928E-03;  7.6020569E+02;
  5.7084042E-01;  9.9999998E-03; -1.4002997E-01;5939;  2.6782942E-03;  0.0000000E+00;  1.7495097E-03;  1.0006080E+03;  1.0013114E-01;  5.0378818E+02;3;  4.2863879E+00;  0.0000000E+00; -2.7978083E-01;0;  3.0954925E-02;  3.9947441E+04;  0.0000000E+00;  1.0150793E-01;  4.0000000E+04;  0.0000000E+00;  3.9992531E+04;  4.0795375E-02;  0.0000000E+00; -9.8404493E-03;  8.8159265E+02;
  5.7085669E-01;  9.9999998E-03; -1.3002789E-01;5940;  2.4609074E-03;  0.0000000E+00;  1.6877990E-03;  1.0005558E+03;  1.0013101E-01;  4.6053015E+02;3;  4.3011451E+00;  0.0000000E+00; -2.6574439E-01;0;  2.9691648E-02;  3.9944281E+04;  0.0000000E+00;  1.0904824E-01;  4.0000000E+04;  0.0000000E+00;  3.9991848E+04;  4.0098395E-02;  0.0000000E+00; -1.0406747E-02;  9.5846191E+02;
  5.7087332E-01;  9.9999998E-03; -1.2002666E-01;5941;  2.2504074E-03;  0.0000000E+00;  1.6150516E-03;  1.0004896E+03;  1.0013115E-01;  4.0561813E+02;3;  4.3087435E+00;  0.0000000E+00; -2.4887046E-01;0;  2.8758910E-02;  3.9939141E+04;  0.0000000E+00;  1.1112682E-01;  4.0000000E+04;  0.0000000E+00;  3.9991449E+04;  3.9724037E-02;  0.0000000E+00; -1.0965127E-02;  9.9510730E+02;
  5.7088846E-01;  9.9999998E-03; -1.1002557E-01;5942;  2.0472510E-03;  0.0000000E+00;  1.5305011E-03;  1.0004091E+03;  1.0013121E-01;  3.3895334E+02;3;  4.3117819E+00;  0.0000000E+00; -2.3189011E-01;0;  2.8110132E-02;  3.9932758E+04;  0.0000000E+00;  1.0701582E-01;  4.0000000E+04;  0.0000000E+00;  3.9991430E+04;  3.9622560E-02;  0.0000000E+00; -1.1512429E-02;  1.0006232E+03;
  5.8125210E-01;  9.9999998E-03; -2.7001241E-01;5987;  8.7171420E-03;  0.0000000E+00;  2.5280111E-03;  9.9961743E+02;  1.0021430E-01; -3.1692929E+02;3;  4.2348266E+00;  0.0000000E+00; -2.0072635E-01;0;  7.5497687E-02;  3.9797262E+04;  0.0000000E+00; -4.0380365E-01;  4.0000000E+04;  0.0000000E+00;  3.9999785E+04;  7.5631246E-02;  0.0000000E+00; -1.3356263E-04;  5.7944373E+02;
  5.8126962E-01;  9.9999998E-03; -2.6001090E-01;5988;  8.0288025E-03;  0.0000000E+00;  2.3776162E-03;  9.9971271E+02;  1.0021447E-01; -2.3801794E+02;3;  4.2715569E+00;  0.0000000E+00; -2.7775398E-01;0;  7.2065555E-02;  3.9804645E+04;  0.0000000E+00; -2.8487161E-01;  4.0000000E+04;  0.0000000E+00;  3.9999559E+04;  7.2441198E-02;  0.0000000E+00; -3.7564640E-04;  4.0907770E+02;
  5.8125395E-01;  9.9999998E-03; -2.5000978E-01;5989;  7.3436680E-03;  0.0000000E+00;  2.2626726E-03;  9.9982233E+02;  1.0021477E-01; -1.4720570E+02;3;  4.2884150E+00;  0.0000000E+00; -3.3265966E-01;0;  6.7779891E-02;  3.9813465E+04;  0.0000000E+00; -1.6770384E-01;  4.0000000E+04;  0.0000000E+00;  3.9999551E+04;  6.9091916E-02;  0.0000000E+00; -1.3120224E-03;  2.6217218E+02;
  5.8120596E-01;  9.9999998E-03; -2.4000905E-01;5990;  6.6584968E-03;  0.0000000E+00;  2.1935608E-03;  9.9995367E+02;  1.0021478E-01; -3.8369282E+01;3;  4.2820921E+00;  0.0000000E+00; -3.7410477E-01;0;  6.3063532E-02;  3.9822941E+04;  0.0000000E+00; -8.7618910E-02;  4.0000000E+04;  0.0000000E+00;  4.0000109E+04;  6.5655209E-02;  0.0000000E+00; -2.5916772E-03;  2.1208803E+02;
  5.8114058E-01;  9.9999998E-03; -2.3001043E-01;5991;  5.9200870E-03;  0.0000000E+00;  2.2250775E-03;  1.0000822E+03;  1.0021497E-01;  6.8146217E+01;3;  4.2289615E+00;  0.0000000E+00; -3.8302031E-01;0;  5.8163226E-02;  3.9832922E+04;  0.0000000E+00; -4.6016973E-02;  4.0000000E+04;  0.0000000E+00;  4.0000059E+04;  6.2225707E-02;  0.0000000E+00; -4.0624803E-03;  1.9365781E+02;
  5.8107311E-01;  9.9999998E-03; -2.2002056E-01;5992;  5.2235560E-03;  0.0000000E+00;  2.2923143E-03;  1.0001992E+03;  1.0021490E-01;  1.6503236E+02;3;  4.1623197E+00;  0.0000000E+00; -3.6576450E-01;0;  5.3610876E-02;  3.9843000E+04;  0.0000000E+00; -2.6361806E-02;  4.0000000E+04;  0.0000000E+00;  3.9999008E+04;  5.8870614E-02;  0.0000000E+00; -5.2597364E-03;  5.9508289E+01;
  5.8101076E-01;  9.9999998E-03; -2.1003370E-01;5993;  4.7004679E-03;  0.0000000E+00;  2.2934168E-03;  1.0003176E+03;  1.0021475E-01;  2.6310364E+02;3;  4.1367850E+00;  0.0000000E+00; -3.5489348E-01;0;  4.9545072E-02;  3.9852879E+04;  0.0000000E+00; -1.4417046E-02;  4.0000000E+04;  0.0000000E+00;  3.9998527E+04;  5.5645909E-02;  0.0000000E+00; -6.1008371E-03;  2.7175692E+01;
  5.8095777E-01;  9.9999998E-03; -2.0004128E-01;5994;  4.2929808E-03;  0.0000000E+00;  2.2645402E-03;  1.0004341E+03;  1.0021470E-01;  3.5969351E+02;3;  4.1435957E+00;  0.0000000E+00; -3.4791210E-01;0;  4.5824964E-02;  3.9861730E+04;  0.0000000E+00; -3.1470868E-03;  4.0000000E+04;  0.0000000E+00;  3.9998738E+04;  5.2646402E-02;  0.0000000E+00; -6.8214401E-03;  1.6836964E+01;
  5.8091694E-01;  9.9999998E-03; -1.9004282E-01;5995;  3.9587235E-03;  0.0000000E+00;  2.2243927E-03;  1.0005300E+03;  1.0021468E-01;  4.3909866E+02;3;  4.1640577E+00;  0.0000000E+00; -3.4073189E-01;0;  4.2457651E-02;  3.9869488E+04;  0.0000000E+00;  1.0668322E-02;  4.0000000E+04;  0.0000000E+00;  3.9998551E+04;  4.9954984E-02;  0.0000000E+00; -7.4973330E-03;  5.4729988E+01;
  5.8088893E-01;  9.9999998E-03; -1.8004102E-01;5996;  3.6683462E-03;  0.0000000E+00;  2.1782229E-03;  1.0005991E+03;  1.0021465E-01;  4.9628223E+02;3;  4.1946974E+00;  0.0000000E+00; -3.3711979E-01;0;  3.9482430E-02;  3.9875680E+04;  0.0000000E+00;  2.8515017E-02;  4.0000000E+04;  0.0000000E+00;  3.9997621E+04;  4.7637369E-02;  0.0000000E+00; -8.1549389E-03;  1.6794398E+02;
  5.8087361E-01;  9.9999998E-03; -1.7003769E-01;5997;  3.3946265E-03;  0.0000000E+00;  2.1329459E-03;  1.0006367E+03;  1.0021455E-01;  5.2749121E+02;3;  4.2261100E+00;  0.0000000E+00; -3.3165094E-01;0;  3.6932472E-02;  3.9880016E+04;  0.0000000E+00;  5.0957769E-02;  4.0000000E+04;  0.0000000E+00;  3.9996434E+04;  4.5740500E-02;  0.0000000E+00; -8.8080270E-03;  3.3097577E+02;
  5.8086973E-01;  9.9999998E-03; -1.6003378E-01;5998;  3.1373955E-03;  0.0000000E+00;  2.0864380E-03;  1.0006484E+03;  1.0021445E-01;  5.3716992E+02;3;  4.2504330E+00;  0.0000000E+00; -3.2070839E-01;0;  3.4821093E-02;  3.9882234E+04;  0.0000000E+00;  7.7437252E-02;  4.0000000E+04;  0.0000000E+00;  3.9995031E+04;  4.4283167E-02;  0.0000000E+00; -9.4620744E-03;  5.0914343E+02;
  5.8087587E-01;  9.9999998E-03; -1.5003011E-01;5999;  2.8962349E-03;  0.0000000E+00;  2.0350632E-03;  1.0006345E+03;  1.0021443E-01;  5.2561475E+02;3;  4.2709122E+00;  0.0000000E+00; -3.0830598E-01;0;  3.3146285E-02;  3.9882516E+04;  0.0000000E+00;  1.0595421E-01;  4.0000000E+04;  0.0000000E+00;  3.9993848E+04;  4.3262575E-02;  0.0000000E+00; -1.0116289E-02;  6.7294873E+02;
  5.8089000E-01;  9.9999998E-03; -1.4002721E-01;6000;  2.6712739E-03;  0.0000000E+00;  1.9761124E-03;  1.0005981E+03;  1.0021447E-01;  4.9549213E+02;3;  4.2879887E+00;  0.0000000E+00; -2.9319754E-01;0;  3.1891964E-02;  3.9880648E+04;  0.0000000E+00;  1.3340195E-01;  4.0000000E+04;  0.0000000E+00;  3.9992703E+04;  4.2656671E-02;  0.0000000E+00; -1.0764709E-02;  8.0378613E+02;
  5.8091015E-01;  9.9999998E-03; -1.3002503E-01;6001;  2.4589852E-03;  0.0000000E+00;  1.9074159E-03;  1.0005438E+03;  1.0021418E-01;  4.5045636E+02;3;  4.3012013E+00;  0.0000000E+00; -2.7493739E-01;0;  3.1027526E-02;  3.9877152E+04;  0.0000000E+00;  1.5622993E-01;  4.0000000E+04;  0.0000000E+00;  3.9992090E+04;  4.2428665E-02;  0.0000000E+00; -1.1401139E-02;  8.9431512E+02;
  5.8093476E-01;  9.9999998E-03; -1.2002307E-01;6002;  2.2583762E-03;  0.0000000E+00;  1.8264884E-03;  1.0004733E+03;  1.0021426E-01;  3.9218640E+02;3;  4.3099966E+00;  0.0000000E+00; -2.5656322E-01;0;  3.0508731E-02;  3.9872082E+04;  0.0000000E+00;  1.7115393E-01;  4.0000000E+04;  0.0000000E+00;  3.9991406E+04;  4.2531669E-02;  0.0000000E+00; -1.2022939E-02;  9.4627319E+02;
  5.8096117E-01;  9.9999998E-03; -1.1002100E-01;6003;  2.0648891E-03;  0.0000000E+00;  1.7326032E-03;  1.0003942E+03;  1.0021417E-01;  3.2660803E+02;3;  4.3128171E+00;  0.0000000E+00; -2.3778017E-01;0;  3.0284153E-02;  3.9866043E+04;  0.0000000E+00;  1.7607279E-01;  4.0000000E+04;  0.0000000E+00;  3.9991348E+04;  4.2912740E-02;  0.0000000E+00; -1.2628587E-02;  9.6668713E+02;
  5.9132290E-01;  9.9999998E-03; -2.7001336E-01;6048;  9.9970344E-03;  0.0000000E+00;  2.6232696E-03;  9.9971686E+02;  1.0034879E-01; -2.3456125E+02;3;  4.6591673E+00;  0.0000000E+00; -2.4985416E-01;0;  7.5029612E-02;  3.9701250E+04;  0.0000000E+00; -4.3926176E-01;  4.0000000E+04;  0.0000000E+00;  3.9998066E+04;  7.3129945E-02;  0.0000000E+00;  1.8996677E-03;  5.9732971E+02;
  5.9134239E-01;  9.9999998E-03; -2.6000941E-01;6049;  9.1465339E-03;  0.0000000E+00;  2.4697944E-03;  9.9980237E+02;  1.0034929E-01; -1.6374844E+02;3;  4.6575875E+00;  0.0000000E+00; -3.3679909E-01;0;  7.1623549E-02;  3.9707633E+04;  0.0000000E+00; -2.9203394E-01;  4.0000000E+04;  0.0000000E+00;  3.9998188E+04;  7.0334911E-02;  0.0000000E+00;  1.2886353E-03;  3.9774371E+02;
  5.9132922E-01;  9.9999998E-03; -2.5000522E-01;6050;  8.2601905E-03;  0.0000000E+00;  2.3808149E-03;  9.9990155E+02;  1.0034923E-01; -8.1577934E+01;3;  4.6310830E+00;  0.0000000E+00; -4.1304702E-01;0;  6.7173004E-02;  3.9715047E+04;  0.0000000E+00; -1.5991941E-01;  4.0000000E+04;  0.0000000E+00;  3.9998441E+04;  6.7424670E-02;  0.0000000E+00; -2.5166411E-04;  2.4185509E+02;
  5.9128290E-01;  9.9999998E-03; -2.4000090E-01;6051;  7.3209498E-03;  0.0000000E+00;  2.3830119E-03;  1.0000178E+03;  1.0034949E-01;  1.4715632E+01;3;  4.5510798E+00;  0.0000000E+00; -4.4390023E-01;0;  6.2258378E-02;  3.9722902E+04;  0.0000000E+00; -7.5207263E-02;  4.0000000E+04;  0.0000000E+00;  3.9999242E+04;  6.4472467E-02;  0.0000000E+00; -2.2140881E-03;  2.1871478E+02;
  5.9121573E-01;  9.9999998E-03; -2.2999857E-01;6052;  6.3296841E-03;  0.0000000E+00;  2.4987517E-03;  1.0001292E+03;  1.0034961E-01;  1.0695993E+02;3;  4.4145613E+00;  0.0000000E+00; -4.2597336E-01;0;  5.7399038E-02;  3.9731297E+04;  0.0000000E+00; -3.7025571E-02;  4.0000000E+04;  0.0000000E+00;  3.9999449E+04;  6.1557792E-02;  0.0000000E+00; -4.1587544E-03;  2.1647159E+02;
  5.9114414E-01;  9.9999998E-03; -2.2000794E-01;6053;  5.4391129E-03;  0.0000000E+00;  2.6196132E-03;  1.0002217E+03;  1.0034963E-01;  1.8369850E+02;3;  4.2669606E+00;  0.0000000E+00; -3.8539809E-01;0;  5.3150844E-02;  3.9739977E+04;  0.0000000E+00; -2.5852535E-02;  4.0000000E+04;  0.0000000E+00;  3.9997750E+04;  5.8728456E-02;  0.0000000E+00; -5.5776122E-03;  3.5666752E+01;
  5.9107673E-01;  9.9999998E-03; -2.1002403E-01;6054;  4.8148772E-03;  0.0000000E+00;  2.6201028E-03;  1.0003178E+03;  1.0034940E-01;  2.6330118E+02;3;  4.2006936E+00;  0.0000000E+00; -3.7007719E-01;0;  4.9515013E-02;  3.9748082E+04;  0.0000000E+00; -2.3703335E-02;  4.0000000E+04;  0.0000000E+00;  3.9996910E+04;  5.6024414E-02;  0.0000000E+00; -6.5094018E-03;  1.1449833E+02;
  5.9101784E-01;  9.9999998E-03; -2.0003533E-01;6055;  4.3506813E-03;  0.0000000E+00;  2.5721509E-03;  1.0004111E+03;  1.0034940E-01;  3.4063232E+02;3;  4.1775966E+00;  0.0000000E+00; -3.6150301E-01;0;  4.6224952E-02;  3.9755668E+04;  0.0000000E+00; -2.0661315E-02;  4.0000000E+04;  0.0000000E+00;  3.9997066E+04;  5.3548947E-02;  0.0000000E+00; -7.3239943E-03;  1.1405696E+02;
  5.9097028E-01;  9.9999998E-03; -1.9003981E-01;6056;  3.9795479E-03;  0.0000000E+00;  2.5126983E-03;  1.0004914E+03;  1.0034945E-01;  4.0709958E+02;3;  4.1854057E+00;  0.0000000E+00; -3.5641137E-01;0;  4.3276325E-02;  3.9761770E+04;  0.0000000E+00; -1.1859621E-02;  4.0000000E+04;  0.0000000E+00;  3.9997074E+04;  5.1386137E-02;  0.0000000E+00; -8.1098098E-03;  1.1783469E+02;
  5.9093553E-01;  9.9999998E-03; -1.8004017E-01;6057;  3.6641317E-03;  0.0000000E+00;  2.4530410E-03;  1.0005412E+03;  1.0034906E-01;  4.4838235E+02;3;  4.2046261E+00;  0.0000000E+00; -3.5320187E-01;0;  4.0717684E-02;  3.9766316E+04;  0.0000000E+00;  4.9494966E-03;  4.0000000E+04;  0.0000000E+00;  3.9996461E+04;  4.9598347E-02;  0.0000000E+00; -8.8806637E-03;  1.8912621E+02;
  5.9091449E-01;  9.9999998E-03; -1.7003824E-01;6058;  3.3817370E-03;  0.0000000E+00;  2.3949263E-03;  1.0005642E+03;  1.0034908E-01;  4.6744354E+02;3;  4.2300100E+00;  0.0000000E+00; -3.4532985E-01;0;  3.8584985E-02;  3.9769445E+04;  0.0000000E+00;  3.0497594E-02;  4.0000000E+04;  0.0000000E+00;  3.9995648E+04;  4.8225794E-02;  0.0000000E+00; -9.6408082E-03;  3.1930832E+02;
  5.9090674E-01;  9.9999998E-03; -1.6003498E-01;6059;  3.1218280E-03;  0.0000000E+00;  2.3366481E-03;  1.0005646E+03;  1.0034893E-01;  4.6783859E+02;3;  4.2533517E+00;  0.0000000E+00; -3.3591849E-01;0;  3.6892775E-02;  3.9770801E+04;  0.0000000E+00;  6.3877754E-02;  4.0000000E+04;  0.0000000E+00;  3.9994332E+04;  4.7284693E-02;  0.0000000E+00; -1.0391917E-02;  4.7578528E+02;
  5.9091115E-01;  9.9999998E-03; -1.5003127E-01;6060;  2.8811127E-03;  0.0000000E+00;  2.2744455E-03;  1.0005464E+03;  1.0034863E-01;  4.5262915E+02;3;  4.2718935E+00;  0.0000000E+00; -3.2100856E-01;0;  3.5637930E-02;  3.9770586E+04;  0.0000000E+00;  1.0225776E-01;  4.0000000E+04;  0.0000000E+00;  3.9993219E+04;  4.6769068E-02;  0.0000000E+00; -1.1131137E-02;  6.2790015E+02;
  5.9092689E-01;  9.9999998E-03; -1.4002752E-01;6061;  2.6586941E-03;  0.0000000E+00;  2.2052482E-03;  1.0005100E+03;  1.0034855E-01;  4.2250653E+02;3;  4.2857394E+00;  0.0000000E+00; -3.0404869E-01;0;  3.4803286E-02;  3.9768770E+04;  0.0000000E+00;  1.4136273E-01;  4.0000000E+04;  0.0000000E+00;  3.9992250E+04;  4.6655267E-02;  0.0000000E+00; -1.1851982E-02;  7.5459448E+02;
  5.9095216E-01;  9.9999998E-03; -1.3002370E-01;6062;  2.4534499E-03;  0.0000000E+00;  2.1251340E-03;  1.0004627E+03;  1.0034847E-01;  3.8329776E+02;3;  4.3000736E+00;  0.0000000E+00; -2.8420410E-01;0;  3.4356803E-02;  3.9765695E+04;  0.0000000E+00;  1.7639080E-01;  4.0000000E+04;  0.0000000E+00;  3.9991445E+04;  4.6906054E-02;  0.0000000E+00; -1.2549251E-02;  8.4599780E+02;
  5.9098542E-01;  9.9999998E-03; -1.2001972E-01;6063;  2.2623839E-03;  0.0000000E+00;  2.0327992E-03;  1.0004011E+03;  1.0034828E-01;  3.3223749E+02;3;  4.3092284E+00;  0.0000000E+00; -2.6353925E-01;0;  3.4253128E-02;  3.9761371E+04;  0.0000000E+00;  2.0276602E-01;  4.0000000E+04;  0.0000000E+00;  3.9991160E+04;  4.7475591E-02;  0.0000000E+00; -1.3222463E-02;  9.0166602E+02;
  5.9102309E-01;  9.9999998E-03; -1.1001587E-01;6064;  2.0835109E-03;  0.0000000E+00;  1.9276307E-03;  1.0003303E+03;  1.0034831E-01;  2.7367126E+02;3;  4.3096342E+00;  0.0000000E+00; -2.4118260E-01;0;  3.4436584E-02;  3.9756250E+04;  0.0000000E+00;  2.1713789E-01;  4.0000000E+04;  0.0000000E+00;  3.9990891E+04;  4.8308693E-02;  0.0000000E+00; -1.3872111E-02;  9.2681805E+02;
  6.0130739E-01;  9.9999998E-03; -2.7001426E-01;6109;  1.1155663E-02;  0.0000000E+00;  2.7536782E-03;  9.9963080E+02;  1.0056274E-01; -3.0586786E+02;3;  5.0751328E+00;  0.0000000E+00; -3.0232933E-01;0;  7.4949898E-02;  3.9527309E+04;  0.0000000E+00; -2.6566923E-01;  4.0000000E+04;  0.0000000E+00;  3.9997770E+04;  7.1236983E-02;  0.0000000E+00;  3.7129140E-03;  4.1789066E+02;
  6.0132813E-01;  9.9999998E-03; -2.6000693E-01;6110;  1.0182569E-02;  0.0000000E+00;  2.6094331E-03;  9.9970929E+02;  1.0056362E-01; -2.4083267E+02;3;  5.0452023E+00;  0.0000000E+00; -3.9991787E-01;0;  7.1627907E-02;  3.9532477E+04;  0.0000000E+00; -1.6513325E-01;  4.0000000E+04;  0.0000000E+00;  3.9998254E+04;  6.9000892E-02;  0.0000000E+00;  2.6270186E-03;  3.4812308E+02;
  6.0131884E-01;  9.9999998E-03; -2.4999841E-01;6111;  9.1055427E-03;  0.0000000E+00;  2.5743833E-03;  9.9980505E+02;  1.0056366E-01; -1.6152629E+02;3;  4.9675088E+00;  0.0000000E+00; -4.7277650E-01;0;  6.7059278E-02;  3.9538754E+04;  0.0000000E+00; -7.6258220E-02;  4.0000000E+04;  0.0000000E+00;  3.9998859E+04;  6.6719443E-02;  0.0000000E+00;  3.3983606E-04;  3.6686783E+02;
  6.0127717E-01;  9.9999998E-03; -2.3998885E-01;6112;  7.9135727E-03;  0.0000000E+00;  2.6781659E-03;  9.9991052E+02;  1.0056426E-01; -7.4121353E+01;3;  4.8152046E+00;  0.0000000E+00; -4.9915674E-01;0;  6.2094443E-02;  3.9546016E+04;  0.0000000E+00; -2.5186760E-02;  4.0000000E+04;  0.0000000E+00;  3.9999730E+04;  6.4454764E-02;  0.0000000E+00; -2.3603200E-03;  4.3269113E+02;
  6.0121518E-01;  9.9999998E-03; -2.2998235E-01;6113;  6.6588842E-03;  0.0000000E+00;  2.8998661E-03;  1.0000001E+03;  1.0056435E-01;  9.8762631E-02;3;  4.5771408E+00;  0.0000000E+00; -4.4623601E-01;0;  5.7531454E-02;  3.9553426E+04;  0.0000000E+00; -1.1951300E-02;  4.0000000E+04;  0.0000000E+00;  3.9999219E+04;  6.2262103E-02;  0.0000000E+00; -4.7306479E-03;  3.6023389E+02;
  6.0114723E-01;  9.9999998E-03; -2.1999262E-01;6114;  5.6192679E-03;  0.0000000E+00;  3.0382297E-03;  1.0000624E+03;  1.0056438E-01;  5.1751617E+01;3;  4.3626451E+00;  0.0000000E+00; -3.8518834E-01;0;  5.3948607E-02;  3.9561074E+04;  0.0000000E+00; -1.9159164E-02;  4.0000000E+04;  0.0000000E+00;  3.9996219E+04;  6.0143963E-02;  0.0000000E+00; -6.1953538E-03;  2.2780066E+01;
  6.0108179E-01;  9.9999998E-03; -2.1001390E-01;6115;  4.9233846E-03;  0.0000000E+00;  3.0080588E-03;  1.0001331E+03;  1.0056417E-01;  1.1031786E+02;3;  4.2634726E+00;  0.0000000E+00; -3.6767310E-01;0;  5.1000964E-02;  3.9568535E+04;  0.0000000E+00; -3.1102134E-02;  4.0000000E+04;  0.0000000E+00;  3.9994195E+04;  5.8137182E-02;  0.0000000E+00; -7.1362173E-03;  2.6475583E+02;
  6.0102284E-01;  9.9999998E-03; -2.0003054E-01;6116;  4.4138189E-03;  0.0000000E+00;  2.9235142E-03;  1.0002125E+03;  1.0056413E-01;  1.7599501E+02;3;  4.2181201E+00;  0.0000000E+00; -3.6392871E-01;0;  4.8330523E-02;  3.9574996E+04;  0.0000000E+00; -3.8659077E-02;  4.0000000E+04;  0.0000000E+00;  3.9994074E+04;  5.6346558E-02;  0.0000000E+00; -8.0160359E-03;  2.9317822E+02;
  6.0097426E-01;  9.9999998E-03; -1.9003879E-01;6117;  4.0068082E-03;  0.0000000E+00;  2.8340709E-03;  1.0002843E+03;  1.0056392E-01;  2.3554887E+02;3;  4.2068658E+00;  0.0000000E+00; -3.6558822E-01;0;  4.5949351E-02;  3.9580531E+04;  0.0000000E+00; -3.7463613E-02;  4.0000000E+04;  0.0000000E+00;  3.9994375E+04;  5.4850746E-02;  0.0000000E+00; -8.9013940E-03;  2.7125150E+02;
  6.0093814E-01;  9.9999998E-03; -1.8004104E-01;6118;  3.6670344E-03;  0.0000000E+00;  2.7503802E-03;  1.0003298E+03;  1.0056404E-01;  2.7317743E+02;3;  4.2171984E+00;  0.0000000E+00; -3.6225694E-01;0;  4.3922588E-02;  3.9584363E+04;  0.0000000E+00; -2.5572887E-02;  4.0000000E+04;  0.0000000E+00;  3.9994129E+04;  5.3703200E-02;  0.0000000E+00; -9.7806118E-03;  2.9726245E+02;
  6.0091645E-01;  9.9999998E-03; -1.7003958E-01;6119;  3.3735503E-03;  0.0000000E+00;  2.6731412E-03;  1.0003516E+03;  1.0056351E-01;  2.9134976E+02;3;  4.2349124E+00;  0.0000000E+00; -3.5540509E-01;0;  4.2291641E-02;  3.9586789E+04;  0.0000000E+00; -2.5365190E-03;  4.0000000E+04;  0.0000000E+00;  3.9993426E+04;  5.2936498E-02;  0.0000000E+00; -1.0644857E-02;  3.8215677E+02;
  6.0091025E-01;  9.9999998E-03; -1.6003557E-01;6120;  3.1095331E-03;  0.0000000E+00;  2.5983597E-03;  1.0003492E+03;  1.0056325E-01;  2.8927576E+02;3;  4.2538953E+00;  0.0000000E+00; -3.4438545E-01;0;  4.1074686E-02;  3.9587883E+04;  0.0000000E+00;  3.0716034E-02;  4.0000000E+04;  0.0000000E+00;  3.9992602E+04;  5.2563835E-02;  0.0000000E+00; -1.1489148E-02;  5.0203827E+02;
  6.0091919E-01;  9.9999998E-03; -1.5002996E-01;6121;  2.8687927E-03;  0.0000000E+00;  2.5210571E-03;  1.0003337E+03;  1.0056295E-01;  2.7653537E+02;3;  4.2717557E+00;  0.0000000E+00; -3.3099666E-01;0;  4.0269714E-02;  3.9587789E+04;  0.0000000E+00;  7.1365863E-02;  4.0000000E+04;  0.0000000E+00;  3.9991355E+04;  5.2577183E-02;  0.0000000E+00; -1.2307470E-02;  6.2644678E+02;
  6.0094178E-01;  9.9999998E-03; -1.4002390E-01;6122;  2.6506390E-03;  0.0000000E+00;  2.4360260E-03;  1.0003046E+03;  1.0056274E-01;  2.5233852E+02;3;  4.2846231E+00;  0.0000000E+00; -3.1375498E-01;0;  3.9859407E-02;  3.9586492E+04;  0.0000000E+00;  1.1499857E-01;  4.0000000E+04;  0.0000000E+00;  3.9990672E+04;  5.2951545E-02;  0.0000000E+00; -1.3092137E-02;  7.3230487E+02;
  6.0097462E-01;  9.9999998E-03; -1.3001841E-01;6123;  2.4529363E-03;  0.0000000E+00;  2.3419750E-03;  1.0002682E+03;  1.0056226E-01;  2.2221593E+02;3;  4.2975259E+00;  0.0000000E+00; -2.9309991E-01;0;  3.9811537E-02;  3.9584531E+04;  0.0000000E+00;  1.5654486E-01;  4.0000000E+04;  0.0000000E+00;  3.9990312E+04;  5.3650212E-02;  0.0000000E+00; -1.3838673E-02;  8.0828241E+02;
  6.0101336E-01;  9.9999998E-03; -1.2001421E-01;6124;  2.2755275E-03;  0.0000000E+00;  2.2348105E-03;  1.0002233E+03;  1.0056242E-01;  1.8498241E+02;3;  4.3042884E+00;  0.0000000E+00; -2.6964828E-01;0;  4.0078316E-02;  3.9581605E+04;  0.0000000E+00;  1.9086458E-01;  4.0000000E+04;  0.0000000E+00;  3.9989746E+04;  5.4626767E-02;  0.0000000E+00; -1.4548451E-02;  8.5281299E+02;
  6.0105389E-01;  9.9999998E-03; -1.1001147E-01;6125;  2.1171572E-03;  0.0000000E+00;  2.1139677E-03;  1.0001786E+03;  1.0056213E-01;  1.4794643E+02;3;  4.3107080E+00;  0.0000000E+00; -2.4557707E-01;0;  4.0602826E-02;  3.9578414E+04;  0.0000000E+00;  2.1375023E-01;  4.0000000E+04;  0.0000000E+00;  3.9989945E+04;  5.5827249E-02;  0.0000000E+00; -1.5224421E-02;  8.7043610E+02;
  6.1124301E-01;  9.9999998E-03; -2.7001607E-01;6170;  1.2047155E-02;  0.0000000E+00;  2.9756948E-03;  9.9935950E+02;  1.0089727E-01; -5.3065161E+02;3;  5.4141560E+00;  0.0000000E+00; -3.5386190E-01;0;  7.5045049E-02;  3.9244867E+04;  0.0000000E+00;  1.6953802E-02;  4.0000000E+04;  0.0000000E+00;  3.9998934E+04;  7.0462018E-02;  0.0000000E+00;  4.5830333E-03;  6.7617041E+02;
  6.1126208E-01;  9.9999998E-03; -2.6000488E-01;6171;  1.0981852E-02;  0.0000000E+00;  2.8709567E-03;  9.9944006E+02;  1.0089819E-01; -4.6388809E+02;3;  5.3775616E+00;  0.0000000E+00; -4.6167800E-01;0;  7.1807042E-02;  3.9249574E+04;  0.0000000E+00;  3.8607359E-02;  4.0000000E+04;  0.0000000E+00;  3.9999637E+04;  6.8901822E-02;  0.0000000E+00;  2.9052179E-03;  7.5270758E+02;
  6.1125445E-01;  9.9999998E-03; -2.4999097E-01;6172;  9.7631626E-03;  0.0000000E+00;  2.9029117E-03;  9.9953070E+02;  1.0089882E-01; -3.8882849E+02;3;  5.2576537E+00;  0.0000000E+00; -5.2232707E-01;0;  6.7383520E-02;  3.9255234E+04;  0.0000000E+00;  5.6267079E-02;  4.0000000E+04;  0.0000000E+00;  4.0000410E+04;  6.7375280E-02;  0.0000000E+00;  8.2382712E-06;  8.5280066E+02;
  6.1122036E-01;  9.9999998E-03; -2.3997445E-01;6173;  8.3992463E-03;  0.0000000E+00;  3.0869145E-03;  9.9963373E+02;  1.0089970E-01; -3.0344818E+02;3;  5.0435715E+00;  0.0000000E+00; -5.2106506E-01;0;  6.2810637E-02;  3.9262184E+04;  0.0000000E+00;  5.0656125E-02;  4.0000000E+04;  0.0000000E+00;  4.0000980E+04;  6.5925039E-02;  0.0000000E+00; -3.1144037E-03;  9.1100323E+02;
  6.1116701E-01;  9.9999998E-03; -2.2996056E-01;6174;  6.9812071E-03;  0.0000000E+00;  3.3608519E-03;  9.9971570E+02;  1.0089993E-01; -2.3554887E+02;3;  4.7392626E+00;  0.0000000E+00; -4.4203314E-01;0;  5.8963958E-02;  3.9269406E+04;  0.0000000E+00;  2.4765747E-02;  4.0000000E+04;  0.0000000E+00;  3.9999723E+04;  6.4578250E-02;  0.0000000E+00; -5.6142909E-03;  7.4292700E+02;
  6.1110741E-01;  9.9999998E-03; -2.1996790E-01;6175;  5.8355448E-03;  0.0000000E+00;  3.4972779E-03;  9.9975140E+02;  1.0089993E-01; -2.0596947E+02;3;  4.4708772E+00;  0.0000000E+00; -3.6929595E-01;0;  5.6264244E-02;  3.9276965E+04;  0.0000000E+00; -9.0437494E-03;  4.0000000E+04;  0.0000000E+00;  3.9994953E+04;  6.3309252E-02;  0.0000000E+00; -7.0450092E-03;  1.5841208E+02;
  6.1104923E-01;  9.9999998E-03; -2.0999216E-01;6176;  5.0737881E-03;  0.0000000E+00;  3.4339840E-03;  9.9980316E+02;  1.0090019E-01; -1.6305710E+02;3;  4.3423114E+00;  0.0000000E+00; -3.5401434E-01;0;  5.4169327E-02;  3.9284457E+04;  0.0000000E+00; -3.9585192E-02;  4.0000000E+04;  0.0000000E+00;  3.9991375E+04;  6.2141258E-02;  0.0000000E+00; -7.9719331E-03;  3.0844638E+02;
  6.1099589E-01;  9.9999998E-03; -2.0001359E-01;6177;  4.5112688E-03;  0.0000000E+00;  3.3103123E-03;  9.9987427E+02;  1.0089987E-01; -1.0414520E+02;3;  4.2791281E+00;  0.0000000E+00; -3.5587099E-01;0;  5.2264743E-02;  3.9291270E+04;  0.0000000E+00; -6.0592253E-02;  4.0000000E+04;  0.0000000E+00;  3.9990473E+04;  6.1163768E-02;  0.0000000E+00; -8.8990238E-03;  4.4325543E+02;
  6.1095071E-01;  9.9999998E-03; -1.9002543E-01;6178;  4.0620826E-03;  0.0000000E+00;  3.1865588E-03;  9.9994318E+02;  1.0089956E-01; -4.7060394E+01;3;  4.2498813E+00;  0.0000000E+00; -3.5858425E-01;0;  5.0568223E-02;  3.9296609E+04;  0.0000000E+00; -6.9741227E-02;  4.0000000E+04;  0.0000000E+00;  3.9990461E+04;  6.0438104E-02;  0.0000000E+00; -9.8698819E-03;  4.4506561E+02;
  6.1091697E-01;  9.9999998E-03; -1.8002985E-01;6179;  3.6903312E-03;  0.0000000E+00;  3.0726090E-03;  9.9999152E+02;  1.0089894E-01; -7.0121469E+00;3;  4.2402940E+00;  0.0000000E+00; -3.6339015E-01;0;  4.9158283E-02;  3.9300707E+04;  0.0000000E+00; -6.6599548E-02;  4.0000000E+04;  0.0000000E+00;  3.9990406E+04;  6.0005434E-02;  0.0000000E+00; -1.0847153E-02;  4.5586438E+02;
  6.1089742E-01;  9.9999998E-03; -1.7002937E-01;6180;  3.3790497E-03;  0.0000000E+00;  2.9704089E-03;  1.0000136E+03;  1.0089874E-01;  1.1258940E+01;3;  4.2435932E+00;  0.0000000E+00; -3.5801908E-01;0;  4.8081473E-02;  3.9303543E+04;  0.0000000E+00; -5.1635452E-02;  4.0000000E+04;  0.0000000E+00;  3.9989918E+04;  5.9888747E-02;  0.0000000E+00; -1.1807276E-02;  5.0781659E+02;
  6.1089289E-01;  9.9999998E-03; -1.6002610E-01;6181;  3.1088521E-03;  0.0000000E+00;  2.8738074E-03;  1.0000190E+03;  1.0089814E-01;  1.5802021E+01;3;  4.2567458E+00;  0.0000000E+00; -3.5038915E-01;0;  4.7358882E-02;  3.9305004E+04;  0.0000000E+00; -2.5878949E-02;  4.0000000E+04;  0.0000000E+00;  3.9989207E+04;  6.0095496E-02;  0.0000000E+00; -1.2736614E-02;  5.8821405E+02;
  6.1090285E-01;  9.9999998E-03; -1.5002194E-01;6182;  2.8700531E-03;  0.0000000E+00;  2.7760363E-03;  1.0000123E+03;  1.0089783E-01;  1.0172551E+01;3;  4.2742696E+00;  0.0000000E+00; -3.3815670E-01;0;  4.6990555E-02;  3.9305484E+04;  0.0000000E+00;  8.6223986E-03;  4.0000000E+04;  0.0000000E+00;  3.9988457E+04;  6.0614914E-02;  0.0000000E+00; -1.3624358E-02;  6.7283075E+02;
  6.1092484E-01;  9.9999998E-03; -1.4001840E-01;6183;  2.6568889E-03;  0.0000000E+00;  2.6716681E-03;  9.9999884E+02;  1.0089713E-01; -9.3824500E-01;3;  4.2847037E+00;  0.0000000E+00; -3.1846792E-01;0;  4.6961538E-02;  3.9305480E+04;  0.0000000E+00;  4.8483182E-02;  4.0000000E+04;  0.0000000E+00;  3.9988176E+04;  6.1422411E-02;  0.0000000E+00; -1.4460872E-02;  7.4168054E+02;
  6.1095506E-01;  9.9999998E-03; -1.3001642E-01;6184;  2.4704835E-03;  0.0000000E+00;  2.5577536E-03;  9.9998004E+02;  1.0089687E-01; -1.6542740E+01;3;  4.2925739E+00;  0.0000000E+00; -2.9602778E-01;0;  4.7240034E-02;  3.9304758E+04;  0.0000000E+00;  8.9518353E-02;  4.0000000E+04;  0.0000000E+00;  3.9987891E+04;  6.2482473E-02;  0.0000000E+00; -1.5242438E-02;  7.8477649E+02;
  6.1098993E-01;  9.9999998E-03; -1.2001603E-01;6185;  2.3127114E-03;  0.0000000E+00;  2.4319352E-03;  9.9996051E+02;  1.0089651E-01; -3.2739811E+01;3;  4.3002815E+00;  0.0000000E+00; -2.7295610E-01;0;  4.7780812E-02;  3.9303449E+04;  0.0000000E+00;  1.2698729E-01;  4.0000000E+04;  0.0000000E+00;  3.9987723E+04;  6.3753761E-02;  0.0000000E+00; -1.5972948E-02;  8.0130444E+02;
  6.1102629E-01;  9.9999998E-03; -1.1001671E-01;6186;  2.1799712E-03;  0.0000000E+00;  2.2927639E-03;  9.9993146E+02;  1.0089607E-01; -5.6788513E+01;3;  4.3084559E+00;  0.0000000E+00; -2.5071561E-01;0;  4.8532046E-02;  3.9301934E+04;  0.0000000E+00;  1.5641895E-01;  4.0000000E+04;  0.0000000E+00;  3.9987922E+04;  6.5190203E-02;  0.0000000E+00; -1.6658159E-02;  7.9674371E+02;
  6.2114191E-01;  9.9999998E-03; -2.7002108E-01;6231;  1.2573878E-02;  0.0000000E+00;  3.3476911E-03;  9.9899182E+02;  1.0140579E-01; -8.3523560E+02;3;  5.6552577E+00;  0.0000000E+00; -3.8629392E-01;0;  7.4903093E-02;  3.8824457E+04;  0.0000000E+00;  2.7748713E-01;  4.0000000E+04;  0.0000000E+00;  4.0000285E+04;  7.1143515E-02;  0.0000000E+00;  3.7595811E-03;  1.3703683E+03;
  6.2116140E-01;  9.9999998E-03; -2.6000607E-01;6232;  1.1482081E-02;  0.0000000E+00;  3.2906306E-03;  9.9908221E+02;  1.0140748E-01; -7.6037347E+02;3;  5.6004314E+00;  0.0000000E+00; -4.8584226E-01;0;  7.2051242E-02;  3.8829305E+04;  0.0000000E+00;  2.3506618E-01;  4.0000000E+04;  0.0000000E+00;  4.0000867E+04;  7.0306621E-02;  0.0000000E+00;  1.7446219E-03;  1.4195127E+03;
  6.2115848E-01;  9.9999998E-03; -2.4998710E-01;6233;  1.0171425E-02;  0.0000000E+00;  3.3998087E-03;  9.9918152E+02;  1.0140868E-01; -6.7810425E+02;3;  5.4644132E+00;  0.0000000E+00; -5.4220033E-01;0;  6.8083674E-02;  3.8835504E+04;  0.0000000E+00;  1.8863839E-01;  4.0000000E+04;  0.0000000E+00;  4.0001516E+04;  6.9595151E-02;  0.0000000E+00; -1.5114776E-03;  1.4709795E+03;
  6.2113339E-01;  9.9999998E-03; -2.3996335E-01;6234;  8.7291403E-03;  0.0000000E+00;  3.6159423E-03;  9.9929059E+02;  1.0140960E-01; -5.8773639E+02;3;  5.2182665E+00;  0.0000000E+00; -5.0429648E-01;0;  6.4473122E-02;  3.8842805E+04;  0.0000000E+00;  1.3022730E-01;  4.0000000E+04;  0.0000000E+00;  4.0002020E+04;  6.9015734E-02;  0.0000000E+00; -4.5426083E-03;  1.4843553E+03;
  6.2109107E-01;  9.9999998E-03; -2.2993983E-01;6235;  7.2888741E-03;  0.0000000E+00;  3.8613381E-03;  9.9937793E+02;  1.0141005E-01; -5.1539282E+02;3;  4.8718085E+00;  0.0000000E+00; -4.1401020E-01;0;  6.1794017E-02;  3.8850895E+04;  0.0000000E+00;  6.4745761E-02;  4.0000000E+04;  0.0000000E+00;  4.0000094E+04;  6.8565063E-02;  0.0000000E+00; -6.7710453E-03;  1.2490170E+03;
  6.2104142E-01;  9.9999998E-03; -2.1993969E-01;6236;  6.0976525E-03;  0.0000000E+00;  3.9779409E-03;  9.9941144E+02;  1.0141039E-01; -4.8759113E+02;3;  4.5982823E+00;  0.0000000E+00; -3.4301722E-01;0;  6.0117226E-02;  3.8859230E+04;  0.0000000E+00;  1.6646656E-03;  4.0000000E+04;  0.0000000E+00;  3.9993879E+04;  6.8217769E-02;  0.0000000E+00; -8.1005441E-03;  4.7650458E+02;
  6.2099272E-01;  9.9999998E-03; -2.0996256E-01;6237;  5.2796560E-03;  0.0000000E+00;  3.8887165E-03;  9.9945032E+02;  1.0141014E-01; -4.5539450E+02;3;  4.4484816E+00;  0.0000000E+00; -3.2966280E-01;0;  5.8967333E-02;  3.8867543E+04;  0.0000000E+00; -5.0435644E-02;  4.0000000E+04;  0.0000000E+00;  3.9988492E+04;  6.7970820E-02;  0.0000000E+00; -9.0034874E-03;  2.3452348E+02;
  6.2094653E-01;  9.9999998E-03; -1.9998711E-01;6238;  4.6623866E-03;  0.0000000E+00;  3.7296135E-03;  9.9951532E+02;  1.0140969E-01; -4.0156885E+02;3;  4.3575597E+00;  0.0000000E+00; -3.3457732E-01;0;  5.7918679E-02;  3.8875152E+04;  0.0000000E+00; -8.7800942E-02;  4.0000000E+04;  0.0000000E+00;  3.9986051E+04;  6.7876875E-02;  0.0000000E+00; -9.9581974E-03;  5.3845911E+02;
  6.2090605E-01;  9.9999998E-03; -1.9000332E-01;6239;  4.1626915E-03;  0.0000000E+00;  3.5682435E-03;  9.9958478E+02;  1.0140939E-01; -3.4399023E+02;3;  4.3051562E+00;  0.0000000E+00; -3.4589699E-01;0;  5.6978371E-02;  3.8881430E+04;  0.0000000E+00; -1.1016484E-01;  4.0000000E+04;  0.0000000E+00;  3.9985520E+04;  6.7972146E-02;  0.0000000E+00; -1.0993776E-02;  6.1807056E+02;
  6.2087375E-01;  9.9999998E-03; -1.8001191E-01;6240;  3.7538097E-03;  0.0000000E+00;  3.4224410E-03;  9.9964288E+02;  1.0140860E-01; -2.9584348E+02;3;  4.2806249E+00;  0.0000000E+00; -3.4857652E-01;0;  5.6223590E-02;  3.8886777E+04;  0.0000000E+00; -1.1927988E-01;  4.0000000E+04;  0.0000000E+00;  3.9985520E+04;  6.8276897E-02;  0.0000000E+00; -1.2053306E-02;  6.4534534E+02;
  6.2085283E-01;  9.9999998E-03; -1.7001553E-01;6241;  3.4147578E-03;  0.0000000E+00;  3.2911722E-03;  9.9967664E+02;  1.0140774E-01; -2.6789365E+02;3;  4.2669115E+00;  0.0000000E+00; -3.5173917E-01;0;  5.5706766E-02;  3.8890508E+04;  0.0000000E+00; -1.1723828E-01;  4.0000000E+04;  0.0000000E+00;  3.9984980E+04;  6.8803042E-02;  0.0000000E+00; -1.3096276E-02;  6.8112689E+02;
  6.2084484E-01;  9.9999998E-03; -1.6001655E-01;6242;  3.1337249E-03;  0.0000000E+00;  3.1660707E-03;  9.9969592E+02;  1.0140680E-01; -2.5194347E+02;3;  4.2690105E+00;  0.0000000E+00; -3.5013968E-01;0;  5.5450365E-02;  3.8892934E+04;  0.0000000E+00; -1.0550526E-01;  4.0000000E+04;  0.0000000E+00;  3.9984668E+04;  6.9549501E-02;  0.0000000E+00; -1.4099136E-02;  7.2858044E+02;
  6.2084937E-01;  9.9999998E-03; -1.5001687E-01;6243;  2.8941685E-03;  0.0000000E+00;  3.0421240E-03;  9.9970465E+02;  1.0140602E-01; -2.4468442E+02;3;  4.2733102E+00;  0.0000000E+00; -3.3593285E-01;0;  5.5459224E-02;  3.8894484E+04;  0.0000000E+00; -8.4955707E-02;  4.0000000E+04;  0.0000000E+00;  3.9984207E+04;  7.0504442E-02;  0.0000000E+00; -1.5045219E-02;  7.7279584E+02;
  6.2086475E-01;  9.9999998E-03; -1.4001784E-01;6244;  2.6903222E-03;  0.0000000E+00;  2.9119472E-03;  9.9970526E+02;  1.0140539E-01; -2.4419061E+02;3;  4.2851653E+00;  0.0000000E+00; -3.1926325E-01;0;  5.5722874E-02;  3.8895684E+04;  0.0000000E+00; -5.6826081E-02;  4.0000000E+04;  0.0000000E+00;  3.9984012E+04;  7.1645267E-02;  0.0000000E+00; -1.5922394E-02;  7.9871851E+02;
  6.2088847E-01;  9.9999998E-03; -1.3001958E-01;6245;  2.5245936E-03;  0.0000000E+00;  2.7726430E-03;  9.9970551E+02;  1.0140461E-01; -2.4399309E+02;3;  4.2897730E+00;  0.0000000E+00; -2.9855525E-01;0;  5.6215495E-02;  3.8896570E+04;  0.0000000E+00; -2.3308536E-02;  4.0000000E+04;  0.0000000E+00;  3.9984016E+04;  7.2942913E-02;  0.0000000E+00; -1.6727418E-02;  7.9831616E+02;
  6.2091702E-01;  9.9999998E-03; -1.2002186E-01;6246;  2.3974001E-03;  0.0000000E+00;  2.6222663E-03;  9.9970276E+02;  1.0140344E-01; -2.4626462E+02;3;  4.2996087E+00;  0.0000000E+00; -2.7665266E-01;0;  5.6898203E-02;  3.8896945E+04;  0.0000000E+00;  1.2163782E-02;  4.0000000E+04;  0.0000000E+00;  3.9984352E+04;  7.4364752E-02;  0.0000000E+00; -1.7466549E-02;  7.7256757E+02;
  6.2094694E-01;  9.9999998E-03; -1.1002442E-01;6247;  2.3074651E-03;  0.0000000E+00;  2.4605917E-03;  9.9970221E+02;  1.0140334E-01; -2.4670906E+02;3;  4.3153138E+00;  0.0000000E+00; -2.5148121E-01;0;  5.7726257E-02;  3.8897391E+04;  0.0000000E+00;  4.5508895E-02;  4.0000000E+04;  0.0000000E+00;  3.9984703E+04;  7.5874202E-02;  0.0000000E+00; -1.8147944E-02;  7.2956909E+02;
  6.3099051E-01;  9.9999998E-03; -2.7003244E-01;6292;  1.2835188E-02;  0.0000000E+00;  3.8410332E-03;  9.9869122E+02;  1.0214782E-01; -1.0843149E+03;3;  5.8255243E+00;  0.0000000E+00; -4.2453215E-01;0;  7.4818663E-02;  3.8240930E+04;  0.0000000E+00;  3.3711499E-01;  4.0000000E+04;  0.0000000E+00;  3.9999785E+04;  7.3314093E-02;  0.0000000E+00;  1.5045711E-03;  1.9410370E+03;
  6.3101542E-01;  9.9999998E-03; -2.6001468E-01;6293;  1.1703259E-02;  0.0000000E+00;  3.8569504E-03;  9.9880249E+02;  1.0215039E-01; -9.9212000E+02;3;  5.7624707E+00;  0.0000000E+00; -5.0731730E-01;0;  7.2392248E-02;  3.8247168E+04;  0.0000000E+00;  3.1470990E-01;  4.0000000E+04;  0.0000000E+00;  3.9999848E+04;  7.3205769E-02;  0.0000000E+00; -8.1352162E-04;  1.9566403E+03;
  6.3102186E-01;  9.9999998E-03; -2.4999221E-01;6294;  1.0330016E-02;  0.0000000E+00;  4.0391795E-03;  9.9891827E+02;  1.0215224E-01; -8.9617212E+02;3;  5.5873551E+00;  0.0000000E+00; -5.1857203E-01;0;  6.9223098E-02;  3.8254289E+04;  0.0000000E+00;  2.6356426E-01;  4.0000000E+04;  0.0000000E+00;  4.0000035E+04;  7.3303722E-02;  0.0000000E+00; -4.0806262E-03;  1.9412906E+03;
  6.3101065E-01;  9.9999998E-03; -2.3996373E-01;6295;  8.9209145E-03;  0.0000000E+00;  4.2397548E-03;  9.9904382E+02;  1.0215345E-01; -7.9217505E+02;3;  5.3180370E+00;  0.0000000E+00; -4.5648503E-01;0;  6.7037731E-02;  3.8263082E+04;  0.0000000E+00;  1.8680060E-01;  4.0000000E+04;  0.0000000E+00;  3.9999738E+04;  7.3585086E-02;  0.0000000E+00; -6.5473551E-03;  1.8783977E+03;
  6.3098234E-01;  9.9999998E-03; -2.2993347E-01;6296;  7.5517492E-03;  0.0000000E+00;  4.4125319E-03;  9.9915021E+02;  1.0215431E-01; -7.0402942E+02;3;  4.9975262E+00;  0.0000000E+00; -3.6330980E-01;0;  6.5794960E-02;  3.8272684E+04;  0.0000000E+00;  9.8258995E-02;  4.0000000E+04;  0.0000000E+00;  3.9997543E+04;  7.4031778E-02;  0.0000000E+00; -8.2368152E-03;  1.5693678E+03;
  6.3094515E-01;  9.9999998E-03; -2.1992551E-01;6297;  6.3930117E-03;  0.0000000E+00;  4.4771363E-03;  9.9919708E+02;  1.0215443E-01; -6.6521570E+02;3;  4.7283454E+00;  0.0000000E+00; -3.0682054E-01;0;  6.5265127E-02;  3.8282949E+04;  0.0000000E+00;  1.2110559E-02;  4.0000000E+04;  0.0000000E+00;  3.9990562E+04;  7.4608713E-02;  0.0000000E+00; -9.3435878E-03;  6.9196613E+02;
  6.3090801E-01;  9.9999998E-03; -2.0994388E-01;6298;  5.5480376E-03;  0.0000000E+00;  4.3605361E-03;  9.9924091E+02;  1.0215411E-01; -6.2887103E+02;3;  4.5638976E+00;  0.0000000E+00; -2.9759830E-01;0;  6.5096773E-02;  3.8292875E+04;  0.0000000E+00; -6.1118763E-02;  4.0000000E+04;  0.0000000E+00;  3.9983688E+04;  7.5290203E-02;  0.0000000E+00; -1.0193427E-02;  1.9059236E+02;
  6.3087088E-01;  9.9999998E-03; -1.9996904E-01;6299;  4.8870249E-03;  0.0000000E+00;  4.1713528E-03;  9.9931061E+02;  1.0215338E-01; -5.7114429E+02;3;  4.4575100E+00;  0.0000000E+00; -3.0453604E-01;0;  6.4926416E-02;  3.8302078E+04;  0.0000000E+00; -1.1693745E-01;  4.0000000E+04;  0.0000000E+00;  3.9980227E+04;  7.6080739E-02;  0.0000000E+00; -1.1154328E-02;  6.3699255E+02;
  6.3083601E-01;  9.9999998E-03; -1.8998852E-01;6300;  4.3403869E-03;  0.0000000E+00;  3.9798887E-03;  9.9939795E+02;  1.0215213E-01; -4.9880066E+02;3;  4.3892283E+00;  0.0000000E+00; -3.1905991E-01;0;  6.4748213E-02;  3.8310223E+04;  0.0000000E+00; -1.5540437E-01;  4.0000000E+04;  0.0000000E+00;  3.9979262E+04;  7.6982290E-02;  0.0000000E+00; -1.2234081E-02;  7.9679626E+02;
  6.3080633E-01;  9.9999998E-03; -1.8000115E-01;6301;  3.8894094E-03;  0.0000000E+00;  3.8020874E-03;  9.9946735E+02;  1.0215112E-01; -4.4127142E+02;3;  4.3368101E+00;  0.0000000E+00; -3.2841650E-01;0;  6.4635456E-02;  3.8316992E+04;  0.0000000E+00; -1.7995965E-01;  4.0000000E+04;  0.0000000E+00;  3.9978820E+04;  7.7992149E-02;  0.0000000E+00; -1.3356697E-02;  8.4854608E+02;
  6.3078469E-01;  9.9999998E-03; -1.7000899E-01;6302;  3.5202191E-03;  0.0000000E+00;  3.6375963E-03;  9.9952234E+02;  1.0214944E-01; -3.9574185E+02;3;  4.3134208E+00;  0.0000000E+00; -3.3314663E-01;0;  6.4637758E-02;  3.8321934E+04;  0.0000000E+00; -1.9451256E-01;  4.0000000E+04;  0.0000000E+00;  3.9978504E+04;  7.9105571E-02;  0.0000000E+00; -1.4467812E-02;  8.7750177E+02;
  6.3077360E-01;  9.9999998E-03; -1.6001405E-01;6303;  3.2226846E-03;  0.0000000E+00;  3.4776197E-03;  9.9955713E+02;  1.0214797E-01; -3.6690317E+02;3;  4.2965584E+00;  0.0000000E+00; -3.3162853E-01;0;  6.4780481E-02;  3.8325852E+04;  0.0000000E+00; -2.0132132E-01;  4.0000000E+04;  0.0000000E+00;  3.9978613E+04;  8.0313757E-02;  0.0000000E+00; -1.5533279E-02;  9.0349292E+02;
  6.3077390E-01;  9.9999998E-03; -1.5001796E-01;6304;  2.9835599E-03;  0.0000000E+00;  3.3190718E-03;  9.9958264E+02;  1.0214671E-01; -3.4576797E+02;3;  4.2924733E+00;  0.0000000E+00; -3.2433808E-01;0;  6.5073699E-02;  3.8328926E+04;  0.0000000E+00; -2.0016368E-01;  4.0000000E+04;  0.0000000E+00;  3.9978484E+04;  8.1602849E-02;  0.0000000E+00; -1.6529154E-02;  9.1970319E+02;
  6.3078505E-01;  9.9999998E-03; -1.4002152E-01;6305;  2.7991254E-03;  0.0000000E+00;  3.1558361E-03;  9.9959808E+02;  1.0214566E-01; -3.3297821E+02;3;  4.2963109E+00;  0.0000000E+00; -3.0927020E-01;0;  6.5514453E-02;  3.8331695E+04;  0.0000000E+00; -1.8958305E-01;  4.0000000E+04;  0.0000000E+00;  3.9978469E+04;  8.2954161E-02;  0.0000000E+00; -1.7439708E-02;  9.1350037E+02;
  6.3080621E-01;  9.9999998E-03; -1.3002490E-01;6306;  2.6693188E-03;  0.0000000E+00;  2.9865955E-03;  9.9961469E+02;  1.0214410E-01; -3.1925021E+02;3;  4.3023477E+00;  0.0000000E+00; -2.9046437E-01;0;  6.6086702E-02;  3.8334059E+04;  0.0000000E+00; -1.6902457E-01;  4.0000000E+04;  0.0000000E+00;  3.9978770E+04;  8.4348492E-02;  0.0000000E+00; -1.8261792E-02;  8.7659222E+02;
  6.3083631E-01;  9.9999998E-03; -1.2002763E-01;6307;  2.5932973E-03;  0.0000000E+00;  2.8082239E-03;  9.9963281E+02;  1.0214268E-01; -3.0418890E+02;3;  4.3187819E+00;  0.0000000E+00; -2.7087587E-01;0;  6.6763647E-02;  3.8336121E+04;  0.0000000E+00; -1.3994247E-01;  4.0000000E+04;  0.0000000E+00;  3.9979324E+04;  8.5767396E-02;  0.0000000E+00; -1.9003747E-02;  8.0961206E+02;
  6.3087350E-01;  9.9999998E-03; -1.1002923E-01;6308;  2.5685600E-03;  0.0000000E+00;  2.6212491E-03;  9.9965723E+02;  1.0214174E-01; -2.8399194E+02;3;  4.3483319E+00;  0.0000000E+00; -2.4975692E-01;0;  6.7513496E-02;  3.8338570E+04;  0.0000000E+00; -1.0551843E-01;  4.0000000E+04;  0.0000000E+00;  3.9979832E+04;  8.7189704E-02;  0.0000000E+00; -1.9676208E-02;  7.2207623E+02;
  6.4081204E-01;  9.9999998E-03; -2.7005306E-01;6353;  1.2890921E-02;  0.0000000E+00;  4.4104666E-03;  9.9862396E+02;  1.0317664E-01; -1.1400171E+03;3;  5.9202528E+00;  0.0000000E+00; -4.5590711E-01;0;  7.5055331E-02;  3.7480289E+04;  0.0000000E+00; -1.1729594E-01;  4.0000000E+04;  0.0000000E+00;  3.9994789E+04;  7.6740958E-02;  0.0000000E+00; -1.6856291E-03;  2.1292134E+03;
  6.4084405E-01;  9.9999998E-03; -2.6003438E-01;6354;  1.1729660E-02;  0.0000000E+00;  4.5076739E-03;  9.9876282E+02;  1.0317994E-01; -1.0249586E+03;3;  5.8452792E+00;  0.0000000E+00; -5.0788951E-01;0;  7.3077254E-02;  3.7487840E+04;  0.0000000E+00;  9.4209582E-02;  4.0000000E+04;  0.0000000E+00;  3.9994508E+04;  7.7303424E-02;  0.0000000E+00; -4.2261733E-03;  2.0804980E+03;
  6.4086264E-01;  9.9999998E-03; -2.5001132E-01;6355;  1.0381278E-02;  0.0000000E+00;  4.7314842E-03;  9.9890247E+02;  1.0318225E-01; -9.0930756E+02;3;  5.6390505E+00;  0.0000000E+00; -4.6523798E-01;0;  7.1018577E-02;  3.7497305E+04;  0.0000000E+00;  1.8263991E-01;  4.0000000E+04;  0.0000000E+00;  3.9993934E+04;  7.8140549E-02;  0.0000000E+00; -7.1219713E-03;  1.9971942E+03;
  6.4086813E-01;  9.9999998E-03; -2.3998278E-01;6356;  9.0703880E-03;  0.0000000E+00;  4.8840814E-03;  9.9904816E+02;  1.0318413E-01; -7.8857025E+02;3;  5.3647432E+00;  0.0000000E+00; -3.8236523E-01;0;  7.0442602E-02;  3.7507918E+04;  0.0000000E+00;  1.7385744E-01;  4.0000000E+04;  0.0000000E+00;  3.9992863E+04;  7.9226501E-02;  0.0000000E+00; -8.7838992E-03;  1.8405405E+03;
  6.4085829E-01;  9.9999998E-03; -2.2995241E-01;6357;  7.8362003E-03;  0.0000000E+00;  4.9690814E-03;  9.9918115E+02;  1.0318504E-01; -6.7840051E+02;3;  5.1053443E+00;  0.0000000E+00; -3.1166241E-01;0;  7.0664681E-02;  3.7519883E+04;  0.0000000E+00;  1.0782474E-01;  4.0000000E+04;  0.0000000E+00;  3.9989816E+04;  8.0520518E-02;  0.0000000E+00; -9.8558376E-03;  1.4549709E+03;
  6.4083815E-01;  9.9999998E-03; -2.1993989E-01;6358;  6.7649204E-03;  0.0000000E+00;  4.9651172E-03;  9.9926801E+02;  1.0318518E-01; -6.0645197E+02;3;  4.8658361E+00;  0.0000000E+00; -2.6862109E-01;0;  7.1281321E-02;  3.7532273E+04;  0.0000000E+00;  1.9751735E-02;  4.0000000E+04;  0.0000000E+00;  3.9982941E+04;  8.1967898E-02;  0.0000000E+00; -1.0686576E-02;  6.0331903E+02;
  6.4081585E-01;  9.9999998E-03; -2.0995142E-01;6359;  5.9285527E-03;  0.0000000E+00;  4.8236172E-03;  9.9933887E+02;  1.0318411E-01; -5.4773755E+02;3;  4.6966581E+00;  0.0000000E+00; -2.6444063E-01;0;  7.2043404E-02;  3.7544227E+04;  0.0000000E+00; -6.6614985E-02;  4.0000000E+04;  0.0000000E+00;  3.9976234E+04;  8.3517067E-02;  0.0000000E+00; -1.1473661E-02;  2.6754477E+02;
  6.4079136E-01;  9.9999998E-03; -1.9997223E-01;6360;  5.2483771E-03;  0.0000000E+00;  4.6144947E-03;  9.9943402E+02;  1.0318274E-01; -4.6892499E+02;3;  4.5856147E+00;  0.0000000E+00; -2.7043477E-01;0;  7.2695002E-02;  3.7555676E+04;  0.0000000E+00; -1.3905056E-01;  4.0000000E+04;  0.0000000E+00;  3.9972562E+04;  8.5125141E-02;  0.0000000E+00; -1.2430138E-02;  7.5920587E+02;
  6.4076799E-01;  9.9999998E-03; -1.8999124E-01;6361;  4.6630674E-03;  0.0000000E+00;  4.4029490E-03;  9.9953809E+02;  1.0318115E-01; -3.8270520E+02;3;  4.5013361E+00;  0.0000000E+00; -2.8839192E-01;0;  7.3222496E-02;  3.7565699E+04;  0.0000000E+00; -1.9484086E-01;  4.0000000E+04;  0.0000000E+00;  3.9971020E+04;  8.6760901E-02;  0.0000000E+00; -1.3538404E-02;  9.6198199E+02;
  6.4075261E-01;  9.9999998E-03; -1.8000439E-01;6362;  4.1782162E-03;  0.0000000E+00;  4.2003891E-03;  9.9963086E+02;  1.0317864E-01; -3.0581848E+02;3;  4.4317207E+00;  0.0000000E+00; -2.9349989E-01;0;  7.3690929E-02;  3.7574492E+04;  0.0000000E+00; -2.3669897E-01;  4.0000000E+04;  0.0000000E+00;  3.9970848E+04;  8.8400140E-02;  0.0000000E+00; -1.4709210E-02;  1.0306401E+03;
  6.4075410E-01;  9.9999998E-03; -1.7001015E-01;6363;  3.7857173E-03;  0.0000000E+00;  4.0024458E-03;  9.9970221E+02;  1.0317668E-01; -2.4670906E+02;3;  4.3964758E+00;  0.0000000E+00; -2.9921386E-01;0;  7.4148573E-02;  3.7581344E+04;  0.0000000E+00; -2.6967403E-01;  4.0000000E+04;  0.0000000E+00;  3.9970812E+04;  9.0027608E-02;  0.0000000E+00; -1.5879033E-02;  1.0587871E+03;
  6.4077097E-01;  9.9999998E-03; -1.6000995E-01;6364;  3.4787513E-03;  0.0000000E+00;  3.8066737E-03;  9.9975690E+02;  1.0317381E-01; -2.0142639E+02;3;  4.3664098E+00;  0.0000000E+00; -3.0104905E-01;0;  7.4616700E-02;  3.7587066E+04;  0.0000000E+00; -2.9685903E-01;  4.0000000E+04;  0.0000000E+00;  3.9970918E+04;  9.1620237E-02;  0.0000000E+00; -1.7003532E-02;  1.0784635E+03;
  6.4079517E-01;  9.9999998E-03; -1.5000826E-01;6365;  3.2517493E-03;  0.0000000E+00;  3.6087292E-03;  9.9979510E+02;  1.0317156E-01; -1.6977296E+02;3;  4.3533974E+00;  0.0000000E+00; -2.9402405E-01;0;  7.5100660E-02;  3.7591820E+04;  0.0000000E+00; -3.1742001E-01;  4.0000000E+04;  0.0000000E+00;  3.9971039E+04;  9.3149312E-02;  0.0000000E+00; -1.8048652E-02;  1.0863165E+03;
  6.4082366E-01;  9.9999998E-03; -1.4000703E-01;6366;  3.1048341E-03;  0.0000000E+00;  3.4079333E-03;  9.9982605E+02;  1.0316910E-01; -1.4409468E+02;3;  4.3537951E+00;  0.0000000E+00; -2.8476110E-01;0;  7.5602099E-02;  3.7595586E+04;  0.0000000E+00; -3.2744262E-01;  4.0000000E+04;  0.0000000E+00;  3.9971270E+04;  9.4595402E-02;  0.0000000E+00; -1.8993303E-02;  1.0689972E+03;
  6.4085603E-01;  9.9999998E-03; -1.3000633E-01;6367;  3.0386525E-03;  0.0000000E+00;  3.2014039E-03;  9.9985333E+02;  1.0316669E-01; -1.2152742E+02;3;  4.3719039E+00;  0.0000000E+00; -2.7932385E-01;0;  7.6115154E-02;  3.7599230E+04;  0.0000000E+00; -3.2334876E-01;  4.0000000E+04;  0.0000000E+00;  3.9971660E+04;  9.5948465E-02;  0.0000000E+00; -1.9833313E-02;  1.0165194E+03;
  6.4089149E-01;  9.9999998E-03; -1.2000603E-01;6368;  3.0508384E-03;  0.0000000E+00;  2.9892421E-03;  9.9988849E+02;  1.0316452E-01; -9.2392441E+01;3;  4.4116983E+00;  0.0000000E+00; -2.6184559E-01;0;  7.6624095E-02;  3.7602500E+04;  0.0000000E+00; -3.0414450E-01;  4.0000000E+04;  0.0000000E+00;  3.9972551E+04;  9.7202227E-02;  0.0000000E+00; -2.0578131E-02;  9.2744000E+02;
  6.4092797E-01;  9.9999998E-03; -1.1000609E-01;6369;  3.1476980E-03;  0.0000000E+00;  2.7716826E-03;  9.9992194E+02;  1.0316254E-01; -6.4689522E+01;3;  4.4825182E+00;  0.0000000E+00; -2.4063791E-01;0;  7.7112220E-02;  3.7606238E+04;  0.0000000E+00; -2.7161938E-01;  4.0000000E+04;  0.0000000E+00;  3.9973391E+04;  9.8352194E-02;  0.0000000E+00; -2.1239974E-02;  8.0982874E+02;
  6.5088356E-01;  9.9999998E-03; -1.0999414E-01;6430;  4.4383644E-03;  0.0000000E+00;  2.9040941E-03;  1.0003975E+03;  1.0449031E-01;  3.2927463E+02;3;  4.8408470E+00;  0.0000000E+00; -2.1928436E-01;0;  8.5404322E-02;  3.6690723E+04;  0.0000000E+00; -4.1860068E-01;  4.0000000E+04;  0.0000000E+00;  3.9964965E+04;  1.0818860E-01;  0.0000000E+00; -2.2784274E-02;  9.5307373E+02;
  6.5085614E-01;  9.9999998E-03; -1.1999444E-01;6429;  4.1564335E-03;  0.0000000E+00;  3.1519940E-03;  1.0003643E+03;  1.0449348E-01;  3.0181860E+02;3;  4.7123966E+00;  0.0000000E+00; -2.3409355E-01;0;  8.5311398E-02;  3.6686660E+04;  0.0000000E+00; -4.4582140E-01;  4.0000000E+04;  0.0000000E+00;  3.9963879E+04;  1.0743697E-01;  0.0000000E+00; -2.2125570E-02;  1.0774492E+03;
  6.5083253E-01;  9.9999998E-03; -1.2999517E-01;6428;  3.9752587E-03;  0.0000000E+00;  3.3984515E-03;  1.0003379E+03;  1.0449724E-01;  2.7989331E+02;3;  4.6092482E+00;  0.0000000E+00; -2.4665378E-01;0;  8.5119955E-02;  3.6683180E+04;  0.0000000E+00; -4.5247990E-01;  4.0000000E+04;  0.0000000E+00;  3.9963090E+04;  1.0649319E-01;  0.0000000E+00; -2.1373237E-02;  1.1658260E+03;
  6.5081453E-01;  9.9999998E-03; -1.3999638E-01;6427;  3.9141332E-03;  0.0000000E+00;  3.6410710E-03;  1.0003121E+03;  1.0450092E-01;  2.5856058E+02;3;  4.5518413E+00;  0.0000000E+00; -2.5842002E-01;0;  8.4828675E-02;  3.6678824E+04;  0.0000000E+00; -4.3853170E-01;  4.0000000E+04;  0.0000000E+00;  3.9962496E+04;  1.0534289E-01;  0.0000000E+00; -2.0514222E-02;  1.2125183E+03;
  6.5080345E-01;  9.9999998E-03; -1.4999798E-01;6426;  3.9680614E-03;  0.0000000E+00;  3.8815313E-03;  1.0002828E+03;  1.0450477E-01;  2.3426497E+02;3;  4.5221004E+00;  0.0000000E+00; -2.6445997E-01;0;  8.4438391E-02;  3.6674297E+04;  0.0000000E+00; -4.0751255E-01;  4.0000000E+04;  0.0000000E+00;  3.9962160E+04;  1.0397741E-01;  0.0000000E+00; -1.9539021E-02;  1.2217076E+03;
  6.5080005E-01;  9.9999998E-03; -1.5999955E-01;6425;  4.1400832E-03;  0.0000000E+00;  4.1186060E-03;  1.0002390E+03;  1.0450931E-01;  1.9792032E+02;3;  4.5182157E+00;  0.0000000E+00; -2.6731262E-01;0;  8.3943702E-02;  3.6668535E+04;  0.0000000E+00; -3.6579493E-01;  4.0000000E+04;  0.0000000E+00;  3.9961715E+04;  1.0239712E-01;  0.0000000E+00; -1.8453421E-02;  1.2041976E+03;
  6.5065444E-01;  9.9999998E-03; -2.7008381E-01;6414;  1.2898382E-02;  0.0000000E+00;  4.9616937E-03;  9.9880786E+02;  1.0452000E-01; -9.8767572E+02;3;  5.9648442E+00;  0.0000000E+00; -4.7818670E-01;0;  7.6231882E-02;  3.6541031E+04;  0.0000000E+00; -1.3069444E+00;  4.0000000E+04;  0.0000000E+00;  3.9984875E+04;  8.0939442E-02;  0.0000000E+00; -4.7075571E-03;  2.8615947E+03;
  6.5080363E-01;  9.9999998E-03; -1.7000067E-01;6424;  4.4260570E-03;  0.0000000E+00;  4.3486827E-03;  1.0001780E+03;  1.0451332E-01;  1.4745261E+02;3;  4.5527744E+00;  0.0000000E+00; -2.6647183E-01;0;  8.3328500E-02;  3.6661770E+04;  0.0000000E+00; -3.1896785E-01;  4.0000000E+04;  0.0000000E+00;  3.9961660E+04;  1.0061086E-01;  0.0000000E+00; -1.7282359E-02;  1.1693225E+03;
  6.5069175E-01;  9.9999998E-03; -2.6006615E-01;6415;  1.1758015E-02;  0.0000000E+00;  5.1294407E-03;  9.9897217E+02;  1.0452384E-01; -8.5153143E+02;3;  5.8731942E+00;  0.0000000E+00; -4.9413213E-01;0;  7.4610256E-02;  3.6550926E+04;  0.0000000E+00; -5.6667101E-01;  4.0000000E+04;  0.0000000E+00;  3.9984195E+04;  8.2075104E-02;  0.0000000E+00; -7.4648499E-03;  2.0789512E+03;
  6.5081245E-01;  9.9999998E-03; -1.8000035E-01;6423;  4.8153126E-03;  0.0000000E+00;  4.5758109E-03;  1.0000955E+03;  1.0451690E-01;  7.9108871E+01;3;  4.5998149E+00;  0.0000000E+00; -2.5935236E-01;0;  8.2572646E-02;  3.6653359E+04;  0.0000000E+00; -2.6801011E-01;  4.0000000E+04;  0.0000000E+00;  3.9961914E+04;  9.8638415E-02;  0.0000000E+00; -1.6065769E-02;  1.1156613E+03;
  6.5072691E-01;  9.9999998E-03; -2.5004569E-01;6416;  1.0518823E-02;  0.0000000E+00;  5.3492626E-03;  9.9914264E+02;  1.0452656E-01; -7.1030084E+02;3;  5.6720328E+00;  0.0000000E+00; -4.1653931E-01;0;  7.3769860E-02;  3.6562160E+04;  0.0000000E+00; -1.3190544E-01;  4.0000000E+04;  0.0000000E+00;  3.9982578E+04;  8.3554231E-02;  0.0000000E+00; -9.7843716E-03;  1.6610190E+03;
  6.5082288E-01;  9.9999998E-03; -1.8999773E-01;6422;  5.2997158E-03;  0.0000000E+00;  4.7993842E-03;  9.9998645E+02;  1.0452082E-01; -1.1209558E+01;3;  4.6722641E+00;  0.0000000E+00; -2.5581026E-01;0;  8.1652634E-02;  3.6643066E+04;  0.0000000E+00; -2.0926921E-01;  4.0000000E+04;  0.0000000E+00;  3.9962379E+04;  9.6508346E-02;  0.0000000E+00; -1.4855713E-02;  1.0202538E+03;
  6.5082747E-01;  9.9999998E-03; -1.9999334E-01;6421;  5.8816988E-03;  0.0000000E+00;  5.0165290E-03;  9.9986023E+02;  1.0452387E-01; -1.1579919E+02;3;  4.7750831E+00;  0.0000000E+00; -2.4733587E-01;0;  8.0540843E-02;  3.6630887E+04;  0.0000000E+00; -1.3852422E-01;  4.0000000E+04;  0.0000000E+00;  3.9963609E+04;  9.4258696E-02;  0.0000000E+00; -1.3717853E-02;  8.2895227E+02;
  6.5075511E-01;  9.9999998E-03; -2.4002257E-01;6417;  9.3366839E-03;  0.0000000E+00;  5.4676472E-03;  9.9930963E+02;  1.0452791E-01; -5.7193439E+02;3;  5.4469118E+00;  0.0000000E+00; -3.3532903E-01;0;  7.4489340E-02;  3.6574949E+04;  0.0000000E+00;  5.3880673E-02;  4.0000000E+04;  0.0000000E+00;  3.9980070E+04;  8.5348338E-02;  0.0000000E+00; -1.0858997E-02;  1.3271910E+03;
  6.5081596E-01;  9.9999998E-03; -2.0999053E-01;6420;  6.5436396E-03;  0.0000000E+00;  5.2331458E-03;  9.9972302E+02;  1.0452623E-01; -2.2947498E+02;3;  4.8811874E+00;  0.0000000E+00; -2.3944828E-01;0;  7.9186827E-02;  3.6617562E+04;  0.0000000E+00; -5.6030311E-02;  4.0000000E+04;  0.0000000E+00;  3.9966129E+04;  9.1936372E-02;  0.0000000E+00; -1.2749545E-02;  4.7428516E+02;
  6.5077507E-01;  9.9999998E-03; -2.3000142E-01;6418;  8.2396176E-03;  0.0000000E+00;  5.4930877E-03;  9.9946301E+02;  1.0452833E-01; -4.4487628E+02;3;  5.2179704E+00;  0.0000000E+00; -2.7677250E-01;0;  7.5917065E-02;  3.6588988E+04;  0.0000000E+00;  8.0702342E-02;  4.0000000E+04;  0.0000000E+00;  3.9976043E+04;  8.7393902E-02;  0.0000000E+00; -1.1476838E-02;  8.1410657E+02;
  6.5079099E-01;  9.9999998E-03; -2.1999174E-01;6419;  7.3127216E-03;  0.0000000E+00;  5.4113423E-03;  9.9959247E+02;  1.0452799E-01; -3.3762006E+02;3;  5.0302801E+00;  0.0000000E+00; -2.4932401E-01;0;  7.7586524E-02;  3.6603195E+04;  0.0000000E+00;  2.6551681E-02;  4.0000000E+04;  0.0000000E+00;  3.9970555E+04;  8.9615017E-02;  0.0000000E+00; -1.2028494E-02;  1.0075710E+02;
  6.6088563E-01;  9.9999998E-03; -1.0997862E-01;6491;  6.8044951E-03;  0.0000000E+00;  2.9621366E-03;  1.0008171E+03;  1.0611613E-01;  6.7701782E+02;3;  5.5026927E+00;  0.0000000E+00; -2.2121954E-01;0;  9.1909394E-02;  3.5600672E+04;  0.0000000E+00; -5.1080406E-01;  4.0000000E+04;  0.0000000E+00;  3.9954719E+04;  1.1623458E-01;  0.0000000E+00; -2.4325185E-02;  1.0752430E+03;
  6.6086197E-01;  9.9999998E-03; -1.1998085E-01;6490;  6.3388566E-03;  0.0000000E+00;  3.2417220E-03;  1.0008112E+03;  1.0612210E-01;  6.7198096E+02;3;  5.3134308E+00;  0.0000000E+00; -2.3133779E-01;0;  9.2256330E-02;  3.5597277E+04;  0.0000000E+00; -5.2854055E-01;  4.0000000E+04;  0.0000000E+00;  3.9953648E+04;  1.1590676E-01;  0.0000000E+00; -2.3650432E-02;  1.1884574E+03;
  6.6084069E-01;  9.9999998E-03; -1.2998444E-01;6489;  5.9642573E-03;  0.0000000E+00;  3.5198811E-03;  1.0008087E+03;  1.0612801E-01;  6.6990692E+02;3;  5.1422997E+00;  0.0000000E+00; -2.4731664E-01;0;  9.2434630E-02;  3.5593895E+04;  0.0000000E+00; -5.2022225E-01;  4.0000000E+04;  0.0000000E+00;  3.9952598E+04;  1.1530702E-01;  0.0000000E+00; -2.2872388E-02;  1.2586595E+03;
  6.6082323E-01;  9.9999998E-03; -1.3998927E-01;6488;  5.7131257E-03;  0.0000000E+00;  3.7979526E-03;  1.0008066E+03;  1.0613424E-01;  6.6822797E+02;3;  5.0234241E+00;  0.0000000E+00; -2.5242552E-01;0;  9.2426248E-02;  3.5590277E+04;  0.0000000E+00; -4.8782447E-01;  4.0000000E+04;  0.0000000E+00;  3.9952113E+04;  1.1440486E-01;  0.0000000E+00; -2.1978611E-02;  1.2829164E+03;
  6.6081083E-01;  9.9999998E-03; -1.4999516E-01;6487;  5.5988501E-03;  0.0000000E+00;  4.0721917E-03;  1.0007929E+03;  1.0614074E-01;  6.5687024E+02;3;  4.9371729E+00;  0.0000000E+00; -2.5701115E-01;0;  9.2218995E-02;  3.5585609E+04;  0.0000000E+00; -4.3737155E-01;  4.0000000E+04;  0.0000000E+00;  3.9951660E+04;  1.1317938E-01;  0.0000000E+00; -2.0960379E-02;  1.2681376E+03;
  6.6080427E-01;  9.9999998E-03; -1.6000196E-01;6486;  5.6289528E-03;  0.0000000E+00;  4.3367236E-03;  1.0007567E+03;  1.0614753E-01;  6.2694519E+02;3;  4.8791723E+00;  0.0000000E+00; -2.6652807E-01;0;  9.1795661E-02;  3.5579828E+04;  0.0000000E+00; -3.7717983E-01;  4.0000000E+04;  0.0000000E+00;  3.9951348E+04;  1.1162092E-01;  0.0000000E+00; -1.9825259E-02;  1.2259591E+03;
  6.6080385E-01;  9.9999998E-03; -1.7000945E-01;6485;  5.8059571E-03;  0.0000000E+00;  4.5919777E-03;  1.0007036E+03;  1.0615339E-01;  5.8289703E+02;3;  4.8836861E+00;  0.0000000E+00; -2.6896873E-01;0;  9.1134086E-02;  3.5572125E+04;  0.0000000E+00; -3.1338221E-01;  4.0000000E+04;  0.0000000E+00;  3.9951402E+04;  1.0973565E-01;  0.0000000E+00; -1.8601563E-02;  1.1641389E+03;
  6.6080952E-01;  9.9999998E-03; -1.8001688E-01;6484;  6.1098263E-03;  0.0000000E+00;  4.8343088E-03;  1.0006212E+03;  1.0615946E-01;  5.1465210E+02;3;  4.9096289E+00;  0.0000000E+00; -2.6795739E-01;0;  9.0211168E-02;  3.5562699E+04;  0.0000000E+00; -2.4674419E-01;  4.0000000E+04;  0.0000000E+00;  3.9951730E+04;  1.0754408E-01;  0.0000000E+00; -1.7332911E-02;  1.0809893E+03;
  6.6081977E-01;  9.9999998E-03; -1.9002476E-01;6483;  6.5285959E-03;  0.0000000E+00;  5.0642961E-03;  1.0005050E+03;  1.0616510E-01;  4.1835852E+02;3;  4.9622679E+00;  0.0000000E+00; -2.6602980E-01;0;  8.9013442E-02;  3.5551172E+04;  0.0000000E+00; -1.7441930E-01;  4.0000000E+04;  0.0000000E+00;  3.9952375E+04;  1.0508592E-01;  0.0000000E+00; -1.6072474E-02;  9.6651978E+02;
  6.6083157E-01;  9.9999998E-03; -2.0003425E-01;6482;  7.0374911E-03;  0.0000000E+00;  5.2812402E-03;  1.0003563E+03;  1.0617015E-01;  2.9520151E+02;3;  5.0473137E+00;  0.0000000E+00; -2.6641357E-01;0;  8.7532781E-02;  3.5537789E+04;  0.0000000E+00; -9.4768099E-02;  4.0000000E+04;  0.0000000E+00;  3.9953312E+04;  1.0241511E-01;  0.0000000E+00; -1.4882325E-02;  8.1075836E+02;
  6.6084135E-01;  9.9999998E-03; -2.1004631E-01;6481;  7.6064193E-03;  0.0000000E+00;  5.4959180E-03;  1.0001826E+03;  1.0617392E-01;  1.5130435E+02;3;  5.1234984E+00;  0.0000000E+00; -2.5759739E-01;0;  8.5749716E-02;  3.5522277E+04;  0.0000000E+00; -1.4103488E-02;  4.0000000E+04;  0.0000000E+00;  3.9954457E+04;  9.9600911E-02;  0.0000000E+00; -1.3851194E-02;  6.1975037E+02;
  6.6084552E-01;  9.9999998E-03; -2.2005963E-01;6480;  8.2187671E-03;  0.0000000E+00;  5.7138610E-03;  9.9998755E+02;  1.0617704E-01; -1.0320695E+01;3;  5.2297149E+00;  0.0000000E+00; -2.6530460E-01;0;  8.3610952E-02;  3.5505883E+04;  0.0000000E+00;  4.5198228E-02;  4.0000000E+04;  0.0000000E+00;  3.9956012E+04;  9.6730053E-02;  0.0000000E+00; -1.3119102E-02;  3.9608130E+02;
  6.6084051E-01;  9.9999998E-03; -2.3006916E-01;6479;  8.9094816E-03;  0.0000000E+00;  5.8997981E-03;  9.9979370E+02;  1.0617916E-01; -1.7090874E+02;3;  5.3555007E+00;  0.0000000E+00; -2.7590770E-01;0;  8.1121519E-02;  3.5489355E+04;  0.0000000E+00;  3.4347244E-02;  4.0000000E+04;  0.0000000E+00;  3.9959262E+04;  9.3911707E-02;  0.0000000E+00; -1.2790189E-02;  4.2382107E+00;
  6.6082329E-01;  9.9999998E-03; -2.4007742E-01;6478;  9.7776372E-03;  0.0000000E+00;  5.9464397E-03;  9.9962012E+02;  1.0617968E-01; -3.1470712E+02;3;  5.5199437E+00;  0.0000000E+00; -3.1735718E-01;0;  7.8756317E-02;  3.5473469E+04;  0.0000000E+00; -1.3358846E-01;  4.0000000E+04;  0.0000000E+00;  3.9964180E+04;  9.1272600E-02;  0.0000000E+00; -1.2516279E-02;  6.9834924E+02;
  6.6078180E-01;  9.9999998E-03; -2.5009140E-01;6477;  1.0830510E-02;  0.0000000E+00;  5.8399555E-03;  9.9943658E+02;  1.0617909E-01; -4.6680157E+02;3;  5.7191510E+00;  0.0000000E+00; -3.9596575E-01;0;  7.7245861E-02;  3.5458539E+04;  0.0000000E+00; -5.9720218E-01;  4.0000000E+04;  0.0000000E+00;  3.9968211E+04;  8.8913165E-02;  0.0000000E+00; -1.1667304E-02;  1.5553248E+03;
  6.6065264E-01;  9.9999998E-03; -2.7012289E-01;6475;  1.3019500E-02;  0.0000000E+00;  5.4182871E-03;  9.9906879E+02;  1.0617355E-01; -7.7148431E+02;3;  5.9956751E+00;  0.0000000E+00; -5.1461947E-01;0;  7.8663521E-02;  3.5434551E+04;  0.0000000E+00; -3.0289557E+00;  4.0000000E+04;  0.0000000E+00;  3.9972031E+04;  8.5284203E-02;  0.0000000E+00; -6.6206842E-03;  5.1870801E+03;
  6.6071081E-01;  9.9999998E-03; -2.6010752E-01;6476;  1.1950687E-02;  0.0000000E+00;  5.6207762E-03;  9.9925903E+02;  1.0617708E-01; -6.1385913E+02;3;  5.8990479E+00;  0.0000000E+00; -4.8622018E-01;0;  7.7341348E-02;  3.5446094E+04;  0.0000000E+00; -1.5351768E+00;  4.0000000E+04;  0.0000000E+00;  3.9970758E+04;  8.6899363E-02;  0.0000000E+00; -9.5580108E-03;  2.9394724E+03;
  6.7079824E-01;  9.9999998E-03; -2.7016702E-01;6536;  1.3297366E-02;  0.0000000E+00;  5.7829712E-03;  9.9917914E+02;  1.0811607E-01; -6.8007947E+02;3;  6.0160246E+00;  0.0000000E+00; -5.0033903E-01;0;  8.1524298E-02;  3.4183793E+04;  0.0000000E+00; -4.8725619E+00;  4.0000000E+04;  0.0000000E+00;  3.9958605E+04;  8.8924512E-02;  0.0000000E+00; -7.4002161E-03;  8.3063564E+03;
  6.7078674E-01;  9.9999998E-03; -2.6015389E-01;6537;  1.2282904E-02;  0.0000000E+00;  5.9821228E-03;  9.9938892E+02;  1.0811608E-01; -5.0625726E+02;3;  5.9275241E+00;  0.0000000E+00; -4.8207918E-01;0;  8.0389857E-02;  3.4198953E+04;  0.0000000E+00; -2.7287273E+00;  4.0000000E+04;  0.0000000E+00;  3.9956629E+04;  9.0874836E-02;  0.0000000E+00; -1.0484979E-02;  4.8256289E+03;
  6.7080414E-01;  9.9999998E-03; -2.5014243E-01;6538;  1.1325940E-02;  0.0000000E+00;  6.1605042E-03;  9.9959088E+02;  1.0811627E-01; -3.3895334E+02;3;  5.7780485E+00;  0.0000000E+00; -4.0122956E-01;0;  8.0801733E-02;  3.4214109E+04;  0.0000000E+00; -1.2705454E+00;  4.0000000E+04;  0.0000000E+00;  3.9953383E+04;  9.3253396E-02;  0.0000000E+00; -1.2451666E-02;  2.3980500E+03;
  6.7083001E-01;  9.9999998E-03; -2.4013618E-01;6539;  1.0524226E-02;  0.0000000E+00;  6.2066750E-03;  9.9977850E+02;  1.0811513E-01; -1.8350098E+02;3;  5.6323242E+00;  0.0000000E+00; -3.4209412E-01;0;  8.2844444E-02;  3.4229730E+04;  0.0000000E+00; -4.4335291E-01;  4.0000000E+04;  0.0000000E+00;  3.9948344E+04;  9.6020825E-02;  0.0000000E+00; -1.3176384E-02;  8.9137299E+02;
  6.7085397E-01;  9.9999998E-03; -2.3013736E-01;6540;  9.9907992E-03;  0.0000000E+00;  6.0740234E-03;  9.9996228E+02;  1.0811218E-01; -3.1258373E+01;3;  5.5253801E+00;  0.0000000E+00; -3.2521564E-01;0;  8.5735455E-02;  3.4246996E+04;  0.0000000E+00; -5.7457436E-02;  4.0000000E+04;  0.0000000E+00;  3.9943082E+04;  9.9107862E-02;  0.0000000E+00; -1.3372403E-02;  5.0977792E+02;
  6.7087120E-01;  9.9999998E-03; -2.2012872E-01;6541;  9.6608792E-03;  0.0000000E+00;  5.7910015E-03;  1.0001954E+03;  1.0810775E-01;  1.6187195E+02;3;  5.4940195E+00;  0.0000000E+00; -3.3420819E-01;0;  8.8657506E-02;  3.4264719E+04;  0.0000000E+00;  6.7904301E-02;  4.0000000E+04;  0.0000000E+00;  3.9942242E+04;  1.0238266E-01;  0.0000000E+00; -1.3725154E-02;  6.1126794E+02;
  6.7088383E-01;  9.9999998E-03; -2.1010290E-01;6542;  9.2902286E-03;  0.0000000E+00;  5.5434695E-03;  1.0004303E+03;  1.0810217E-01;  3.5653311E+02;3;  5.4755363E+00;  0.0000000E+00; -3.4297639E-01;0;  9.1021813E-02;  3.4282148E+04;  0.0000000E+00;  6.2440958E-02;  4.0000000E+04;  0.0000000E+00;  3.9943004E+04;  1.0565799E-01;  0.0000000E+00; -1.4636172E-02;  5.2661200E+02;
  6.7089194E-01;  9.9999998E-03; -2.0007356E-01;6543;  8.9398688E-03;  0.0000000E+00;  5.3388816E-03;  1.0006286E+03;  1.0809516E-01;  5.2077533E+02;3;  5.4301887E+00;  0.0000000E+00; -3.3354360E-01;0;  9.2997409E-02;  3.4298609E+04;  0.0000000E+00;  2.5684009E-03;  4.0000000E+04;  0.0000000E+00;  3.9942930E+04;  1.0882918E-01;  0.0000000E+00; -1.5831767E-02;  5.6281641E+02;
  6.7089462E-01;  9.9999998E-03; -1.9004862E-01;6544;  8.6495485E-03;  0.0000000E+00;  5.1275929E-03;  1.0007754E+03;  1.0808740E-01;  6.4235217E+02;3;  5.4116325E+00;  0.0000000E+00; -3.2579923E-01;0;  9.4664142E-02;  3.4313184E+04;  0.0000000E+00; -7.3994972E-02;  4.0000000E+04;  0.0000000E+00;  3.9942172E+04;  1.1179627E-01;  0.0000000E+00; -1.7132130E-02;  7.0559338E+02;
  6.7089409E-01;  9.9999998E-03; -1.8002881E-01;6545;  8.4363418E-03;  0.0000000E+00;  4.8987484E-03;  1.0008858E+03;  1.0807878E-01;  7.3390509E+02;3;  5.4214516E+00;  0.0000000E+00; -3.2328790E-01;0;  9.5996432E-02;  3.4325395E+04;  0.0000000E+00; -1.5232980E-01;  4.0000000E+04;  0.0000000E+00;  3.9941152E+04;  1.1447103E-01;  0.0000000E+00; -1.8474592E-02;  8.6424536E+02;
  6.7089236E-01;  9.9999998E-03; -1.7001307E-01;6546;  8.3226310E-03;  0.0000000E+00;  4.6520187E-03;  1.0009573E+03;  1.0807087E-01;  7.9316272E+02;3;  5.4425402E+00;  0.0000000E+00; -3.1575179E-01;0;  9.6975058E-02;  3.4335484E+04;  0.0000000E+00; -2.2941571E-01;  4.0000000E+04;  0.0000000E+00;  3.9940449E+04;  1.1678718E-01;  0.0000000E+00; -1.9812120E-02;  9.9894238E+02;
  6.7089188E-01;  9.9999998E-03; -1.6000012E-01;6547;  8.3235642E-03;  0.0000000E+00;  4.3833107E-03;  1.0009962E+03;  1.0806111E-01;  8.2535931E+02;3;  5.5062647E+00;  0.0000000E+00; -3.0613181E-01;0;  9.7600058E-02;  3.4343020E+04;  0.0000000E+00; -3.0583900E-01;  4.0000000E+04;  0.0000000E+00;  3.9940254E+04;  1.1869932E-01;  0.0000000E+00; -2.1099262E-02;  1.1042904E+03;
  6.7089355E-01;  9.9999998E-03; -1.4998911E-01;6548;  8.4401807E-03;  0.0000000E+00;  4.0987949E-03;  1.0010001E+03;  1.0805163E-01;  8.2861847E+02;3;  5.6063318E+00;  0.0000000E+00; -2.8613868E-01;0;  9.7888120E-02;  3.4348648E+04;  0.0000000E+00; -3.8028085E-01;  4.0000000E+04;  0.0000000E+00;  3.9940184E+04;  1.2018356E-01;  0.0000000E+00; -2.2295438E-02;  1.1827679E+03;
  6.7089725E-01;  9.9999998E-03; -1.3997976E-01;6549;  8.6781057E-03;  0.0000000E+00;  3.8052418E-03;  1.0009843E+03;  1.0804205E-01;  8.1548303E+02;3;  5.7428370E+00;  0.0000000E+00; -2.7191395E-01;0;  9.7868577E-02;  3.4352336E+04;  0.0000000E+00; -4.4674018E-01;  4.0000000E+04;  0.0000000E+00;  3.9940219E+04;  1.2124092E-01;  0.0000000E+00; -2.3372341E-02;  1.2308192E+03;
  6.7090231E-01;  9.9999998E-03; -1.2997222E-01;6550;  9.0126451E-03;  0.0000000E+00;  3.5024276E-03;  1.0009464E+03;  1.0803253E-01;  7.8407654E+02;3;  5.8980179E+00;  0.0000000E+00; -2.6843303E-01;0;  9.7563602E-02;  3.4355082E+04;  0.0000000E+00; -4.9605343E-01;  4.0000000E+04;  0.0000000E+00;  3.9940715E+04;  1.2188472E-01;  0.0000000E+00; -2.4321117E-02;  1.2381036E+03;
  6.7090851E-01;  9.9999998E-03; -1.1996682E-01;6551;  9.4129043E-03;  0.0000000E+00;  3.1986274E-03;  1.0009100E+03;  1.0802379E-01;  7.5385516E+02;3;  6.0723634E+00;  0.0000000E+00; -2.5640601E-01;0;  9.6995190E-02;  3.4357316E+04;  0.0000000E+00; -5.2053535E-01;  4.0000000E+04;  0.0000000E+00;  3.9941559E+04;  1.2214364E-01;  0.0000000E+00; -2.5148453E-02;  1.1961533E+03;
  6.7091519E-01;  9.9999998E-03; -1.0996386E-01;6552;  9.8408395E-03;  0.0000000E+00;  2.8956381E-03;  1.0008743E+03;  1.0801467E-01;  7.2432513E+02;3;  6.2467241E+00;  0.0000000E+00; -2.3327067E-01;0;  9.6193299E-02;  3.4359395E+04;  0.0000000E+00; -5.1642150E-01;  4.0000000E+04;  0.0000000E+00;  3.9942723E+04;  1.2205820E-01;  0.0000000E+00; -2.5864903E-02;  1.1056451E+03;
  6.8115461E-01;  9.9999998E-03; -2.7021465E-01;6597;  1.3751361E-02;  0.0000000E+00;  6.1369450E-03;  9.9906946E+02;  1.1035354E-01; -7.7094110E+02;3;  6.0311723E+00;  0.0000000E+00; -4.6633142E-01;0;  8.3018437E-02;  3.2810598E+04;  0.0000000E+00; -6.4359579E+00;  4.0000000E+04;  0.0000000E+00;  3.9945672E+04;  9.0938509E-02;  0.0000000E+00; -7.9200678E-03;  1.1356212E+04;
  6.8107033E-01;  9.9999998E-03; -2.6020303E-01;6598;  1.2759811E-02;  0.0000000E+00;  6.2748194E-03;  9.9927448E+02;  1.1034176E-01; -6.0106940E+02;3;  5.9296746E+00;  0.0000000E+00; -4.4859043E-01;0;  8.2470894E-02;  3.2831477E+04;  0.0000000E+00; -3.8180346E+00;  4.0000000E+04;  0.0000000E+00;  3.9943105E+04;  9.3143381E-02;  0.0000000E+00; -1.0672489E-02;  6.9221938E+03;
  6.8104184E-01;  9.9999998E-03; -2.5019449E-01;6599;  1.2013530E-02;  0.0000000E+00;  6.3546677E-03;  9.9946075E+02;  1.1033082E-01; -4.4675278E+02;3;  5.8055205E+00;  0.0000000E+00; -4.0780771E-01;0;  8.3497912E-02;  3.2851637E+04;  0.0000000E+00; -1.9169545E+00;  4.0000000E+04;  0.0000000E+00;  3.9939434E+04;  9.5793560E-02;  0.0000000E+00; -1.2295646E-02;  3.6387458E+03;
  6.8107229E-01;  9.9999998E-03; -2.4019296E-01;6600;  1.1590088E-02;  0.0000000E+00;  6.3027525E-03;  9.9962842E+02;  1.1032353E-01; -3.0784311E+02;3;  5.6952157E+00;  0.0000000E+00; -3.8006818E-01;0;  8.5890770E-02;  3.2869062E+04;  0.0000000E+00; -7.4196744E-01;  4.0000000E+04;  0.0000000E+00;  3.9934141E+04;  9.8866664E-02;  0.0000000E+00; -1.2975893E-02;  1.5181554E+03;
  6.8109369E-01;  9.9999998E-03; -2.3019996E-01;6601;  1.1562475E-02;  0.0000000E+00;  6.0791424E-03;  9.9981012E+02;  1.1031590E-01; -1.5732887E+02;3;  5.6737227E+00;  0.0000000E+00; -3.8438639E-01;0;  8.8962995E-02;  3.2887133E+04;  0.0000000E+00; -1.4448346E-01;  4.0000000E+04;  0.0000000E+00;  3.9929219E+04;  1.0228907E-01;  0.0000000E+00; -1.3326081E-02;  6.5639301E+02;
  6.8109548E-01;  9.9999998E-03; -2.2018993E-01;6602;  1.1593484E-02;  0.0000000E+00;  5.7385443E-03;  1.0000613E+03;  1.1030684E-01;  5.0763992E+01;3;  5.7490420E+00;  0.0000000E+00; -3.9629835E-01;0;  9.1877908E-02;  3.2906500E+04;  0.0000000E+00;  1.0514981E-01;  4.0000000E+04;  0.0000000E+00;  3.9930000E+04;  1.0583858E-01;  0.0000000E+00; -1.3960674E-02;  4.2432877E+02;
  6.8108577E-01;  9.9999998E-03; -2.1015334E-01;6603;  1.1514680E-02;  0.0000000E+00;  5.4796576E-03;  1.0003232E+03;  1.1029662E-01;  2.6774548E+02;3;  5.7828364E+00;  0.0000000E+00; -3.8637054E-01;0;  9.4174832E-02;  3.2925418E+04;  0.0000000E+00;  1.7146492E-01;  4.0000000E+04;  0.0000000E+00;  3.9932199E+04;  1.0933958E-01;  0.0000000E+00; -1.5164752E-02;  2.1780562E+02;
  6.8107224E-01;  9.9999998E-03; -2.0011213E-01;6604;  1.1489408E-02;  0.0000000E+00;  5.2692452E-03;  1.0005265E+03;  1.1028607E-01;  4.3623456E+02;3;  5.8431191E+00;  0.0000000E+00; -3.7480929E-01;0;  9.6155785E-02;  3.2943297E+04;  0.0000000E+00;  1.5098371E-01;  4.0000000E+04;  0.0000000E+00;  3.9932773E+04;  1.1272196E-01;  0.0000000E+00; -1.6566180E-02;  2.0898256E+02;
  6.8105602E-01;  9.9999998E-03; -1.9007838E-01;6605;  1.1489116E-02;  0.0000000E+00;  5.0617871E-03;  1.0006730E+03;  1.1027415E-01;  5.5761383E+02;3;  5.9184208E+00;  0.0000000E+00; -3.6424568E-01;0;  9.7847022E-02;  3.2959297E+04;  0.0000000E+00;  9.3016364E-02;  4.0000000E+04;  0.0000000E+00;  3.9931406E+04;  1.1585881E-01;  0.0000000E+00; -1.8011784E-02;  3.1911057E+02;
  6.8103939E-01;  9.9999998E-03; -1.8005207E-01;6606;  1.1493777E-02;  0.0000000E+00;  4.8367032E-03;  1.0007744E+03;  1.1026178E-01;  6.4156207E+02;3;  5.9865932E+00;  0.0000000E+00; -3.5338262E-01;0;  9.9184945E-02;  3.2972867E+04;  0.0000000E+00;  1.9841440E-02;  4.0000000E+04;  0.0000000E+00;  3.9930039E+04;  1.1864379E-01;  0.0000000E+00; -1.9458842E-02;  5.1217627E+02;
  6.8102348E-01;  9.9999998E-03; -1.7003165E-01;6607;  1.1524566E-02;  0.0000000E+00;  4.5918701E-03;  1.0008296E+03;  1.1024835E-01;  6.8728912E+02;3;  6.0759606E+00;  0.0000000E+00; -3.2664478E-01;0;  1.0012320E-01;  3.2983570E+04;  0.0000000E+00; -5.9735056E-02;  4.0000000E+04;  0.0000000E+00;  3.9928820E+04;  1.2100445E-01;  0.0000000E+00; -2.0881241E-02;  6.9465717E+02;
  6.8100965E-01;  9.9999998E-03; -1.6001540E-01;6608;  1.1594919E-02;  0.0000000E+00;  4.3233223E-03;  1.0008427E+03;  1.1023516E-01;  6.9815302E+02;3;  6.1733398E+00;  0.0000000E+00; -3.1075677E-01;0;  1.0064528E-01;  3.2991820E+04;  0.0000000E+00; -1.4236854E-01;  4.0000000E+04;  0.0000000E+00;  3.9927695E+04;  1.2289227E-01;  0.0000000E+00; -2.2246985E-02;  8.4294806E+02;
  6.8099809E-01;  9.9999998E-03; -1.5000115E-01;6609;  1.1707577E-02;  0.0000000E+00;  4.0368545E-03;  1.0008148E+03;  1.1022166E-01;  6.7504260E+02;3;  6.2793603E+00;  0.0000000E+00; -2.9074457E-01;0;  1.0075973E-01;  3.2997062E+04;  0.0000000E+00; -2.2507042E-01;  4.0000000E+04;  0.0000000E+00;  3.9927406E+04;  1.2428255E-01;  0.0000000E+00; -2.3522820E-02;  9.5770093E+02;
  6.8098789E-01;  9.9999998E-03; -1.3998847E-01;6610;  1.1859958E-02;  0.0000000E+00;  3.7352375E-03;  1.0007526E+03;  1.1020774E-01;  6.2348846E+02;3;  6.3969254E+00;  0.0000000E+00; -2.6598257E-01;0;  1.0049349E-01;  3.3000375E+04;  0.0000000E+00; -3.0205637E-01;  4.0000000E+04;  0.0000000E+00;  3.9927195E+04;  1.2517597E-01;  0.0000000E+00; -2.4682479E-02;  1.0380952E+03;
  6.8097836E-01;  9.9999998E-03; -1.2997793E-01;6611;  1.2033593E-02;  0.0000000E+00;  3.4280722E-03;  1.0006701E+03;  1.1019445E-01;  5.5514478E+02;3;  6.5016618E+00;  0.0000000E+00; -2.3595968E-01;0;  9.9874482E-02;  3.3001816E+04;  0.0000000E+00; -3.6462405E-01;  4.0000000E+04;  0.0000000E+00;  3.9927566E+04;  1.2559009E-01;  0.0000000E+00; -2.5715608E-02;  1.0760925E+03;
  6.8096906E-01;  9.9999998E-03; -1.1996999E-01;6612;  1.2213458E-02;  0.0000000E+00;  3.1221446E-03;  1.0005753E+03;  1.1018089E-01;  4.7662845E+02;3;  6.5851831E+00;  0.0000000E+00; -2.0015967E-01;0;  9.8936632E-02;  3.3002664E+04;  0.0000000E+00; -4.0470994E-01;  4.0000000E+04;  0.0000000E+00;  3.9928266E+04;  1.2556212E-01;  0.0000000E+00; -2.6625484E-02;  1.0636489E+03;
  6.8095928E-01;  9.9999998E-03; -1.0996495E-01;6613;  1.2379658E-02;  0.0000000E+00;  2.8197870E-03;  1.0004827E+03;  1.1016810E-01;  3.9988989E+02;3;  6.6450205E+00;  0.0000000E+00; -1.4920114E-01;0;  9.7723767E-02;  3.3003062E+04;  0.0000000E+00; -4.1759312E-01;  4.0000000E+04;  0.0000000E+00;  3.9929176E+04;  1.2514316E-01;  0.0000000E+00; -2.7419388E-02;  1.0008359E+03;
  6.9258249E-01;  9.9999998E-03; -2.7026838E-01;6658;  1.4795204E-02;  0.0000000E+00;  6.5066456E-03;  9.9880750E+02;  1.1302149E-01; -9.8797198E+02;3;  6.1168938E+00;  0.0000000E+00; -3.9956516E-01;0;  8.2266979E-02;  3.1275365E+04;  0.0000000E+00; -5.5641432E+00;  4.0000000E+04;  0.0000000E+00;  3.9931395E+04;  9.0307936E-02;  0.0000000E+00; -8.0409572E-03;  1.0586613E+04;
  6.9235283E-01;  9.9999998E-03; -2.6025641E-01;6659;  1.3665325E-02;  0.0000000E+00;  6.5307561E-03;  9.9895642E+02;  1.1297819E-01; -8.6456805E+02;3;  5.9089174E+00;  0.0000000E+00; -4.0022290E-01;0;  8.2634181E-02;  3.1308635E+04;  0.0000000E+00; -3.4769328E+00;  4.0000000E+04;  0.0000000E+00;  3.9929238E+04;  9.2714630E-02;  0.0000000E+00; -1.0080448E-02;  6.8704497E+03;
  6.9219607E-01;  9.9999998E-03; -2.5024873E-01;6660;  1.3218033E-02;  0.0000000E+00;  6.4944415E-03;  9.9909869E+02;  1.1294331E-01; -7.4669489E+02;3;  5.7603025E+00;  0.0000000E+00; -3.9331976E-01;0;  8.4168591E-02;  3.1338350E+04;  0.0000000E+00; -1.8159351E+00;  4.0000000E+04;  0.0000000E+00;  3.9925375E+04;  9.5603988E-02;  0.0000000E+00; -1.1435396E-02;  3.8487556E+03;
  6.9208282E-01;  9.9999998E-03; -2.4024874E-01;6661;  1.3423413E-02;  0.0000000E+00;  6.3551604E-03;  9.9925348E+02;  1.1291521E-01; -6.1850098E+02;3;  5.7324553E+00;  0.0000000E+00; -3.9712572E-01;0;  8.6654261E-02;  3.1365420E+04;  0.0000000E+00; -7.2755814E-01;  4.0000000E+04;  0.0000000E+00;  3.9920562E+04;  9.8959282E-02;  0.0000000E+00; -1.2305018E-02;  1.7549312E+03;
  6.9198853E-01;  9.9999998E-03; -2.3025863E-01;6662;  1.3891639E-02;  0.0000000E+00;  6.1201272E-03;  9.9942200E+02;  1.1288901E-01; -4.7885062E+02;3;  5.8863163E+00;  0.0000000E+00; -3.7168059E-01;0;  8.9428037E-02;  3.1391928E+04;  0.0000000E+00; -1.0720971E-01;  4.0000000E+04;  0.0000000E+00;  3.9915676E+04;  1.0258356E-01;  0.0000000E+00; -1.3155530E-02;  5.5643451E+02;
  6.9190347E-01;  9.9999998E-03; -2.2025698E-01;6663;  1.4068254E-02;  0.0000000E+00;  5.7611209E-03;  9.9965881E+02;  1.1286337E-01; -2.8265866E+02;3;  6.0223064E+00;  0.0000000E+00; -3.7257850E-01;0;  9.2053883E-02;  3.1417783E+04;  0.0000000E+00;  2.0095770E-01;  4.0000000E+04;  0.0000000E+00;  3.9915957E+04;  1.0618778E-01;  0.0000000E+00; -1.4133896E-02;  1.9340674E+02;
  6.9183260E-01;  9.9999998E-03; -2.1022271E-01;6664;  1.4072399E-02;  0.0000000E+00;  5.4711923E-03;  9.9991858E+02;  1.1284046E-01; -6.7454880E+01;3;  6.0826101E+00;  0.0000000E+00; -3.5846865E-01;0;  9.4138108E-02;  3.1441912E+04;  0.0000000E+00;  3.2328913E-01;  4.0000000E+04;  0.0000000E+00;  3.9919129E+04;  1.0971062E-01;  0.0000000E+00; -1.5572508E-02;  3.9278757E+02;
  6.9177997E-01;  9.9999998E-03; -2.0017797E-01;6665;  1.4175544E-02;  0.0000000E+00;  5.2519962E-03;  1.0001263E+03;  1.1282057E-01;  1.0468839E+02;3;  6.1947355E+00;  0.0000000E+00; -3.2866320E-01;0;  9.5964044E-02;  3.1463332E+04;  0.0000000E+00;  3.4517825E-01;  4.0000000E+04;  0.0000000E+00;  3.9919980E+04;  1.1313263E-01;  0.0000000E+00; -1.7168578E-02;  5.0482516E+02;
  6.9174117E-01;  9.9999998E-03; -1.9014078E-01;6666;  1.4289429E-02;  0.0000000E+00;  5.0478987E-03;  1.0002688E+03;  1.1280186E-01;  2.2270973E+02;3;  6.3067112E+00;  0.0000000E+00; -2.9977125E-01;0;  9.7547136E-02;  3.1481609E+04;  0.0000000E+00;  3.1533101E-01;  4.0000000E+04;  0.0000000E+00;  3.9918738E+04;  1.1630790E-01;  0.0000000E+00; -1.8760763E-02;  4.1966971E+02;
  6.9171089E-01;  9.9999998E-03; -1.8011315E-01;6667;  1.4362074E-02;  0.0000000E+00;  4.8295674E-03;  1.0003561E+03;  1.1278380E-01;  2.9510275E+02;3;  6.4080043E+00;  0.0000000E+00; -2.7796873E-01;0;  9.8797381E-02;  3.1496580E+04;  0.0000000E+00;  2.5839898E-01;  4.0000000E+04;  0.0000000E+00;  3.9916996E+04;  1.1911979E-01;  0.0000000E+00; -2.0322407E-02;  3.7045901E+02;
  6.9168621E-01;  9.9999998E-03; -1.7009190E-01;6668;  1.4392078E-02;  0.0000000E+00;  4.5880498E-03;  1.0003878E+03;  1.1276562E-01;  3.2127484E+02;3;  6.4987316E+00;  0.0000000E+00; -2.3316003E-01;0;  9.9643111E-02;  3.1508078E+04;  0.0000000E+00;  1.8661493E-01;  4.0000000E+04;  0.0000000E+00;  3.9915309E+04;  1.2148967E-01;  0.0000000E+00; -2.1846553E-02;  4.4236807E+02;
  6.9166589E-01;  9.9999998E-03; -1.6007465E-01;6669;  1.4380930E-02;  0.0000000E+00;  4.3332004E-03;  1.0003710E+03;  1.1274809E-01;  3.0734930E+02;3;  6.5534325E+00;  0.0000000E+00; -1.4568365E-01;0;  1.0004848E-01;  3.1516162E+04;  0.0000000E+00;  1.0699852E-01;  4.0000000E+04;  0.0000000E+00;  3.9914113E+04;  1.2336408E-01;  0.0000000E+00; -2.3315597E-02;  5.6163379E+02;
  6.9164950E-01;  9.9999998E-03; -1.5005949E-01;6670;  1.4344269E-02;  0.0000000E+00;  4.0647201E-03;  1.0003069E+03;  1.1273090E-01;  2.5421501E+02;3;  6.5805545E+00;  0.0000000E+00; -5.4551817E-02;0;  1.0001836E-01;  3.1520838E+04;  0.0000000E+00;  2.4723280E-02;  4.0000000E+04;  0.0000000E+00;  3.9913039E+04;  1.2472121E-01;  0.0000000E+00; -2.4702849E-02;  6.7442297E+02;
  6.9163537E-01;  9.9999998E-03; -1.4004537E-01;6671;  1.4282580E-02;  0.0000000E+00;  3.7868959E-03;  1.0001974E+03;  1.1271386E-01;  1.6355092E+02;3;  6.5493946E+00;  0.0000000E+00;  3.5926405E-02;0;  9.9577263E-02;  3.1522672E+04;  0.0000000E+00; -5.4814339E-02;  4.0000000E+04;  0.0000000E+00;  3.9912707E+04;  1.2556103E-01;  0.0000000E+00; -2.5983762E-02;  7.6031238E+02;
  6.9162077E-01;  9.9999998E-03; -1.3003255E-01;6672;  1.4199507E-02;  0.0000000E+00;  3.5061254E-03;  1.0000612E+03;  1.1269723E-01;  5.0665230E+01;3;  6.5055413E+00;  0.0000000E+00;  1.2381898E-01;0;  9.8760337E-02;  3.1522605E+04;  0.0000000E+00; -1.2465555E-01;  4.0000000E+04;  0.0000000E+00;  3.9912453E+04;  1.2590523E-01;  0.0000000E+00; -2.7144892E-02;  8.0731293E+02;
  6.9160253E-01;  9.9999998E-03; -1.2002156E-01;6673;  1.4087213E-02;  0.0000000E+00;  3.2214657E-03;  9.9990277E+02;  1.1267979E-01; -8.0540924E+01;3;  6.4678192E+00;  0.0000000E+00;  1.7023447E-01;0;  9.7604968E-02;  3.1521459E+04;  0.0000000E+00; -1.7784645E-01;  4.0000000E+04;  0.0000000E+00;  3.9912895E+04;  1.2578952E-01;  0.0000000E+00; -2.8184554E-02;  8.0809167E+02;
  6.9157922E-01;  9.9999998E-03; -1.1001280E-01;6674;  1.3953621E-02;  0.0000000E+00;  2.9351485E-03;  9.9975378E+02;  1.1266281E-01; -2.0399422E+02;3;  6.4323487E+00;  0.0000000E+00;  2.1044667E-01;0;  9.6166238E-02;  3.1520523E+04;  0.0000000E+00; -2.0974594E-01;  4.0000000E+04;  0.0000000E+00;  3.9913746E+04;  1.2527086E-01;  0.0000000E+00; -2.9104624E-02;  7.6381226E+02;
  7.0507920E-01;  9.9999998E-03; -2.7033576E-01;6719;  1.7388618E-02;  0.0000000E+00;  6.8602869E-03;  9.9887305E+02;  1.1626185E-01; -9.3365253E+02;3;  6.2669005E+00;  0.0000000E+00; -2.4430916E-01;0;  7.8347258E-02;  2.9581660E+04;  0.0000000E+00; -4.0124593E+00;  4.0000000E+04;  0.0000000E+00;  3.9910379E+04;  8.5474521E-02;  0.0000000E+00; -7.1272599E-03;  8.5692285E+03;
  7.0476574E-01;  9.9999998E-03; -2.6032329E-01;6720;  1.6379958E-02;  0.0000000E+00;  6.8684593E-03;  9.9891229E+02;  1.1619013E-01; -9.0115961E+02;3;  6.0918217E+00;  0.0000000E+00; -2.7005717E-01;0;  7.8733429E-02;  2.9620604E+04;  0.0000000E+00; -2.4858699E+00;  4.0000000E+04;  0.0000000E+00;  3.9908676E+04;  8.8235952E-02;  0.0000000E+00; -9.5025189E-03;  5.6400840E+03;
  7.0451087E-01;  9.9999998E-03; -2.5031558E-01;6721;  1.6147666E-02;  0.0000000E+00;  6.7861616E-03;  9.9896472E+02;  1.1612611E-01; -8.5770410E+02;3;  6.0112734E+00;  0.0000000E+00; -2.6013786E-01;0;  8.0390275E-02;  2.9657559E+04;  0.0000000E+00; -1.2275670E+00;  4.0000000E+04;  0.0000000E+00;  3.9905508E+04;  9.1357626E-02;  0.0000000E+00; -1.0967352E-02;  3.1702615E+03;
  7.0432860E-01;  9.9999998E-03; -2.4031352E-01;6722;  1.6356343E-02;  0.0000000E+00;  6.5754438E-03;  9.9905292E+02;  1.1607354E-01; -7.8461975E+02;3;  6.0819745E+00;  0.0000000E+00; -2.3396005E-01;0;  8.2853124E-02;  2.9690029E+04;  0.0000000E+00; -3.5743877E-01;  4.0000000E+04;  0.0000000E+00;  3.9902527E+04;  9.4741240E-02;  0.0000000E+00; -1.1888119E-02;  1.4083615E+03;
  7.0416731E-01;  9.9999998E-03; -2.3032561E-01;6723;  1.6745033E-02;  0.0000000E+00;  6.3377866E-03;  9.9915576E+02;  1.1602541E-01; -6.9943695E+02;3;  6.2416978E+00;  0.0000000E+00; -1.9475546E-01;0;  8.5198380E-02;  2.9722111E+04;  0.0000000E+00;  1.5154032E-01;  4.0000000E+04;  0.0000000E+00;  3.9898449E+04;  9.8303720E-02;  0.0000000E+00; -1.3105338E-02;  2.4950177E+02;
  7.0402640E-01;  9.9999998E-03; -2.2035329E-01;6724;  1.6978228E-02;  0.0000000E+00;  6.0463827E-03;  9.9928882E+02;  1.1598013E-01; -5.8921783E+02;3;  6.3713837E+00;  0.0000000E+00; -1.3697843E-01;0;  8.7402917E-02;  2.9753191E+04;  0.0000000E+00;  4.1939917E-01;  4.0000000E+04;  0.0000000E+00;  3.9895176E+04;  1.0187323E-01;  0.0000000E+00; -1.4470315E-02;  5.5066589E+02;
  7.0389652E-01;  9.9999998E-03; -2.1035829E-01;6725;  1.6912822E-02;  0.0000000E+00;  5.7183895E-03;  9.9950189E+02;  1.1593700E-01; -4.1267966E+02;3;  6.4124398E+00;  0.0000000E+00; -1.1933772E-01;0;  8.9335985E-02;  2.9783598E+04;  0.0000000E+00;  5.3909671E-01;  4.0000000E+04;  0.0000000E+00;  3.9897449E+04;  1.0533558E-01;  0.0000000E+00; -1.5999593E-02;  6.6179449E+02;
  7.0379865E-01;  9.9999998E-03; -2.0033439E-01;6726;  1.6814912E-02;  0.0000000E+00;  5.4606139E-03;  9.9971674E+02;  1.1590143E-01; -2.3466002E+02;3;  6.3840685E+00;  0.0000000E+00;  2.9488930E-02;0;  9.0980768E-02;  2.9809955E+04;  0.0000000E+00;  5.7581276E-01;  4.0000000E+04;  0.0000000E+00;  3.9900203E+04;  1.0867699E-01;  0.0000000E+00; -1.7696220E-02;  7.6148846E+02;
  7.0373160E-01;  9.9999998E-03; -1.9030455E-01;6727;  1.6714668E-02;  0.0000000E+00;  5.2709035E-03;  9.9986664E+02;  1.1587207E-01; -1.1046600E+02;3;  6.2437949E+00;  0.0000000E+00;  2.7044502E-01;0;  9.2390105E-02;  2.9831580E+04;  0.0000000E+00;  5.6603104E-01;  4.0000000E+04;  0.0000000E+00;  3.9900844E+04;  1.1180827E-01;  0.0000000E+00; -1.9418165E-02;  8.0268048E+02;
  7.0368212E-01;  9.9999998E-03; -1.8028025E-01;6728;  1.6622862E-02;  0.0000000E+00;  5.0799763E-03;  9.9995905E+02;  1.1584578E-01; -3.3924965E+01;3;  6.1474237E+00;  0.0000000E+00;  4.2502925E-01;0;  9.3545303E-02;  2.9849373E+04;  0.0000000E+00;  5.2876192E-01;  4.0000000E+04;  0.0000000E+00;  3.9900195E+04;  1.1464844E-01;  0.0000000E+00; -2.1103138E-02;  7.5747748E+02;
  7.0365143E-01;  9.9999998E-03; -1.7026193E-01;6729;  1.6496442E-02;  0.0000000E+00;  4.8763081E-03;  9.9999518E+02;  1.1582267E-01; -3.9998865E+00;3;  6.0237770E+00;  0.0000000E+00;  5.8641273E-01;0;  9.4354458E-02;  2.9862129E+04;  0.0000000E+00;  4.7436389E-01;  4.0000000E+04;  0.0000000E+00;  3.9898836E+04;  1.1710921E-01;  0.0000000E+00; -2.2754753E-02;  7.0285938E+02;
  7.0363623E-01;  9.9999998E-03; -1.6024803E-01;6730;  1.6307753E-02;  0.0000000E+00;  4.6539418E-03;  9.9995770E+02;  1.1580241E-01; -3.5060734E+01;3;  5.9305763E+00;  0.0000000E+00;  6.5945834E-01;0;  9.4762176E-02;  2.9869898E+04;  0.0000000E+00;  4.0999809E-01;  4.0000000E+04;  0.0000000E+00;  3.9897398E+04;  1.1912862E-01;  0.0000000E+00; -2.4366448E-02;  6.8411810E+02;
  7.0363456E-01;  9.9999998E-03; -1.5023597E-01;6731;  1.6088322E-02;  0.0000000E+00;  4.4138846E-03;  9.9986713E+02;  1.1578504E-01; -1.1007095E+02;3;  5.8695726E+00;  0.0000000E+00;  7.0390308E-01;0;  9.4771326E-02;  2.9872664E+04;  0.0000000E+00;  3.4153816E-01;  4.0000000E+04;  0.0000000E+00;  3.9896117E+04;  1.2068862E-01;  0.0000000E+00; -2.5917294E-02;  6.9996240E+02;
  7.0364469E-01;  9.9999998E-03; -1.4022373E-01;6732;  1.5832331E-02;  0.0000000E+00;  4.1554659E-03;  9.9972009E+02;  1.1577030E-01; -2.3189465E+02;3;  5.8398776E+00;  0.0000000E+00;  7.1571124E-01;0;  9.4397798E-02;  2.9871061E+04;  0.0000000E+00;  2.7319446E-01;  4.0000000E+04;  0.0000000E+00;  3.9895410E+04;  1.2177973E-01;  0.0000000E+00; -2.7381938E-02;  7.2008203E+02;
  7.0366108E-01;  9.9999998E-03; -1.3021080E-01;6733;  1.5546967E-02;  0.0000000E+00;  3.8829420E-03;  9.9953540E+02;  1.1575778E-01; -3.8492737E+02;3;  5.8550487E+00;  0.0000000E+00;  6.9200164E-01;0;  9.3676277E-02;  2.9866027E+04;  0.0000000E+00;  2.0846935E-01;  4.0000000E+04;  0.0000000E+00;  3.9894789E+04;  1.2241792E-01;  0.0000000E+00; -2.8741641E-02;  7.1661139E+02;
  7.0367867E-01;  9.9999998E-03; -1.2019707E-01;6734;  1.5247196E-02;  0.0000000E+00;  3.5971014E-03;  9.9933081E+02;  1.1574624E-01; -5.5440405E+02;3;  5.9371185E+00;  0.0000000E+00;  6.4309585E-01;0;  9.2646182E-02;  2.9859062E+04;  0.0000000E+00;  1.5106919E-01;  4.0000000E+04;  0.0000000E+00;  3.9894898E+04;  1.2263437E-01;  0.0000000E+00; -2.9988181E-02;  6.7802496E+02;
  7.0369172E-01;  9.9999998E-03; -1.1018307E-01;6735;  1.4942105E-02;  0.0000000E+00;  3.2969315E-03;  9.9911755E+02;  1.1573510E-01; -7.3109039E+02;3;  6.0023575E+00;  0.0000000E+00;  5.9925944E-01;0;  9.1357216E-02;  2.9851672E+04;  0.0000000E+00;  1.0374652E-01;  4.0000000E+04;  0.0000000E+00;  3.9895121E+04;  1.2247307E-01;  0.0000000E+00; -3.1115856E-02;  6.0608081E+02;
  7.1718186E-01;  9.9999998E-03; -2.7040789E-01;6780;  2.0352529E-02;  0.0000000E+00;  7.2637922E-03;  9.9912946E+02;  1.1973206E-01; -7.2121411E+02;3;  5.8081012E+00;  0.0000000E+00;  6.1265413E-02;0;  6.9569223E-02;  2.7928996E+04;  0.0000000E+00; -4.2983871E+00;  4.0000000E+04;  0.0000000E+00;  3.9885707E+04;  7.5932294E-02;  0.0000000E+00; -6.3630720E-03;  9.5426221E+03;
  7.1709251E-01;  9.9999998E-03; -2.6039669E-01;6781;  1.9398134E-02;  0.0000000E+00;  7.2814734E-03;  9.9911218E+02;  1.1970442E-01; -7.3553467E+02;3;  5.9721217E+00;  0.0000000E+00;  5.6006715E-02;0;  6.9748871E-02;  2.7941434E+04;  0.0000000E+00; -2.4834290E+00;  4.0000000E+04;  0.0000000E+00;  3.9883953E+04;  7.8766927E-02;  0.0000000E+00; -9.0180589E-03;  5.9174976E+03;
  7.1692681E-01;  9.9999998E-03; -2.5038877E-01;6782;  1.9089755E-02;  0.0000000E+00;  7.1364655E-03;  9.9909723E+02;  1.1964690E-01; -7.4792938E+02;3;  6.0166507E+00;  0.0000000E+00;  6.5066919E-02;0;  7.1650274E-02;  2.7968855E+04;  0.0000000E+00; -1.1252890E+00;  4.0000000E+04;  0.0000000E+00;  3.9882004E+04;  8.1930414E-02;  0.0000000E+00; -1.0280139E-02;  3.1488950E+03;
  7.1677816E-01;  9.9999998E-03; -2.4038371E-01;6783;  1.9075036E-02;  0.0000000E+00;  6.8357121E-03;  9.9914484E+02;  1.1959382E-01; -7.0847375E+02;3;  5.9951634E+00;  0.0000000E+00;  1.3701969E-01;0;  7.4172191E-02;  2.7996207E+04;  0.0000000E+00; -2.4356081E-01;  4.0000000E+04;  0.0000000E+00;  3.9881125E+04;  8.5261956E-02;  0.0000000E+00; -1.1089764E-02;  1.3365649E+03;
  7.1665221E-01;  9.9999998E-03; -2.3039074E-01;6784;  1.9117493E-02;  0.0000000E+00;  6.5972898E-03;  9.9922992E+02;  1.1954912E-01; -6.3800659E+02;3;  5.7345004E+00;  0.0000000E+00;  4.7259703E-01;0;  7.6046340E-02;  2.8021676E+04;  0.0000000E+00;  2.7104023E-01;  4.0000000E+04;  0.0000000E+00;  3.9878867E+04;  8.8692009E-02;  0.0000000E+00; -1.2645666E-02;  2.0019028E+02;
  7.1653724E-01;  9.9999998E-03; -2.2042711E-01;6785;  1.9047074E-02;  0.0000000E+00;  6.4632613E-03;  9.9932257E+02;  1.1950796E-01; -5.6121863E+02;3;  5.1049681E+00;  0.0000000E+00;  1.0619606E+00;0;  7.7575758E-02;  2.8047531E+04;  0.0000000E+00;  5.4632443E-01;  4.0000000E+04;  0.0000000E+00;  3.9874918E+04;  9.2155583E-02;  0.0000000E+00; -1.4579823E-02;  6.2859375E+02;
  7.1643388E-01;  9.9999998E-03; -2.1046326E-01;6786;  1.8840102E-02;  0.0000000E+00;  6.2698419E-03;  9.9948828E+02;  1.1946791E-01; -4.2393860E+02;3;  4.6233683E+00;  0.0000000E+00;  1.3317584E+00;0;  7.9217441E-02;  2.8073510E+04;  0.0000000E+00;  6.7855769E-01;  4.0000000E+04;  0.0000000E+00;  3.9875137E+04;  9.5601954E-02;  0.0000000E+00; -1.6384510E-02;  9.0208911E+02;
  7.1633995E-01;  9.9999998E-03; -2.0046604E-01;6787;  1.8546999E-02;  0.0000000E+00;  6.0720434E-03;  9.9970160E+02;  1.1942969E-01; -2.4720287E+02;3;  4.4261813E+00;  0.0000000E+00;  1.4149228E+00;0;  8.0807306E-02;  2.8098902E+04;  0.0000000E+00;  7.3031741E-01;  4.0000000E+04;  0.0000000E+00;  3.9878723E+04;  9.8992847E-02;  0.0000000E+00; -1.8185539E-02;  9.6297900E+02;
  7.1626663E-01;  9.9999998E-03; -1.9044797E-01;6788;  1.8256621E-02;  0.0000000E+00;  5.8962316E-03;  9.9987823E+02;  1.1939494E-01; -1.0088602E+02;3;  4.4421740E+00;  0.0000000E+00;  1.4156482E+00;0;  8.2274988E-02;  2.8121713E+04;  0.0000000E+00;  7.3796743E-01;  4.0000000E+04;  0.0000000E+00;  3.9880969E+04;  1.0226514E-01;  0.0000000E+00; -1.9990152E-02;  1.0556104E+03;
  7.1622461E-01;  9.9999998E-03; -1.8042447E-01;6789;  1.8002534E-02;  0.0000000E+00;  5.7218815E-03;  9.9999420E+02;  1.1936641E-01; -4.7899876E+00;3;  4.4603362E+00;  0.0000000E+00;  1.4256880E+00;0;  8.3552696E-02;  2.8139881E+04;  0.0000000E+00;  7.2083533E-01;  4.0000000E+04;  0.0000000E+00;  3.9881027E+04;  1.0534226E-01;  0.0000000E+00; -2.1789566E-02;  1.0790474E+03;
  7.1621376E-01;  9.9999998E-03; -1.7040330E-01;6790;  1.7748632E-02;  0.0000000E+00;  5.5248248E-03;  1.0000457E+03;  1.1934421E-01;  3.7826088E+01;3;  4.5308194E+00;  0.0000000E+00;  1.3976275E+00;0;  8.4556341E-02;  2.8152229E+04;  0.0000000E+00;  6.8915766E-01;  4.0000000E+04;  0.0000000E+00;  3.9879879E+04;  1.0814758E-01;  0.0000000E+00; -2.3591235E-02;  1.0573279E+03;
  7.1623033E-01;  9.9999998E-03; -1.6038617E-01;6791;  1.7473008E-02;  0.0000000E+00;  5.3006783E-03;  1.0000280E+03;  1.1932784E-01;  2.3209219E+01;3;  4.6719713E+00;  0.0000000E+00;  1.3367050E+00;0;  8.5238338E-02;  2.8158441E+04;  0.0000000E+00;  6.4987779E-01;  4.0000000E+04;  0.0000000E+00;  3.9878398E+04;  1.1062776E-01;  0.0000000E+00; -2.5389414E-02;  1.0456208E+03;
  7.1626943E-01;  9.9999998E-03; -1.5037280E-01;6792;  1.7179191E-02;  0.0000000E+00;  5.0512557E-03;  9.9994635E+02;  1.1931631E-01; -4.4443184E+01;3;  4.8589377E+00;  0.0000000E+00;  1.2543076E+00;0;  8.5594848E-02;  2.8158596E+04;  0.0000000E+00;  6.0822433E-01;  4.0000000E+04;  0.0000000E+00;  3.9876984E+04;  1.1275405E-01;  0.0000000E+00; -2.7159208E-02;  1.0600640E+03;
  7.1632683E-01;  9.9999998E-03; -1.4036024E-01;6793;  1.6859550E-02;  0.0000000E+00;  4.7768769E-03;  9.9980133E+02;  1.1931024E-01; -1.6458792E+02;3;  5.0762720E+00;  0.0000000E+00;  1.1659137E+00;0;  8.5642412E-02;  2.8153232E+04;  0.0000000E+00;  5.6637603E-01;  4.0000000E+04;  0.0000000E+00;  3.9875848E+04;  1.1451109E-01;  0.0000000E+00; -2.8868681E-02;  1.0791848E+03;
  7.1639574E-01;  9.9999998E-03; -1.3034624E-01;6794;  1.6524805E-02;  0.0000000E+00;  4.4829403E-03;  9.9961475E+02;  1.1930790E-01; -3.1915143E+02;3;  5.2896457E+00;  0.0000000E+00;  1.0914686E+00;0;  8.5410565E-02;  2.8143484E+04;  0.0000000E+00;  5.2331853E-01;  4.0000000E+04;  0.0000000E+00;  3.9875148E+04;  1.1590236E-01;  0.0000000E+00; -3.0491794E-02;  1.0741315E+03;
  7.1646738E-01;  9.9999998E-03; -1.2033048E-01;6795;  1.6184660E-02;  0.0000000E+00;  4.1721612E-03;  9.9940454E+02;  1.1930835E-01; -4.9331934E+02;3;  5.4868851E+00;  0.0000000E+00;  1.0227802E+00;0;  8.4927529E-02;  2.8131135E+04;  0.0000000E+00;  4.7743624E-01;  4.0000000E+04;  0.0000000E+00;  3.9874773E+04;  1.1694016E-01;  0.0000000E+00; -3.2012634E-02;  1.0304324E+03;
  7.1653384E-01;  9.9999998E-03; -1.1031299E-01;6796;  1.5834950E-02;  0.0000000E+00;  3.8449247E-03;  9.9918127E+02;  1.1930906E-01; -6.7830176E+02;3;  5.7193704E+00;  0.0000000E+00;  9.1297615E-01;0;  8.4224001E-02;  2.8117900E+04;  0.0000000E+00;  4.2757317E-01;  4.0000000E+04;  0.0000000E+00;  3.9874945E+04;  1.1764079E-01;  0.0000000E+00; -3.3416796E-02;  9.4748743E+02;
  7.2865736E-01;  9.9999998E-03; -2.7047324E-01;6841;  2.2068067E-02;  0.0000000E+00;  7.7922093E-03;  9.9897369E+02;  1.2324647E-01; -8.5029681E+02;3; -3.2876205E-01;  0.0000000E+00;  1.5349698E-01;0;  5.5891771E-02;  2.6368076E+04;  0.0000000E+00; -4.1492167E+00;  4.0000000E+04;  0.0000000E+00;  3.9866551E+04;  6.2816396E-02;  0.0000000E+00; -6.9246260E-03;  9.5306006E+03;
  7.2869891E-01;  9.9999998E-03; -2.6046100E-01;6842;  2.1335060E-02;  0.0000000E+00;  7.7948146E-03;  9.9896265E+02;  1.2325588E-01; -8.5943237E+02;3;  1.9882915E+00;  0.0000000E+00;  5.8330560E-01;0;  5.6640550E-02;  2.6364971E+04;  0.0000000E+00; -2.5362098E+00;  4.0000000E+04;  0.0000000E+00;  3.9864262E+04;  6.5708071E-02;  0.0000000E+00; -9.0675196E-03;  6.2119287E+03;
  7.2873586E-01;  9.9999998E-03; -2.5045061E-01;6843;  2.0845981E-02;  0.0000000E+00;  7.6270723E-03;  9.9897687E+02;  1.2325760E-01; -8.4763025E+02;3;  2.2697968E+00;  0.0000000E+00;  1.0238351E+00;0;  5.8793817E-02;  2.6366574E+04;  0.0000000E+00; -1.2486174E+00;  4.0000000E+04;  0.0000000E+00;  3.9862547E+04;  6.8756789E-02;  0.0000000E+00; -9.9629723E-03;  3.5403611E+03;
  7.2875798E-01;  9.9999998E-03; -2.4043804E-01;6844;  2.0453587E-02;  0.0000000E+00;  7.3822243E-03;  9.9906586E+02;  1.2325640E-01; -7.7390393E+02;3;  1.8034706E+00;  0.0000000E+00;  1.5804552E+00;0;  6.0937151E-02;  2.6371490E+04;  0.0000000E+00; -3.6588895E-01;  4.0000000E+04;  0.0000000E+00;  3.9863238E+04;  7.1952775E-02;  0.0000000E+00; -1.1015622E-02;  1.7753201E+03;
  7.2875780E-01;  9.9999998E-03; -2.3043023E-01;6845;  2.0082409E-02;  0.0000000E+00;  7.2239833E-03;  9.9918634E+02;  1.2324976E-01; -6.7410431E+02;3;  1.7815036E+00;  0.0000000E+00;  1.6662956E+00;0;  6.2435057E-02;  2.6380641E+04;  0.0000000E+00;  1.7690234E-01;  4.0000000E+04;  0.0000000E+00;  3.9863160E+04;  7.5292177E-02;  0.0000000E+00; -1.2857120E-02;  8.2772174E+02;
  7.2872615E-01;  9.9999998E-03; -2.2045344E-01;6846;  1.9769169E-02;  0.0000000E+00;  7.1356571E-03;  9.9929755E+02;  1.2323262E-01; -5.8195874E+02;3;  2.0079491E+00;  0.0000000E+00;  1.7020303E+00;0;  6.3912861E-02;  2.6395789E+04;  0.0000000E+00;  4.8427561E-01;  4.0000000E+04;  0.0000000E+00;  3.9858922E+04;  7.8778803E-02;  0.0000000E+00; -1.4865942E-02;  3.0473523E+02;
  7.2867370E-01;  9.9999998E-03; -2.1049283E-01;6847;  1.9470176E-02;  0.0000000E+00;  6.9872397E-03;  9.9946344E+02;  1.2320586E-01; -4.4453058E+02;3;  2.2221050E+00;  0.0000000E+00;  1.6936421E+00;0;  6.5670244E-02;  2.6415654E+04;  0.0000000E+00;  6.4315361E-01;  4.0000000E+04;  0.0000000E+00;  3.9857094E+04;  8.2376838E-02;  0.0000000E+00; -1.6706595E-02;  6.6317224E+02;
  7.2859508E-01;  9.9999998E-03; -2.0051455E-01;6848;  1.9165581E-02;  0.0000000E+00;  6.8084975E-03;  9.9967255E+02;  1.2316855E-01; -2.7130093E+02;3;  2.4263892E+00;  0.0000000E+00;  1.6913512E+00;0;  6.7517877E-02;  2.6440000E+04;  0.0000000E+00;  7.1523386E-01;  4.0000000E+04;  0.0000000E+00;  3.9858480E+04;  8.6061060E-02;  0.0000000E+00; -1.8543188E-02;  8.7931665E+02;
  7.2849244E-01;  9.9999998E-03; -1.9050926E-01;6849;  1.8882666E-02;  0.0000000E+00;  6.6272612E-03;  9.9987439E+02;  1.2312230E-01; -1.0404642E+02;3;  2.7829959E+00;  0.0000000E+00;  1.6473069E+00;0;  6.9347948E-02;  2.6467893E+04;  0.0000000E+00;  7.3983890E-01;  4.0000000E+04;  0.0000000E+00;  3.9860359E+04;  8.9778997E-02;  0.0000000E+00; -2.0431051E-02;  1.0297612E+03;
  7.2840035E-01;  9.9999998E-03; -1.8049222E-01;6850;  1.8631408E-02;  0.0000000E+00;  6.4410702E-03;  1.0000266E+03;  1.2307683E-01;  2.2024065E+01;3;  3.1120653E+00;  0.0000000E+00;  1.6148682E+00;0;  7.1056031E-02;  2.6494240E+04;  0.0000000E+00;  7.4024945E-01;  4.0000000E+04;  0.0000000E+00;  3.9860773E+04;  9.3425743E-02;  0.0000000E+00; -2.2369713E-02;  1.1059916E+03;
  7.2833878E-01;  9.9999998E-03; -1.7046939E-01;6851;  1.8407712E-02;  0.0000000E+00;  6.2366202E-03;  1.0001127E+03;  1.2303524E-01;  9.3429443E+01;3;  3.4635825E+00;  0.0000000E+00;  1.5688792E+00;0;  7.2560661E-02;  2.6515486E+04;  0.0000000E+00;  7.3000544E-01;  4.0000000E+04;  0.0000000E+00;  3.9859930E+04;  9.6917138E-02;  0.0000000E+00; -2.4356475E-02;  1.1415300E+03;
  7.2831964E-01;  9.9999998E-03; -1.6044509E-01;6852;  1.8177573E-02;  0.0000000E+00;  6.0042827E-03;  1.0001312E+03;  1.2300480E-01;  1.0863889E+02;3;  3.8333127E+00;  0.0000000E+00;  1.5288802E+00;0;  7.3807806E-02;  2.6529154E+04;  0.0000000E+00;  7.1744996E-01;  4.0000000E+04;  0.0000000E+00;  3.9858480E+04;  1.0018354E-01;  0.0000000E+00; -2.6375735E-02;  1.1924965E+03;
  7.2834063E-01;  9.9999998E-03; -1.5042278E-01;6853;  1.7943021E-02;  0.0000000E+00;  5.7438975E-03;  1.0000884E+03;  1.2298512E-01;  7.3183105E+01;3;  4.2157378E+00;  0.0000000E+00;  1.4607719E+00;0;  7.4793473E-02;  2.6534996E+04;  0.0000000E+00;  7.0731461E-01;  4.0000000E+04;  0.0000000E+00;  3.9857219E+04;  1.0318846E-01;  0.0000000E+00; -2.8394992E-02;  1.2737949E+03;
  7.2839248E-01;  9.9999998E-03; -1.4040148E-01;6854;  1.7700696E-02;  0.0000000E+00;  5.4581929E-03;  9.9998560E+02;  1.2297364E-01; -1.1950277E+01;3;  4.6048579E+00;  0.0000000E+00;  1.3714176E+00;0;  7.5537622E-02;  2.6534000E+04;  0.0000000E+00;  6.9958496E-01;  4.0000000E+04;  0.0000000E+00;  3.9855996E+04;  1.0591207E-01;  0.0000000E+00; -3.0374445E-02;  1.3600197E+03;
  7.2846359E-01;  9.9999998E-03; -1.3038014E-01;6855;  1.7429927E-02;  0.0000000E+00;  5.1479512E-03;  9.9983850E+02;  1.2296834E-01; -1.3382335E+02;3;  4.9332924E+00;  0.0000000E+00;  1.2903789E+00;0;  7.6061085E-02;  2.6527686E+04;  0.0000000E+00;  6.8896061E-01;  4.0000000E+04;  0.0000000E+00;  3.9855539E+04;  1.0834155E-01;  0.0000000E+00; -3.2280471E-02;  1.4173181E+03;
  7.2854108E-01;  9.9999998E-03; -1.2035709E-01;6856;  1.7130358E-02;  0.0000000E+00;  4.8126299E-03;  9.9966058E+02;  1.2296762E-01; -2.8117719E+02;3;  5.2435622E+00;  0.0000000E+00;  1.2154797E+00;0;  7.6380819E-02;  2.6518104E+04;  0.0000000E+00;  6.6804832E-01;  4.0000000E+04;  0.0000000E+00;  3.9855168E+04;  1.1047095E-01;  0.0000000E+00; -3.4090132E-02;  1.4235490E+03;
  7.2861433E-01;  9.9999998E-03; -1.1033262E-01;6857;  1.6807403E-02;  0.0000000E+00;  4.4535343E-03;  9.9947461E+02;  1.2296808E-01; -4.3529626E+02;3;  5.5470419E+00;  0.0000000E+00;  1.1255920E+00;0;  7.6515153E-02;  2.6507199E+04;  0.0000000E+00;  6.3085246E-01;  4.0000000E+04;  0.0000000E+00;  3.9855469E+04;  1.1229640E-01;  0.0000000E+00; -3.5781246E-02;  1.3699191E+03;
  7.4062681E-01;  9.9999998E-03; -2.7053568E-01;6902;  2.2048473E-02;  0.0000000E+00;  8.4412796E-03;  9.9833295E+02;  1.2709929E-01; -1.3811459E+03;3; -3.6034408E+00;  0.0000000E+00;  2.5371945E-01;0;  3.8311981E-02;  2.4776047E+04;  0.0000000E+00; -1.9905598E+00;  4.0000000E+04;  0.0000000E+00;  3.9851738E+04;  4.6413671E-02;  0.0000000E+00; -8.1016924E-03;  5.4033750E+03;
  7.4063969E-01;  9.9999998E-03; -2.6051897E-01;6903;  2.1555811E-02;  0.0000000E+00;  8.4414156E-03;  9.9837219E+02;  1.2709917E-01; -1.3486036E+03;3; -2.9782515E+00;  0.0000000E+00;  3.4149307E-01;0;  3.9644498E-02;  2.4779127E+04;  0.0000000E+00; -1.4626968E+00;  4.0000000E+04;  0.0000000E+00;  3.9849270E+04;  4.9553640E-02;  0.0000000E+00; -9.9091427E-03;  4.2714600E+03;
  7.4066740E-01;  9.9999998E-03; -2.5050053E-01;6904;  2.1116169E-02;  0.0000000E+00;  8.2957121E-03;  9.9844403E+02;  1.2709978E-01; -1.2890991E+03;3; -2.2736335E+00;  0.0000000E+00;  5.9675449E-01;0;  4.2206980E-02;  2.4783932E+04;  0.0000000E+00; -8.6506212E-01;  4.0000000E+04;  0.0000000E+00;  3.9848121E+04;  5.2829508E-02;  0.0000000E+00; -1.0622528E-02;  3.0831057E+03;
  7.4068606E-01;  9.9999998E-03; -2.4047260E-01;6905;  2.0676691E-02;  0.0000000E+00;  8.0445092E-03;  9.9859119E+02;  1.2709661E-01; -1.1671766E+03;3; -1.4909687E+00;  0.0000000E+00;  8.7624097E-01;0;  4.4947132E-02;  2.4792078E+04;  0.0000000E+00; -3.4106833E-01;  4.0000000E+04;  0.0000000E+00;  3.9850434E+04;  5.6273997E-02;  0.0000000E+00; -1.1326863E-02;  2.3937605E+03;
  7.4070287E-01;  9.9999998E-03; -2.3043784E-01;6906;  2.0261396E-02;  0.0000000E+00;  7.8632571E-03;  9.9877698E+02;  1.2709397E-01; -1.0132551E+03;3; -6.8332374E-01;  0.0000000E+00;  1.0764375E+00;0;  4.7004774E-02;  2.4801432E+04;  0.0000000E+00;  4.9749319E-02;  4.0000000E+04;  0.0000000E+00;  3.9852715E+04;  5.9887245E-02;  0.0000000E+00; -1.2882470E-02;  2.1605608E+03;
  7.4070609E-01;  9.9999998E-03; -2.2042716E-01;6907;  1.9938176E-02;  0.0000000E+00;  7.7920286E-03;  9.9892542E+02;  1.2708713E-01; -8.9029565E+02;3;  1.3500699E-01;  0.0000000E+00;  1.2019386E+00;0;  4.8807524E-02;  2.4814090E+04;  0.0000000E+00;  3.0792594E-01;  4.0000000E+04;  0.0000000E+00;  3.9848543E+04;  6.3683949E-02;  0.0000000E+00; -1.4876425E-02;  1.5131455E+03;
  7.4068493E-01;  9.9999998E-03; -2.1044610E-01;6908;  1.9645410E-02;  0.0000000E+00;  7.6787695E-03;  9.9907959E+02;  1.2706958E-01; -7.6254620E+02;3;  8.0968708E-01;  0.0000000E+00;  1.3355670E+00;0;  5.0872080E-02;  2.4831400E+04;  0.0000000E+00;  4.6156341E-01;  4.0000000E+04;  0.0000000E+00;  3.9843148E+04;  6.7662120E-02;  0.0000000E+00; -1.6790038E-02;  8.5907458E+02;
  7.4065208E-01;  9.9999998E-03; -2.0047402E-01;6909;  1.9381499E-02;  0.0000000E+00;  7.5181029E-03;  9.9928119E+02;  1.2704642E-01; -5.9553864E+02;3;  1.4444715E+00;  0.0000000E+00;  1.3800777E+00;0;  5.3049862E-02;  2.4851645E+04;  0.0000000E+00;  5.4143792E-01;  4.0000000E+04;  0.0000000E+00;  3.9840578E+04;  7.1784481E-02;  0.0000000E+00; -1.8734617E-02;  6.6378644E+02;
  7.4059540E-01;  9.9999998E-03; -1.9048962E-01;6910;  1.9161515E-02;  0.0000000E+00;  7.3430790E-03;  9.9949036E+02;  1.2701201E-01; -4.2221021E+02;3;  1.8854477E+00;  0.0000000E+00;  1.4371028E+00;0;  5.5254973E-02;  2.4875461E+04;  0.0000000E+00;  5.7480335E-01;  4.0000000E+04;  0.0000000E+00;  3.9839676E+04;  7.6033309E-02;  0.0000000E+00; -2.0778334E-02;  7.1620947E+02;
  7.4052525E-01;  9.9999998E-03; -1.8048757E-01;6911;  1.8978063E-02;  0.0000000E+00;  7.1522384E-03;  9.9967755E+02;  1.2696826E-01; -2.6715289E+02;3;  2.4054263E+00;  0.0000000E+00;  1.4572064E+00;0;  5.7419982E-02;  2.4901027E+04;  0.0000000E+00;  5.8438152E-01;  4.0000000E+04;  0.0000000E+00;  3.9839051E+04;  8.0341749E-02;  0.0000000E+00; -2.2921767E-02;  7.8739111E+02;
  7.4047983E-01;  9.9999998E-03; -1.7048067E-01;6912;  1.8843092E-02;  0.0000000E+00;  6.9483044E-03;  9.9982385E+02;  1.2692876E-01; -1.4592178E+02;3;  2.8360705E+00;  0.0000000E+00;  1.4608692E+00;0;  5.9454091E-02;  2.4923080E+04;  0.0000000E+00;  5.8751297E-01;  4.0000000E+04;  0.0000000E+00;  3.9838227E+04;  8.4605336E-02;  0.0000000E+00; -2.5151243E-02;  8.6961920E+02;
  7.4045807E-01;  9.9999998E-03; -1.6046935E-01;6913;  1.8741941E-02;  0.0000000E+00;  6.7217853E-03;  9.9990295E+02;  1.2689398E-01; -8.0392776E+01;3;  3.2629838E+00;  0.0000000E+00;  1.4537840E+00;0;  6.1331037E-02;  2.4940301E+04;  0.0000000E+00;  5.9644401E-01;  4.0000000E+04;  0.0000000E+00;  3.9837023E+04;  8.8770382E-02;  0.0000000E+00; -2.7439345E-02;  9.9942969E+02;
  7.4046105E-01;  9.9999998E-03; -1.5045390E-01;6914;  1.8646512E-02;  0.0000000E+00;  6.4635943E-03;  9.9992444E+02;  1.2686396E-01; -6.2615505E+01;3;  3.7124257E+00;  0.0000000E+00;  1.4405861E+00;0;  6.3038759E-02;  2.4952262E+04;  0.0000000E+00;  6.1666298E-01;  4.0000000E+04;  0.0000000E+00;  3.9835988E+04;  9.2784047E-02;  0.0000000E+00; -2.9745288E-02;  1.1705669E+03;
  7.4049091E-01;  9.9999998E-03; -1.4043336E-01;6915;  1.8537734E-02;  0.0000000E+00;  6.1736125E-03;  9.9988885E+02;  1.2684186E-01; -9.2096146E+01;3;  4.2026873E+00;  0.0000000E+00;  1.3893970E+00;0;  6.4578176E-02;  2.4958273E+04;  0.0000000E+00;  6.4583093E-01;  4.0000000E+04;  0.0000000E+00;  3.9835305E+04;  9.6600890E-02;  0.0000000E+00; -3.2022718E-02;  1.3477544E+03;
  7.4054402E-01;  9.9999998E-03; -1.3040677E-01;6916;  1.8409865E-02;  0.0000000E+00;  5.8559817E-03;  9.9981091E+02;  1.2682652E-01; -1.5663753E+02;3;  4.6132321E+00;  0.0000000E+00;  1.3520273E+00;0;  6.5955594E-02;  2.4958846E+04;  0.0000000E+00;  6.7446339E-01;  4.0000000E+04;  0.0000000E+00;  3.9835145E+04;  1.0018815E-01;  0.0000000E+00; -3.4232557E-02;  1.4939445E+03;
  7.4061179E-01;  9.9999998E-03; -1.2037665E-01;6917;  1.8247085E-02;  0.0000000E+00;  5.5060294E-03;  9.9970709E+02;  1.2681894E-01; -2.4265976E+02;3;  4.9947419E+00;  0.0000000E+00;  1.3069398E+00;0;  6.7170665E-02;  2.4955154E+04;  0.0000000E+00;  6.8942451E-01;  4.0000000E+04;  0.0000000E+00;  3.9835414E+04;  1.0351667E-01;  0.0000000E+00; -3.6346007E-02;  1.5799210E+03;
  7.4068534E-01;  9.9999998E-03; -1.1034499E-01;6918;  1.8038807E-02;  0.0000000E+00;  5.1239440E-03;  9.9959393E+02;  1.2681650E-01; -3.3643488E+02;3;  5.3764453E+00;  0.0000000E+00;  1.2430195E+00;0;  6.8224519E-02;  2.4948932E+04;  0.0000000E+00;  6.7948753E-01;  4.0000000E+04;  0.0000000E+00;  3.9835898E+04;  1.0655980E-01;  0.0000000E+00; -3.8335275E-02;  1.5873036E+03;
  7.5334281E-01;  9.9999998E-03; -2.7060190E-01;6963;  2.1778475E-02;  0.0000000E+00;  9.1485800E-03;  9.9763312E+02;  1.3134730E-01; -1.9609319E+03;3; -3.8368340E+00;  0.0000000E+00; -2.9651636E-01;0;  1.8658517E-02;  2.3179703E+04;  0.0000000E+00;  1.0124758E+00;  4.0000000E+04;  0.0000000E+00;  3.9836191E+04;  2.7939897E-02;  0.0000000E+00; -9.2813801E-03;  3.5628484E+03;
  7.5351870E-01;  9.9999998E-03; -2.6058090E-01;6964;  2.1345487E-02;  0.0000000E+00;  9.1211097E-03;  9.9776392E+02;  1.3139151E-01; -1.8525399E+03;3; -3.5539389E+00;  0.0000000E+00; -2.8618568E-01;0;  2.0956043E-02;  2.3172074E+04;  0.0000000E+00;  1.2453495E-01;  4.0000000E+04;  0.0000000E+00;  3.9832836E+04;  3.1094126E-02;  0.0000000E+00; -1.0138084E-02;  2.5122861E+03;
  7.5374377E-01;  9.9999998E-03; -2.5055507E-01;6965;  2.0965973E-02;  0.0000000E+00;  8.9698024E-03;  9.9793707E+02;  1.3144511E-01; -1.7090872E+03;3; -3.2251334E+00;  0.0000000E+00; -1.9684891E-01;0;  2.4032665E-02;  2.3162910E+04;  0.0000000E+00; -2.1246798E-01;  4.0000000E+04;  0.0000000E+00;  3.9831824E+04;  3.4408178E-02;  0.0000000E+00; -1.0375513E-02;  2.6079175E+03;
  7.5386471E-01;  9.9999998E-03; -2.4051467E-01;6966;  2.0599192E-02;  0.0000000E+00;  8.7421602E-03;  9.9816431E+02;  1.3146858E-01; -1.5208457E+03;3; -2.7538025E+00;  0.0000000E+00; -7.4600659E-02;0;  2.7114406E-02;  2.3165121E+04;  0.0000000E+00; -1.9737802E-01;  4.0000000E+04;  0.0000000E+00;  3.9834602E+04;  3.8109969E-02;  0.0000000E+00; -1.0995562E-02;  2.9485513E+03;
  7.5384974E-01;  9.9999998E-03; -2.3045985E-01;6967;  2.0274574E-02;  0.0000000E+00;  8.5941302E-03;  9.9839398E+02;  1.3145687E-01; -1.3305795E+03;3; -2.1531665E+00;  0.0000000E+00;  7.8572810E-02;0;  2.9653065E-02;  2.3179680E+04;  0.0000000E+00; -5.2525818E-02;  4.0000000E+04;  0.0000000E+00;  3.9836879E+04;  4.2241935E-02;  0.0000000E+00; -1.2588869E-02;  3.1097808E+03;
  7.5378060E-01;  9.9999998E-03; -2.2041848E-01;6968;  2.0031871E-02;  0.0000000E+00;  8.5484944E-03;  9.9856873E+02;  1.3142803E-01; -1.1857935E+03;3; -1.3182628E+00;  0.0000000E+00;  3.2387656E-01;0;  3.2025661E-02;  2.3200977E+04;  0.0000000E+00;  1.0259256E-01;  4.0000000E+04;  0.0000000E+00;  3.9832637E+04;  4.6676431E-02;  0.0000000E+00; -1.4650769E-02;  2.5065190E+03;
  7.5368571E-01;  9.9999998E-03; -2.1040557E-01;6969;  1.9815234E-02;  0.0000000E+00;  8.4644677E-03;  9.9871881E+02;  1.3138728E-01; -1.0614513E+03;3; -4.3751574E-01;  0.0000000E+00;  5.7466096E-01;0;  3.4652710E-02;  2.3226861E+04;  0.0000000E+00;  2.1889386E-01;  4.0000000E+04;  0.0000000E+00;  3.9825906E+04;  5.1360231E-02;  0.0000000E+00; -1.6707521E-02;  1.5621909E+03;
  7.5357372E-01;  9.9999998E-03; -2.0041372E-01;6970;  1.9621568E-02;  0.0000000E+00;  8.3164498E-03;  9.9889203E+02;  1.3133949E-01; -9.1794922E+02;3;  3.5353425E-01;  0.0000000E+00;  7.9831153E-01;0;  3.7421905E-02;  2.3255824E+04;  0.0000000E+00;  2.8421673E-01;  4.0000000E+04;  0.0000000E+00;  3.9820461E+04;  5.6259580E-02;  0.0000000E+00; -1.8837675E-02;  8.0606714E+02;
  7.5344402E-01;  9.9999998E-03; -1.9042857E-01;6971;  1.9466240E-02;  0.0000000E+00;  8.1318542E-03;  9.9908704E+02;  1.3128249E-01; -7.5637354E+02;3;  1.0754043E+00;  0.0000000E+00;  9.3291450E-01;0;  4.0222652E-02;  2.3286744E+04;  0.0000000E+00;  3.0754769E-01;  4.0000000E+04;  0.0000000E+00;  3.9817250E+04;  6.1338905E-02;  0.0000000E+00; -2.1116255E-02;  3.5958530E+02;
  7.5331193E-01;  9.9999998E-03; -1.8043807E-01;6972;  1.9377787E-02;  0.0000000E+00;  7.9358360E-03;  9.9926776E+02;  1.3122162E-01; -6.0664941E+02;3;  1.6275309E+00;  0.0000000E+00;  1.0584935E+00;0;  4.2989753E-02;  2.3317586E+04;  0.0000000E+00;  3.0808821E-01;  4.0000000E+04;  0.0000000E+00;  3.9815547E+04;  6.6530667E-02;  0.0000000E+00; -2.3540912E-02;  1.8754164E+02;
  7.5320184E-01;  9.9999998E-03; -1.7044424E-01;6973;  1.9338161E-02;  0.0000000E+00;  7.7207768E-03;  9.9942072E+02;  1.3116391E-01; -4.7993698E+02;3;  2.2255788E+00;  0.0000000E+00;  1.1505437E+00;0;  4.5669384E-02;  2.3345055E+04;  0.0000000E+00;  3.0717179E-01;  4.0000000E+04;  0.0000000E+00;  3.9814617E+04;  7.1748413E-02;  0.0000000E+00; -2.6079027E-02;  2.9609512E+02;
  7.5313276E-01;  9.9999998E-03; -1.6044547E-01;6974;  1.9357985E-02;  0.0000000E+00;  7.4885283E-03;  9.9953369E+02;  1.3111445E-01; -3.8631000E+02;3;  2.7093818E+00;  0.0000000E+00;  1.2303598E+00;0;  4.8222236E-02;  2.3366928E+04;  0.0000000E+00;  3.2161239E-01;  4.0000000E+04;  0.0000000E+00;  3.9813898E+04;  7.6914392E-02;  0.0000000E+00; -2.8692158E-02;  5.0245334E+02;
  7.5314444E-01;  9.9999998E-03; -1.5043904E-01;6975;  1.9427773E-02;  0.0000000E+00;  7.2343959E-03;  9.9961084E+02;  1.3108554E-01; -3.2241058E+02;3;  3.2294879E+00;  0.0000000E+00;  1.2735463E+00;0;  5.0606947E-02;  2.3379227E+04;  0.0000000E+00;  3.5839808E-01;  4.0000000E+04;  0.0000000E+00;  3.9813285E+04;  8.1942149E-02;  0.0000000E+00; -3.1335201E-02;  7.3583093E+02;
  7.5322133E-01;  9.9999998E-03; -1.4042711E-01;6976;  1.9513322E-02;  0.0000000E+00;  6.9474862E-03;  9.9965845E+02;  1.3107625E-01; -2.8295493E+02;3;  3.7127736E+00;  0.0000000E+00;  1.2999753E+00;0;  5.2846901E-02;  2.3383188E+04;  0.0000000E+00;  4.1449687E-01;  4.0000000E+04;  0.0000000E+00;  3.9813047E+04;  8.6801596E-02;  0.0000000E+00; -3.3954695E-02;  9.7516016E+02;
  7.5332272E-01;  9.9999998E-03; -1.3041124E-01;6977;  1.9581195E-02;  0.0000000E+00;  6.6238162E-03;  9.9967444E+02;  1.3107230E-01; -2.6972073E+02;3;  4.2030487E+00;  0.0000000E+00;  1.2982112E+00;0;  5.4977734E-02;  2.3382738E+04;  0.0000000E+00;  4.7783569E-01;  4.0000000E+04;  0.0000000E+00;  3.9813484E+04;  9.1479443E-02;  0.0000000E+00; -3.6501709E-02;  1.1981488E+03;
  7.5343740E-01;  9.9999998E-03; -1.2039249E-01;6978;  1.9620072E-02;  0.0000000E+00;  6.2647439E-03;  9.9966876E+02;  1.3107395E-01; -2.7441196E+02;3;  4.6717124E+00;  0.0000000E+00;  1.2975725E+00;0;  5.6990895E-02;  2.3378939E+04;  0.0000000E+00;  5.3038085E-01;  4.0000000E+04;  0.0000000E+00;  3.9814070E+04;  9.5934093E-02;  0.0000000E+00; -3.8943198E-02;  1.3729586E+03;
  7.5355226E-01;  9.9999998E-03; -1.1036938E-01;6979;  1.9610796E-02;  0.0000000E+00;  5.8669681E-03;  9.9965857E+02;  1.3107868E-01; -2.8285614E+02;3;  5.1223226E+00;  0.0000000E+00;  1.2750812E+00;0;  5.8879659E-02;  2.3373457E+04;  0.0000000E+00;  5.5588502E-01;  4.0000000E+04;  0.0000000E+00;  3.9815086E+04;  1.0012642E-01;  0.0000000E+00; -4.1246764E-02;  1.4689917E+03;
  7.6715517E-01;  9.9999998E-03; -2.7068546E-01;7024;  2.1511206E-02;  0.0000000E+00;  9.9037001E-03;  9.9766534E+02;  1.3612583E-01; -1.9342166E+03;3; -3.8390567E+00;  0.0000000E+00; -8.6377996E-01;0; -1.7987061E-03;  2.1595014E+04;  0.0000000E+00;  2.3391662E+00;  4.0000000E+04;  0.0000000E+00;  3.9810086E+04;  8.0955522E-03;  0.0000000E+00; -9.8942583E-03;  6.9525117E+03;
  7.6734024E-01;  9.9999998E-03; -2.6066232E-01;7025;  2.1117913E-02;  0.0000000E+00;  9.8341880E-03;  9.9787177E+02;  1.3617751E-01; -1.7632091E+03;3; -3.5499740E+00;  0.0000000E+00; -7.9368293E-01;0;  1.9780612E-03;  2.1589752E+04;  0.0000000E+00;  7.3357850E-01;  4.0000000E+04;  0.0000000E+00;  3.9807000E+04;  1.1615802E-02;  0.0000000E+00; -9.6377404E-03;  3.1015627E+03;
  7.6760834E-01;  9.9999998E-03; -2.5063404E-01;7026;  2.0771898E-02;  0.0000000E+00;  9.6651176E-03;  9.9814264E+02;  1.3625185E-01; -1.5387711E+03;3; -3.3109837E+00;  0.0000000E+00; -7.2544116E-01;0;  5.9588226E-03;  2.1579152E+04;  0.0000000E+00; -5.6331202E-02;  4.0000000E+04;  0.0000000E+00;  3.9806012E+04;  1.5328702E-02;  0.0000000E+00; -9.3698790E-03;  2.2305125E+03;
  7.6774669E-01;  9.9999998E-03; -2.4059173E-01;7027;  2.0456946E-02;  0.0000000E+00;  9.4676483E-03;  9.9840924E+02;  1.3629137E-01; -1.3179379E+03;3; -2.9936354E+00;  0.0000000E+00; -6.5977705E-01;0;  9.5208576E-03;  2.1578826E+04;  0.0000000E+00; -2.6147932E-01;  4.0000000E+04;  0.0000000E+00;  3.9808133E+04;  1.9542105E-02;  0.0000000E+00; -1.0021248E-02;  2.7000828E+03;
  7.6772100E-01;  9.9999998E-03; -2.3053265E-01;7028;  2.0201942E-02;  0.0000000E+00;  9.3500847E-03;  9.9864612E+02;  1.3628122E-01; -1.1216471E+03;3; -2.7315133E+00;  0.0000000E+00; -6.1145067E-01;0;  1.2535931E-02;  2.1592834E+04;  0.0000000E+00; -2.0810010E-01;  4.0000000E+04;  0.0000000E+00;  3.9810418E+04;  2.4291232E-02;  0.0000000E+00; -1.1755302E-02;  2.9561990E+03;
  7.6761550E-01;  9.9999998E-03; -2.2046782E-01;7029;  2.0049332E-02;  0.0000000E+00;  9.3138730E-03;  9.9882965E+02;  1.3624436E-01; -9.6960205E+02;3; -2.3365948E+00;  0.0000000E+00; -5.0117391E-01;0;  1.5451455E-02;  2.1615375E+04;  0.0000000E+00; -9.0006895E-02;  4.0000000E+04;  0.0000000E+00;  3.9808777E+04;  2.9448537E-02;  0.0000000E+00; -1.3997082E-02;  2.6694985E+03;
  7.6745760E-01;  9.9999998E-03; -2.1041688E-01;7030;  1.9959610E-02;  0.0000000E+00;  9.2703709E-03;  9.9896637E+02;  1.3618807E-01; -8.5632135E+02;3; -1.6722395E+00;  0.0000000E+00; -2.4198134E-01;0;  1.8606894E-02;  2.1644107E+04;  0.0000000E+00;  4.6058646E-03;  4.0000000E+04;  0.0000000E+00;  3.9803387E+04;  3.4961779E-02;  0.0000000E+00; -1.6354885E-02;  1.9231112E+03;
  7.6730311E-01;  9.9999998E-03; -2.0038916E-01;7031;  1.9893778E-02;  0.0000000E+00;  9.1645932E-03;  9.9909125E+02;  1.3612954E-01; -7.5286749E+02;3; -9.2586714E-01;  0.0000000E+00;  3.7895508E-02;0;  2.1915315E-02;  2.1673553E+04;  0.0000000E+00;  4.6573553E-02;  4.0000000E+04;  0.0000000E+00;  3.9797250E+04;  4.0733244E-02;  0.0000000E+00; -1.8817930E-02;  1.1417876E+03;
  7.6715666E-01;  9.9999998E-03; -1.9038019E-01;7032;  1.9873027E-02;  0.0000000E+00;  9.0057589E-03;  9.9923163E+02;  1.3606837E-01; -6.3657446E+02;3; -1.2057740E-01;  0.0000000E+00;  3.0727005E-01;0;  2.5256006E-02;  2.1702709E+04;  0.0000000E+00;  4.0322661E-02;  4.0000000E+04;  0.0000000E+00;  3.9792691E+04;  4.6708483E-02;  0.0000000E+00; -2.1452477E-02;  6.6061932E+02;
  7.6702684E-01;  9.9999998E-03; -1.8037310E-01;7033;  1.9908089E-02;  0.0000000E+00;  8.8149868E-03;  9.9937128E+02;  1.3600737E-01; -5.2087408E+02;3;  6.3984555E-01;  0.0000000E+00;  5.3042650E-01;0;  2.8561899E-02;  2.1730096E+04;  0.0000000E+00;  7.4339234E-03;  4.0000000E+04;  0.0000000E+00;  3.9790289E+04;  5.2825574E-02;  0.0000000E+00; -2.4263674E-02;  5.4145728E+02;
  7.6694000E-01;  9.9999998E-03; -1.7036355E-01;7034;  2.0021779E-02;  0.0000000E+00;  8.6042937E-03;  9.9949554E+02;  1.3595594E-01; -4.1791403E+02;3;  1.2248470E+00;  0.0000000E+00;  7.0343149E-01;0;  3.1777278E-02;  2.1752779E+04;  0.0000000E+00; -2.4611574E-02;  4.0000000E+04;  0.0000000E+00;  3.9788703E+04;  5.8990385E-02;  0.0000000E+00; -2.7213110E-02;  5.4276678E+02;
  7.6692373E-01;  9.9999998E-03; -1.6034511E-01;7035;  2.0202694E-02;  0.0000000E+00;  8.3671249E-03;  9.9960834E+02;  1.3592215E-01; -3.2448459E+02;3;  1.8843192E+00;  0.0000000E+00;  8.7264067E-01;0;  3.4870364E-02;  2.1767695E+04;  0.0000000E+00; -3.3192486E-02;  4.0000000E+04;  0.0000000E+00;  3.9788277E+04;  6.5118842E-02;  0.0000000E+00; -3.0248480E-02;  5.0132724E+02;
  7.6691920E-01;  9.9999998E-03; -1.5032476E-01;7036;  2.0432455E-02;  0.0000000E+00;  8.0946162E-03;  9.9968329E+02;  1.3588914E-01; -2.6241229E+02;3;  2.5058680E+00;  0.0000000E+00;  1.0072210E+00;0;  3.7894044E-02;  2.1779951E+04;  0.0000000E+00; -6.0349233E-03;  4.0000000E+04;  0.0000000E+00;  3.9788223E+04;  7.1189336E-02;  0.0000000E+00; -3.3295292E-02;  4.0175870E+02;
  7.6692343E-01;  9.9999998E-03; -1.4030059E-01;7037;  2.0693380E-02;  0.0000000E+00;  7.7817296E-03;  9.9972821E+02;  1.3585576E-01; -2.2517879E+02;3;  3.1526418E+00;  0.0000000E+00;  1.1101028E+00;0;  4.0851302E-02;  2.1789881E+04;  0.0000000E+00;  5.4881949E-02;  4.0000000E+04;  0.0000000E+00;  3.9788863E+04;  7.7137202E-02;  0.0000000E+00; -3.6285900E-02;  3.5274237E+02;
  7.6695597E-01;  9.9999998E-03; -1.3027260E-01;7038;  2.0953884E-02;  0.0000000E+00;  7.4286219E-03;  9.9975830E+02;  1.3582963E-01; -2.0024123E+02;3;  3.7605906E+00;  0.0000000E+00;  1.1837993E+00;0;  4.3713748E-02;  2.1795949E+04;  0.0000000E+00;  1.3480893E-01;  4.0000000E+04;  0.0000000E+00;  3.9790016E+04;  8.2888246E-02;  0.0000000E+00; -3.9174497E-02;  4.9635590E+02;
  7.6710147E-01;  9.9999998E-03; -1.2023959E-01;7039;  2.1198621E-02;  0.0000000E+00;  7.0357462E-03;  9.9982233E+02;  1.3584030E-01; -1.4720569E+02;3;  4.3431621E+00;  0.0000000E+00;  1.2264633E+00;0;  4.6393231E-02;  2.1790486E+04;  0.0000000E+00;  2.1066438E-01;  4.0000000E+04;  0.0000000E+00;  3.9791527E+04;  8.8342048E-02;  0.0000000E+00; -4.1948818E-02;  7.2839972E+02;
  7.6730138E-01;  9.9999998E-03; -1.1020190E-01;7040;  2.1407930E-02;  0.0000000E+00;  6.6075008E-03;  9.9989612E+02;  1.3587174E-01; -8.6071625E+01;3;  4.9139318E+00;  0.0000000E+00;  1.2171346E+00;0;  4.8917614E-02;  2.1778963E+04;  0.0000000E+00;  2.6403359E-01;  4.0000000E+04;  0.0000000E+00;  3.9793012E+04;  9.3487971E-02;  0.0000000E+00; -4.4570357E-02;  9.3448932E+02;
  7.8196645E-01;  9.9999998E-03; -2.7078930E-01;7085;  2.1189544E-02;  0.0000000E+00;  1.0648113E-02;  9.9860956E+02;  1.4155322E-01; -1.1519672E+03;3; -4.0289936E+00;  0.0000000E+00; -1.2641126E+00;0; -2.1349650E-02;  2.0016379E+04;  0.0000000E+00;  1.5538138E+00;  4.0000000E+04;  0.0000000E+00;  3.9771824E+04; -1.2015879E-02;  0.0000000E+00; -9.3337698E-03;  6.1723550E+03;
  7.8205174E-01;  9.9999998E-03; -2.6076683E-01;7086;  2.0853253E-02;  0.0000000E+00;  1.0557648E-02;  9.9884155E+02;  1.4157403E-01; -9.5977509E+02;3; -3.7280121E+00;  0.0000000E+00; -1.1516606E+00;0; -1.6019752E-02;  2.0021566E+04;  0.0000000E+00;  2.2130466E-01;  4.0000000E+04;  0.0000000E+00;  3.9769727E+04; -7.8174947E-03;  0.0000000E+00; -8.2022576E-03;  1.9020095E+03;
  7.8227758E-01;  9.9999998E-03; -2.5074109E-01;7087;  2.0556627E-02;  0.0000000E+00;  1.0364804E-02;  9.9914545E+02;  1.4163868E-01; -7.0797980E+02;3; -3.4543080E+00;  0.0000000E+00; -1.1067427E+00;0; -1.0858801E-02;  2.0016434E+04;  0.0000000E+00; -3.6556497E-01;  4.0000000E+04;  0.0000000E+00;  3.9769566E+04; -3.4082630E-03;  0.0000000E+00; -7.4505382E-03;  1.0716812E+03;
  7.8242409E-01;  9.9999998E-03; -2.4070868E-01;7088;  2.0296605E-02;  0.0000000E+00;  1.0223148E-02;  9.9941620E+02;  1.4168164E-01; -4.8368991E+02;3; -3.1749194E+00;  0.0000000E+00; -1.0320979E+00;0; -6.8331473E-03;  2.0016619E+04;  0.0000000E+00; -4.3660891E-01;  4.0000000E+04;  0.0000000E+00;  3.9770543E+04;  1.5136197E-03;  0.0000000E+00; -8.3467672E-03;  1.6275383E+03;
  7.8237295E-01;  9.9999998E-03; -2.3066463E-01;7089;  2.0091955E-02;  0.0000000E+00;  1.0123772E-02;  9.9962653E+02;  1.4166144E-01; -3.0942328E+02;3; -2.8894484E+00;  0.0000000E+00; -9.6923894E-01;0; -3.1929086E-03;  2.0032549E+04;  0.0000000E+00; -3.0894646E-01;  4.0000000E+04;  0.0000000E+00;  3.9772340E+04;  7.0806448E-03;  0.0000000E+00; -1.0273553E-02;  1.7476625E+03;
  7.8220171E-01;  9.9999998E-03; -2.2059509E-01;7090;  1.9982496E-02;  0.0000000E+00;  1.0049467E-02;  9.9981171E+02;  1.4160043E-01; -1.5599556E+02;3; -2.6831610E+00;  0.0000000E+00; -9.1428787E-01;0;  4.2980164E-04;  2.0059078E+04;  0.0000000E+00; -1.6987985E-01;  4.0000000E+04;  0.0000000E+00;  3.9774824E+04;  1.3177053E-02;  0.0000000E+00; -1.2747251E-02;  1.8374404E+03;
  7.8196627E-01;  9.9999998E-03; -2.1051490E-01;7091;  1.9997882E-02;  0.0000000E+00;  1.0021742E-02;  9.9993018E+02;  1.4151695E-01; -5.7825512E+01;3; -2.2632823E+00;  0.0000000E+00; -7.1902078E-01;0;  4.1385358E-03;  2.0091486E+04;  0.0000000E+00; -8.7845027E-02;  4.0000000E+04;  0.0000000E+00;  3.9774125E+04;  1.9699808E-02;  0.0000000E+00; -1.5561272E-02;  1.6264604E+03;
  7.8173453E-01;  9.9999998E-03; -2.0045401E-01;7092;  2.0090919E-02;  0.0000000E+00;  9.9697160E-03;  9.9999768E+02;  1.4143313E-01; -1.9258710E+00;3; -1.6828296E+00;  0.0000000E+00; -4.4749054E-01;0;  7.9921409E-03;  2.0123840E+04;  0.0000000E+00; -7.8769252E-02;  4.0000000E+04;  0.0000000E+00;  3.9770109E+04;  2.6526405E-02;  0.0000000E+00; -1.8534264E-02;  1.1668689E+03;
  7.8155023E-01;  9.9999998E-03; -1.9041388E-01;7093;  2.0240961E-02;  0.0000000E+00;  9.8547973E-03;  1.0000580E+03;  1.4136027E-01;  4.8097393E+01;3; -1.0273495E+00;  0.0000000E+00; -1.4418405E-01;0;  1.1889273E-02;  2.0151930E+04;  0.0000000E+00; -1.2934616E-01;  4.0000000E+04;  0.0000000E+00;  3.9765801E+04;  3.3559043E-02;  0.0000000E+00; -2.1669770E-02;  9.6931091E+02;
  7.8142887E-01;  9.9999998E-03; -1.8037504E-01;7094;  2.0456636E-02;  0.0000000E+00;  9.6846251E-03;  1.0001227E+03;  1.4130555E-01;  1.0172549E+02;3; -3.1042948E-01;  0.0000000E+00;  1.1364409E-01;0;  1.5737042E-02;  2.0173740E+04;  0.0000000E+00; -2.1136928E-01;  4.0000000E+04;  0.0000000E+00;  3.9763051E+04;  4.0723871E-02;  0.0000000E+00; -2.4986830E-02;  1.0796199E+03;
  7.8137952E-01;  9.9999998E-03; -1.7033605E-01;7095;  2.0733805E-02;  0.0000000E+00;  9.4678681E-03;  1.0001888E+03;  1.4127007E-01;  1.5643999E+02;3;  4.8130742E-01;  0.0000000E+00;  3.3711055E-01;0;  1.9487705E-02;  2.0188168E+04;  0.0000000E+00; -2.9234475E-01;  4.0000000E+04;  0.0000000E+00;  3.9761383E+04;  4.7934607E-02;  0.0000000E+00; -2.8446902E-02;  1.2095277E+03;
  7.8137881E-01;  9.9999998E-03; -1.6030137E-01;7096;  2.1077428E-02;  0.0000000E+00;  9.2126122E-03;  1.0002395E+03;  1.4124726E-01;  1.9841409E+02;3;  1.1212070E+00;  0.0000000E+00;  5.5987829E-01;0;  2.3140080E-02;  2.0197021E+04;  0.0000000E+00; -3.4510335E-01;  4.0000000E+04;  0.0000000E+00;  3.9761051E+04;  5.5116355E-02;  0.0000000E+00; -3.1976275E-02;  1.2216212E+03;
  7.8140867E-01;  9.9999998E-03; -1.5026954E-01;7097;  2.1480501E-02;  0.0000000E+00;  8.9090811E-03;  1.0002756E+03;  1.4123185E-01;  2.2833917E+02;3;  1.8768892E+00;  0.0000000E+00;  7.4227148E-01;0;  2.6709836E-02;  2.0201623E+04;  0.0000000E+00; -3.5495380E-01;  4.0000000E+04;  0.0000000E+00;  3.9761805E+04;  6.2197462E-02;  0.0000000E+00; -3.5487626E-02;  1.0856251E+03;
  7.8145486E-01;  9.9999998E-03; -1.4023161E-01;7098;  2.1913346E-02;  0.0000000E+00;  8.5573355E-03;  1.0003001E+03;  1.4121765E-01;  2.4868427E+02;3;  2.6275740E+00;  0.0000000E+00;  8.8662469E-01;0;  3.0211180E-02;  2.0203359E+04;  0.0000000E+00; -3.2211357E-01;  4.0000000E+04;  0.0000000E+00;  3.9763121E+04;  6.9113635E-02;  0.0000000E+00; -3.8902454E-02;  8.2719629E+02;
  7.8151035E-01;  9.9999998E-03; -1.3018760E-01;7099;  2.2352302E-02;  0.0000000E+00;  8.1609478E-03;  1.0003148E+03;  1.4120556E-01;  2.6073331E+02;3;  3.3634462E+00;  0.0000000E+00;  9.9849063E-01;0;  3.3629071E-02;  2.0203328E+04;  0.0000000E+00; -2.5913739E-01;  4.0000000E+04;  0.0000000E+00;  3.9765234E+04;  7.5795174E-02;  0.0000000E+00; -4.2166103E-02;  5.1848883E+02;
  7.8156918E-01;  9.9999998E-03; -1.2014166E-01;7100;  2.2776041E-02;  0.0000000E+00;  7.7134552E-03;  1.0003351E+03;  1.4119275E-01;  2.7762170E+02;3;  4.1402202E+00;  0.0000000E+00;  1.0907978E+00;0;  3.6928825E-02;  2.0202451E+04;  0.0000000E+00; -1.8477844E-01;  4.0000000E+04;  0.0000000E+00;  3.9767648E+04;  8.2172953E-02;  0.0000000E+00; -4.5244128E-02;  3.5923929E+02;
  7.8161299E-01;  9.9999998E-03; -1.1009722E-01;7101;  2.3150211E-02;  0.0000000E+00;  7.2226948E-03;  1.0003643E+03;  1.4117579E-01;  3.0181854E+02;3;  4.8614106E+00;  0.0000000E+00;  1.1185715E+00;0;  4.0087353E-02;  2.0202553E+04;  0.0000000E+00; -1.1675123E-01;  4.0000000E+04;  0.0000000E+00;  3.9769656E+04;  8.8189222E-02;  0.0000000E+00; -4.8101868E-02;  5.3668402E+02;
  7.9754174E-01;  9.9999998E-03; -2.7089918E-01;7146;  2.0744691E-02;  0.0000000E+00;  1.1244753E-02;  9.9957080E+02;  1.4760318E-01; -3.5559476E+02;3; -4.3487449E+00;  0.0000000E+00; -1.5859787E+00;0; -3.7907537E-02;  1.8444557E+04;  0.0000000E+00;  5.7195705E-01;  4.0000000E+04;  0.0000000E+00;  3.9733145E+04; -3.1580668E-02;  0.0000000E+00; -6.3268682E-03;  4.3427764E+03;
  7.9749382E-01;  9.9999998E-03; -2.6087695E-01;7147;  2.0494487E-02;  0.0000000E+00;  1.1163937E-02;  9.9981427E+02;  1.4757507E-01; -1.5387213E+02;3; -4.0577989E+00;  0.0000000E+00; -1.4529699E+00;0; -3.1298790E-02;  1.8461477E+04;  0.0000000E+00; -2.3208608E-01;  4.0000000E+04;  0.0000000E+00;  3.9732324E+04; -2.6465779E-02;  0.0000000E+00; -4.8330119E-03;  8.9499878E+02;
  7.9754329E-01;  9.9999998E-03; -2.5085354E-01;7148;  2.0275975E-02;  0.0000000E+00;  1.1016764E-02;  1.0000961E+03;  1.4758663E-01;  7.9602654E+01;3; -3.7305524E+00;  0.0000000E+00; -1.3452427E+00;0; -2.5309609E-02;  1.8469939E+04;  0.0000000E+00; -4.7850609E-01;  4.0000000E+04;  0.0000000E+00;  3.9733125E+04; -2.0974075E-02;  0.0000000E+00; -4.3355338E-03;  7.0954816E+02;
  7.9750079E-01;  9.9999998E-03; -2.4083398E-01;7149;  2.0096146E-02;  0.0000000E+00;  1.0980187E-02;  1.0003091E+03;  1.4756992E-01;  2.5609143E+02;3; -3.4196877E+00;  0.0000000E+00; -1.2452480E+00;0; -2.0778712E-02;  1.8484391E+04;  0.0000000E+00; -4.0449074E-01;  4.0000000E+04;  0.0000000E+00;  3.9732395E+04; -1.4876398E-02;  0.0000000E+00; -5.9023127E-03;  1.0875281E+03;
  7.9737526E-01;  9.9999998E-03; -2.3082799E-01;7150;  1.9971404E-02;  0.0000000E+00;  1.0967837E-02;  1.0004398E+03;  1.4752582E-01;  3.6433524E+02;3; -3.1508222E+00;  0.0000000E+00; -1.1658894E+00;0; -1.6511293E-02;  1.8504861E+04;  0.0000000E+00; -2.5371057E-01;  4.0000000E+04;  0.0000000E+00;  3.9729066E+04; -8.2027102E-03;  0.0000000E+00; -8.3085829E-03;  1.2049705E+03;
  7.9713833E-01;  9.9999998E-03; -2.2080904E-01;7151;  1.9935736E-02;  0.0000000E+00;  1.0876318E-02;  1.0005759E+03;  1.4744078E-01;  4.7712213E+02;3; -2.9259996E+00;  0.0000000E+00; -1.0994376E+00;0; -1.2000337E-02;  1.8534631E+04;  0.0000000E+00; -1.3789248E-01;  4.0000000E+04;  0.0000000E+00;  3.9730539E+04; -9.4839896E-04;  0.0000000E+00; -1.1051938E-02;  1.0176596E+03;
  7.9680502E-01;  9.9999998E-03; -2.1075152E-01;7152;  2.0028813E-02;  0.0000000E+00;  1.0790112E-02;  1.0007081E+03;  1.4732142E-01;  5.8664984E+02;3; -2.5619633E+00;  0.0000000E+00; -9.2922223E-01;0; -7.4372184E-03;  1.8571990E+04;  0.0000000E+00; -9.7430177E-02;  4.0000000E+04;  0.0000000E+00;  3.9734934E+04;  6.8301591E-03;  0.0000000E+00; -1.4267378E-02;  7.5785162E+02;
  7.9643387E-01;  9.9999998E-03; -2.0067866E-01;7153;  2.0245505E-02;  0.0000000E+00;  1.0717475E-02;  1.0007625E+03;  1.4718838E-01;  6.3168567E+02;3; -2.0218942E+00;  0.0000000E+00; -6.6429436E-01;0; -2.8018774E-03;  1.8611867E+04;  0.0000000E+00; -1.3083647E-01;  4.0000000E+04;  0.0000000E+00;  3.9736777E+04;  1.4998627E-02;  0.0000000E+00; -1.7800504E-02;  8.1915155E+02;
  7.9609871E-01;  9.9999998E-03; -1.9060993E-01;7154;  2.0545125E-02;  0.0000000E+00;  1.0600694E-02;  1.0007688E+03;  1.4706442E-01;  6.3692010E+02;3; -1.4242656E+00;  0.0000000E+00; -3.9327481E-01;0;  1.8731449E-03;  1.8648074E+04;  0.0000000E+00; -2.1939509E-01;  4.0000000E+04;  0.0000000E+00;  3.9736234E+04;  2.3409111E-02;  0.0000000E+00; -2.1535967E-02;  1.0165451E+03;
  7.9583913E-01;  9.9999998E-03; -1.8053947E-01;7155;  2.0905269E-02;  0.0000000E+00;  1.0417977E-02;  1.0007477E+03;  1.4696394E-01;  6.1953790E+02;3; -7.3662710E-01;  0.0000000E+00; -1.1636782E-01;0;  6.5023620E-03;  1.8677258E+04;  0.0000000E+00; -3.3741018E-01;  4.0000000E+04;  0.0000000E+00;  3.9735051E+04;  3.1947438E-02;  0.0000000E+00; -2.5445076E-02;  1.2898566E+03;
  7.9567939E-01;  9.9999998E-03; -1.7047425E-01;7156;  2.1340169E-02;  0.0000000E+00;  1.0176409E-02;  1.0007104E+03;  1.4689316E-01;  5.8852643E+02;3; -2.2122689E-02;  0.0000000E+00;  1.1679076E-01;0;  1.1016876E-02;  1.8696699E+04;  0.0000000E+00; -4.5552668E-01;  4.0000000E+04;  0.0000000E+00;  3.9734367E+04;  4.0492464E-02;  0.0000000E+00; -2.9475588E-02;  1.5396813E+03;
  7.9561776E-01;  9.9999998E-03; -1.6041526E-01;7157;  2.1832837E-02;  0.0000000E+00;  9.8769357E-03;  1.0006574E+03;  1.4685601E-01;  5.4467584E+02;3;  7.7817941E-01;  0.0000000E+00;  3.2609475E-01;0;  1.5404332E-02;  1.8706201E+04;  0.0000000E+00; -5.4816324E-01;  4.0000000E+04;  0.0000000E+00;  3.9734355E+04;  4.8947051E-02;  0.0000000E+00; -3.3542719E-02;  1.6798392E+03;
  7.9563326E-01;  9.9999998E-03; -1.5036365E-01;7158;  2.2362428E-02;  0.0000000E+00;  9.5243426E-03;  1.0006029E+03;  1.4684173E-01;  4.9954132E+02;3;  1.5583736E+00;  0.0000000E+00;  4.8595926E-01;0;  1.9679029E-02;  1.8707125E+04;  0.0000000E+00; -6.0016394E-01;  4.0000000E+04;  0.0000000E+00;  3.9735543E+04;  5.7225060E-02;  0.0000000E+00; -3.7546031E-02;  1.6837334E+03;
  7.9569274E-01;  9.9999998E-03; -1.4031923E-01;7159;  2.2918247E-02;  0.0000000E+00;  9.1207130E-03;  1.0005425E+03;  1.4684117E-01;  4.4946866E+02;3;  2.3418915E+00;  0.0000000E+00;  6.3501030E-01;0;  2.3853816E-02;  1.8702969E+04;  0.0000000E+00; -6.0921305E-01;  4.0000000E+04;  0.0000000E+00;  3.9737277E+04;  6.5247387E-02;  0.0000000E+00; -4.1393571E-02;  1.5836021E+03;
  7.9575825E-01;  9.9999998E-03; -1.3027394E-01;7160;  2.3486141E-02;  0.0000000E+00;  8.6682672E-03;  1.0004734E+03;  1.4684059E-01;  3.9218634E+02;3;  3.1482165E+00;  0.0000000E+00;  7.5887281E-01;0;  2.7916651E-02;  1.8696961E+04;  0.0000000E+00; -5.8272511E-01;  4.0000000E+04;  0.0000000E+00;  3.9739754E+04;  7.2942965E-02;  0.0000000E+00; -4.5026314E-02;  1.4504709E+03;
  7.9579580E-01;  9.9999998E-03; -1.2021867E-01;7161;  2.4027590E-02;  0.0000000E+00;  8.1710806E-03;  1.0004042E+03;  1.4682902E-01;  3.3480527E+02;3;  3.9553101E+00;  0.0000000E+00;  8.1867933E-01;0;  3.1829696E-02;  1.8692750E+04;  0.0000000E+00; -5.3258437E-01;  4.0000000E+04;  0.0000000E+00;  3.9742441E+04;  8.0240577E-02;  0.0000000E+00; -4.8410881E-02;  1.3649607E+03;
  7.9579163E-01;  9.9999998E-03; -1.1016984E-01;7162;  2.4523776E-02;  0.0000000E+00;  7.6344693E-03;  1.0003351E+03;  1.4680086E-01;  2.7762170E+02;3;  4.7471104E+00;  0.0000000E+00;  8.8429564E-01;0;  3.5543766E-02;  1.8692072E+04;  0.0000000E+00; -4.7117817E-01;  4.0000000E+04;  0.0000000E+00;  3.9745051E+04;  8.7055542E-02;  0.0000000E+00; -5.1511776E-02;  1.3607247E+03;
  8.1194454E-01;  9.9999998E-03; -2.7098492E-01;7207;  2.0156153E-02;  0.0000000E+00;  1.1573709E-02;  9.9932916E+02;  1.5345527E-01; -5.5578656E+02;3; -4.7464447E+00;  0.0000000E+00; -1.9196185E+00;0; -4.9116146E-02;  1.7052693E+04;  0.0000000E+00;  1.2013954E+00;  4.0000000E+04;  0.0000000E+00;  3.9710668E+04; -4.8145659E-02;  0.0000000E+00; -9.7048585E-04;  5.0794102E+03;
  8.1209624E-01;  9.9999998E-03; -2.6096085E-01;7208;  1.9992718E-02;  0.0000000E+00;  1.1565967E-02;  9.9961804E+02;  1.5351753E-01; -3.1643536E+02;3; -4.4415927E+00;  0.0000000E+00; -1.7297643E+00;0; -4.2147715E-02;  1.7048850E+04;  0.0000000E+00;  4.4975933E-01;  4.0000000E+04;  0.0000000E+00;  3.9710465E+04; -4.2344049E-02;  0.0000000E+00;  1.9633352E-04;  2.1570479E+03;
  8.1225365E-01;  9.9999998E-03; -2.5093701E-01;7209;  1.9865168E-02;  0.0000000E+00;  1.1559131E-02;  9.9991626E+02;  1.5357992E-01; -6.9380730E+01;3; -4.1009464E+00;  0.0000000E+00; -1.5530720E+00;0; -3.6159135E-02;  1.7045889E+04;  0.0000000E+00;  1.4378566E-01;  4.0000000E+04;  0.0000000E+00;  3.9710234E+04; -3.5894185E-02;  0.0000000E+00; -2.6495015E-04;  8.6108405E+02;
  8.1219006E-01;  9.9999998E-03; -2.4092253E-01;7210;  1.9788314E-02;  0.0000000E+00;  1.1666721E-02;  1.0001150E+03;  1.5356342E-01;  9.5305908E+01;3; -3.7272532E+00;  0.0000000E+00; -1.3427707E+00;0; -3.1250909E-02;  1.7059838E+04;  0.0000000E+00;  7.3039092E-02;  4.0000000E+04;  0.0000000E+00;  3.9706938E+04; -2.8580347E-02;  0.0000000E+00; -2.6705603E-03;  2.2470041E+02;
  8.1200421E-01;  9.9999998E-03; -2.3093295E-01;7211;  1.9765180E-02;  0.0000000E+00;  1.1726940E-02;  1.0002184E+03;  1.5350179E-01;  1.8093309E+02;3; -3.3913069E+00;  0.0000000E+00; -1.2010744E+00;0; -2.6099838E-02;  1.7082703E+04;  0.0000000E+00;  4.8071466E-02;  4.0000000E+04;  0.0000000E+00;  3.9699750E+04; -2.0548183E-02;  0.0000000E+00; -5.5516553E-03;  9.0551562E+02;
  8.1172663E-01;  9.9999998E-03; -2.2094150E-01;7212;  1.9816229E-02;  0.0000000E+00;  1.1611149E-02;  1.0003427E+03;  1.5340520E-01;  2.8394247E+02;3; -3.1370387E+00;  0.0000000E+00; -1.1495836E+00;0; -2.0486873E-02;  1.7112855E+04;  0.0000000E+00;  8.2783755E-03;  4.0000000E+04;  0.0000000E+00;  3.9698977E+04; -1.1856754E-02;  0.0000000E+00; -8.6301193E-03;  1.1030851E+03;
  8.1136757E-01;  9.9999998E-03; -2.1092491E-01;7213;  2.0003282E-02;  0.0000000E+00;  1.1488567E-02;  1.0004719E+03;  1.5327969E-01;  3.9100113E+02;3; -2.8027253E+00;  0.0000000E+00; -1.0344963E+00;0; -1.4906628E-02;  1.7148561E+04;  0.0000000E+00; -6.2727563E-02;  4.0000000E+04;  0.0000000E+00;  3.9702742E+04; -2.5742345E-03;  0.0000000E+00; -1.2332394E-02;  7.6362543E+02;
  8.1095701E-01;  9.9999998E-03; -2.0088956E-01;7214;  2.0334598E-02;  0.0000000E+00;  1.1377559E-02;  1.0005413E+03;  1.5313540E-01;  4.4848099E+02;3; -2.2963977E+00;  0.0000000E+00; -8.3858806E-01;0; -9.2821158E-03;  1.7186945E+04;  0.0000000E+00; -1.6184933E-01;  4.0000000E+04;  0.0000000E+00;  3.9706191E+04;  7.1716891E-03;  0.0000000E+00; -1.6453804E-02;  6.2978278E+02;
  8.1053579E-01;  9.9999998E-03; -1.9083956E-01;7215;  2.0762539E-02;  0.0000000E+00;  1.1226031E-02;  1.0005355E+03;  1.5298584E-01;  4.4364160E+02;3; -1.7297065E+00;  0.0000000E+00; -6.0574281E-01;0; -3.5973601E-03;  1.7224768E+04;  0.0000000E+00; -2.8086543E-01;  4.0000000E+04;  0.0000000E+00;  3.9708156E+04;  1.7232306E-02;  0.0000000E+00; -2.0829666E-02;  8.2608966E+02;
  8.1015861E-01;  9.9999998E-03; -1.8076393E-01;7216;  2.1264354E-02;  0.0000000E+00;  1.1010151E-02;  1.0004678E+03;  1.5284875E-01;  3.8754443E+02;3; -1.0438972E+00;  0.0000000E+00; -3.7171352E-01;0;  2.0712744E-03;  1.7257902E+04;  0.0000000E+00; -4.0928742E-01;  4.0000000E+04;  0.0000000E+00;  3.9709125E+04;  2.7462831E-02;  0.0000000E+00; -2.5391556E-02;  1.1289368E+03;
  8.0985445E-01;  9.9999998E-03; -1.7067853E-01;7217;  2.1811778E-02;  0.0000000E+00;  1.0718388E-02;  1.0003521E+03;  1.5273291E-01;  2.9164597E+02;3; -3.1242841E-01;  0.0000000E+00; -1.8261030E-01;0;  7.6485742E-03;  1.7284076E+04;  0.0000000E+00; -5.3450507E-01;  4.0000000E+04;  0.0000000E+00;  3.9709168E+04;  3.7701458E-02;  0.0000000E+00; -3.0052884E-02;  1.4434178E+03;
  8.0966741E-01;  9.9999998E-03; -1.6059051E-01;7218;  2.2413522E-02;  0.0000000E+00;  1.0367162E-02;  1.0002123E+03;  1.5265664E-01;  1.7589619E+02;3;  5.0131530E-01;  0.0000000E+00;  2.7416071E-02;0;  1.3104454E-02;  1.7299531E+04;  0.0000000E+00; -6.4267731E-01;  4.0000000E+04;  0.0000000E+00;  3.9709449E+04;  4.7813091E-02;  0.0000000E+00; -3.4708638E-02;  1.7091265E+03;
  8.0961245E-01;  9.9999998E-03; -1.5050957E-01;7219;  2.3038955E-02;  0.0000000E+00;  9.9537652E-03;  1.0000622E+03;  1.5262416E-01;  5.1554077E+01;3;  1.2882993E+00;  0.0000000E+00;  1.5711620E-01;0;  1.8445380E-02;  1.7302902E+04;  0.0000000E+00; -7.2296363E-01;  4.0000000E+04;  0.0000000E+00;  3.9710461E+04;  5.7690609E-02;  0.0000000E+00; -3.9245229E-02;  1.8958004E+03;
  8.0966640E-01;  9.9999998E-03; -1.4043838E-01;7220;  2.3685664E-02;  0.0000000E+00;  9.4906045E-03;  9.9991614E+02;  1.5262903E-01; -6.9479492E+01;3;  2.1684878E+00;  0.0000000E+00;  3.0187565E-01;0;  2.3681108E-02;  1.7296359E+04;  0.0000000E+00; -7.7051389E-01;  4.0000000E+04;  0.0000000E+00;  3.9712363E+04;  6.7247592E-02;  0.0000000E+00; -4.3566484E-02;  2.0185131E+03;
  8.0976057E-01;  9.9999998E-03; -1.3037667E-01;7221;  2.4307800E-02;  0.0000000E+00;  8.9813471E-03;  9.9977271E+02;  1.5264326E-01; -1.8829089E+02;3;  3.0222483E+00;  0.0000000E+00;  4.0539125E-01;0;  2.8774727E-02;  1.7286303E+04;  0.0000000E+00; -7.8529906E-01;  4.0000000E+04;  0.0000000E+00;  3.9714906E+04;  7.6383196E-02;  0.0000000E+00; -4.7608469E-02;  2.1123452E+03;
  8.0984622E-01;  9.9999998E-03; -1.2032501E-01;7222;  2.4900723E-02;  0.0000000E+00;  8.4313191E-03;  9.9963300E+02;  1.5264978E-01; -3.0404068E+02;3;  3.8679690E+00;  0.0000000E+00;  4.8659778E-01;0;  3.3652447E-02;  1.7277273E+04;  0.0000000E+00; -7.6980054E-01;  4.0000000E+04;  0.0000000E+00;  3.9717637E+04;  8.4990487E-02;  0.0000000E+00; -5.1338039E-02;  2.1917864E+03;
  8.0993438E-01;  9.9999998E-03; -1.1029355E-01;7223;  2.5444338E-02;  0.0000000E+00;  7.8480300E-03;  9.9950476E+02;  1.5265469E-01; -4.1030923E+02;3;  4.6502242E+00;  0.0000000E+00;  5.2527905E-01;0;  3.8260672E-02;  1.7268418E+04;  0.0000000E+00; -7.2857571E-01;  4.0000000E+04;  0.0000000E+00;  3.9719836E+04;  9.2993863E-02;  0.0000000E+00; -5.4733191E-02;  2.2319297E+03;
  8.2456017E-01;  9.9999998E-03; -1.3039005E-01;7282;  2.4849862E-02;  0.0000000E+00;  9.1660451E-03;  9.9867590E+02;  1.5894723E-01; -1.0970055E+03;3;  2.8761690E+00;  0.0000000E+00; -5.1540822E-02;0;  3.8840644E-02;  1.5918840E+04;  0.0000000E+00; -8.6593819E-01;  4.0000000E+04;  0.0000000E+00;  3.9688512E+04;  8.8724568E-02;  0.0000000E+00; -4.9883924E-02;  2.3778787E+03;
  8.2461607E-01;  9.9999998E-03; -1.2033801E-01;7283;  2.5459889E-02;  0.0000000E+00;  8.5616065E-03;  9.9848309E+02;  1.5894783E-01; -1.2567046E+03;3;  3.7185113E+00;  0.0000000E+00;  4.3928213E-02;0;  4.5402564E-02;  1.5912210E+04;  0.0000000E+00; -8.8325715E-01;  4.0000000E+04;  0.0000000E+00;  3.9691125E+04;  9.9455409E-02;  0.0000000E+00; -5.4052845E-02;  2.6306531E+03;
  8.2459384E-01;  9.9999998E-03; -1.4047249E-01;7281;  2.4191508E-02;  0.0000000E+00;  9.7368909E-03;  9.9888361E+02;  1.5897886E-01; -9.2491168E+02;3;  1.9226757E+00;  0.0000000E+00; -1.5121338E-01;0;  3.2064788E-02;  1.5918970E+04;  0.0000000E+00; -8.2023567E-01;  4.0000000E+04;  0.0000000E+00;  3.9685859E+04;  7.7406146E-02;  0.0000000E+00; -4.5341358E-02;  2.0694324E+03;
  8.2464993E-01;  9.9999998E-03; -1.5056883E-01;7280;  2.3493456E-02;  0.0000000E+00;  1.0260380E-02;  9.9908990E+02;  1.5901160E-01; -7.5400305E+02;3;  1.1065228E+00;  0.0000000E+00; -2.7522928E-01;0;  2.5082111E-02;  1.5917398E+04;  0.0000000E+00; -7.5525129E-01;  4.0000000E+04;  0.0000000E+00;  3.9684152E+04;  6.5526620E-02;  0.0000000E+00; -4.0444508E-02;  1.7532252E+03;
  8.2469755E-01;  9.9999998E-03; -1.6066085E-01;7279;  2.2779135E-02;  0.0000000E+00;  1.0729237E-02;  9.9927496E+02;  1.5903653E-01; -6.0067407E+02;3;  1.8077523E-01;  0.0000000E+00; -4.2074591E-01;0;  1.7944701E-02;  1.5915677E+04;  0.0000000E+00; -6.7883104E-01;  4.0000000E+04;  0.0000000E+00;  3.9683387E+04;  5.3214196E-02;  0.0000000E+00; -3.5269495E-02;  1.4478253E+03;
  8.2477909E-01;  9.9999998E-03; -1.1031999E-01;7284;  2.6016489E-02;  0.0000000E+00;  7.9338858E-03;  9.9830939E+02;  1.5898904E-01; -1.4006511E+03;3;  4.6029773E+00;  0.0000000E+00;  6.7104787E-02;0;  5.1736746E-02;  1.5897809E+04;  0.0000000E+00; -8.6655629E-01;  4.0000000E+04;  0.0000000E+00;  3.9692684E+04;  1.0957842E-01;  0.0000000E+00; -5.7841677E-02;  2.7623984E+03;
  8.2478714E-01;  9.9999998E-03; -1.7073898E-01;7278;  2.2075607E-02;  0.0000000E+00;  1.1127019E-02;  9.9944519E+02;  1.5906896E-01; -4.5964111E+02;3; -5.1492220E-01;  0.0000000E+00; -5.5730784E-01;0;  1.0726307E-02;  1.5910039E+04;  0.0000000E+00; -5.9499216E-01;  4.0000000E+04;  0.0000000E+00;  3.9683684E+04;  4.0668637E-02;  0.0000000E+00; -2.9942330E-02;  1.1606155E+03;
  8.2493329E-01;  9.9999998E-03; -1.8080626E-01;7277;  2.1390878E-02;  0.0000000E+00;  1.1451584E-02;  9.9956299E+02;  1.5911849E-01; -3.6206366E+02;3; -1.3178575E+00;  0.0000000E+00; -7.2806519E-01;0;  3.4595709E-03;  1.5899312E+04;  0.0000000E+00; -5.0090587E-01;  4.0000000E+04;  0.0000000E+00;  3.9684395E+04;  2.8055428E-02;  0.0000000E+00; -2.4595857E-02;  9.0118079E+02;
  8.2514787E-01;  9.9999998E-03; -1.9086353E-01;7276;  2.0746894E-02;  0.0000000E+00;  1.1699238E-02;  9.9963000E+02;  1.5918867E-01; -3.0650970E+02;3; -1.9769163E+00;  0.0000000E+00; -8.9698571E-01;0; -3.8021831E-03;  1.5882281E+04;  0.0000000E+00; -3.8698208E-01;  4.0000000E+04;  0.0000000E+00;  3.9684832E+04;  1.5548165E-02;  0.0000000E+00; -1.9350348E-02;  6.6320209E+02;
  8.2544327E-01;  9.9999998E-03; -2.0089433E-01;7275;  2.0194462E-02;  0.0000000E+00;  1.1882175E-02;  9.9963318E+02;  1.5928806E-01; -3.0389252E+02;3; -2.5123796E+00;  0.0000000E+00; -1.0628657E+00;0; -1.0968483E-02;  1.5857432E+04;  0.0000000E+00; -2.4121509E-01;  4.0000000E+04;  0.0000000E+00;  3.9685059E+04;  3.3367642E-03;  0.0000000E+00; -1.4305247E-02;  5.3032489E+02;
  8.2554084E-01;  9.9999998E-03; -2.7105445E-01;7268;  1.9256292E-02;  0.0000000E+00;  1.1593616E-02;  9.9822467E+02;  1.5924133E-01; -1.4708219E+03;3; -5.1112251E+00;  0.0000000E+00; -2.2017236E+00;0; -5.5143457E-02;  1.5804635E+04;  0.0000000E+00;  1.6804241E+00;  4.0000000E+04;  0.0000000E+00;  3.9700301E+04; -6.2403675E-02;  0.0000000E+00;  7.2602192E-03;  5.0746738E+03;
  8.2565856E-01;  9.9999998E-03; -2.6102445E-01;7269;  1.9225175E-02;  0.0000000E+00;  1.1775707E-02;  9.9855823E+02;  1.5929127E-01; -1.1944843E+03;3; -4.8100405E+00;  0.0000000E+00; -1.9777479E+00;0; -4.9108867E-02;  1.5804206E+04;  0.0000000E+00;  1.3260210E+00;  4.0000000E+04;  0.0000000E+00;  3.9699992E+04; -5.5539981E-02;  0.0000000E+00;  6.4311149E-03;  4.3203193E+03;
  8.2572418E-01;  9.9999998E-03; -2.1091841E-01;7274;  1.9751083E-02;  0.0000000E+00;  1.2008512E-02;  9.9956604E+02;  1.5937988E-01; -3.5954523E+02;3; -3.0048862E+00;  0.0000000E+00; -1.2092528E+00;0; -1.7972410E-02;  1.5832322E+04;  0.0000000E+00; -5.0769515E-02;  4.0000000E+04;  0.0000000E+00;  3.9685625E+04; -8.4291827E-03;  0.0000000E+00; -9.5432261E-03;  7.2007007E+02;
  8.2585847E-01;  9.9999998E-03; -2.5099576E-01;7270;  1.9220240E-02;  0.0000000E+00;  1.2011548E-02;  9.9886694E+02;  1.5937358E-01; -9.3873846E+02;3; -4.4792628E+00;  0.0000000E+00; -1.7320510E+00;0; -4.3763977E-02;  1.5797938E+04;  0.0000000E+00;  1.0308838E+00;  4.0000000E+04;  0.0000000E+00;  3.9698426E+04; -4.7921102E-02;  0.0000000E+00;  4.1571264E-03;  3.6627739E+03;
  8.2596081E-01;  9.9999998E-03; -2.4097669E-01;7271;  1.9263878E-02;  0.0000000E+00;  1.2247007E-02;  9.9908521E+02;  1.5942051E-01; -7.5790417E+02;3; -4.0817652E+00;  0.0000000E+00; -1.5050793E+00;0; -3.8221408E-02;  1.5797928E+04;  0.0000000E+00;  7.5515908E-01;  4.0000000E+04;  0.0000000E+00;  3.9692398E+04; -3.9366432E-02;  0.0000000E+00;  1.1450254E-03;  2.7454370E+03;
  8.2593924E-01;  9.9999998E-03; -2.2094844E-01;7273;  1.9472010E-02;  0.0000000E+00;  1.2142186E-02;  9.9942896E+02;  1.5944397E-01; -4.7312219E+02;3; -3.3125827E+00;  0.0000000E+00; -1.2682049E+00;0; -2.4839433E-02;  1.5811188E+04;  0.0000000E+00;  1.8917051E-01;  4.0000000E+04;  0.0000000E+00;  3.9685398E+04; -1.9581916E-02;  0.0000000E+00; -5.2575171E-03;  1.1354697E+03;
  8.2600540E-01;  9.9999998E-03; -2.3097146E-01;7272;  1.9346138E-02;  0.0000000E+00;  1.2299979E-02;  9.9924274E+02;  1.5945144E-01; -6.2738940E+02;3; -3.6677904E+00;  0.0000000E+00; -1.3337164E+00;0; -3.1771451E-02;  1.5800736E+04;  0.0000000E+00;  4.6778736E-01;  4.0000000E+04;  0.0000000E+00;  3.9685602E+04; -2.9925149E-02;  0.0000000E+00; -1.8463031E-03;  1.7491737E+03;
  9.3832475E-01;  9.9999998E-03; -2.7179936E-01;7634;  2.4868755E-03;  0.0000000E+00;  1.1448198E-02;  9.9732996E+02;  2.1439682E-01; -2.2120803E+03;3; -7.5792851E+00;  0.0000000E+00; -4.2271891E+00;0; -1.8058904E-01;  8.8076572E+03;  0.0000000E+00; -5.5679309E-01;  4.0000000E+04;  0.0000000E+00;  3.9464895E+04; -1.6583791E-01;  0.0000000E+00; -1.4751120E-02;  2.3858069E+03;
  8.4120369E-01;  9.9999998E-03; -2.7113497E-01;7329;  1.7691242E-02;  0.0000000E+00;  1.1339151E-02;  9.9700995E+02;  1.6589199E-01; -2.4772126E+03;3; -5.5465236E+00;  0.0000000E+00; -2.4993393E+00;0; -5.8059506E-02;  1.4542388E+04;  0.0000000E+00;  1.7302231E+00;  4.0000000E+04;  0.0000000E+00;  3.9689113E+04; -7.7350460E-02;  0.0000000E+00;  1.9290954E-02;  5.3409844E+03;
  8.4120858E-01;  9.9999998E-03; -1.1054948E-01;7345;  2.6363175E-02;  0.0000000E+00;  7.9838047E-03;  9.9745929E+02;  1.6609991E-01; -2.1049270E+03;3;  4.3096619E+00;  0.0000000E+00; -4.3393195E-01;0;  8.0631420E-02;  1.4562176E+04;  0.0000000E+00; -8.7345564E-01;  4.0000000E+04;  0.0000000E+00;  3.9661750E+04;  1.4125428E-01;  0.0000000E+00; -6.0622852E-02;  2.7474771E+03;
  8.4128165E-01;  9.9999998E-03; -2.6109949E-01;7330;  1.7871827E-02;  0.0000000E+00;  1.1887781E-02;  9.9741016E+02;  1.6592348E-01; -2.1456172E+03;3; -5.2531943E+00;  0.0000000E+00; -2.2255840E+00;0; -5.4557763E-02;  1.4546779E+04;  0.0000000E+00;  1.8460360E+00;  4.0000000E+04;  0.0000000E+00;  3.9687684E+04; -6.9096327E-02;  0.0000000E+00;  1.4538562E-02;  6.1714116E+03;
  8.4115314E-01;  9.9999998E-03; -1.2055478E-01;7344;  2.5806028E-02;  0.0000000E+00;  8.6554177E-03;  9.9759705E+02;  1.6610283E-01; -1.9908069E+03;3;  3.4528756E+00;  0.0000000E+00; -5.2384299E-01;0;  7.1550369E-02;  1.4563768E+04;  0.0000000E+00; -8.7707371E-01;  4.0000000E+04;  0.0000000E+00;  3.9660293E+04;  1.2777214E-01;  0.0000000E+00; -5.6221768E-02;  2.5260820E+03;
  8.4140265E-01;  9.9999998E-03; -2.5106558E-01;7331;  1.8081682E-02;  0.0000000E+00;  1.2421034E-02;  9.9775531E+02;  1.6597581E-01; -1.8596995E+03;3; -4.8938317E+00;  0.0000000E+00; -2.0403366E+00;0; -4.9794201E-02;  1.4547366E+04;  0.0000000E+00;  1.6007031E+00;  4.0000000E+04;  0.0000000E+00;  3.9683492E+04; -5.9821952E-02;  0.0000000E+00;  1.0027751E-02;  6.0437666E+03;
  8.4137154E-01;  9.9999998E-03; -2.4103916E-01;7332;  1.8334402E-02;  0.0000000E+00;  1.2804698E-02;  9.9801837E+02;  1.6597667E-01; -1.6417305E+03;3; -4.5102873E+00;  0.0000000E+00; -1.8363787E+00;0; -4.3119922E-02;  1.4556408E+04;  0.0000000E+00;  1.1490777E+00;  4.0000000E+04;  0.0000000E+00;  3.9675641E+04; -4.9359988E-02;  0.0000000E+00;  6.2400657E-03;  4.9384546E+03;
  8.4097761E-01;  9.9999998E-03; -1.3057345E-01;7343;  2.5170481E-02;  0.0000000E+00;  9.2989132E-03;  9.9774750E+02;  1.6605876E-01; -1.8661685E+03;3;  2.5912199E+00;  0.0000000E+00; -5.9896266E-01;0;  6.1814249E-02;  1.4574043E+04;  0.0000000E+00; -8.4760606E-01;  4.0000000E+04;  0.0000000E+00;  3.9658289E+04;  1.1318891E-01;  0.0000000E+00; -5.1374659E-02;  2.1532629E+03;
  8.4013104E-01;  9.9999998E-03; -1.7069149E-01;7339;  2.2094188E-02;  0.0000000E+00;  1.1425358E-02;  9.9840991E+02;  1.6575202E-01; -1.3173447E+03;3; -7.8035468E-01;  0.0000000E+00; -1.0166641E+00;0;  2.1168508E-02;  1.4634315E+04;  0.0000000E+00; -7.0662570E-01;  4.0000000E+04;  0.0000000E+00;  3.9656586E+04;  4.9842142E-02;  0.0000000E+00; -2.8673634E-02;  9.3084180E+02;
  8.4015214E-01;  9.9999998E-03; -1.6066878E-01;7340;  2.2911049E-02;  0.0000000E+00;  1.0987984E-02;  9.9825317E+02;  1.6576836E-01; -1.4472175E+03;3; -4.8808470E-02;  0.0000000E+00; -8.8952988E-01;0;  3.1124968E-02;  1.4631113E+04;  0.0000000E+00; -7.2191733E-01;  4.0000000E+04;  0.0000000E+00;  3.9655777E+04;  6.5809488E-02;  0.0000000E+00; -3.4684520E-02;  1.0676682E+03;
  8.4034771E-01;  9.9999998E-03; -1.5063989E-01;7341;  2.3720557E-02;  0.0000000E+00;  1.0478549E-02;  9.9808014E+02;  1.6584438E-01; -1.5905714E+03;3;  9.3496501E-01;  0.0000000E+00; -7.6592284E-01;0;  4.1280337E-02;  1.4616411E+04;  0.0000000E+00; -7.5315881E-01;  4.0000000E+04;  0.0000000E+00;  3.9655809E+04;  8.1819400E-02;  0.0000000E+00; -4.0539064E-02;  1.3437765E+03;
  8.4065437E-01;  9.9999998E-03; -1.4060272E-01;7342;  2.4463901E-02;  0.0000000E+00;  9.9125449E-03;  9.9790509E+02;  1.6595395E-01; -1.7356044E+03;3;  1.7304053E+00;  0.0000000E+00; -6.8989956E-01;0;  5.1575575E-02;  1.4595119E+04;  0.0000000E+00; -7.9993379E-01;  4.0000000E+04;  0.0000000E+00;  3.9656797E+04;  9.7704835E-02;  0.0000000E+00; -4.6129260E-02;  1.7281104E+03;
  8.4127498E-01;  9.9999998E-03; -2.3102191E-01;7333;  1.8603690E-02;  0.0000000E+00;  1.2889343E-02;  9.9822406E+02;  1.6596627E-01; -1.4713157E+03;3; -4.0837288E+00;  0.0000000E+00; -1.6895480E+00;0; -3.4855288E-02;  1.4566562E+04;  0.0000000E+00;  6.2928933E-01;  4.0000000E+04;  0.0000000E+00;  3.9667777E+04; -3.7797406E-02;  0.0000000E+00;  2.9421174E-03;  3.4733701E+03;
  8.4025681E-01;  9.9999998E-03; -1.8071526E-01;7338;  2.1281712E-02;  0.0000000E+00;  1.1794760E-02;  9.9853790E+02;  1.6578287E-01; -1.2113231E+03;3; -1.5414165E+00;  0.0000000E+00; -1.1548693E+00;0;  1.1358559E-02;  1.4627571E+04;  0.0000000E+00; -6.8803954E-01;  4.0000000E+04;  0.0000000E+00;  3.9658348E+04;  3.3991180E-02;  0.0000000E+00; -2.2632621E-02;  9.5982416E+02;
  8.4111571E-01;  9.9999998E-03; -2.2094701E-01;7334;  1.8876998E-02;  0.0000000E+00;  1.2649545E-02;  9.9850391E+02;  1.6594751E-01; -1.2394705E+03;3; -3.6275842E+00;  0.0000000E+00; -1.5792127E+00;0; -2.5828151E-02;  1.4577630E+04;  0.0000000E+00;  1.4699921E-01;  4.0000000E+04;  0.0000000E+00;  3.9671227E+04; -2.5100695E-02;  0.0000000E+00; -7.2745618E-04;  2.9665061E+03;
  8.4046674E-01;  9.9999998E-03; -1.9074853E-01;7337;  2.0505616E-02;  0.0000000E+00;  1.2084615E-02;  9.9862524E+02;  1.6583627E-01; -1.1389795E+03;3; -2.2176728E+00;  0.0000000E+00; -1.2960408E+00;0;  1.6826503E-03;  1.4615289E+04;  0.0000000E+00; -6.2983412E-01;  4.0000000E+04;  0.0000000E+00;  3.9661348E+04;  1.8371768E-02;  0.0000000E+00; -1.6689118E-02;  1.2098762E+03;
  8.4070039E-01;  9.9999998E-03; -2.0078439E-01;7336;  1.9797344E-02;  0.0000000E+00;  1.2290321E-02;  9.9867273E+02;  1.6588798E-01; -1.0996227E+03;3; -2.8001025E+00;  0.0000000E+00; -1.4447638E+00;0; -7.7733556E-03;  1.4601700E+04;  0.0000000E+00; -4.8971045E-01;  4.0000000E+04;  0.0000000E+00;  3.9666711E+04;  3.1847954E-03;  0.0000000E+00; -1.0958151E-02;  1.7939879E+03;
  8.4091479E-01;  9.9999998E-03; -2.1084723E-01;7335;  1.9237399E-02;  0.0000000E+00;  1.2441553E-02;  9.9865778E+02;  1.6592231E-01; -1.1120173E+03;3; -3.2111382E+00;  0.0000000E+00; -1.5378937E+00;0; -1.6908135E-02;  1.4589554E+04;  0.0000000E+00; -2.3350306E-01;  4.0000000E+04;  0.0000000E+00;  3.9671738E+04; -1.1373026E-02;  0.0000000E+00; -5.5351085E-03;  2.5711941E+03;
  8.5945970E-01;  9.9999998E-03; -1.1073165E-01;7406;  2.6820049E-02;  0.0000000E+00;  8.0846399E-03;  9.9763660E+02;  1.7433594E-01; -1.9580172E+03;3;  4.0408640E+00;  0.0000000E+00; -9.8733425E-01;0;  1.2760514E-01;  1.3244357E+04;  0.0000000E+00; -7.7801394E-01;  4.0000000E+04;  0.0000000E+00;  3.9626156E+04;  1.9017854E-01;  0.0000000E+00; -6.2573403E-02;  2.1988142E+03;
  8.5942161E-01;  9.9999998E-03; -1.2077367E-01;7405;  2.6262514E-02;  0.0000000E+00;  8.8085243E-03;  9.9772577E+02;  1.7432036E-01; -1.8841428E+03;3;  3.2011166E+00;  0.0000000E+00; -1.0609518E+00;0;  1.1402474E-01;  1.3245592E+04;  0.0000000E+00; -7.9070354E-01;  4.0000000E+04;  0.0000000E+00;  3.9624281E+04;  1.7116563E-01;  0.0000000E+00; -5.7140891E-02;  1.8897617E+03;
  8.5922003E-01;  9.9999998E-03; -1.3081174E-01;7404;  2.5613723E-02;  0.0000000E+00;  9.5143402E-03;  9.9783118E+02;  1.7424037E-01; -1.7968367E+03;3;  2.3214409E+00;  0.0000000E+00; -1.1027534E+00;0;  9.9566206E-02;  1.3257291E+04;  0.0000000E+00; -7.8305638E-01;  4.0000000E+04;  0.0000000E+00;  3.9622141E+04;  1.5083420E-01;  0.0000000E+00; -5.1267996E-02;  1.4454420E+03;
  8.5902584E-01;  9.9999998E-03; -1.4086372E-01;7403;  2.4876321E-02;  0.0000000E+00;  1.0187846E-02;  9.9795459E+02;  1.7416176E-01; -1.6945681E+03;3;  1.5301458E+00;  0.0000000E+00; -1.2217703E+00;0;  8.4859341E-02;  1.3269335E+04;  0.0000000E+00; -7.7840990E-01;  4.0000000E+04;  0.0000000E+00;  3.9620574E+04;  1.2987131E-01;  0.0000000E+00; -4.5011967E-02;  9.9445410E+02;
  8.5887927E-01;  9.9999998E-03; -1.5090767E-01;7402;  2.4037752E-02;  0.0000000E+00;  1.0817589E-02;  9.9809106E+02;  1.7409930E-01; -1.5815343E+03;3;  4.9207267E-01;  0.0000000E+00; -1.2772667E+00;0;  7.0177972E-02;  1.3279236E+04;  0.0000000E+00; -8.0351603E-01;  4.0000000E+04;  0.0000000E+00;  3.9619434E+04;  1.0861646E-01;  0.0000000E+00; -3.8438480E-02;  6.6417444E+02;
  8.5879546E-01;  9.9999998E-03; -1.6093861E-01;7401;  2.3115158E-02;  0.0000000E+00;  1.1385867E-02;  9.9822394E+02;  1.7405508E-01; -1.4714141E+03;3; -2.8250772E-01;  0.0000000E+00; -1.3876954E+00;0;  5.5655759E-02;  1.3285741E+04;  0.0000000E+00; -8.7647313E-01;  4.0000000E+04;  0.0000000E+00;  3.9619480E+04;  8.7299973E-02;  0.0000000E+00; -3.1644214E-02;  5.3241724E+02;
  8.5876751E-01;  9.9999998E-03; -1.7095625E-01;7400;  2.2152688E-02;  0.0000000E+00;  1.1873079E-02;  9.9833691E+02;  1.7402804E-01; -1.3778365E+03;3; -1.1059623E+00;  0.0000000E+00; -1.5363423E+00;0;  4.1358620E-02;  1.3289226E+04;  0.0000000E+00; -9.9343067E-01;  4.0000000E+04;  0.0000000E+00;  3.9620207E+04;  6.6133298E-02;  0.0000000E+00; -2.4774676E-02;  6.1511096E+02;
  8.5874820E-01;  9.9999998E-03; -1.8096805E-01;7399;  2.1138288E-02;  0.0000000E+00;  1.2277368E-02;  9.9840845E+02;  1.7399713E-01; -1.3185790E+03;3; -1.8828546E+00;  0.0000000E+00; -1.6703391E+00;0;  2.7301315E-02;  1.3292459E+04;  0.0000000E+00; -1.1219635E+00;  4.0000000E+04;  0.0000000E+00;  3.9621965E+04;  4.5296118E-02;  0.0000000E+00; -1.7994802E-02;  8.5508392E+02;
  8.5869366E-01;  9.9999998E-03; -1.9098452E-01;7398;  2.0171408E-02;  0.0000000E+00;  1.2599851E-02;  9.9842615E+02;  1.7393865E-01; -1.3039127E+03;3; -2.6393445E+00;  0.0000000E+00; -1.8482597E+00;0;  1.3599487E-02;  1.3298043E+04;  0.0000000E+00; -1.2060946E+00;  4.0000000E+04;  0.0000000E+00;  3.9624223E+04;  2.5053520E-02;  0.0000000E+00; -1.1454033E-02;  1.1238171E+03;
  8.5853344E-01;  9.9999998E-03; -2.0099849E-01;7397;  1.9280042E-02;  0.0000000E+00;  1.2842037E-02;  9.9838800E+02;  1.7383802E-01; -1.3355167E+03;3; -3.1545029E+00;  0.0000000E+00; -1.9240541E+00;0;  4.0892838E-04;  1.3309166E+04;  0.0000000E+00; -1.1718330E+00;  4.0000000E+04;  0.0000000E+00;  3.9628027E+04;  5.7088910E-03;  0.0000000E+00; -5.2999626E-03;  1.3437476E+03;
  8.5832679E-01;  9.9999998E-03; -2.1102136E-01;7396;  1.8582895E-02;  0.0000000E+00;  1.3091870E-02;  9.9829901E+02;  1.7371981E-01; -1.4092430E+03;3; -3.5749884E+00;  0.0000000E+00; -1.9614545E+00;0; -1.2115210E-02;  1.3321913E+04;  0.0000000E+00; -9.6290511E-01;  4.0000000E+04;  0.0000000E+00;  3.9632930E+04; -1.2418636E-02;  0.0000000E+00;  3.0342551E-04;  1.6629796E+03;
  8.5811949E-01;  9.9999998E-03; -2.2107349E-01;7395;  1.8015467E-02;  0.0000000E+00;  1.3328797E-02;  9.9810706E+02;  1.7360167E-01; -1.5682507E+03;3; -4.0884314E+00;  0.0000000E+00; -2.0472274E+00;0; -2.4082933E-02;  1.3333197E+04;  0.0000000E+00; -5.5827081E-01;  4.0000000E+04;  0.0000000E+00;  3.9635848E+04; -2.9191591E-02;  0.0000000E+00;  5.1086582E-03;  2.0566531E+03;
  8.5793281E-01;  9.9999998E-03; -2.3111269E-01;7394;  1.7501973E-02;  0.0000000E+00;  1.3471267E-02;  9.9786401E+02;  1.7350204E-01; -1.7696277E+03;3; -4.5357661E+00;  0.0000000E+00; -2.1654413E+00;0; -3.5617739E-02;  1.3341222E+04;  0.0000000E+00;  7.9205465E-03;  4.0000000E+04;  0.0000000E+00;  3.9639543E+04; -4.4479452E-02;  0.0000000E+00;  8.8617122E-03;  3.0515334E+03;
  8.5776824E-01;  9.9999998E-03; -2.4113585E-01;7393;  1.7001312E-02;  0.0000000E+00;  1.3323053E-02;  9.9760785E+02;  1.7342499E-01; -1.9818684E+03;3; -4.9504299E+00;  0.0000000E+00; -2.2841697E+00;0; -4.6214689E-02;  1.3345745E+04;  0.0000000E+00;  6.3564032E-01;  4.0000000E+04;  0.0000000E+00;  3.9648312E+04; -5.8281083E-02;  0.0000000E+00;  1.2066395E-02;  4.5801592E+03;
  8.5766977E-01;  9.9999998E-03; -2.5116420E-01;7392;  1.6489662E-02;  0.0000000E+00;  1.2740224E-02;  9.9730768E+02;  1.7338832E-01; -2.2305525E+03;3; -5.3443007E+00;  0.0000000E+00; -2.4475052E+00;0; -5.4235250E-02;  1.3343433E+04;  0.0000000E+00;  1.1358774E+00;  4.0000000E+04;  0.0000000E+00;  3.9657742E+04; -7.0694946E-02;  0.0000000E+00;  1.6459698E-02;  5.6878315E+03;
  8.5763729E-01;  9.9999998E-03; -2.6119950E-01;7391;  1.5978064E-02;  0.0000000E+00;  1.1819711E-02;  9.9691144E+02;  1.7338814E-01; -2.5587898E+03;3; -5.6760054E+00;  0.0000000E+00; -2.5384140E+00;0; -5.8085106E-02;  1.3334598E+04;  0.0000000E+00;  1.2570549E+00;  4.0000000E+04;  0.0000000E+00;  3.9664348E+04; -8.1792176E-02;  0.0000000E+00;  2.3707068E-02;  5.8181484E+03;
  8.5781640E-01;  9.9999998E-03; -2.7123931E-01;7390;  1.5489098E-02;  0.0000000E+00;  1.0845596E-02;  9.9642505E+02;  1.7348425E-01; -2.9617905E+03;3; -5.9493051E+00;  0.0000000E+00; -2.5407891E+00;0; -5.8622926E-02;  1.3309763E+04;  0.0000000E+00;  8.4826726E-01;  4.0000000E+04;  0.0000000E+00;  3.9666707E+04; -9.1756336E-02;  0.0000000E+00;  3.3133410E-02;  6.3022236E+03;
  8.7697762E-01;  9.9999998E-03; -1.1072812E-01;7467;  2.8068317E-02;  0.0000000E+00;  8.4929001E-03;  9.9805920E+02;  1.8275844E-01; -1.6079037E+03;3;  3.4609814E+00;  0.0000000E+00; -1.4417683E+00;0;  1.7849320E-01;  1.2077746E+04;  0.0000000E+00; -6.2099212E-01;  4.0000000E+04;  0.0000000E+00;  3.9590836E+04;  2.4125260E-01;  0.0000000E+00; -6.2759392E-02;  1.2829648E+03;
  8.7706071E-01;  9.9999998E-03; -1.2077984E-01;7466;  2.7572120E-02;  0.0000000E+00;  9.2920251E-03;  9.9813263E+02;  1.8278958E-01; -1.5470659E+03;3;  2.5306597E+00;  0.0000000E+00; -1.4292910E+00;0;  1.6026844E-01;  1.2071425E+04;  0.0000000E+00; -6.5659326E-01;  4.0000000E+04;  0.0000000E+00;  3.9587984E+04;  2.1634300E-01;  0.0000000E+00; -5.6074560E-02;  9.0406848E+02;
  8.7705541E-01;  9.9999998E-03; -1.3083537E-01;7465;  2.6897917E-02;  0.0000000E+00;  1.0047574E-02;  9.9822778E+02;  1.8278068E-01; -1.4682534E+03;3;  1.7508342E+00;  0.0000000E+00; -1.6162978E+00;0;  1.4124352E-01;  1.2071600E+04;  0.0000000E+00; -6.8645489E-01;  4.0000000E+04;  0.0000000E+00;  3.9584723E+04;  1.9021243E-01;  0.0000000E+00; -4.8968907E-02;  4.8617944E+02;
  8.7697452E-01;  9.9999998E-03; -1.4089216E-01;7464;  2.6079010E-02;  0.0000000E+00;  1.0767219E-02;  9.9834949E+02;  1.8273625E-01; -1.3674169E+03;3;  8.4730762E-01;  0.0000000E+00; -1.6531981E+00;0;  1.2176254E-01;  1.2077365E+04;  0.0000000E+00; -7.3347294E-01;  4.0000000E+04;  0.0000000E+00;  3.9582090E+04;  1.6332299E-01;  0.0000000E+00; -4.1560438E-02;  4.0972495E+02;
  8.7684947E-01;  9.9999998E-03; -1.5094434E-01;7463;  2.5099427E-02;  0.0000000E+00;  1.1421683E-02;  9.9848920E+02;  1.8266727E-01; -1.2516671E+03;3;  3.2477267E-02;  0.0000000E+00; -1.8124219E+00;0;  1.0217871E-01;  1.2086783E+04;  0.0000000E+00; -8.2197255E-01;  4.0000000E+04;  0.0000000E+00;  3.9580492E+04;  1.3613577E-01;  0.0000000E+00; -3.3957060E-02;  6.0404999E+02;
  8.7672383E-01;  9.9999998E-03; -1.6098557E-01;7462;  2.3993259E-02;  0.0000000E+00;  1.2001491E-02;  9.9862561E+02;  1.8259618E-01; -1.1386334E+03;3; -8.4746468E-01;  0.0000000E+00; -1.8749146E+00;0;  8.2795650E-02;  1.2096641E+04;  0.0000000E+00; -9.6692181E-01;  4.0000000E+04;  0.0000000E+00;  3.9580414E+04;  1.0908482E-01;  0.0000000E+00; -2.6289172E-02;  6.6678192E+02;
  8.7665921E-01;  9.9999998E-03; -1.7101587E-01;7461;  2.2732243E-02;  0.0000000E+00;  1.2489157E-02;  9.9873975E+02;  1.8255143E-01; -1.0441177E+03;3; -1.7953413E+00;  0.0000000E+00; -2.0878606E+00;0;  6.3824549E-02;  1.2103001E+04;  0.0000000E+00; -1.1631943E+00;  4.0000000E+04;  0.0000000E+00;  3.9581289E+04;  8.2529180E-02;  0.0000000E+00; -1.8704629E-02;  6.5571436E+02;
  8.7664771E-01;  9.9999998E-03; -1.8103926E-01;7460;  2.1380439E-02;  0.0000000E+00;  1.2860031E-02;  9.9881641E+02;  1.8252826E-01; -9.8056396E+02;3; -2.5576680E+00;  0.0000000E+00; -2.3082478E+00;0;  4.5366939E-02;  1.2105962E+04;  0.0000000E+00; -1.3778834E+00;  4.0000000E+04;  0.0000000E+00;  3.9582941E+04;  5.6734882E-02;  0.0000000E+00; -1.1367942E-02;  8.4749731E+02;
  8.7664670E-01;  9.9999998E-03; -1.9106370E-01;7459;  2.0047059E-02;  0.0000000E+00;  1.3140198E-02;  9.9882880E+02;  1.8250385E-01; -9.7034204E+02;3; -3.2570593E+00;  0.0000000E+00; -2.4426224E+00;0;  2.7547149E-02;  1.2108134E+04;  0.0000000E+00; -1.5551057E+00;  4.0000000E+04;  0.0000000E+00;  3.9585789E+04;  3.1974327E-02;  0.0000000E+00; -4.4271774E-03;  1.2211008E+03;
  8.7663603E-01;  9.9999998E-03; -2.0109434E-01;7458;  1.8851891E-02;  0.0000000E+00;  1.3377296E-02;  9.9877576E+02;  1.8246844E-01; -1.0142420E+03;3; -3.6125093E+00;  0.0000000E+00; -2.4629722E+00;0;  1.0544163E-02;  1.2110447E+04;  0.0000000E+00; -1.6308964E+00;  4.0000000E+04;  0.0000000E+00;  3.9589422E+04;  8.5584186E-03;  0.0000000E+00;  1.9857443E-03;  1.5373385E+03;
  8.7660313E-01;  9.9999998E-03; -2.1112925E-01;7457;  1.7837916E-02;  0.0000000E+00;  1.3642107E-02;  9.9864642E+02;  1.8241771E-01; -1.1213994E+03;3; -4.1794262E+00;  0.0000000E+00; -2.5670633E+00;0; -5.5889217E-03;  1.2113199E+04;  0.0000000E+00; -1.5525632E+00;  4.0000000E+04;  0.0000000E+00;  3.9594320E+04; -1.3227836E-02;  0.0000000E+00;  7.6389145E-03;  1.7230098E+03;
  8.7654722E-01;  9.9999998E-03; -2.2119014E-01;7456;  1.6926594E-02;  0.0000000E+00;  1.3870249E-02;  9.9840643E+02;  1.8235521E-01; -1.3202578E+03;3; -4.6688056E+00;  0.0000000E+00; -2.6833591E+00;0; -2.0993538E-02;  1.2115995E+04;  0.0000000E+00; -1.2939993E+00;  4.0000000E+04;  0.0000000E+00;  3.9596914E+04; -3.3278253E-02;  0.0000000E+00;  1.2284715E-02;  1.6270319E+03;
  8.7642002E-01;  9.9999998E-03; -2.3124866E-01;7455;  1.6078858E-02;  0.0000000E+00;  1.4064786E-02;  9.9806396E+02;  1.8226907E-01; -1.6039531E+03;3; -5.0788078E+00;  0.0000000E+00; -2.8000202E+00;0; -3.6047883E-02;  1.2121305E+04;  0.0000000E+00; -8.6409128E-01;  4.0000000E+04;  0.0000000E+00;  3.9597500E+04; -5.1441174E-02;  0.0000000E+00;  1.5393289E-02;  1.4257141E+03;
  8.7620282E-01;  9.9999998E-03; -2.4127300E-01;7454;  1.5246391E-02;  0.0000000E+00;  1.3916316E-02;  9.9775360E+02;  1.8215969E-01; -1.8610815E+03;3; -5.4549041E+00;  0.0000000E+00; -2.9078984E+00;0; -5.0066762E-02;  1.2129587E+04;  0.0000000E+00; -3.3543265E-01;  4.0000000E+04;  0.0000000E+00;  3.9605648E+04; -6.7658186E-02;  0.0000000E+00;  1.7591424E-02;  2.4497944E+03;
  8.7602419E-01;  9.9999998E-03; -2.5129482E-01;7453;  1.4395301E-02;  0.0000000E+00;  1.3115678E-02;  9.9743799E+02;  1.8209074E-01; -2.1225554E+03;3; -5.7634292E+00;  0.0000000E+00; -3.0265779E+00;0; -6.0306415E-02;  1.2132542E+04;  0.0000000E+00;  9.8126583E-02;  4.0000000E+04;  0.0000000E+00;  3.9617824E+04; -8.2114950E-02;  0.0000000E+00;  2.1808537E-02;  3.9605464E+03;
  8.7625915E-01;  9.9999998E-03; -2.6132786E-01;7452;  1.3470731E-02;  0.0000000E+00;  1.1641454E-02;  9.9702930E+02;  1.8223773E-01; -2.4611628E+03;3; -6.0677853E+00;  0.0000000E+00; -2.9156923E+00;0; -6.2868461E-02;  1.2105945E+04;  0.0000000E+00;  1.9444636E-01;  4.0000000E+04;  0.0000000E+00;  3.9627770E+04; -9.5202588E-02;  0.0000000E+00;  3.2334130E-02;  5.5535093E+03;
  8.7666386E-01;  9.9999998E-03; -2.7136993E-01;7451;  1.2625406E-02;  0.0000000E+00;  1.0147507E-02;  9.9652686E+02;  1.8247740E-01; -2.8774468E+03;3; -6.2869740E+00;  0.0000000E+00; -2.5808780E+00;0; -6.0115837E-02;  1.2066435E+04;  0.0000000E+00;  8.2929451E-03;  4.0000000E+04;  0.0000000E+00;  3.9630805E+04; -1.0685650E-01;  0.0000000E+00;  4.6740659E-02;  7.8297271E+03;
  8.9563787E-01;  9.9999998E-03; -2.7150807E-01;7512;  9.5810601E-03;  0.0000000E+00;  9.6459351E-03;  9.9738538E+02;  1.9199100E-01; -2.1661582E+03;3; -6.5677943E+00;  0.0000000E+00; -2.9218938E+00;0; -7.0764393E-02;  1.0946738E+04;  0.0000000E+00; -8.0118477E-01;  4.0000000E+04;  0.0000000E+00;  3.9583586E+04; -1.2201066E-01;  0.0000000E+00;  5.1246259E-02;  8.6610439E+03;
  8.9517373E-01;  9.9999998E-03; -2.6147041E-01;7513;  1.0768582E-02;  0.0000000E+00;  1.1875757E-02;  9.9780798E+02;  1.9173323E-01; -1.8160450E+03;3; -6.4336171E+00;  0.0000000E+00; -3.5320237E+00;0; -7.7383295E-02;  1.0982270E+04;  0.0000000E+00; -4.5029455E-01;  4.0000000E+04;  0.0000000E+00;  3.9577020E+04; -1.0923227E-01;  0.0000000E+00;  3.1848971E-02;  4.7043193E+03;
  8.9465213E-01;  9.9999998E-03; -2.5144339E-01;7514;  1.2114200E-02;  0.0000000E+00;  1.3646742E-02;  9.9815778E+02;  1.9143374E-01; -1.5262264E+03;3; -6.2382889E+00;  0.0000000E+00; -3.6106486E+00;0; -7.2357908E-02;  1.1021137E+04;  0.0000000E+00; -3.6259073E-01;  4.0000000E+04;  0.0000000E+00;  3.9564852E+04; -9.4642259E-02;  0.0000000E+00;  2.2284351E-02;  1.7901434E+03;
  8.9470321E-01;  9.9999998E-03; -2.4142006E-01;7515;  1.3377902E-02;  0.0000000E+00;  1.4309453E-02;  9.9844550E+02;  1.9141844E-01; -1.2878632E+03;3; -5.9660506E+00;  0.0000000E+00; -3.4026599E+00;0; -5.7212509E-02;  1.1025143E+04;  0.0000000E+00; -5.7425398E-01;  4.0000000E+04;  0.0000000E+00;  3.9555410E+04; -7.8617513E-02;  0.0000000E+00;  2.1405002E-02;  3.7628015E+02;
  8.9492619E-01;  9.9999998E-03; -2.3137791E-01;7516;  1.4615212E-02;  0.0000000E+00;  1.4316758E-02;  9.9875952E+02;  1.9151023E-01; -1.0277227E+03;3; -5.6835704E+00;  0.0000000E+00; -3.3193233E+00;0; -3.9193805E-02;  1.1016686E+04;  0.0000000E+00; -9.5958096E-01;  4.0000000E+04;  0.0000000E+00;  3.9553188E+04; -6.0659565E-02;  0.0000000E+00;  2.1465760E-02;  3.4437347E+02;
  8.9506620E-01;  9.9999998E-03; -2.2128466E-01;7517;  1.5872909E-02;  0.0000000E+00;  1.4127361E-02;  9.9909784E+02;  1.9158123E-01; -7.4743469E+02;3; -5.3011303E+00;  0.0000000E+00; -3.2082677E+00;0; -2.0877343E-02;  1.1010936E+04;  0.0000000E+00; -1.3203540E+00;  4.0000000E+04;  0.0000000E+00;  3.9558355E+04; -4.0420339E-02;  0.0000000E+00;  1.9542996E-02;  1.2645869E+03;
  8.9510643E-01;  9.9999998E-03; -2.1119194E-01;7518;  1.7245315E-02;  0.0000000E+00;  1.4023541E-02;  9.9928345E+02;  1.9161187E-01; -5.9366144E+02;3; -4.8977566E+00;  0.0000000E+00; -3.1197841E+00;0; -2.3583500E-03;  1.1009175E+04;  0.0000000E+00; -1.5533767E+00;  4.0000000E+04;  0.0000000E+00;  3.9557582E+04; -1.7920665E-02;  0.0000000E+00;  1.5562315E-02;  1.6006027E+03;
  8.9512736E-01;  9.9999998E-03; -2.0113370E-01;7519;  1.8754462E-02;  0.0000000E+00;  1.3925230E-02;  9.9933734E+02;  1.9163433E-01; -5.4902081E+02;3; -4.4704504E+00;  0.0000000E+00; -3.0877376E+00;0;  1.7014755E-02;  1.1007343E+04;  0.0000000E+00; -1.6364217E+00;  4.0000000E+04;  0.0000000E+00;  3.9552172E+04;  6.6654333E-03;  0.0000000E+00;  1.0349322E-02;  1.5340200E+03;
  8.9514464E-01;  9.9999998E-03; -1.9109266E-01;7520;  2.0590132E-02;  0.0000000E+00;  1.3920649E-02;  9.9931116E+02;  1.9164902E-01; -5.7069916E+02;3; -4.4191432E+00;  0.0000000E+00; -3.1716228E+00;0;  3.7425429E-02;  1.1004745E+04;  0.0000000E+00; -1.5829538E+00;  4.0000000E+04;  0.0000000E+00;  3.9546949E+04;  3.3272188E-02;  0.0000000E+00;  4.1532395E-03;  1.3963115E+03;
  8.9517891E-01;  9.9999998E-03; -1.8106669E-01;7521;  2.2664569E-02;  0.0000000E+00;  1.3894256E-02;  9.9922260E+02;  1.9166999E-01; -6.4407971E+02;3; -4.0206809E+00;  0.0000000E+00; -3.0590503E+00;0;  5.8839165E-02;  1.1000500E+04;  0.0000000E+00; -1.4318792E+00;  4.0000000E+04;  0.0000000E+00;  3.9543367E+04;  6.1612424E-02;  0.0000000E+00; -2.7732572E-03;  1.2914530E+03;
  8.9523971E-01;  9.9999998E-03; -1.7103612E-01;7522;  2.4793671E-02;  0.0000000E+00;  1.3791775E-02;  9.9908728E+02;  1.9170292E-01; -7.5617517E+02;3; -3.6979897E+00;  0.0000000E+00; -3.0024123E+00;0;  8.1071556E-02;  1.0994294E+04;  0.0000000E+00; -1.2341027E+00;  4.0000000E+04;  0.0000000E+00;  3.9541066E+04;  9.1407545E-02;  0.0000000E+00; -1.0335991E-02;  1.3031510E+03;
  8.9528066E-01;  9.9999998E-03; -1.6097599E-01;7523;  2.6950190E-02;  0.0000000E+00;  1.3600165E-02;  9.9891309E+02;  1.9173066E-01; -9.0046722E+02;3; -3.2574475E+00;  0.0000000E+00; -2.7878113E+00;0;  1.0396743E-01;  1.0988481E+04;  0.0000000E+00; -1.0350435E+00;  4.0000000E+04;  0.0000000E+00;  3.9540801E+04;  1.2240756E-01;  0.0000000E+00; -1.8440126E-02;  1.3504938E+03;
  8.9539975E-01;  9.9999998E-03; -1.5090536E-01;7524;  2.9027741E-02;  0.0000000E+00;  1.3301421E-02;  9.9873785E+02;  1.9179848E-01; -1.0456481E+03;3; -2.8421228E+00;  0.0000000E+00; -2.6087360E+00;0;  1.2739044E-01;  1.0978666E+04;  0.0000000E+00; -8.6383468E-01;  4.0000000E+04;  0.0000000E+00;  3.9541391E+04;  1.5423036E-01;  0.0000000E+00; -2.6839906E-02;  1.2777839E+03;
  8.9557827E-01;  9.9999998E-03; -1.4082551E-01;7525;  3.0996652E-02;  0.0000000E+00;  1.2886330E-02;  9.9858447E+02;  1.9189313E-01; -1.1727555E+03;3; -2.4570019E+00;  0.0000000E+00; -2.3340409E+00;0;  1.5120682E-01;  1.0966568E+04;  0.0000000E+00; -7.2902620E-01;  4.0000000E+04;  0.0000000E+00;  3.9543703E+04;  1.8655446E-01;  0.0000000E+00; -3.5347637E-02;  1.0041754E+03;
  8.9576185E-01;  9.9999998E-03; -1.3074386E-01;7526;  3.2752994E-02;  0.0000000E+00;  1.2310958E-02;  9.9846405E+02;  1.9198896E-01; -1.2725056E+03;3; -1.5451487E+00;  0.0000000E+00; -2.0528738E+00;0;  1.7515346E-01;  1.0955380E+04;  0.0000000E+00; -6.2537444E-01;  4.0000000E+04;  0.0000000E+00;  3.9546711E+04;  2.1897280E-01;  0.0000000E+00; -4.3819331E-02;  5.8214508E+02;
  8.9590275E-01;  9.9999998E-03; -1.2067477E-01;7527;  3.4109548E-02;  0.0000000E+00;  1.1622159E-02;  9.9837506E+02;  1.9206555E-01; -1.3462318E+03;3; -8.3558679E-01;  0.0000000E+00; -1.7722802E+00;0;  1.9886409E-01;  1.0947789E+04;  0.0000000E+00; -5.4121542E-01;  4.0000000E+04;  0.0000000E+00;  3.9550332E+04;  2.5099137E-01;  0.0000000E+00; -5.2127291E-02;  2.3310347E+02;
  8.9595473E-01;  9.9999998E-03; -1.1062770E-01;7528;  3.5006121E-02;  0.0000000E+00;  1.0782025E-02;  9.9832111E+02;  1.9210176E-01; -1.3909219E+03;3;  1.1646266E-01;  0.0000000E+00; -1.5947062E+00;0;  2.2194694E-01;  1.0946028E+04;  0.0000000E+00; -4.6458563E-01;  4.0000000E+04;  0.0000000E+00;  3.9553738E+04;  2.8207663E-01;  0.0000000E+00; -6.0129691E-02;  4.7069141E+02;
  9.1616732E-01;  9.9999998E-03; -2.7165005E-01;7573;  6.2731211E-03;  0.0000000E+00;  1.0491329E-02;  9.9767584E+02;  2.0254900E-01; -1.9255226E+03;3; -7.0615172E+00;  0.0000000E+00; -3.9421256E+00;0; -1.1264491E-01;  9.8592373E+03;  0.0000000E+00; -7.5170946E-01;  4.0000000E+04;  0.0000000E+00;  3.9530836E+04; -1.4059697E-01;  0.0000000E+00;  2.7952058E-02;  4.7946880E+03;
  9.1575545E-01;  9.9999998E-03; -2.6162121E-01;7574;  7.8670988E-03;  0.0000000E+00;  1.2723973E-02;  9.9798932E+02;  2.0229708E-01; -1.6658267E+03;3; -6.9390249E+00;  0.0000000E+00; -4.0864186E+00;0; -1.1099366E-01;  9.8886982E+03;  0.0000000E+00; -6.1062706E-01;  4.0000000E+04;  0.0000000E+00;  3.9518020E+04; -1.2735909E-01;  0.0000000E+00;  1.6365431E-02;  2.3664824E+03;
  9.1536248E-01;  9.9999998E-03; -2.5159526E-01;7575;  9.5539335E-03;  0.0000000E+00;  1.3729961E-02;  9.9830878E+02;  2.0204093E-01; -1.4011432E+03;3; -6.7957349E+00;  0.0000000E+00; -3.9781754E+00;0; -9.3445800E-02;  9.9168203E+03;  0.0000000E+00; -5.7626379E-01;  4.0000000E+04;  0.0000000E+00;  3.9507875E+04; -1.1230467E-01;  0.0000000E+00;  1.8858863E-02;  1.2875093E+03;
  9.1532922E-01;  9.9999998E-03; -2.4156198E-01;7576;  1.1256212E-02;  0.0000000E+00;  1.3881562E-02;  9.9864575E+02;  2.0196849E-01; -1.1219911E+03;3; -6.6282330E+00;  0.0000000E+00; -3.9336102E+00;0; -7.1220413E-02;  9.9247793E+03;  0.0000000E+00; -6.5924931E-01;  4.0000000E+04;  0.0000000E+00;  3.9504543E+04; -9.5619112E-02;  0.0000000E+00;  2.4398699E-02;  1.3345966E+03;
  9.1546160E-01;  9.9999998E-03; -2.3150708E-01;7577;  1.2991638E-02;  0.0000000E+00;  1.3790517E-02;  9.9897205E+02;  2.0199654E-01; -8.5162885E+02;3; -6.4159422E+00;  0.0000000E+00; -3.8796670E+00;0; -4.9804304E-02;  9.9218750E+03;  0.0000000E+00; -8.2593113E-01;  4.0000000E+04;  0.0000000E+00;  3.9506980E+04; -7.6960765E-02;  0.0000000E+00;  2.7156461E-02;  1.0511407E+03;
  9.1544592E-01;  9.9999998E-03; -2.2139220E-01;7578;  1.4794508E-02;  0.0000000E+00;  1.3631305E-02;  9.9930914E+02;  2.0197153E-01; -5.7237793E+02;3; -6.1419563E+00;  0.0000000E+00; -3.7907054E+00;0; -2.8928041E-02;  9.9246133E+03;  0.0000000E+00; -1.0074198E+00;  4.0000000E+04;  0.0000000E+00;  3.9516449E+04; -5.5834886E-02;  0.0000000E+00;  2.6906844E-02;  7.8797467E+02;
  9.1528970E-01;  9.9999998E-03; -2.1128051E-01;7579;  1.6725430E-02;  0.0000000E+00;  1.3688640E-02;  9.9946808E+02;  2.0188989E-01; -4.4067816E+02;3; -5.9613566E+00;  0.0000000E+00; -3.8604341E+00;0; -8.3110705E-03;  9.9327510E+03;  0.0000000E+00; -1.1511682E+00;  4.0000000E+04;  0.0000000E+00;  3.9517562E+04; -3.2297235E-02;  0.0000000E+00;  2.3986164E-02;  9.9162347E+02;
  9.1498649E-01;  9.9999998E-03; -2.0120603E-01;7580;  1.9175569E-02;  0.0000000E+00;  1.4277872E-02;  9.9945026E+02;  2.0174253E-01; -4.5544315E+02;3; -6.8413992E+00;  0.0000000E+00; -4.9334135E+00;0;  1.2707451E-02;  9.9456240E+03;  0.0000000E+00; -1.2370015E+00;  4.0000000E+04;  0.0000000E+00;  3.9513426E+04; -6.3724760E-03;  0.0000000E+00;  1.9079927E-02;  9.5925897E+02;
  9.1460848E-01;  9.9999998E-03; -1.9113868E-01;7581;  2.2472510E-02;  0.0000000E+00;  1.5353370E-02;  9.9934570E+02;  2.0156506E-01; -5.4205786E+02;3; -7.3018546E+00;  0.0000000E+00; -5.0947547E+00;0;  3.4880728E-02;  9.9602363E+03;  0.0000000E+00; -1.2632184E+00;  4.0000000E+04;  0.0000000E+00;  3.9509328E+04;  2.1849971E-02;  0.0000000E+00;  1.3030758E-02;  1.1083795E+03;
  9.1436821E-01;  9.9999998E-03; -1.8107960E-01;7582;  2.6043866E-02;  0.0000000E+00;  1.6291611E-02;  9.9918994E+02;  2.0145521E-01; -6.7114038E+02;3; -7.7004600E+00;  0.0000000E+00; -4.7980847E+00;0;  5.8159109E-02;  9.9676016E+03;  0.0000000E+00; -1.2296835E+00;  4.0000000E+04;  0.0000000E+00;  3.9506246E+04;  5.1827673E-02;  0.0000000E+00;  6.3314377E-03;  1.2812467E+03;
  9.1427487E-01;  9.9999998E-03; -1.7101513E-01;7583;  2.9825073E-02;  0.0000000E+00;  1.6973116E-02;  9.9900507E+02;  2.0141892E-01; -8.2427161E+02;3; -7.7145853E+00;  0.0000000E+00; -4.2445092E+00;0;  8.2194120E-02;  9.9674717E+03;  0.0000000E+00; -1.1471390E+00;  4.0000000E+04;  0.0000000E+00;  3.9504859E+04;  8.3302468E-02;  0.0000000E+00; -1.1083507E-03;  1.3692545E+03;
  9.1430980E-01;  9.9999998E-03; -1.6093974E-01;7584;  3.3697691E-02;  0.0000000E+00;  1.7384367E-02;  9.9880957E+02;  2.0144808E-01; -9.8624207E+02;3; -7.8695221E+00;  0.0000000E+00; -3.6538718E+00;0;  1.0675442E-01;  9.9610439E+03;  0.0000000E+00; -1.0314189E+00;  4.0000000E+04;  0.0000000E+00;  3.9505047E+04;  1.1598513E-01;  0.0000000E+00; -9.2307134E-03;  1.3614897E+03;
  9.1445172E-01;  9.9999998E-03; -1.5085658E-01;7585;  3.7600689E-02;  0.0000000E+00;  1.7527521E-02;  9.9861847E+02;  2.0153262E-01; -1.1445583E+03;3; -7.8401952E+00;  0.0000000E+00; -3.0748427E+00;0;  1.3171394E-01;  9.9496318E+03;  0.0000000E+00; -8.9616328E-01;  4.0000000E+04;  0.0000000E+00;  3.9506723E+04;  1.4955284E-01;  0.0000000E+00; -1.7838893E-02;  1.2686027E+03;
  9.1467470E-01;  9.9999998E-03; -1.4077134E-01;7586;  4.1531924E-02;  0.0000000E+00;  1.7435530E-02;  9.9845636E+02;  2.0166172E-01; -1.2788752E+03;3; -7.9020486E+00;  0.0000000E+00; -2.6030507E+00;0;  1.5696603E-01;  9.9349648E+03;  0.0000000E+00; -7.5215024E-01;  4.0000000E+04;  0.0000000E+00;  3.9509332E+04;  1.8367147E-01;  0.0000000E+00; -2.6705442E-02;  1.1614103E+03;
  9.1492915E-01;  9.9999998E-03; -1.3068844E-01;7587;  4.5448594E-02;  0.0000000E+00;  1.7169047E-02;  9.9832855E+02;  2.0180783E-01; -1.3847487E+03;3; -7.8228159E+00;  0.0000000E+00; -2.2166433E+00;0;  1.8233913E-01;  9.9197598E+03;  0.0000000E+00; -6.0877812E-01;  4.0000000E+04;  0.0000000E+00;  3.9512578E+04;  2.1800430E-01;  0.0000000E+00; -3.5665177E-02;  1.1566881E+03;
  9.1516328E-01;  9.9999998E-03; -1.2061463E-01;7588;  4.9271319E-02;  0.0000000E+00;  1.6720943E-02;  9.9823627E+02;  2.0194417E-01; -1.4612402E+03;3; -7.5235405E+00;  0.0000000E+00; -1.7247623E+00;0;  2.0757867E-01;  9.9068096E+03;  0.0000000E+00; -4.7450787E-01;  4.0000000E+04;  0.0000000E+00;  3.9515754E+04;  2.5217319E-01;  0.0000000E+00; -4.4594511E-02;  1.2779236E+03;
  9.1533363E-01;  9.9999998E-03; -1.1055780E-01;7589;  5.2979548E-02;  0.0000000E+00;  1.6115248E-02;  9.9817767E+02;  2.0204930E-01; -1.5097820E+03;3; -7.2175713E+00;  0.0000000E+00; -1.3343420E+00;0;  2.3241878E-01;  9.8983301E+03;  0.0000000E+00; -3.5586402E-01;  4.0000000E+04;  0.0000000E+00;  3.9518613E+04;  2.8576556E-01;  0.0000000E+00; -5.3346775E-02;  1.4185402E+03;
  9.3782777E-01;  9.9999998E-03; -2.6176751E-01;7635;  4.4640373E-03;  0.0000000E+00;  1.1947224E-02;  9.9770837E+02;  2.1408853E-01; -1.8985592E+03;3; -7.4956918E+00;  0.0000000E+00; -4.0112605E+00;0; -1.5119508E-01;  8.8383174E+03;  0.0000000E+00; -7.4848115E-01;  4.0000000E+04;  0.0000000E+00;  3.9455023E+04; -1.5263875E-01;  0.0000000E+00;  1.4436764E-03;  2.1552124E+03;
  9.3749577E-01;  9.9999998E-03; -2.5172561E-01;7636;  6.5594357E-03;  0.0000000E+00;  1.1595163E-02;  9.9819818E+02;  2.1386153E-01; -1.4927938E+03;3; -7.3638310E+00;  0.0000000E+00; -3.8940735E+00;0; -1.1844113E-01;  8.8607891E+03;  0.0000000E+00; -7.1398401E-01;  4.0000000E+04;  0.0000000E+00;  3.9456633E+04; -1.3789716E-01;  0.0000000E+00;  1.9456029E-02;  2.2360007E+03;
  9.3767732E-01;  9.9999998E-03; -2.4167548E-01;7637;  8.6887097E-03;  0.0000000E+00;  1.1295546E-02;  9.9870276E+02;  2.1391046E-01; -1.0747325E+03;3; -7.2657022E+00;  0.0000000E+00; -3.8502309E+00;0; -9.2409559E-02;  8.8588457E+03;  0.0000000E+00; -5.4120743E-01;  4.0000000E+04;  0.0000000E+00;  3.9460801E+04; -1.2197914E-01;  0.0000000E+00;  2.9569581E-02;  1.5809867E+03;
  9.3770236E-01;  9.9999998E-03; -2.3160891E-01;7638;  1.0948577E-02;  0.0000000E+00;  1.1235423E-02;  9.9911096E+02;  2.1387824E-01; -7.3657007E+02;3; -7.1347642E+00;  0.0000000E+00; -3.7932951E+00;0; -7.0270844E-02;  8.8620879E+03;  0.0000000E+00; -3.7176767E-01;  4.0000000E+04;  0.0000000E+00;  3.9466199E+04; -1.0391305E-01;  0.0000000E+00;  3.3642210E-02;  1.0159697E+03;
  9.3746859E-01;  9.9999998E-03; -2.2147888E-01;7639;  1.3304045E-02;  0.0000000E+00;  1.1220747E-02;  9.9948126E+02;  2.1372281E-01; -4.2976462E+02;3; -6.9691191E+00;  0.0000000E+00; -3.6577020E+00;0; -4.9094494E-02;  8.8751465E+03;  0.0000000E+00; -2.8272787E-01;  4.0000000E+04;  0.0000000E+00;  3.9478113E+04; -8.3360180E-02;  0.0000000E+00;  3.4265686E-02;  1.3673311E+03;
  9.3705827E-01;  9.9999998E-03; -2.1134289E-01;7640;  1.5793279E-02;  0.0000000E+00;  1.1441419E-02;  9.9963580E+02;  2.1349463E-01; -3.0171915E+02;3; -6.8146510E+00;  0.0000000E+00; -3.4702430E+00;0; -2.8350241E-02;  8.8940527E+03;  0.0000000E+00; -2.8925955E-01;  4.0000000E+04;  0.0000000E+00;  3.9482027E+04; -6.0477894E-02;  0.0000000E+00;  3.2127652E-02;  1.9060663E+03;
  9.3660331E-01;  9.9999998E-03; -2.0125654E-01;7641;  1.8705603E-02;  0.0000000E+00;  1.2106326E-02;  9.9959698E+02;  2.1325412E-01; -3.3386633E+02;3; -7.4611182E+00;  0.0000000E+00; -4.0533319E+00;0; -7.5890049E-03;  8.9129102E+03;  0.0000000E+00; -3.7483805E-01;  4.0000000E+04;  0.0000000E+00;  3.9478246E+04; -3.5614565E-02;  0.0000000E+00;  2.8025560E-02;  1.7687904E+03;
  9.3618405E-01;  9.9999998E-03; -1.9118698E-01;7642;  2.2615455E-02;  0.0000000E+00;  1.3480145E-02;  9.9948145E+02;  2.1303785E-01; -4.2961649E+02;3; -8.2978449E+00;  0.0000000E+00; -4.2252593E+00;0;  1.3641029E-02;  8.9286279E+03;  0.0000000E+00; -5.1097465E-01;  4.0000000E+04;  0.0000000E+00;  3.9474418E+04; -8.9111822E-03;  0.0000000E+00;  2.2552211E-02;  1.5475603E+03;
  9.3589765E-01;  9.9999998E-03; -1.8112354E-01;7643;  2.7006889E-02;  0.0000000E+00;  1.4788364E-02;  9.9933002E+02;  2.1289772E-01; -5.5504474E+02;3; -8.5507956E+00;  0.0000000E+00; -3.6279998E+00;0;  3.5723265E-02;  8.9375361E+03;  0.0000000E+00; -6.5725166E-01;  4.0000000E+04;  0.0000000E+00;  3.9472207E+04;  1.9363759E-02;  0.0000000E+00;  1.6359506E-02;  1.3209508E+03;
  9.3576616E-01;  9.9999998E-03; -1.7106171E-01;7644;  3.1583410E-02;  0.0000000E+00;  1.5723368E-02;  9.9916357E+02;  2.1284074E-01; -6.9296649E+02;3; -8.5981150E+00;  0.0000000E+00; -2.8084681E+00;0;  5.8311321E-02;  8.9391729E+03;  0.0000000E+00; -7.7571696E-01;  4.0000000E+04;  0.0000000E+00;  3.9471516E+04;  4.8912618E-02;  0.0000000E+00;  9.3987044E-03;  1.1136921E+03;
  9.3576366E-01;  9.9999998E-03; -1.6099976E-01;7645;  3.6247801E-02;  0.0000000E+00;  1.6271530E-02;  9.9899274E+02;  2.1285442E-01; -8.3449304E+02;3; -8.6491060E+00;  0.0000000E+00; -2.0609941E+00;0;  8.1159435E-02;  8.9348154E+03;  0.0000000E+00; -8.3576256E-01;  4.0000000E+04;  0.0000000E+00;  3.9472359E+04;  7.9451516E-02;  0.0000000E+00;  1.7079158E-03;  9.5658557E+02;
  9.3587720E-01;  9.9999998E-03; -1.5093860E-01;7646;  4.1013896E-02;  0.0000000E+00;  1.6494891E-02;  9.9883698E+02;  2.1293572E-01; -9.6352612E+02;3; -8.6858196E+00;  0.0000000E+00; -1.4402773E+00;0;  1.0412344E-01;  8.9254160E+03;  0.0000000E+00; -8.2134467E-01;  4.0000000E+04;  0.0000000E+00;  3.9474289E+04;  1.1063081E-01;  0.0000000E+00; -6.5073743E-03;  9.6771509E+02;
  9.3611187E-01;  9.9999998E-03; -1.4088190E-01;7647;  4.5825284E-02;  0.0000000E+00;  1.6419498E-02;  9.9870099E+02;  2.1308316E-01; -1.0762140E+03;3; -8.6614714E+00;  0.0000000E+00; -1.0524311E+00;0;  1.2702750E-01;  8.9109863E+03;  0.0000000E+00; -7.3583549E-01;  4.0000000E+04;  0.0000000E+00;  3.9477215E+04;  1.4201790E-01;  0.0000000E+00; -1.4990406E-02;  1.3055239E+03;
  9.3645203E-01;  9.9999998E-03; -1.3083704E-01;7648;  5.0719261E-02;  0.0000000E+00;  1.6152920E-02;  9.9859491E+02;  2.1328987E-01; -1.1641125E+03;3; -8.5428705E+00;  0.0000000E+00; -7.6756155E-01;0;  1.4963551E-01;  8.8926562E+03;  0.0000000E+00; -5.9948337E-01;  4.0000000E+04;  0.0000000E+00;  3.9480258E+04;  1.7318480E-01;  0.0000000E+00; -2.3549283E-02;  1.8628915E+03;
  9.3682092E-01;  9.9999998E-03; -1.2080426E-01;7649;  5.5593953E-02;  0.0000000E+00;  1.5733292E-02;  9.9852002E+02;  2.1351278E-01; -1.2261353E+03;3; -8.2423553E+00;  0.0000000E+00; -5.5503625E-01;0;  1.7181548E-01;  8.8738770E+03;  0.0000000E+00; -4.4192621E-01;  4.0000000E+04;  0.0000000E+00;  3.9482566E+04;  2.0389163E-01;  0.0000000E+00; -3.2076143E-02;  2.4084851E+03;
  9.3713850E-01;  9.9999998E-03; -1.1078303E-01;7650;  6.0374353E-02;  0.0000000E+00;  1.5191779E-02;  9.9847668E+02;  2.1370988E-01; -1.2620354E+03;3; -7.9048853E+00;  0.0000000E+00; -3.1493586E-01;0;  1.9350374E-01;  8.8583789E+03;  0.0000000E+00; -2.9266456E-01;  4.0000000E+04;  0.0000000E+00;  3.9483840E+04;  2.3396505E-01;  0.0000000E+00; -4.0461324E-02;  2.7610222E+03;
  9.6130276E-01;  9.9999998E-03; -2.6185080E-01;7696;  2.7600388E-04;  0.0000000E+00;  5.6859036E-03;  9.9760468E+02;  2.2734617E-01; -1.9844803E+03;3; -8.1985054E+00;  0.0000000E+00; -3.8409879E+00;0; -1.6690655E-01;  7.8376597E+03;  0.0000000E+00; -9.5892644E-01;  4.0000000E+04;  0.0000000E+00;  3.9430719E+04; -1.8577628E-01;  0.0000000E+00;  1.8869726E-02;  1.3207245E+03;
  9.6103036E-01;  9.9999998E-03; -2.5177994E-01;7697;  2.8661089E-03;  0.0000000E+00;  5.3297351E-03;  9.9828961E+02;  2.2713912E-01; -1.4170415E+03;3; -8.1210337E+00;  0.0000000E+00; -3.6895437E+00;0; -1.3797703E-01;  7.8572949E+03;  0.0000000E+00; -7.1827745E-01;  4.0000000E+04;  0.0000000E+00;  3.9439016E+04; -1.7182983E-01;  0.0000000E+00;  3.3852797E-02;  1.5204611E+03;
  9.6127278E-01;  9.9999998E-03; -2.4171658E-01;7698;  5.4628542E-03;  0.0000000E+00;  5.6985617E-03;  9.9887891E+02;  2.2721666E-01; -9.2881006E+02;3; -8.0689993E+00;  0.0000000E+00; -3.5109572E+00;0; -1.1904815E-01;  7.8560859E+03;  0.0000000E+00; -1.3773784E-01;  4.0000000E+04;  0.0000000E+00;  3.9438930E+04; -1.5710691E-01;  0.0000000E+00;  3.8058758E-02;  1.4196724E+03;
  9.6129620E-01;  9.9999998E-03; -2.3164876E-01;7699;  8.1848092E-03;  0.0000000E+00;  6.2666447E-03;  9.9931036E+02;  2.2717609E-01; -5.7133990E+02;3; -8.0148706E+00;  0.0000000E+00; -3.1076603E+00;0; -1.0130299E-01;  7.8615864E+03;  0.0000000E+00;  4.3665695E-01;  4.0000000E+04;  0.0000000E+00;  3.9438477E+04; -1.4048846E-01;  0.0000000E+00;  3.9185472E-02;  3.3688879E+03;
  9.6095842E-01;  9.9999998E-03; -2.2152132E-01;7700;  1.1102285E-02;  0.0000000E+00;  6.6993008E-03;  9.9967908E+02;  2.2694491E-01; -2.6586813E+02;3; -7.9439864E+00;  0.0000000E+00; -2.7666483E+00;0; -8.2646504E-02;  7.8791157E+03;  0.0000000E+00;  8.1267720E-01;  4.0000000E+04;  0.0000000E+00;  3.9446758E+04; -1.2164947E-01;  0.0000000E+00;  3.9002966E-02;  5.7943149E+03;
  9.6028918E-01;  9.9999998E-03; -2.1138349E-01;7701;  1.4180499E-02;  0.0000000E+00;  7.1763620E-03;  9.9979626E+02;  2.2654846E-01; -1.6878481E+02;3; -7.8866916E+00;  0.0000000E+00; -2.4988081E+00;0; -6.3550666E-02;  7.9073511E+03;  0.0000000E+00;  9.2354685E-01;  4.0000000E+04;  0.0000000E+00;  3.9449566E+04; -1.0067745E-01;  0.0000000E+00;  3.7126783E-02;  7.0063301E+03;
  9.5955545E-01;  9.9999998E-03; -2.0128256E-01;7702;  1.7478613E-02;  0.0000000E+00;  7.6188724E-03;  9.9976611E+02;  2.2613071E-01; -1.9377167E+02;3; -7.8197312E+00;  0.0000000E+00; -2.1380422E+00;0; -4.4204548E-02;  7.9367139E+03;  0.0000000E+00;  8.1070650E-01;  4.0000000E+04;  0.0000000E+00;  3.9446555E+04; -7.8166246E-02;  0.0000000E+00;  3.3961698E-02;  7.0422021E+03;
  9.5894855E-01;  9.9999998E-03; -1.9120005E-01;7703;  2.1677949E-02;  0.0000000E+00;  8.8108508E-03;  9.9968317E+02;  2.2579101E-01; -2.6251025E+02;3; -8.7059355E+00;  0.0000000E+00; -2.4247968E+00;0; -2.5276572E-02;  7.9599614E+03;  0.0000000E+00;  5.3378999E-01;  4.0000000E+04;  0.0000000E+00;  3.9443344E+04; -5.4644618E-02;  0.0000000E+00;  2.9368047E-02;  6.2717451E+03;
  9.5851368E-01;  9.9999998E-03; -1.8113291E-01;7704;  2.6430378E-02;  0.0000000E+00;  9.9355821E-03;  9.9956470E+02;  2.2555746E-01; -3.6063065E+02;3; -9.1027937E+00;  0.0000000E+00; -2.1043060E+00;0; -6.0451087E-03;  7.9751577E+03;  0.0000000E+00;  1.6360910E-01;  4.0000000E+04;  0.0000000E+00;  3.9441926E+04; -3.0185355E-02;  0.0000000E+00;  2.4140246E-02;  4.9842344E+03;
  9.5827824E-01;  9.9999998E-03; -1.7107266E-01;7705;  3.1440578E-02;  0.0000000E+00;  1.0762592E-02;  9.9942633E+02;  2.2544369E-01; -4.7529370E+02;3; -9.2790842E+00;  0.0000000E+00; -1.6923038E+00;0;  1.3255179E-02;  7.9813599E+03;  0.0000000E+00; -2.1179795E-01;  4.0000000E+04;  0.0000000E+00;  3.9442207E+04; -5.0262879E-03;  0.0000000E+00;  1.8281467E-02;  3.6096404E+03;
  9.5822871E-01;  9.9999998E-03; -1.6101874E-01;7706;  3.6635157E-02;  0.0000000E+00;  1.1283020E-02;  9.9927655E+02;  2.2543876E-01; -5.9933917E+02;3; -9.3802023E+00;  0.0000000E+00; -1.2477221E+00;0;  3.2428570E-02;  7.9794268E+03;  0.0000000E+00; -5.1043552E-01;  4.0000000E+04;  0.0000000E+00;  3.9443281E+04;  2.0533370E-02;  0.0000000E+00;  1.1895198E-02;  2.5990315E+03;
  9.5832658E-01;  9.9999998E-03; -1.5097055E-01;7707;  4.1928135E-02;  0.0000000E+00;  1.1497328E-02;  9.9913464E+02;  2.2551987E-01; -7.1691571E+02;3; -9.2921257E+00;  0.0000000E+00; -9.2664951E-01;0;  5.1415410E-02;  7.9712720E+03;  0.0000000E+00; -6.8073559E-01;  4.0000000E+04;  0.0000000E+00;  3.9445441E+04;  4.6214320E-02;  0.0000000E+00;  5.2010901E-03;  2.2448748E+03;
  9.5853388E-01;  9.9999998E-03; -1.4093402E-01;7708;  4.7280639E-02;  0.0000000E+00;  1.1505600E-02;  9.9900342E+02;  2.2566460E-01; -8.2565302E+02;3; -9.1891317E+00;  0.0000000E+00; -7.2945935E-01;0;  7.0129588E-02;  7.9589224E+03;  0.0000000E+00; -7.1136522E-01;  4.0000000E+04;  0.0000000E+00;  3.9447965E+04;  7.1707845E-02;  0.0000000E+00; -1.5782543E-03;  2.4630403E+03;
  9.5883185E-01;  9.9999998E-03; -1.3091113E-01;7709;  5.2644119E-02;  0.0000000E+00;  1.1360322E-02;  9.9890234E+02;  2.2586077E-01; -9.0940350E+02;3; -8.9506464E+00;  0.0000000E+00; -6.0557717E-01;0;  8.8379540E-02;  7.9435322E+03;  0.0000000E+00; -6.2644309E-01;  4.0000000E+04;  0.0000000E+00;  3.9449766E+04;  9.6651942E-02;  0.0000000E+00; -8.2724001E-03;  2.9740703E+03;
  9.5915192E-01;  9.9999998E-03; -1.2089527E-01;7710;  5.7958595E-02;  0.0000000E+00;  1.1101198E-02;  9.9883789E+02;  2.2606833E-01; -9.6278448E+02;3; -8.6421013E+00;  0.0000000E+00; -4.6442148E-01;0;  1.0610010E-01;  7.9280679E+03;  0.0000000E+00; -4.7233382E-01;  4.0000000E+04;  0.0000000E+00;  3.9450699E+04;  1.2089928E-01;  0.0000000E+00; -1.4799178E-02;  3.5418418E+03;
  9.5942497E-01;  9.9999998E-03; -1.1087421E-01;7711;  6.3152067E-02;  0.0000000E+00;  1.0742613E-02;  9.9878754E+02;  2.2624515E-01; -1.0045115E+03;3; -8.2547226E+00;  0.0000000E+00; -3.1906813E-01;0;  1.2329766E-01;  7.9154043E+03;  0.0000000E+00; -3.0099183E-01;  4.0000000E+04;  0.0000000E+00;  3.9450191E+04;  1.4440018E-01;  0.0000000E+00; -2.1102516E-02;  3.9522498E+03;
  9.8549443E-01;  9.9999998E-03; -2.6191869E-01;7757; -4.9497471E-03;  0.0000000E+00; -3.2169065E-03;  9.9725995E+02;  2.4156997E-01; -2.2700486E+03;3; -9.1218014E+00;  0.0000000E+00; -3.7811542E+00;0; -1.8021668E-01;  6.9355234E+03;  0.0000000E+00; -1.1874160E+00;  4.0000000E+04;  0.0000000E+00;  3.9418613E+04; -2.2042304E-01;  0.0000000E+00;  4.0206358E-02;  4.6290415E+03;
  9.8512244E-01;  9.9999998E-03; -2.5182855E-01;7758; -1.9080341E-03;  0.0000000E+00; -2.1969336E-03;  9.9793262E+02;  2.4127513E-01; -1.7127830E+03;3; -9.0427847E+00;  0.0000000E+00; -3.3322723E+00;0; -1.6660140E-01;  6.9576074E+03;  0.0000000E+00; -5.5213726E-01;  4.0000000E+04;  0.0000000E+00;  3.9424359E+04; -2.0676599E-01;  0.0000000E+00;  4.0164594E-02;  5.4277832E+03;
  9.8503339E-01;  9.9999998E-03; -2.4176528E-01;7759;  1.1336728E-03;  0.0000000E+00; -5.0750742E-04;  9.9839117E+02;  2.4114782E-01; -1.3328943E+03;3; -9.0002441E+00;  0.0000000E+00; -2.7962749E+00;0; -1.5604898E-01;  6.9696558E+03;  0.0000000E+00;  3.4265202E-01;  4.0000000E+04;  0.0000000E+00;  3.9413387E+04; -1.9224118E-01;  0.0000000E+00;  3.6192186E-02;  3.7374219E+03;
  9.8470038E-01;  9.9999998E-03; -2.3170081E-01;7760;  4.3905643E-03;  0.0000000E+00;  4.8668173E-04;  9.9874219E+02;  2.4088380E-01; -1.0420890E+03;3; -8.9633446E+00;  0.0000000E+00; -2.4901779E+00;0; -1.3997635E-01;  6.9885483E+03;  0.0000000E+00;  1.1230083E+00;  4.0000000E+04;  0.0000000E+00;  3.9406641E+04; -1.7627335E-01;  0.0000000E+00;  3.6296993E-02;  5.0951558E+03;
  9.8414999E-01;  9.9999998E-03; -2.2160475E-01;7761;  7.8931255E-03;  0.0000000E+00;  1.0670125E-03;  9.9905566E+02;  2.4050894E-01; -7.8234460E+02;3; -8.9382038E+00;  0.0000000E+00; -2.2084713E+00;0; -1.2244631E-01;  7.0132031E+03;  0.0000000E+00;  1.6451478E+00;  4.0000000E+04;  0.0000000E+00;  3.9407531E+04; -1.5894684E-01;  0.0000000E+00;  3.6500536E-02;  8.2159072E+03;
  9.8342150E-01;  9.9999998E-03; -2.1152747E-01;7762;  1.1624051E-02;  0.0000000E+00;  1.5773916E-03;  9.9919092E+02;  2.4006164E-01; -6.7029889E+02;3; -8.8716764E+00;  0.0000000E+00; -1.7238016E+00;0; -1.0503121E-01;  7.0419556E+03;  0.0000000E+00;  1.8469586E+00;  4.0000000E+04;  0.0000000E+00;  3.9405742E+04; -1.4047818E-01;  0.0000000E+00;  3.5446975E-02;  1.0269393E+04;
  9.8273993E-01;  9.9999998E-03; -2.0148362E-01;7763;  1.5531205E-02;  0.0000000E+00;  1.8396762E-03;  9.9923914E+02;  2.3965923E-01; -6.3034967E+02;3; -8.8547707E+00;  0.0000000E+00; -1.4980278E+00;0; -8.7899342E-02;  7.0673970E+03;  0.0000000E+00;  1.7492614E+00;  4.0000000E+04;  0.0000000E+00;  3.9403703E+04; -1.2130857E-01;  0.0000000E+00;  3.3409234E-02;  1.0959483E+04;
  9.8202497E-01;  9.9999998E-03; -1.9142187E-01;7764;  1.9674908E-02;  0.0000000E+00;  1.9642324E-03;  9.9924622E+02;  2.3924544E-01; -6.2447327E+02;3; -8.9459829E+00;  0.0000000E+00; -1.4383996E+00;0; -7.0798986E-02;  7.0926914E+03;  0.0000000E+00;  1.3898062E+00;  4.0000000E+04;  0.0000000E+00;  3.9404922E+04; -1.0133370E-01;  0.0000000E+00;  3.0534714E-02;  1.0282908E+04;
  9.8137176E-01;  9.9999998E-03; -1.8134010E-01;7765;  2.4579780E-02;  0.0000000E+00;  2.5685488E-03;  9.9918671E+02;  2.3887771E-01; -6.7380505E+02;3; -9.5834751E+00;  0.0000000E+00; -1.5248760E+00;0; -5.3877443E-02;  7.1144932E+03;  0.0000000E+00;  8.6453575E-01;  4.0000000E+04;  0.0000000E+00;  3.9406961E+04; -8.0886438E-02;  0.0000000E+00;  2.7008997E-02;  8.5956738E+03;
  9.8089027E-01;  9.9999998E-03; -1.7124830E-01;7766;  2.9853366E-02;  0.0000000E+00;  3.1992649E-03;  9.9908148E+02;  2.3862216E-01; -7.6096271E+02;3; -9.7750263E+00;  0.0000000E+00; -1.3869427E+00;0; -3.6982715E-02;  7.1289492E+03;  0.0000000E+00;  2.9375497E-01;  4.0000000E+04;  0.0000000E+00;  3.9409359E+04; -6.0203515E-02;  0.0000000E+00;  2.3220798E-02;  6.5382109E+03;
  9.8061049E-01;  9.9999998E-03; -1.6115716E-01;7767;  3.5316255E-02;  0.0000000E+00;  3.6889939E-03;  9.9893878E+02;  2.3848985E-01; -8.7918103E+02;3; -9.7625933E+00;  0.0000000E+00; -1.3435694E+00;0; -2.0224486E-02;  7.1352559E+03;  0.0000000E+00; -2.0633726E-01;  4.0000000E+04;  0.0000000E+00;  3.9411895E+04; -3.9578252E-02;  0.0000000E+00;  1.9353766E-02;  4.8114678E+03;
  9.8053402E-01;  9.9999998E-03; -1.5107304E-01;7768;  4.0880106E-02;  0.0000000E+00;  4.0452057E-03;  9.9878571E+02;  2.3847921E-01; -1.0059917E+03;3; -9.7156544E+00;  0.0000000E+00; -1.3364298E+00;0; -3.7201624E-03;  7.1336909E+03;  0.0000000E+00; -5.5431694E-01;  4.0000000E+04;  0.0000000E+00;  3.9414527E+04; -1.9344483E-02;  0.0000000E+00;  1.5624320E-02;  3.9049824E+03;
  9.8066807E-01;  9.9999998E-03; -1.4099686E-01;7769;  4.6537418E-02;  0.0000000E+00;  4.2933286E-03;  9.9864496E+02;  2.3859683E-01; -1.1226299E+03;3; -9.6078434E+00;  0.0000000E+00; -1.2758056E+00;0;  1.2357763E-02;  7.1243926E+03;  0.0000000E+00; -7.2093266E-01;  4.0000000E+04;  0.0000000E+00;  3.9416828E+04;  1.0863329E-04;  0.0000000E+00;  1.2249130E-02;  3.7770569E+03;
  9.8100477E-01;  9.9999998E-03; -1.3092312E-01;7770;  5.2194156E-02;  0.0000000E+00;  4.3955143E-03;  9.9852820E+02;  2.3883167E-01; -1.2193674E+03;3; -9.4007692E+00;  0.0000000E+00; -1.1834266E+00;0;  2.7791105E-02;  7.1081250E+03;  0.0000000E+00; -7.2588855E-01;  4.0000000E+04;  0.0000000E+00;  3.9418176E+04;  1.8391291E-02;  0.0000000E+00;  9.3998136E-03;  4.0397056E+03;
  9.8142940E-01;  9.9999998E-03; -1.2085894E-01;7771;  5.7788722E-02;  0.0000000E+00;  4.3635960E-03;  9.9843848E+02;  2.3911521E-01; -1.2936859E+03;3; -9.1338778E+00;  0.0000000E+00; -1.0463207E+00;0;  4.2540565E-02;  7.0894092E+03;  0.0000000E+00; -6.2003702E-01;  4.0000000E+04;  0.0000000E+00;  3.9418238E+04;  3.5426956E-02;  0.0000000E+00;  7.1136099E-03;  4.4045493E+03;
  9.8187709E-01;  9.9999998E-03; -1.1081066E-01;7772;  6.3300349E-02;  0.0000000E+00;  4.2160000E-03;  9.9837207E+02;  2.3940447E-01; -1.3486965E+03;3; -8.7767820E+00;  0.0000000E+00; -8.8663208E-01;0;  5.6488335E-02;  7.0706694E+03;  0.0000000E+00; -4.6549654E-01;  4.0000000E+04;  0.0000000E+00;  3.9416617E+04;  5.1096495E-02;  0.0000000E+00;  5.3918385E-03;  4.6785005E+03;
  1.0056057E+00;  9.9999998E-03; -1.4098063E-01;7830;  4.4129048E-02;  0.0000000E+00; -6.0821259E-03;  9.9719586E+02;  2.5378573E-01; -2.3231785E+03;3; -9.9289713E+00;  0.0000000E+00; -1.9188099E+00;0; -1.7316099E-02;  6.2905444E+03;  0.0000000E+00; -6.9389743E-01;  4.0000000E+04;  0.0000000E+00;  3.9375836E+04; -4.7629938E-02;  0.0000000E+00;  3.0313838E-02;  4.7389517E+03;
  1.0055844E+00;  9.9999998E-03; -1.5110824E-01;7829;  3.8377549E-02;  0.0000000E+00; -6.2774569E-03;  9.9737457E+02;  2.5371596E-01; -2.1750850E+03;3; -9.9688301E+00;  0.0000000E+00; -1.7466290E+00;0; -3.4071725E-02;  6.2964487E+03;  0.0000000E+00; -4.7047165E-01;  4.0000000E+04;  0.0000000E+00;  3.9372965E+04; -6.1613731E-02;  0.0000000E+00;  2.7542006E-02;  4.9925977E+03;
  1.0056896E+00;  9.9999998E-03; -1.3086310E-01;7831;  4.9953558E-02;  0.0000000E+00; -5.7752486E-03;  9.9704395E+02;  2.5387707E-01; -2.4490012E+03;3; -9.7861795E+00;  0.0000000E+00; -2.0494535E+00;0; -7.2875246E-04;  6.2831631E+03;  0.0000000E+00; -7.8011525E-01;  4.0000000E+04;  0.0000000E+00;  3.9378363E+04; -3.4691211E-02;  0.0000000E+00;  3.3962458E-02;  4.8277993E+03;
  1.0056218E+00;  9.9999998E-03; -1.6122583E-01;7828;  3.2721274E-02;  0.0000000E+00; -6.4006681E-03;  9.9755859E+02;  2.5367060E-01; -2.0226458E+03;3; -1.0033029E+01;  0.0000000E+00; -1.6939957E+00;0; -5.0702333E-02;  6.3005522E+03;  0.0000000E+00; -1.0176174E-01;  4.0000000E+04;  0.0000000E+00;  3.9369438E+04; -7.6449856E-02;  0.0000000E+00;  2.5747523E-02;  5.8673066E+03;
  1.0059774E+00;  9.9999998E-03; -1.2077469E-01;7832;  5.5761367E-02;  0.0000000E+00; -5.4364624E-03;  9.9692493E+02;  2.5408441E-01; -2.5476152E+03;3; -9.5868788E+00;  0.0000000E+00; -2.1201932E+00;0;  1.5389549E-02;  6.2698892E+03;  0.0000000E+00; -7.6167101E-01;  4.0000000E+04;  0.0000000E+00;  3.9378781E+04; -2.3151966E-02;  0.0000000E+00;  3.8541514E-02;  4.9643877E+03;
  1.0058112E+00;  9.9999998E-03; -1.7132197E-01;7827;  2.7167499E-02;  0.0000000E+00; -6.5382463E-03;  9.9771661E+02;  2.5371549E-01; -1.8917367E+03;3; -1.0086233E+01;  0.0000000E+00; -1.6893930E+00;0; -6.7011438E-02;  6.2991577E+03;  0.0000000E+00;  3.8072866E-01;  4.0000000E+04;  0.0000000E+00;  3.9366867E+04; -9.1943614E-02;  0.0000000E+00;  2.4932176E-02;  7.3118940E+03;
  1.0062485E+00;  9.9999998E-03; -1.8141453E-01;7826;  2.1919008E-02;  0.0000000E+00; -6.5755649E-03;  9.9782031E+02;  2.5392526E-01; -1.8058136E+03;3; -9.7880754E+00;  0.0000000E+00; -1.5465308E+00;0; -8.2905665E-02;  6.2885845E+03;  0.0000000E+00;  9.0320534E-01;  4.0000000E+04;  0.0000000E+00;  3.9363848E+04; -1.0784247E-01;  0.0000000E+00;  2.4936801E-02;  8.8856914E+03;
  1.0065643E+00;  9.9999998E-03; -1.1072712E-01;7833;  6.1428756E-02;  0.0000000E+00; -5.1697292E-03;  9.9682001E+02;  2.5448009E-01; -2.6345254E+03;3; -9.2277775E+00;  0.0000000E+00; -2.1928627E+00;0;  3.0773215E-02;  6.2477134E+03;  0.0000000E+00; -6.8322974E-01;  4.0000000E+04;  0.0000000E+00;  3.9377453E+04; -1.3427795E-02;  0.0000000E+00;  4.4201009E-02;  4.9584351E+03;
  1.0067393E+00;  9.9999998E-03; -1.9148660E-01;7825;  1.7013567E-02;  0.0000000E+00; -6.5329392E-03;  9.9785254E+02;  2.5417641E-01; -1.7790985E+03;3; -9.7546511E+00;  0.0000000E+00; -1.6279325E+00;0; -9.8517425E-02;  6.2748555E+03;  0.0000000E+00;  1.3719891E+00;  4.0000000E+04;  0.0000000E+00;  3.9361773E+04; -1.2398279E-01;  0.0000000E+00;  2.5465371E-02;  1.0032465E+04;
  1.0072970E+00;  9.9999998E-03; -2.0155163E-01;7824;  1.2284661E-02;  0.0000000E+00; -6.5697744E-03;  9.9779102E+02;  2.5448659E-01; -1.8301089E+03;3; -9.7571926E+00;  0.0000000E+00; -1.7010069E+00;0; -1.1406462E-01;  6.2572095E+03;  0.0000000E+00;  1.6940818E+00;  4.0000000E+04;  0.0000000E+00;  3.9361223E+04; -1.4022237E-01;  0.0000000E+00;  2.6157754E-02;  1.0281145E+04;
  1.0079266E+00;  9.9999998E-03; -2.1161488E-01;7823;  7.7211219E-03;  0.0000000E+00; -6.7125782E-03;  9.9766663E+02;  2.5486568E-01; -1.9331671E+03;3; -9.7782803E+00;  0.0000000E+00; -1.8041971E+00;0; -1.2978093E-01;  6.2353452E+03;  0.0000000E+00;  1.7959859E+00;  4.0000000E+04;  0.0000000E+00;  3.9363152E+04; -1.5635544E-01;  0.0000000E+00;  2.6574504E-02;  9.4119971E+03;
  1.0085921E+00;  9.9999998E-03; -2.2170398E-01;7822;  3.3042070E-03;  0.0000000E+00; -6.9911429E-03;  9.9743872E+02;  2.5529608E-01; -2.1219502E+03;3; -9.8220797E+00;  0.0000000E+00; -1.9408116E+00;0; -1.4595388E-01;  6.2103677E+03;  0.0000000E+00;  1.6318936E+00;  4.0000000E+04;  0.0000000E+00;  3.9365516E+04; -1.7222036E-01;  0.0000000E+00;  2.6266489E-02;  7.4708281E+03;
  1.0092797E+00;  9.9999998E-03; -2.3180804E-01;7821; -9.4312232E-04;  0.0000000E+00; -7.3801596E-03;  9.9707343E+02;  2.5578028E-01; -2.4246062E+03;3; -9.8741074E+00;  0.0000000E+00; -2.1128635E+00;0; -1.6288066E-01;  6.1826968E+03;  0.0000000E+00;  1.1857713E+00;  4.0000000E+04;  0.0000000E+00;  3.9365508E+04; -1.8757068E-01;  0.0000000E+00;  2.4690013E-02;  4.9107266E+03;
  1.0098127E+00;  9.9999998E-03; -2.4188246E-01;7820; -4.9277837E-03;  0.0000000E+00; -8.0335522E-03;  9.9668549E+02;  2.5619641E-01; -2.7459775E+03;3; -9.9212513E+00;  0.0000000E+00; -2.4311907E+00;0; -1.8007313E-01;  6.1583320E+03;  0.0000000E+00;  4.7471455E-01;  4.0000000E+04;  0.0000000E+00;  3.9372738E+04; -2.0240830E-01;  0.0000000E+00;  2.2335174E-02;  4.4573862E+03;
  1.0101792E+00;  9.9999998E-03; -2.5193501E-01;7819; -8.6341593E-03;  0.0000000E+00; -9.8134372E-03;  9.9638361E+02;  2.5652230E-01; -2.9960920E+03;3; -9.9828873E+00;  0.0000000E+00; -2.8997984E+00;0; -1.9106816E-01;  6.1384175E+03;  0.0000000E+00; -4.3376869E-01;  4.0000000E+04;  0.0000000E+00;  3.9393922E+04; -2.1666683E-01;  0.0000000E+00;  2.5598681E-02;  7.6682305E+03;
  1.0105857E+00;  9.9999998E-03; -2.6202044E-01;7818; -1.2219191E-02;  0.0000000E+00; -1.2039467E-02;  9.9589795E+02;  2.5687301E-01; -3.3984482E+03;3; -1.0005925E+01;  0.0000000E+00; -3.4991944E+00;0; -1.9387496E-01;  6.1173330E+03;  0.0000000E+00; -1.3359791E+00;  4.0000000E+04;  0.0000000E+00;  3.9402090E+04; -2.2997659E-01;  0.0000000E+00;  3.6101639E-02;  8.6573838E+03;
  1.0336944E+00;  9.9999998E-03; -1.1076998E-01;7894;  5.8053546E-02;  0.0000000E+00; -1.8197086E-02;  9.9481244E+02;  2.7158478E-01; -4.2977617E+03;3; -9.4863462E+00;  0.0000000E+00; -3.2920380E+00;0;  1.3319215E-01;  5.4739434E+03;  0.0000000E+00; -6.2662613E-01;  4.0000000E+04;  0.0000000E+00;  3.9327844E+04;  3.2739636E-02;  0.0000000E+00;  1.0045252E-01;  4.7966187E+03;
  1.0332264E+00;  9.9999998E-03; -1.6121557E-01;7889;  2.9352160E-02;  0.0000000E+00; -1.8674336E-02;  9.9547821E+02;  2.7099508E-01; -3.7461782E+03;3; -1.0272243E+01;  0.0000000E+00; -2.1179464E+00;0;  5.8091447E-02;  5.5090986E+03;  0.0000000E+00; -6.0670257E-01;  4.0000000E+04;  0.0000000E+00;  3.9313109E+04;  1.8759625E-02;  0.0000000E+00;  3.9331824E-02;  4.9885718E+03;
  1.0334435E+00;  9.9999998E-03; -1.5113354E-01;7890;  3.4957625E-02;  0.0000000E+00; -1.8979719E-02;  9.9527667E+02;  2.7124313E-01; -3.9131350E+03;3; -1.0180700E+01;  0.0000000E+00; -2.1651902E+00;0;  7.4876800E-02;  5.4976240E+03;  0.0000000E+00; -6.9655818E-01;  4.0000000E+04;  0.0000000E+00;  3.9316457E+04;  2.5571784E-02;  0.0000000E+00;  4.9305014E-02;  4.7413276E+03;
  1.0331626E+00;  9.9999998E-03; -1.7131956E-01;7888;  2.3795512E-02;  0.0000000E+00; -1.8400902E-02;  9.9566199E+02;  2.7083704E-01; -3.5939373E+03;3; -1.0337891E+01;  0.0000000E+00; -2.1072326E+00;0;  4.2590246E-02;  5.5158628E+03;  0.0000000E+00; -4.6950495E-01;  4.0000000E+04;  0.0000000E+00;  3.9310578E+04;  1.1355936E-02;  0.0000000E+00;  3.1234311E-02;  5.3800615E+03;
  1.0337981E+00;  9.9999998E-03; -1.4105761E-01;7891;  4.0621288E-02;  0.0000000E+00; -1.9264964E-02;  9.9508478E+02;  2.7156898E-01; -4.0721409E+03;3; -1.0088281E+01;  0.0000000E+00; -2.3262784E+00;0;  9.2649877E-02;  5.4824609E+03;  0.0000000E+00; -7.3241347E-01;  4.0000000E+04;  0.0000000E+00;  3.9319836E+04;  3.1518057E-02;  0.0000000E+00;  6.1131816E-02;  4.6861099E+03;
  1.0340112E+00;  9.9999998E-03; -1.2087135E-01;7893;  5.2215815E-02;  0.0000000E+00; -1.8963382E-02;  9.9485638E+02;  2.7179295E-01; -4.2613682E+03;3; -9.7200098E+00;  0.0000000E+00; -2.8143728E+00;0;  1.2275030E-01;  5.4680703E+03;  0.0000000E+00; -6.8159443E-01;  4.0000000E+04;  0.0000000E+00;  3.9325930E+04;  3.5149321E-02;  0.0000000E+00;  8.7600984E-02;  4.8197373E+03;
  1.0331007E+00;  9.9999998E-03; -1.8143389E-01;7887;  1.8340573E-02;  0.0000000E+00; -1.8104704E-02;  9.9579846E+02;  2.7067560E-01; -3.4808550E+03;3; -1.0371595E+01;  0.0000000E+00; -2.0890923E+00;0;  2.7161188E-02;  5.5214712E+03;  0.0000000E+00; -2.9893881E-01;  4.0000000E+04;  0.0000000E+00;  3.9309465E+04;  2.3219404E-03;  0.0000000E+00;  2.4839249E-02;  5.7697764E+03;
  1.0330243E+00;  9.9999998E-03; -1.9155800E-01;7886;  1.2999731E-02;  0.0000000E+00; -1.7795378E-02;  9.9584113E+02;  2.7052042E-01; -3.4454983E+03;3; -1.0417462E+01;  0.0000000E+00; -2.1056557E+00;0;  1.1651193E-02;  5.5257969E+03;  0.0000000E+00; -1.1871519E-01;  4.0000000E+04;  0.0000000E+00;  3.9309996E+04; -8.2958741E-03;  0.0000000E+00;  1.9947067E-02;  5.9900430E+03;
  1.0340459E+00;  9.9999998E-03; -1.3096909E-01;7892;  4.6388291E-02;  0.0000000E+00; -1.9302413E-02;  9.9494226E+02;  2.7179003E-01; -4.1902104E+03;3; -9.8827047E+00;  0.0000000E+00; -2.4989929E+00;0;  1.0916848E-01;  5.4709028E+03;  0.0000000E+00; -7.2173649E-01;  4.0000000E+04;  0.0000000E+00;  3.9323328E+04;  3.4956332E-02;  0.0000000E+00;  7.4212156E-02;  4.7501162E+03;
  1.0331383E+00;  9.9999998E-03; -2.0167921E-01;7885;  7.7502239E-03;  0.0000000E+00; -1.7588973E-02;  9.9576691E+02;  2.7052528E-01; -3.5070269E+03;3; -1.0473057E+01;  0.0000000E+00; -2.1662796E+00;0; -2.0625871E-03;  5.5226719E+03;  0.0000000E+00;  2.2803299E-02;  4.0000000E+04;  0.0000000E+00;  3.9310988E+04; -1.8215556E-02;  0.0000000E+00;  1.6152969E-02;  5.8715137E+03;
  1.0333762E+00;  9.9999998E-03; -2.1177503E-01;7884;  2.6157952E-03;  0.0000000E+00; -1.7464764E-02;  9.9558002E+02;  2.7064800E-01; -3.6618359E+03;3; -1.0527273E+01;  0.0000000E+00; -2.2173438E+00;0; -1.4524851E-02;  5.5138101E+03;  0.0000000E+00;  9.4870344E-02;  4.0000000E+04;  0.0000000E+00;  3.9313664E+04; -2.7424267E-02;  0.0000000E+00;  1.2899416E-02;  5.4437612E+03;
  1.0338287E+00;  9.9999998E-03; -2.2186796E-01;7883; -2.4440875E-03;  0.0000000E+00; -1.7491505E-02;  9.9529028E+02;  2.7095252E-01; -3.9018757E+03;3; -1.0598261E+01;  0.0000000E+00; -2.2783511E+00;0; -2.4998210E-02;  5.4966860E+03;  0.0000000E+00;  5.7446975E-02;  4.0000000E+04;  0.0000000E+00;  3.9318102E+04; -3.4504097E-02;  0.0000000E+00;  9.5058875E-03;  4.8665220E+03;
  1.0344236E+00;  9.9999998E-03; -2.3198745E-01;7882; -7.4145938E-03;  0.0000000E+00; -1.7551862E-02;  9.9481787E+02;  2.7139252E-01; -4.2932681E+03;3; -1.0681037E+01;  0.0000000E+00; -2.3705034E+00;0; -3.4776278E-02;  5.4736113E+03;  0.0000000E+00; -1.1211786E-01;  4.0000000E+04;  0.0000000E+00;  3.9317398E+04; -3.9877120E-02;  0.0000000E+00;  5.1008407E-03;  3.9101760E+03;
  1.0350024E+00;  9.9999998E-03; -2.4207924E-01;7881; -1.2217252E-02;  0.0000000E+00; -1.7592622E-02;  9.9427960E+02;  2.7186409E-01; -4.7391763E+03;3; -1.0763672E+01;  0.0000000E+00; -2.4885299E+00;0; -4.6380073E-02;  5.4497197E+03;  0.0000000E+00; -4.2957535E-01;  4.0000000E+04;  0.0000000E+00;  3.9319012E+04; -4.5230355E-02;  0.0000000E+00; -1.1497190E-03;  3.6439490E+03;
  1.0355314E+00;  9.9999998E-03; -2.5212330E-01;7880; -1.6822582E-02;  0.0000000E+00; -1.8355301E-02;  9.9396747E+02;  2.7232826E-01; -4.9977832E+03;3; -1.0837476E+01;  0.0000000E+00; -2.6831183E+00;0; -5.6690067E-02;  5.4269224E+03;  0.0000000E+00; -9.0856254E-01;  4.0000000E+04;  0.0000000E+00;  3.9341785E+04; -5.1128492E-02;  0.0000000E+00; -5.5615734E-03;  6.8185537E+03;
  1.0358537E+00;  9.9999998E-03; -2.6218310E-01;7879; -2.1156499E-02;  0.0000000E+00; -2.0257037E-02;  9.9365137E+02;  2.7265722E-01; -5.2596494E+03;3; -1.0888391E+01;  0.0000000E+00; -3.0159333E+00;0; -5.8801021E-02;  5.4098354E+03;  0.0000000E+00; -1.5089279E+00;  4.0000000E+04;  0.0000000E+00;  3.9365875E+04; -5.9874050E-02;  0.0000000E+00;  1.0730303E-03;  1.0236047E+04;
  1.0614877E+00;  9.9999998E-03; -2.5237495E-01;7941; -2.4973247E-02;  0.0000000E+00; -2.9917156E-02;  9.9319806E+02;  2.8850406E-01; -5.6352134E+03;3; -1.1785954E+01;  0.0000000E+00; -2.8724670E+00;0;  4.6698490E-01;  4.8371162E+03;  0.0000000E+00; -2.0059886E+00;  4.0000000E+04;  0.0000000E+00;  3.9268824E+04;  5.0611907E-01;  0.0000000E+00; -3.9134175E-02;  3.2036055E+03;
  1.0610136E+00;  9.9999998E-03; -2.4233446E-01;7942; -1.9578597E-02;  0.0000000E+00; -3.0058408E-02;  9.9371851E+02;  2.8805339E-01; -5.2040225E+03;3; -1.1656096E+01;  0.0000000E+00; -2.8126352E+00;0;  4.6526372E-01;  4.8569595E+03;  0.0000000E+00; -2.0696986E+00;  4.0000000E+04;  0.0000000E+00;  3.9253512E+04;  4.9289939E-01;  0.0000000E+00; -2.7635662E-02;  2.3847944E+03;
  1.0606200E+00;  9.9999998E-03; -2.3224017E-01;7943; -1.4101880E-02;  0.0000000E+00; -3.0490145E-02;  9.9440540E+02;  2.8769305E-01; -4.6349609E+03;3; -1.1544156E+01;  0.0000000E+00; -2.8347509E+00;0;  4.6357837E-01;  4.8740591E+03;  0.0000000E+00; -2.1589530E+00;  4.0000000E+04;  0.0000000E+00;  3.9258512E+04;  4.7976854E-01;  0.0000000E+00; -1.6190182E-02;  3.3748604E+03;
  1.0620548E+00;  9.9999998E-03; -2.6241961E-01;7940; -3.0266309E-02;  0.0000000E+00; -3.0476714E-02;  9.9276575E+02;  2.8902730E-01; -5.9933701E+03;3; -1.1923472E+01;  0.0000000E+00; -3.0018647E+00;0;  4.7449833E-01;  4.8149453E+03;  0.0000000E+00; -1.9947079E+00;  4.0000000E+04;  0.0000000E+00;  3.9293070E+04;  5.2010268E-01;  0.0000000E+00; -4.5604333E-02;  7.3209087E+03;
  1.0603106E+00;  9.9999998E-03; -2.2212407E-01;7944; -8.5207298E-03;  0.0000000E+00; -3.0719964E-02;  9.9495056E+02;  2.8743792E-01; -4.1833267E+03;3; -1.1422114E+01;  0.0000000E+00; -2.8127353E+00;0;  4.6068805E-01;  4.8878354E+03;  0.0000000E+00; -2.2165089E+00;  4.0000000E+04;  0.0000000E+00;  3.9261637E+04;  4.6674982E-01;  0.0000000E+00; -6.0617533E-03;  3.8483474E+03;
  1.0601658E+00;  9.9999998E-03; -2.1205467E-01;7945; -2.9095190E-03;  0.0000000E+00; -3.0948374E-02;  9.9525220E+02;  2.8734210E-01; -3.9334114E+03;3; -1.1332943E+01;  0.0000000E+00; -2.8156500E+00;0;  4.6006343E-01;  4.8956978E+03;  0.0000000E+00; -2.2152345E+00;  4.0000000E+04;  0.0000000E+00;  3.9256668E+04;  4.5595828E-01;  0.0000000E+00;  4.1051451E-03;  3.8990723E+03;
  1.0601554E+00;  9.9999998E-03; -2.0198618E-01;7946;  2.7336611E-03;  0.0000000E+00; -3.1258263E-02;  9.9542871E+02;  2.8736982E-01; -3.7871956E+03;3; -1.1246600E+01;  0.0000000E+00; -2.7984107E+00;0;  4.6132487E-01;  4.8982446E+03;  0.0000000E+00; -2.1396873E+00;  4.0000000E+04;  0.0000000E+00;  3.9253664E+04;  4.4625688E-01;  0.0000000E+00;  1.5067986E-02;  4.2273555E+03;
  1.0602450E+00;  9.9999998E-03; -1.9189034E-01;7947;  8.4230863E-03;  0.0000000E+00; -3.1625442E-02;  9.9547302E+02;  2.8750637E-01; -3.7504563E+03;3; -1.1142240E+01;  0.0000000E+00; -2.7893102E+00;0;  4.6381864E-01;  4.8962471E+03;  0.0000000E+00; -1.9962610E+00;  4.0000000E+04;  0.0000000E+00;  3.9252129E+04;  4.3652150E-01;  0.0000000E+00;  2.7297145E-02;  4.6721172E+03;
  1.0604464E+00;  9.9999998E-03; -1.8177530E-01;7948;  1.4146703E-02;  0.0000000E+00; -3.2048471E-02;  9.9539685E+02;  2.8775385E-01; -3.8135647E+03;3; -1.0997746E+01;  0.0000000E+00; -2.7907779E+00;0;  4.6802884E-01;  4.8897520E+03;  0.0000000E+00; -1.8076224E+00;  4.0000000E+04;  0.0000000E+00;  3.9251145E+04;  4.2683986E-01;  0.0000000E+00;  4.1188989E-02;  5.0189214E+03;
  1.0609224E+00;  9.9999998E-03; -1.7165910E-01;7949;  1.9863999E-02;  0.0000000E+00; -3.2604840E-02;  9.9524670E+02;  2.8820777E-01; -3.9379539E+03;3; -1.0845569E+01;  0.0000000E+00; -2.7858620E+00;0;  4.7768718E-01;  4.8755142E+03;  0.0000000E+00; -1.6007326E+00;  4.0000000E+04;  0.0000000E+00;  3.9250449E+04;  4.2042607E-01;  0.0000000E+00;  5.7261121E-02;  5.1122188E+03;
  1.0616897E+00;  9.9999998E-03; -1.6154723E-01;7950;  2.5564045E-02;  0.0000000E+00; -3.3294573E-02;  9.9508984E+02;  2.8886110E-01; -4.0679229E+03;3; -1.0687607E+01;  0.0000000E+00; -2.8451443E+00;0;  4.9246684E-01;  4.8540142E+03;  0.0000000E+00; -1.3886981E+00;  4.0000000E+04;  0.0000000E+00;  3.9251074E+04;  4.1663972E-01;  0.0000000E+00;  7.5827122E-02;  4.8774258E+03;
  1.0635252E+00;  9.9999998E-03; -1.1091732E-01;7955;  5.4142121E-02;  0.0000000E+00; -3.4751426E-02;  9.9487286E+02;  2.9047456E-01; -4.2476665E+03;3; -9.2627087E+00;  0.0000000E+00; -3.5762906E+00;0;  4.9633655E-01;  4.7949404E+03;  0.0000000E+00; -3.3760989E-01;  4.0000000E+04;  0.0000000E+00;  3.9268305E+04;  3.1580159E-01;  0.0000000E+00;  1.8053496E-01;  3.9914707E+03;
  1.0624181E+00;  9.9999998E-03; -1.5141775E-01;7951;  3.1294562E-02;  0.0000000E+00; -3.3921380E-02;  9.9494550E+02;  2.8947887E-01; -4.1875220E+03;3; -1.0523203E+01;  0.0000000E+00; -2.9345064E+00;0;  5.0435245E-01;  4.8332207E+03;  0.0000000E+00; -1.1716013E+00;  4.0000000E+04;  0.0000000E+00;  3.9253098E+04;  4.0810603E-01;  0.0000000E+00;  9.6246392E-02;  4.3814561E+03;
  1.0630186E+00;  9.9999998E-03; -1.4128384E-01;7952;  3.7042577E-02;  0.0000000E+00; -3.4425430E-02;  9.9484906E+02;  2.8998414E-01; -4.2673696E+03;3; -1.0318055E+01;  0.0000000E+00; -3.0118673E+00;0;  5.1134098E-01;  4.8155083E+03;  0.0000000E+00; -9.5502287E-01;  4.0000000E+04;  0.0000000E+00;  3.9256539E+04;  3.9357197E-01;  0.0000000E+00;  1.1776900E-01;  3.8807446E+03;
  1.0636092E+00;  9.9999998E-03; -1.2103212E-01;7954;  4.8522674E-02;  0.0000000E+00; -3.4889866E-02;  9.9482043E+02;  2.9050633E-01; -4.2911211E+03;3; -9.7158089E+00;  0.0000000E+00; -3.2390487E+00;0;  5.0736982E-01;  4.7955059E+03;  0.0000000E+00; -5.3212613E-01;  4.0000000E+04;  0.0000000E+00;  3.9264926E+04;  3.4658065E-01;  0.0000000E+00;  1.6078916E-01;  3.7544900E+03;
  1.0634210E+00;  9.9999998E-03; -1.3115530E-01;7953;  4.2792633E-02;  0.0000000E+00; -3.4758698E-02;  9.9480518E+02;  2.9033220E-01; -4.3037632E+03;3; -1.0008395E+01;  0.0000000E+00; -3.0647092E+00;0;  5.1225436E-01;  4.8027676E+03;  0.0000000E+00; -7.4094409E-01;  4.0000000E+04;  0.0000000E+00;  3.9260598E+04;  3.7272048E-01;  0.0000000E+00;  1.3953385E-01;  3.6550168E+03;
  1.0910302E+00;  9.9999998E-03; -2.5267610E-01;8002; -3.1405386E-02;  0.0000000E+00; -4.5894720E-02;  9.9704932E+02;  3.0575758E-01; -2.4445161E+03;3; -1.3052457E+01;  0.0000000E+00; -3.5356119E+00;0;  1.6312673E+00;  4.3492310E+03;  0.0000000E+00; -3.3120036E+00;  4.0000000E+04;  0.0000000E+00;  3.9169781E+04;  1.6999055E+00;  0.0000000E+00; -6.8638191E-02;  4.0206057E+03;
  1.0916214E+00;  9.9999998E-03; -2.6271719E-01;8001; -3.7344683E-02;  0.0000000E+00; -4.5034084E-02;  9.9614172E+02;  3.0629385E-01; -3.1964272E+03;3; -1.3331503E+01;  0.0000000E+00; -3.5378096E+00;0;  1.6634824E+00;  4.3280596E+03;  0.0000000E+00; -3.1651292E+00;  4.0000000E+04;  0.0000000E+00;  3.9178301E+04;  1.7528735E+00;  0.0000000E+00; -8.9391083E-02;  5.9806333E+03;
  1.0904957E+00;  9.9999998E-03; -2.4262694E-01;8003; -2.5408577E-02;  0.0000000E+00; -4.6706613E-02;  9.9797827E+02;  3.0526429E-01; -1.6749263E+03;3; -1.2806167E+01;  0.0000000E+00; -3.5734515E+00;0;  1.5972219E+00;  4.3686743E+03;  0.0000000E+00; -3.3090019E+00;  4.0000000E+04;  0.0000000E+00;  3.9171492E+04;  1.6446530E+00;  0.0000000E+00; -4.7431167E-02;  4.2541196E+03;
  1.0900801E+00;  9.9999998E-03; -2.3252682E-01;8004; -1.9384801E-02;  0.0000000E+00; -4.7393437E-02;  9.9889020E+02;  3.0488110E-01; -9.1940973E+02;3; -1.2520258E+01;  0.0000000E+00; -3.5004506E+00;0;  1.5626240E+00;  4.3843701E+03;  0.0000000E+00; -3.2231567E+00;  4.0000000E+04;  0.0000000E+00;  3.9187359E+04;  1.5889066E+00;  0.0000000E+00; -2.6282659E-02;  4.5648398E+03;
  1.0898637E+00;  9.9999998E-03; -2.2239542E-01;8005; -1.3308574E-02;  0.0000000E+00; -4.7804244E-02;  9.9953369E+02;  3.0468628E-01; -3.8630124E+02;3; -1.2239038E+01;  0.0000000E+00; -3.4162009E+00;0;  1.5304569E+00;  4.3944551E+03;  0.0000000E+00; -3.0556834E+00;  4.0000000E+04;  0.0000000E+00;  3.9199379E+04;  1.5354205E+00;  0.0000000E+00; -4.9636117E-03;  5.6293149E+03;
  1.0897956E+00;  9.9999998E-03; -2.1231540E-01;8006; -7.2245155E-03;  0.0000000E+00; -4.8103202E-02;  9.9981085E+02;  3.0463338E-01; -1.5668335E+02;3; -1.2019961E+01;  0.0000000E+00; -3.4559207E+00;0;  1.4992087E+00;  4.3997227E+03;  0.0000000E+00; -2.8093789E+00;  4.0000000E+04;  0.0000000E+00;  3.9198465E+04;  1.4816711E+00;  0.0000000E+00;  1.7537571E-02;  6.8264019E+03;
  1.0898455E+00;  9.9999998E-03; -2.0225926E-01;8007; -1.1790814E-03;  0.0000000E+00; -4.8451982E-02;  9.9990485E+02;  3.0469280E-01; -7.8810783E+01;3; -1.1745667E+01;  0.0000000E+00; -3.4978025E+00;0;  1.4676473E+00;  4.4008340E+03;  0.0000000E+00; -2.4988246E+00;  4.0000000E+04;  0.0000000E+00;  3.9195902E+04;  1.4260511E+00;  0.0000000E+00;  4.1596163E-02;  7.8879414E+03;
  1.0902004E+00;  9.9999998E-03; -1.9218385E-01;8008;  4.8085283E-03;  0.0000000E+00; -4.8987649E-02;  9.9989258E+02;  3.0497953E-01; -8.8983093E+01;3; -1.1445880E+01;  0.0000000E+00; -3.5692673E+00;0;  1.4429952E+00;  4.3949268E+03;  0.0000000E+00; -2.1483347E+00;  4.0000000E+04;  0.0000000E+00;  3.9194121E+04;  1.3753386E+00;  0.0000000E+00;  6.7656651E-02;  8.6400801E+03;
  1.0907402E+00;  9.9999998E-03; -1.8208973E-01;8009;  1.0708381E-02;  0.0000000E+00; -4.9631264E-02;  9.9979376E+02;  3.0541098E-01; -1.7085541E+02;3; -1.1133798E+01;  0.0000000E+00; -3.6623073E+00;0;  1.4199897E+00;  4.3842866E+03;  0.0000000E+00; -1.7988144E+00;  4.0000000E+04;  0.0000000E+00;  3.9192402E+04;  1.3244004E+00;  0.0000000E+00;  9.5589295E-02;  8.8603525E+03;
  1.0914671E+00;  9.9999998E-03; -1.7197494E-01;8010;  1.6581908E-02;  0.0000000E+00; -5.0361928E-02;  9.9965546E+02;  3.0597866E-01; -2.8541733E+02;3; -1.1041065E+01;  0.0000000E+00; -3.7909944E+00;0;  1.3983047E+00;  4.3695059E+03;  0.0000000E+00; -1.4858285E+00;  4.0000000E+04;  0.0000000E+00;  3.9191203E+04;  1.2731326E+00;  0.0000000E+00;  1.2517220E-01;  8.3583408E+03;
  1.0923289E+00;  9.9999998E-03; -1.6183452E-01;8011;  2.2467228E-02;  0.0000000E+00; -5.1137522E-02;  9.9954425E+02;  3.0662531E-01; -3.7756064E+02;3; -1.0933483E+01;  0.0000000E+00; -3.9225235E+00;0;  1.3752692E+00;  4.3522144E+03;  0.0000000E+00; -1.2282468E+00;  4.0000000E+04;  0.0000000E+00;  3.9191336E+04;  1.2195687E+00;  0.0000000E+00;  1.5570043E-01;  7.1218975E+03;
  1.0931395E+00;  9.9999998E-03; -1.5167332E-01;8012;  2.8366692E-02;  0.0000000E+00; -5.1844317E-02;  9.9946295E+02;  3.0722862E-01; -4.4491501E+02;3; -1.0785646E+01;  0.0000000E+00; -4.0285735E+00;0;  1.3442078E+00;  4.3356255E+03;  0.0000000E+00; -1.0230722E+00;  4.0000000E+04;  0.0000000E+00;  3.9193434E+04;  1.1585478E+00;  0.0000000E+00;  1.8566002E-01;  5.4004097E+03;
  1.0941728E+00;  9.9999998E-03; -1.1112583E-01;8016;  5.1010590E-02;  0.0000000E+00; -5.1071595E-02;  9.9967303E+02;  3.0816126E-01; -2.7089932E+02;3; -8.1106224E+00;  0.0000000E+00; -1.1427442E+01;0;  1.1155934E+00;  4.3070522E+03;  0.0000000E+00; -2.1986677E-01;  4.0000000E+04;  0.0000000E+00;  3.9214602E+04;  8.3736831E-01;  0.0000000E+00;  2.7822509E-01;  3.0924663E+03;
  1.0937572E+00;  9.9999998E-03; -1.4150883E-01;8013;  3.4260713E-02;  0.0000000E+00; -5.2395701E-02;  9.9944659E+02;  3.0770445E-01; -4.5849445E+02;3; -1.0565765E+01;  0.0000000E+00; -4.1458020E+00;0;  1.3014034E+00;  4.3221606E+03;  0.0000000E+00; -8.4353161E-01;  4.0000000E+04;  0.0000000E+00;  3.9197934E+04;  1.0878493E+00;  0.0000000E+00;  2.1355413E-01;  3.6974900E+03;
  1.0942917E+00;  9.9999998E-03; -1.2123045E-01;8015;  4.5779318E-02;  0.0000000E+00; -5.2633811E-02;  9.9957056E+02;  3.0818242E-01; -3.5578372E+02;3; -9.2255144E+00;  0.0000000E+00; -6.4782043E+00;0;  1.1851628E+00;  4.3074526E+03;  0.0000000E+00; -4.4670221E-01;  4.0000000E+04;  0.0000000E+00;  3.9209699E+04;  9.2483711E-01;  0.0000000E+00;  2.6032561E-01;  2.5990366E+03;
  1.0941346E+00;  9.9999998E-03; -1.3135624E-01;8014;  4.0105272E-02;  0.0000000E+00; -5.2730769E-02;  9.9948065E+02;  3.0801868E-01; -4.3024896E+02;3; -1.0156496E+01;  0.0000000E+00; -4.5368500E+00;0;  1.2473913E+00;  4.3128052E+03;  0.0000000E+00; -6.5714264E-01;  4.0000000E+04;  0.0000000E+00;  3.9203668E+04;  1.0088429E+00;  0.0000000E+00;  2.3854838E-01;  2.6489646E+03;
  1.1238291E+00;  9.9999998E-03; -2.4284998E-01;8064; -2.6763903E-02;  0.0000000E+00; -6.8803281E-02;  1.0049554E+03;  3.1848311E-01;  4.1053081E+03;3; -1.4455474E+01;  0.0000000E+00; -5.0188417E+00;0;  3.1654904E+00;  4.0748296E+03;  0.0000000E+00; -2.6618485E+00;  4.0000000E+04;  0.0000000E+00;  3.9085309E+04;  3.1827946E+00;  0.0000000E+00; -1.7304147E-02;  1.1011177E+04;
  1.1246612E+00;  9.9999998E-03; -2.5291428E-01;8063; -3.2811634E-02;  0.0000000E+00; -6.7098990E-02;  1.0035458E+03;  3.1895974E-01;  2.9375818E+03;3; -1.4959150E+01;  0.0000000E+00; -5.0806427E+00;0;  3.2588711E+00;  4.0559236E+03;  0.0000000E+00; -3.5376143E+00;  4.0000000E+04;  0.0000000E+00;  3.9065238E+04;  3.3054600E+00;  0.0000000E+00; -4.6588954E-02;  1.5112826E+04;
  1.1232771E+00;  9.9999998E-03; -2.3273720E-01;8065; -2.0611748E-02;  0.0000000E+00; -6.9811352E-02;  1.0061127E+03;  3.1813139E-01;  5.0640610E+03;3; -1.4138520E+01;  0.0000000E+00; -4.8508525E+00;0;  3.0728841E+00;  4.0887517E+03;  0.0000000E+00; -1.8870609E+00;  4.0000000E+04;  0.0000000E+00;  3.9114262E+04;  3.0613306E+00;  0.0000000E+00;  1.1553418E-02;  6.9192778E+03;
  1.1229806E+00;  9.9999998E-03; -2.2259559E-01;8066; -1.4327712E-02;  0.0000000E+00; -7.0266396E-02;  1.0068330E+03;  3.1794202E-01;  5.6607632E+03;3; -1.3837531E+01;  0.0000000E+00; -4.8855214E+00;0;  2.9812229E+00;  4.0974756E+03;  0.0000000E+00; -1.2509540E+00;  4.0000000E+04;  0.0000000E+00;  3.9136125E+04;  2.9386127E+00;  0.0000000E+00;  4.2610243E-02;  5.9043906E+03;
  1.1256067E+00;  9.9999998E-03; -2.6295921E-01;8062; -3.8688492E-02;  0.0000000E+00; -6.4428017E-02;  1.0019865E+03;  3.1947008E-01;  1.6457163E+03;3; -1.5765367E+01;  0.0000000E+00; -5.1631455E+00;0;  3.3421502E+00;  4.0345732E+03;  0.0000000E+00; -4.2961311E+00;  4.0000000E+04;  0.0000000E+00;  3.9056922E+04;  3.4245150E+00;  0.0000000E+00; -8.2364917E-02;  1.7333883E+04;
  1.1228435E+00;  9.9999998E-03; -2.1250431E-01;8067; -8.0858795E-03;  0.0000000E+00; -7.0377052E-02;  1.0070639E+03;  3.1787747E-01;  5.8520596E+03;3; -1.3545462E+01;  0.0000000E+00; -4.9474573E+00;0;  2.8874261E+00;  4.1018579E+03;  0.0000000E+00; -7.4796641E-01;  4.0000000E+04;  0.0000000E+00;  3.9142004E+04;  2.8109159E+00;  0.0000000E+00;  7.6510087E-02;  7.7476943E+03;
  1.1228620E+00;  9.9999998E-03; -2.0244893E-01;8068; -1.8492959E-03;  0.0000000E+00; -7.0531569E-02;  1.0070162E+03;  3.1791648E-01;  5.8125562E+03;3; -1.3287178E+01;  0.0000000E+00; -5.0067239E+00;0;  2.7908599E+00;  4.1023467E+03;  0.0000000E+00; -3.6244553E-01;  4.0000000E+04;  0.0000000E+00;  3.9143555E+04;  2.6777310E+00;  0.0000000E+00;  1.1312894E-01;  9.5827266E+03;
  1.1269995E+00;  9.9999998E-03; -1.1131394E-01;8077;  9.5518760E-02;  0.0000000E+00; -2.7616384E-02;  1.0053885E+03;  3.2011798E-01;  4.4640908E+03;3; -3.5184751E+00;  0.0000000E+00; -1.8679035E+01;0;  1.6923318E+00;  4.0376382E+03;  0.0000000E+00; -2.8579447E-01;  4.0000000E+04;  0.0000000E+00;  3.9185832E+04;  1.3252467E+00;  0.0000000E+00;  3.6708516E-01;  3.3339448E+03;
  1.1232152E+00;  9.9999998E-03; -1.9237126E-01;8069;  4.4750622E-03;  0.0000000E+00; -7.0955113E-02;  1.0068282E+03;  3.1809899E-01;  5.6568120E+03;3; -1.3114287E+01;  0.0000000E+00; -5.0533981E+00;0;  2.6958146E+00;  4.0982812E+03;  0.0000000E+00; -7.9863474E-02;  4.0000000E+04;  0.0000000E+00;  3.9145203E+04;  2.5435662E+00;  0.0000000E+00;  1.5224826E-01;  1.0630234E+04;
  1.1237533E+00;  9.9999998E-03; -1.8225117E-01;8070;  1.0938736E-02;  0.0000000E+00; -7.1556665E-02;  1.0065231E+03;  3.1837282E-01;  5.4039878E+03;3; -1.3079385E+01;  0.0000000E+00; -5.3502884E+00;0;  2.5960212E+00;  4.0912893E+03;  0.0000000E+00;  8.2511961E-02;  4.0000000E+04;  0.0000000E+00;  3.9146840E+04;  2.4035285E+00;  0.0000000E+00;  1.9249262E-01;  1.0719686E+04;
  1.1275430E+00;  9.9999998E-03; -1.2140118E-01;8076;  9.3729295E-02;  0.0000000E+00; -3.2532047E-02;  1.0054006E+03;  3.2020026E-01;  4.4740640E+03;3; -6.7225728E+00;  0.0000000E+00; -2.0456244E+01;0;  1.8397110E+00;  4.0372122E+03;  0.0000000E+00; -3.4401533E-01;  4.0000000E+04;  0.0000000E+00;  3.9179598E+04;  1.4804856E+00;  0.0000000E+00;  3.5922533E-01;  2.7097998E+03;
  1.1244724E+00;  9.9999998E-03; -1.7209367E-01;8071;  1.8656680E-02;  0.0000000E+00; -7.0130572E-02;  1.0061810E+03;  3.1872061E-01;  5.1206460E+03;3; -2.3974077E+01;  0.0000000E+00; -2.0565660E+01;0;  2.4906614E+00;  4.0818628E+03;  0.0000000E+00;  1.1957455E-01;  4.0000000E+04;  0.0000000E+00;  3.9148367E+04;  2.2585936E+00;  0.0000000E+00;  2.3206776E-01;  9.7770557E+03;
  1.1253355E+00;  9.9999998E-03; -1.6192076E-01;8072;  3.7640069E-02;  0.0000000E+00; -5.8870357E-02;  1.0058694E+03;  3.1911328E-01;  4.8624883E+03;3; -3.1799961E+01;  0.0000000E+00; -2.8144436E+01;0;  2.3787746E+00;  4.0708767E+03;  0.0000000E+00;  4.9522039E-02;  4.0000000E+04;  0.0000000E+00;  3.9151465E+04;  2.1103196E+00;  0.0000000E+00;  2.6845494E-01;  7.9631372E+03;
  1.1275363E+00;  9.9999998E-03; -1.3149974E-01;8075;  8.7275669E-02;  0.0000000E+00; -3.7293293E-02;  1.0054295E+03;  3.2010704E-01;  4.4980625E+03;3; -1.1452127E+01;  0.0000000E+00; -2.2151451E+01;0;  1.9854777E+00;  4.0412495E+03;  0.0000000E+00; -3.2502332E-01;  4.0000000E+04;  0.0000000E+00;  3.9172195E+04;  1.6396790E+00;  0.0000000E+00;  3.4579879E-01;  2.5389519E+03;
  1.1262528E+00;  9.9999998E-03; -1.5175717E-01;8073;  5.8057405E-02;  0.0000000E+00; -4.9356423E-02;  1.0056343E+03;  3.1951416E-01;  4.6677334E+03;3; -2.4503874E+01;  0.0000000E+00; -2.5740311E+01;0;  2.2574575E+00;  4.0594683E+03;  0.0000000E+00; -8.5579678E-02;  4.0000000E+04;  0.0000000E+00;  3.9156906E+04;  1.9571130E+00;  0.0000000E+00;  3.0034456E-01;  5.7054893E+03;
  1.1270066E+00;  9.9999998E-03; -1.4161466E-01;8074;  7.4929714E-02;  0.0000000E+00; -4.2532153E-02;  1.0054908E+03;  3.1985182E-01;  4.5489248E+03;3; -1.7607382E+01;  0.0000000E+00; -2.3850525E+01;0;  2.1250508E+00;  4.0493682E+03;  0.0000000E+00; -2.2891854E-01;  4.0000000E+04;  0.0000000E+00;  3.9164031E+04;  1.7989162E+00;  0.0000000E+00;  3.2613459E-01;  3.6396531E+03;
  1.1579251E+00;  9.9999998E-03; -2.4278830E-01;8125;  3.5043600E-01;  0.0000000E+00; -1.1078312E-01;  1.0072440E+03;  3.2020438E-01;  6.0011289E+03;3; -5.5262823E+00;  0.0000000E+00; -1.9575911E+01;0;  3.8463874E+00;  4.0507537E+03;  0.0000000E+00; -1.0985105E+00;  4.0000000E+04;  0.0000000E+00;  3.9068078E+04;  3.6324441E+00;  0.0000000E+00;  2.1394336E-01;  1.2169648E+04;
  1.1575165E+00;  9.9999998E-03; -2.3266265E-01;8126;  3.4463954E-01;  0.0000000E+00; -1.1257450E-01;  1.0080510E+03;  3.2006997E-01;  6.6696133E+03;3; -2.3151137E-01;  0.0000000E+00; -1.9560703E+01;0;  3.6781466E+00;  4.0563848E+03;  0.0000000E+00; -1.2853116E-01;  4.0000000E+04;  0.0000000E+00;  3.9095113E+04;  3.4797533E+00;  0.0000000E+00;  1.9839327E-01;  7.7572915E+03;
  1.1592599E+00;  9.9999998E-03; -2.5287163E-01;8124;  3.6850032E-01;  0.0000000E+00; -1.0559271E-01;  1.0061610E+03;  3.2042107E-01;  5.1039209E+03;3; -5.0512538E+00;  0.0000000E+00; -1.8925455E+01;0;  3.9756098E+00;  4.0408901E+03;  0.0000000E+00; -2.4405186E+00;  4.0000000E+04;  0.0000000E+00;  3.9047840E+04;  3.7499583E+00;  0.0000000E+00;  2.2565138E-01;  1.6387354E+04;
  1.1572903E+00;  9.9999998E-03; -2.2251806E-01;8127;  3.3943069E-01;  0.0000000E+00; -1.1336040E-01;  1.0084480E+03;  3.1999820E-01;  6.9985732E+03;3;  6.1839509E+00;  0.0000000E+00; -1.9901115E+01;0;  3.5071180E+00;  4.0593206E+03;  0.0000000E+00;  5.3585386E-01;  4.0000000E+04;  0.0000000E+00;  3.9114457E+04;  3.3115084E+00;  0.0000000E+00;  1.9560947E-01;  4.9141855E+03;
  1.1571807E+00;  9.9999998E-03; -2.1239774E-01;8128;  3.3169043E-01;  0.0000000E+00; -1.1354142E-01;  1.0084213E+03;  3.1998798E-01;  6.9764521E+03;3;  1.2686962E+01;  0.0000000E+00; -2.0960495E+01;0;  3.3367465E+00;  4.0597476E+03;  0.0000000E+00;  9.5261246E-01;  4.0000000E+04;  0.0000000E+00;  3.9122949E+04;  3.1314237E+00;  0.0000000E+00;  2.0532280E-01;  4.7913257E+03;
  1.1618626E+00;  9.9999998E-03; -2.6293927E-01;8123;  4.0626118E-01;  0.0000000E+00; -9.4792888E-02;  1.0048300E+03;  3.2073882E-01;  4.0012969E+03;3;  2.7083952E+00;  0.0000000E+00; -1.7576220E+01;0;  4.0032959E+00;  4.0260229E+03;  0.0000000E+00; -4.1019030E+00;  4.0000000E+04;  0.0000000E+00;  3.9034086E+04;  3.8134606E+00;  0.0000000E+00;  1.8983528E-01;  2.0200670E+04;
  1.1571956E+00;  9.9999998E-03; -2.0230637E-01;8129;  3.2072991E-01;  0.0000000E+00; -1.1259227E-01;  1.0081032E+03;  3.2002276E-01;  6.7129697E+03;3;  1.9189981E+01;  0.0000000E+00; -2.5047857E+01;0;  3.1656706E+00;  4.0578040E+03;  0.0000000E+00;  1.1710429E+00;  4.0000000E+04;  0.0000000E+00;  3.9126883E+04;  2.9415333E+00;  0.0000000E+00;  2.2413738E-01;  5.8521211E+03;
  1.1606570E+00;  9.9999998E-03; -1.1127876E-01;8138;  1.9965918E-01;  0.0000000E+00; -5.8547642E-02;  1.0042004E+03;  3.2091600E-01;  3.4796719E+03;3;  5.1683617E+01;  0.0000000E+00; -2.2404573E+01;0;  1.6057205E+00;  4.0036538E+03;  0.0000000E+00; -4.5418274E-01;  4.0000000E+04;  0.0000000E+00;  3.9194754E+04;  1.2237763E+00;  0.0000000E+00;  3.8194421E-01;  6.1142124E+03;
  1.1573211E+00;  9.9999998E-03; -1.9220462E-01;8130;  3.0761302E-01;  0.0000000E+00; -1.0852549E-01;  1.0076176E+03;  3.2009658E-01;  6.3106353E+03;3;  2.5671900E+01;  0.0000000E+00; -3.0848440E+01;0;  2.9921865E+00;  4.0538745E+03;  0.0000000E+00;  1.2269499E+00;  4.0000000E+04;  0.0000000E+00;  3.9130945E+04;  2.7437422E+00;  0.0000000E+00;  2.4844430E-01;  6.6784365E+03;
  1.1575857E+00;  9.9999998E-03; -1.8207020E-01;8131;  2.9350039E-01;  0.0000000E+00; -1.0143517E-01;  1.0070280E+03;  3.2019454E-01;  5.8221841E+03;3;  3.1900312E+01;  0.0000000E+00; -3.3091778E+01;0;  2.8161187E+00;  4.0483875E+03;  0.0000000E+00;  1.1424290E+00;  4.0000000E+04;  0.0000000E+00;  3.9135684E+04;  2.5397630E+00;  0.0000000E+00;  2.7635571E-01;  6.8750869E+03;
  1.1611191E+00;  9.9999998E-03; -1.2135207E-01;8137;  2.1286917E-01;  0.0000000E+00; -6.4888775E-02;  1.0043631E+03;  3.2083958E-01;  3.6144724E+03;3;  5.1335930E+01;  0.0000000E+00; -2.4310390E+01;0;  1.7524881E+00;  4.0079841E+03;  0.0000000E+00; -3.9117023E-01;  4.0000000E+04;  0.0000000E+00;  3.9188344E+04;  1.3714371E+00;  0.0000000E+00;  3.8105103E-01;  5.2913931E+03;
  1.1580974E+00;  9.9999998E-03; -1.7191143E-01;8132;  2.7959976E-01;  0.0000000E+00; -9.3780361E-02;  1.0064035E+03;  3.2031366E-01;  5.3047969E+03;3;  3.7659252E+01;  0.0000000E+00; -3.1523945E+01;0;  2.6359072E+00;  4.0417183E+03;  0.0000000E+00;  9.3827766E-01;  4.0000000E+04;  0.0000000E+00;  3.9141555E+04;  2.3307223E+00;  0.0000000E+00;  3.0518472E-01;  6.3270513E+03;
  1.1611781E+00;  9.9999998E-03; -1.3143425E-01;8136;  2.2645268E-01;  0.0000000E+00; -7.0854425E-02;  1.0045796E+03;  3.2075328E-01;  3.7938130E+03;3;  5.0390667E+01;  0.0000000E+00; -2.5802643E+01;0;  1.9108462E+00;  4.0132705E+03;  0.0000000E+00; -2.3554817E-01;  4.0000000E+04;  0.0000000E+00;  3.9179254E+04;  1.5344470E+00;  0.0000000E+00;  3.7639928E-01;  4.2937246E+03;
  1.1588892E+00;  9.9999998E-03; -1.6175607E-01;8133;  2.6625517E-01;  0.0000000E+00; -8.7254293E-02;  1.0058011E+03;  3.2043770E-01;  4.8058760E+03;3;  4.2622768E+01;  0.0000000E+00; -2.9371349E+01;0;  2.4512162E+00;  4.0343025E+03;  0.0000000E+00;  6.4894366E-01;  4.0000000E+04;  0.0000000E+00;  3.9149020E+04;  2.1197920E+00;  0.0000000E+00;  3.3142421E-01;  5.1896479E+03;
  1.1597983E+00;  9.9999998E-03; -1.5162963E-01;8134;  2.5313464E-01;  0.0000000E+00; -8.1702746E-02;  1.0052914E+03;  3.2055661E-01;  4.3835903E+03;3;  4.6081642E+01;  0.0000000E+00; -2.8069923E+01;0;  2.2657285E+00;  4.0267913E+03;  0.0000000E+00;  3.2217813E-01;  4.0000000E+04;  0.0000000E+00;  3.9158164E+04;  1.9132960E+00;  0.0000000E+00;  3.5243240E-01;  3.9973464E+03;
  1.1606202E+00;  9.9999998E-03; -1.4152700E-01;8135;  2.3989408E-01;  0.0000000E+00; -7.6378845E-02;  1.0048862E+03;  3.2066184E-01;  4.0479146E+03;3;  4.8753551E+01;  0.0000000E+00; -2.6937187E+01;0;  2.0841751E+00;  4.0196770E+03;  0.0000000E+00;  1.1837181E-02;  4.0000000E+04;  0.0000000E+00;  3.9168898E+04;  1.7168912E+00;  0.0000000E+00;  3.6728397E-01;  3.6107739E+03;
  1.1900004E+00;  9.9999998E-03; -2.1205638E-01;8189;  3.8609865E-01;  0.0000000E+00; -8.4166437E-02;  1.0061237E+03;  3.1383023E-01;  5.0728184E+03;3;  6.3819782E+01;  0.0000000E+00; -4.8394218E+01;0;  2.2461782E+00;  4.2000815E+03;  0.0000000E+00;  8.0907869E-01;  4.0000000E+04;  0.0000000E+00;  3.9149637E+04;  2.0075154E+00;  0.0000000E+00;  2.3866284E-01;  8.2993640E+02;
  1.1900860E+00;  9.9999998E-03; -2.0192496E-01;8190;  3.6597225E-01;  0.0000000E+00; -7.9352491E-02;  1.0055710E+03;  3.1386921E-01;  4.6150010E+03;3;  6.2060432E+01;  0.0000000E+00; -4.5527359E+01;0;  2.1104193E+00;  4.1953755E+03;  0.0000000E+00;  8.6487114E-01;  4.0000000E+04;  0.0000000E+00;  3.9150988E+04;  1.8680189E+00;  0.0000000E+00;  2.4240038E-01;  1.6236427E+03;
  1.1900125E+00;  9.9999998E-03; -2.2221495E-01;8188;  4.0687540E-01;  0.0000000E+00; -9.0732433E-02;  1.0064107E+03;  3.1380656E-01;  5.3106138E+03;3;  6.5369682E+01;  0.0000000E+00; -4.9609364E+01;0;  2.3869762E+00;  4.2032939E+03;  0.0000000E+00;  5.8929712E-01;  4.0000000E+04;  0.0000000E+00;  3.9144855E+04;  2.1383319E+00;  0.0000000E+00;  2.4864431E-01;  6.8081860E+02;
  1.1901432E+00;  9.9999998E-03; -2.3238437E-01;8187;  4.2774573E-01;  0.0000000E+00; -9.7217008E-02;  1.0063461E+03;  3.1380320E-01;  5.2570889E+03;3;  6.5011421E+01;  0.0000000E+00; -4.7013474E+01;0;  2.5354247E+00;  4.2051880E+03;  0.0000000E+00;  1.2172026E-01;  4.0000000E+04;  0.0000000E+00;  3.9132719E+04;  2.2566423E+00;  0.0000000E+00;  2.7878240E-01;  2.8853115E+03;
  1.1903049E+00;  9.9999998E-03; -1.9180290E-01;8191;  3.4642875E-01;  0.0000000E+00; -7.5665690E-02;  1.0048867E+03;  3.1390679E-01;  4.0481602E+03;3;  6.0546436E+01;  0.0000000E+00; -4.3587002E+01;0;  1.9734846E+00;  4.1895649E+03;  0.0000000E+00;  8.1500506E-01;  4.0000000E+04;  0.0000000E+00;  3.9153547E+04;  1.7213374E+00;  0.0000000E+00;  2.5214717E-01;  2.1997566E+03;
  1.1906382E+00;  9.9999998E-03; -1.8167458E-01;8192;  3.2728577E-01;  0.0000000E+00; -7.2385952E-02;  1.0041512E+03;  3.1393984E-01;  3.4388555E+03;3;  5.9158295E+01;  0.0000000E+00; -4.1923920E+01;0;  1.8349085E+00;  4.1831226E+03;  0.0000000E+00;  6.9758123E-01;  4.0000000E+04;  0.0000000E+00;  3.9158496E+04;  1.5712103E+00;  0.0000000E+00;  2.6369825E-01;  2.6829707E+03;
  1.1907599E+00;  9.9999998E-03; -2.4252328E-01;8186;  4.4767106E-01;  0.0000000E+00; -1.0103860E-01;  1.0059911E+03;  3.1378362E-01;  4.9629995E+03;3;  6.4337555E+01;  0.0000000E+00; -4.1923943E+01;0;  2.6717563E+00;  4.2063379E+03;  0.0000000E+00; -6.8346447E-01;  4.0000000E+04;  0.0000000E+00;  3.9119402E+04;  2.3422909E+00;  0.0000000E+00;  3.2946539E-01;  5.7104346E+03;
  1.1910768E+00;  9.9999998E-03; -1.7153782E-01;8193;  3.0846626E-01;  0.0000000E+00; -6.9057643E-02;  1.0034284E+03;  3.1395897E-01;  2.8401177E+03;3;  5.7909298E+01;  0.0000000E+00; -4.0215107E+01;0;  1.6954564E+00;  4.1766235E+03;  0.0000000E+00;  5.3593123E-01;  4.0000000E+04;  0.0000000E+00;  3.9165805E+04;  1.4208958E+00;  0.0000000E+00;  2.7456054E-01;  3.2525293E+03;
  1.1924685E+00;  9.9999998E-03; -2.5262183E-01;8185;  4.6599817E-01;  0.0000000E+00; -1.0025448E-01;  1.0055499E+03;  3.1367937E-01;  4.5975049E+03;3;  6.4683067E+01;  0.0000000E+00; -3.7556606E+01;0;  2.7519269E+00;  4.2080107E+03;  0.0000000E+00; -1.8781754E+00;  4.0000000E+04;  0.0000000E+00;  3.9115402E+04;  2.3613365E+00;  0.0000000E+00;  3.9059046E-01;  8.3586348E+03;
  1.1918414E+00;  9.9999998E-03; -1.6142164E-01;8194;  2.9002839E-01;  0.0000000E+00; -6.5041773E-02;  1.0027692E+03;  3.1393394E-01;  2.2940144E+03;3;  5.6874619E+01;  0.0000000E+00; -3.8535042E+01;0;  1.5492365E+00;  4.1709253E+03;  0.0000000E+00;  3.4704354E-01;  4.0000000E+04;  0.0000000E+00;  3.9175340E+04;  1.2669816E+00;  0.0000000E+00;  2.8225499E-01;  4.1140435E+03;
  1.1926590E+00;  9.9999998E-03; -1.1107568E-01;8199;  2.0731263E-01;  0.0000000E+00; -4.1683707E-02;  1.0006693E+03;  3.1413916E-01;  5.5449310E+02;3;  5.5478130E+01;  0.0000000E+00; -2.7225771E+01;0;  9.7101498E-01;  4.1413359E+03;  0.0000000E+00; -3.3335218E-01;  4.0000000E+04;  0.0000000E+00;  3.9224012E+04;  6.8857020E-01;  0.0000000E+00;  2.8244475E-01;  1.0224135E+04;
  1.1927027E+00;  9.9999998E-03; -1.5133296E-01;8195;  2.7201432E-01;  0.0000000E+00; -6.0439542E-02;  1.0022060E+03;  3.1389719E-01;  1.8274077E+03;3;  5.6124100E+01;  0.0000000E+00; -3.6686337E+01;0;  1.4054788E+00;  4.1656592E+03;  0.0000000E+00;  1.5419610E-01;  4.0000000E+04;  0.0000000E+00;  3.9186520E+04;  1.1193891E+00;  0.0000000E+00;  2.8608975E-01;  5.3484141E+03;
  1.1930660E+00;  9.9999998E-03; -1.2112805E-01;8198;  2.2200851E-01;  0.0000000E+00; -4.6314750E-02;  1.0009988E+03;  3.1402433E-01;  8.2744330E+02;3;  5.5454945E+01;  0.0000000E+00; -2.9679010E+01;0;  1.0645975E+00;  4.1477456E+03;  0.0000000E+00; -2.7868471E-01;  4.0000000E+04;  0.0000000E+00;  3.9217602E+04;  7.7882326E-01;  0.0000000E+00;  2.8577423E-01;  9.3389551E+03;
  1.1934264E+00;  9.9999998E-03; -1.3118188E-01;8197;  2.3778577E-01;  0.0000000E+00; -5.0850499E-02;  1.0013436E+03;  3.1392545E-01;  1.1130336E+03;3;  5.5467659E+01;  0.0000000E+00; -3.2085941E+01;0;  1.1619490E+00;  4.1542778E+03;  0.0000000E+00; -1.7269617E-01;  4.0000000E+04;  0.0000000E+00;  3.9208832E+04;  8.7518930E-01;  0.0000000E+00;  2.8675976E-01;  8.1844771E+03;
  1.1933503E+00;  9.9999998E-03; -1.4125204E-01;8196;  2.5452715E-01;  0.0000000E+00; -5.5554237E-02;  1.0017346E+03;  3.1388137E-01;  1.4369403E+03;3;  5.5656704E+01;  0.0000000E+00; -3.4494167E+01;0;  1.2735698E+00;  4.1603394E+03;  0.0000000E+00; -2.4063393E-02;  4.0000000E+04;  0.0000000E+00;  3.9198480E+04;  9.8666197E-01;  0.0000000E+00;  2.8690785E-01;  6.7976494E+03;
  1.1956520E+00;  9.9999998E-03; -2.6272473E-01;8184;  4.8442528E-01;  0.0000000E+00; -9.3184851E-02;  1.0050997E+03;  3.1349239E-01;  4.2244956E+03;3;  6.8994545E+01;  0.0000000E+00; -3.3665363E+01;0;  2.7180922E+00;  4.2113003E+03;  0.0000000E+00; -3.4865704E+00;  4.0000000E+04;  0.0000000E+00;  3.9105195E+04;  2.2874560E+00;  0.0000000E+00;  4.3063608E-01;  1.2270929E+04;
  1.2214692E+00;  9.9999998E-03; -2.0175104E-01;8251;  3.6476278E-01;  0.0000000E+00; -2.5441026E-02;  1.0017057E+03;  3.0418196E-01;  1.4129625E+03;3;  6.5577660E+01;  0.0000000E+00; -4.7287899E+01;0;  9.6212852E-01;  4.4287124E+03;  0.0000000E+00;  8.4855038E-01;  4.0000000E+04;  0.0000000E+00;  3.9180387E+04;  7.6003176E-01;  0.0000000E+00;  2.0209676E-01;  4.1148569E+03;
  1.2216235E+00;  9.9999998E-03; -1.9164915E-01;8252;  3.4531322E-01;  0.0000000E+00; -2.3729114E-02;  1.0010502E+03;  3.0420670E-01;  8.6985687E+02;3;  6.3798752E+01;  0.0000000E+00; -4.5673946E+01;0;  8.9153492E-01;  4.4221597E+03;  0.0000000E+00;  7.1063888E-01;  4.0000000E+04;  0.0000000E+00;  3.9182129E+04;  7.0151681E-01;  0.0000000E+00;  1.9001810E-01;  4.2348477E+03;
  1.2215594E+00;  9.9999998E-03; -2.1188004E-01;8250;  3.8459840E-01;  0.0000000E+00; -2.7421782E-02;  1.0022556E+03;  3.0411431E-01;  1.8683806E+03;3;  6.7436920E+01;  0.0000000E+00; -4.8877602E+01;0;  1.0276368E+00;  4.4352715E+03;  0.0000000E+00;  9.3203980E-01;  4.0000000E+04;  0.0000000E+00;  3.9180102E+04;  8.1239361E-01;  0.0000000E+00;  2.1524310E-01;  4.2509131E+03;
  1.2219796E+00;  9.9999998E-03; -1.8155257E-01;8253;  3.2602343E-01;  0.0000000E+00; -2.2033840E-02;  1.0003652E+03;  3.0419791E-01;  3.0245990E+02;3;  6.2127068E+01;  0.0000000E+00; -4.4080330E+01;0;  8.1900805E-01;  4.4157749E+03;  0.0000000E+00;  5.7437998E-01;  4.0000000E+04;  0.0000000E+00;  3.9186941E+04;  6.4100552E-01;  0.0000000E+00;  1.7800254E-01;  4.8642676E+03;
  1.2224699E+00;  9.9999998E-03; -1.7145391E-01;8254;  3.0691522E-01;  0.0000000E+00; -2.0205649E-02;  9.9968512E+02;  3.0415928E-01; -2.6083801E+02;3;  6.0500412E+01;  0.0000000E+00; -4.2299252E+01;0;  7.4812788E-01;  4.4098198E+03;  0.0000000E+00;  4.6660775E-01;  4.0000000E+04;  0.0000000E+00;  3.9194242E+04;  5.8245331E-01;  0.0000000E+00;  1.6567458E-01;  5.8891626E+03;
  1.2218101E+00;  9.9999998E-03; -2.2204407E-01;8249;  4.0492862E-01;  0.0000000E+00; -3.0118842E-02;  1.0025698E+03;  3.0402896E-01;  2.1286748E+03;3;  6.9612350E+01;  0.0000000E+00; -5.0790218E+01;0;  1.0896124E+00;  4.4413008E+03;  0.0000000E+00;  8.6458772E-01;  4.0000000E+04;  0.0000000E+00;  3.9176984E+04;  8.5812676E-01;  0.0000000E+00;  2.3148556E-01;  3.8761138E+03;
  1.2228914E+00;  9.9999998E-03; -1.6135024E-01;8255;  2.8802320E-01;  0.0000000E+00; -1.8312577E-02;  9.9905811E+02;  3.0412239E-01; -7.8019269E+02;3;  5.8643700E+01;  0.0000000E+00; -4.0135822E+01;0;  6.8433756E-01;  4.4038481E+03;  0.0000000E+00;  3.9056659E-01;  4.0000000E+04;  0.0000000E+00;  3.9203430E+04;  5.3072929E-01;  0.0000000E+00;  1.5360826E-01;  7.1473564E+03;
  1.2233241E+00;  9.9999998E-03; -1.5126438E-01;8256;  2.6950908E-01;  0.0000000E+00; -1.6264072E-02;  9.9847803E+02;  3.0407530E-01; -1.2606896E+03;3;  5.6856766E+01;  0.0000000E+00; -3.7897224E+01;0;  6.2591231E-01;  4.3984033E+03;  0.0000000E+00;  3.3763641E-01;  4.0000000E+04;  0.0000000E+00;  3.9213492E+04;  4.8451847E-01;  0.0000000E+00;  1.4139386E-01;  8.5257061E+03;
  1.2237900E+00;  9.9999998E-03; -1.4119840E-01;8257;  2.5156999E-01;  0.0000000E+00; -1.4057198E-02;  9.9795074E+02;  3.0401763E-01; -1.6974905E+03;3;  5.5112362E+01;  0.0000000E+00; -3.5268436E+01;0;  5.7254708E-01;  4.3935962E+03;  0.0000000E+00;  2.9235643E-01;  4.0000000E+04;  0.0000000E+00;  3.9223965E+04;  4.4387838E-01;  0.0000000E+00;  1.2866871E-01;  9.9253955E+03;
  1.2222979E+00;  9.9999998E-03; -2.3220247E-01;8248;  4.2576149E-01;  0.0000000E+00; -3.3768721E-02;  1.0026021E+03;  3.0391350E-01;  2.1554324E+03;3;  7.1617264E+01;  0.0000000E+00; -5.3950294E+01;0;  1.1464963E+00;  4.4473086E+03;  0.0000000E+00;  5.2226019E-01;  4.0000000E+04;  0.0000000E+00;  3.9171422E+04;  8.9182782E-01;  0.0000000E+00;  2.5466853E-01;  2.7760115E+03;
  1.2239360E+00;  9.9999998E-03; -1.3114807E-01;8258;  2.3447688E-01;  0.0000000E+00; -1.2283699E-02;  9.9747095E+02;  3.0401936E-01; -2.0948923E+03;3;  5.3749844E+01;  0.0000000E+00; -3.2463173E+01;0;  5.2869916E-01;  4.3878379E+03;  0.0000000E+00;  2.4221724E-01;  4.0000000E+04;  0.0000000E+00;  3.9233945E+04;  4.1131672E-01;  0.0000000E+00;  1.1738241E-01;  1.1198804E+04;
  1.2239815E+00;  9.9999998E-03; -1.2109169E-01;8259;  2.1840797E-01;  0.0000000E+00; -1.0639191E-02;  9.9701062E+02;  3.0405045E-01; -2.4761990E+03;3;  5.2832531E+01;  0.0000000E+00; -2.9693745E+01;0;  4.8953515E-01;  4.3818809E+03;  0.0000000E+00;  1.9405334E-01;  4.0000000E+04;  0.0000000E+00;  3.9242039E+04;  3.8352865E-01;  0.0000000E+00;  1.0600652E-01;  1.2273435E+04;
  1.2239932E+00;  9.9999998E-03; -1.1102541E-01;8260;  2.0352654E-01;  0.0000000E+00; -8.9290421E-03;  9.9654163E+02;  3.0410284E-01; -2.8647139E+03;3;  5.3579067E+01;  0.0000000E+00; -2.6764439E+01;0;  4.5366091E-01;  4.3759014E+03;  0.0000000E+00;  1.5505734E-01;  4.0000000E+04;  0.0000000E+00;  3.9248113E+04;  3.5988781E-01;  0.0000000E+00;  9.3773089E-02;  1.3087948E+04;
  1.2232670E+00;  9.9999998E-03; -2.4232095E-01;8247;  4.4737369E-01;  0.0000000E+00; -4.0599190E-02;  1.0025154E+03;  3.0372959E-01;  2.0836387E+03;3;  7.5052902E+01;  0.0000000E+00; -5.3604095E+01;0;  1.2057325E+00;  4.4539966E+03;  0.0000000E+00; -2.0624049E-01;  4.0000000E+04;  0.0000000E+00;  3.9172418E+04;  9.0173191E-01;  0.0000000E+00;  3.0400053E-01;  3.0724309E+03;
  1.2249222E+00;  9.9999998E-03; -2.5241894E-01;8246;  4.7010890E-01;  0.0000000E+00; -5.0631035E-02;  1.0024405E+03;  3.0345026E-01;  2.0215190E+03;3;  7.6717186E+01;  0.0000000E+00; -4.7645279E+01;0;  1.2855062E+00;  4.4622202E+03;  0.0000000E+00; -1.3976533E+00;  4.0000000E+04;  0.0000000E+00;  3.9182977E+04;  8.7730044E-01;  0.0000000E+00;  4.0820578E-01;  6.2862769E+03;
  1.2276813E+00;  9.9999998E-03; -2.6253173E-01;8245;  4.8801109E-01;  0.0000000E+00; -5.2630052E-02;  1.0024111E+03;  3.0304152E-01;  1.9972130E+03;3;  7.5867569E+01;  0.0000000E+00; -3.8147873E+01;0;  1.3163710E+00;  4.4739907E+03;  0.0000000E+00; -3.1787810E+00;  4.0000000E+04;  0.0000000E+00;  3.9186926E+04;  8.0636817E-01;  0.0000000E+00;  5.1000273E-01;  1.0642901E+04;
  1.2516645E+00;  9.9999998E-03; -1.9165374E-01;8313;  3.4199125E-01;  0.0000000E+00;  2.8551055E-02;  9.9667877E+02;  2.9248351E-01; -2.7508660E+03;3;  6.4675461E+01;  0.0000000E+00; -4.0340137E+01;0;  4.2966992E-01;  4.7350840E+03;  0.0000000E+00;  1.1206242E+00;  4.0000000E+04;  0.0000000E+00;  3.9212121E+04;  3.3002111E-01;  0.0000000E+00;  9.9648818E-02;  7.5097583E+03;
  1.2515293E+00;  9.9999998E-03; -2.0172925E-01;8312;  3.6128113E-01;  0.0000000E+00;  2.8609000E-02;  9.9722693E+02;  2.9245245E-01; -2.2968242E+03;3;  6.6432426E+01;  0.0000000E+00; -4.0911057E+01;0;  4.3071154E-01;  4.7416533E+03;  0.0000000E+00;  1.3705235E+00;  4.0000000E+04;  0.0000000E+00;  3.9212520E+04;  2.9501709E-01;  0.0000000E+00;  1.3569444E-01;  7.5594688E+03;
  1.2520989E+00;  9.9999998E-03; -1.8159385E-01;8314;  3.2268789E-01;  0.0000000E+00;  2.8951667E-02;  9.9608868E+02;  2.9244497E-01; -3.2396091E+03;3;  6.2957825E+01;  0.0000000E+00; -3.9762024E+01;0;  4.3452638E-01;  4.7297402E+03;  0.0000000E+00;  8.9565855E-01;  4.0000000E+04;  0.0000000E+00;  3.9214496E+04;  3.7123281E-01;  0.0000000E+00;  6.3293584E-02;  8.0683916E+03;
  1.2517669E+00;  9.9999998E-03; -2.1184810E-01;8311;  3.8060686E-01;  0.0000000E+00;  2.9185463E-02;  9.9769055E+02;  2.9233566E-01; -1.9128339E+03;3;  6.7802933E+01;  0.0000000E+00; -4.1497047E+01;0;  4.3354174E-01;  4.7498213E+03;  0.0000000E+00;  1.5668894E+00;  4.0000000E+04;  0.0000000E+00;  3.9214082E+04;  2.6307610E-01;  0.0000000E+00;  1.7046565E-01;  8.0680190E+03;
  1.2525874E+00;  9.9999998E-03; -1.7152399E-01;8315;  3.0341929E-01;  0.0000000E+00;  2.9405370E-02;  9.9547131E+02;  2.9238629E-01; -3.7509604E+03;3;  6.1261856E+01;  0.0000000E+00; -3.9211029E+01;0;  4.4756320E-01;  4.7244727E+03;  0.0000000E+00;  7.2861123E-01;  4.0000000E+04;  0.0000000E+00;  3.9218508E+04;  4.1941598E-01;  0.0000000E+00;  2.8147208E-02;  8.8794414E+03;
  1.2529113E+00;  9.9999998E-03; -1.6142763E-01;8316;  2.8424394E-01;  0.0000000E+00;  2.9592026E-02;  9.9485284E+02;  2.9234964E-01; -4.2632017E+03;3;  5.9677341E+01;  0.0000000E+00; -3.8630184E+01;0;  4.6787888E-01;  4.7183447E+03;  0.0000000E+00;  6.1957902E-01;  4.0000000E+04;  0.0000000E+00;  3.9223586E+04;  4.7190163E-01;  0.0000000E+00; -4.0227370E-03;  9.6719424E+03;
  1.2522879E+00;  9.9999998E-03; -2.2200772E-01;8310;  3.9997944E-01;  0.0000000E+00;  2.9768171E-02;  9.9796057E+02;  2.9214746E-01; -1.6891907E+03;3;  6.9956940E+01;  0.0000000E+00; -4.2737484E+01;0;  4.3464211E-01;  4.7590874E+03;  0.0000000E+00;  1.5821065E+00;  4.0000000E+04;  0.0000000E+00;  3.9212230E+04;  2.3183051E-01;  0.0000000E+00;  2.0281160E-01;  8.1862305E+03;
  1.2532842E+00;  9.9999998E-03; -1.5131912E-01;8317;  2.6535067E-01;  0.0000000E+00;  2.9851908E-02;  9.9423260E+02;  2.9228503E-01; -4.7769214E+03;3;  5.7562778E+01;  0.0000000E+00; -3.7849487E+01;0;  4.9594396E-01;  4.7130522E+03;  0.0000000E+00;  5.5326998E-01;  4.0000000E+04;  0.0000000E+00;  3.9229516E+04;  5.2975124E-01;  0.0000000E+00; -3.3807267E-02;  1.0408438E+04;
  1.2537485E+00;  9.9999998E-03; -1.4122954E-01;8318;  2.4706924E-01;  0.0000000E+00;  3.0164680E-02;  9.9362115E+02;  2.9219034E-01; -5.2833311E+03;3;  5.5007355E+01;  0.0000000E+00; -3.6696911E+01;0;  5.3217769E-01;  4.7088936E+03;  0.0000000E+00;  5.0419116E-01;  4.0000000E+04;  0.0000000E+00;  3.9235855E+04;  5.9376699E-01;  0.0000000E+00; -6.1589327E-02;  1.1106724E+04;
  1.2530234E+00;  9.9999998E-03; -2.3215933E-01;8309;  4.1943750E-01;  0.0000000E+00;  2.9995633E-02;  9.9802441E+02;  2.9191682E-01; -1.6363123E+03;3;  7.2468651E+01;  0.0000000E+00; -4.4590759E+01;0;  4.3049812E-01;  4.7690576E+03;  0.0000000E+00;  1.2512935E+00;  4.0000000E+04;  0.0000000E+00;  3.9207980E+04;  1.9995801E-01;  0.0000000E+00;  2.3054010E-01;  7.5262349E+03;
  1.2540945E+00;  9.9999998E-03; -1.3116604E-01;8319;  2.2971405E-01;  0.0000000E+00;  3.0111864E-02;  9.9301874E+02;  2.9212105E-01; -5.7822871E+03;3;  5.2391109E+01;  0.0000000E+00; -3.5314892E+01;0;  5.7281339E-01;  4.7043848E+03;  0.0000000E+00;  4.5759088E-01;  4.0000000E+04;  0.0000000E+00;  3.9242012E+04;  6.5946066E-01;  0.0000000E+00; -8.6647265E-02;  1.1756626E+04;
  1.2542940E+00;  9.9999998E-03; -1.2110730E-01;8320;  2.1349613E-01;  0.0000000E+00;  2.9654101E-02;  9.9240527E+02;  2.9208568E-01; -6.2903784E+03;3;  5.0144073E+01;  0.0000000E+00; -3.3717777E+01;0;  6.1491901E-01;  4.6992515E+03;  0.0000000E+00;  4.1483566E-01;  4.0000000E+04;  0.0000000E+00;  3.9246949E+04;  7.2451705E-01;  0.0000000E+00; -1.0959803E-01;  1.2329999E+04;
  1.2543491E+00;  9.9999998E-03; -1.1105547E-01;8321;  1.9849566E-01;  0.0000000E+00;  2.8783157E-02;  9.9178839E+02;  2.9209715E-01; -6.8013364E+03;3;  4.8671421E+01;  0.0000000E+00; -3.1736227E+01;0;  6.5592611E-01;  4.6933232E+03;  0.0000000E+00;  3.8095021E-01;  4.0000000E+04;  0.0000000E+00;  3.9250418E+04;  7.8709859E-01;  0.0000000E+00; -1.3117246E-01;  1.2787546E+04;
  1.2540709E+00;  9.9999998E-03; -2.4226604E-01;8308;  4.3923035E-01;  0.0000000E+00;  2.8443119E-02;  9.9805524E+02;  2.9163149E-01; -1.6107822E+03;3;  7.5566879E+01;  0.0000000E+00; -4.7688229E+01;0;  4.2222759E-01;  4.7797798E+03;  0.0000000E+00;  4.0767077E-01;  4.0000000E+04;  0.0000000E+00;  3.9212477E+04;  1.6501984E-01;  0.0000000E+00;  2.5720775E-01;  7.4432241E+03;
  1.2556463E+00;  9.9999998E-03; -2.5234467E-01;8307;  4.5945200E-01;  0.0000000E+00;  2.1201659E-02;  9.9822498E+02;  2.9126424E-01; -1.4701725E+03;3;  7.9093750E+01;  0.0000000E+00; -5.4914391E+01;0;  4.3848270E-01;  4.7921616E+03;  0.0000000E+00; -1.1062851E+00;  4.0000000E+04;  0.0000000E+00;  3.9233516E+04;  1.2316132E-01;  0.0000000E+00;  3.1532139E-01;  1.0498337E+04;
  1.2580448E+00;  9.9999998E-03; -2.6243854E-01;8306;  4.8076347E-01;  0.0000000E+00; -3.3568249E-03;  9.9843414E+02;  2.9076722E-01; -1.2969279E+03;3;  8.2490799E+01;  0.0000000E+00; -5.2593506E+01;0;  6.2818277E-01;  4.8080386E+03;  0.0000000E+00; -3.5322311E+00;  4.0000000E+04;  0.0000000E+00;  3.9256551E+04;  6.9773458E-02;  0.0000000E+00;  5.5840933E-01;  1.6617834E+04;
  1.2801135E+00;  9.9999998E-03; -2.0181957E-01;8373;  3.5799819E-01;  0.0000000E+00;  7.9065010E-02;  9.9351086E+02;  2.7906486E-01; -5.3740176E+03;3;  6.6978622E+01;  0.0000000E+00; -3.4879044E+01;0;  6.9212329E-01;  5.1611929E+03;  0.0000000E+00;  1.1299077E+00;  4.0000000E+04;  0.0000000E+00;  3.9240828E+04;  6.4359510E-01;  0.0000000E+00;  4.8528206E-02;  1.0297393E+04;
  1.2803162E+00;  9.9999998E-03; -1.9176628E-01;8374;  3.3894613E-01;  0.0000000E+00;  7.8385949E-02;  9.9308673E+02;  2.7908430E-01; -5.7252197E+03;3;  6.4755859E+01;  0.0000000E+00; -3.4274929E+01;0;  7.8206277E-01;  5.1560322E+03;  0.0000000E+00;  8.5768318E-01;  4.0000000E+04;  0.0000000E+00;  3.9236945E+04;  7.8662050E-01;  0.0000000E+00; -4.5577283E-03;  1.0214523E+04;
  1.2803171E+00;  9.9999998E-03; -2.1190311E-01;8372;  3.7683052E-01;  0.0000000E+00;  8.0140464E-02;  9.9388495E+02;  2.7892962E-01; -5.0642168E+03;3;  6.8154037E+01;  0.0000000E+00; -3.5683521E+01;0;  6.1942971E-01;  5.1693730E+03;  0.0000000E+00;  1.3379376E+00;  4.0000000E+04;  0.0000000E+00;  3.9246609E+04;  5.2049494E-01;  0.0000000E+00;  9.8934770E-02;  1.0897741E+04;
  1.2808170E+00;  9.9999998E-03; -1.8171458E-01;8375;  3.1974512E-01;  0.0000000E+00;  7.7930830E-02;  9.9262610E+02;  2.7901810E-01; -6.1067178E+03;3;  6.3138290E+01;  0.0000000E+00; -3.3575119E+01;0;  8.9104998E-01;  5.1529067E+03;  0.0000000E+00;  6.1285204E-01;  4.0000000E+04;  0.0000000E+00;  3.9234582E+04;  9.4922006E-01;  0.0000000E+00; -5.8170080E-02;  1.0423641E+04;
  1.2808460E+00;  9.9999998E-03; -2.2203611E-01;8371;  3.9530790E-01;  0.0000000E+00;  8.1499144E-02;  9.9413544E+02;  2.7870235E-01; -4.8567339E+03;3;  6.9846634E+01;  0.0000000E+00; -3.5920368E+01;0;  5.5681014E-01;  5.1799111E+03;  0.0000000E+00;  1.3453530E+00;  4.0000000E+04;  0.0000000E+00;  3.9249590E+04;  4.1285476E-01;  0.0000000E+00;  1.4395535E-01;  1.1365390E+04;
  1.2813900E+00;  9.9999998E-03; -1.7163758E-01;8376;  3.0030429E-01;  0.0000000E+00;  7.7366747E-02;  9.9211566E+02;  2.7892792E-01; -6.5293784E+03;3;  6.2650700E+01;  0.0000000E+00; -3.3300125E+01;0;  1.0146785E+00;  5.1499551E+03;  0.0000000E+00;  4.4591683E-01;  4.0000000E+04;  0.0000000E+00;  3.9233086E+04;  1.1247432E+00;  0.0000000E+00; -1.1006473E-01;  1.0498909E+04;
  1.2818828E+00;  9.9999998E-03; -1.6153145E-01;8377;  2.8073019E-01;  0.0000000E+00;  7.6485991E-02;  9.9155750E+02;  2.7884439E-01; -6.9916274E+03;3;  6.0734604E+01;  0.0000000E+00; -3.3024189E+01;0;  1.1469758E+00;  5.1463818E+03;  0.0000000E+00;  3.5979789E-01;  4.0000000E+04;  0.0000000E+00;  3.9231332E+04;  1.3052282E+00;  0.0000000E+00; -1.5825251E-01;  1.0276574E+04;
  1.2816669E+00;  9.9999998E-03; -2.3218030E-01;8370;  4.1341579E-01;  0.0000000E+00;  8.2767390E-02;  9.9422809E+02;  2.7838990E-01; -4.7800020E+03;3;  7.2827545E+01;  0.0000000E+00; -3.6673626E+01;0;  4.9803314E-01;  5.1929707E+03;  0.0000000E+00;  9.7497225E-01;  4.0000000E+04;  0.0000000E+00;  3.9248176E+04;  3.1892815E-01;  0.0000000E+00;  1.7910498E-01;  1.1177811E+04;
  1.2823066E+00;  9.9999998E-03; -1.5141116E-01;8378;  2.6163009E-01;  0.0000000E+00;  7.5154796E-02;  9.9096722E+02;  2.7875078E-01; -7.4804321E+03;3;  5.7841270E+01;  0.0000000E+00; -3.2431248E+01;0;  1.2858592E+00;  5.1428921E+03;  0.0000000E+00;  3.2861018E-01;  4.0000000E+04;  0.0000000E+00;  3.9230074E+04;  1.4876897E+00;  0.0000000E+00; -2.0183052E-01;  9.8672988E+03;
  1.2827258E+00;  9.9999998E-03; -1.4130287E-01;8379;  2.4332474E-01;  0.0000000E+00;  7.3415592E-02;  9.9035077E+02;  2.7863669E-01; -7.9909053E+03;3;  5.5000420E+01;  0.0000000E+00; -3.2245117E+01;0;  1.4315317E+00;  5.1400361E+03;  0.0000000E+00;  3.2432157E-01;  4.0000000E+04;  0.0000000E+00;  3.9229902E+04;  1.6724871E+00;  0.0000000E+00; -2.4095546E-01;  9.4718750E+03;
  1.2827188E+00;  9.9999998E-03; -2.4229024E-01;8369;  4.3118429E-01;  0.0000000E+00;  8.3475746E-02;  9.9428033E+02;  2.7803773E-01; -4.7366821E+03;3;  7.5556358E+01;  0.0000000E+00; -3.8515526E+01;0;  4.3614104E-01;  5.2068584E+03;  0.0000000E+00;  2.6839454E-02;  4.0000000E+04;  0.0000000E+00;  3.9251852E+04;  2.3696589E-01;  0.0000000E+00;  1.9917515E-01;  1.1469792E+04;
  1.2831438E+00;  9.9999998E-03; -1.3123246E-01;8380;  2.2601986E-01;  0.0000000E+00;  7.1312711E-02;  9.8972998E+02;  2.7851018E-01; -8.5049775E+03;3;  5.1867741E+01;  0.0000000E+00; -3.2219364E+01;0;  1.5815269E+00;  5.1376167E+03;  0.0000000E+00;  3.3081880E-01;  4.0000000E+04;  0.0000000E+00;  3.9230051E+04;  1.8578943E+00;  0.0000000E+00; -2.7636746E-01;  9.2295059E+03;
  1.2841358E+00;  9.9999998E-03; -2.5236738E-01;8368;  4.4874585E-01;  0.0000000E+00;  8.0936767E-02;  9.9444098E+02;  2.7763987E-01; -4.6036133E+03;3;  8.0323029E+01;  0.0000000E+00; -4.2442345E+01;0;  3.8375580E-01;  5.2213843E+03;  0.0000000E+00; -1.6991918E+00;  4.0000000E+04;  0.0000000E+00;  3.9271609E+04;  1.6816573E-01;  0.0000000E+00;  2.1559009E-01;  1.4732024E+04;
  1.2835395E+00;  9.9999998E-03; -1.2117592E-01;8381;  2.0988005E-01;  0.0000000E+00;  6.8807028E-02;  9.8908209E+02;  2.7838776E-01; -9.0415078E+03;3;  4.8485077E+01;  0.0000000E+00; -3.2266811E+01;0;  1.7324331E+00;  5.1352363E+03;  0.0000000E+00;  3.4312293E-01;  4.0000000E+04;  0.0000000E+00;  3.9230168E+04;  2.0416989E+00;  0.0000000E+00; -3.0926585E-01;  9.1634541E+03;
  1.2838100E+00;  9.9999998E-03; -1.1110817E-01;8382;  1.9502398E-01;  0.0000000E+00;  6.5717012E-02;  9.8842474E+02;  2.7831656E-01; -9.5858916E+03;3;  4.5551823E+01;  0.0000000E+00; -3.2194592E+01;0;  1.8758420E+00;  5.1315117E+03;  0.0000000E+00;  3.5795012E-01;  4.0000000E+04;  0.0000000E+00;  3.9229820E+04;  2.2159798E+00;  0.0000000E+00; -3.4013787E-01;  9.2049355E+03;
  1.2857327E+00;  9.9999998E-03; -2.6244590E-01;8367;  4.6731094E-01;  0.0000000E+00;  6.5147683E-02;  9.9459692E+02;  2.7725646E-01; -4.4744409E+03;3;  8.6672943E+01;  0.0000000E+00; -5.2032154E+01;0;  4.3855143E-01;  5.2343564E+03;  0.0000000E+00; -4.3507361E+00;  4.0000000E+04;  0.0000000E+00;  3.9300215E+04;  1.0839181E-01;  0.0000000E+00;  3.3015960E-01;  2.1837938E+04;
  1.3077023E+00;  9.9999998E-03; -1.9191273E-01;8435;  3.3551070E-01;  0.0000000E+00;  1.2529555E-01;  9.9042725E+02;  2.6410151E-01; -7.9260938E+03;3;  6.4052345E+01;  0.0000000E+00; -2.9329069E+01;0;  1.8780174E+00;  5.7213213E+03;  0.0000000E+00; -2.4304055E-02;  4.0000000E+04;  0.0000000E+00;  3.9251113E+04;  1.9990340E+00;  0.0000000E+00; -1.2101664E-01;  1.1181275E+04;
  1.3074808E+00;  9.9999998E-03; -2.0197308E-01;8434;  3.5362819E-01;  0.0000000E+00;  1.2584943E-01;  9.9060883E+02;  2.6408011E-01; -7.7757832E+03;3;  6.5969872E+01;  0.0000000E+00; -3.1565140E+01;0;  1.6774743E+00;  5.7239214E+03;  0.0000000E+00;  1.6622642E-01;  4.0000000E+04;  0.0000000E+00;  3.9258469E+04;  1.7432935E+00;  0.0000000E+00; -6.5819249E-02;  1.1682674E+04;
  1.3075367E+00;  9.9999998E-03; -2.1203955E-01;8433;  3.7166435E-01;  0.0000000E+00;  1.2615652E-01;  9.9078418E+02;  2.6397839E-01; -7.6305864E+03;3;  6.9021736E+01;  0.0000000E+00; -3.2628555E+01;0;  1.5016205E+00;  5.7291689E+03;  0.0000000E+00;  3.1811094E-01;  4.0000000E+04;  0.0000000E+00;  3.9266875E+04;  1.5169431E+00;  0.0000000E+00; -1.5322507E-02;  1.2365945E+04;
  1.3081781E+00;  9.9999998E-03; -1.8184426E-01;8436;  3.1688353E-01;  0.0000000E+00;  1.2431414E-01;  9.9021545E+02;  2.6404181E-01; -8.1014048E+03;3;  6.4451736E+01;  0.0000000E+00; -2.7571661E+01;0;  2.1044199E+00;  5.7215049E+03;  0.0000000E+00; -1.6016267E-01;  4.0000000E+04;  0.0000000E+00;  3.9243320E+04;  2.2825403E+00;  0.0000000E+00; -1.7812040E-01;  1.0551164E+04;
  1.3079267E+00;  9.9999998E-03; -2.2213101E-01;8432;  3.8971645E-01;  0.0000000E+00;  1.2668340E-01;  9.9093115E+02;  2.6377547E-01; -7.5088579E+03;3;  7.3267868E+01;  0.0000000E+00; -3.0959511E+01;0;  1.3485864E+00;  5.7379326E+03;  0.0000000E+00;  2.9273826E-01;  4.0000000E+04;  0.0000000E+00;  3.9274328E+04;  1.3222752E+00;  0.0000000E+00;  2.6311306E-02;  1.3176278E+04;
  1.3088810E+00;  9.9999998E-03; -1.7176443E-01;8437;  2.9755241E-01;  0.0000000E+00;  1.2309302E-01;  9.8996033E+02;  2.6389551E-01; -8.3126270E+03;3;  6.3246841E+01;  0.0000000E+00; -2.6625341E+01;0;  2.3561440E+00;  5.7248457E+03;  0.0000000E+00; -1.9599012E-01;  4.0000000E+04;  0.0000000E+00;  3.9234512E+04;  2.5908191E+00;  0.0000000E+00; -2.3467514E-01;  9.5556846E+03;
  1.3084711E+00;  9.9999998E-03; -2.3224877E-01;8431;  4.0677387E-01;  0.0000000E+00;  1.2736882E-01;  9.9099103E+02;  2.6354355E-01; -7.4592227E+03;3;  7.2715561E+01;  0.0000000E+00; -2.9066254E+01;0;  1.2042665E+00;  5.7475737E+03;  0.0000000E+00; -7.5164005E-02;  4.0000000E+04;  0.0000000E+00;  3.9277918E+04;  1.1505886E+00;  0.0000000E+00;  5.3677868E-02;  1.3614148E+04;
  1.3096515E+00;  9.9999998E-03; -1.6166154E-01;8438;  2.7848634E-01;  0.0000000E+00;  1.2134282E-01;  9.8966327E+02;  2.6370224E-01; -8.5585322E+03;3;  6.1136448E+01;  0.0000000E+00; -2.5257656E+01;0;  2.6230624E+00;  5.7296748E+03;  0.0000000E+00; -1.2752795E-01;  4.0000000E+04;  0.0000000E+00;  3.9225402E+04;  2.9112096E+00;  0.0000000E+00; -2.8814712E-01;  8.2145342E+03;
  1.3090529E+00;  9.9999998E-03; -2.4236427E-01;8430;  4.2276216E-01;  0.0000000E+00;  1.2744500E-01;  9.9096100E+02;  2.6333520E-01; -7.4840566E+03;3;  7.5958817E+01;  0.0000000E+00; -2.9999401E+01;0;  1.0584809E+00;  5.7561382E+03;  0.0000000E+00; -9.4975024E-01;  4.0000000E+04;  0.0000000E+00;  3.9278148E+04;  9.9759841E-01;  0.0000000E+00;  6.0882453E-02;  1.4054607E+04;
  1.3102971E+00;  9.9999998E-03; -1.5153286E-01;8439;  2.5988576E-01;  0.0000000E+00;  1.1872307E-01;  9.8933075E+02;  2.6351976E-01; -8.8337588E+03;3;  5.8714787E+01;  0.0000000E+00; -2.3512571E+01;0;  2.8895993E+00;  5.7333486E+03;  0.0000000E+00;  6.9128601E-03;  4.0000000E+04;  0.0000000E+00;  3.9216703E+04;  3.2260199E+00;  0.0000000E+00; -3.3642054E-01;  6.7389443E+03;
  1.3097665E+00;  9.9999998E-03; -2.5245619E-01;8429;  4.3839040E-01;  0.0000000E+00;  1.2593381E-01;  9.9092682E+02;  2.6312089E-01; -7.5123345E+03;3;  8.0732948E+01;  0.0000000E+00; -3.1404850E+01;0;  9.1405594E-01;  5.7642754E+03;  0.0000000E+00; -2.4619019E+00;  4.0000000E+04;  0.0000000E+00;  3.9284645E+04;  8.6735898E-01;  0.0000000E+00;  4.6696939E-02;  1.6474143E+04;
  1.3105959E+00;  9.9999998E-03; -1.4139803E-01;8440;  2.4193154E-01;  0.0000000E+00;  1.1489101E-01;  9.8895233E+02;  2.6343915E-01; -9.1470605E+03;3;  5.5925591E+01;  0.0000000E+00; -2.2018808E+01;0;  3.1347411E+00;  5.7321245E+03;  0.0000000E+00;  1.6131632E-01;  4.0000000E+04;  0.0000000E+00;  3.9209641E+04;  3.5129268E+00;  0.0000000E+00; -3.7818572E-01;  5.4174121E+03;
  1.3107444E+00;  9.9999998E-03; -1.3129029E-01;8441;  2.2490379E-01;  0.0000000E+00;  1.1008747E-01;  9.8853021E+02;  2.6339912E-01; -9.4965469E+03;3;  5.3146954E+01;  0.0000000E+00; -2.0989815E+01;0;  3.3657720E+00;  5.7288110E+03;  0.0000000E+00;  3.0043057E-01;  4.0000000E+04;  0.0000000E+00;  3.9204598E+04;  3.7806921E+00;  0.0000000E+00; -4.1492006E-01;  4.4489897E+03;
  1.3109708E+00;  9.9999998E-03; -1.2120977E-01;8442;  2.0903663E-01;  0.0000000E+00;  1.0468291E-01;  9.8809052E+02;  2.6332524E-01; -9.8605850E+03;3;  4.8969128E+01;  0.0000000E+00; -1.9277428E+01;0;  3.5957232E+00;  5.7267441E+03;  0.0000000E+00;  4.0904969E-01;  4.0000000E+04;  0.0000000E+00;  3.9200395E+04;  4.0445518E+00;  0.0000000E+00; -4.4882858E-01;  3.8788499E+03;
  1.3111281E+00;  9.9999998E-03; -2.6252419E-01;8428;  4.5414940E-01;  0.0000000E+00;  1.1989260E-01;  9.9095660E+02;  2.6272002E-01; -7.4875640E+03;3;  8.7542336E+01;  0.0000000E+00; -3.5239960E+01;0;  8.1979412E-01;  5.7787793E+03;  0.0000000E+00; -4.7382588E+00;  4.0000000E+04;  0.0000000E+00;  3.9310422E+04;  7.7862573E-01;  0.0000000E+00;  4.1168388E-02;  2.3153148E+04;
  1.3112696E+00;  9.9999998E-03; -1.1112463E-01;8443;  1.9466093E-01;  0.0000000E+00;  9.8558925E-02;  9.8764307E+02;  2.6323596E-01; -1.0231028E+04;3;  4.1293945E+01;  0.0000000E+00; -1.7637470E+01;0;  3.8225298E+00;  5.7257651E+03;  0.0000000E+00;  4.7996673E-01;  4.0000000E+04;  0.0000000E+00;  3.9196910E+04;  4.3035359E+00;  0.0000000E+00; -4.8100626E-01;  3.5953796E+03;
  1.3329285E+00;  9.9999998E-03; -2.0214246E-01;8495;  3.4668568E-01;  0.0000000E+00;  1.5762900E-01;  9.8920026E+02;  2.4873900E-01; -8.9395918E+03;3;  6.7897430E+01;  0.0000000E+00; -9.9911261E+00;0;  3.1273661E+00;  6.4314473E+03;  0.0000000E+00; -4.3796334E-01;  4.0000000E+04;  0.0000000E+00;  3.9261262E+04;  3.3201756E+00;  0.0000000E+00; -1.9280958E-01;  1.0649110E+04;
  1.3333185E+00;  9.9999998E-03; -1.9207698E-01;8496;  3.2900035E-01;  0.0000000E+00;  1.5583912E-01;  9.8937280E+02;  2.4868611E-01; -8.7967119E+03;3;  6.0330311E+01;  0.0000000E+00; -8.2860689E+00;0;  3.4199381E+00;  6.4377954E+03;  0.0000000E+00; -5.2151400E-01;  4.0000000E+04;  0.0000000E+00;  3.9251188E+04;  3.6558101E+00;  0.0000000E+00; -2.3587215E-01;  9.5012734E+03;
  1.3329082E+00;  9.9999998E-03; -2.1219519E-01;8494;  3.6445957E-01;  0.0000000E+00;  1.5939465E-01;  9.8907623E+02;  2.4866565E-01; -9.0422178E+03;3;  7.1774689E+01;  0.0000000E+00; -1.0232507E+01;0;  2.8650477E+00;  6.4318198E+03;  0.0000000E+00; -3.6716729E-01;  4.0000000E+04;  0.0000000E+00;  3.9270961E+04;  3.0242112E+00;  0.0000000E+00; -1.5916337E-01;  1.1730144E+04;
  1.3340682E+00;  9.9999998E-03; -1.8200311E-01;8497;  3.1525329E-01;  0.0000000E+00;  1.5256386E-01;  9.8958173E+02;  2.4849828E-01; -8.6236973E+03;3;  2.2386332E+01;  0.0000000E+00;  4.3149781E+00;0;  3.7420113E+00;  6.4511802E+03;  0.0000000E+00; -5.2568316E-01;  4.0000000E+04;  0.0000000E+00;  3.9238477E+04;  4.0254569E+00;  0.0000000E+00; -2.8344560E-01;  8.0113662E+03;
  1.3332133E+00;  9.9999998E-03; -2.2225414E-01;8493;  3.8186675E-01;  0.0000000E+00;  1.6139902E-01;  9.8901367E+02;  2.4847843E-01; -9.0939863E+03;3;  7.5534164E+01;  0.0000000E+00; -9.2569590E+00;0;  2.6264131E+00;  6.4377056E+03;  0.0000000E+00; -4.4651991E-01;  4.0000000E+04;  0.0000000E+00;  3.9281293E+04;  2.7674894E+00;  0.0000000E+00; -1.4107639E-01;  1.3007384E+04;
  1.3338391E+00;  9.9999998E-03; -2.3234229E-01;8492;  3.9778587E-01;  0.0000000E+00;  1.6296743E-01;  9.8894897E+02;  2.4818434E-01; -9.1474424E+03;3;  7.1879189E+01;  0.0000000E+00; -1.4906955E+01;0;  2.4049182E+00;  6.4491885E+03;  0.0000000E+00; -8.4370071E-01;  4.0000000E+04;  0.0000000E+00;  3.9289152E+04;  2.5509756E+00;  0.0000000E+00; -1.4605741E-01;  1.4303170E+04;
  1.3351399E+00;  9.9999998E-03; -1.7192556E-01;8498;  3.2099429E-01;  0.0000000E+00;  1.4424311E-01;  9.8982550E+02;  2.4817142E-01; -8.4217861E+03;3; -5.8441048E+01;  0.0000000E+00;  1.4601065E+01;0;  4.0862331E+00;  6.4718154E+03;  0.0000000E+00; -4.1905400E-01;  4.0000000E+04;  0.0000000E+00;  3.9224133E+04;  4.4179711E+00;  0.0000000E+00; -3.3173788E-01;  6.1692393E+03;
  1.3346635E+00;  9.9999998E-03; -2.4245113E-01;8491;  4.1142106E-01;  0.0000000E+00;  1.6179578E-01;  9.8880811E+02;  2.4784002E-01; -9.2639746E+03;3;  7.6073265E+01;  0.0000000E+00; -2.1076763E+01;0;  2.1960518E+00;  6.4632573E+03;  0.0000000E+00; -1.7336204E+00;  4.0000000E+04;  0.0000000E+00;  3.9290766E+04;  2.3677754E+00;  0.0000000E+00; -1.7172368E-01;  1.5701910E+04;
  1.3355551E+00;  9.9999998E-03; -2.5255039E-01;8490;  4.2522937E-01;  0.0000000E+00;  1.5864380E-01;  9.8862067E+02;  2.4751095E-01; -9.4190264E+03;3;  8.3761368E+01;  0.0000000E+00; -2.1489405E+01;0;  1.9948117E+00;  6.4767920E+03;  0.0000000E+00; -3.2373717E+00;  4.0000000E+04;  0.0000000E+00;  3.9292035E+04;  2.2102132E+00;  0.0000000E+00; -2.1540156E-01;  1.8730375E+04;
  1.3361682E+00;  9.9999998E-03; -1.6182761E-01;8499;  3.4031749E-01;  0.0000000E+00;  1.3629976E-01;  9.9005450E+02;  2.4783474E-01; -8.2321191E+03;3; -9.1041527E+01;  0.0000000E+00;  1.0918029E+01;0;  4.4245071E+00;  6.4926978E+03;  0.0000000E+00; -2.1617386E-01;  4.0000000E+04;  0.0000000E+00;  3.9208895E+04;  4.8008533E+00;  0.0000000E+00; -3.7634623E-01;  4.1941807E+03;
  1.3367614E+00;  9.9999998E-03; -1.5169582E-01;8500;  3.5312131E-01;  0.0000000E+00;  1.3005589E-01;  9.9021082E+02;  2.4764845E-01; -8.1026436E+03;3; -1.0801305E+02;  0.0000000E+00;  1.1439566E+01;0;  4.7292132E+00;  6.5047217E+03;  0.0000000E+00;  3.6040504E-02;  4.0000000E+04;  0.0000000E+00;  3.9195188E+04;  5.1440558E+00;  0.0000000E+00; -4.1484249E-01;  2.4319497E+03;
  1.3370192E+00;  9.9999998E-03; -1.4154316E-01;8501;  3.5919181E-01;  0.0000000E+00;  1.2370632E-01;  9.9027106E+02;  2.4757066E-01; -8.0527861E+03;3; -1.2159886E+02;  0.0000000E+00;  1.1693519E+01;0;  5.0039668E+00;  6.5093096E+03;  0.0000000E+00;  2.8366229E-01;  4.0000000E+04;  0.0000000E+00;  3.9183820E+04;  5.4517856E+00;  0.0000000E+00; -4.4781879E-01;  1.2889108E+03;
  1.3371329E+00;  9.9999998E-03; -1.2127210E-01;8503;  3.6449829E-01;  0.0000000E+00;  1.0951725E-01;  9.9015643E+02;  2.4755719E-01; -8.1476460E+03;3; -1.4563138E+02;  0.0000000E+00;  1.2069772E+01;0;  5.4889836E+00;  6.5076196E+03;  0.0000000E+00;  6.3236970E-01;  4.0000000E+04;  0.0000000E+00;  3.9168520E+04;  5.9917855E+00;  0.0000000E+00; -5.0280178E-01;  2.0817544E+03;
  1.3371011E+00;  9.9999998E-03; -1.3139118E-01;8502;  3.6191177E-01;  0.0000000E+00;  1.1688694E-01;  9.9025159E+02;  2.4755391E-01; -8.0688604E+03;3; -1.3404185E+02;  0.0000000E+00;  1.2171016E+01;0;  5.2557578E+00;  6.5094478E+03;  0.0000000E+00;  4.8902276E-01;  4.0000000E+04;  0.0000000E+00;  3.9175242E+04;  5.7324142E+00;  0.0000000E+00; -4.7665656E-01;  1.3735175E+03;
  1.3372567E+00;  9.9999998E-03; -1.1116009E-01;8504;  3.7079799E-01;  0.0000000E+00;  1.0168111E-01;  9.9004260E+02;  2.4753222E-01; -8.2418125E+03;3; -1.5654858E+02;  0.0000000E+00;  1.1602757E+01;0;  5.7104201E+00;  6.5072051E+03;  0.0000000E+00;  7.0762014E-01;  4.0000000E+04;  0.0000000E+00;  3.9163406E+04;  6.2376933E+00;  0.0000000E+00; -5.2727330E-01;  2.8024275E+03;
  1.3367449E+00;  9.9999998E-03; -2.6262677E-01;8489;  4.3947360E-01;  0.0000000E+00;  1.5372638E-01;  9.8849091E+02;  2.4710551E-01; -9.5262764E+03;3;  9.1334457E+01;  0.0000000E+00; -2.0697601E+01;0;  1.8232802E+00;  6.4937778E+03;  0.0000000E+00; -5.3936210E+00;  4.0000000E+04;  0.0000000E+00;  3.9306414E+04;  2.0925264E+00;  0.0000000E+00; -2.6924619E-01;  2.4903115E+04;
  1.3573020E+00;  9.9999998E-03; -2.1233819E-01;8555;  3.9450309E-01;  0.0000000E+00;  1.4663211E-01;  9.8906262E+02;  2.3347209E-01; -9.0500312E+03;3; -5.0175125E+01;  0.0000000E+00;  4.1361660E+01;0;  4.4227800E+00;  7.2979019E+03;  0.0000000E+00; -3.9752287E-01;  4.0000000E+04;  0.0000000E+00;  3.9260676E+04;  4.6934972E+00;  0.0000000E+00; -2.7071729E-01;  9.0772168E+03;
  1.3575007E+00;  9.9999998E-03; -2.0229392E-01;8556;  4.1761109E-01;  0.0000000E+00;  1.4003626E-01;  9.8954279E+02;  2.3344044E-01; -8.6526826E+03;3; -9.3422447E+01;  0.0000000E+00;  3.5258751E+01;0;  4.6923738E+00;  7.3096104E+03;  0.0000000E+00; -3.0422983E-01;  4.0000000E+04;  0.0000000E+00;  3.9250809E+04;  4.9819431E+00;  0.0000000E+00; -2.8956956E-01;  7.5761050E+03;
  1.3575439E+00;  9.9999998E-03; -2.2237478E-01;8554;  3.8942695E-01;  0.0000000E+00;  1.5237162E-01;  9.8875311E+02;  2.3332542E-01; -9.3060547E+03;3;  1.4015392E+01;  0.0000000E+00;  3.7590355E+01;0;  4.1734242E+00;  7.2985000E+03;  0.0000000E+00; -6.5961105E-01;  4.0000000E+04;  0.0000000E+00;  3.9271875E+04;  4.4420867E+00;  0.0000000E+00; -2.6866236E-01;  1.0920657E+04;
  1.3580586E+00;  9.9999998E-03; -1.9222614E-01;8557;  4.5033139E-01;  0.0000000E+00;  1.3354586E-01;  9.9016522E+02;  2.3326743E-01; -8.1375586E+03;3; -1.0878545E+02;  0.0000000E+00;  3.2942127E+01;0;  4.9763656E+00;  7.3314893E+03;  0.0000000E+00; -2.4985695E-01;  4.0000000E+04;  0.0000000E+00;  3.9239102E+04;  5.2938156E+00;  0.0000000E+00; -3.1745011E-01;  5.9419443E+03;
  1.3581072E+00;  9.9999998E-03; -2.3244426E-01;8553;  3.9550990E-01;  0.0000000E+00;  1.5598047E-01;  9.8853888E+02;  2.3305421E-01; -9.4832549E+03;3;  4.9766769E+01;  0.0000000E+00;  3.1599722E+01;0;  3.9382441E+00;  7.3077158E+03;  0.0000000E+00; -1.2709254E+00;  4.0000000E+04;  0.0000000E+00;  3.9281012E+04;  4.2259679E+00;  0.0000000E+00; -2.8772372E-01;  1.3144975E+04;
  1.3588256E+00;  9.9999998E-03; -1.8213722E-01;8558;  4.8508298E-01;  0.0000000E+00;  1.2643352E-01;  9.9087927E+02;  2.3301171E-01; -7.5466118E+03;3; -1.1884010E+02;  0.0000000E+00;  3.2758972E+01;0;  5.2631292E+00;  7.3597305E+03;  0.0000000E+00; -1.5845884E-01;  4.0000000E+04;  0.0000000E+00;  3.9224133E+04;  5.6110373E+00;  0.0000000E+00; -3.4790793E-01;  3.9925918E+03;
  1.3596632E+00;  9.9999998E-03; -1.7203544E-01;8559;  5.1818627E-01;  0.0000000E+00;  1.1905541E-01;  9.9163544E+02;  2.3271675E-01; -6.9208530E+03;3; -1.2773026E+02;  0.0000000E+00;  3.2589668E+01;0;  5.5413828E+00;  7.3909521E+03;  0.0000000E+00; -5.3010518E-03;  4.0000000E+04;  0.0000000E+00;  3.9207051E+04;  5.9182582E+00;  0.0000000E+00; -3.7687543E-01;  2.0456407E+03;
  1.3589151E+00;  9.9999998E-03; -2.4255064E-01;8552;  4.0529767E-01;  0.0000000E+00;  1.5902869E-01;  9.8827948E+02;  2.3269907E-01; -9.6977393E+03;3;  6.7395264E+01;  0.0000000E+00;  2.9125086E+01;0;  3.7068448E+00;  7.3231973E+03;  0.0000000E+00; -2.4409549E+00;  4.0000000E+04;  0.0000000E+00;  3.9280711E+04;  4.0441127E+00;  0.0000000E+00; -3.3726799E-01;  1.5888363E+04;
  1.3604522E+00;  9.9999998E-03; -1.6192459E-01;8560;  5.4852885E-01;  0.0000000E+00;  1.1169261E-01;  9.9237323E+02;  2.3242034E-01; -6.3103096E+03;3; -1.3591246E+02;  0.0000000E+00;  3.2120331E+01;0;  5.8026457E+00;  7.4217656E+03;  0.0000000E+00;  1.8889281E-01;  4.0000000E+04;  0.0000000E+00;  3.9189531E+04;  6.2045574E+00;  0.0000000E+00; -4.0191165E-01;  1.8419529E+03;
  1.3598052E+00;  9.9999998E-03; -2.5265846E-01;8551;  4.1588917E-01;  0.0000000E+00;  1.6291435E-01;  9.8796362E+02;  2.3233910E-01; -9.9589023E+03;3;  7.8672981E+01;  0.0000000E+00;  2.8163523E+01;0;  3.4556546E+00;  7.3403496E+03;  0.0000000E+00; -4.2944169E+00;  4.0000000E+04;  0.0000000E+00;  3.9274113E+04;  3.8878329E+00;  0.0000000E+00; -4.3217832E-01;  2.0535203E+04;
  1.3611403E+00;  9.9999998E-03; -1.5179443E-01;8561;  5.7566452E-01;  0.0000000E+00;  1.0461356E-01;  9.9305231E+02;  2.3214209E-01; -5.7483711E+03;3; -1.4392381E+02;  0.0000000E+00;  3.1323442E+01;0;  6.0438695E+00;  7.4499331E+03;  0.0000000E+00;  3.8753742E-01;  4.0000000E+04;  0.0000000E+00;  3.9173605E+04;  6.4661584E+00;  0.0000000E+00; -4.2228910E-01;  3.5139431E+03;
  1.3616115E+00;  9.9999998E-03; -1.1121902E-01;8565;  6.3926578E-01;  0.0000000E+00;  7.9711705E-02;  9.9434076E+02;  2.3200198E-01; -4.6822725E+03;3; -1.7652042E+02;  0.0000000E+00;  2.4358713E+01;0;  6.7708607E+00;  7.4761436E+03;  0.0000000E+00;  7.7314854E-01;  4.0000000E+04;  0.0000000E+00;  3.9137203E+04;  7.2502484E+00;  0.0000000E+00; -4.7938782E-01;  8.1172881E+03;
  1.3617133E+00;  9.9999998E-03; -1.2134388E-01;8564;  6.2722158E-01;  0.0000000E+00;  8.5956477E-02;  9.9422205E+02;  2.3192990E-01; -4.7804980E+03;3; -1.6846225E+02;  0.0000000E+00;  2.6485420E+01;0;  6.6200075E+00;  7.4794912E+03;  0.0000000E+00;  7.5178319E-01;  4.0000000E+04;  0.0000000E+00;  3.9143012E+04;  7.0863285E+00;  0.0000000E+00; -4.6632093E-01;  7.3651372E+03;
  1.3616151E+00;  9.9999998E-03; -1.4164746E-01;8562;  5.9808332E-01;  0.0000000E+00;  9.8083407E-02;  9.9360663E+02;  2.3194300E-01; -5.2896860E+03;3; -1.5191545E+02;  0.0000000E+00;  3.0236437E+01;0;  6.2608891E+00;  7.4707144E+03;  0.0000000E+00;  5.5684394E-01;  4.0000000E+04;  0.0000000E+00;  3.9160598E+04;  6.6995845E+00;  0.0000000E+00; -4.3869537E-01;  5.1478862E+03;
  1.3617640E+00;  9.9999998E-03; -1.3149689E-01;8563;  6.1440748E-01;  0.0000000E+00;  9.2023224E-02;  9.9399377E+02;  2.3188846E-01; -4.9693691E+03;3; -1.6014490E+02;  0.0000000E+00;  2.8515697E+01;0;  6.4512005E+00;  7.4793276E+03;  0.0000000E+00;  6.7940062E-01;  4.0000000E+04;  0.0000000E+00;  3.9150531E+04;  6.9041114E+00;  0.0000000E+00; -4.5291090E-01;  6.4154995E+03;
  1.3607361E+00;  9.9999998E-03; -2.6274645E-01;8550;  4.2696768E-01;  0.0000000E+00;  1.6726597E-01;  9.8768549E+02;  2.3198442E-01; -1.0188827E+04;3;  8.8517937E+01;  0.0000000E+00;  2.4015011E+01;0;  3.1734345E+00;  7.3577075E+03;  0.0000000E+00; -6.7074285E+00;  4.0000000E+04;  0.0000000E+00;  3.9273148E+04;  3.7551041E+00;  0.0000000E+00; -5.8166957E-01;  2.7443199E+04;
  1.3804661E+00;  9.9999998E-03; -2.0236374E-01;8617;  6.2572646E-01;  0.0000000E+00;  9.8229513E-02;  9.9148883E+02;  2.1889074E-01; -7.0388223E+03;3; -1.3417570E+02;  0.0000000E+00;  4.4128330E+01;0;  5.8029323E+00;  8.3511709E+03;  0.0000000E+00;  2.1608238E-01;  4.0000000E+04;  0.0000000E+00;  3.9234523E+04;  6.1337943E+00;  0.0000000E+00; -3.3086216E-01;  3.8454473E+03;
  1.3804803E+00;  9.9999998E-03; -2.1240768E-01;8616;  5.9705395E-01;  0.0000000E+00;  1.0206692E-01;  9.9078821E+02;  2.1887888E-01; -7.6182158E+03;3; -1.3118750E+02;  0.0000000E+00;  4.4810574E+01;0;  5.6413007E+00;  8.3365410E+03;  0.0000000E+00; -1.3761565E-01;  4.0000000E+04;  0.0000000E+00;  3.9244938E+04;  5.9633050E+00;  0.0000000E+00; -3.2200420E-01;  5.8339346E+03;
  1.3807528E+00;  9.9999998E-03; -1.9229464E-01;8618;  6.5788698E-01;  0.0000000E+00;  9.3561634E-02;  9.9238037E+02;  2.1877994E-01; -6.3014414E+03;3; -1.3755338E+02;  0.0000000E+00;  4.3578003E+01;0;  5.9660430E+00;  8.3774053E+03;  0.0000000E+00;  4.0480316E-01;  4.0000000E+04;  0.0000000E+00;  3.9222383E+04;  6.3082943E+00;  0.0000000E+00; -3.4225148E-01;  2.0393337E+03;
  1.3807870E+00;  9.9999998E-03; -2.2244951E-01;8615;  5.7184249E-01;  0.0000000E+00;  1.0530504E-01;  9.9029999E+02;  2.1875161E-01; -8.0219136E+03;3; -1.2855984E+02;  0.0000000E+00;  4.6364975E+01;0;  5.4854112E+00;  8.3329531E+03;  0.0000000E+00; -8.0860782E-01;  4.0000000E+04;  0.0000000E+00;  3.9255582E+04;  5.8042927E+00;  0.0000000E+00; -3.1888160E-01;  8.5331523E+03;
  1.3813499E+00;  9.9999998E-03; -1.8219860E-01;8619;  6.9304442E-01;  0.0000000E+00;  8.7905489E-02;  9.9339832E+02;  2.1853335E-01; -5.4595249E+03;3; -1.4128262E+02;  0.0000000E+00;  4.2487518E+01;0;  6.1250196E+00;  8.4159111E+03;  0.0000000E+00;  5.2609801E-01;  4.0000000E+04;  0.0000000E+00;  3.9207344E+04;  6.4783392E+00;  0.0000000E+00; -3.5331953E-01;  1.0332698E+03;
  1.3813530E+00;  9.9999998E-03; -2.3252074E-01;8614;  5.4919302E-01;  0.0000000E+00;  1.0810339E-01;  9.8996960E+02;  2.1852309E-01; -8.2950195E+03;3; -1.2691272E+02;  0.0000000E+00;  4.7584953E+01;0;  5.3366361E+00;  8.3392764E+03;  0.0000000E+00; -2.0120733E+00;  4.0000000E+04;  0.0000000E+00;  3.9263699E+04;  5.6616940E+00;  0.0000000E+00; -3.2505804E-01;  1.2470624E+04;
  1.3820990E+00;  9.9999998E-03; -2.4262458E-01;8613;  5.2856296E-01;  0.0000000E+00;  1.1128970E-01;  9.8965985E+02;  2.1822409E-01; -8.5510186E+03;3; -1.2619510E+02;  0.0000000E+00;  4.7131069E+01;0;  5.1894569E+00;  8.3530449E+03;  0.0000000E+00; -3.9935455E+00;  4.0000000E+04;  0.0000000E+00;  3.9262504E+04;  5.5367022E+00;  0.0000000E+00; -3.4724540E-01;  1.8468953E+04;
  1.3821219E+00;  9.9999998E-03; -1.7208324E-01;8620;  7.2923756E-01;  0.0000000E+00;  8.1453979E-02;  9.9449097E+02;  2.1820849E-01; -4.5558018E+03;3; -1.4455521E+02;  0.0000000E+00;  4.1361393E+01;0;  6.2711458E+00;  8.4615273E+03;  0.0000000E+00;  6.2622184E-01;  4.0000000E+04;  0.0000000E+00;  3.9189898E+04;  6.6330023E+00;  0.0000000E+00; -3.6185664E-01;  2.9045618E+03;
  1.3828571E+00;  9.9999998E-03; -2.5273719E-01;8612;  5.0870192E-01;  0.0000000E+00;  1.1590195E-01;  9.8929993E+02;  2.1791948E-01; -8.8484561E+03;3; -1.2587794E+02;  0.0000000E+00;  4.6087132E+01;0;  5.0272598E+00;  8.3693828E+03;  0.0000000E+00; -6.8476710E+00;  4.0000000E+04;  0.0000000E+00;  3.9251918E+04;  5.4238901E+00;  0.0000000E+00; -3.9663026E-01;  2.7379926E+04;
  1.3829163E+00;  9.9999998E-03; -1.6196065E-01;8621;  7.6418948E-01;  0.0000000E+00;  7.4883275E-02;  9.9556653E+02;  2.1786164E-01; -3.6662598E+03;3; -1.4737592E+02;  0.0000000E+00;  3.9882137E+01;0;  6.3990831E+00;  8.5080195E+03;  0.0000000E+00;  7.0820618E-01;  4.0000000E+04;  0.0000000E+00;  3.9172461E+04;  6.7659144E+00;  0.0000000E+00; -3.6683136E-01;  5.1845151E+03;
  1.3835471E+00;  9.9999998E-03; -2.6283857E-01;8611;  4.9093559E-01;  0.0000000E+00;  1.2276127E-01;  9.8889984E+02;  2.1762082E-01; -9.1791670E+03;3; -1.2579823E+02;  0.0000000E+00;  4.1150642E+01;0;  4.8260598E+00;  8.3865127E+03;  0.0000000E+00; -1.0294165E+01;  4.0000000E+04;  0.0000000E+00;  3.9239227E+04;  5.3198838E+00;  0.0000000E+00; -4.9382401E-01;  3.8324645E+04;
  1.3836278E+00;  9.9999998E-03; -1.5182741E-01;8622;  7.9611772E-01;  0.0000000E+00;  6.8814635E-02;  9.9656049E+02;  2.1754275E-01; -2.8442390E+03;3; -1.5008083E+02;  0.0000000E+00;  3.8556820E+01;0;  6.5082159E+00;  8.5505908E+03;  0.0000000E+00;  7.5652254E-01;  4.0000000E+04;  0.0000000E+00;  3.9156625E+04;  6.8766794E+00;  0.0000000E+00; -3.6846337E-01;  7.2679336E+03;
  1.3840758E+00;  9.9999998E-03; -1.4168061E-01;8623;  8.2240927E-01;  0.0000000E+00;  6.3816138E-02;  9.9738483E+02;  2.1734203E-01; -2.1625408E+03;3; -1.5320786E+02;  0.0000000E+00;  3.6948841E+01;0;  6.6011357E+00;  8.5803096E+03;  0.0000000E+00;  7.5698936E-01;  4.0000000E+04;  0.0000000E+00;  3.9143695E+04;  6.9695802E+00;  0.0000000E+00; -3.6844423E-01;  8.9701934E+03;
  1.3840535E+00;  9.9999998E-03; -1.1131155E-01;8626;  8.7469661E-01;  0.0000000E+00;  5.1635642E-02;  9.9863342E+02;  2.1742922E-01; -1.1300422E+03;3; -1.6373134E+02;  0.0000000E+00;  3.0369452E+01;0;  6.8185945E+00;  8.5935059E+03;  0.0000000E+00;  5.9401518E-01;  4.0000000E+04;  0.0000000E+00;  3.9120344E+04;  7.1896925E+00;  0.0000000E+00; -3.7109822E-01;  1.2010074E+04;
  1.3842001E+00;  9.9999998E-03; -1.2140630E-01;8625;  8.6017442E-01;  0.0000000E+00;  5.5606533E-02;  9.9839764E+02;  2.1732521E-01; -1.3250229E+03;3; -1.6025668E+02;  0.0000000E+00;  3.2742664E+01;0;  6.7546039E+00;  8.5979648E+03;  0.0000000E+00;  6.5985590E-01;  4.0000000E+04;  0.0000000E+00;  3.9126133E+04;  7.1238627E+00;  0.0000000E+00; -3.6925888E-01;  1.1244234E+04;
  1.3842460E+00;  9.9999998E-03; -1.3153204E-01;8624;  8.4333158E-01;  0.0000000E+00;  5.9548710E-02;  9.9799567E+02;  2.1727736E-01; -1.6574225E+03;3; -1.5665436E+02;  0.0000000E+00;  3.4908745E+01;0;  6.6822958E+00;  8.5953477E+03;  0.0000000E+00;  7.1838051E-01;  4.0000000E+04;  0.0000000E+00;  3.9133762E+04;  7.0506902E+00;  0.0000000E+00; -3.6839423E-01;  1.0270650E+04;
  1.4016656E+00;  9.9999998E-03; -2.0238823E-01;8678;  8.2947081E-01;  0.0000000E+00;  5.6273934E-02;  9.9428284E+02;  2.0549217E-01; -4.7250015E+03;3; -1.4281035E+02;  0.0000000E+00;  5.0268353E+01;0;  6.1850209E+00;  9.5351777E+03;  0.0000000E+00;  6.7566985E-01;  4.0000000E+04;  0.0000000E+00;  3.9217535E+04;  6.5075779E+00;  0.0000000E+00; -3.2255706E-01;  1.1048160E+03;
  1.4018006E+00;  9.9999998E-03; -2.1242674E-01;8677;  8.0665547E-01;  0.0000000E+00;  5.9212610E-02;  9.9357550E+02;  2.0548254E-01; -5.3095542E+03;3; -1.4355591E+02;  0.0000000E+00;  5.0496590E+01;0;  6.1405697E+00;  9.5174365E+03;  0.0000000E+00;  5.3479906E-02;  4.0000000E+04;  0.0000000E+00;  3.9228266E+04;  6.4675565E+00;  0.0000000E+00; -3.2698679E-01;  3.1221455E+03;
  1.4018795E+00;  9.9999998E-03; -1.9232364E-01;8679;  8.5705656E-01;  0.0000000E+00;  5.2730259E-02;  9.9521564E+02;  2.0536220E-01; -3.9540386E+03;3; -1.4212117E+02;  0.0000000E+00;  4.9503605E+01;0;  6.2202382E+00;  9.5687139E+03;  0.0000000E+00;  9.7057831E-01;  4.0000000E+04;  0.0000000E+00;  3.9206289E+04;  6.5378528E+00;  0.0000000E+00; -3.1761450E-01;  1.9656116E+03;
  1.4022727E+00;  9.9999998E-03; -2.2247311E-01;8676;  7.8929460E-01;  0.0000000E+00;  6.1956685E-02;  9.9310187E+02;  2.0534241E-01; -5.7008799E+03;3; -1.4412349E+02;  0.0000000E+00;  5.1229263E+01;0;  6.0916324E+00;  9.5147754E+03;  0.0000000E+00; -1.1156909E+00;  4.0000000E+04;  0.0000000E+00;  3.9238961E+04;  6.4245586E+00;  0.0000000E+00; -3.3292636E-01;  7.0522939E+03;
  1.4023652E+00;  9.9999998E-03; -1.8222961E-01;8680;  8.8798994E-01;  0.0000000E+00;  4.8430681E-02;  9.9629376E+02;  2.0512800E-01; -3.0629607E+03;3; -1.4094142E+02;  0.0000000E+00;  4.8691174E+01;0;  6.2411914E+00;  9.6144053E+03;  0.0000000E+00;  1.0742441E+00;  4.0000000E+04;  0.0000000E+00;  3.9192441E+04;  6.5520339E+00;  0.0000000E+00; -3.1084251E-01;  3.8383000E+03;
  1.4029928E+00;  9.9999998E-03; -2.3255533E-01;8675;  7.7546811E-01;  0.0000000E+00;  6.4824045E-02;  9.9277094E+02;  2.0510744E-01; -5.9742603E+03;3; -1.4489862E+02;  0.0000000E+00;  5.2115166E+01;0;  6.0407691E+00;  9.5241064E+03;  0.0000000E+00; -3.1608357E+00;  4.0000000E+04;  0.0000000E+00;  3.9245598E+04;  6.3836021E+00;  0.0000000E+00; -3.4283304E-01;  1.3604529E+04;
  1.4037718E+00;  9.9999998E-03; -2.4266113E-01;8674;  7.6159817E-01;  0.0000000E+00;  6.8506487E-02;  9.9245660E+02;  2.0483887E-01; -6.2338179E+03;3; -1.4586906E+02;  0.0000000E+00;  5.2490704E+01;0;  5.9848094E+00;  9.5389746E+03;  0.0000000E+00; -6.4239101E+00;  4.0000000E+04;  0.0000000E+00;  3.9244242E+04;  6.3456597E+00;  0.0000000E+00; -3.6085042E-01;  2.4150141E+04;
  1.4030135E+00;  9.9999998E-03; -1.7211030E-01;8681;  9.2028433E-01;  0.0000000E+00;  4.3526966E-02;  9.9744855E+02;  2.0483314E-01; -2.1085549E+03;3; -1.3899695E+02;  0.0000000E+00;  4.7634846E+01;0;  6.2454433E+00;  9.6668691E+03;  0.0000000E+00;  1.0733236E+00;  4.0000000E+04;  0.0000000E+00;  3.9176383E+04;  6.5470710E+00;  0.0000000E+00; -3.0162755E-01;  5.9544229E+03;
  1.4044087E+00;  9.9999998E-03; -2.5277501E-01;8673;  7.4283206E-01;  0.0000000E+00;  7.4018985E-02;  9.9207404E+02;  2.0458761E-01; -6.5498413E+03;3; -1.4726501E+02;  0.0000000E+00;  5.3443436E+01;0;  5.9119554E+00;  9.5540234E+03;  0.0000000E+00; -1.0968096E+01;  4.0000000E+04;  0.0000000E+00;  3.9233887E+04;  6.3080549E+00;  0.0000000E+00; -3.9609966E-01;  3.9087980E+04;
  1.4036827E+00;  9.9999998E-03; -1.6196840E-01;8682;  9.5142847E-01;  0.0000000E+00;  3.8682345E-02;  9.9858264E+02;  2.0453307E-01; -1.1712861E+03;3; -1.3691495E+02;  0.0000000E+00;  4.6563564E+01;0;  6.2347465E+00;  9.7190566E+03;  0.0000000E+00;  1.0151098E+00;  4.0000000E+04;  0.0000000E+00;  3.9159703E+04;  6.5249982E+00;  0.0000000E+00; -2.9025173E-01;  8.0947173E+03;
  1.4047869E+00;  9.9999998E-03; -2.6288599E-01;8672;  7.1485406E-01;  0.0000000E+00;  8.2064673E-02;  9.9156824E+02;  2.0435804E-01; -6.9677256E+03;3; -1.5036136E+02;  0.0000000E+00;  5.3034954E+01;0;  5.8020196E+00;  9.5681025E+03;  0.0000000E+00; -1.6146420E+01;  4.0000000E+04;  0.0000000E+00;  3.9216555E+04;  6.2669826E+00;  0.0000000E+00; -4.6496308E-01;  5.5838777E+04;
  1.4042233E+00;  9.9999998E-03; -1.5181699E-01;8683;  9.7926509E-01;  0.0000000E+00;  3.4422353E-02;  9.9961383E+02;  2.0429641E-01; -3.1913068E+02;3; -1.3490337E+02;  0.0000000E+00;  4.5213825E+01;0;  6.2147026E+00;  9.7626602E+03;  0.0000000E+00;  9.1403425E-01;  4.0000000E+04;  0.0000000E+00;  3.9144891E+04;  6.4926028E+00;  0.0000000E+00; -2.7790025E-01;  1.0027461E+04;
  1.4045737E+00;  9.9999998E-03; -1.4166942E-01;8684;  1.0031489E+00;  0.0000000E+00;  3.0946035E-02;  1.0004834E+03;  2.0415589E-01;  3.9946216E+02;3; -1.3326668E+02;  0.0000000E+00;  4.3789120E+01;0;  6.1909313E+00;  9.7932930E+03;  0.0000000E+00;  7.7287918E-01;  4.0000000E+04;  0.0000000E+00;  3.9132754E+04;  6.4568658E+00;  0.0000000E+00; -2.6593447E-01;  1.1612724E+04;
  1.4047256E+00;  9.9999998E-03; -1.1137462E-01;8687;  1.0553758E+00;  0.0000000E+00;  2.3377057E-02;  1.0018511E+03;  2.0421378E-01;  1.5296700E+03;3; -1.3016740E+02;  0.0000000E+00;  3.8831081E+01;0;  6.1230831E+00;  9.8141387E+03;  0.0000000E+00;  3.0913651E-01;  4.0000000E+04;  0.0000000E+00;  3.9110598E+04;  6.3616047E+00;  0.0000000E+00; -2.3852137E-01;  1.4491024E+04;
  1.4047379E+00;  9.9999998E-03; -1.3154830E-01;8685;  1.0233040E+00;  0.0000000E+00;  2.8108669E-02;  1.0011470E+03;  2.0411448E-01;  9.4786700E+02;3; -1.3205386E+02;  0.0000000E+00;  4.2367691E+01;0;  6.1672463E+00;  9.8100381E+03;  0.0000000E+00;  6.0708117E-01;  4.0000000E+04;  0.0000000E+00;  3.9123574E+04;  6.4225607E+00;  0.0000000E+00; -2.5531447E-01;  1.2834248E+04;
  1.4047686E+00;  9.9999998E-03; -1.2145494E-01;8686;  1.0404788E+00;  0.0000000E+00;  2.5659129E-02;  1.0015876E+03;  2.0414445E-01;  1.3119600E+03;3; -1.3109192E+02;  0.0000000E+00;  4.0709476E+01;0;  6.1448402E+00;  9.8156621E+03;  0.0000000E+00;  4.4542679E-01;  4.0000000E+04;  0.0000000E+00;  3.9116230E+04;  6.3910756E+00;  0.0000000E+00; -2.4623518E-01;  1.3760800E+04;
  1.4216297E+00;  9.9999998E-03; -2.0234278E-01;8739;  1.0036713E+00;  0.0000000E+00;  1.7970931E-02;  9.9723859E+02;  1.9327784E-01; -2.2802703E+03;3; -1.2957336E+02;  0.0000000E+00;  5.3276188E+01;0;  5.9086142E+00;  1.0846716E+04;  0.0000000E+00;  8.8311929E-01;  4.0000000E+04;  0.0000000E+00;  3.9204523E+04;  6.1859908E+00;  0.0000000E+00; -2.7737668E-01;  3.0354336E+03;
  1.4215546E+00;  9.9999998E-03; -1.9228406E-01;8740;  1.0221598E+00;  0.0000000E+00;  1.5656404E-02;  9.9797382E+02;  1.9324960E-01; -1.6731591E+03;3; -1.2645042E+02;  0.0000000E+00;  5.2524487E+01;0;  5.8460302E+00;  1.0870538E+04;  0.0000000E+00;  1.2416906E+00;  4.0000000E+04;  0.0000000E+00;  3.9193164E+04;  6.1053004E+00;  0.0000000E+00; -2.5927004E-01;  4.5964336E+03;
  1.4220582E+00;  9.9999998E-03; -2.1238680E-01;8738;  9.9074084E-01;  0.0000000E+00;  2.0067334E-02;  9.9669519E+02;  1.9318374E-01; -2.7289429E+03;3; -1.3134650E+02;  0.0000000E+00;  5.4114666E+01;0;  5.9547071E+00;  1.0839515E+04;  0.0000000E+00;  2.9521352E-02;  4.0000000E+04;  0.0000000E+00;  3.9215355E+04;  6.2485304E+00;  0.0000000E+00; -2.9382345E-01;  2.8552976E+03;
  1.4218010E+00;  9.9999998E-03; -1.8219820E-01;8741;  1.0448203E+00;  0.0000000E+00;  1.2779893E-02;  9.9886951E+02;  1.9311023E-01; -9.3353015E+02;3; -1.2228718E+02;  0.0000000E+00;  5.1486397E+01;0;  5.7647114E+00;  1.0909660E+04;  0.0000000E+00;  1.3068094E+00;  4.0000000E+04;  0.0000000E+00;  3.9180645E+04;  6.0037961E+00;  0.0000000E+00; -2.3908496E-01;  6.2553013E+03;
  1.4227867E+00;  9.9999998E-03; -2.2244723E-01;8737;  9.8348969E-01;  0.0000000E+00;  2.2045100E-02;  9.9633374E+02;  1.9299001E-01; -3.0272913E+03;3; -1.3223454E+02;  0.0000000E+00;  5.5059895E+01;0;  5.9894419E+00;  1.0846213E+04;  0.0000000E+00; -1.6672307E+00;  4.0000000E+04;  0.0000000E+00;  3.9226336E+04;  6.2985830E+00;  0.0000000E+00; -3.0914125E-01;  7.3247417E+03;
  1.4222677E+00;  9.9999998E-03; -1.7208606E-01;8742;  1.0696594E+00;  0.0000000E+00;  9.4576050E-03;  9.9985052E+02;  1.9289960E-01; -1.2343753E+02;3; -1.1700150E+02;  0.0000000E+00;  5.0315670E+01;0;  5.6661611E+00;  1.0958200E+04;  0.0000000E+00;  1.2070312E+00;  4.0000000E+04;  0.0000000E+00;  3.9166039E+04;  5.8833113E+00;  0.0000000E+00; -2.1715009E-01;  8.0756353E+03;
  1.4236157E+00;  9.9999998E-03; -2.3254576E-01;8736;  9.7845542E-01;  0.0000000E+00;  2.4409000E-02;  9.9599298E+02;  1.9276354E-01; -3.3085225E+03;3; -1.3296191E+02;  0.0000000E+00;  5.5084877E+01;0;  6.0200338E+00;  1.0858535E+04;  0.0000000E+00; -4.7255139E+00;  4.0000000E+04;  0.0000000E+00;  3.9231988E+04;  6.3442011E+00;  0.0000000E+00; -3.2416722E-01;  1.6606113E+04;
  1.4227774E+00;  9.9999998E-03; -1.6194524E-01;8743;  1.0941268E+00;  0.0000000E+00;  6.1553172E-03;  1.0008369E+03;  1.9269079E-01;  6.9099640E+02;3; -1.1139046E+02;  0.0000000E+00;  4.9076313E+01;0;  5.5577359E+00;  1.1006219E+04;  0.0000000E+00;  1.0324556E+00;  4.0000000E+04;  0.0000000E+00;  3.9150902E+04;  5.7523527E+00;  0.0000000E+00; -1.9461669E-01;  9.9680674E+03;
  1.4242264E+00;  9.9999998E-03; -2.4266416E-01;8735;  9.6906769E-01;  0.0000000E+00;  2.7726710E-02;  9.9557892E+02;  1.9260617E-01; -3.6502510E+03;3; -1.3573898E+02;  0.0000000E+00;  5.6247223E+01;0;  6.0530100E+00;  1.0864137E+04;  0.0000000E+00; -9.4930305E+00;  4.0000000E+04;  0.0000000E+00;  3.9229246E+04;  6.3921304E+00;  0.0000000E+00; -3.3912045E-01;  3.1491469E+04;
  1.4241875E+00;  9.9999998E-03; -2.6290345E-01;8733;  9.0914959E-01;  0.0000000E+00;  4.1528653E-02;  9.9450958E+02;  1.9249210E-01; -4.5331841E+03;3; -1.5331120E+02;  0.0000000E+00;  5.8218983E+01;0;  6.0867801E+00;  1.0856629E+04;  0.0000000E+00; -2.1835964E+01;  4.0000000E+04;  0.0000000E+00;  3.9200922E+04;  6.4869738E+00;  0.0000000E+00; -4.0019390E-01;  6.9428688E+04;
  1.4244438E+00;  9.9999998E-03; -2.5278631E-01;8734;  9.4798213E-01;  0.0000000E+00;  3.2904472E-02;  9.9506116E+02;  1.9252846E-01; -4.0777163E+03;3; -1.4223254E+02;  0.0000000E+00;  5.6770977E+01;0;  6.0835724E+00;  1.0861686E+04;  0.0000000E+00; -1.5698111E+01;  4.0000000E+04;  0.0000000E+00;  3.9218102E+04;  6.4418731E+00;  0.0000000E+00; -3.5830092E-01;  5.1067516E+04;
  1.4231572E+00;  9.9999998E-03; -1.5178348E-01;8744;  1.1162319E+00;  0.0000000E+00;  3.3554935E-03;  1.0017466E+03;  1.9255318E-01;  1.4421075E+03;3; -1.0592269E+02;  0.0000000E+00;  4.7656727E+01;0;  5.4497905E+00;  1.1043587E+04;  0.0000000E+00;  8.3350980E-01;  4.0000000E+04;  0.0000000E+00;  3.9136984E+04;  5.6229548E+00;  0.0000000E+00; -1.7316417E-01;  1.1727211E+04;
  1.4234328E+00;  9.9999998E-03; -1.4164488E-01;8745;  1.1357981E+00;  0.0000000E+00;  1.0354611E-03;  1.0025223E+03;  1.9247344E-01;  2.0826653E+03;3; -1.0071840E+02;  0.0000000E+00;  4.6388424E+01;0;  5.3448253E+00;  1.1070779E+04;  0.0000000E+00;  6.2550515E-01;  4.0000000E+04;  0.0000000E+00;  3.9125543E+04;  5.4983344E+00;  0.0000000E+00; -1.5350901E-01;  1.3192376E+04;
  1.4236598E+00;  9.9999998E-03; -1.3153286E-01;8746;  1.1530408E+00;  0.0000000E+00; -9.5985236E-04;  1.0031243E+03;  1.9242476E-01;  2.5796055E+03;3; -9.5703903E+01;  0.0000000E+00;  4.5191856E+01;0;  5.2425270E+00;  1.1090189E+04;  0.0000000E+00;  4.1665933E-01;  4.0000000E+04;  0.0000000E+00;  3.9116629E+04;  5.3781471E+00;  0.0000000E+00; -1.3562009E-01;  1.4331507E+04;
  1.4238518E+00;  9.9999998E-03; -1.2144041E-01;8747;  1.1679819E+00;  0.0000000E+00; -2.6816949E-03;  1.0035373E+03;  1.9239651E-01;  2.9206304E+03;3; -9.0880798E+01;  0.0000000E+00;  4.4206051E+01;0;  5.1440835E+00;  1.1102860E+04;  0.0000000E+00;  2.2852282E-01;  4.0000000E+04;  0.0000000E+00;  3.9110102E+04;  5.2633867E+00;  0.0000000E+00; -1.1930307E-01;  1.5188460E+04;
  1.4239908E+00;  9.9999998E-03; -1.1135934E-01;8748;  1.1805568E+00;  0.0000000E+00; -4.1662031E-03;  1.0037653E+03;  1.9239531E-01;  3.1088999E+03;3; -8.6403275E+01;  0.0000000E+00;  4.3448563E+01;0;  5.0520139E+00;  1.1108654E+04;  0.0000000E+00;  8.0386430E-02;  4.0000000E+04;  0.0000000E+00;  3.9104996E+04;  5.1565475E+00;  0.0000000E+00; -1.0453358E-01;  1.5840104E+04;
  1.4399205E+00;  9.9999998E-03; -1.9222751E-01;8801;  1.1468086E+00;  0.0000000E+00; -1.4488324E-02;  1.0002879E+03;  1.8256392E-01;  2.3748283E+02;3; -9.8704811E+01;  0.0000000E+00;  5.0164951E+01;0;  5.0825777E+00;  1.2239138E+04;  0.0000000E+00;  1.2611746E+00;  4.0000000E+04;  0.0000000E+00;  3.9182512E+04;  5.2665677E+00;  0.0000000E+00; -1.8398982E-01;  6.3839082E+03;
  1.4399540E+00;  9.9999998E-03; -1.8215239E-01;8802;  1.1613814E+00;  0.0000000E+00; -1.5981622E-02;  1.0008815E+03;  1.8251090E-01;  7.2709906E+02;3; -9.2882774E+01;  0.0000000E+00;  4.9148525E+01;0;  4.9466677E+00;  1.2265616E+04;  0.0000000E+00;  1.2835895E+00;  4.0000000E+04;  0.0000000E+00;  3.9171176E+04;  5.1015844E+00;  0.0000000E+00; -1.5491663E-01;  7.7877222E+03;
  1.4402374E+00;  9.9999998E-03; -2.0228007E-01;8800;  1.1363294E+00;  0.0000000E+00; -1.3227922E-02;  9.9982526E+02;  1.8251431E-01; -1.4415848E+02;3; -1.0289572E+02;  0.0000000E+00;  5.1061249E+01;0;  5.1971812E+00;  1.2228949E+04;  0.0000000E+00;  9.0080035E-01;  4.0000000E+04;  0.0000000E+00;  3.9193285E+04;  5.4082947E+00;  0.0000000E+00; -2.1111324E-01;  4.8697954E+03;
  1.4402078E+00;  9.9999998E-03; -1.7204967E-01;8803;  1.1780006E+00;  0.0000000E+00; -1.7770324E-02;  1.0015696E+03;  1.8240240E-01;  1.2947737E+03;3; -8.5930290E+01;  0.0000000E+00;  4.7965763E+01;0;  4.7957668E+00;  1.2301227E+04;  0.0000000E+00;  1.1082823E+00;  4.0000000E+04;  0.0000000E+00;  3.9158203E+04;  4.9207764E+00;  0.0000000E+00; -1.2500966E-01;  9.2872559E+03;
  1.4409144E+00;  9.9999998E-03; -2.1233194E-01;8799;  1.1313987E+00;  0.0000000E+00; -1.1783757E-02;  9.9950549E+02;  1.8235916E-01; -4.0787378E+02;3; -1.0528979E+02;  0.0000000E+00;  5.2154827E+01;0;  5.2914858E+00;  1.2234892E+04;  0.0000000E+00; -3.7710570E-02;  4.0000000E+04;  0.0000000E+00;  3.9204656E+04;  5.5276790E+00;  0.0000000E+00; -2.3619303E-01;  3.9053176E+03;
  1.4405224E+00;  9.9999998E-03; -1.6191642E-01;8804;  1.1947739E+00;  0.0000000E+00; -1.9537115E-02;  1.0022798E+03;  1.8229870E-01;  1.8805155E+03;3; -7.8405914E+01;  0.0000000E+00;  4.6697392E+01;0;  4.6395121E+00;  1.2336424E+04;  0.0000000E+00;  8.5083735E-01;  4.0000000E+04;  0.0000000E+00;  3.9144613E+04;  4.7353549E+00;  0.0000000E+00; -9.5842615E-02;  1.0911329E+04;
  1.4408182E+00;  9.9999998E-03; -1.5176153E-01;8805;  1.2104195E+00;  0.0000000E+00; -2.1131614E-02;  1.0029637E+03;  1.8221995E-01;  2.4446033E+03;3; -7.0735359E+01;  0.0000000E+00;  4.5629337E+01;0;  4.4846087E+00;  1.2366742E+04;  0.0000000E+00;  5.9682137E-01;  4.0000000E+04;  0.0000000E+00;  3.9131508E+04;  4.5532537E+00;  0.0000000E+00; -6.8644792E-02;  1.2495634E+04;
  1.4411262E+00;  9.9999998E-03; -1.4160722E-01;8806;  1.2245412E+00;  0.0000000E+00; -2.2622343E-02;  1.0035720E+03;  1.8214621E-01;  2.9463262E+03;3; -6.3041759E+01;  0.0000000E+00;  4.4561207E+01;0;  4.3316326E+00;  1.2393970E+04;  0.0000000E+00;  3.7873146E-01;  4.0000000E+04;  0.0000000E+00;  3.9120719E+04;  4.3753972E+00;  0.0000000E+00; -4.3764547E-02;  1.3855876E+04;
  1.4418222E+00;  9.9999998E-03; -2.2241433E-01;8798;  1.1313587E+00;  0.0000000E+00; -1.0062452E-02;  9.9918451E+02;  1.8213782E-01; -6.7263696E+02;3; -1.0652348E+02;  0.0000000E+00;  5.3280499E+01;0;  5.3739853E+00;  1.2250584E+04;  0.0000000E+00; -2.0543578E+00;  4.0000000E+04;  0.0000000E+00;  3.9214527E+04;  5.6334295E+00;  0.0000000E+00; -2.5944427E-01;  7.8253706E+03;
  1.4414538E+00;  9.9999998E-03; -1.3147470E-01;8807;  1.2367709E+00;  0.0000000E+00; -2.3996109E-02;  1.0040611E+03;  1.8206781E-01;  3.3496978E+03;3; -5.5456074E+01;  0.0000000E+00;  4.3632912E+01;0;  4.1823292E+00;  1.2417682E+04;  0.0000000E+00;  1.9680902E-01;  4.0000000E+04;  0.0000000E+00;  3.9112406E+04;  4.2034898E+00;  0.0000000E+00; -2.1160662E-02;  1.4916099E+04;
  1.4421177E+00;  9.9999998E-03; -2.6289988E-01;8794;  1.0666490E+00;  0.0000000E+00;  8.2244314E-03;  9.9693762E+02;  1.8200934E-01; -2.5258049E+03;3; -1.3714020E+02;  0.0000000E+00;  5.7520939E+01;0;  5.8083010E+00;  1.2213531E+04;  0.0000000E+00; -2.4879686E+01;  4.0000000E+04;  0.0000000E+00;  3.9193059E+04;  6.1466908E+00;  0.0000000E+00; -3.3838999E-01;  7.1005727E+04;
  1.4417591E+00;  9.9999998E-03; -1.2136713E-01;8808;  1.2468382E+00;  0.0000000E+00; -2.5267057E-02;  1.0043829E+03;  1.8200372E-01;  3.6151069E+03;3; -4.8285954E+01;  0.0000000E+00;  4.2895233E+01;0;  4.0410085E+00;  1.2435464E+04;  0.0000000E+00;  5.5980936E-02;  4.0000000E+04;  0.0000000E+00;  3.9106188E+04;  4.0417304E+00;  0.0000000E+00; -7.2212657E-04;  1.5690602E+04;
  1.4426756E+00;  9.9999998E-03; -2.3252606E-01;8797;  1.1318018E+00;  0.0000000E+00; -8.3202794E-03;  9.9871722E+02;  1.8193202E-01; -1.0579591E+03;3; -1.0841277E+02;  0.0000000E+00;  5.4155380E+01;0;  5.4612494E+00;  1.2263517E+04;  0.0000000E+00; -5.9151711E+00;  4.0000000E+04;  0.0000000E+00;  3.9218707E+04;  5.7403579E+00;  0.0000000E+00; -2.7910876E-01;  1.8541158E+04;
  1.4429249E+00;  9.9999998E-03; -2.5277486E-01;8795;  1.1056188E+00;  0.0000000E+00; -1.2906523E-03;  9.9740771E+02;  1.8187752E-01; -2.1379548E+03;3; -1.2098283E+02;  0.0000000E+00;  5.5616631E+01;0;  5.7000337E+00;  1.2239275E+04;  0.0000000E+00; -1.9270340E+01;  4.0000000E+04;  0.0000000E+00;  3.9208504E+04;  6.0029101E+00;  0.0000000E+00; -3.0287632E-01;  5.6699652E+04;
  1.4420072E+00;  9.9999998E-03; -1.1127133E-01;8809;  1.2547655E+00;  0.0000000E+00; -2.6311185E-02;  1.0045466E+03;  1.8196210E-01;  3.7499468E+03;3; -4.1742348E+01;  0.0000000E+00;  4.1030796E+01;0;  3.9111211E+00;  1.2445982E+04;  0.0000000E+00; -3.8937807E-02;  4.0000000E+04;  0.0000000E+00;  3.9101715E+04;  3.8934534E+00;  0.0000000E+00;  1.7667741E-02;  1.6239243E+04;
  1.4430948E+00;  9.9999998E-03; -2.4264823E-01;8796;  1.1259141E+00;  0.0000000E+00; -6.1567589E-03;  9.9808527E+02;  1.8184058E-01; -1.5791515E+03;3; -1.1235647E+02;  0.0000000E+00;  5.5421860E+01;0;  5.5724964E+00;  1.2259241E+04;  0.0000000E+00; -1.1954229E+01;  4.0000000E+04;  0.0000000E+00;  3.9217270E+04;  5.8636637E+00;  0.0000000E+00; -2.9116708E-01;  3.5864238E+04;
  1.4571333E+00;  9.9999998E-03; -1.8212007E-01;8863;  1.2415438E+00;  0.0000000E+00; -3.7890840E-02;  1.0023403E+03;  1.7320754E-01;  1.9281073E+03;3; -5.8748299E+01;  0.0000000E+00;  4.5111115E+01;0;  4.0027070E+00;  1.3659172E+04;  0.0000000E+00;  1.1091188E+00;  4.0000000E+04;  0.0000000E+00;  3.9162398E+04;  4.0722651E+00;  0.0000000E+00; -6.9558240E-02;  8.5536816E+03;
  1.4571731E+00;  9.9999998E-03; -1.7202488E-01;8864;  1.2501897E+00;  0.0000000E+00; -3.8573004E-02;  1.0026783E+03;  1.7318700E-01;  2.2066306E+03;3; -5.1629745E+01;  0.0000000E+00;  4.4504959E+01;0;  3.8408866E+00;  1.3676482E+04;  0.0000000E+00;  8.8520151E-01;  4.0000000E+04;  0.0000000E+00;  3.9151699E+04;  3.8763595E+00;  0.0000000E+00; -3.5472892E-02;  9.7149258E+03;
  1.4573435E+00;  9.9999998E-03; -1.9219153E-01;8862;  1.2349831E+00;  0.0000000E+00; -3.7376225E-02;  1.0020649E+03;  1.7317221E-01;  1.7011084E+03;3; -6.4588326E+01;  0.0000000E+00;  4.5668736E+01;0;  4.1509390E+00;  1.3652220E+04;  0.0000000E+00;  1.1427811E+00;  4.0000000E+04;  0.0000000E+00;  3.9171652E+04;  4.2542872E+00;  0.0000000E+00; -1.0334802E-01;  7.4745640E+03;
  1.4573554E+00;  9.9999998E-03; -1.6189776E-01;8865;  1.2594584E+00;  0.0000000E+00; -3.9402962E-02;  1.0030613E+03;  1.7314571E-01;  2.5220498E+03;3; -4.3613518E+01;  0.0000000E+00;  4.3697540E+01;0;  3.6729357E+00;  1.3698461E+04;  0.0000000E+00;  5.7914537E-01;  4.0000000E+04;  0.0000000E+00;  3.9139703E+04;  3.6754992E+00;  0.0000000E+00; -2.5635490E-03;  1.1047180E+04;
  1.4576240E+00;  9.9999998E-03; -1.5173396E-01;8866;  1.2681838E+00;  0.0000000E+00; -4.0182278E-02;  1.0034606E+03;  1.7308690E-01;  2.8509915E+03;3; -3.5071552E+01;  0.0000000E+00;  4.1895721E+01;0;  3.5037429E+00;  1.3722871E+04;  0.0000000E+00;  2.9785341E-01;  4.0000000E+04;  0.0000000E+00;  3.9128199E+04;  3.4756649E+00;  0.0000000E+00;  2.8078098E-02;  1.2430528E+04;
  1.4578742E+00;  9.9999998E-03; -2.0224939E-01;8861;  1.2316883E+00;  0.0000000E+00; -3.6988508E-02;  1.0018566E+03;  1.7306326E-01;  1.5294664E+03;3; -6.8926529E+01;  0.0000000E+00;  4.6494335E+01;0;  4.2811656E+00;  1.3657901E+04;  0.0000000E+00;  8.7821817E-01;  4.0000000E+04;  0.0000000E+00;  3.9180430E+04;  4.4166675E+00;  0.0000000E+00; -1.3550197E-01;  6.2782583E+03;
  1.4579558E+00;  9.9999998E-03; -1.4155595E-01;8867;  1.2757818E+00;  0.0000000E+00; -4.0437415E-02;  1.0038481E+03;  1.7301437E-01;  3.1700808E+03;3; -2.6333225E+01;  0.0000000E+00;  3.8149796E+01;0;  3.3366673E+00;  1.3748274E+04;  0.0000000E+00;  9.7600862E-02;  4.0000000E+04;  0.0000000E+00;  3.9117816E+04;  3.2808528E+00;  0.0000000E+00;  5.5814575E-02;  1.3662855E+04;
  1.4583195E+00;  9.9999998E-03; -1.3139898E-01;8868;  1.2818811E+00;  0.0000000E+00; -3.9734963E-02;  1.0041730E+03;  1.7293555E-01;  3.4375859E+03;3; -1.7827669E+01;  0.0000000E+00;  3.3038895E+01;0;  3.1756871E+00;  1.3771933E+04;  0.0000000E+00; -2.1840986E-02;  4.0000000E+04;  0.0000000E+00;  3.9109879E+04;  3.0951829E+00;  0.0000000E+00;  8.0504246E-02;  1.4629921E+04;
  1.4586987E+00;  9.9999998E-03; -2.1231580E-01;8860;  1.2324059E+00;  0.0000000E+00; -3.6351100E-02;  1.0016234E+03;  1.7289023E-01;  1.3372815E+03;3; -7.1494064E+01;  0.0000000E+00;  4.7617607E+01;0;  4.3956113E+00;  1.3673453E+04;  0.0000000E+00;  5.4765932E-02;  4.0000000E+04;  0.0000000E+00;  3.9189270E+04;  4.5608873E+00;  0.0000000E+00; -1.6527614E-01;  5.2477554E+03;
  1.4586720E+00;  9.9999998E-03; -1.2127373E-01;8869;  1.2863423E+00;  0.0000000E+00; -3.8116917E-02;  1.0043910E+03;  1.7286213E-01;  3.6170908E+03;3; -9.8273697E+00;  0.0000000E+00;  2.9416706E+01;0;  3.0249789E+00;  1.3791114E+04;  0.0000000E+00; -7.6969452E-02;  4.0000000E+04;  0.0000000E+00;  3.9104074E+04;  2.9226096E+00;  0.0000000E+00;  1.0236941E-01;  1.5321207E+04;
  1.4587475E+00;  9.9999998E-03; -2.6289272E-01;8855;  1.1878527E+00;  0.0000000E+00; -1.9031113E-02;  9.9871301E+02;  1.7296064E-01; -1.0601581E+03;3; -1.0928439E+02;  0.0000000E+00;  5.5733883E+01;0;  5.2068143E+00;  1.3582633E+04;  0.0000000E+00; -2.2910732E+01;  4.0000000E+04;  0.0000000E+00;  3.9185695E+04;  5.4668927E+00;  0.0000000E+00; -2.6007852E-01;  5.8725547E+04;
  1.4589791E+00;  9.9999998E-03; -1.1116687E-01;8870;  1.2892609E+00;  0.0000000E+00; -3.5947703E-02;  1.0044923E+03;  1.7280555E-01;  3.7004636E+03;3; -2.8395088E+00;  0.0000000E+00;  2.7124479E+01;0;  2.8874109E+00;  1.3804153E+04;  0.0000000E+00; -8.2999393E-02;  4.0000000E+04;  0.0000000E+00;  3.9099953E+04;  2.7657220E+00;  0.0000000E+00;  1.2168873E-01;  1.5778866E+04;
  1.4596368E+00;  9.9999998E-03; -2.2240743E-01;8859;  1.2358184E+00;  0.0000000E+00; -3.5531137E-02;  1.0012054E+03;  1.7269699E-01;  9.9291418E+02;3; -7.3044594E+01;  0.0000000E+00;  4.9027542E+01;0;  4.5068054E+00;  1.3688851E+04;  0.0000000E+00; -1.9952041E+00;  4.0000000E+04;  0.0000000E+00;  3.9196496E+04;  4.6984720E+00;  0.0000000E+00; -1.9166671E-01;  7.7760444E+03;
  1.4598551E+00;  9.9999998E-03; -2.5275707E-01;8856;  1.2166917E+00;  0.0000000E+00; -2.7937489E-02;  9.9896228E+02;  1.7274427E-01; -8.5474237E+02;3; -9.2065453E+01;  0.0000000E+00;  5.2781296E+01;0;  5.0142183E+00;  1.3620520E+04;  0.0000000E+00; -1.9196646E+01;  4.0000000E+04;  0.0000000E+00;  3.9201039E+04;  5.2460451E+00;  0.0000000E+00; -2.3182662E-01;  5.1299105E+04;
  1.4603393E+00;  9.9999998E-03; -2.3251341E-01;8858;  1.2381572E+00;  0.0000000E+00; -3.4417678E-02;  1.0005094E+03;  1.7257412E-01;  4.1954749E+02;3; -7.5182274E+01;  0.0000000E+00;  4.9768143E+01;0;  4.6374331E+00;  1.3688300E+04;  0.0000000E+00; -6.1784544E+00;  4.0000000E+04;  0.0000000E+00;  3.9201797E+04;  4.8499079E+00;  0.0000000E+00; -2.1247481E-01;  1.7882666E+04;
  1.4604579E+00;  9.9999998E-03; -2.4262951E-01;8857;  1.2337725E+00;  0.0000000E+00; -3.2682996E-02;  9.9965729E+02;  1.7258814E-01; -2.8228094E+02;3; -8.0790024E+01;  0.0000000E+00;  5.0642807E+01;0;  4.8095093E+00;  1.3663112E+04;  0.0000000E+00; -1.2570024E+01;  4.0000000E+04;  0.0000000E+00;  3.9204641E+04;  5.0325909E+00;  0.0000000E+00; -2.2308183E-01;  3.4484055E+04;
  1.4734437E+00;  9.9999998E-03; -1.8209197E-01;8923;  1.2902817E+00;  0.0000000E+00; -5.4212183E-02;  1.0033473E+03;  1.6511387E-01;  2.7534875E+03;3; -2.5939430E+01;  0.0000000E+00;  3.7333595E+01;0;  3.0932291E+00;  1.5061660E+04;  0.0000000E+00;  8.9156568E-01;  4.0000000E+04;  0.0000000E+00;  3.9153258E+04;  3.0839701E+00;  0.0000000E+00;  9.2589175E-03;  8.7204658E+03;
  1.4733831E+00;  9.9999998E-03; -1.7200664E-01;8924;  1.2924447E+00;  0.0000000E+00; -5.4002158E-02;  1.0033595E+03;  1.6512792E-01;  2.7636055E+03;3; -1.9413103E+01;  0.0000000E+00;  3.5834637E+01;0;  2.9411042E+00;  1.5064846E+04;  0.0000000E+00;  6.2076104E-01;  4.0000000E+04;  0.0000000E+00;  3.9145199E+04;  2.8961828E+00;  0.0000000E+00;  4.4921391E-02;  9.5016191E+03;
  1.4735079E+00;  9.9999998E-03; -1.6188973E-01;8925;  1.2952068E+00;  0.0000000E+00; -5.3579241E-02;  1.0034178E+03;  1.6510548E-01;  2.8114231E+03;3; -1.1878801E+01;  0.0000000E+00;  3.3914158E+01;0;  2.7835915E+00;  1.5076139E+04;  0.0000000E+00;  2.9460552E-01;  4.0000000E+04;  0.0000000E+00;  3.9136012E+04;  2.7042506E+00;  0.0000000E+00;  7.9341009E-02;  1.0489212E+04;
  1.4737453E+00;  9.9999998E-03; -1.5172385E-01;8926;  1.2974399E+00;  0.0000000E+00; -5.1922064E-02;  1.0035043E+03;  1.6505724E-01;  2.8825432E+03;3; -3.8942862E+00;  0.0000000E+00;  3.1530197E+01;0;  2.6257339E+00;  1.5093011E+04;  0.0000000E+00;  8.8235484E-03;  4.0000000E+04;  0.0000000E+00;  3.9126027E+04;  2.5144951E+00;  0.0000000E+00;  1.1123873E-01;  1.1609710E+04;
  1.4737620E+00;  9.9999998E-03; -1.9216368E-01;8922;  1.2898109E+00;  0.0000000E+00; -5.4502044E-02;  1.0033491E+03;  1.6504738E-01;  2.7548655E+03;3; -3.0833567E+01;  0.0000000E+00;  3.9060104E+01;0;  3.2350399E+00;  1.5068844E+04;  0.0000000E+00;  1.0670532E+00;  4.0000000E+04;  0.0000000E+00;  3.9159750E+04;  3.2611868E+00;  0.0000000E+00; -2.6146846E-02;  8.0746182E+03;
  1.4740614E+00;  9.9999998E-03; -1.4153475E-01;8927;  1.2988874E+00;  0.0000000E+00; -4.8904508E-02;  1.0036406E+03;  1.6499445E-01;  2.9945242E+03;3;  3.4218986E+00;  0.0000000E+00;  2.9204609E+01;0;  2.4709604E+00;  1.5113038E+04;  0.0000000E+00; -1.6158903E-01;  4.0000000E+04;  0.0000000E+00;  3.9116852E+04;  2.3311999E+00;  0.0000000E+00;  1.3976039E-01;  1.2663453E+04;
  1.4744169E+00;  9.9999998E-03; -1.3136084E-01;8928;  1.2995907E+00;  0.0000000E+00; -4.5476176E-02;  1.0037742E+03;  1.6492438E-01;  3.1043269E+03;3;  9.1719484E+00;  0.0000000E+00;  2.7120378E+01;0;  2.3230927E+00;  1.5133190E+04;  0.0000000E+00; -2.1459804E-01;  4.0000000E+04;  0.0000000E+00;  3.9109230E+04;  2.1584826E+00;  0.0000000E+00;  1.6461024E-01;  1.3512247E+04;
  1.4743812E+00;  9.9999998E-03; -2.0222710E-01;8921;  1.2917736E+00;  0.0000000E+00; -5.5550922E-02;  1.0032911E+03;  1.6492346E-01;  2.7070303E+03;3; -3.4426571E+01;  0.0000000E+00;  4.0329006E+01;0;  3.3642228E+00;  1.5085028E+04;  0.0000000E+00;  1.1202270E+00;  4.0000000E+04;  0.0000000E+00;  3.9166000E+04;  3.4233119E+00;  0.0000000E+00; -5.9089161E-02;  7.3877456E+03;
  1.4746621E+00;  9.9999998E-03; -2.6289335E-01;8915;  1.2772363E+00;  0.0000000E+00; -4.4944402E-02;  9.9953503E+02;  1.6508089E-01; -3.8244180E+02;3; -7.5619812E+01;  0.0000000E+00;  5.1615395E+01;0;  4.4932284E+00;  1.4946519E+04;  0.0000000E+00; -1.8789818E+01;  4.0000000E+04;  0.0000000E+00;  3.9174793E+04;  4.6179495E+00;  0.0000000E+00; -1.2472113E-01;  4.3976789E+04;
  1.4747784E+00;  9.9999998E-03; -1.2121864E-01;8929;  1.2997164E+00;  0.0000000E+00; -4.2223271E-02;  1.0038854E+03;  1.6485716E-01;  3.1956851E+03;3;  1.3252615E+01;  0.0000000E+00;  2.5218340E+01;0;  2.1851740E+00;  1.5151305E+04;  0.0000000E+00; -1.8372953E-01;  4.0000000E+04;  0.0000000E+00;  3.9103676E+04;  1.9991584E+00;  0.0000000E+00;  1.8601552E-01;  1.4128675E+04;
  1.4751163E+00;  9.9999998E-03; -1.1109460E-01;8930;  1.2994082E+00;  0.0000000E+00; -3.9106503E-02;  1.0039291E+03;  1.6479415E-01;  3.2315508E+03;3;  1.6114408E+01;  0.0000000E+00;  2.3303322E+01;0;  2.0592146E+00;  1.5165659E+04;  0.0000000E+00; -1.0152469E-01;  4.0000000E+04;  0.0000000E+00;  3.9099703E+04;  1.8548670E+00;  0.0000000E+00;  2.0434770E-01;  1.4537764E+04;
  1.4752251E+00;  9.9999998E-03; -2.1230385E-01;8920;  1.2960643E+00;  0.0000000E+00; -5.7121888E-02;  1.0030258E+03;  1.6476551E-01;  2.4885393E+03;3; -3.7051224E+01;  0.0000000E+00;  4.2308033E+01;0;  3.4874365E+00;  1.5103260E+04;  0.0000000E+00;  7.6988506E-01;  4.0000000E+04;  0.0000000E+00;  3.9171953E+04;  3.5743444E+00;  0.0000000E+00; -8.6907975E-02;  6.4878755E+03;
  1.4757037E+00;  9.9999998E-03; -2.5274900E-01;8916;  1.2940757E+00;  0.0000000E+00; -5.1836289E-02;  9.9970831E+02;  1.6487071E-01; -2.3989989E+02;3; -6.0233738E+01;  0.0000000E+00;  4.8121128E+01;0;  4.2457705E+00;  1.4986446E+04;  0.0000000E+00; -1.5752679E+01;  4.0000000E+04;  0.0000000E+00;  3.9190219E+04;  4.3660960E+00;  0.0000000E+00; -1.2032554E-01;  3.8342859E+04;
  1.4760668E+00;  9.9999998E-03; -2.2239555E-01;8919;  1.3013148E+00;  0.0000000E+00; -5.7875134E-02;  1.0024103E+03;  1.6462745E-01;  1.9821589E+03;3; -3.9335529E+01;  0.0000000E+00;  4.4459984E+01;0;  3.6197467E+00;  1.5109321E+04;  0.0000000E+00; -8.1196684E-01;  4.0000000E+04;  0.0000000E+00;  3.9177984E+04;  3.7279711E+00;  0.0000000E+00; -1.0822430E-01;  6.2568623E+03;
  1.4764509E+00;  9.9999998E-03; -2.4261431E-01;8917;  1.3033383E+00;  0.0000000E+00; -5.5665486E-02;  1.0004227E+03;  1.6466853E-01;  3.4761554E+02;3; -4.9362541E+01;  0.0000000E+00;  4.7691402E+01;0;  3.9941165E+00;  1.5043722E+04;  0.0000000E+00; -1.0347573E+01;  4.0000000E+04;  0.0000000E+00;  3.9192355E+04;  4.1187544E+00;  0.0000000E+00; -1.2463792E-01;  2.5837934E+04;
  1.4765775E+00;  9.9999998E-03; -2.3249589E-01;8918;  1.3047833E+00;  0.0000000E+00; -5.7565931E-02;  1.0014518E+03;  1.6457614E-01;  1.1937965E+03;3; -4.2861534E+01;  0.0000000E+00;  4.6164822E+01;0;  3.7827499E+00;  1.5090588E+04;  0.0000000E+00; -4.6354885E+00;  4.0000000E+04;  0.0000000E+00;  3.9186172E+04;  3.9038424E+00;  0.0000000E+00; -1.2109254E-01;  1.2722314E+04;
  1.4897968E+00;  9.9999998E-03; -2.6289928E-01;8974;  1.3335971E+00;  0.0000000E+00; -6.2848322E-02;  9.9966797E+02;  1.5820077E-01; -2.7261963E+02;3; -4.4851460E+01;  0.0000000E+00;  4.4850349E+01;0;  3.7310913E+00;  1.6289124E+04;  0.0000000E+00; -1.3073392E+01;  4.0000000E+04;  0.0000000E+00;  3.9168727E+04;  3.7393739E+00;  0.0000000E+00; -8.2826326E-03;  2.6761938E+04;
  1.4889761E+00;  9.9999998E-03; -1.7200840E-01;8983;  1.3128533E+00;  0.0000000E+00; -6.4314894E-02;  1.0037726E+03;  1.5809906E-01;  3.0976619E+03;3;  5.2807775E+00;  0.0000000E+00;  2.9481117E+01;0;  2.1716762E+00;  1.6448045E+04;  0.0000000E+00;  4.0113834E-01;  4.0000000E+04;  0.0000000E+00;  3.9136762E+04;  2.0595887E+00;  0.0000000E+00;  1.1208741E-01;  8.9156943E+03;
  1.4890931E+00;  9.9999998E-03; -1.8207568E-01;8982;  1.3152931E+00;  0.0000000E+00; -6.5837592E-02;  1.0040211E+03;  1.5807098E-01;  3.3016938E+03;3;  7.6507109E-01;  0.0000000E+00;  3.1217375E+01;0;  2.3017001E+00;  1.6457240E+04;  0.0000000E+00;  7.7516711E-01;  4.0000000E+04;  0.0000000E+00;  3.9141320E+04;  2.2243347E+00;  0.0000000E+00;  7.7365369E-02;  8.6076250E+03;
  1.4890507E+00;  9.9999998E-03; -1.6191335E-01;8984;  1.3108426E+00;  0.0000000E+00; -6.2486198E-02;  1.0035372E+03;  1.5808941E-01;  2.9043167E+03;3;  9.9561939E+00;  0.0000000E+00;  2.7500067E+01;0;  2.0388567E+00;  1.6447686E+04;  0.0000000E+00;  6.1398175E-02;  4.0000000E+04;  0.0000000E+00;  3.9131133E+04;  1.8930070E+00;  0.0000000E+00;  1.4584963E-01;  9.4623330E+03;
  1.4894499E+00;  9.9999998E-03; -1.9213134E-01;8981;  1.3187287E+00;  0.0000000E+00; -6.7332461E-02;  1.0041962E+03;  1.5799811E-01;  3.4452183E+03;3; -2.7899816E+00;  0.0000000E+00;  3.3205620E+01;0;  2.4263988E+00;  1.6474238E+04;  0.0000000E+00;  1.2658513E+00;  4.0000000E+04;  0.0000000E+00;  3.9145082E+04;  2.3829508E+00;  0.0000000E+00;  4.3448046E-02;  8.4924199E+03;
  1.4892449E+00;  9.9999998E-03; -1.5176451E-01;8985;  1.3086728E+00;  0.0000000E+00; -5.8950592E-02;  1.0033387E+03;  1.5805271E-01;  2.7412749E+03;3;  1.3872061E+01;  0.0000000E+00;  2.4422829E+01;0;  1.9068613E+00;  1.6454629E+04;  0.0000000E+00; -2.1525559E-01;  4.0000000E+04;  0.0000000E+00;  3.9123734E+04;  1.7296554E+00;  0.0000000E+00;  1.7720591E-01;  1.0219395E+04;
  1.4907417E+00;  9.9999998E-03; -2.5274467E-01;8975;  1.3412725E+00;  0.0000000E+00; -6.8553321E-02;  9.9981622E+02;  1.5802151E-01; -1.5084886E+02;3; -3.2161304E+01;  0.0000000E+00;  4.2675098E+01;0;  3.4738295E+00;  1.6326265E+04;  0.0000000E+00; -1.0013564E+01;  4.0000000E+04;  0.0000000E+00;  3.9185184E+04;  3.4870288E+00;  0.0000000E+00; -1.3199269E-02;  2.1301113E+04;
  1.4900571E+00;  9.9999998E-03; -2.0218536E-01;8980;  1.3236622E+00;  0.0000000E+00; -6.9168545E-02;  1.0041862E+03;  1.5788959E-01;  3.4367170E+03;3; -5.7198191E+00;  0.0000000E+00;  3.4459053E+01;0;  2.5460801E+00;  1.6493543E+04;  0.0000000E+00;  1.9405574E+00;  4.0000000E+04;  0.0000000E+00;  3.9149719E+04;  2.5333281E+00;  0.0000000E+00;  1.2751955E-02;  8.5403398E+03;
  1.4895213E+00;  9.9999998E-03; -1.4158079E-01;8986;  1.3065842E+00;  0.0000000E+00; -5.3949464E-02;  1.0032151E+03;  1.5800127E-01;  2.6396777E+03;3;  1.6700956E+01;  0.0000000E+00;  2.2758940E+01;0;  1.7782013E+00;  1.6466834E+04;  0.0000000E+00; -3.5986364E-01;  4.0000000E+04;  0.0000000E+00;  3.9116570E+04;  1.5731561E+00;  0.0000000E+00;  2.0504522E-01;  1.1019053E+04;
  1.4898566E+00;  9.9999998E-03; -1.3139452E-01;8987;  1.3047614E+00;  0.0000000E+00; -4.9012188E-02;  1.0031557E+03;  1.5793806E-01;  2.5908198E+03;3;  1.8938721E+01;  0.0000000E+00;  2.1707613E+01;0;  1.6550363E+00;  1.6482336E+04;  0.0000000E+00; -3.6064965E-01;  4.0000000E+04;  0.0000000E+00;  3.9109820E+04;  1.4261638E+00;  0.0000000E+00;  2.2887249E-01;  1.1709167E+04;
  1.4908047E+00;  9.9999998E-03; -2.1225725E-01;8979;  1.3300924E+00;  0.0000000E+00; -7.1206629E-02;  1.0038176E+03;  1.5777329E-01;  3.1337932E+03;3; -8.4902964E+00;  0.0000000E+00;  3.5576389E+01;0;  2.6691296E+00;  1.6504236E+04;  0.0000000E+00;  2.4716682E+00;  4.0000000E+04;  0.0000000E+00;  3.9156953E+04;  2.6808746E+00;  0.0000000E+00; -1.1744860E-02;  8.5035264E+03;
  1.4915074E+00;  9.9999998E-03; -2.4259534E-01;8976;  1.3440198E+00;  0.0000000E+00; -7.1805470E-02;  1.0005857E+03;  1.5783009E-01;  4.8072836E+02;3; -2.2680386E+01;  0.0000000E+00;  4.0368446E+01;0;  3.2129214E+00;  1.6388967E+04;  0.0000000E+00; -5.6048932E+00;  4.0000000E+04;  0.0000000E+00;  3.9187438E+04;  3.2389224E+00;  0.0000000E+00; -2.6000964E-02;  1.2239675E+04;
  1.4914820E+00;  9.9999998E-03; -2.2234972E-01;8978;  1.3368456E+00;  0.0000000E+00; -7.2943397E-02;  1.0029755E+03;  1.5769264E-01;  2.4423984E+03;3; -1.1846910E+01;  0.0000000E+00;  3.6591953E+01;0;  2.8105652E+00;  1.6493447E+04;  0.0000000E+00;  1.8287987E+00;  4.0000000E+04;  0.0000000E+00;  3.9166883E+04;  2.8372107E+00;  0.0000000E+00; -2.6645359E-02;  6.8178916E+03;
  1.4902186E+00;  9.9999998E-03; -1.2122678E-01;8988;  1.3031636E+00;  0.0000000E+00; -4.4693459E-02;  1.0031358E+03;  1.5787084E-01;  2.5743499E+03;3;  2.0658405E+01;  0.0000000E+00;  2.0606054E+01;0;  1.5397986E+00;  1.6498701E+04;  0.0000000E+00; -2.6522589E-01;  4.0000000E+04;  0.0000000E+00;  3.9104227E+04;  1.2910138E+00;  0.0000000E+00;  2.4878477E-01;  1.2250608E+04;
  1.4917939E+00;  9.9999998E-03; -2.3246124E-01;8977;  1.3421882E+00;  0.0000000E+00; -7.3220164E-02;  1.0017714E+03;  1.5770164E-01;  1.4538695E+03;3; -1.6046921E+01;  0.0000000E+00;  3.8519051E+01;0;  2.9876943E+00;  1.6453170E+04;  0.0000000E+00; -1.0678819E+00;  4.0000000E+04;  0.0000000E+00;  3.9179102E+04;  3.0190427E+00;  0.0000000E+00; -3.1348377E-02;  4.4722690E+03;
  1.4905571E+00;  9.9999998E-03; -1.1108878E-01;8989;  1.3017048E+00;  0.0000000E+00; -4.0815655E-02;  1.0031179E+03;  1.5781239E-01;  2.5595527E+03;3;  2.2013718E+01;  0.0000000E+00;  1.9296806E+01;0;  1.4350742E+00;  1.6512625E+04;  0.0000000E+00; -1.1968857E-01;  4.0000000E+04;  0.0000000E+00;  3.9099844E+04;  1.1699722E+00;  0.0000000E+00;  2.6510200E-01;  1.2649622E+04;
  1.5040247E+00;  9.9999998E-03; -1.7201282E-01;9042;  1.3214272E+00;  0.0000000E+00; -6.9956504E-02;  1.0040234E+03;  1.5199138E-01;  3.2962446E+03;3;  1.7530582E+01;  0.0000000E+00;  2.2522882E+01;0;  1.5619868E+00;  1.7808438E+04;  0.0000000E+00;  3.5192966E-01;  4.0000000E+04;  0.0000000E+00;  3.9124062E+04;  1.3975997E+00;  0.0000000E+00;  1.6438715E-01;  8.2819502E+03;
  1.5040623E+00;  9.9999998E-03; -1.6194992E-01;9043;  1.3169128E+00;  0.0000000E+00; -6.7122512E-02;  1.0035677E+03;  1.5198851E-01;  2.9228584E+03;3;  1.9485260E+01;  0.0000000E+00;  1.9865604E+01;0;  1.4581301E+00;  1.7797293E+04;  0.0000000E+00; -5.8095306E-02;  4.0000000E+04;  0.0000000E+00;  3.9122527E+04;  1.2624341E+00;  0.0000000E+00;  1.9569601E-01;  8.2962080E+03;
  1.5042595E+00;  9.9999998E-03; -2.6292142E-01;9033;  1.3675009E+00;  0.0000000E+00; -7.2632656E-02;  9.9936285E+02;  1.5220974E-01; -5.2199176E+02;3; -1.8163778E+01;  0.0000000E+00;  3.7115013E+01;0;  2.9900050E+00;  1.7595592E+04;  0.0000000E+00; -6.7422209E+00;  4.0000000E+04;  0.0000000E+00;  3.9163469E+04;  2.9221761E+00;  0.0000000E+00;  6.7828894E-02;  9.7725459E+03;
  1.5041523E+00;  9.9999998E-03; -1.8205285E-01;9041;  1.3264409E+00;  0.0000000E+00; -7.2165124E-02;  1.0044220E+03;  1.5196255E-01;  3.6226577E+03;3;  1.4533698E+01;  0.0000000E+00;  2.4315779E+01;0;  1.6661365E+00;  1.7826299E+04;  0.0000000E+00;  9.8982978E-01;  4.0000000E+04;  0.0000000E+00;  3.9124773E+04;  1.5336411E+00;  0.0000000E+00;  1.3249543E-01;  8.5447969E+03;
  1.5042191E+00;  9.9999998E-03; -1.5183826E-01;9044;  1.3128340E+00;  0.0000000E+00; -6.2685683E-02;  1.0031390E+03;  1.5196159E-01;  2.5715957E+03;3;  2.1299997E+01;  0.0000000E+00;  1.8181387E+01;0;  1.3559487E+00;  1.7793707E+04;  0.0000000E+00; -3.3765885E-01;  4.0000000E+04;  0.0000000E+00;  3.9119168E+04;  1.1309221E+00;  0.0000000E+00;  2.2502664E-01;  8.5774150E+03;
  1.5044950E+00;  9.9999998E-03; -1.9208455E-01;9040;  1.3321611E+00;  0.0000000E+00; -7.4223846E-02;  1.0046675E+03;  1.5189745E-01;  3.8236233E+03;3;  1.1752839E+01;  0.0000000E+00;  2.5396677E+01;0;  1.7691691E+00;  1.7847402E+04;  0.0000000E+00;  2.0854902E+00;  4.0000000E+04;  0.0000000E+00;  3.9126719E+04;  1.6673095E+00;  0.0000000E+00;  1.0185960E-01;  9.2324336E+03;
  1.5044525E+00;  9.9999998E-03; -1.4167204E-01;9045;  1.3091565E+00;  0.0000000E+00; -5.6797020E-02;  1.0027839E+03;  1.5191804E-01;  2.2805769E+03;3;  2.2565926E+01;  0.0000000E+00;  1.7465893E+01;0;  1.2568643E+00;  1.7796822E+04;  0.0000000E+00; -4.7143692E-01;  4.0000000E+04;  0.0000000E+00;  3.9114215E+04;  1.0057120E+00;  0.0000000E+00;  2.5115225E-01;  9.0256221E+03;
  1.5051734E+00;  9.9999998E-03; -2.5275820E-01;9034;  1.3684222E+00;  0.0000000E+00; -7.6913588E-02;  9.9935266E+02;  1.5204990E-01; -5.3026086E+02;3; -9.7475796E+00;  0.0000000E+00;  3.4373184E+01;0;  2.7452500E+00;  1.7626936E+04;  0.0000000E+00; -3.5509598E+00;  4.0000000E+04;  0.0000000E+00;  3.9180258E+04;  2.6844029E+00;  0.0000000E+00;  6.0847063E-02;  4.2235889E+03;
  1.5050402E+00;  9.9999998E-03; -2.0212781E-01;9039;  1.3389280E+00;  0.0000000E+00; -7.6410055E-02;  1.0046023E+03;  1.5181127E-01;  3.7698628E+03;3;  9.8754187E+00;  0.0000000E+00;  2.6386116E+01;0;  1.8732023E+00;  1.7863158E+04;  0.0000000E+00;  3.7502980E+00;  4.0000000E+04;  0.0000000E+00;  3.9132805E+04;  1.7983130E+00;  0.0000000E+00;  7.4889302E-02;  1.0886381E+04;
  1.5047438E+00;  9.9999998E-03; -1.3148417E-01;9046;  1.3061042E+00;  0.0000000E+00; -5.1102761E-02;  1.0025173E+03;  1.5186360E-01;  2.0621165E+03;3;  2.3437206E+01;  0.0000000E+00;  1.7343805E+01;0;  1.1620302E+00;  1.7805117E+04;  0.0000000E+00; -4.4848526E-01;  4.0000000E+04;  0.0000000E+00;  3.9108984E+04;  8.8878250E-01;  0.0000000E+00;  2.7324769E-01;  9.4966924E+03;
  1.5050611E+00;  9.9999998E-03; -1.2130713E-01;9047;  1.3036220E+00;  0.0000000E+00; -4.6087746E-02;  1.0023524E+03;  1.5180799E-01;  1.9268640E+03;3;  2.4236629E+01;  0.0000000E+00;  1.6934093E+01;0;  1.0732620E+00;  1.7816152E+04;  0.0000000E+00; -3.1694683E-01;  4.0000000E+04;  0.0000000E+00;  3.9103859E+04;  7.8209186E-01;  0.0000000E+00;  2.9117006E-01;  9.9324805E+03;
  1.5053666E+00;  9.9999998E-03; -1.1115202E-01;9048;  1.3015480E+00;  0.0000000E+00; -4.1628838E-02;  1.0022538E+03;  1.5175922E-01;  1.8461130E+03;3;  2.5054569E+01;  0.0000000E+00;  1.6163313E+01;0;  9.9222386E-01;  1.7827221E+04;  0.0000000E+00; -1.4055166E-01;  4.0000000E+04;  0.0000000E+00;  3.9099406E+04;  6.8695295E-01;  0.0000000E+00;  3.0527088E-01;  1.0323800E+04;
  1.5056819E+00;  9.9999998E-03; -2.1220210E-01;9038;  1.3468224E+00;  0.0000000E+00; -7.8517847E-02;  1.0040320E+03;  1.5172806E-01;  3.3023621E+03;3;  7.7118635E+00;  0.0000000E+00;  2.7786341E+01;0;  1.9858326E+00;  1.7861207E+04;  0.0000000E+00;  5.4712591E+00;  4.0000000E+04;  0.0000000E+00;  3.9143656E+04;  1.9313757E+00;  0.0000000E+00;  5.4456793E-02;  1.3333983E+04;
  1.5059888E+00;  9.9999998E-03; -2.4259579E-01;9035;  1.3664911E+00;  0.0000000E+00; -7.9340592E-02;  1.0000587E+03;  1.5187143E-01;  4.8132336E+01;3; -3.2001705E+00;  0.0000000E+00;  3.2249413E+01;0;  2.5000424E+00;  1.7690803E+04;  0.0000000E+00;  3.2783530E-03;  4.0000000E+04;  0.0000000E+00;  3.9182695E+04;  2.4522362E+00;  0.0000000E+00;  4.7806144E-02;  2.8570906E+03;
  1.5062249E+00;  9.9999998E-03; -2.2231004E-01;9037;  1.3549683E+00;  0.0000000E+00; -8.0051713E-02;  1.0028887E+03;  1.5168919E-01;  2.3657119E+03;3;  4.9878030E+00;  0.0000000E+00;  2.9174896E+01;0;  2.1192443E+00;  1.7830377E+04;  0.0000000E+00;  5.8502469E+00;  4.0000000E+04;  0.0000000E+00;  3.9158129E+04;  2.0761523E+00;  0.0000000E+00;  4.3091994E-02;  1.3923955E+04;
  1.5063883E+00;  9.9999998E-03; -2.3244397E-01;9036;  1.3619052E+00;  0.0000000E+00; -8.0338709E-02;  1.0013859E+03;  1.5173298E-01;  1.1349867E+03;3;  1.7054296E+00;  0.0000000E+00;  3.0597723E+01;0;  2.2876084E+00;  1.7768539E+04;  0.0000000E+00;  3.7095132E+00;  4.0000000E+04;  0.0000000E+00;  3.9173125E+04;  2.2466741E+00;  0.0000000E+00;  4.0934343E-02;  9.8427061E+03;
  1.5181290E+00;  9.9999998E-03; -2.6297227E-01;9092;  1.3856944E+00;  0.0000000E+00; -7.6543376E-02;  9.9888043E+02;  1.4700928E-01; -9.1484308E+02;3;  1.7652176E-01;  0.0000000E+00;  2.9240751E+01;0;  2.3203115E+00;  1.8857035E+04;  0.0000000E+00; -4.3230632E-01;  4.0000000E+04;  0.0000000E+00;  3.9150023E+04;  2.2104969E+00;  0.0000000E+00;  1.0981475E-01;  6.6797769E+03;
  1.5190651E+00;  9.9999998E-03; -2.5280416E-01;9093;  1.3831232E+00;  0.0000000E+00; -7.9555444E-02;  9.9850165E+02;  1.4686778E-01; -1.2241357E+03;3;  6.1320229E+00;  0.0000000E+00;  2.6928127E+01;0;  2.1058710E+00;  1.8874291E+04;  0.0000000E+00;  2.7994368E+00;  4.0000000E+04;  0.0000000E+00;  3.9167688E+04;  1.9977645E+00;  0.0000000E+00;  1.0810655E-01;  1.1450629E+04;
  1.5185602E+00;  9.9999998E-03; -1.7199847E-01;9101;  1.3250561E+00;  0.0000000E+00; -7.0821851E-02;  1.0041465E+03;  1.4668977E-01;  3.3879788E+03;3;  2.3089361E+01;  0.0000000E+00;  1.5644849E+01;0;  1.1040255E+00;  1.9132422E+04;  0.0000000E+00;  6.7645466E-01;  4.0000000E+04;  0.0000000E+00;  3.9104004E+04;  9.0191835E-01;  0.0000000E+00;  2.0210716E-01;  7.9403784E+03;
  1.5186601E+00;  9.9999998E-03; -1.8200935E-01;9100;  1.3313849E+00;  0.0000000E+00; -7.3489681E-02;  1.0045966E+03;  1.4666881E-01;  3.7556973E+03;3;  2.1614552E+01;  0.0000000E+00;  1.7335798E+01;0;  1.1834029E+00;  1.9153461E+04;  0.0000000E+00;  1.8640854E+00;  4.0000000E+04;  0.0000000E+00;  3.9101977E+04;  1.0090257E+00;  0.0000000E+00;  1.7437720E-01;  9.0295439E+03;
  1.5185994E+00;  9.9999998E-03; -1.6196951E-01;9102;  1.3193475E+00;  0.0000000E+00; -6.7655474E-02;  1.0035810E+03;  1.4668666E-01;  2.9259717E+03;3;  2.4628653E+01;  0.0000000E+00;  1.4427633E+01;0;  1.0267200E+00;  1.9113863E+04;  0.0000000E+00;  3.6745157E-02;  4.0000000E+04;  0.0000000E+00;  3.9106699E+04;  7.9705137E-01;  0.0000000E+00;  2.2966865E-01;  7.3409956E+03;
  1.5189388E+00;  9.9999998E-03; -1.9202243E-01;9099;  1.3384339E+00;  0.0000000E+00; -7.5662456E-02;  1.0048099E+03;  1.4662549E-01;  3.9297246E+03;3;  1.9759050E+01;  0.0000000E+00;  1.9335241E+01;0;  1.2647434E+00;  1.9170760E+04;  0.0000000E+00;  3.9619722E+00;  4.0000000E+04;  0.0000000E+00;  3.9104914E+04;  1.1167814E+00;  0.0000000E+00;  1.4796211E-01;  1.1362692E+04;
  1.5187337E+00;  9.9999998E-03; -1.5190119E-01;9103;  1.3141633E+00;  0.0000000E+00; -6.3591436E-02;  1.0029867E+03;  1.4666718E-01;  2.4402556E+03;3;  2.5439447E+01;  0.0000000E+00;  1.3102879E+01;0;  9.5189273E-01;  1.9100205E+04;  0.0000000E+00; -3.1791851E-01;  4.0000000E+04;  0.0000000E+00;  3.9107973E+04;  6.9613540E-01;  0.0000000E+00;  2.5575733E-01;  7.0672788E+03;
  1.5189251E+00;  9.9999998E-03; -1.4177495E-01;9104;  1.3096310E+00;  0.0000000E+00; -5.7993263E-02;  1.0024432E+03;  1.4663243E-01;  1.9961318E+03;3;  2.5855446E+01;  0.0000000E+00;  1.3268802E+01;0;  8.7999249E-01;  1.9092307E+04;  0.0000000E+00; -4.7993788E-01;  4.0000000E+04;  0.0000000E+00;  3.9106914E+04;  6.0071045E-01;  0.0000000E+00;  2.7928206E-01;  7.0684814E+03;
  1.5193814E+00;  9.9999998E-03; -2.0206921E-01;9098;  1.3464484E+00;  0.0000000E+00; -7.7746123E-02;  1.0046034E+03;  1.4656988E-01;  3.7606934E+03;3;  1.8532999E+01;  0.0000000E+00;  2.0312250E+01;0;  1.3506110E+00;  1.9174822E+04;  0.0000000E+00;  7.0324988E+00;  4.0000000E+04;  0.0000000E+00;  3.9114883E+04;  1.2257677E+00;  0.0000000E+00;  1.2484328E-01;  1.5958931E+04;
  1.5191504E+00;  9.9999998E-03; -1.3160589E-01;9105;  1.3058940E+00;  0.0000000E+00; -5.2171461E-02;  1.0019883E+03;  1.4659381E-01;  1.6243936E+03;3;  2.5942616E+01;  0.0000000E+00;  1.3742299E+01;0;  8.1142700E-01;  1.9089973E+04;  0.0000000E+00; -4.7068813E-01;  4.0000000E+04;  0.0000000E+00;  3.9103996E+04;  5.1217651E-01;  0.0000000E+00;  2.9925048E-01;  7.2374546E+03;
  1.5193986E+00;  9.9999998E-03; -1.2142766E-01;9106;  1.3028734E+00;  0.0000000E+00; -4.6786699E-02;  1.0016628E+03;  1.4655514E-01;  1.3584452E+03;3;  2.6450861E+01;  0.0000000E+00;  1.3899046E+01;0;  7.4689680E-01;  1.9092340E+04;  0.0000000E+00; -3.3835399E-01;  4.0000000E+04;  0.0000000E+00;  3.9100375E+04;  4.3164456E-01;  0.0000000E+00;  3.1525224E-01;  7.4974741E+03;
  1.5199144E+00;  9.9999998E-03; -2.4263281E-01;9094;  1.3786458E+00;  0.0000000E+00; -8.1215613E-02;  9.9902417E+02;  1.4670701E-01; -7.9712152E+02;3;  1.0349097E+01;  0.0000000E+00;  2.4699163E+01;0;  1.8944870E+00;  1.8932803E+04;  0.0000000E+00;  6.1060805E+00;  4.0000000E+04;  0.0000000E+00;  3.9171148E+04;  1.7938954E+00;  0.0000000E+00;  1.0059171E-01;  1.6569545E+04;
  1.5199138E+00;  9.9999998E-03; -2.1216965E-01;9097;  1.3553604E+00;  0.0000000E+00; -7.9937495E-02;  1.0037648E+03;  1.4652158E-01;  3.0752380E+03;3;  1.6926149E+01;  0.0000000E+00;  2.0882811E+01;0;  1.4473082E+00;  1.9154072E+04;  0.0000000E+00;  1.0171841E+01;  4.0000000E+04;  0.0000000E+00;  3.9129469E+04;  1.3392631E+00;  0.0000000E+00;  1.0804505E-01;  2.1726588E+04;
  1.5196582E+00;  9.9999998E-03; -1.1125056E-01;9107;  1.3003659E+00;  0.0000000E+00; -4.1911788E-02;  1.0014583E+03;  1.4651714E-01;  1.1912661E+03;3;  2.6793161E+01;  0.0000000E+00;  1.3659546E+01;0;  6.8717283E-01;  1.9098082E+04;  0.0000000E+00; -1.6083761E-01;  4.0000000E+04;  0.0000000E+00;  3.9095840E+04;  3.5969108E-01;  0.0000000E+00;  3.2748175E-01;  7.8258760E+03;
  1.5203906E+00;  9.9999998E-03; -2.3246719E-01;9095;  1.3723631E+00;  0.0000000E+00; -8.1848666E-02;  1.0004288E+03;  1.4657360E-01;  3.5022742E+02;3;  1.3353266E+01;  0.0000000E+00;  2.3366777E+01;0;  1.7111498E+00;  1.9018354E+04;  0.0000000E+00;  9.5984344E+00;  4.0000000E+04;  0.0000000E+00;  3.9161066E+04;  1.6142719E+00;  0.0000000E+00;  9.6877903E-02;  2.2213535E+04;
  1.5203422E+00;  9.9999998E-03; -2.2231019E-01;9096;  1.3643996E+00;  0.0000000E+00; -8.1502639E-02;  1.0022341E+03;  1.4651282E-01;  1.8247646E+03;3;  1.5472286E+01;  0.0000000E+00;  2.2189569E+01;0;  1.5642469E+00;  1.9100256E+04;  0.0000000E+00;  1.1428897E+01;  4.0000000E+04;  0.0000000E+00;  3.9145387E+04;  1.4650297E+00;  0.0000000E+00;  9.9217206E-02;  2.4740020E+04;
  1.5314677E+00;  9.9999998E-03; -2.6305729E-01;9150;  1.3954146E+00;  0.0000000E+00; -7.6924600E-02;  9.9856921E+02;  1.4250718E-01; -1.1657144E+03;3;  1.2786876E+01;  0.0000000E+00;  2.2519676E+01;0;  1.7559057E+00;  2.0071484E+04;  0.0000000E+00;  5.4623938E+00;  4.0000000E+04;  0.0000000E+00;  3.9124531E+04;  1.6247609E+00;  0.0000000E+00;  1.3114493E-01;  1.8426812E+04;
  1.5324044E+00;  9.9999998E-03; -2.5288761E-01;9151;  1.3912245E+00;  0.0000000E+00; -7.9093441E-02;  9.9770251E+02;  1.4238967E-01; -1.8713638E+03;3;  1.6304407E+01;  0.0000000E+00;  2.0444975E+01;0;  1.5838900E+00;  2.0065232E+04;  0.0000000E+00;  9.5725965E+00;  4.0000000E+04;  0.0000000E+00;  3.9144414E+04;  1.4440849E+00;  0.0000000E+00;  1.3980503E-01;  2.5525373E+04;
  1.5326979E+00;  9.9999998E-03; -1.8192975E-01;9158;  1.3333533E+00;  0.0000000E+00; -7.0833415E-02;  1.0045640E+03;  1.4209250E-01;  3.7173071E+03;3;  2.6050285E+01;  0.0000000E+00;  1.2882972E+01;0;  8.3225393E-01;  2.0421832E+04;  0.0000000E+00;  3.8046222E+00;  4.0000000E+04;  0.0000000E+00;  3.9074402E+04;  6.2799275E-01;  0.0000000E+00;  2.0426121E-01;  1.0980424E+04;
  1.5326488E+00;  9.9999998E-03; -1.7194098E-01;9159;  1.3263146E+00;  0.0000000E+00; -6.8412155E-02;  1.0041466E+03;  1.4209902E-01;  3.3773289E+03;3;  2.6736687E+01;  0.0000000E+00;  1.2104001E+01;0;  7.7464616E-01;  2.0403977E+04;  0.0000000E+00;  1.6655430E+00;  4.0000000E+04;  0.0000000E+00;  3.9075641E+04;  5.4745978E-01;  0.0000000E+00;  2.2718641E-01;  8.3713477E+03;
  1.5327067E+00;  9.9999998E-03; -1.6194540E-01;9160;  1.3199308E+00;  0.0000000E+00; -6.5565094E-02;  1.0035601E+03;  1.4209428E-01;  2.8995828E+03;3;  2.7549454E+01;  0.0000000E+00;  1.0836998E+01;0;  7.1974337E-01;  2.0382029E+04;  0.0000000E+00;  5.1374477E-01;  4.0000000E+04;  0.0000000E+00;  3.9080793E+04;  4.6969092E-01;  0.0000000E+00;  2.5005245E-01;  6.9494878E+03;
  1.5328890E+00;  9.9999998E-03; -1.9194338E-01;9157;  1.3412973E+00;  0.0000000E+00; -7.3223092E-02;  1.0046673E+03;  1.4207074E-01;  3.8012090E+03;3;  2.4649664E+01;  0.0000000E+00;  1.3979516E+01;0;  8.9352429E-01;  2.0428898E+04;  0.0000000E+00;  7.3559890E+00;  4.0000000E+04;  0.0000000E+00;  3.9081848E+04;  7.1097314E-01;  0.0000000E+00;  1.8255116E-01;  1.6114043E+04;
  1.5328254E+00;  9.9999998E-03; -1.5192215E-01;9161;  1.3142061E+00;  0.0000000E+00; -6.2038194E-02;  1.0028909E+03;  1.4207822E-01;  2.3545305E+03;3;  2.7737251E+01;  0.0000000E+00;  1.0042830E+01;0;  6.6749930E-01;  2.0360408E+04;  0.0000000E+00; -8.1215352E-02;  4.0000000E+04;  0.0000000E+00;  3.9086555E+04;  3.9552382E-01;  0.0000000E+00;  2.7197546E-01;  6.0591016E+03;
  1.5332718E+00;  9.9999998E-03; -2.4271037E-01;9152;  1.3853710E+00;  0.0000000E+00; -8.0171086E-02;  9.9787219E+02;  1.4225194E-01; -1.7328149E+03;3;  1.9244192E+01;  0.0000000E+00;  1.9053267E+01;0;  1.4130306E+00;  2.0108436E+04;  0.0000000E+00;  1.3213604E+01;  4.0000000E+04;  0.0000000E+00;  3.9150863E+04;  1.2724401E+00;  0.0000000E+00;  1.4059061E-01;  3.0985721E+04;
  1.5332277E+00;  9.9999998E-03; -2.0202245E-01;9156;  1.3501428E+00;  0.0000000E+00; -7.5655542E-02;  1.0042445E+03;  1.4204468E-01;  3.4566401E+03;3;  2.3473879E+01;  0.0000000E+00;  1.4974020E+01;0;  9.6107268E-01;  2.0415180E+04;  0.0000000E+00;  1.2147986E+01;  4.0000000E+04;  0.0000000E+00;  3.9097082E+04;  7.9715538E-01;  0.0000000E+00;  1.6391729E-01;  2.4264518E+04;
  1.5329752E+00;  9.9999998E-03; -1.4185153E-01;9162;  1.3091890E+00;  0.0000000E+00; -5.7578698E-02;  1.0022310E+03;  1.4205736E-01;  1.8169722E+03;3;  2.7713236E+01;  0.0000000E+00;  9.9691458E+00;0;  6.1773354E-01;  2.0341666E+04;  0.0000000E+00; -3.6088148E-01;  4.0000000E+04;  0.0000000E+00;  3.9089883E+04;  3.2561383E-01;  0.0000000E+00;  2.9211971E-01;  5.5414561E+03;
  1.5331349E+00;  9.9999998E-03; -1.3172457E-01;9163;  1.3050144E+00;  0.0000000E+00; -5.2251320E-02;  1.0016364E+03;  1.4203475E-01;  1.3326519E+03;3;  2.7658203E+01;  0.0000000E+00;  1.0809835E+01;0;  5.7037497E-01;  2.0327268E+04;  0.0000000E+00; -4.2328632E-01;  4.0000000E+04;  0.0000000E+00;  3.9090789E+04;  2.6074636E-01;  0.0000000E+00;  3.0962858E-01;  5.3163203E+03;
  1.5336517E+00;  9.9999998E-03; -2.1217403E-01;9155;  1.3598791E+00;  0.0000000E+00; -7.8065537E-02;  1.0030268E+03;  1.4202750E-01;  2.4647019E+03;3;  2.3148489E+01;  0.0000000E+00;  1.5769034E+01;0;  1.0402546E+00;  2.0370148E+04;  0.0000000E+00;  1.6623493E+01;  4.0000000E+04;  0.0000000E+00;  3.9113672E+04;  8.8930690E-01;  0.0000000E+00;  1.5094775E-01;  3.2839066E+04;
  1.5333010E+00;  9.9999998E-03; -1.2155963E-01;9164;  1.3015796E+00;  0.0000000E+00; -4.6916772E-02;  1.0011598E+03;  1.4201379E-01;  9.4447650E+02;3;  2.7943872E+01;  0.0000000E+00;  1.1464404E+01;0;  5.2552718E-01;  2.0317939E+04;  0.0000000E+00; -3.3479121E-01;  4.0000000E+04;  0.0000000E+00;  3.9089398E+04;  2.0165901E-01;  0.0000000E+00;  3.2386819E-01;  5.3031240E+03;
  1.5338502E+00;  9.9999998E-03; -2.3253201E-01;9153;  1.3781109E+00;  0.0000000E+00; -8.0421865E-02;  9.9912616E+02;  1.4212507E-01; -7.1153516E+02;3;  2.1331533E+01;  0.0000000E+00;  1.7832142E+01;0;  1.2616813E+00;  2.0192506E+04;  0.0000000E+00;  1.6523952E+01;  4.0000000E+04;  0.0000000E+00;  3.9143426E+04;  1.1203582E+00;  0.0000000E+00;  1.4132312E-01;  3.5420262E+04;
  1.5339514E+00;  9.9999998E-03; -2.2235376E-01;9154;  1.3695556E+00;  0.0000000E+00; -7.9782523E-02;  1.0011024E+03;  1.4204714E-01;  8.9753729E+02;3;  2.2532629E+01;  0.0000000E+00;  1.6630239E+01;0;  1.1382134E+00;  2.0290604E+04;  0.0000000E+00;  1.8313272E+01;  4.0000000E+04;  0.0000000E+00;  3.9128723E+04;  9.9402475E-01;  0.0000000E+00;  1.4418863E-01;  3.7104555E+04;
  1.5334976E+00;  9.9999998E-03; -1.1137879E-01;9165;  1.2987723E+00;  0.0000000E+00; -4.1883051E-02;  1.0008221E+03;  1.4198858E-01;  6.6942010E+02;3;  2.7883369E+01;  0.0000000E+00;  1.1576390E+01;0;  4.8330063E-01;  2.0315113E+04;  0.0000000E+00; -1.8186249E-01;  4.0000000E+04;  0.0000000E+00;  3.9086711E+04;  1.4861517E-01;  0.0000000E+00;  3.3468547E-01;  5.4606934E+03;
  1.5443499E+00;  9.9999998E-03; -2.6317707E-01;9207;  1.4000908E+00;  0.0000000E+00; -7.4809171E-02;  9.9876001E+02;  1.3860781E-01; -1.0067798E+03;3;  1.9954086E+01;  0.0000000E+00;  1.7522507E+01;0;  1.2937745E+00;  2.1245260E+04;  0.0000000E+00;  1.0317213E+01;  4.0000000E+04;  0.0000000E+00;  3.9086066E+04;  1.1594590E+00;  0.0000000E+00;  1.3431551E-01;  2.6204203E+04;
  1.5453089E+00;  9.9999998E-03; -2.5300854E-01;9208;  1.3950999E+00;  0.0000000E+00; -7.6276943E-02;  9.9719067E+02;  1.3851508E-01; -2.2802871E+03;3;  2.2341726E+01;  0.0000000E+00;  1.6050390E+01;0;  1.1646369E+00;  2.1202537E+04;  0.0000000E+00;  1.5555227E+01;  4.0000000E+04;  0.0000000E+00;  3.9109125E+04;  1.0100623E+00;  0.0000000E+00;  1.5457450E-01;  3.5859109E+04;
  1.5462196E+00;  9.9999998E-03; -2.4282895E-01;9209;  1.3887409E+00;  0.0000000E+00; -7.7053279E-02;  9.9672302E+02;  1.3840097E-01; -2.6591494E+03;3;  2.4377783E+01;  0.0000000E+00;  1.4778467E+01;0;  1.0370584E+00;  2.1215766E+04;  0.0000000E+00;  1.9790562E+01;  4.0000000E+04;  0.0000000E+00;  3.9120668E+04;  8.6990625E-01;  0.0000000E+00;  1.6715212E-01;  4.2379266E+04;
  1.5463114E+00;  9.9999998E-03; -1.8181536E-01;9215;  1.3336675E+00;  0.0000000E+00; -6.6085227E-02;  1.0043075E+03;  1.3814449E-01;  3.4952637E+03;3;  2.8199053E+01;  0.0000000E+00;  9.9690781E+00;0;  5.8385456E-01;  2.1615172E+04;  0.0000000E+00;  7.2828941E+00;  4.0000000E+04;  0.0000000E+00;  3.9044984E+04;  3.5976395E-01;  0.0000000E+00;  2.2409062E-01;  1.5444165E+04;
  1.5463283E+00;  9.9999998E-03; -1.7183015E-01;9216;  1.3262732E+00;  0.0000000E+00; -6.3926943E-02;  1.0039893E+03;  1.3814029E-01;  3.2369766E+03;3;  2.8590645E+01;  0.0000000E+00;  9.6604605E+00;0;  5.4394341E-01;  2.1605699E+04;  0.0000000E+00;  3.7025404E+00;  4.0000000E+04;  0.0000000E+00;  3.9039914E+04;  3.0194756E-01;  0.0000000E+00;  2.4199581E-01;  1.0366993E+04;
  1.5464035E+00;  9.9999998E-03; -1.9186607E-01;9214;  1.3422773E+00;  0.0000000E+00; -6.8811290E-02;  1.0042546E+03;  1.3814323E-01;  3.4522190E+03;3;  2.7812132E+01;  0.0000000E+00;  9.9446621E+00;0;  6.2829751E-01;  2.1606143E+04;  0.0000000E+00;  1.2728963E+01;  4.0000000E+04;  0.0000000E+00;  3.9060270E+04;  4.2094126E-01;  0.0000000E+00;  2.0735624E-01;  2.4071355E+04;
  1.5464113E+00;  9.9999998E-03; -1.6186313E-01;9217;  1.3196065E+00;  0.0000000E+00; -6.1570238E-02;  1.0034622E+03;  1.3813204E-01;  2.8092620E+03;3;  2.9105371E+01;  0.0000000E+00;  8.7159643E+00;0;  5.0663966E-01;  2.1585412E+04;  0.0000000E+00;  1.6316707E+00;  4.0000000E+04;  0.0000000E+00;  3.9044355E+04;  2.4688579E-01;  0.0000000E+00;  2.5975385E-01;  7.5814326E+03;
  1.5465273E+00;  9.9999998E-03; -1.5188310E-01;9218;  1.3136121E+00;  0.0000000E+00; -5.8767162E-02;  1.0028087E+03;  1.3812023E-01;  2.2789209E+03;3;  2.9213619E+01;  0.0000000E+00;  8.3425694E+00;0;  4.7140372E-01;  2.1559723E+04;  0.0000000E+00;  5.1533282E-01;  4.0000000E+04;  0.0000000E+00;  3.9052543E+04;  1.9443388E-01;  0.0000000E+00;  2.7696985E-01;  5.8839302E+03;
  1.5466415E+00;  9.9999998E-03; -2.0201959E-01;9213;  1.3520708E+00;  0.0000000E+00; -7.1805686E-02;  1.0035094E+03;  1.3814408E-01;  2.8473677E+03;3;  2.7414961E+01;  0.0000000E+00;  1.1349475E+01;0;  6.8026555E-01;  2.1569184E+04;  0.0000000E+00;  1.9344028E+01;  4.0000000E+04;  0.0000000E+00;  3.9079195E+04;  4.8644680E-01;  0.0000000E+00;  1.9381875E-01;  3.5506105E+04;
  1.5466479E+00;  9.9999998E-03; -1.4186725E-01;9219;  1.3083055E+00;  0.0000000E+00; -5.5393320E-02;  1.0021087E+03;  1.3810727E-01;  1.7108933E+03;3;  2.8917000E+01;  0.0000000E+00;  7.9147005E+00;0;  4.3794662E-01;  2.1532871E+04;  0.0000000E+00; -4.9548667E-02;  4.0000000E+04;  0.0000000E+00;  3.9060246E+04;  1.4476494E-01;  0.0000000E+00;  2.9318169E-01;  4.7625142E+03;
  1.5467629E+00;  9.9999998E-03; -1.3179670E-01;9220;  1.3037964E+00;  0.0000000E+00; -5.1215369E-02;  1.0014314E+03;  1.3809514E-01;  1.1612855E+03;3;  2.9075136E+01;  0.0000000E+00;  8.5261497E+00;0;  4.0600204E-01;  2.1508232E+04;  0.0000000E+00; -2.8082550E-01;  4.0000000E+04;  0.0000000E+00;  3.9065605E+04;  9.8191023E-02;  0.0000000E+00;  3.0781102E-01;  4.0546819E+03;
  1.5468973E+00;  9.9999998E-03; -2.3264216E-01;9210;  1.3811206E+00;  0.0000000E+00; -7.7064291E-02;  9.9759198E+02;  1.3828625E-01; -1.9536108E+03;3;  2.5846397E+01;  0.0000000E+00;  1.3526146E+01;0;  9.2026299E-01;  2.1285816E+04;  0.0000000E+00;  2.3414217E+01;  4.0000000E+04;  0.0000000E+00;  3.9117539E+04;  7.4576300E-01;  0.0000000E+00;  1.7449999E-01;  4.6933715E+04;
  1.5469719E+00;  9.9999998E-03; -2.1223965E-01;9212;  1.3623905E+00;  0.0000000E+00; -7.4458994E-02;  1.0018093E+03;  1.3815634E-01;  1.4678828E+03;3;  2.7119633E+01;  0.0000000E+00;  1.1793666E+01;0;  7.4324632E-01;  2.1495832E+04;  0.0000000E+00;  2.4608871E+01;  4.0000000E+04;  0.0000000E+00;  3.9091887E+04;  5.5839211E-01;  0.0000000E+00;  1.8485422E-01;  4.5477266E+04;
  1.5468835E+00;  9.9999998E-03; -1.2166719E-01;9221;  1.3000326E+00;  0.0000000E+00; -4.6416800E-02;  1.0008293E+03;  1.3808224E-01;  6.7283801E+02;3;  2.8819586E+01;  0.0000000E+00;  9.3639650E+00;0;  3.7539268E-01;  2.1488730E+04;  0.0000000E+00; -3.0087176E-01;  4.0000000E+04;  0.0000000E+00;  3.9068152E+04;  5.5158276E-02;  0.0000000E+00;  3.2023439E-01;  3.6637673E+03;
  1.5471463E+00;  9.9999998E-03; -2.2244987E-01;9211;  1.3723042E+00;  0.0000000E+00; -7.6265641E-02;  9.9953979E+02;  1.3820007E-01; -3.7333377E+02;3;  2.6824253E+01;  0.0000000E+00;  1.2575194E+01;0;  8.2206345E-01;  2.1391465E+04;  0.0000000E+00;  2.5836447E+01;  4.0000000E+04;  0.0000000E+00;  3.9104598E+04;  6.4248526E-01;  0.0000000E+00;  1.7957821E-01;  4.9163273E+04;
  1.5470202E+00;  9.9999998E-03; -1.1149981E-01;9222;  1.2969620E+00;  0.0000000E+00; -4.1517556E-02;  1.0003630E+03;  1.3806765E-01;  2.9448129E+02;3;  2.9176802E+01;  0.0000000E+00;  9.7390318E+00;0;  3.4624848E-01;  2.1475918E+04;  0.0000000E+00; -2.1023998E-01;  4.0000000E+04;  0.0000000E+00;  3.9068020E+04;  1.6287781E-02;  0.0000000E+00;  3.2996070E-01;  3.5282898E+03;
  1.5568857E+00;  9.9999998E-03; -2.6333013E-01;9264;  1.4023207E+00;  0.0000000E+00; -7.1262315E-02;  9.9956110E+02;  1.3522768E-01; -3.5493814E+02;3;  2.4310196E+01;  0.0000000E+00;  1.3839422E+01;0;  9.2914337E-01;  2.2382871E+04;  0.0000000E+00;  1.2575381E+01;  4.0000000E+04;  0.0000000E+00;  3.9033969E+04;  8.0331683E-01;  0.0000000E+00;  1.2582655E-01;  2.7549166E+04;
  1.5578637E+00;  9.9999998E-03; -2.5316662E-01;9265;  1.3967572E+00;  0.0000000E+00; -7.2024532E-02;  9.9715106E+02;  1.3515785E-01; -2.3029780E+03;3;  2.5987844E+01;  0.0000000E+00;  1.2897849E+01;0;  8.3619934E-01;  2.2293752E+04;  0.0000000E+00;  1.9455494E+01;  4.0000000E+04;  0.0000000E+00;  3.9060570E+04;  6.8104517E-01;  0.0000000E+00;  1.5515415E-01;  4.0829762E+04;
  1.5588108E+00;  9.9999998E-03; -2.4298905E-01;9266;  1.3902247E+00;  0.0000000E+00; -7.2535485E-02;  9.9581976E+02;  1.3506866E-01; -3.3780386E+03;3;  2.7740753E+01;  0.0000000E+00;  1.1899803E+01;0;  7.4835157E-01;  2.2262529E+04;  0.0000000E+00;  2.4930994E+01;  4.0000000E+04;  0.0000000E+00;  3.9077809E+04;  5.6840110E-01;  0.0000000E+00;  1.7995045E-01;  4.9712562E+04;
  1.5595745E+00;  9.9999998E-03; -2.3280115E-01;9267;  1.3825344E+00;  0.0000000E+00; -7.2469294E-02;  9.9601617E+02;  1.3497090E-01; -3.2184424E+03;3;  2.8843527E+01;  0.0000000E+00;  1.0787058E+01;0;  6.6542280E-01;  2.2302828E+04;  0.0000000E+00;  2.9389294E+01;  4.0000000E+04;  0.0000000E+00;  3.9080117E+04;  4.6892953E-01;  0.0000000E+00;  1.9649324E-01;  5.5594383E+04;
  1.5594710E+00;  9.9999998E-03; -1.9185686E-01;9271;  1.3426329E+00;  0.0000000E+00; -6.3740835E-02;  1.0035621E+03;  1.3477612E-01;  2.8778206E+03;3;  3.0265762E+01;  0.0000000E+00;  8.0740595E+00;0;  4.4341880E-01;  2.2688070E+04;  0.0000000E+00;  2.0537947E+01;  4.0000000E+04;  0.0000000E+00;  3.9037996E+04;  2.1881133E-01;  0.0000000E+00;  2.2460745E-01;  3.5235777E+04;
  1.5594645E+00;  9.9999998E-03; -1.8172005E-01;9272;  1.3333426E+00;  0.0000000E+00; -6.0621522E-02;  1.0038620E+03;  1.3475910E-01;  3.1201423E+03;3;  2.9706078E+01;  0.0000000E+00;  8.0733881E+00;0;  4.1204497E-01;  2.2717006E+04;  0.0000000E+00;  1.2852895E+01;  4.0000000E+04;  0.0000000E+00;  3.9015805E+04;  1.7590179E-01;  0.0000000E+00;  2.3614319E-01;  2.3038455E+04;
  1.5596761E+00;  9.9999998E-03; -2.0211059E-01;9270;  1.3531491E+00;  0.0000000E+00; -6.7202933E-02;  1.0023185E+03;  1.3479507E-01;  1.8729817E+03;3;  3.0198900E+01;  0.0000000E+00;  8.5349226E+00;0;  4.8244932E-01;  2.2624875E+04;  0.0000000E+00;  2.8491207E+01;  4.0000000E+04;  0.0000000E+00;  3.9052711E+04;  2.6596791E-01;  0.0000000E+00;  2.1648142E-01;  4.8637387E+04;
  1.5599899E+00;  9.9999998E-03; -2.2260252E-01;9268;  1.3737220E+00;  0.0000000E+00; -7.1651094E-02;  9.9762628E+02;  1.3488385E-01; -1.9173500E+03;3;  2.9774658E+01;  0.0000000E+00;  9.7627869E+00;0;  5.9181368E-01;  2.2400562E+04;  0.0000000E+00;  3.2757816E+01;  4.0000000E+04;  0.0000000E+00;  3.9070430E+04;  3.8591415E-01;  0.0000000E+00;  2.0589957E-01;  5.8928395E+04;
  1.5595812E+00;  9.9999998E-03; -1.7169756E-01;9273;  1.3255525E+00;  0.0000000E+00; -5.8389314E-02;  1.0036653E+03;  1.3474105E-01;  2.9611060E+03;3;  2.9821650E+01;  0.0000000E+00;  7.8913059E+00;0;  3.8531336E-01;  2.2721926E+04;  0.0000000E+00;  7.2654781E+00;  4.0000000E+04;  0.0000000E+00;  3.9001301E+04;  1.3626552E-01;  0.0000000E+00;  2.4904785E-01;  1.4725021E+04;
  1.5599588E+00;  9.9999998E-03; -2.1238026E-01;9269;  1.3637744E+00;  0.0000000E+00; -6.9925837E-02;  1.0000676E+03;  1.3482669E-01;  5.4597721E+01;3;  3.0214039E+01;  0.0000000E+00;  8.7343397E+00;0;  5.3094065E-01;  2.2522094E+04;  0.0000000E+00;  3.3134048E+01;  4.0000000E+04;  0.0000000E+00;  3.9058988E+04;  3.1975493E-01;  0.0000000E+00;  2.1118574E-01;  5.7524672E+04;
  1.5597376E+00;  9.9999998E-03; -1.6173457E-01;9274;  1.3187630E+00;  0.0000000E+00; -5.6438304E-02;  1.0032403E+03;  1.3472562E-01;  2.6176279E+03;3;  3.0215879E+01;  0.0000000E+00;  7.4449663E+00;0;  3.6073247E-01;  2.2710301E+04;  0.0000000E+00;  3.7538178E+00;  4.0000000E+04;  0.0000000E+00;  3.8999129E+04;  9.8961167E-02;  0.0000000E+00;  2.6177129E-01;  9.7999971E+03;
  1.5598925E+00;  9.9999998E-03; -1.5178291E-01;9275;  1.3126059E+00;  0.0000000E+00; -5.4347921E-02;  1.0026721E+03;  1.3471186E-01;  2.1584436E+03;3;  3.0285906E+01;  0.0000000E+00;  7.3474545E+00;0;  3.3740777E-01;  2.2687557E+04;  0.0000000E+00;  1.7142831E+00;  4.0000000E+04;  0.0000000E+00;  3.9005715E+04;  6.3300215E-02;  0.0000000E+00;  2.7410755E-01;  6.8673950E+03;
  1.5600283E+00;  9.9999998E-03; -1.4180993E-01;9276;  1.3071274E+00;  0.0000000E+00; -5.1851138E-02;  1.0020139E+03;  1.3469999E-01;  1.6266240E+03;3;  3.0092829E+01;  0.0000000E+00;  7.0610113E+00;0;  3.1503129E-01;  2.2658709E+04;  0.0000000E+00;  5.9490085E-01;  4.0000000E+04;  0.0000000E+00;  3.9015609E+04;  2.9004905E-02;  0.0000000E+00;  2.8602639E-01;  4.9583091E+03;
  1.5601325E+00;  9.9999998E-03; -1.3179149E-01;9277;  1.3023623E+00;  0.0000000E+00; -4.8817426E-02;  1.0013232E+03;  1.3469112E-01;  1.0687764E+03;3;  2.9990864E+01;  0.0000000E+00;  7.2721348E+00;0;  2.9350972E-01;  2.2627973E+04;  0.0000000E+00;  3.0998375E-02;  4.0000000E+04;  0.0000000E+00;  3.9025445E+04; -3.8208251E-03;  0.0000000E+00;  2.9733056E-01;  3.6575708E+03;
  1.5602146E+00;  9.9999998E-03; -1.2171263E-01;9278;  1.2983316E+00;  0.0000000E+00; -4.5047119E-02;  1.0006631E+03;  1.3468432E-01;  5.3552747E+02;3;  2.9943886E+01;  0.0000000E+00;  7.6048222E+00;0;  2.7275711E-01;  2.2599299E+04;  0.0000000E+00; -1.9644150E-01;  4.0000000E+04;  0.0000000E+00;  3.9032613E+04; -3.4830578E-02;  0.0000000E+00;  3.0758768E-01;  2.8004873E+03;
  1.5602888E+00;  9.9999998E-03; -1.1158197E-01;9279;  1.2949804E+00;  0.0000000E+00; -4.0667068E-02;  1.0000925E+03;  1.3467978E-01;  7.4713776E+01;3;  3.0215187E+01;  0.0000000E+00;  8.0540409E+00;0;  2.5278366E-01;  2.2575516E+04;  0.0000000E+00; -2.2848284E-01;  4.0000000E+04;  0.0000000E+00;  3.9036406E+04; -6.3433386E-02;  0.0000000E+00;  3.1621704E-01;  2.2866211E+03;
  1.5691774E+00;  9.9999998E-03; -2.6351193E-01;9320;  1.4034469E+00;  0.0000000E+00; -6.7161903E-02;  1.0009135E+03;  1.3229947E-01;  7.3524188E+02;3;  2.7366865E+01;  0.0000000E+00;  1.0973789E+01;0;  6.5337586E-01;  2.3480746E+04;  0.0000000E+00;  1.0870567E+01;  4.0000000E+04;  0.0000000E+00;  3.8971145E+04;  5.3983396E-01;  0.0000000E+00;  1.1354191E-01;  2.1141816E+04;
  1.5701126E+00;  9.9999998E-03; -2.5335857E-01;9321;  1.3974519E+00;  0.0000000E+00; -6.7362510E-02;  9.9788464E+02;  1.3225071E-01; -1.7019147E+03;3;  2.8568403E+01;  0.0000000E+00;  1.0487733E+01;0;  5.8993179E-01;  2.3351719E+04;  0.0000000E+00;  2.0608246E+01;  4.0000000E+04;  0.0000000E+00;  3.8998566E+04;  4.4047382E-01;  0.0000000E+00;  1.4945798E-01;  3.9916809E+04;
  1.5710773E+00;  9.9999998E-03; -2.4318796E-01;9322;  1.3908244E+00;  0.0000000E+00; -6.7647748E-02;  9.9554492E+02;  1.3218886E-01; -3.5828691E+03;3;  2.9734978E+01;  0.0000000E+00;  9.8078194E+00;0;  5.3542006E-01;  2.3263947E+04;  0.0000000E+00;  2.8147123E+01;  4.0000000E+04;  0.0000000E+00;  3.9020816E+04;  3.5050023E-01;  0.0000000E+00;  1.8491985E-01;  5.2477230E+04;
  1.5719131E+00;  9.9999998E-03; -2.3300368E-01;9323;  1.3831911E+00;  0.0000000E+00; -6.7525223E-02;  9.9476636E+02;  1.3211112E-01; -4.2074922E+03;3;  3.0951124E+01;  0.0000000E+00;  8.8975487E+00;0;  4.8185736E-01;  2.3255582E+04;  0.0000000E+00;  3.3880939E+01;  4.0000000E+04;  0.0000000E+00;  3.9029559E+04;  2.7114862E-01;  0.0000000E+00;  2.1070874E-01;  6.0575410E+04;
  1.5722296E+00;  9.9999998E-03; -1.9196486E-01;9327;  1.3428687E+00;  0.0000000E+00; -5.8870014E-02;  1.0024885E+03;  1.3188739E-01;  2.0003054E+03;3;  3.1965801E+01;  0.0000000E+00;  6.3855014E+00;0;  3.1578243E-01;  2.3668695E+04;  0.0000000E+00;  3.0617104E+01;  4.0000000E+04;  0.0000000E+00;  3.9008914E+04;  7.8640826E-02;  0.0000000E+00;  2.3714161E-01;  4.8406039E+04;
  1.5724783E+00;  9.9999998E-03; -2.2280473E-01;9324;  1.3744534E+00;  0.0000000E+00; -6.6732325E-02;  9.9568286E+02;  1.3203079E-01; -3.4698567E+03;3;  3.1844408E+01;  0.0000000E+00;  7.8089471E+00;0;  4.2999694E-01;  2.3325152E+04;  0.0000000E+00;  3.8453064E+01;  4.0000000E+04;  0.0000000E+00;  3.9025352E+04;  2.0454986E-01;  0.0000000E+00;  2.2544707E-01;  6.5615688E+04;
  1.5722455E+00;  9.9999998E-03; -1.8170212E-01;9328;  1.3328955E+00;  0.0000000E+00; -5.5203591E-02;  1.0032102E+03;  1.3185760E-01;  2.5804001E+03;3;  3.1177902E+01;  0.0000000E+00;  6.9351158E+00;0;  2.9318774E-01;  2.3720723E+04;  0.0000000E+00;  2.0953609E+01;  4.0000000E+04;  0.0000000E+00;  3.8988387E+04;  5.0272085E-02;  0.0000000E+00;  2.4291566E-01;  3.3603121E+04;
  1.5724509E+00;  9.9999998E-03; -2.0230174E-01;9326;  1.3538474E+00;  0.0000000E+00; -6.2409464E-02;  1.0005582E+03;  1.3192035E-01;  4.4869614E+02;3;  3.2276333E+01;  0.0000000E+00;  6.5951104E+00;0;  3.4552836E-01;  2.3575123E+04;  0.0000000E+00;  3.8369534E+01;  4.0000000E+04;  0.0000000E+00;  3.9012227E+04;  1.1139055E-01;  0.0000000E+00;  2.3413782E-01;  6.1197680E+04;
  1.5726430E+00;  9.9999998E-03; -2.1258296E-01;9325;  1.3645356E+00;  0.0000000E+00; -6.4990863E-02;  9.9790363E+02;  1.3196445E-01; -1.6847936E+03;3;  3.2525246E+01;  0.0000000E+00;  6.7444739E+00;0;  3.8304406E-01;  2.3446713E+04;  0.0000000E+00;  4.0789970E+01;  4.0000000E+04;  0.0000000E+00;  3.9015281E+04;  1.5170315E-01;  0.0000000E+00;  2.3134091E-01;  6.6798820E+04;
  1.5724616E+00;  9.9999998E-03; -1.7159033E-01;9329;  1.3245609E+00;  0.0000000E+00; -5.2582812E-02;  1.0031735E+03;  1.3182646E-01;  2.5506479E+03;3;  3.0843533E+01;  0.0000000E+00;  6.8230891E+00;0;  2.7552643E-01;  2.3743631E+04;  0.0000000E+00;  1.2874640E+01;  4.0000000E+04;  0.0000000E+00;  3.8963500E+04;  2.4768334E-02;  0.0000000E+00;  2.5075811E-01;  2.1760902E+04;
  1.5727254E+00;  9.9999998E-03; -1.6158919E-01;9330;  1.3175529E+00;  0.0000000E+00; -5.0764196E-02;  1.0028558E+03;  1.3180044E-01;  2.2950422E+03;3;  3.0948723E+01;  0.0000000E+00;  6.8271956E+00;0;  2.5979960E-01;  2.3746041E+04;  0.0000000E+00;  7.3343334E+00;  4.0000000E+04;  0.0000000E+00;  3.8949879E+04;  1.0986272E-03;  0.0000000E+00;  2.5870097E-01;  1.4000194E+04;
  1.5729560E+00;  9.9999998E-03; -1.5163754E-01;9331;  1.3112942E+00;  0.0000000E+00; -4.9154401E-02;  1.0024134E+03;  1.3178137E-01;  1.9393246E+03;3;  3.1007601E+01;  0.0000000E+00;  6.8521600E+00;0;  2.4456906E-01;  2.3732771E+04;  0.0000000E+00;  3.8682578E+00;  4.0000000E+04;  0.0000000E+00;  3.8949391E+04; -2.1732058E-02;  0.0000000E+00;  2.6630113E-01;  9.2581953E+03;
  1.5731319E+00;  9.9999998E-03; -1.4168911E-01;9332;  1.3057430E+00;  0.0000000E+00; -4.7477107E-02;  1.0018585E+03;  1.3176765E-01;  1.4932943E+03;3;  3.0846321E+01;  0.0000000E+00;  6.6627569E+00;0;  2.2954214E-01;  2.3708078E+04;  0.0000000E+00;  1.8158408E+00;  4.0000000E+04;  0.0000000E+00;  3.8957594E+04; -4.4297222E-02;  0.0000000E+00;  2.7383935E-01;  6.2662544E+03;
  1.5732473E+00;  9.9999998E-03; -1.3171187E-01;9333;  1.3008006E+00;  0.0000000E+00; -4.5349527E-02;  1.0012455E+03;  1.3176228E-01;  1.0007151E+03;3;  3.0946556E+01;  0.0000000E+00;  6.6910391E+00;0;  2.1473992E-01;  2.3676533E+04;  0.0000000E+00;  6.6333020E-01;  4.0000000E+04;  0.0000000E+00;  3.8969434E+04; -6.6754103E-02;  0.0000000E+00;  2.8149402E-01;  4.2354243E+03;
  1.5733126E+00;  9.9999998E-03; -1.2168428E-01;9334;  1.2965207E+00;  0.0000000E+00; -4.2613793E-02;  1.0005887E+03;  1.3175775E-01;  4.7295084E+02;3;  3.0968187E+01;  0.0000000E+00;  6.5577087E+00;0;  2.0025182E-01;  2.3642512E+04;  0.0000000E+00;  7.0884064E-02;  4.0000000E+04;  0.0000000E+00;  3.8980648E+04; -8.8875473E-02;  0.0000000E+00;  2.8912729E-01;  2.8144370E+03;
  1.5733440E+00;  9.9999998E-03; -1.1160544E-01;9335;  1.2928627E+00;  0.0000000E+00; -3.9097168E-02;  9.9997705E+02;  1.3175912E-01; -1.8436974E+01;3;  3.1287849E+01;  0.0000000E+00;  6.6283588E+00;0;  1.8615401E-01;  2.3610215E+04;  0.0000000E+00; -1.7876053E-01;  4.0000000E+04;  0.0000000E+00;  3.8989441E+04; -1.1013309E-01;  0.0000000E+00;  2.9628709E-01;  1.8531887E+03;
  1.5813469E+00;  9.9999998E-03; -2.6371515E-01;9375;  1.4043378E+00;  0.0000000E+00; -6.3335851E-02;  1.0023639E+03;  1.2976879E-01;  1.8922104E+03;3;  2.9726984E+01;  0.0000000E+00;  8.6460543E+00;0;  4.6438557E-01;  2.4513867E+04;  0.0000000E+00;  5.5203471E+00;  4.0000000E+04;  0.0000000E+00;  3.8902855E+04;  3.5666740E-01;  0.0000000E+00;  1.0771818E-01;  9.5888447E+03;
  1.5821546E+00;  9.9999998E-03; -2.5357839E-01;9376;  1.3976263E+00;  0.0000000E+00; -6.2801614E-02;  9.9934552E+02;  1.2973414E-01; -5.2365643E+02;3;  3.0163752E+01;  0.0000000E+00;  8.7640505E+00;0;  4.1421717E-01;  2.4376895E+04;  0.0000000E+00;  1.7301706E+01;  4.0000000E+04;  0.0000000E+00;  3.8925449E+04;  2.7154455E-01;  0.0000000E+00;  1.4267264E-01;  3.1530662E+04;
  1.5830839E+00;  9.9999998E-03; -2.4342041E-01;9377;  1.3909415E+00;  0.0000000E+00; -6.2773123E-02;  9.9612653E+02;  1.2969570E-01; -3.0978689E+03;3;  3.1076555E+01;  0.0000000E+00;  8.3651390E+00;0;  3.8276628E-01;  2.4234973E+04;  0.0000000E+00;  2.8192389E+01;  4.0000000E+04;  0.0000000E+00;  3.8949727E+04;  1.9809654E-01;  0.0000000E+00;  1.8466973E-01;  4.9310777E+04;
  1.5839510E+00;  9.9999998E-03; -2.3324536E-01;9378;  1.3834953E+00;  0.0000000E+00; -6.2703595E-02;  9.9421899E+02;  1.2964337E-01; -4.6214258E+03;3;  3.2349464E+01;  0.0000000E+00;  7.5225077E+00;0;  3.5379434E-01;  2.4164254E+04;  0.0000000E+00;  3.6297527E+01;  4.0000000E+04;  0.0000000E+00;  3.8964438E+04;  1.3389663E-01;  0.0000000E+00;  2.1989772E-01;  6.1089625E+04;
  1.5846286E+00;  9.9999998E-03; -2.2305351E-01;9379;  1.3748764E+00;  0.0000000E+00; -6.1953750E-02;  9.9410675E+02;  1.2957956E-01; -4.7095239E+03;3;  3.3310463E+01;  0.0000000E+00;  6.3480191E+00;0;  3.1948075E-01;  2.4184082E+04;  0.0000000E+00;  4.2469463E+01;  4.0000000E+04;  0.0000000E+00;  3.8966336E+04;  7.9169922E-02;  0.0000000E+00;  2.4031082E-01;  6.8592047E+04;
  1.5847729E+00;  9.9999998E-03; -1.9221891E-01;9382;  1.3431830E+00;  0.0000000E+00; -5.4318942E-02;  1.0008372E+03;  1.2941906E-01;  6.6899713E+02;3;  3.3549900E+01;  0.0000000E+00;  5.1023684E+00;0;  2.2709113E-01;  2.4541125E+04;  0.0000000E+00;  4.1791653E+01;  4.0000000E+04;  0.0000000E+00;  3.8960414E+04; -1.9949622E-02;  0.0000000E+00;  2.4704075E-01;  6.1190551E+04;
  1.5847054E+00;  9.9999998E-03; -1.8183638E-01;9383;  1.3325998E+00;  0.0000000E+00; -5.0383907E-02;  1.0022797E+03;  1.2938294E-01;  1.8216824E+03;3;  3.2496777E+01;  0.0000000E+00;  5.8804321E+00;0;  2.0952886E-01;  2.4621768E+04;  0.0000000E+00;  3.1734282E+01;  4.0000000E+04;  0.0000000E+00;  3.8953859E+04; -3.7359998E-02;  0.0000000E+00;  2.4688886E-01;  4.6348660E+04;
  1.5849992E+00;  9.9999998E-03; -2.1283941E-01;9380;  1.3649720E+00;  0.0000000E+00; -6.0074378E-02;  9.9565094E+02;  1.2951413E-01; -3.4748477E+03;3;  3.4106483E+01;  0.0000000E+00;  5.3857780E+00;0;  2.8186163E-01;  2.4280207E+04;  0.0000000E+00;  4.6584255E+01;  4.0000000E+04;  0.0000000E+00;  3.8959129E+04;  3.5078507E-02;  0.0000000E+00;  2.4678314E-01;  7.2119070E+04;
  1.5849909E+00;  9.9999998E-03; -2.0257668E-01;9381;  1.3542734E+00;  0.0000000E+00; -5.7524558E-02;  9.9825165E+02;  1.2945926E-01; -1.3968981E+03;3;  3.3925087E+01;  0.0000000E+00;  5.1597319E+00;0;  2.5068876E-01;  2.4416336E+04;  0.0000000E+00;  4.7076069E+01;  4.0000000E+04;  0.0000000E+00;  3.8954836E+04;  2.9314139E-03;  0.0000000E+00;  2.4775735E-01;  7.0382594E+04;
  1.5849323E+00;  9.9999998E-03; -1.7158784E-01;9384;  1.3236039E+00;  0.0000000E+00; -4.7186900E-02;  1.0025793E+03;  1.2934700E-01;  2.0609294E+03;3;  3.1786928E+01;  0.0000000E+00;  6.1417141E+00;0;  1.9744152E-01;  2.4663094E+04;  0.0000000E+00;  2.1165449E+01;  4.0000000E+04;  0.0000000E+00;  3.8927121E+04; -5.1883802E-02;  0.0000000E+00;  2.4932532E-01;  3.1575479E+04;
  1.5852927E+00;  9.9999998E-03; -1.6150036E-01;9385;  1.3162524E+00;  0.0000000E+00; -4.5163471E-02;  1.0023824E+03;  1.2931453E-01;  1.9032230E+03;3;  3.1576996E+01;  0.0000000E+00;  6.4271116E+00;0;  1.8763438E-01;  2.4681096E+04;  0.0000000E+00;  1.2991810E+01;  4.0000000E+04;  0.0000000E+00;  3.8901203E+04; -6.5058380E-02;  0.0000000E+00;  2.5269276E-01;  2.0535922E+04;
  1.5856334E+00;  9.9999998E-03; -1.5150605E-01;9386;  1.3098881E+00;  0.0000000E+00; -4.3773185E-02;  1.0020258E+03;  1.2928554E-01;  1.6180973E+03;3;  3.1722078E+01;  0.0000000E+00;  6.3304372E+00;0;  1.7778575E-01;  2.4681891E+04;  0.0000000E+00;  7.4844661E+00;  4.0000000E+04;  0.0000000E+00;  3.8889031E+04; -7.8147434E-02;  0.0000000E+00;  2.5593320E-01;  1.3324655E+04;
  1.5858982E+00;  9.9999998E-03; -1.4154734E-01;9387;  1.3041968E+00;  0.0000000E+00; -4.2485639E-02;  1.0016081E+03;  1.2926701E-01;  1.2842847E+03;3;  3.1616840E+01;  0.0000000E+00;  6.3231215E+00;0;  1.6741402E-01;  2.4668043E+04;  0.0000000E+00;  3.9947991E+00;  4.0000000E+04;  0.0000000E+00;  3.8890379E+04; -9.1858551E-02;  0.0000000E+00;  2.5927258E-01;  8.7622002E+03;
  1.5860752E+00;  9.9999998E-03; -1.3158555E-01;9388;  1.2991371E+00;  0.0000000E+00; -4.1112911E-02;  1.0011133E+03;  1.2925607E-01;  8.8901611E+02;3;  3.1734131E+01;  0.0000000E+00;  6.1507916E+00;0;  1.5670308E-01;  2.4642777E+04;  0.0000000E+00;  1.8772984E+00;  4.0000000E+04;  0.0000000E+00;  3.8899914E+04; -1.0645876E-01;  0.0000000E+00;  2.6316184E-01;  5.7687671E+03;
  1.5861745E+00;  9.9999998E-03; -1.2159447E-01;9389;  1.2946316E+00;  0.0000000E+00; -3.9227873E-02;  1.0005543E+03;  1.2925099E-01;  4.4262888E+02;3;  3.2006927E+01;  0.0000000E+00;  5.7801819E+00;0;  1.4589366E-01;  2.4610467E+04;  0.0000000E+00;  6.6669923E-01;  4.0000000E+04;  0.0000000E+00;  3.8912824E+04; -1.2185746E-01;  0.0000000E+00;  2.6775113E-01;  3.6940630E+03;
  1.5862169E+00;  9.9999998E-03; -1.1156072E-01;9390;  1.2906803E+00;  0.0000000E+00; -3.6626931E-02;  9.9995990E+02;  1.2924977E-01; -3.2030392E+01;3;  3.2303719E+01;  0.0000000E+00;  5.5252242E+00;0;  1.3521710E-01;  2.4575590E+04;  0.0000000E+00;  4.1283268E-02;  4.0000000E+04;  0.0000000E+00;  3.8925289E+04; -1.3762832E-01;  0.0000000E+00;  2.7284542E-01;  2.2216162E+03;
  1.5934449E+00;  9.9999998E-03; -2.6393202E-01;9429;  1.4054766E+00;  0.0000000E+00; -6.0029577E-02;  1.0034292E+03;  1.2758479E-01;  2.7273181E+03;3;  3.2279854E+01;  0.0000000E+00;  6.5614834E+00;0;  3.5470334E-01;  2.5453623E+04;  0.0000000E+00;  2.1532712E+00;  4.0000000E+04;  0.0000000E+00;  3.8833441E+04;  2.4357009E-01;  0.0000000E+00;  1.1113326E-01;  7.4520093E+03;
  1.5940877E+00;  9.9999998E-03; -2.5381720E-01;9430;  1.3976692E+00;  0.0000000E+00; -5.8597438E-02;  1.0011732E+03;  1.2756027E-01;  9.3268372E+02;3;  3.1325468E+01;  0.0000000E+00;  7.3498921E+00;0;  2.9988885E-01;  2.5351607E+04;  0.0000000E+00;  9.4299164E+00;  4.0000000E+04;  0.0000000E+00;  3.8846648E+04;  1.6170885E-01;  0.0000000E+00;  1.3818002E-01;  1.6889195E+04;
  1.5948981E+00;  9.9999998E-03; -2.4367753E-01;9431;  1.3909141E+00;  0.0000000E+00; -5.8290116E-02;  9.9770044E+02;  1.2753841E-01; -1.8273524E+03;3;  3.2092155E+01;  0.0000000E+00;  7.1399021E+00;0;  2.8214985E-01;  2.5185637E+04;  0.0000000E+00;  2.3800474E+01;  4.0000000E+04;  0.0000000E+00;  3.8867691E+04;  9.8640159E-02;  0.0000000E+00;  1.8350969E-01;  3.9517477E+04;
  1.5957494E+00;  9.9999998E-03; -2.3351686E-01;9432;  1.3835905E+00;  0.0000000E+00; -5.8163218E-02;  9.9472412E+02;  1.2751098E-01; -4.1904351E+03;3;  3.3374317E+01;  0.0000000E+00;  6.4310727E+00;0;  2.6927400E-01;  2.5050945E+04;  0.0000000E+00;  3.5422909E+01;  4.0000000E+04;  0.0000000E+00;  3.8885797E+04;  4.3749165E-02;  0.0000000E+00;  2.2552484E-01;  5.6087898E+04;
  1.5964954E+00;  9.9999998E-03; -2.2333768E-01;9433;  1.3750820E+00;  0.0000000E+00; -5.7404090E-02;  9.9335223E+02;  1.2746884E-01; -5.2777031E+03;3;  3.4408142E+01;  0.0000000E+00;  5.2937717E+00;0;  2.4709252E-01;  2.5002779E+04;  0.0000000E+00;  4.3914555E+01;  4.0000000E+04;  0.0000000E+00;  3.8893074E+04; -4.1115009E-03;  0.0000000E+00;  2.5120401E-01;  6.6899031E+04;
  1.5970281E+00;  9.9999998E-03; -2.1313715E-01;9434;  1.3651953E+00;  0.0000000E+00; -5.5411879E-02;  9.9378375E+02;  1.2741444E-01; -4.9335244E+03;3;  3.5268509E+01;  0.0000000E+00;  4.4195323E+00;0;  2.1498191E-01;  2.5047529E+04;  0.0000000E+00;  4.9919720E+01;  4.0000000E+04;  0.0000000E+00;  3.8889730E+04; -4.3788977E-02;  0.0000000E+00;  2.5877088E-01;  7.3062531E+04;
  1.5970012E+00;  9.9999998E-03; -1.8215388E-01;9437;  1.3325541E+00;  0.0000000E+00; -4.6140745E-02;  1.0008342E+03;  1.2727381E-01;  6.6209668E+02;3;  3.3831757E+01;  0.0000000E+00;  4.8110728E+00;0;  1.4888340E-01;  2.5417137E+04;  0.0000000E+00;  4.4040810E+01;  4.0000000E+04;  0.0000000E+00;  3.8897969E+04; -1.0112601E-01;  0.0000000E+00;  2.5000942E-01;  5.8944859E+04;
  1.5972565E+00;  9.9999998E-03; -2.0290010E-01;9435;  1.3544804E+00;  0.0000000E+00; -5.2762721E-02;  9.9573993E+02;  1.2735935E-01; -3.3805435E+03;3;  3.5262310E+01;  0.0000000E+00;  4.1077666E+00;0;  1.8577172E-01;  2.5161391E+04;  0.0000000E+00;  5.2960865E+01;  4.0000000E+04;  0.0000000E+00;  3.8883809E+04; -7.2509810E-02;  0.0000000E+00;  2.5828153E-01;  7.4507078E+04;
  1.5971656E+00;  9.9999998E-03; -1.9258012E-01;9436;  1.3434373E+00;  0.0000000E+00; -4.9806308E-02;  9.9849731E+02;  1.2731190E-01; -1.1925168E+03;3;  3.4938072E+01;  0.0000000E+00;  4.0840507E+00;0;  1.6432674E-01;  2.5302055E+04;  0.0000000E+00;  5.1538048E+01;  4.0000000E+04;  0.0000000E+00;  3.8888641E+04; -9.0578631E-02;  0.0000000E+00;  2.5490537E-01;  7.0204414E+04;
  1.5970920E+00;  9.9999998E-03; -1.7175701E-01;9438;  1.3229260E+00;  0.0000000E+00; -4.2624544E-02;  1.0018359E+03;  1.2723932E-01;  1.4570439E+03;3;  3.2879612E+01;  0.0000000E+00;  5.4326506E+00;0;  1.3933161E-01;  2.5484055E+04;  0.0000000E+00;  3.2543518E+01;  4.0000000E+04;  0.0000000E+00;  3.8885281E+04; -1.0758434E-01;  0.0000000E+00;  2.4691595E-01;  4.3669375E+04;
  1.5974636E+00;  9.9999998E-03; -1.6152459E-01;9439;  1.3150101E+00;  0.0000000E+00; -4.0049016E-02;  1.0018640E+03;  1.2720142E-01;  1.4789445E+03;3;  3.2398174E+01;  0.0000000E+00;  5.9579349E+00;0;  1.3272846E-01;  2.5517221E+04;  0.0000000E+00;  2.1550816E+01;  4.0000000E+04;  0.0000000E+00;  3.8855223E+04; -1.1278159E-01;  0.0000000E+00;  2.4551004E-01;  2.9688123E+04;
  1.5979174E+00;  9.9999998E-03; -1.5143862E-01;9440;  1.3084042E+00;  0.0000000E+00; -3.8531683E-02;  1.0015764E+03;  1.2716693E-01;  1.2504585E+03;3;  3.2221718E+01;  0.0000000E+00;  6.0253782E+00;0;  1.2637907E-01;  2.5531990E+04;  0.0000000E+00;  1.3306044E+01;  4.0000000E+04;  0.0000000E+00;  3.8830496E+04; -1.1834282E-01;  0.0000000E+00;  2.4472189E-01;  1.9473057E+04;
  1.5983150E+00;  9.9999998E-03; -1.4142907E-01;9441;  1.3025764E+00;  0.0000000E+00; -3.7384812E-02;  1.0012571E+03;  1.2714085E-01;  9.9698511E+02;3;  3.2424210E+01;  0.0000000E+00;  5.8909431E+00;0;  1.1902520E-01;  2.5532479E+04;  0.0000000E+00;  7.7174025E+00;  4.0000000E+04;  0.0000000E+00;  3.8819918E+04; -1.2515455E-01;  0.0000000E+00;  2.4417976E-01;  1.2683614E+04;
  1.5986079E+00;  9.9999998E-03; -1.3144632E-01;9442;  1.2973546E+00;  0.0000000E+00; -3.6317468E-02;  1.0008945E+03;  1.2712124E-01;  7.0918219E+02;3;  3.2586880E+01;  0.0000000E+00;  5.6955519E+00;0;  1.1085169E-01;  2.5519658E+04;  0.0000000E+00;  4.1040263E+00;  4.0000000E+04;  0.0000000E+00;  3.8822406E+04; -1.3353917E-01;  0.0000000E+00;  2.4439086E-01;  8.2608730E+03;
  1.5987922E+00;  9.9999998E-03; -1.2146375E-01;9443;  1.2926482E+00;  0.0000000E+00; -3.5034046E-02;  1.0004523E+03;  1.2710895E-01;  3.5856747E+02;3;  3.2961330E+01;  0.0000000E+00;  5.2095065E+00;0;  1.0223651E-01;  2.5495969E+04;  0.0000000E+00;  1.8786743E+00;  4.0000000E+04;  0.0000000E+00;  3.8832590E+04; -1.4349039E-01;  0.0000000E+00;  2.4572690E-01;  5.3225767E+03;
  1.5988833E+00;  9.9999998E-03; -1.1146268E-01;9444;  1.2884544E+00;  0.0000000E+00; -3.3250045E-02;  9.9997021E+02;  1.2710571E-01; -2.3625944E+01;3;  3.3341202E+01;  0.0000000E+00;  4.7028604E+00;0;  9.3570590E-02;  2.5464684E+04;  0.0000000E+00;  6.0333771E-01;  4.0000000E+04;  0.0000000E+00;  3.8845859E+04; -1.5468355E-01;  0.0000000E+00;  2.4825414E-01;  3.2887515E+03;
  1.6053743E+00;  9.9999998E-03; -2.6416048E-01;9482;  1.4071580E+00;  0.0000000E+00; -5.7236601E-02;  1.0045756E+03;  1.2570873E-01;  3.6122102E+03;3;  3.5467667E+01;  0.0000000E+00;  4.2233677E+00;0;  3.1441703E-01;  2.6320674E+04;  0.0000000E+00;  8.5543308E+00;  4.0000000E+04;  0.0000000E+00;  3.8759465E+04;  1.9216152E-01;  0.0000000E+00;  1.2225551E-01;  7.8692778E+03;
  1.6059945E+00;  9.9999998E-03; -2.5406590E-01;9483;  1.3979753E+00;  0.0000000E+00; -5.5061623E-02;  1.0026759E+03;  1.2569156E-01;  2.1115964E+03;3;  3.2850971E+01;  0.0000000E+00;  5.9266343E+00;0;  2.4278495E-01;  2.6237221E+04;  0.0000000E+00;  1.8154356E+00;  4.0000000E+04;  0.0000000E+00;  3.8767723E+04;  1.0148545E-01;  0.0000000E+00;  1.4129950E-01;  5.4173853E+03;
  1.6066288E+00;  9.9999998E-03; -2.4394901E-01;9484;  1.3907766E+00;  0.0000000E+00; -5.4197907E-02;  9.9986414E+02;  1.2567672E-01; -1.0714697E+02;3;  3.3045536E+01;  0.0000000E+00;  6.0008831E+00;0;  2.2288805E-01;  2.6099465E+04;  0.0000000E+00;  1.3927270E+01;  4.0000000E+04;  0.0000000E+00;  3.8780219E+04;  4.0285107E-02;  0.0000000E+00;  1.8260294E-01;  2.3259225E+04;
  1.6073858E+00;  9.9999998E-03; -2.3380810E-01;9485;  1.3834836E+00;  0.0000000E+00; -5.3859413E-02;  9.9637329E+02;  1.2566523E-01; -2.8591851E+03;3;  3.4331692E+01;  0.0000000E+00;  5.3401790E+00;0;  2.1708727E-01;  2.5928088E+04;  0.0000000E+00;  2.9487898E+01;  4.0000000E+04;  0.0000000E+00;  3.8796258E+04; -1.0423276E-02;  0.0000000E+00;  2.2751054E-01;  4.4517566E+04;
  1.6081357E+00;  9.9999998E-03; -2.2364666E-01;9486;  1.3750759E+00;  0.0000000E+00; -5.3011857E-02;  9.9378387E+02;  1.2564562E-01; -4.8980513E+03;3;  3.5359783E+01;  0.0000000E+00;  4.2904296E+00;0;  2.0165753E-01;  2.5809855E+04;  0.0000000E+00;  4.1651669E+01;  4.0000000E+04;  0.0000000E+00;  3.8805930E+04; -5.5752847E-02;  0.0000000E+00;  2.5741038E-01;  5.9759199E+04;
  1.6087620E+00;  9.9999998E-03; -2.1346496E-01;9487;  1.3652494E+00;  0.0000000E+00; -5.0937451E-02;  9.9286475E+02;  1.2561069E-01; -5.6198589E+03;3;  3.6241135E+01;  0.0000000E+00;  3.5404425E+00;0;  1.7186372E-01;  2.5783721E+04;  0.0000000E+00;  5.0367912E+01;  4.0000000E+04;  0.0000000E+00;  3.8805586E+04; -9.4936594E-02;  0.0000000E+00;  2.6680031E-01;  6.9412016E+04;
  1.6091447E+00;  9.9999998E-03; -1.7213432E-01;9491;  1.3225758E+00;  0.0000000E+00; -3.8755544E-02;  1.0006343E+03;  1.2544216E-01;  4.9946085E+02;3;  3.4109436E+01;  0.0000000E+00;  4.6042876E+00;0;  9.3454048E-02;  2.6207082E+04;  0.0000000E+00;  4.5940498E+01;  4.0000000E+04;  0.0000000E+00;  3.8821613E+04; -1.5160152E-01;  0.0000000E+00;  2.4505557E-01;  5.5900211E+04;
  1.6091830E+00;  9.9999998E-03; -2.0325410E-01;9488;  1.3545177E+00;  0.0000000E+00; -4.8195172E-02;  9.9368298E+02;  1.2556620E-01; -4.9739180E+03;3;  3.6410027E+01;  0.0000000E+00;  3.2089543E+00;0;  1.4159533E-01;  2.5844838E+04;  0.0000000E+00;  5.5866318E+01;  4.0000000E+04;  0.0000000E+00;  3.8799660E+04; -1.2414289E-01;  0.0000000E+00;  2.6573822E-01;  7.3970969E+04;
  1.6092174E+00;  9.9999998E-03; -1.8260859E-01;9490;  1.3326089E+00;  0.0000000E+00; -4.2061016E-02;  9.9861115E+02;  1.2547669E-01; -1.0935295E+03;3;  3.5162632E+01;  0.0000000E+00;  3.7542286E+00;0;  1.0273525E-01;  2.6104365E+04;  0.0000000E+00;  5.4947037E+01;  4.0000000E+04;  0.0000000E+00;  3.8811629E+04; -1.4997074E-01;  0.0000000E+00;  2.5270599E-01;  6.7841141E+04;
  1.6093204E+00;  9.9999998E-03; -1.9298662E-01;9489;  1.3434800E+00;  0.0000000E+00; -4.5235857E-02;  9.9586206E+02;  1.2551846E-01; -3.2578254E+03;3;  3.6101196E+01;  0.0000000E+00;  3.2225540E+00;0;  1.1833329E-01;  2.5967125E+04;  0.0000000E+00;  5.7913509E+01;  4.0000000E+04;  0.0000000E+00;  3.8798602E+04; -1.4196406E-01;  0.0000000E+00;  2.6029736E-01;  7.3740695E+04;
  1.6093686E+00;  9.9999998E-03; -1.6172753E-01;9492;  1.3140218E+00;  0.0000000E+00; -3.5774779E-02;  1.0012896E+03;  1.2540632E-01;  1.0152819E+03;3;  3.3390858E+01;  0.0000000E+00;  5.2644706E+00;0;  8.7857872E-02;  2.6262453E+04;  0.0000000E+00;  3.3630535E+01;  4.0000000E+04;  0.0000000E+00;  3.8805695E+04; -1.5084346E-01;  0.0000000E+00;  2.3870133E-01;  4.1176484E+04;
  1.6098537E+00;  9.9999998E-03; -1.5148830E-01;9493;  1.3069781E+00;  0.0000000E+00; -3.3788037E-02;  1.0011570E+03;  1.2537034E-01;  9.1060632E+02;3;  3.3012333E+01;  0.0000000E+00;  5.5534596E+00;0;  8.3407789E-02;  2.6288789E+04;  0.0000000E+00;  2.2328011E+01;  4.0000000E+04;  0.0000000E+00;  3.8776109E+04; -1.5040848E-01;  0.0000000E+00;  2.3381627E-01;  2.8138576E+04;
  1.6103861E+00;  9.9999998E-03; -1.4137992E-01;9494;  1.3009342E+00;  0.0000000E+00; -3.2503303E-02;  1.0008500E+03;  1.2533490E-01;  6.6867499E+02;3;  3.3186634E+01;  0.0000000E+00;  5.4041858E+00;0;  7.8110129E-02;  2.6301691E+04;  0.0000000E+00;  1.3858929E+01;  4.0000000E+04;  0.0000000E+00;  3.8753168E+04; -1.5155764E-01;  0.0000000E+00;  2.2966777E-01;  1.8551262E+04;
  1.6108330E+00;  9.9999998E-03; -1.3134059E-01;9495;  1.2955171E+00;  0.0000000E+00; -3.1441618E-02;  1.0005549E+03;  1.2530781E-01;  4.3642130E+02;3;  3.3486858E+01;  0.0000000E+00;  5.1187158E+00;0;  7.1676046E-02;  2.6303236E+04;  0.0000000E+00;  8.0257072E+00;  4.0000000E+04;  0.0000000E+00;  3.8743473E+04; -1.5472271E-01;  0.0000000E+00;  2.2639875E-01;  1.2035144E+04;
  1.6111552E+00;  9.9999998E-03; -1.2133244E-01;9496;  1.2906287E+00;  0.0000000E+00; -3.0402448E-02;  1.0002498E+03;  1.2528838E-01;  1.9646117E+02;3;  3.3832672E+01;  0.0000000E+00;  4.7039208E+00;0;  6.4551473E-02;  2.6293162E+04;  0.0000000E+00;  4.1966348E+00;  4.0000000E+04;  0.0000000E+00;  3.8745543E+04; -1.5992801E-01;  0.0000000E+00;  2.2447948E-01;  7.7333613E+03;
  1.6113476E+00;  9.9999998E-03; -1.1133249E-01;9497;  1.2862101E+00;  0.0000000E+00; -2.9143857E-02;  9.9988965E+02;  1.2527733E-01; -8.6736397E+01;3;  3.4256550E+01;  0.0000000E+00;  4.1796970E+00;0;  5.7197154E-02;  2.6272143E+04;  0.0000000E+00;  1.8211225E+00;  4.0000000E+04;  0.0000000E+00;  3.8755293E+04; -1.6695772E-01;  0.0000000E+00;  2.2415487E-01;  4.8951074E+03;
  1.6178138E+00;  9.9999998E-03; -2.5431842E-01;9535;  1.3985108E+00;  0.0000000E+00; -5.1920645E-02;  1.0038990E+03;  1.2408834E-01;  3.0503325E+03;3;  3.4869194E+01;  0.0000000E+00;  4.0293522E+00;0;  2.3146333E-01;  2.7033566E+04;  0.0000000E+00;  5.2021461E+00;  4.0000000E+04;  0.0000000E+00;  3.8688504E+04;  8.3443835E-02;  0.0000000E+00;  1.4801949E-01;  6.1271919E+03;
  1.6183603E+00;  9.9999998E-03; -2.4422397E-01;9536;  1.3907053E+00;  0.0000000E+00; -5.0633948E-02;  1.0018594E+03;  1.2407865E-01;  1.4540801E+03;3;  3.4271832E+01;  0.0000000E+00;  4.5463667E+00;0;  2.0186183E-01;  2.6935727E+04;  0.0000000E+00;  2.7256260E+00;  4.0000000E+04;  0.0000000E+00;  3.8693957E+04;  1.6788222E-02;  0.0000000E+00;  1.8507360E-01;  6.6633379E+03;
  1.6189572E+00;  9.9999998E-03; -2.3410574E-01;9537;  1.3832141E+00;  0.0000000E+00; -4.9829841E-02;  9.9884045E+02;  1.2407360E-01; -9.0634308E+02;3;  3.5327724E+01;  0.0000000E+00;  4.0631909E+00;0;  1.9146702E-01;  2.6782633E+04;  0.0000000E+00;  1.7405254E+01;  4.0000000E+04;  0.0000000E+00;  3.8702852E+04; -3.5559338E-02;  0.0000000E+00;  2.2702636E-01;  2.6728748E+04;
  1.6196339E+00;  9.9999998E-03; -2.2396579E-01;9538;  1.3748947E+00;  0.0000000E+00; -4.8789144E-02;  9.9556360E+02;  1.2406993E-01; -3.4657458E+03;3;  3.6311333E+01;  0.0000000E+00;  3.3176825E+00;0;  1.7705145E-01;  2.6619840E+04;  0.0000000E+00;  3.3778728E+01;  4.0000000E+04;  0.0000000E+00;  3.8710012E+04; -8.1984252E-02;  0.0000000E+00;  2.5903571E-01;  4.6320754E+04;
  1.6202831E+00;  9.9999998E-03; -2.1380667E-01;9539;  1.3651730E+00;  0.0000000E+00; -4.6677928E-02;  9.9332428E+02;  1.2405628E-01; -5.2124194E+03;3;  3.7200489E+01;  0.0000000E+00;  2.6208253E+00;0;  1.4676958E-01;  2.6519160E+04;  0.0000000E+00;  4.6524944E+01;  4.0000000E+04;  0.0000000E+00;  3.8709641E+04; -1.2408805E-01;  0.0000000E+00;  2.7085763E-01;  6.0307777E+04;
  1.6208100E+00;  9.9999998E-03; -2.0362371E-01;9540;  1.3544912E+00;  0.0000000E+00; -4.3906204E-02;  9.9271936E+02;  1.2402891E-01; -5.6823159E+03;3;  3.7488422E+01;  0.0000000E+00;  2.2587440E+00;0;  1.1309884E-01;  2.6508076E+04;  0.0000000E+00;  5.5510605E+01;  4.0000000E+04;  0.0000000E+00;  3.8703141E+04; -1.5719567E-01;  0.0000000E+00;  2.7029452E-01;  6.8907344E+04;
  1.6211474E+00;  9.9999998E-03; -1.9339870E-01;9541;  1.3434049E+00;  0.0000000E+00; -4.0867995E-02;  9.9374323E+02;  1.2398904E-01; -4.8818574E+03;3;  3.7186516E+01;  0.0000000E+00;  2.2618122E+00;0;  8.4748402E-02;  2.6577627E+04;  0.0000000E+00;  6.0855824E+01;  4.0000000E+04;  0.0000000E+00;  3.8698297E+04; -1.7870222E-01;  0.0000000E+00;  2.6345062E-01;  7.2460242E+04;
  1.6212585E+00;  9.9999998E-03; -1.8309622E-01;9542;  1.3324946E+00;  0.0000000E+00; -3.7807424E-02;  9.9596600E+02;  1.2394749E-01; -3.1472424E+03;3;  3.6425671E+01;  0.0000000E+00;  2.7699251E+00;0;  6.5221980E-02;  2.6698094E+04;  0.0000000E+00;  6.2000183E+01;  4.0000000E+04;  0.0000000E+00;  3.8704281E+04; -1.8855686E-01;  0.0000000E+00;  2.5377885E-01;  7.1061102E+04;
  1.6212084E+00;  9.9999998E-03; -1.7266348E-01;9543;  1.3223735E+00;  0.0000000E+00; -3.5030521E-02;  9.9854291E+02;  1.2390903E-01; -1.1368468E+03;3;  3.5428307E+01;  0.0000000E+00;  3.5789950E+00;0;  5.4797918E-02;  2.6825111E+04;  0.0000000E+00;  5.7932545E+01;  4.0000000E+04;  0.0000000E+00;  3.8724102E+04; -1.8893674E-01;  0.0000000E+00;  2.4373466E-01;  6.4483938E+04;
  1.6212502E+00;  9.9999998E-03; -1.6214971E-01;9544;  1.3133548E+00;  0.0000000E+00; -3.2232352E-02;  1.0002578E+03;  1.2387571E-01;  2.0107819E+02;3;  3.4455811E+01;  0.0000000E+00;  4.3886976E+00;0;  4.8875973E-02;  2.6915439E+04;  0.0000000E+00;  4.8041576E+01;  4.0000000E+04;  0.0000000E+00;  3.8734980E+04; -1.8447530E-01;  0.0000000E+00;  2.3335128E-01;  5.2814477E+04;
  1.6215923E+00;  9.9999998E-03; -1.5172239E-01;9545;  1.3057461E+00;  0.0000000E+00; -2.9805288E-02;  1.0007065E+03;  1.2384208E-01;  5.5108960E+02;3;  3.3898598E+01;  0.0000000E+00;  4.9108334E+00;0;  4.4942737E-02;  2.6961125E+04;  0.0000000E+00;  3.5214466E+01;  4.0000000E+04;  0.0000000E+00;  3.8719418E+04; -1.7917016E-01;  0.0000000E+00;  2.2411290E-01;  3.9024195E+04;
  1.6221609E+00;  9.9999998E-03; -1.4145705E-01;9546;  1.2993301E+00;  0.0000000E+00; -2.8095584E-02;  1.0004854E+03;  1.2380625E-01;  3.7834192E+02;3;  3.3972927E+01;  0.0000000E+00;  4.8308582E+00;0;  4.0934861E-02;  2.6982871E+04;  0.0000000E+00;  2.3522091E+01;  4.0000000E+04;  0.0000000E+00;  3.8691695E+04; -1.7537731E-01;  0.0000000E+00;  2.1631217E-01;  2.6839025E+04;
  1.6227602E+00;  9.9999998E-03; -1.3131823E-01;9547;  1.2936884E+00;  0.0000000E+00; -2.6833354E-02;  1.0001730E+03;  1.2377330E-01;  1.3487566E+02;3;  3.4264778E+01;  0.0000000E+00;  4.5371547E+00;0;  3.5878763E-02;  2.6994904E+04;  0.0000000E+00;  1.4626597E+01;  4.0000000E+04;  0.0000000E+00;  3.8669289E+04; -1.7386048E-01;  0.0000000E+00;  2.0973924E-01;  1.7697727E+04;
  1.6232558E+00;  9.9999998E-03; -1.2125247E-01;9548;  1.2886087E+00;  0.0000000E+00; -2.5761371E-02;  9.9993140E+02;  1.2374835E-01; -5.3435772E+01;3;  3.4636120E+01;  0.0000000E+00;  4.1680093E+00;0;  3.0002475E-02;  2.6998852E+04;  0.0000000E+00;  8.3988457E+00;  4.0000000E+04;  0.0000000E+00;  3.8658895E+04; -1.7466852E-01;  0.0000000E+00;  2.0467100E-01;  1.1364455E+04;
  1.6236027E+00;  9.9999998E-03; -1.1122338E-01;9549;  1.2840170E+00;  0.0000000E+00; -2.4704691E-02;  9.9968652E+02;  1.2372856E-01; -2.4408052E+02;3;  3.5061493E+01;  0.0000000E+00;  3.7337778E+00;0;  2.3764819E-02;  2.6992578E+04;  0.0000000E+00;  4.2709365E+00;  4.0000000E+04;  0.0000000E+00;  3.8659410E+04; -1.7765574E-01;  0.0000000E+00;  2.0142056E-01;  7.1698838E+03;
  1.6300709E+00;  9.9999998E-03; -2.4449591E-01;9586;  1.3906385E+00;  0.0000000E+00; -4.7218103E-02;  1.0033063E+03;  1.2271357E-01;  2.5599980E+03;3;  3.5701862E+01;  0.0000000E+00;  2.7429678E+00;0;  2.0921528E-01;  2.7672162E+04;  0.0000000E+00;  2.7614274E+00;  4.0000000E+04;  0.0000000E+00;  3.8609008E+04;  2.2859670E-02;  0.0000000E+00;  1.8635562E-01;  4.2614805E+03;
  1.6305585E+00;  9.9999998E-03; -2.3439918E-01;9587;  1.3828963E+00;  0.0000000E+00; -4.6131156E-02;  1.0012175E+03;  1.2271008E-01;  9.4222693E+02;3;  3.6541920E+01;  0.0000000E+00;  2.5221570E+00;0;  1.9103277E-01;  2.7566865E+04;  0.0000000E+00;  3.0863991E+00;  4.0000000E+04;  0.0000000E+00;  3.8612004E+04; -3.4979846E-02;  0.0000000E+00;  2.2601262E-01;  7.8403647E+03;
  1.6310952E+00;  9.9999998E-03; -2.2428142E-01;9588;  1.3744781E+00;  0.0000000E+00; -4.4653490E-02;  9.9825122E+02;  1.2271103E-01; -1.3527509E+03;3;  3.7436054E+01;  0.0000000E+00;  1.9816716E+00;0;  1.6873221E-01;  2.7415814E+04;  0.0000000E+00;  1.9101980E+01;  4.0000000E+04;  0.0000000E+00;  3.8613289E+04; -8.6640224E-02;  0.0000000E+00;  2.5537243E-01;  2.7111516E+04;
  1.6316853E+00;  9.9999998E-03; -2.1414591E-01;9589;  1.3648987E+00;  0.0000000E+00; -4.2446673E-02;  9.9522803E+02;  1.2271203E-01; -3.6892319E+03;3;  3.8273613E+01;  0.0000000E+00;  1.4638144E+00;0;  1.3487174E-01;  2.7267215E+04;  0.0000000E+00;  3.6481251E+01;  4.0000000E+04;  0.0000000E+00;  3.8608984E+04; -1.3411827E-01;  0.0000000E+00;  2.6899001E-01;  4.5303395E+04;
  1.6322414E+00;  9.9999998E-03; -2.0399077E-01;9590;  1.3543457E+00;  0.0000000E+00; -3.9725848E-02;  9.9325232E+02;  1.2270337E-01; -5.2139683E+03;3;  3.8616119E+01;  0.0000000E+00;  1.1723632E+00;0;  9.6596926E-02;  2.7180945E+04;  0.0000000E+00;  5.0313053E+01;  4.0000000E+04;  0.0000000E+00;  3.8599012E+04; -1.7386454E-01;  0.0000000E+00;  2.7046147E-01;  5.8564914E+04;
  1.6326972E+00;  9.9999998E-03; -1.9380470E-01;9591;  1.3432533E+00;  0.0000000E+00; -3.6682576E-02;  9.9280554E+02;  1.2268244E-01; -5.5568335E+03;3;  3.8350471E+01;  0.0000000E+00;  1.2222912E+00;0;  6.1242536E-02;  2.7176039E+04;  0.0000000E+00;  5.9791500E+01;  4.0000000E+04;  0.0000000E+00;  3.8589066E+04; -2.0241071E-01;  0.0000000E+00;  2.6365325E-01;  6.6438602E+04;
  1.6330063E+00;  9.9999998E-03; -1.8356264E-01;9592;  1.3322302E+00;  0.0000000E+00; -3.3606857E-02;  9.9383130E+02;  1.2264800E-01; -4.7631914E+03;3;  3.7615871E+01;  0.0000000E+00;  1.8048422E+00;0;  3.4705833E-02;  2.7242398E+04;  0.0000000E+00;  6.4881073E+01;  4.0000000E+04;  0.0000000E+00;  3.8587543E+04; -2.1799143E-01;  0.0000000E+00;  2.5269726E-01;  6.9167062E+04;
  1.6331514E+00;  9.9999998E-03; -1.7322329E-01;9593;  1.3220201E+00;  0.0000000E+00; -3.1001745E-02;  9.9591302E+02;  1.2261005E-01; -3.1553301E+03;3;  3.6642010E+01;  0.0000000E+00;  2.5740519E+00;0;  2.0097479E-02;  2.7352061E+04;  0.0000000E+00;  6.5362251E+01;  4.0000000E+04;  0.0000000E+00;  3.8600996E+04; -2.2104090E-01;  0.0000000E+00;  2.4113838E-01;  6.7155172E+04;
  1.6331997E+00;  9.9999998E-03; -1.6274597E-01;9594;  1.3128601E+00;  0.0000000E+00; -2.8764350E-02;  9.9823541E+02;  1.2257376E-01; -1.3622867E+03;3;  3.5663498E+01;  0.0000000E+00;  3.4024901E+00;0;  1.3206229E-02;  2.7465918E+04;  0.0000000E+00;  6.0612041E+01;  4.0000000E+04;  0.0000000E+00;  3.8626277E+04; -2.1574166E-01;  0.0000000E+00;  2.2894789E-01;  6.0556883E+04;
  1.6333599E+00;  9.9999998E-03; -1.5220247E-01;9595;  1.3048118E+00;  0.0000000E+00; -2.6458055E-02;  9.9972375E+02;  1.2254171E-01; -2.1324915E+02;3;  3.4958569E+01;  0.0000000E+00;  3.9831870E+00;0;  9.0240538E-03;  2.7545754E+04;  0.0000000E+00;  5.0273533E+01;  4.0000000E+04;  0.0000000E+00;  3.8638625E+04; -2.0713781E-01;  0.0000000E+00;  2.1616186E-01;  4.9659602E+04;
  1.6337855E+00;  9.9999998E-03; -1.4174907E-01;9596;  1.2979183E+00;  0.0000000E+00; -2.4375722E-02;  1.0000719E+03;  1.2251053E-01;  5.5463749E+01;3;  3.4828438E+01;  0.0000000E+00;  4.1171527E+00;0;  5.5787861E-03;  2.7585461E+04;  0.0000000E+00;  3.7145645E+01;  4.0000000E+04;  0.0000000E+00;  3.8625223E+04; -1.9895045E-01;  0.0000000E+00;  2.0452924E-01;  3.6991016E+04;
  1.6344141E+00;  9.9999998E-03; -1.3145265E-01;9597;  1.2919397E+00;  0.0000000E+00; -2.2714615E-02;  9.9981934E+02;  1.2247739E-01; -1.3931143E+02;3;  3.5054329E+01;  0.0000000E+00;  3.8926673E+00;0;  1.6171634E-03;  2.7603893E+04;  0.0000000E+00;  2.4998755E+01;  4.0000000E+04;  0.0000000E+00;  3.8599000E+04; -1.9297972E-01;  0.0000000E+00;  1.9459689E-01;  2.5607895E+04;
  1.6350631E+00;  9.9999998E-03; -1.2128475E-01;9598;  1.2866575E+00;  0.0000000E+00; -2.1445787E-02;  9.9950562E+02;  1.2244657E-01; -3.8097211E+02;3;  3.5381207E+01;  0.0000000E+00;  3.6034284E+00;0; -3.0261874E-03;  2.7615414E+04;  0.0000000E+00;  1.5555016E+01;  4.0000000E+04;  0.0000000E+00;  3.8576715E+04; -1.8953162E-01;  0.0000000E+00;  1.8650544E-01;  1.6855199E+04;
  1.6355903E+00;  9.9999998E-03; -1.1119510E-01;9599;  1.2819096E+00;  0.0000000E+00; -2.0386444E-02;  9.9928656E+02;  1.2242120E-01; -5.4954230E+02;3;  3.5781410E+01;  0.0000000E+00;  3.2115791E+00;0; -8.0931187E-03;  2.7622271E+04;  0.0000000E+00;  8.8512306E+00;  4.0000000E+04;  0.0000000E+00;  3.8564723E+04; -1.8850406E-01;  0.0000000E+00;  1.8041094E-01;  1.0692781E+04;
  1.6421770E+00;  9.9999998E-03; -2.3468411E-01;9635;  1.3823978E+00;  0.0000000E+00; -4.2286012E-02;  1.0028755E+03;  1.2155201E-01;  2.2000808E+03;3;  3.7910496E+01;  0.0000000E+00;  6.3638508E-01;0;  2.0642863E-01;  2.8247418E+04;  0.0000000E+00;  9.3335438E-01;  4.0000000E+04;  0.0000000E+00;  3.8522211E+04; -1.2363925E-02;  0.0000000E+00;  2.1879256E-01;  2.6421108E+03;
  1.6426094E+00;  9.9999998E-03; -2.2458637E-01;9636;  1.3738595E+00;  0.0000000E+00; -4.0519819E-02;  1.0008268E+03;  1.2155095E-01;  6.3234589E+02;3;  3.8783672E+01;  0.0000000E+00;  2.2004993E-01;0;  1.7457679E-01;  2.8144361E+04;  0.0000000E+00;  2.3183560E+00;  4.0000000E+04;  0.0000000E+00;  3.8519391E+04; -7.1408771E-02;  0.0000000E+00;  2.4598557E-01;  7.4473159E+03;
  1.6430780E+00;  9.9999998E-03; -2.1447134E-01;9637;  1.3643997E+00;  0.0000000E+00; -3.8235106E-02;  9.9805927E+02;  1.2155562E-01; -1.4834897E+03;3;  3.9514706E+01;  0.0000000E+00; -6.4793065E-02;0;  1.3474245E-01;  2.8004604E+04;  0.0000000E+00;  1.9278345E+01;  4.0000000E+04;  0.0000000E+00;  3.8510961E+04; -1.2621580E-01;  0.0000000E+00;  2.6095825E-01;  2.5333152E+04;
  1.6435888E+00;  9.9999998E-03; -2.0434088E-01;9638;  1.3539768E+00;  0.0000000E+00; -3.5479411E-02;  9.9526178E+02;  1.2155974E-01; -3.6199148E+03;3;  3.9792969E+01;  0.0000000E+00; -1.4986335E-01;0;  8.9340463E-02;  2.7870271E+04;  0.0000000E+00;  3.7973072E+01;  4.0000000E+04;  0.0000000E+00;  3.8495391E+04; -1.7479940E-01;  0.0000000E+00;  2.6413986E-01;  4.2459387E+04;
  1.6440767E+00;  9.9999998E-03; -1.9418944E-01;9639;  1.3429166E+00;  0.0000000E+00; -3.2391574E-02;  9.9340833E+02;  1.2155510E-01; -5.0333032E+03;3;  3.9526798E+01;  0.0000000E+00;  4.3034613E-02;0;  4.4947237E-02;  2.7791693E+04;  0.0000000E+00;  5.2936848E+01;  4.0000000E+04;  0.0000000E+00;  3.8477305E+04; -2.1316937E-01;  0.0000000E+00;  2.5811660E-01;  5.5074270E+04;
  1.6444930E+00;  9.9999998E-03; -1.8399993E-01;9640;  1.3318188E+00;  0.0000000E+00; -2.9308481E-02;  9.9296179E+02;  1.2153853E-01; -5.3718804E+03;3;  3.8772118E+01;  0.0000000E+00;  7.5777227E-01;0;  9.5373094E-03;  2.7785143E+04;  0.0000000E+00;  6.2903065E+01;  4.0000000E+04;  0.0000000E+00;  3.8464973E+04; -2.3772715E-01;  0.0000000E+00;  2.4726446E-01;  6.2342035E+04;
  1.6448051E+00;  9.9999998E-03; -1.7374142E-01;9641;  1.3214964E+00;  0.0000000E+00; -2.6784914E-02;  9.9385767E+02;  1.2150794E-01; -4.6864980E+03;3;  3.7751812E+01;  0.0000000E+00;  1.5880924E+00;0; -1.1300206E-02;  2.7842244E+04;  0.0000000E+00;  6.7878693E+01;  4.0000000E+04;  0.0000000E+00;  3.8466965E+04; -2.4688117E-01;  0.0000000E+00;  2.3558097E-01;  6.4578023E+04;
  1.6450108E+00;  9.9999998E-03; -1.6337198E-01;9642;  1.3122447E+00;  0.0000000E+00; -2.4826160E-02;  9.9571002E+02;  1.2147376E-01; -3.2724653E+03;3;  3.6730419E+01;  0.0000000E+00;  2.4220033E+00;0; -2.1139339E-02;  2.7937445E+04;  0.0000000E+00;  6.7909416E+01;  4.0000000E+04;  0.0000000E+00;  3.8485965E+04; -2.4409828E-01;  0.0000000E+00;  2.2295894E-01;  6.2339090E+04;
  1.6451712E+00;  9.9999998E-03; -1.5286954E-01;9643;  1.3040301E+00;  0.0000000E+00; -2.3048824E-02;  9.9775305E+02;  1.2144108E-01; -1.7137289E+03;3;  3.5934078E+01;  0.0000000E+00;  3.0917416E+00;0; -2.5726154E-02;  2.8036439E+04;  0.0000000E+00;  6.2696781E+01;  4.0000000E+04;  0.0000000E+00;  3.8513867E+04; -2.3462351E-01;  0.0000000E+00;  2.0889735E-01;  5.6031160E+04;
  1.6454343E+00;  9.9999998E-03; -1.4231271E-01;9644;  1.2967674E+00;  0.0000000E+00; -2.1120995E-02;  9.9905200E+02;  1.2140922E-01; -7.2282489E+02;3;  3.5753635E+01;  0.0000000E+00;  3.2613492E+00;0; -2.8945431E-02;  2.8107203E+04;  0.0000000E+00;  5.2267284E+01;  4.0000000E+04;  0.0000000E+00;  3.8527961E+04; -2.2327472E-01;  0.0000000E+00;  1.9432929E-01;  4.6182066E+04;
  1.6459091E+00;  9.9999998E-03; -1.3183807E-01;9645;  1.2904246E+00;  0.0000000E+00; -1.9260854E-02;  9.9937482E+02;  1.2138072E-01; -4.7643991E+02;3;  3.5801838E+01;  0.0000000E+00;  3.2269716E+00;0; -3.1962767E-02;  2.8143152E+04;  0.0000000E+00;  3.9114399E+01;  4.0000000E+04;  0.0000000E+00;  3.8517863E+04; -2.1308960E-01;  0.0000000E+00;  1.8112683E-01;  3.4795535E+04;
  1.6465536E+00;  9.9999998E-03; -1.2151307E-01;9646;  1.2848603E+00;  0.0000000E+00; -1.7675495E-02;  9.9913489E+02;  1.2135281E-01; -6.5879962E+02;3;  3.6069160E+01;  0.0000000E+00;  2.9792843E+00;0; -3.5401151E-02;  2.8159062E+04;  0.0000000E+00;  2.6620106E+01;  4.0000000E+04;  0.0000000E+00;  3.8494516E+04; -2.0542049E-01;  0.0000000E+00;  1.7001934E-01;  2.4309512E+04;
  1.6472110E+00;  9.9999998E-03; -1.1131659E-01;9647;  1.2799362E+00;  0.0000000E+00; -1.6443152E-02;  9.9883557E+02;  1.2132716E-01; -8.8610577E+02;3;  3.6469353E+01;  0.0000000E+00;  2.6668193E+00;0; -3.9185628E-02;  2.8169543E+04;  0.0000000E+00;  1.6657618E+01;  4.0000000E+04;  0.0000000E+00;  3.8472449E+04; -2.0038602E-01;  0.0000000E+00;  1.6120039E-01;  1.6030833E+04;
  1.6536171E+00;  9.9999998E-03; -2.3495537E-01;9682;  1.3817426E+00;  0.0000000E+00; -3.7920505E-02;  1.0051368E+03;  1.2056225E-01;  3.8801667E+03;3;  3.9278606E+01;  0.0000000E+00; -1.0974869E+00;0;  2.2909787E-01;  2.8900586E+04;  0.0000000E+00;  2.4848097E+01;  4.0000000E+04;  0.0000000E+00;  3.8429086E+04;  2.9047869E-02;  0.0000000E+00;  2.0005000E-01;  7.1565693E+03;
  1.6541547E+00;  9.9999998E-03; -2.2487912E-01;9683;  1.3729986E+00;  0.0000000E+00; -3.6053423E-02;  1.0026034E+03;  1.2057111E-01;  1.9652930E+03;3;  4.0200394E+01;  0.0000000E+00; -1.7297328E+00;0;  1.8893071E-01;  2.8769502E+04;  0.0000000E+00; -3.9830834E-01;  4.0000000E+04;  0.0000000E+00;  3.8424387E+04; -3.8226184E-02;  0.0000000E+00;  2.2715689E-01;  1.6317472E+03;
  1.6545390E+00;  9.9999998E-03; -2.1478201E-01;9684;  1.3634859E+00;  0.0000000E+00; -3.3495672E-02;  1.0006710E+03;  1.2057285E-01;  5.0631992E+02;3;  4.0875431E+01;  0.0000000E+00; -1.9156556E+00;0;  1.3809840E-01;  2.8673748E+04;  0.0000000E+00;  7.8539896E-01;  4.0000000E+04;  0.0000000E+00;  3.8414559E+04; -1.0242836E-01;  0.0000000E+00;  2.4052677E-01;  6.0652725E+03;
  1.6549459E+00;  9.9999998E-03; -2.0467061E-01;9685;  1.3532155E+00;  0.0000000E+00; -3.0729426E-02;  9.9811548E+02;  1.2057849E-01; -1.4212518E+03;3;  4.1070293E+01;  0.0000000E+00; -1.7463604E+00;0;  8.5454836E-02;  2.8549545E+04;  0.0000000E+00;  1.8243790E+01;  4.0000000E+04;  0.0000000E+00;  3.8395355E+04; -1.6065557E-01;  0.0000000E+00;  2.4611041E-01;  2.2272906E+04;
  1.6553915E+00;  9.9999998E-03; -1.9454525E-01;9686;  1.3422955E+00;  0.0000000E+00; -2.7741889E-02;  9.9550427E+02;  1.2058350E-01; -3.3887268E+03;3;  4.0709003E+01;  0.0000000E+00; -1.2335870E+00;0;  3.3290580E-02;  2.8428596E+04;  0.0000000E+00;  3.8047829E+01;  4.0000000E+04;  0.0000000E+00;  3.8369145E+04; -2.0999704E-01;  0.0000000E+00;  2.4328762E-01;  3.8213449E+04;
  1.6558292E+00;  9.9999998E-03; -1.8439654E-01;9687;  1.3312036E+00;  0.0000000E+00; -2.4724158E-02;  9.9372046E+02;  1.2058219E-01; -4.7307573E+03;3;  3.9879635E+01;  0.0000000E+00; -3.5382748E-01;0; -1.1519670E-02;  2.8355143E+04;  0.0000000E+00;  5.3942448E+01;  4.0000000E+04;  0.0000000E+00;  3.8344121E+04; -2.4596199E-01;  0.0000000E+00;  2.3444232E-01;  5.0022305E+04;
  1.6562215E+00;  9.9999998E-03; -1.7420223E-01;9688;  1.3208288E+00;  0.0000000E+00; -2.2301523E-02;  9.9320953E+02;  1.2056836E-01; -5.1132158E+03;3;  3.8754070E+01;  0.0000000E+00;  6.0531545E-01;0; -3.9714471E-02;  2.8344766E+04;  0.0000000E+00;  6.4322563E+01;  4.0000000E+04;  0.0000000E+00;  3.8329910E+04; -2.6415676E-01;  0.0000000E+00;  2.2444229E-01;  5.6724281E+04;
  1.6565497E+00;  9.9999998E-03; -1.6392876E-01;9689;  1.3114870E+00;  0.0000000E+00; -2.0521391E-02;  9.9393451E+02;  1.2054384E-01; -4.5654697E+03;3;  3.7690430E+01;  0.0000000E+00;  1.5012202E+00;0; -5.4025084E-02;  2.8389896E+04;  0.0000000E+00;  6.9230667E+01;  4.0000000E+04;  0.0000000E+00;  3.8334027E+04; -2.6705769E-01;  0.0000000E+00;  2.1303260E-01;  5.8639781E+04;
  1.6568220E+00;  9.9999998E-03; -1.5353957E-01;9690;  1.3031844E+00;  0.0000000E+00; -1.9138917E-02;  9.9548431E+02;  1.2051257E-01; -3.3978149E+03;3;  3.6914577E+01;  0.0000000E+00;  2.1385748E+00;0; -6.0140148E-02;  2.8467461E+04;  0.0000000E+00;  6.8996758E+01;  4.0000000E+04;  0.0000000E+00;  3.8356398E+04; -2.5972015E-01;  0.0000000E+00;  1.9958000E-01;  5.6452559E+04;
  1.6570857E+00;  9.9999998E-03; -1.4303361E-01;9691;  1.2957768E+00;  0.0000000E+00; -1.7726475E-02;  9.9718658E+02;  1.2048406E-01; -2.1162332E+03;3;  3.6557217E+01;  0.0000000E+00;  2.3926761E+00;0; -6.3176632E-02;  2.8549127E+04;  0.0000000E+00;  6.3582291E+01;  4.0000000E+04;  0.0000000E+00;  3.8384492E+04; -2.4745317E-01;  0.0000000E+00;  1.8427654E-01;  5.0689738E+04;
  1.6574235E+00;  9.9999998E-03; -1.3248578E-01;9692;  1.2891548E+00;  0.0000000E+00; -1.6095145E-02;  9.9834125E+02;  1.2045766E-01; -1.2471763E+03;3;  3.6494923E+01;  0.0000000E+00;  2.5365896E+00;0; -6.5546423E-02;  2.8610889E+04;  0.0000000E+00;  5.3428780E+01;  4.0000000E+04;  0.0000000E+00;  3.8399113E+04; -2.3435022E-01;  0.0000000E+00;  1.6880380E-01;  4.2076828E+04;
  1.6578965E+00;  9.9999998E-03; -1.2200259E-01;9693;  1.2833140E+00;  0.0000000E+00; -1.4464399E-02;  9.9870038E+02;  1.2043185E-01; -9.7658582E+02;3;  3.6759663E+01;  0.0000000E+00;  2.3123019E+00;0; -6.7743227E-02;  2.8645646E+04;  0.0000000E+00;  4.0726170E+01;  4.0000000E+04;  0.0000000E+00;  3.8392801E+04; -2.2274758E-01;  0.0000000E+00;  1.5500435E-01;  3.2199504E+04;
  1.6584935E+00;  9.9999998E-03; -1.1165008E-01;9694;  1.2781703E+00;  0.0000000E+00; -1.3059008E-02;  9.9852234E+02;  1.2040992E-01; -1.1095410E+03;3;  3.7098736E+01;  0.0000000E+00;  2.1125367E+00;0; -7.0077375E-02;  2.8660174E+04;  0.0000000E+00;  2.8267618E+01;  4.0000000E+04;  0.0000000E+00;  3.8373707E+04; -2.1371384E-01;  0.0000000E+00;  1.4363647E-01;  2.2850371E+04;
  1.6655352E+00;  9.9999998E-03; -2.2515017E-01;9729;  1.3719668E+00;  0.0000000E+00; -3.1081315E-02;  1.0049493E+03;  1.1973498E-01;  3.6823535E+03;3;  4.1480473E+01;  0.0000000E+00; -3.3738840E+00;0;  2.0708655E-01;  2.9371115E+04;  0.0000000E+00;  2.7102240E+01;  4.0000000E+04;  0.0000000E+00;  3.8328480E+04;  1.0466113E-02;  0.0000000E+00;  1.9662043E-01;  7.8683936E+03;
  1.6660274E+00;  9.9999998E-03; -2.1507624E-01;9730;  1.3622779E+00;  0.0000000E+00; -2.8251141E-02;  1.0024695E+03;  1.1974665E-01;  1.8361371E+03;3;  4.2191154E+01;  0.0000000E+00; -3.6754637E+00;0;  1.4430551E-01;  2.9244553E+04;  0.0000000E+00; -9.7371954E-01;  4.0000000E+04;  0.0000000E+00;  3.8315328E+04; -6.3290089E-02;  0.0000000E+00;  2.0759560E-01;  1.5178719E+03;
  1.6663743E+00;  9.9999998E-03; -2.0497973E-01;9731;  1.3520440E+00;  0.0000000E+00; -2.5386309E-02;  1.0006704E+03;  1.1975037E-01;  4.9824081E+02;3;  4.2387772E+01;  0.0000000E+00; -3.4282851E+00;0;  8.2438305E-02;  2.9159459E+04;  0.0000000E+00; -1.2457869E+00;  4.0000000E+04;  0.0000000E+00;  3.8297086E+04; -1.3175221E-01;  0.0000000E+00;  2.1419051E-01;  4.2116353E+03;
  1.6667327E+00;  9.9999998E-03; -1.9486918E-01;9732;  1.3412840E+00;  0.0000000E+00; -2.2521110E-02;  9.9836823E+02;  1.1975574E-01; -1.2120963E+03;3;  4.1920185E+01;  0.0000000E+00; -2.6242876E+00;0;  2.3182675E-02;  2.9052713E+04;  0.0000000E+00;  1.5750191E+01;  4.0000000E+04;  0.0000000E+00;  3.8268746E+04; -1.9226906E-01;  0.0000000E+00;  2.1545173E-01;  1.8214051E+04;
  1.6671270E+00;  9.9999998E-03; -1.8474394E-01;9733;  1.3302951E+00;  0.0000000E+00; -1.9677110E-02;  9.9597638E+02;  1.1976212E-01; -2.9871169E+03;3;  4.0984715E+01;  0.0000000E+00; -1.5514038E+00;0; -2.9837266E-02;  2.8946887E+04;  0.0000000E+00;  3.5948727E+01;  4.0000000E+04;  0.0000000E+00;  3.8234297E+04; -2.4060398E-01;  0.0000000E+00;  2.1076672E-01;  3.2545475E+04;
  1.6675270E+00;  9.9999998E-03; -1.7459252E-01;9734;  1.3199400E+00;  0.0000000E+00; -1.7415456E-02;  9.9427600E+02;  1.1976184E-01; -4.2471494E+03;3;  3.9722488E+01;  0.0000000E+00; -3.7812647E-01;0; -6.5555915E-02;  2.8879082E+04;  0.0000000E+00;  5.2288521E+01;  4.0000000E+04;  0.0000000E+00;  3.8203438E+04; -2.7003396E-01;  0.0000000E+00;  2.0447804E-01;  4.3262730E+04;
  1.6679071E+00;  9.9999998E-03; -1.6439000E-01;9735;  1.3105689E+00;  0.0000000E+00; -1.5828537E-02;  9.9368176E+02;  1.1975115E-01; -4.6855737E+03;3;  3.8562347E+01;  0.0000000E+00;  5.8763218E-01;0; -8.5091397E-02;  2.8863549E+04;  0.0000000E+00;  6.2856651E+01;  4.0000000E+04;  0.0000000E+00;  3.8187406E+04; -2.8137362E-01;  0.0000000E+00;  1.9628222E-01;  4.9328551E+04;
  1.6682559E+00;  9.9999998E-03; -1.5410514E-01;9736;  1.3021903E+00;  0.0000000E+00; -1.4709986E-02;  9.9415778E+02;  1.1973241E-01; -4.3304736E+03;3;  3.7699364E+01;  0.0000000E+00;  1.2919192E+00;0; -9.4090968E-02;  2.8894395E+04;  0.0000000E+00;  6.7794472E+01;  4.0000000E+04;  0.0000000E+00;  3.8191527E+04; -2.7927968E-01;  0.0000000E+00;  1.8518871E-01;  5.1088352E+04;
  1.6685791E+00;  9.9999998E-03; -1.4371373E-01;9737;  1.2947121E+00;  0.0000000E+00; -1.3740113E-02;  9.9535724E+02;  1.1970709E-01; -3.4398647E+03;3;  3.7243153E+01;  0.0000000E+00;  1.6563518E+00;0; -9.7728655E-02;  2.8953580E+04;  0.0000000E+00;  6.7598183E+01;  4.0000000E+04;  0.0000000E+00;  3.8212121E+04; -2.6898035E-01;  0.0000000E+00;  1.7125170E-01;  4.9230770E+04;
  1.6689039E+00;  9.9999998E-03; -1.3322537E-01;9738;  1.2879844E+00;  0.0000000E+00; -1.2621658E-02;  9.9671246E+02;  1.1968134E-01; -2.4346614E+03;3;  3.7307587E+01;  0.0000000E+00;  1.6597514E+00;0; -9.9567086E-02;  2.9018945E+04;  0.0000000E+00;  6.2522308E+01;  4.0000000E+04;  0.0000000E+00;  3.8237215E+04; -2.5522059E-01;  0.0000000E+00;  1.5565351E-01;  4.4368469E+04;
  1.6692733E+00;  9.9999998E-03; -1.2269925E-01;9739;  1.2819786E+00;  0.0000000E+00; -1.1366226E-02;  9.9771277E+02;  1.1965851E-01; -1.6929601E+03;3;  3.7415436E+01;  0.0000000E+00;  1.6631169E+00;0; -1.0057287E-01;  2.9072006E+04;  0.0000000E+00;  5.3237183E+01;  4.0000000E+04;  0.0000000E+00;  3.8251723E+04; -2.4105814E-01;  0.0000000E+00;  1.4048527E-01;  3.7246957E+04;
  1.6697131E+00;  9.9999998E-03; -1.1221644E-01;9740;  1.2766454E+00;  0.0000000E+00; -1.0073549E-02;  9.9810828E+02;  1.1963650E-01; -1.3993669E+03;3;  3.7714340E+01;  0.0000000E+00;  1.5202734E+00;0; -1.0143885E-01;  2.9104895E+04;  0.0000000E+00;  4.1538250E+01;  4.0000000E+04;  0.0000000E+00;  3.8249941E+04; -2.2854659E-01;  0.0000000E+00;  1.2710774E-01;  2.9054889E+04;
  1.6773497E+00;  9.9999998E-03; -2.1534038E-01;9774;  1.3610500E+00;  0.0000000E+00; -2.2729892E-02;  1.0049312E+03;  1.1904262E-01;  3.6071787E+03;3;  4.3227562E+01;  0.0000000E+00; -5.0547462E+00;0;  1.5611328E-01;  2.9802314E+04;  0.0000000E+00;  3.1327677E+01;  4.0000000E+04;  0.0000000E+00;  3.8216527E+04; -9.1456734E-03;  0.0000000E+00;  1.6525896E-01;  9.1747383E+03;
  1.6778132E+00;  9.9999998E-03; -2.0526879E-01;9775;  1.3505708E+00;  0.0000000E+00; -1.9367095E-02;  1.0024221E+03;  1.1905247E-01;  1.7705115E+03;3;  4.3471134E+01;  0.0000000E+00; -4.7899566E+00;0;  7.7813223E-02;  2.9679754E+04;  0.0000000E+00; -2.8146580E-01;  4.0000000E+04;  0.0000000E+00;  3.8192988E+04; -8.8959470E-02;  0.0000000E+00;  1.6677269E-01;  1.8488201E+03;
  1.6781394E+00;  9.9999998E-03; -1.9516899E-01;9776;  1.3398807E+00;  0.0000000E+00; -1.6595146E-02;  1.0007908E+03;  1.1906074E-01;  5.7779883E+02;3;  4.2984287E+01;  0.0000000E+00; -3.8481088E+00;0;  1.1638343E-02;  2.9605266E+04;  0.0000000E+00; -3.6727741E+00;  4.0000000E+04;  0.0000000E+00;  3.8168066E+04; -1.6017002E-01;  0.0000000E+00;  1.7180836E-01;  2.2645361E+03;
  1.6784613E+00;  9.9999998E-03; -1.8505059E-01;9777;  1.3290743E+00;  0.0000000E+00; -1.4062125E-02;  9.9882245E+02;  1.1906507E-01; -8.5991589E+02;3;  4.1978672E+01;  0.0000000E+00; -2.6252515E+00;0; -4.6602473E-02;  2.9519920E+04;  0.0000000E+00;  1.1366545E+01;  4.0000000E+04;  0.0000000E+00;  3.8134465E+04; -2.2001539E-01;  0.0000000E+00;  1.7341292E-01;  1.3295603E+04;
  1.6788173E+00;  9.9999998E-03; -1.7491621E-01;9778;  1.3187870E+00;  0.0000000E+00; -1.2031348E-02;  9.9671326E+02;  1.1906882E-01; -2.3988425E+03;3;  4.0565495E+01;  0.0000000E+00; -1.3405662E+00;0; -8.9046672E-02;  2.9431904E+04;  0.0000000E+00;  3.0777117E+01;  4.0000000E+04;  0.0000000E+00;  3.8094867E+04; -2.6164660E-01;  0.0000000E+00;  1.7259993E-01;  2.5486748E+04;
  1.6791915E+00;  9.9999998E-03; -1.6475455E-01;9779;  1.3094186E+00;  0.0000000E+00; -1.0633781E-02;  9.9511340E+02;  1.1907052E-01; -3.5644480E+03;3;  3.9222778E+01;  0.0000000E+00; -1.7204528E-01;0; -1.1436322E-01;  2.9369971E+04;  0.0000000E+00;  4.6857925E+01;  4.0000000E+04;  0.0000000E+00;  3.8060070E+04; -2.8366461E-01;  0.0000000E+00;  1.6930139E-01;  3.4802898E+04;
  1.6795626E+00;  9.9999998E-03; -1.5454295E-01;9780;  1.3010317E+00;  0.0000000E+00; -9.7540272E-03;  9.9441101E+02;  1.1906352E-01; -4.0744937E+03;3;  3.8428551E+01;  0.0000000E+00;  4.6639660E-01;0; -1.2702559E-01;  2.9349320E+04;  0.0000000E+00;  5.7439682E+01;  4.0000000E+04;  0.0000000E+00;  3.8040191E+04; -2.8952861E-01;  0.0000000E+00;  1.6250302E-01;  4.0229289E+04;
  1.6799206E+00;  9.9999998E-03; -1.4425492E-01;9781;  1.2935057E+00;  0.0000000E+00; -9.1218147E-03;  9.9460626E+02;  1.1904892E-01; -3.9299563E+03;3;  3.8006290E+01;  0.0000000E+00;  8.5085189E-01;0; -1.3245665E-01;  2.9366787E+04;  0.0000000E+00;  6.2629494E+01;  4.0000000E+04;  0.0000000E+00;  3.8040098E+04; -2.8437477E-01;  0.0000000E+00;  1.5191813E-01;  4.2031793E+04;
  1.6802694E+00;  9.9999998E-03; -1.3387440E-01;9782;  1.2867537E+00;  0.0000000E+00; -8.5301278E-03;  9.9543030E+02;  1.1902969E-01; -3.3277437E+03;3;  3.7897381E+01;  0.0000000E+00;  9.8073983E-01;0; -1.3409518E-01;  2.9407916E+04;  0.0000000E+00;  6.2927860E+01;  4.0000000E+04;  0.0000000E+00;  3.8055215E+04; -2.7272165E-01;  0.0000000E+00;  1.3862647E-01;  4.0789035E+04;
  1.6806190E+00;  9.9999998E-03; -1.2341012E-01;9783;  1.2806886E+00;  0.0000000E+00; -7.8180488E-03;  9.9644110E+02;  1.1900730E-01; -2.5902190E+03;3;  3.8028553E+01;  0.0000000E+00;  9.8869258E-01;0; -1.3416603E-01;  2.9457613E+04;  0.0000000E+00;  5.8857075E+01;  4.0000000E+04;  0.0000000E+00;  3.8075609E+04; -2.5834581E-01;  0.0000000E+00;  1.2417977E-01;  3.7125723E+04;
  1.6809899E+00;  9.9999998E-03; -1.1290917E-01;9784;  1.2752652E+00;  0.0000000E+00; -6.9911056E-03;  9.9724756E+02;  1.1898879E-01; -2.0021030E+03;3;  3.8236233E+01;  0.0000000E+00;  9.7778803E-01;0; -1.3359790E-01;  2.9499977E+04;  0.0000000E+00;  5.1026386E+01;  4.0000000E+04;  0.0000000E+00;  3.8089098E+04; -2.4390309E-01;  0.0000000E+00;  1.1030519E-01;  3.1643646E+04;
  1.6813937E+00;  9.9999998E-03; -1.0243779E-01;9785;  1.2704387E+00;  0.0000000E+00; -6.1181406E-03;  9.9761432E+02;  1.1897331E-01; -1.7342292E+03;3;  3.8576828E+01;  0.0000000E+00;  8.4314829E-01;0; -1.3294752E-01;  2.9527119E+04;  0.0000000E+00;  4.0780987E+01;  4.0000000E+04;  0.0000000E+00;  3.8089191E+04; -2.3108107E-01;  0.0000000E+00;  9.8133549E-02;  2.5175002E+04;
  1.6890725E+00;  9.9999998E-03; -2.0551699E-01;9817;  1.3494502E+00;  0.0000000E+00; -1.3713625E-02;  1.0051031E+03;  1.1846248E-01;  3.6634004E+03;3;  4.4186436E+01;  0.0000000E+00; -5.8227019E+00;0;  8.8917024E-02;  3.0203807E+04;  0.0000000E+00;  3.8538548E+01;  4.0000000E+04;  0.0000000E+00;  3.8093051E+04; -2.8412050E-02;  0.0000000E+00;  1.1732908E-01;  1.1133937E+04;
  1.6895281E+00;  9.9999998E-03; -1.9544649E-01;9818;  1.3385133E+00;  0.0000000E+00; -1.0467888E-02;  1.0025022E+03;  1.1847735E-01;  1.7948871E+03;3;  4.3741077E+01;  0.0000000E+00; -4.6453705E+00;0;  6.1256364E-03;  3.0080895E+04;  0.0000000E+00;  2.6892900E+00;  4.0000000E+04;  0.0000000E+00;  3.8057512E+04; -1.1144964E-01;  0.0000000E+00;  1.1757528E-01;  2.1221799E+03;
  1.6898476E+00;  9.9999998E-03; -1.8533516E-01;9819;  1.3277115E+00;  0.0000000E+00; -8.0182068E-03;  1.0010140E+03;  1.1848192E-01;  7.2696674E+02;3;  4.2696304E+01;  0.0000000E+00; -3.5391405E+00;0; -6.0149081E-02;  3.0017828E+04;  0.0000000E+00; -5.8647523E+00;  4.0000000E+04;  0.0000000E+00;  3.8029145E+04; -1.8271507E-01;  0.0000000E+00;  1.2256599E-01;  1.5936201E+03;
  1.6901529E+00;  9.9999998E-03; -1.7519999E-01;9820;  1.3174399E+00;  0.0000000E+00; -6.0990374E-03;  9.9939648E+02;  1.1848572E-01; -4.3244266E+02;3;  4.1267715E+01;  0.0000000E+00; -2.2313454E+00;0; -1.1032856E-01;  2.9951900E+04;  0.0000000E+00;  4.8896012E+00;  4.0000000E+04;  0.0000000E+00;  3.7994035E+04; -2.3680507E-01;  0.0000000E+00;  1.2647651E-01;  7.8296304E+03;
  1.6904826E+00;  9.9999998E-03; -1.6504709E-01;9821;  1.3081089E+00;  0.0000000E+00; -4.9253497E-03;  9.9763776E+02;  1.1848939E-01; -1.6917457E+03;3;  3.9890377E+01;  0.0000000E+00; -9.8539340E-01;0; -1.4095752E-01;  2.9883209E+04;  0.0000000E+00;  2.1907768E+01;  4.0000000E+04;  0.0000000E+00;  3.7952898E+04; -2.7043048E-01;  0.0000000E+00;  1.2947296E-01;  1.7360115E+04;
  1.6908324E+00;  9.9999998E-03; -1.5486683E-01;9822;  1.2997351E+00;  0.0000000E+00; -4.3446594E-03;  9.9620703E+02;  1.1848922E-01; -2.7147200E+03;3;  3.8940041E+01;  0.0000000E+00; -1.6508166E-01;0; -1.5721664E-01;  2.9831270E+04;  0.0000000E+00;  3.7219055E+01;  4.0000000E+04;  0.0000000E+00;  3.7916012E+04; -2.8637612E-01;  0.0000000E+00;  1.2915948E-01;  2.5209590E+04;
  1.6911898E+00;  9.9999998E-03; -1.4464162E-01;9823;  1.2921995E+00;  0.0000000E+00; -4.0517803E-03;  9.9543005E+02;  1.1848583E-01; -3.2688401E+03;3;  3.8579983E+01;  0.0000000E+00;  1.5260540E-01;0; -1.6520005E-01;  2.9807652E+04;  0.0000000E+00;  4.7876106E+01;  4.0000000E+04;  0.0000000E+00;  3.7892301E+04; -2.8922507E-01;  0.0000000E+00;  1.2402501E-01;  3.0127701E+04;
  1.6915452E+00;  9.9999998E-03; -1.3434936E-01;9824;  1.2854220E+00;  0.0000000E+00; -3.8725834E-03;  9.9534906E+02;  1.1847465E-01; -3.3247444E+03;3;  3.8495255E+01;  0.0000000E+00;  2.6897702E-01;0; -1.6806315E-01;  2.9812645E+04;  0.0000000E+00;  5.3646206E+01;  4.0000000E+04;  0.0000000E+00;  3.7886453E+04; -2.8299823E-01;  0.0000000E+00;  1.1493509E-01;  3.2156723E+04;
  1.6918992E+00;  9.9999998E-03; -1.2397762E-01;9825;  1.2793490E+00;  0.0000000E+00; -3.7003481E-03;  9.9579480E+02;  1.1846120E-01; -3.0042805E+03;3;  3.8545681E+01;  0.0000000E+00;  3.4037140E-01;0; -1.6781388E-01;  2.9836750E+04;  0.0000000E+00;  5.4946499E+01;  4.0000000E+04;  0.0000000E+00;  3.7894625E+04; -2.7128434E-01;  0.0000000E+00;  1.0347046E-01;  3.1714598E+04;
  1.6922549E+00;  9.9999998E-03; -1.1353790E-01;9826;  1.2738830E+00;  0.0000000E+00; -3.4071805E-03;  9.9641760E+02;  1.1844578E-01; -2.5577593E+03;3;  3.8803085E+01;  0.0000000E+00;  3.0372944E-01;0; -1.6645287E-01;  2.9867865E+04;  0.0000000E+00;  5.2218365E+01;  4.0000000E+04;  0.0000000E+00;  3.7907820E+04; -2.5746021E-01;  0.0000000E+00;  9.1007337E-02;  2.9271502E+04;
  1.6926155E+00;  9.9999998E-03; -1.0306713E-01;9827;  1.2690003E+00;  0.0000000E+00; -3.0000189E-03;  9.9693835E+02;  1.1843178E-01; -2.1845759E+03;3;  3.9102547E+01;  0.0000000E+00;  2.7856901E-01;0; -1.6455418E-01;  2.9895848E+04;  0.0000000E+00;  4.6094406E+01;  4.0000000E+04;  0.0000000E+00;  3.7916535E+04; -2.4359441E-01;  0.0000000E+00;  7.9040222E-02;  2.5337523E+04;
  1.7011796E+00;  9.9999998E-03; -1.8559037E-01;9858;  1.3266987E+00;  0.0000000E+00; -2.1710088E-03;  1.0027526E+03;  1.1799837E-01;  1.9339381E+03;3;  4.3398373E+01;  0.0000000E+00; -4.4148192E+00;0; -6.0396783E-02;  3.0456090E+04;  0.0000000E+00;  9.8941164E+00;  4.0000000E+04;  0.0000000E+00;  3.7913805E+04; -1.2560274E-01;  0.0000000E+00;  6.5205954E-02;  3.1054963E+03;
  1.7015133E+00;  9.9999998E-03; -1.7546460E-01;9859;  1.3163487E+00;  0.0000000E+00; -2.5764934E-04;  1.0012905E+03;  1.1800309E-01;  9.0609985E+02;3;  4.1911320E+01;  0.0000000E+00; -2.8329344E+00;0; -1.1972428E-01;  3.0396809E+04;  0.0000000E+00; -6.1256967E+00;  4.0000000E+04;  0.0000000E+00;  3.7881480E+04; -1.9136509E-01;  0.0000000E+00;  7.1640812E-02;  2.5136472E+03;
  1.7018142E+00;  9.9999998E-03; -1.6530579E-01;9860;  1.3069806E+00;  0.0000000E+00;  7.3659047E-04;  1.0000243E+03;  1.1800559E-01;  1.7066084E+01;3;  4.0566162E+01;  0.0000000E+00; -1.6206397E+00;0; -1.5680143E-01;  3.0348672E+04;  0.0000000E+00; -2.1860633E+00;  4.0000000E+04;  0.0000000E+00;  3.7848242E+04; -2.3708956E-01;  0.0000000E+00;  8.0288127E-02;  3.0350764E+03;
  1.7021247E+00;  9.9999998E-03; -1.5512347E-01;9861;  1.2985370E+00;  0.0000000E+00;  1.1127573E-03;  9.9867841E+02;  1.1800563E-01; -9.2692657E+02;3;  3.9593666E+01;  0.0000000E+00; -8.9970487E-01;0; -1.7886354E-01;  3.0300600E+04;  0.0000000E+00;  1.0786523E+01;  4.0000000E+04;  0.0000000E+00;  3.7810863E+04; -2.6516637E-01;  0.0000000E+00;  8.6302832E-02;  9.4676475E+03;
  1.7024553E+00;  9.9999998E-03; -1.4491582E-01;9862;  1.2909114E+00;  0.0000000E+00;  1.1877985E-03;  9.9745648E+02;  1.1800634E-01; -1.7828062E+03;3;  3.9140236E+01;  0.0000000E+00; -5.6301463E-01;0; -1.9189209E-01;  3.0258645E+04;  0.0000000E+00;  2.4417608E+01;  4.0000000E+04;  0.0000000E+00;  3.7775074E+04; -2.7903584E-01;  0.0000000E+00;  8.7143749E-02;  1.5700814E+04;
  1.7027948E+00;  9.9999998E-03; -1.3466977E-01;9863;  1.2840998E+00;  0.0000000E+00;  1.0658603E-03;  9.9664514E+02;  1.1800202E-01; -2.3499888E+03;3;  3.8985325E+01;  0.0000000E+00; -3.7974009E-01;0; -1.9775856E-01;  3.0234775E+04;  0.0000000E+00;  3.4909153E+01;  4.0000000E+04;  0.0000000E+00;  3.7748441E+04; -2.8124061E-01;  0.0000000E+00;  8.3482064E-02;  2.0072732E+04;
  1.7031387E+00;  9.9999998E-03; -1.2436915E-01;9864;  1.2779688E+00;  0.0000000E+00;  8.9057151E-04;  9.9631995E+02;  1.1799554E-01; -2.5761108E+03;3;  3.9077259E+01;  0.0000000E+00; -3.2758248E-01;0; -1.9957834E-01;  3.0229336E+04;  0.0000000E+00;  4.1243515E+01;  4.0000000E+04;  0.0000000E+00;  3.7735285E+04; -2.7583158E-01;  0.0000000E+00;  7.6253228E-02;  2.2275752E+04;
  1.7034826E+00;  9.9999998E-03; -1.1400755E-01;9865;  1.2724714E+00;  0.0000000E+00;  7.4284268E-04;  9.9637567E+02;  1.1798658E-01; -2.5354468E+03;3;  3.9252331E+01;  0.0000000E+00; -2.5595644E-01;0; -1.9875124E-01;  3.0237488E+04;  0.0000000E+00;  4.3530418E+01;  4.0000000E+04;  0.0000000E+00;  3.7733559E+04; -2.6569086E-01;  0.0000000E+00;  6.6939615E-02;  2.2512494E+04;
  1.7038211E+00;  9.9999998E-03; -1.0359399E-01;9866;  1.2675648E+00;  0.0000000E+00;  6.6205242E-04;  9.9661359E+02;  1.1797775E-01; -2.3675105E+03;3;  3.9554764E+01;  0.0000000E+00; -2.9905263E-01;0; -1.9642970E-01;  3.0252613E+04;  0.0000000E+00;  4.2238441E+01;  4.0000000E+04;  0.0000000E+00;  3.7736730E+04; -2.5336429E-01;  0.0000000E+00;  5.6934599E-02;  2.1154881E+04;
  1.7127682E+00;  9.9999998E-03; -1.7568304E-01;9895;  1.3157468E+00;  0.0000000E+00;  4.9247472E-03;  1.0032541E+03;  1.1759629E-01;  2.2353347E+03;3;  4.2691204E+01;  0.0000000E+00; -3.5263641E+00;0; -1.1004990E-01;  3.0812598E+04;  0.0000000E+00;  2.3939459E+01;  4.0000000E+04;  0.0000000E+00;  3.7766562E+04; -1.2582797E-01;  0.0000000E+00;  1.5778063E-02;  6.0524126E+03;
  1.7131281E+00;  9.9999998E-03; -1.6554691E-01;9896;  1.3062563E+00;  0.0000000E+00;  6.0622231E-03;  1.0016476E+03;  1.1760417E-01;  1.1309677E+03;3;  4.1219025E+01;  0.0000000E+00; -2.2374916E+00;0; -1.5707038E-01;  3.0749660E+04;  0.0000000E+00; -1.0909055E+00;  4.0000000E+04;  0.0000000E+00;  3.7726562E+04; -1.8258432E-01;  0.0000000E+00;  2.5513932E-02;  2.6842920E+03;
  1.7134345E+00;  9.9999998E-03; -1.5536480E-01;9897;  1.2976776E+00;  0.0000000E+00;  6.3987803E-03;  1.0006089E+03;  1.1760493E-01;  4.1772568E+02;3;  4.0243874E+01;  0.0000000E+00; -1.4921362E+00;0; -1.8694374E-01;  3.0714016E+04;  0.0000000E+00; -6.3604808E+00;  4.0000000E+04;  0.0000000E+00;  3.7695520E+04; -2.2299160E-01;  0.0000000E+00;  3.6047868E-02;  2.0122706E+03;
  1.7137372E+00;  9.9999998E-03; -1.4515096E-01;9898;  1.2899365E+00;  0.0000000E+00;  6.3189985E-03;  9.9959827E+02;  1.1760451E-01; -2.7542432E+02;3;  3.9647430E+01;  0.0000000E+00; -1.0514598E+00;0; -2.0616893E-01;  3.0680809E+04;  0.0000000E+00;  1.5952379E-01;  4.0000000E+04;  0.0000000E+00;  3.7663797E+04; -2.4894367E-01;  0.0000000E+00;  4.2774737E-02;  3.3710142E+03;
  1.7140516E+00;  9.9999998E-03; -1.3491035E-01;9899;  1.2829807E+00;  0.0000000E+00;  5.9770914E-03;  9.9860706E+02;  1.1760401E-01; -9.5438257E+02;3;  3.9438107E+01;  0.0000000E+00; -8.4650230E-01;0; -2.1766266E-01;  3.0648629E+04;  0.0000000E+00;  1.0455362E+01;  4.0000000E+04;  0.0000000E+00;  3.7631578E+04; -2.6261389E-01;  0.0000000E+00;  4.4951223E-02;  7.5213193E+03;
  1.7143736E+00;  9.9999998E-03; -1.2463953E-01;9900;  1.2767770E+00;  0.0000000E+00;  5.4962779E-03;  9.9780811E+02;  1.1760257E-01; -1.5007859E+03;3;  3.9461037E+01;  0.0000000E+00; -6.9496751E-01;0; -2.2318366E-01;  3.0625250E+04;  0.0000000E+00;  1.9691027E+01;  4.0000000E+04;  0.0000000E+00;  3.7603363E+04; -2.6624364E-01;  0.0000000E+00;  4.3059979E-02;  1.1000725E+04;
  1.7146964E+00;  9.9999998E-03; -1.1433018E-01;9901;  1.2712522E+00;  0.0000000E+00;  4.9505285E-03;  9.9729626E+02;  1.1759948E-01; -1.8500060E+03;3;  3.9665798E+01;  0.0000000E+00; -6.6126561E-01;0; -2.2453676E-01;  3.0613152E+04;  0.0000000E+00;  2.5950317E+01;  4.0000000E+04;  0.0000000E+00;  3.7582855E+04; -2.6276511E-01;  0.0000000E+00;  3.8228348E-02;  1.3086517E+04;
  1.7150156E+00;  9.9999998E-03; -1.0397633E-01;9902;  1.2662834E+00;  0.0000000E+00;  4.4575157E-03;  9.9704462E+02;  1.1759481E-01; -2.0208710E+03;3;  3.9934624E+01;  0.0000000E+00; -6.6348350E-01;0; -2.2396629E-01;  3.0609916E+04;  0.0000000E+00;  2.8960644E+01;  4.0000000E+04;  0.0000000E+00;  3.7570820E+04; -2.5540686E-01;  0.0000000E+00;  3.1440575E-02;  1.3768972E+04;
  1.7242920E+00;  9.9999998E-03; -1.6570997E-01;9930;  1.3056561E+00;  0.0000000E+00;  1.0710014E-02;  1.0040919E+03;  1.1726227E-01;  2.7436821E+03;3;  4.2011124E+01;  0.0000000E+00; -2.9402766E+00;0; -1.4566654E-01;  3.1154178E+04;  0.0000000E+00;  4.6586418E+01;  4.0000000E+04;  0.0000000E+00;  3.7623836E+04; -1.1623879E-01;  0.0000000E+00; -2.9427748E-02;  1.0976747E+04;
  1.7246814E+00;  9.9999998E-03; -1.5557232E-01;9931;  1.2971811E+00;  0.0000000E+00;  1.1088958E-02;  1.0021595E+03;  1.1727356E-01;  1.4467076E+03;3;  4.0919647E+01;  0.0000000E+00; -2.0903389E+00;0; -1.7937531E-01;  3.1082432E+04;  0.0000000E+00;  1.2575640E+01;  4.0000000E+04;  0.0000000E+00;  3.7569266E+04; -1.6296430E-01;  0.0000000E+00; -1.6411006E-02;  3.6855273E+03;
  1.7250077E+00;  9.9999998E-03; -1.4537816E-01;9932;  1.2893734E+00;  0.0000000E+00;  1.0990754E-02;  1.0010458E+03;  1.1727782E-01;  7.0013440E+02;3;  4.0250076E+01;  0.0000000E+00; -1.5645912E+00;0; -2.0454931E-01;  3.1045305E+04;  0.0000000E+00; -3.4461484E+00;  4.0000000E+04;  0.0000000E+00;  3.7533348E+04; -1.9895180E-01;  0.0000000E+00; -5.5975141E-03;  2.5602307E+03;
  1.7253103E+00;  9.9999998E-03; -1.3514031E-01;9933;  1.2823364E+00;  0.0000000E+00;  1.0500237E-02;  1.0002200E+03;  1.1727768E-01;  1.4714397E+02;3;  3.9877651E+01;  0.0000000E+00; -1.2002510E+00;0; -2.2115000E-01;  3.1020209E+04;  0.0000000E+00; -5.9348183E+00;  4.0000000E+04;  0.0000000E+00;  3.7504352E+04; -2.2315943E-01;  0.0000000E+00;  2.0094430E-03;  1.8690808E+03;
  1.7256103E+00;  9.9999998E-03; -1.2486909E-01;9934;  1.2760549E+00;  0.0000000E+00;  9.7455615E-03;  9.9945380E+02;  1.1727700E-01; -3.6518759E+02;3;  3.9873680E+01;  0.0000000E+00; -1.0328894E+00;0; -2.3098767E-01;  3.0997367E+04;  0.0000000E+00; -1.4381573E+00;  4.0000000E+04;  0.0000000E+00;  3.7476488E+04; -2.3685673E-01;  0.0000000E+00;  5.8690556E-03;  2.0716702E+03;
  1.7259090E+00;  9.9999998E-03; -1.1456513E-01;9935;  1.2703955E+00;  0.0000000E+00;  8.8877361E-03;  9.9878473E+02;  1.1727527E-01; -8.1197443E+02;3;  4.0063622E+01;  0.0000000E+00; -1.0063871E+00;0; -2.3708667E-01;  3.0978680E+04;  0.0000000E+00;  5.0430770E+00;  4.0000000E+04;  0.0000000E+00;  3.7451414E+04; -2.4309801E-01;  0.0000000E+00;  6.0113408E-03;  4.0533188E+03;
  1.7262046E+00;  9.9999998E-03; -1.0423069E-01;9936;  1.2653011E+00;  0.0000000E+00;  8.0552706E-03;  9.9824133E+02;  1.1727413E-01; -1.1742885E+03;3;  4.0306358E+01;  0.0000000E+00; -9.6011299E-01;0; -2.4075785E-01;  3.0964221E+04;  0.0000000E+00;  1.0574563E+01;  4.0000000E+04;  0.0000000E+00;  3.7430109E+04; -2.4395208E-01;  0.0000000E+00;  3.1942346E-03;  5.7314214E+03;
  1.7361674E+00;  9.9999998E-03; -1.4552271E-01;9963;  1.2888265E+00;  0.0000000E+00;  1.5161514E-02;  1.0029191E+03;  1.1699887E-01;  1.9057789E+03;3;  4.0791077E+01;  0.0000000E+00; -2.0427220E+00;0; -1.9627847E-01;  3.1396602E+04;  0.0000000E+00;  3.6748466E+01;  4.0000000E+04;  0.0000000E+00;  3.7420090E+04; -1.4003296E-01;  0.0000000E+00; -5.6245502E-02;  8.0886807E+03;
  1.7365143E+00;  9.9999998E-03; -1.3532852E-01;9964;  1.2819208E+00;  0.0000000E+00;  1.4529873E-02;  1.0015132E+03;  1.1700567E-01;  9.8715924E+02;3;  4.0329479E+01;  0.0000000E+00; -1.5866989E+00;0; -2.1290451E-01;  3.1351814E+04;  0.0000000E+00;  1.0692457E+01;  4.0000000E+04;  0.0000000E+00;  3.7371180E+04; -1.6939950E-01;  0.0000000E+00; -4.3505009E-02;  3.3325627E+03;
  1.7368224E+00;  9.9999998E-03; -1.2507775E-01;9965;  1.2756330E+00;  0.0000000E+00;  1.3607983E-02;  1.0006475E+03;  1.1700871E-01;  4.2212280E+02;3;  4.0287312E+01;  0.0000000E+00; -1.4142584E+00;0; -2.2531104E-01;  3.1326582E+04;  0.0000000E+00; -2.0659971E+00;  4.0000000E+04;  0.0000000E+00;  3.7338613E+04; -1.9091739E-01;  0.0000000E+00; -3.4393653E-02;  2.3634692E+03;
  1.7371105E+00;  9.9999998E-03; -1.1478200E-01;9966;  1.2698814E+00;  0.0000000E+00;  1.2545557E-02;  1.0000085E+03;  1.1700855E-01;  5.5137529E+00;3;  4.0431705E+01;  0.0000000E+00; -1.3381170E+00;0; -2.3561537E-01;  3.1308924E+04;  0.0000000E+00; -5.5934677E+00;  4.0000000E+04;  0.0000000E+00;  3.7313789E+04; -2.0632762E-01;  0.0000000E+00; -2.9287763E-02;  2.0139849E+03;
  1.7373853E+00;  9.9999998E-03; -1.0444491E-01;9967;  1.2646718E+00;  0.0000000E+00;  1.1413132E-02;  9.9951129E+02;  1.1700632E-01; -3.1815805E+02;3;  4.0657616E+01;  0.0000000E+00; -1.2650805E+00;0; -2.4369591E-01;  3.1295941E+04;  0.0000000E+00; -4.1213460E+00;  4.0000000E+04;  0.0000000E+00;  3.7294652E+04; -2.1622220E-01;  0.0000000E+00; -2.7473710E-02;  1.5158380E+03;
  1.7479414E+00;  9.9999998E-03; -1.2518853E-01;9992;  1.2750593E+00;  0.0000000E+00;  1.7035391E-02;  1.0022885E+03;  1.1677974E-01;  1.4530210E+03;3;  4.0650688E+01;  0.0000000E+00; -1.8477373E+00;0; -2.1805426E-01;  3.1641885E+04;  0.0000000E+00;  3.6924541E+01;  4.0000000E+04;  0.0000000E+00;  3.7224648E+04; -1.4127362E-01;  0.0000000E+00; -7.6780647E-02;  7.6310288E+03;
  1.7482538E+00;  9.9999998E-03; -1.1494058E-01;9993;  1.2694690E+00;  0.0000000E+00;  1.5786510E-02;  1.0011801E+03;  1.1678444E-01;  7.4868933E+02;3;  4.0764820E+01;  0.0000000E+00; -1.7183325E+00;0; -2.2661123E-01;  3.1611553E+04;  0.0000000E+00;  1.5124570E+01;  4.0000000E+04;  0.0000000E+00;  3.7179637E+04; -1.6012888E-01;  0.0000000E+00; -6.6482343E-02;  3.8723689E+03;
  1.7485328E+00;  9.9999998E-03; -1.0463988E-01;9994;  1.2642933E+00;  0.0000000E+00;  1.4471976E-02;  1.0004734E+03;  1.1678726E-01;  3.0013513E+02;3;  4.0942215E+01;  0.0000000E+00; -1.5892792E+00;0; -2.3595065E-01;  3.1593912E+04;  0.0000000E+00;  2.7507806E+00;  4.0000000E+04;  0.0000000E+00;  3.7149367E+04; -1.7581594E-01;  0.0000000E+00; -6.0134709E-02;  2.4277939E+03;
  3.5667163E-03;  9.9999998E-03; -9.9983804E-02;2467;  9.6231140E-04;  0.0000000E+00;  1.0101209E-05;  9.8615704E+02;  1.0000000E-01; -1.1468614E+04;3;  6.6103020E+01;  0.0000000E+00;  1.0861751E+00;0; -1.7691795E-02;  3.8919852E+04;  0.0000000E+00; -1.6996931E-02;  4.0000000E+04;  0.0000000E+00;  3.9994320E+04; -1.7964493E-02;  0.0000000E+00;  2.7269867E-04;  4.2945255E+02;
  3.5591715E-03;  9.9999998E-03; -8.9977421E-02;2468;  9.8299782E-04;  0.0000000E+00; -5.5733908E-06;  9.8616779E+02;  1.0000000E-01; -1.1459726E+04;3;  6.5837265E+01;  0.0000000E+00;  7.0236105E-01;0; -1.7489482E-02;  3.8920762E+04;  0.0000000E+00; -9.3790703E-03;  4.0000000E+04;  0.0000000E+00;  3.9994293E+04; -1.7737038E-02;  0.0000000E+00;  2.4755602E-04;  4.2243460E+02;
  3.5491360E-03;  9.9999998E-03; -7.9973318E-02;2469;  9.8548585E-04;  0.0000000E+00; -2.5055031E-05;  9.8617792E+02;  1.0000000E-01; -1.1451330E+04;3;  6.5856697E+01;  0.0000000E+00;  4.1967800E-01;0; -1.7318111E-02;  3.8921363E+04;  0.0000000E+00; -5.5315676E-03;  4.0000000E+04;  0.0000000E+00;  3.9994680E+04; -1.7548490E-02;  0.0000000E+00;  2.3037921E-04;  4.4619269E+02;
  3.5372893E-03;  9.9999998E-03; -6.9972061E-02;2470;  9.7381562E-04;  0.0000000E+00; -4.5496476E-05;  9.8618683E+02;  1.0000000E-01; -1.1443973E+04;3;  6.6146484E+01;  0.0000000E+00;  2.2292584E-01;0; -1.7179778E-02;  3.8921641E+04;  0.0000000E+00; -3.6734301E-03;  4.0000000E+04;  0.0000000E+00;  3.9995000E+04; -1.7406121E-02;  0.0000000E+00;  2.2634234E-04;  5.0237872E+02;
  3.5242818E-03;  9.9999998E-03; -5.9973519E-02;2471;  9.5305743E-04;  0.0000000E+00; -6.3872416E-05;  9.8619781E+02;  1.0000000E-01; -1.1434837E+04;3;  6.6636543E+01;  0.0000000E+00;  9.5817856E-02;0; -1.7072078E-02;  3.8921605E+04;  0.0000000E+00; -2.7018657E-03;  4.0000000E+04;  0.0000000E+00;  3.9995727E+04; -1.7310370E-02;  0.0000000E+00;  2.3829227E-04;  5.8809259E+02;
  3.5112917E-03;  9.9999998E-03; -4.9977187E-02;2472;  9.2835387E-04;  0.0000000E+00; -7.7087141E-05;  9.8620874E+02;  1.0000000E-01; -1.1425801E+04;3;  6.7273178E+01;  0.0000000E+00;  2.1440232E-02;0; -1.6990596E-02;  3.8921715E+04;  0.0000000E+00; -2.0426675E-03;  4.0000000E+04;  0.0000000E+00;  3.9996398E+04; -1.7256323E-02;  0.0000000E+00;  2.6572734E-04;  6.9517279E+02;
  3.4990287E-03;  9.9999998E-03; -3.9982025E-02;2473;  9.0398430E-04;  0.0000000E+00; -8.2177910E-05;  9.8622015E+02;  1.0000000E-01; -1.1416319E+04;3;  6.7961678E+01;  0.0000000E+00; -1.5439713E-02;0; -1.6930250E-02;  3.8921672E+04;  0.0000000E+00; -1.4599424E-03;  4.0000000E+04;  0.0000000E+00;  3.9997285E+04; -1.7234825E-02;  0.0000000E+00;  3.0457423E-04;  8.1132928E+02;
  3.4884331E-03;  9.9999998E-03; -2.9987214E-02;2474;  8.8297890E-04;  0.0000000E+00; -7.6605451E-05;  9.8623297E+02;  1.0000000E-01; -1.1405702E+04;3;  6.8598648E+01;  0.0000000E+00; -2.7435835E-02;0; -1.6886739E-02;  3.8921578E+04;  0.0000000E+00; -9.0989959E-04;  4.0000000E+04;  0.0000000E+00;  3.9998816E+04; -1.7234609E-02;  0.0000000E+00;  3.4786935E-04;  9.2216595E+02;
  3.4802852E-03;  9.9999998E-03; -1.9992052E-02;2475;  8.6723443E-04;  0.0000000E+00; -5.9464473E-05;  9.8624323E+02;  1.0000000E-01; -1.1397209E+04;3;  6.9121460E+01;  0.0000000E+00; -2.5101485E-02;0; -1.6857227E-02;  3.8921520E+04;  0.0000000E+00; -4.3783206E-04;  4.0000000E+04;  0.0000000E+00;  3.9999602E+04; -1.7244434E-02;  0.0000000E+00;  3.8720749E-04;  1.0134750E+03;
  3.4751950E-03;  9.9999998E-03; -9.9962763E-03;2476;  8.5765432E-04;  0.0000000E+00; -3.2705222E-05;  9.8624658E+02;  1.0000000E-01; -1.1394443E+04;3;  6.9487137E+01;  0.0000000E+00; -1.4153622E-02;0; -1.6839989E-02;  3.8921586E+04;  0.0000000E+00; -1.1500878E-04;  4.0000000E+04;  0.0000000E+00;  3.9999422E+04; -1.7254619E-02;  0.0000000E+00;  4.1462964E-04;  1.0734442E+03;
  3.4734725E-03;  9.9999998E-03;  3.5598257E-11;2477;  8.5442013E-04;  0.0000000E+00; -2.1828053E-09;  9.8624799E+02;  1.0000000E-01; -1.1393308E+04;3;  6.9612816E+01;  0.0000000E+00; -6.8187146E-06;0; -1.6834345E-02;  3.8921609E+04;  0.0000000E+00; -3.6603855E-13;  4.0000000E+04;  0.0000000E+00;  3.9999480E+04; -1.7258801E-02;  0.0000000E+00;  4.2445626E-04;  1.0943281E+03;
  3.4751953E-03;  9.9999998E-03;  9.9962763E-03;2478;  8.5764576E-04;  0.0000000E+00;  3.2698157E-05;  9.8624658E+02;  1.0000000E-01; -1.1394443E+04;3;  6.9487244E+01;  0.0000000E+00;  1.4112462E-02;0; -1.6839996E-02;  3.8921586E+04;  0.0000000E+00; -1.1498948E-04;  4.0000000E+04;  0.0000000E+00;  3.9999422E+04; -1.7254628E-02;  0.0000000E+00;  4.1463156E-04;  1.0734534E+03;
  3.4802863E-03;  9.9999998E-03;  1.9992052E-02;2479;  8.6723868E-04;  0.0000000E+00;  5.9454229E-05;  9.8624323E+02;  1.0000000E-01; -1.1397209E+04;3;  6.9121574E+01;  0.0000000E+00;  2.5091825E-02;0; -1.6857207E-02;  3.8921527E+04;  0.0000000E+00; -4.3782164E-04;  4.0000000E+04;  0.0000000E+00;  3.9999602E+04; -1.7244417E-02;  0.0000000E+00;  3.8721098E-04;  1.0134812E+03;
  3.4884338E-03;  9.9999998E-03;  2.9987214E-02;2480;  8.8298292E-04;  0.0000000E+00;  7.6598502E-05;  9.8623303E+02;  1.0000000E-01; -1.1405652E+04;3;  6.8598282E+01;  0.0000000E+00;  2.7426803E-02;0; -1.6886750E-02;  3.8921582E+04;  0.0000000E+00; -9.0991758E-04;  4.0000000E+04;  0.0000000E+00;  3.9998816E+04; -1.7234625E-02;  0.0000000E+00;  3.4787445E-04;  9.2217291E+02;
  3.4990306E-03;  9.9999998E-03;  3.9982025E-02;2481;  9.0399239E-04;  0.0000000E+00;  8.2171086E-05;  9.8622009E+02;  1.0000000E-01; -1.1416368E+04;3;  6.7962280E+01;  0.0000000E+00;  1.5424342E-02;0; -1.6930267E-02;  3.8921676E+04;  0.0000000E+00; -1.4597642E-03;  4.0000000E+04;  0.0000000E+00;  3.9997285E+04; -1.7234847E-02;  0.0000000E+00;  3.0458029E-04;  8.1134595E+02;
  3.5112933E-03;  9.9999998E-03;  4.9977187E-02;2482;  9.2835445E-04;  0.0000000E+00;  7.7082288E-05;  9.8620874E+02;  1.0000000E-01; -1.1425801E+04;3;  6.7273254E+01;  0.0000000E+00; -2.1491790E-02;0; -1.6990623E-02;  3.8921715E+04;  0.0000000E+00; -2.0427038E-03;  4.0000000E+04;  0.0000000E+00;  3.9996398E+04; -1.7256357E-02;  0.0000000E+00;  2.6573497E-04;  6.9518988E+02;
  3.5242836E-03;  9.9999998E-03;  5.9973519E-02;2483;  9.5305732E-04;  0.0000000E+00;  6.3866813E-05;  9.8619781E+02;  1.0000000E-01; -1.1434837E+04;3;  6.6636696E+01;  0.0000000E+00; -9.5798463E-02;0; -1.7072098E-02;  3.8921594E+04;  0.0000000E+00; -2.7021747E-03;  4.0000000E+04;  0.0000000E+00;  3.9995727E+04; -1.7310400E-02;  0.0000000E+00;  2.3830056E-04;  5.8810553E+02;
  1.3128188E-02;  9.9999998E-03; -9.9994220E-02;2527; -3.8085396E-05;  0.0000000E+00;  6.4786286E-06;  9.8943530E+02;  1.0000000E-01; -8.7526416E+03;3;  3.2007900E+01;  0.0000000E+00;  9.3667281E-01;0; -1.9035665E-02;  3.9172637E+04;  0.0000000E+00; -2.2803012E-02;  4.0000000E+04;  0.0000000E+00;  3.9994598E+04; -1.9372271E-02;  0.0000000E+00;  3.3660556E-04;  1.6085597E+02;
  1.3123478E-02;  9.9999998E-03; -8.9988314E-02;2528; -2.3467497E-05;  0.0000000E+00; -3.9662746E-06;  9.8944208E+02;  1.0000000E-01; -8.7470615E+03;3;  3.1757120E+01;  0.0000000E+00;  5.5320638E-01;0; -1.8811876E-02;  3.9173301E+04;  0.0000000E+00; -1.3427104E-02;  4.0000000E+04;  0.0000000E+00;  3.9994242E+04; -1.9127958E-02;  0.0000000E+00;  3.1608099E-04;  1.2442146E+02;
  1.3116990E-02;  9.9999998E-03; -7.9984218E-02;2529; -2.1177162E-05;  0.0000000E+00; -1.7062188E-05;  9.8944849E+02;  1.0000000E-01; -8.7417285E+03;3;  3.1664379E+01;  0.0000000E+00;  2.4659605E-01;0; -1.8626133E-02;  3.9173625E+04;  0.0000000E+00; -8.6575765E-03;  4.0000000E+04;  0.0000000E+00;  3.9993613E+04; -1.8925322E-02;  0.0000000E+00;  2.9918959E-04;  1.1907235E+02;
  1.3109067E-02;  9.9999998E-03; -6.9982462E-02;2530; -2.8282897E-05;  0.0000000E+00; -3.1056501E-05;  9.8944653E+02;  1.0000000E-01; -8.7433574E+03;3;  3.1813021E+01;  0.0000000E+00;  1.6009910E-02;0; -1.8478604E-02;  3.9173250E+04;  0.0000000E+00; -6.2299985E-03;  4.0000000E+04;  0.0000000E+00;  3.9993672E+04; -1.8771306E-02;  0.0000000E+00;  2.9270086E-04;  1.5126088E+02;
  1.3099913E-02;  9.9999998E-03; -5.9982702E-02;2531; -4.1927971E-05;  0.0000000E+00; -4.3127246E-05;  9.8944421E+02;  1.0000000E-01; -8.7452832E+03;3;  3.2155739E+01;  0.0000000E+00; -1.5205458E-01;0; -1.8364726E-02;  3.9172957E+04;  0.0000000E+00; -4.7900532E-03;  4.0000000E+04;  0.0000000E+00;  3.9994227E+04; -1.8665859E-02;  0.0000000E+00;  3.0113332E-04;  2.2118376E+02;
  1.3090380E-02;  9.9999998E-03; -4.9984746E-02;2532; -5.8856134E-05;  0.0000000E+00; -5.1107243E-05;  9.8944983E+02;  1.0000000E-01; -8.7405928E+03;3;  3.2603241E+01;  0.0000000E+00; -2.6096761E-01;0; -1.8278284E-02;  3.9172266E+04;  0.0000000E+00; -3.6626339E-03;  4.0000000E+04;  0.0000000E+00;  3.9995469E+04; -1.8603614E-02;  0.0000000E+00;  3.2532946E-04;  3.2147406E+02;
  1.3081011E-02;  9.9999998E-03; -3.9987750E-02;2533; -7.5814845E-05;  0.0000000E+00; -5.3174452E-05;  9.8945074E+02;  1.0000000E-01; -8.7398516E+03;3;  3.3176945E+01;  0.0000000E+00; -3.0997241E-01;0; -1.8213347E-02;  3.9171750E+04;  0.0000000E+00; -2.6044527E-03;  4.0000000E+04;  0.0000000E+00;  3.9996453E+04; -1.8575337E-02;  0.0000000E+00;  3.6198928E-04;  4.3862711E+02;
  1.3072615E-02;  9.9999998E-03; -2.9991142E-02;2534; -9.0706359E-05;  0.0000000E+00; -4.8214340E-05;  9.8945758E+02;  1.0000000E-01; -8.7341729E+03;3;  3.3717018E+01;  0.0000000E+00; -2.9997563E-01;0; -1.8165426E-02;  3.9171152E+04;  0.0000000E+00; -1.6067167E-03;  4.0000000E+04;  0.0000000E+00;  3.9997621E+04; -1.8569736E-02;  0.0000000E+00;  4.0430875E-04;  5.5542584E+02;
  1.3065955E-02;  9.9999998E-03; -1.9994399E-02;2535; -1.0196682E-04;  0.0000000E+00; -3.6564164E-05;  9.8946344E+02;  1.0000000E-01; -8.7293330E+03;3;  3.4177956E+01;  0.0000000E+00; -2.3569170E-01;0; -1.8131999E-02;  3.9170734E+04;  0.0000000E+00; -7.6560111E-04;  4.0000000E+04;  0.0000000E+00;  3.9998426E+04; -1.8575566E-02;  0.0000000E+00;  4.4356656E-04;  6.5430603E+02;
  1.3061693E-02;  9.9999998E-03; -9.9973455E-03;2536; -1.0884862E-04;  0.0000000E+00; -1.9761443E-05;  9.8946558E+02;  1.0000000E-01; -8.7275557E+03;3;  3.4499249E+01;  0.0000000E+00; -1.2882102E-01;0; -1.8112095E-02;  3.9170547E+04;  0.0000000E+00; -1.9975622E-04;  4.0000000E+04;  0.0000000E+00;  3.9999160E+04; -1.8583357E-02;  0.0000000E+00;  4.7126156E-04;  7.2031744E+02;
  1.3060215E-02;  9.9999998E-03;  8.3048811E-11;2537; -1.1119690E-04;  0.0000000E+00; -2.2183848E-09;  9.8946802E+02;  1.0000000E-01; -8.7255312E+03;3;  3.4601055E+01;  0.0000000E+00; -1.0888456E-05;0; -1.8105432E-02;  3.9170441E+04;  0.0000000E+00;  1.4817035E-13;  4.0000000E+04;  0.0000000E+00;  3.9999266E+04; -1.8586673E-02;  0.0000000E+00;  4.8124124E-04;  7.4346832E+02;
  1.3061693E-02;  9.9999998E-03;  9.9973455E-03;2538; -1.0885044E-04;  0.0000000E+00;  1.9757235E-05;  9.8946558E+02;  1.0000000E-01; -8.7275557E+03;3;  3.4499321E+01;  0.0000000E+00;  1.2878428E-01;0; -1.8112086E-02;  3.9170551E+04;  0.0000000E+00; -1.9970756E-04;  4.0000000E+04;  0.0000000E+00;  3.9999164E+04; -1.8583350E-02;  0.0000000E+00;  4.7126340E-04;  7.2032471E+02;
  1.3065955E-02;  9.9999998E-03;  1.9994399E-02;2539; -1.0196247E-04;  0.0000000E+00;  3.6562040E-05;  9.8946344E+02;  1.0000000E-01; -8.7293330E+03;3;  3.4177998E+01;  0.0000000E+00;  2.3566425E-01;0; -1.8132024E-02;  3.9170738E+04;  0.0000000E+00; -7.6545356E-04;  4.0000000E+04;  0.0000000E+00;  3.9998426E+04; -1.8575594E-02;  0.0000000E+00;  4.4357032E-04;  6.5431317E+02;
  1.3072615E-02;  9.9999998E-03;  2.9991142E-02;2540; -9.0708636E-05;  0.0000000E+00;  4.8207537E-05;  9.8945758E+02;  1.0000000E-01; -8.7341729E+03;3;  3.3717060E+01;  0.0000000E+00;  2.9993674E-01;0; -1.8165419E-02;  3.9171148E+04;  0.0000000E+00; -1.6065806E-03;  4.0000000E+04;  0.0000000E+00;  3.9997621E+04; -1.8569734E-02;  0.0000000E+00;  4.0431487E-04;  5.5543530E+02;
  1.3081013E-02;  9.9999998E-03;  3.9987750E-02;2541; -7.5815136E-05;  0.0000000E+00;  5.3169824E-05;  9.8945074E+02;  1.0000000E-01; -8.7398516E+03;3;  3.3177025E+01;  0.0000000E+00;  3.0997971E-01;0; -1.8213358E-02;  3.9171750E+04;  0.0000000E+00; -2.6037882E-03;  4.0000000E+04;  0.0000000E+00;  3.9996453E+04; -1.8575355E-02;  0.0000000E+00;  3.6199688E-04;  4.3862973E+02;
  1.3090381E-02;  9.9999998E-03;  4.9984746E-02;2542; -5.8856298E-05;  0.0000000E+00;  5.1104766E-05;  9.8944983E+02;  1.0000000E-01; -8.7405928E+03;3;  3.2603264E+01;  0.0000000E+00;  2.6099566E-01;0; -1.8278293E-02;  3.9172277E+04;  0.0000000E+00; -3.6624107E-03;  4.0000000E+04;  0.0000000E+00;  3.9995469E+04; -1.8603632E-02;  0.0000000E+00;  3.2533798E-04;  3.2148383E+02;
  1.3099913E-02;  9.9999998E-03;  5.9982702E-02;2543; -4.1931908E-05;  0.0000000E+00;  4.3122036E-05;  9.8944421E+02;  1.0000000E-01; -8.7452832E+03;3;  3.2155731E+01;  0.0000000E+00;  1.5203458E-01;0; -1.8364748E-02;  3.9172961E+04;  0.0000000E+00; -4.7908095E-03;  4.0000000E+04;  0.0000000E+00;  3.9994227E+04; -1.8665891E-02;  0.0000000E+00;  3.0114263E-04;  2.2118942E+02;
  2.2671195E-02;  9.9999998E-03; -9.9996589E-02;2588; -6.7193661E-04;  0.0000000E+00;  6.2831111E-07;  9.9315717E+02;  1.0000000E-01; -5.6691729E+03;3; -4.9814019E+00;  0.0000000E+00;  7.2669375E-01;0; -1.9538317E-02;  3.9463793E+04;  0.0000000E+00; -2.8018618E-02;  4.0000000E+04;  0.0000000E+00;  3.9994531E+04; -1.9947506E-02;  0.0000000E+00;  4.0918906E-04;  1.0442896E+02;
  2.2669427E-02;  9.9999998E-03; -8.9993931E-02;2589; -6.5320614E-04;  0.0000000E+00; -8.7052722E-06;  9.9315887E+02;  1.0000000E-01; -5.6677407E+03;3; -5.3275809E+00;  0.0000000E+00;  4.2694277E-01;0; -1.9300487E-02;  3.9464312E+04;  0.0000000E+00; -1.7656432E-02;  4.0000000E+04;  0.0000000E+00;  3.9994082E+04; -1.9694522E-02;  0.0000000E+00;  3.9403475E-04;  1.6791319E+02;
  2.2666316E-02;  9.9999998E-03; -7.9992071E-02;2590; -6.4988295E-04;  0.0000000E+00; -2.0514060E-05;  9.9315137E+02;  1.0000000E-01; -5.6739629E+03;3; -5.4909577E+00;  0.0000000E+00;  1.8722256E-01;0; -1.9105120E-02;  3.9463910E+04;  0.0000000E+00; -1.2181776E-02;  4.0000000E+04;  0.0000000E+00;  3.9994422E+04; -1.9481603E-02;  0.0000000E+00;  3.7648360E-04;  2.0855147E+02;
  2.2661842E-02;  9.9999998E-03; -6.9991082E-02;2591; -6.5870903E-04;  0.0000000E+00; -3.3100281E-05;  9.9314038E+02;  1.0000000E-01; -5.6830493E+03;3; -5.4496684E+00;  0.0000000E+00;  3.6091709E-03;0; -1.8950408E-02;  3.9463402E+04;  0.0000000E+00; -9.1278078E-03;  4.0000000E+04;  0.0000000E+00;  3.9994059E+04; -1.9315630E-02;  0.0000000E+00;  3.6522123E-04;  2.0826053E+02;
  2.2655996E-02;  9.9999998E-03; -5.9991002E-02;2592; -6.7554921E-04;  0.0000000E+00; -4.4405439E-05;  9.9313287E+02;  1.0000000E-01; -5.6892710E+03;3; -5.2233295E+00;  0.0000000E+00; -1.2673159E-01;0; -1.8830370E-02;  3.9462457E+04;  0.0000000E+00; -7.0697670E-03;  4.0000000E+04;  0.0000000E+00;  3.9994305E+04; -1.9197272E-02;  0.0000000E+00;  3.6690134E-04;  1.6140227E+02;
  2.2649331E-02;  9.9999998E-03; -4.9991935E-02;2593; -6.9620583E-04;  0.0000000E+00; -5.2255153E-05;  9.9313104E+02;  1.0000000E-01; -5.6908022E+03;3; -4.8439717E+00;  0.0000000E+00; -2.0670497E-01;0; -1.8737650E-02;  3.9461254E+04;  0.0000000E+00; -5.3397012E-03;  4.0000000E+04;  0.0000000E+00;  3.9994734E+04; -1.9121861E-02;  0.0000000E+00;  3.8421206E-04;  7.3439751E+01;
  2.2642348E-02;  9.9999998E-03; -3.9993469E-02;2594; -7.1694335E-04;  0.0000000E+00; -5.4597589E-05;  9.9312744E+02;  1.0000000E-01; -5.6937651E+03;3; -4.3268604E+00;  0.0000000E+00; -2.3870860E-01;0; -1.8666044E-02;  3.9460277E+04;  0.0000000E+00; -3.7278847E-03;  4.0000000E+04;  0.0000000E+00;  3.9996191E+04; -1.9081134E-02;  0.0000000E+00;  4.1509068E-04;  4.2019875E+01;
  2.2635853E-02;  9.9999998E-03; -2.9995266E-02;2595; -7.3512760E-04;  0.0000000E+00; -4.9907561E-05;  9.9312634E+02;  1.0000000E-01; -5.6947031E+03;3; -3.7883322E+00;  0.0000000E+00; -2.2558755E-01;0; -1.8611455E-02;  3.9459398E+04;  0.0000000E+00; -2.2610850E-03;  4.0000000E+04;  0.0000000E+00;  3.9996676E+04; -1.9064732E-02;  0.0000000E+00;  4.5327656E-04;  1.6276599E+02;
  2.2630528E-02;  9.9999998E-03; -1.9997012E-02;2596; -7.4903952E-04;  0.0000000E+00; -3.8008067E-05;  9.9312958E+02;  1.0000000E-01; -5.6920366E+03;3; -3.3370640E+00;  0.0000000E+00; -1.7362605E-01;0; -1.8572170E-02;  3.9458727E+04;  0.0000000E+00; -1.0637662E-03;  4.0000000E+04;  0.0000000E+00;  3.9997770E+04; -1.9062180E-02;  0.0000000E+00;  4.9001060E-04;  2.6867810E+02;
  2.2627056E-02;  9.9999998E-03; -9.9985711E-03;2597; -7.5764552E-04;  0.0000000E+00; -2.0531135E-05;  9.9313214E+02;  1.0000000E-01; -5.6899131E+03;3; -3.0299373E+00;  0.0000000E+00; -9.4118446E-02;0; -1.8548157E-02;  3.9458492E+04;  0.0000000E+00; -2.7549401E-04;  4.0000000E+04;  0.0000000E+00;  3.9998270E+04; -1.9064598E-02;  0.0000000E+00;  5.1643985E-04;  3.4068976E+02;
  2.2625849E-02;  9.9999998E-03;  6.6312275E-11;2598; -7.6055666E-04;  0.0000000E+00; -2.7338396E-09;  9.9313251E+02;  1.0000000E-01; -5.6895674E+03;3; -2.9176087E+00;  0.0000000E+00; -1.0183759E-05;0; -1.8540058E-02;  3.9458113E+04;  0.0000000E+00; -2.2555669E-13;  4.0000000E+04;  0.0000000E+00;  3.9998613E+04; -1.9066107E-02;  0.0000000E+00;  5.2604795E-04;  3.6615164E+02;
  2.2627056E-02;  9.9999998E-03;  9.9985721E-03;2599; -7.5764733E-04;  0.0000000E+00;  2.0525657E-05;  9.9313214E+02;  1.0000000E-01; -5.6899131E+03;3; -3.0299423E+00;  0.0000000E+00;  9.4092965E-02;0; -1.8548163E-02;  3.9458492E+04;  0.0000000E+00; -2.7545812E-04;  4.0000000E+04;  0.0000000E+00;  3.9998270E+04; -1.9064605E-02;  0.0000000E+00;  5.1644270E-04;  3.4069238E+02;
  2.2630529E-02;  9.9999998E-03;  1.9997012E-02;2600; -7.4903970E-04;  0.0000000E+00;  3.8001217E-05;  9.9312958E+02;  1.0000000E-01; -5.6920366E+03;3; -3.3370125E+00;  0.0000000E+00;  1.7357877E-01;0; -1.8572178E-02;  3.9458727E+04;  0.0000000E+00; -1.0638414E-03;  4.0000000E+04;  0.0000000E+00;  3.9997770E+04; -1.9062193E-02;  0.0000000E+00;  4.9001537E-04;  2.6868564E+02;
  2.2635855E-02;  9.9999998E-03;  2.9995266E-02;2601; -7.3512591E-04;  0.0000000E+00;  4.9902297E-05;  9.9312622E+02;  1.0000000E-01; -5.6948018E+03;3; -3.7875133E+00;  0.0000000E+00;  2.2558481E-01;0; -1.8611453E-02;  3.9459398E+04;  0.0000000E+00; -2.2610389E-03;  4.0000000E+04;  0.0000000E+00;  3.9996676E+04; -1.9064737E-02;  0.0000000E+00;  4.5328381E-04;  1.6278532E+02;
  2.2642350E-02;  9.9999998E-03;  3.9993469E-02;2602; -7.1694358E-04;  0.0000000E+00;  5.4594679E-05;  9.9312744E+02;  1.0000000E-01; -5.6937651E+03;3; -4.3268137E+00;  0.0000000E+00;  2.3875055E-01;0; -1.8666057E-02;  3.9460277E+04;  0.0000000E+00; -3.7277569E-03;  4.0000000E+04;  0.0000000E+00;  3.9996191E+04; -1.9081157E-02;  0.0000000E+00;  4.1509981E-04;  4.2027679E+01;
  2.2649333E-02;  9.9999998E-03;  4.9991935E-02;2603; -6.9620833E-04;  0.0000000E+00;  5.2251529E-05;  9.9313104E+02;  1.0000000E-01; -5.6908022E+03;3; -4.8439178E+00;  0.0000000E+00;  2.0670086E-01;0; -1.8737674E-02;  3.9461262E+04;  0.0000000E+00; -5.3392211E-03;  4.0000000E+04;  0.0000000E+00;  3.9994734E+04; -1.9121895E-02;  0.0000000E+00;  3.8422158E-04;  7.3429985E+01;
  2.2655996E-02;  9.9999998E-03;  5.9990998E-02;2604; -6.7555171E-04;  0.0000000E+00;  4.4401462E-05;  9.9313293E+02;  1.0000000E-01; -5.6892217E+03;3; -5.2236838E+00;  0.0000000E+00;  1.2672608E-01;0; -1.8830394E-02;  3.9462461E+04;  0.0000000E+00; -7.0697106E-03;  4.0000000E+04;  0.0000000E+00;  3.9994305E+04; -1.9197306E-02;  0.0000000E+00;  3.6691147E-04;  1.6139806E+02;
  3.2233480E-02;  9.9999998E-03; -9.9999815E-02;2649; -1.2836222E-03;  0.0000000E+00; -8.8813022E-06;  9.9684375E+02;  1.0000000E-01; -2.6148889E+03;3; -3.2008896E+01;  0.0000000E+00;  5.3382093E-01;0; -1.8985040E-02;  3.9756332E+04;  0.0000000E+00; -3.1347390E-02;  4.0000000E+04;  0.0000000E+00;  3.9995387E+04; -1.9474825E-02;  0.0000000E+00;  4.8978365E-04;  2.9415573E+02;
  3.2234360E-02;  9.9999998E-03; -8.9999706E-02;2650; -1.2606338E-03;  0.0000000E+00; -1.5828238E-05;  9.9683032E+02;  1.0000000E-01; -2.6259998E+03;3; -3.2374409E+01;  0.0000000E+00;  3.1002432E-01;0; -1.8739471E-02;  3.9756574E+04;  0.0000000E+00; -2.0773470E-02;  4.0000000E+04;  0.0000000E+00;  3.9994898E+04; -1.9218929E-02;  0.0000000E+00;  4.7945802E-04;  4.0259253E+02;
  3.2234315E-02;  9.9999998E-03; -7.9999581E-02;2651; -1.2561168E-03;  0.0000000E+00; -2.5670881E-05;  9.9681891E+02;  1.0000000E-01; -2.6354810E+03;3; -3.2655537E+01;  0.0000000E+00;  1.3324277E-01;0; -1.8541321E-02;  3.9755945E+04;  0.0000000E+00; -1.4820511E-02;  4.0000000E+04;  0.0000000E+00;  3.9994129E+04; -1.9000528E-02;  0.0000000E+00;  4.5920734E-04;  4.8756915E+02;
  3.2232985E-02;  9.9999998E-03; -6.9999367E-02;2652; -1.2660349E-03;  0.0000000E+00; -3.6763726E-05;  9.9680170E+02;  1.0000000E-01; -2.6497522E+03;3; -3.2731312E+01;  0.0000000E+00; -3.4347139E-04;0; -1.8386070E-02;  3.9754727E+04;  0.0000000E+00; -1.1158967E-02;  4.0000000E+04;  0.0000000E+00;  3.9993582E+04; -1.8826092E-02;  0.0000000E+00;  4.4002224E-04;  5.2569415E+02;
  3.2230280E-02;  9.9999998E-03; -5.9999105E-02;2653; -1.2854696E-03;  0.0000000E+00; -4.7107453E-05;  9.9678302E+02;  1.0000000E-01; -2.6652085E+03;3; -3.2583263E+01;  0.0000000E+00; -9.4157979E-02;0; -1.8265411E-02;  3.9753293E+04;  0.0000000E+00; -8.4968414E-03;  4.0000000E+04;  0.0000000E+00;  3.9994527E+04; -1.8696593E-02;  0.0000000E+00;  4.3118277E-04;  5.0638742E+02;
  3.2226335E-02;  9.9999998E-03; -4.9999062E-02;2654; -1.3096797E-03;  0.0000000E+00; -5.4476044E-05;  9.9677460E+02;  1.0000000E-01; -2.6721714E+03;3; -3.2284317E+01;  0.0000000E+00; -1.5175964E-01;0; -1.8170552E-02;  3.9751949E+04;  0.0000000E+00; -6.2533482E-03;  4.0000000E+04;  0.0000000E+00;  3.9994547E+04; -1.8608265E-02;  0.0000000E+00;  4.3771282E-04;  4.3321362E+02;
  3.2221597E-02;  9.9999998E-03; -3.9999235E-02;2655; -1.3343368E-03;  0.0000000E+00; -5.6585235E-05;  9.9677057E+02;  1.0000000E-01; -2.6755293E+03;3; -3.1858810E+01;  0.0000000E+00; -1.7454128E-01;0; -1.8094851E-02;  3.9750586E+04;  0.0000000E+00; -4.2562480E-03;  4.0000000E+04;  0.0000000E+00;  3.9995035E+04; -1.8554058E-02;  0.0000000E+00;  4.5920716E-04;  3.2200604E+02;
  3.2216854E-02;  9.9999998E-03; -2.9999526E-02;2656; -1.3563391E-03;  0.0000000E+00; -5.1831852E-05;  9.9676678E+02;  1.0000000E-01; -2.6786404E+03;3; -3.1376188E+01;  0.0000000E+00; -1.6540843E-01;0; -1.8034875E-02;  3.9749664E+04;  0.0000000E+00; -2.5288493E-03;  4.0000000E+04;  0.0000000E+00;  3.9996551E+04; -1.8525127E-02;  0.0000000E+00;  4.9025210E-04;  1.9657829E+02;
  3.2212783E-02;  9.9999998E-03; -1.9999780E-02;2657; -1.3732478E-03;  0.0000000E+00; -3.9602437E-05;  9.9676862E+02;  1.0000000E-01; -2.6771589E+03;3; -3.0961971E+01;  0.0000000E+00; -1.2752381E-01;0; -1.7990191E-02;  3.9748785E+04;  0.0000000E+00; -1.1726524E-03;  4.0000000E+04;  0.0000000E+00;  3.9996988E+04; -1.8512430E-02;  0.0000000E+00;  5.2223931E-04;  8.3035225E+01;
  3.2210048E-02;  9.9999998E-03; -9.9999299E-03;2658; -1.3837279E-03;  0.0000000E+00; -2.1483187E-05;  9.9677051E+02;  1.0000000E-01; -2.6755786E+03;3; -3.0674881E+01;  0.0000000E+00; -6.9145821E-02;0; -1.7962208E-02;  3.9748359E+04;  0.0000000E+00; -3.0108966E-04;  4.0000000E+04;  0.0000000E+00;  3.9997980E+04; -1.8508261E-02;  0.0000000E+00;  5.4605259E-04;  4.4148107E+00;
  3.2209083E-02;  9.9999998E-03;  5.3282569E-11;2659; -1.3872784E-03;  0.0000000E+00; -2.5624702E-09;  9.9677106E+02;  1.0000000E-01; -2.6751343E+03;3; -3.0570913E+01;  0.0000000E+00; -1.0261431E-05;0; -1.7952651E-02;  3.9748031E+04;  0.0000000E+00; -1.0226614E-13;  4.0000000E+04;  0.0000000E+00;  3.9998148E+04; -1.8507488E-02;  0.0000000E+00;  5.5483647E-04;  2.3666262E+01;
  3.2210048E-02;  9.9999998E-03;  9.9999299E-03;2660; -1.3837283E-03;  0.0000000E+00;  2.1478576E-05;  9.9677039E+02;  1.0000000E-01; -2.6756775E+03;3; -3.0674244E+01;  0.0000000E+00;  6.9130875E-02;0; -1.7962210E-02;  3.9748359E+04;  0.0000000E+00; -3.0104225E-04;  4.0000000E+04;  0.0000000E+00;  3.9997980E+04; -1.8508265E-02;  0.0000000E+00;  5.4605509E-04;  4.4105811E+00;
  3.2212783E-02;  9.9999998E-03;  1.9999780E-02;2661; -1.3732510E-03;  0.0000000E+00;  3.9597617E-05;  9.9676874E+02;  1.0000000E-01; -2.6770601E+03;3; -3.0962524E+01;  0.0000000E+00;  1.2751323E-01;0; -1.7990191E-02;  3.9748781E+04;  0.0000000E+00; -1.1725327E-03;  4.0000000E+04;  0.0000000E+00;  3.9996988E+04; -1.8512435E-02;  0.0000000E+00;  5.2224554E-04;  8.3030022E+01;
  3.2216854E-02;  9.9999998E-03;  2.9999526E-02;2662; -1.3563391E-03;  0.0000000E+00;  5.1825744E-05;  9.9676672E+02;  1.0000000E-01; -2.6786897E+03;3; -3.1375834E+01;  0.0000000E+00;  1.6538465E-01;0; -1.8034888E-02;  3.9749660E+04;  0.0000000E+00; -2.5285045E-03;  4.0000000E+04;  0.0000000E+00;  3.9996551E+04; -1.8525148E-02;  0.0000000E+00;  4.9026002E-04;  1.9657246E+02;
  3.2221597E-02;  9.9999998E-03;  3.9999235E-02;2663; -1.3343403E-03;  0.0000000E+00;  5.6580804E-05;  9.9677051E+02;  1.0000000E-01; -2.6755786E+03;3; -3.1858488E+01;  0.0000000E+00;  1.7452419E-01;0; -1.8094866E-02;  3.9750594E+04;  0.0000000E+00; -4.2565661E-03;  4.0000000E+04;  0.0000000E+00;  3.9995031E+04; -1.8554082E-02;  0.0000000E+00;  4.5921729E-04;  3.2199722E+02;
  3.2226339E-02;  9.9999998E-03;  4.9999062E-02;2664; -1.3096766E-03;  0.0000000E+00;  5.4471249E-05;  9.9677460E+02;  1.0000000E-01; -2.6721714E+03;3; -3.2284229E+01;  0.0000000E+00;  1.5172701E-01;0; -1.8170564E-02;  3.9751949E+04;  0.0000000E+00; -6.2533780E-03;  4.0000000E+04;  0.0000000E+00;  3.9994547E+04; -1.8608287E-02;  0.0000000E+00;  4.3772350E-04;  4.3320554E+02;
  3.2230284E-02;  9.9999998E-03;  5.9999105E-02;2665; -1.2854738E-03;  0.0000000E+00;  4.7103458E-05;  9.9678302E+02;  1.0000000E-01; -2.6652085E+03;3; -3.2583237E+01;  0.0000000E+00;  9.4131008E-02;0; -1.8265435E-02;  3.9753293E+04;  0.0000000E+00; -8.4966319E-03;  4.0000000E+04;  0.0000000E+00;  3.9994527E+04; -1.8696629E-02;  0.0000000E+00;  4.3119371E-04;  5.0637686E+02;
  4.1839380E-02;  9.9999998E-03; -1.0000655E-01;2710; -1.8194189E-03;  0.0000000E+00; -3.2499003E-05;  1.0000886E+03;  1.0000000E-01;  7.3380638E+01;3; -4.6287979E+01;  0.0000000E+00;  3.4631142E-01;0; -1.7423255E-02;  4.0017387E+04;  0.0000000E+00; -3.1369593E-02;  4.0000000E+04;  0.0000000E+00;  3.9996707E+04; -1.7999286E-02;  0.0000000E+00;  5.7603035E-04;  3.9752203E+02;
  4.1842286E-02;  9.9999998E-03; -9.0007320E-02;2711; -1.7928532E-03;  0.0000000E+00; -3.4025914E-05;  1.0000707E+03;  1.0000000E-01;  5.8566246E+01;3; -4.6706532E+01;  0.0000000E+00;  1.9007842E-01;0; -1.7179502E-02;  4.0016980E+04;  0.0000000E+00; -2.1188539E-02;  4.0000000E+04;  0.0000000E+00;  3.9995648E+04; -1.7748073E-02;  0.0000000E+00;  5.6857086E-04;  5.5147925E+02;
  4.1845158E-02;  9.9999998E-03; -8.0007285E-02;2712; -1.7891752E-03;  0.0000000E+00; -3.9518345E-05;  1.0000402E+03;  1.0000000E-01;  3.3283009E+01;3; -4.7005898E+01;  0.0000000E+00;  6.9358714E-02;0; -1.6987357E-02;  4.0016133E+04;  0.0000000E+00; -1.5017601E-02;  4.0000000E+04;  0.0000000E+00;  3.9994754E+04; -1.7529897E-02;  0.0000000E+00;  5.4254092E-04;  6.8326086E+02;
  4.1846618E-02;  9.9999998E-03; -7.0006564E-02;2713; -1.8038091E-03;  0.0000000E+00; -4.7253347E-05;  1.0000169E+03;  1.0000000E-01;  1.4024295E+01;3; -4.7180202E+01;  0.0000000E+00; -1.9790268E-02;0; -1.6838789E-02;  4.0014711E+04;  0.0000000E+00; -1.0961087E-02;  4.0000000E+04;  0.0000000E+00;  3.9994234E+04; -1.7350469E-02;  0.0000000E+00;  5.1168026E-04;  7.6114685E+02;
  4.1846402E-02;  9.9999998E-03; -6.0005598E-02;2714; -1.8304524E-03;  0.0000000E+00; -5.5120312E-05;  9.9999945E+02;  1.0000000E-01; -4.4443187E-01;3; -4.7168995E+01;  0.0000000E+00; -8.0800943E-02;0; -1.6722679E-02;  4.0013180E+04;  0.0000000E+00; -7.9860250E-03;  4.0000000E+04;  0.0000000E+00;  3.9993910E+04; -1.7211054E-02;  0.0000000E+00;  4.8837409E-04;  7.6936444E+02;
  4.1844495E-02;  9.9999998E-03; -5.0004628E-02;2715; -1.8626939E-03;  0.0000000E+00; -6.0810686E-05;  9.9998621E+02;  1.0000000E-01; -1.1407084E+01;3; -4.6964092E+01;  0.0000000E+00; -1.1630429E-01;0; -1.6628869E-02;  4.0011766E+04;  0.0000000E+00; -5.6165308E-03;  4.0000000E+04;  0.0000000E+00;  3.9994984E+04; -1.7109264E-02;  0.0000000E+00;  4.8039519E-04;  7.0988287E+02;
  4.1841470E-02;  9.9999998E-03; -4.0003709E-02;2716; -1.8951558E-03;  0.0000000E+00; -6.1859864E-05;  9.9997986E+02;  1.0000000E-01; -1.6690886E+01;3; -4.6626930E+01;  0.0000000E+00; -1.2850802E-01;0; -1.6550582E-02;  4.0010359E+04;  0.0000000E+00; -3.6743723E-03;  4.0000000E+04;  0.0000000E+00;  3.9995418E+04; -1.7039871E-02;  0.0000000E+00;  4.8928952E-04;  6.0028479E+02;
  4.1838117E-02;  9.9999998E-03; -3.0002806E-02;2717; -1.9237685E-03;  0.0000000E+00; -5.5986267E-05;  9.9997845E+02;  1.0000000E-01; -1.7826656E+01;3; -4.6232441E+01;  0.0000000E+00; -1.1858677E-01;0; -1.6485456E-02;  4.0009219E+04;  0.0000000E+00; -2.1174087E-03;  4.0000000E+04;  0.0000000E+00;  3.9996828E+04; -1.6996121E-02;  0.0000000E+00;  5.1066541E-04;  4.6845331E+02;
  4.1835107E-02;  9.9999998E-03; -2.0001862E-02;2718; -1.9456602E-03;  0.0000000E+00; -4.2503136E-05;  9.9998077E+02;  1.0000000E-01; -1.5950166E+01;3; -4.5872505E+01;  0.0000000E+00; -9.0107910E-02;0; -1.6434981E-02;  4.0008445E+04;  0.0000000E+00; -9.6152665E-04;  4.0000000E+04;  0.0000000E+00;  3.9997531E+04; -1.6971111E-02;  0.0000000E+00;  5.3613121E-04;  3.4545621E+02;
  4.1833058E-02;  9.9999998E-03; -1.0000909E-02;2719; -1.9591937E-03;  0.0000000E+00; -2.2916589E-05;  9.9998236E+02;  1.0000000E-01; -1.4616871E+01;3; -4.5615311E+01;  0.0000000E+00; -4.8354931E-02;0; -1.6402531E-02;  4.0007734E+04;  0.0000000E+00; -2.4396711E-04;  4.0000000E+04;  0.0000000E+00;  3.9998238E+04; -1.6958823E-02;  0.0000000E+00;  5.5629271E-04;  2.5898126E+02;
  4.1832320E-02;  9.9999998E-03;  1.0099042E-11;2720; -1.9637896E-03;  0.0000000E+00; -2.4613005E-09;  9.9998529E+02;  1.0000000E-01; -1.2197186E+01;3; -4.5532909E+01;  0.0000000E+00; -1.1723640E-05;0; -1.6391292E-02;  4.0007543E+04;  0.0000000E+00; -7.2426537E-13;  4.0000000E+04;  0.0000000E+00;  3.9998355E+04; -1.6955208E-02;  0.0000000E+00;  5.6391594E-04;  2.2794833E+02;
  4.1833058E-02;  9.9999998E-03;  1.0000909E-02;2721; -1.9591921E-03;  0.0000000E+00;  2.2912374E-05;  9.9998230E+02;  1.0000000E-01; -1.4666252E+01;3; -4.5615025E+01;  0.0000000E+00;  4.8341509E-02;0; -1.6402537E-02;  4.0007730E+04;  0.0000000E+00; -2.4392581E-04;  4.0000000E+04;  0.0000000E+00;  3.9998238E+04; -1.6958833E-02;  0.0000000E+00;  5.5629655E-04;  2.5897754E+02;
  4.1835111E-02;  9.9999998E-03;  2.0001862E-02;2722; -1.9456600E-03;  0.0000000E+00;  4.2498923E-05;  9.9998077E+02;  1.0000000E-01; -1.5950166E+01;3; -4.5872456E+01;  0.0000000E+00;  9.0097785E-02;0; -1.6434971E-02;  4.0008449E+04;  0.0000000E+00; -9.6138410E-04;  4.0000000E+04;  0.0000000E+00;  3.9997531E+04; -1.6971109E-02;  0.0000000E+00;  5.3613749E-04;  3.4545465E+02;
  4.1838121E-02;  9.9999998E-03;  3.0002806E-02;2723; -1.9237655E-03;  0.0000000E+00;  5.5982098E-05;  9.9997845E+02;  1.0000000E-01; -1.7826656E+01;3; -4.6232353E+01;  0.0000000E+00;  1.1857700E-01;0; -1.6485469E-02;  4.0009219E+04;  0.0000000E+00; -2.1172666E-03;  4.0000000E+04;  0.0000000E+00;  3.9996828E+04; -1.6996143E-02;  0.0000000E+00;  5.1067438E-04;  4.6844016E+02;
  4.1841470E-02;  9.9999998E-03;  4.0003709E-02;2724; -1.8951559E-03;  0.0000000E+00;  6.1855317E-05;  9.9997986E+02;  1.0000000E-01; -1.6690886E+01;3; -4.6626839E+01;  0.0000000E+00;  1.2848522E-01;0; -1.6550593E-02;  4.0010359E+04;  0.0000000E+00; -3.6744745E-03;  4.0000000E+04;  0.0000000E+00;  3.9995418E+04; -1.7039893E-02;  0.0000000E+00;  4.8930052E-04;  6.0027850E+02;
  4.1844495E-02;  9.9999998E-03;  5.0004628E-02;2725; -1.8626906E-03;  0.0000000E+00;  6.0806840E-05;  9.9998621E+02;  1.0000000E-01; -1.1407084E+01;3; -4.6963985E+01;  0.0000000E+00;  1.1628080E-01;0; -1.6628891E-02;  4.0011762E+04;  0.0000000E+00; -5.6160646E-03;  4.0000000E+04;  0.0000000E+00;  3.9994988E+04; -1.7109297E-02;  0.0000000E+00;  4.8040660E-04;  7.0987012E+02;
  4.1846402E-02;  9.9999998E-03;  6.0005598E-02;2726; -1.8304480E-03;  0.0000000E+00;  5.5118337E-05;  9.9999945E+02;  1.0000000E-01; -4.4443187E-01;3; -4.7168896E+01;  0.0000000E+00;  8.0780342E-02;0; -1.6722690E-02;  4.0013191E+04;  0.0000000E+00; -7.9861544E-03;  4.0000000E+04;  0.0000000E+00;  3.9993910E+04; -1.7211076E-02;  0.0000000E+00;  4.8838498E-04;  7.6935559E+02;
  5.1505566E-02;  9.9999998E-03; -1.0001810E-01;2771; -2.2530947E-03;  0.0000000E+00; -6.2714666E-05;  1.0026054E+03;  1.0000000E-01;  2.1585562E+03;3; -4.8810810E+01;  0.0000000E+00;  2.1360999E-01;0; -1.5020054E-02;  4.0222098E+04;  0.0000000E+00; -2.7239291E-02;  4.0000000E+04;  0.0000000E+00;  3.9998809E+04; -1.5683448E-02;  0.0000000E+00;  6.6339452E-04;  3.9194327E+02;
  5.1509954E-02;  9.9999998E-03; -9.0018198E-02;2772; -2.2237257E-03;  0.0000000E+00; -5.2853396E-05;  1.0025797E+03;  1.0000000E-01;  2.1372234E+03;3; -4.9219776E+01;  0.0000000E+00;  1.1421867E-01;0; -1.4791390E-02;  4.0221516E+04;  0.0000000E+00; -1.7888933E-02;  4.0000000E+04;  0.0000000E+00;  3.9996797E+04; -1.5446962E-02;  0.0000000E+00;  6.5557193E-04;  5.9213739E+02;
  5.1514305E-02;  9.9999998E-03; -8.0016695E-02;2773; -2.2211752E-03;  0.0000000E+00; -4.8669714E-05;  1.0025452E+03;  1.0000000E-01;  2.1085823E+03;3; -4.9550861E+01;  0.0000000E+00;  3.8951583E-02;0; -1.4617866E-02;  4.0220305E+04;  0.0000000E+00; -1.1866067E-02;  4.0000000E+04;  0.0000000E+00;  3.9995492E+04; -1.5237827E-02;  0.0000000E+00;  6.1996066E-04;  7.6978607E+02;
  5.1517285E-02;  9.9999998E-03; -7.0014149E-02;2774; -2.2392767E-03;  0.0000000E+00; -4.9607690E-05;  1.0025185E+03;  1.0000000E-01;  2.0865583E+03;3; -4.9765007E+01;  0.0000000E+00; -1.5647745E-02;0; -1.4487027E-02;  4.0219078E+04;  0.0000000E+00; -7.8681419E-03;  4.0000000E+04;  0.0000000E+00;  3.9995008E+04; -1.5060533E-02;  0.0000000E+00;  5.7350582E-04;  8.8478430E+02;
  5.1518407E-02;  9.9999998E-03; -6.0011461E-02;2775; -2.2713656E-03;  0.0000000E+00; -5.2966901E-05;  1.0024978E+03;  1.0000000E-01;  2.0693735E+03;3; -4.9805904E+01;  0.0000000E+00; -5.3583130E-02;0; -1.4384241E-02;  4.0217531E+04;  0.0000000E+00; -5.1282854E-03;  4.0000000E+04;  0.0000000E+00;  3.9994504E+04; -1.4916334E-02;  0.0000000E+00;  5.3209375E-04;  9.1654608E+02;
  5.1517759E-02;  9.9999998E-03; -5.0009016E-02;2776; -2.3102670E-03;  0.0000000E+00; -5.7622092E-05;  1.0024865E+03;  1.0000000E-01;  2.0599912E+03;3; -4.9678825E+01;  0.0000000E+00; -7.6176651E-02;0; -1.4297517E-02;  4.0216176E+04;  0.0000000E+00; -3.2212401E-03;  4.0000000E+04;  0.0000000E+00;  3.9994793E+04; -1.4804013E-02;  0.0000000E+00;  5.0649635E-04;  8.6617920E+02;
  5.1515963E-02;  9.9999998E-03; -4.0006846E-02;2777; -2.3498056E-03;  0.0000000E+00; -5.9694041E-05;  1.0024839E+03;  1.0000000E-01;  2.0579170E+03;3; -4.9427296E+01;  0.0000000E+00; -8.4297441E-02;0; -1.4220113E-02;  4.0214871E+04;  0.0000000E+00; -1.9003063E-03;  4.0000000E+04;  0.0000000E+00;  3.9995793E+04; -1.4720445E-02;  0.0000000E+00;  5.0033227E-04;  7.5381750E+02;
  5.1513623E-02;  9.9999998E-03; -3.0004892E-02;2778; -2.3851637E-03;  0.0000000E+00; -5.5760902E-05;  1.0024894E+03;  1.0000000E-01;  2.0624602E+03;3; -4.9124470E+01;  0.0000000E+00; -7.9031803E-02;0; -1.4151382E-02;  4.0214266E+04;  0.0000000E+00; -1.0056582E-03;  4.0000000E+04;  0.0000000E+00;  3.9997301E+04; -1.4661634E-02;  0.0000000E+00;  5.1025237E-04;  6.1181256E+02;
  5.1511403E-02;  9.9999998E-03; -2.0003147E-02;2779; -2.4126344E-03;  0.0000000E+00; -4.3578442E-05;  1.0024961E+03;  1.0000000E-01;  2.0679910E+03;3; -4.8834820E+01;  0.0000000E+00; -6.1562900E-02;0; -1.4095364E-02;  4.0213605E+04;  0.0000000E+00; -4.2953083E-04;  4.0000000E+04;  0.0000000E+00;  3.9998082E+04; -1.4623398E-02;  0.0000000E+00;  5.2803382E-04;  4.7665433E+02;
  5.1509861E-02;  9.9999998E-03; -1.0001541E-02;2780; -2.4296271E-03;  0.0000000E+00; -2.3883063E-05;  1.0024996E+03;  1.0000000E-01;  2.0708550E+03;3; -4.8621754E+01;  0.0000000E+00; -3.4049179E-02;0; -1.4058247E-02;  4.0213223E+04;  0.0000000E+00; -1.0511166E-04;  4.0000000E+04;  0.0000000E+00;  3.9998570E+04; -1.4602161E-02;  0.0000000E+00;  5.4391351E-04;  3.8074261E+02;
  5.1509324E-02;  9.9999998E-03;  9.2109978E-13;2781; -2.4354190E-03;  0.0000000E+00; -2.6672589E-09;  1.0025030E+03;  1.0000000E-01;  2.0737192E+03;3; -4.8552193E+01;  0.0000000E+00;  4.9886826E-06;0; -1.4045198E-02;  4.0213168E+04;  0.0000000E+00; -9.0591835E-13;  4.0000000E+04;  0.0000000E+00;  3.9999176E+04; -1.4595376E-02;  0.0000000E+00;  5.5017788E-04;  3.4615750E+02;
  5.1509861E-02;  9.9999998E-03;  1.0001541E-02;2782; -2.4296285E-03;  0.0000000E+00;  2.3878396E-05;  1.0024996E+03;  1.0000000E-01;  2.0708550E+03;3; -4.8621708E+01;  0.0000000E+00;  3.4061693E-02;0; -1.4058252E-02;  4.0213223E+04;  0.0000000E+00; -1.0504034E-04;  4.0000000E+04;  0.0000000E+00;  3.9998570E+04; -1.4602168E-02;  0.0000000E+00;  5.4391642E-04;  3.8074240E+02;
  5.1511403E-02;  9.9999998E-03;  2.0003147E-02;2783; -2.4126319E-03;  0.0000000E+00;  4.3573440E-05;  1.0024961E+03;  1.0000000E-01;  2.0679910E+03;3; -4.8834766E+01;  0.0000000E+00;  6.1554417E-02;0; -1.4095373E-02;  4.0213605E+04;  0.0000000E+00; -4.2946768E-04;  4.0000000E+04;  0.0000000E+00;  3.9998082E+04; -1.4623415E-02;  0.0000000E+00;  5.2804156E-04;  4.7664633E+02;
  5.1513623E-02;  9.9999998E-03;  3.0004892E-02;2784; -2.3851672E-03;  0.0000000E+00;  5.5756929E-05;  1.0024894E+03;  1.0000000E-01;  2.0623613E+03;3; -4.9124435E+01;  0.0000000E+00;  7.9016440E-02;0; -1.4151394E-02;  4.0214270E+04;  0.0000000E+00; -1.0054378E-03;  4.0000000E+04;  0.0000000E+00;  3.9997301E+04; -1.4661657E-02;  0.0000000E+00;  5.1026238E-04;  6.1180896E+02;
  5.1515963E-02;  9.9999998E-03;  4.0006846E-02;2785; -2.3498049E-03;  0.0000000E+00;  5.9690650E-05;  1.0024839E+03;  1.0000000E-01;  2.0579170E+03;3; -4.9427258E+01;  0.0000000E+00;  8.4286854E-02;0; -1.4220131E-02;  4.0214875E+04;  0.0000000E+00; -1.8999198E-03;  4.0000000E+04;  0.0000000E+00;  3.9995797E+04; -1.4720475E-02;  0.0000000E+00;  5.0034438E-04;  7.5380164E+02;
  5.1517759E-02;  9.9999998E-03;  5.0009016E-02;2786; -2.3102651E-03;  0.0000000E+00;  5.7618752E-05;  1.0024865E+03;  1.0000000E-01;  2.0599912E+03;3; -4.9678749E+01;  0.0000000E+00;  7.6165468E-02;0; -1.4297522E-02;  4.0216176E+04;  0.0000000E+00; -3.2208075E-03;  4.0000000E+04;  0.0000000E+00;  3.9994793E+04; -1.4804030E-02;  0.0000000E+00;  5.0650805E-04;  8.6617346E+02;
  5.1518407E-02;  9.9999998E-03;  6.0011461E-02;2787; -2.2713621E-03;  0.0000000E+00;  5.2965948E-05;  1.0024978E+03;  1.0000000E-01;  2.0693735E+03;3; -4.9805889E+01;  0.0000000E+00;  5.3572714E-02;0; -1.4384277E-02;  4.0217535E+04;  0.0000000E+00; -5.1278104E-03;  4.0000000E+04;  0.0000000E+00;  3.9994504E+04; -1.4916383E-02;  0.0000000E+00;  5.3210591E-04;  9.1653693E+02;
  6.1242484E-02;  9.9999998E-03; -1.0003376E-01;2832; -2.5497894E-03;  0.0000000E+00; -9.8060154E-05;  1.0042553E+03;  1.0000000E-01;  3.5254312E+03;3; -4.2963959E+01;  0.0000000E+00;  1.1758103E-01;0; -1.2066688E-02;  4.0357094E+04;  0.0000000E+00; -1.9483184E-02;  4.0000000E+04;  0.0000000E+00;  4.0000988E+04; -1.2811502E-02;  0.0000000E+00;  7.4481335E-04;  2.7028259E+02;
  6.1246254E-02;  9.9999998E-03; -9.0032481E-02;2833; -2.5140247E-03;  0.0000000E+00; -5.7944540E-05;  1.0042184E+03;  1.0000000E-01;  3.4948147E+03;3; -4.3307411E+01;  0.0000000E+00;  6.8417825E-02;0; -1.1870816E-02;  4.0356488E+04;  0.0000000E+00; -1.1363536E-02;  4.0000000E+04;  0.0000000E+00;  3.9998711E+04; -1.2603435E-02;  0.0000000E+00;  7.3261833E-04;  5.1438940E+02;
  6.1250262E-02;  9.9999998E-03; -8.0028668E-02;2834; -2.5079921E-03;  0.0000000E+00; -3.7608388E-05;  1.0041843E+03;  1.0000000E-01;  3.4665686E+03;3; -4.3617241E+01;  0.0000000E+00;  2.8099617E-02;0; -1.1731472E-02;  4.0355180E+04;  0.0000000E+00; -5.9703402E-03;  4.0000000E+04;  0.0000000E+00;  3.9997543E+04; -1.2415044E-02;  0.0000000E+00;  6.8357261E-04;  7.3363885E+02;
  6.1253410E-02;  9.9999998E-03; -7.0023239E-02;2835; -2.5245235E-03;  0.0000000E+00; -3.2479787E-05;  1.0041559E+03;  1.0000000E-01;  3.4431619E+03;3; -4.3814327E+01;  0.0000000E+00; -4.2286287E-03;0; -1.1630844E-02;  4.0354090E+04;  0.0000000E+00; -2.5939937E-03;  4.0000000E+04;  0.0000000E+00;  3.9995910E+04; -1.2249010E-02;  0.0000000E+00;  6.1816577E-04;  8.7979651E+02;
  6.1255019E-02;  9.9999998E-03; -6.0017630E-02;2836; -2.5569941E-03;  0.0000000E+00; -3.7003872E-05;  1.0041423E+03;  1.0000000E-01;  3.4318042E+03;3; -4.3877445E+01;  0.0000000E+00; -2.7501917E-02;0; -1.1550474E-02;  4.0352914E+04;  0.0000000E+00; -6.6462468E-04;  4.0000000E+04;  0.0000000E+00;  3.9995391E+04; -1.2106443E-02;  0.0000000E+00;  5.5596849E-04;  9.2824579E+02;
  6.1255056E-02;  9.9999998E-03; -5.0012801E-02;2837; -2.5983786E-03;  0.0000000E+00; -4.5353139E-05;  1.0041398E+03;  1.0000000E-01;  3.4297302E+03;3; -4.3798817E+01;  0.0000000E+00; -4.2638909E-02;0; -1.1476758E-02;  4.0352246E+04;  0.0000000E+00;  2.6524579E-04;  4.0000000E+04;  0.0000000E+00;  3.9995891E+04; -1.1987530E-02;  0.0000000E+00;  5.1077164E-04;  8.8037518E+02;
  6.1253808E-02;  9.9999998E-03; -4.0008929E-02;2838; -2.6426471E-03;  0.0000000E+00; -5.2680352E-05;  1.0041461E+03;  1.0000000E-01;  3.4349646E+03;3; -4.3614513E+01;  0.0000000E+00; -5.0424200E-02;0; -1.1403647E-02;  4.0351676E+04;  0.0000000E+00;  5.4860784E-04;  4.0000000E+04;  0.0000000E+00;  3.9997016E+04; -1.1891816E-02;  0.0000000E+00;  4.8816833E-04;  7.5953589E+02;
  6.1251860E-02;  9.9999998E-03; -3.0006012E-02;2839; -2.6845157E-03;  0.0000000E+00; -5.4711345E-05;  1.0041553E+03;  1.0000000E-01;  3.4425693E+03;3; -4.3374470E+01;  0.0000000E+00; -4.9571395E-02;0; -1.1332795E-02;  4.0351402E+04;  0.0000000E+00;  4.7184725E-04;  4.0000000E+04;  0.0000000E+00;  3.9998262E+04; -1.1818524E-02;  0.0000000E+00;  4.8572844E-04;  6.0318274E+02;
  6.1249927E-02;  9.9999998E-03; -2.0003768E-02;2840; -2.7184999E-03;  0.0000000E+00; -4.6336874E-05;  1.0041699E+03;  1.0000000E-01;  3.4546184E+03;3; -4.3157616E+01;  0.0000000E+00; -3.9281644E-02;0; -1.1271575E-02;  4.0351219E+04;  0.0000000E+00;  2.6038938E-04;  4.0000000E+04;  0.0000000E+00;  3.9999504E+04; -1.1766870E-02;  0.0000000E+00;  4.9529399E-04;  4.5308115E+02;
  6.1248541E-02;  9.9999998E-03; -1.0001861E-02;2841; -2.7409159E-03;  0.0000000E+00; -2.5958005E-05;  1.0041808E+03;  1.0000000E-01;  3.4637046E+03;3; -4.3005199E+01;  0.0000000E+00; -2.1411346E-02;0; -1.1229509E-02;  4.0351199E+04;  0.0000000E+00;  7.2504343E-05;  4.0000000E+04;  0.0000000E+00;  4.0000555E+04; -1.1736145E-02;  0.0000000E+00;  5.0663581E-04;  3.4623715E+02;
  6.1248034E-02;  9.9999998E-03; -1.9120098E-11;2842; -2.7486507E-03;  0.0000000E+00; -2.3797113E-09;  1.0041840E+03;  1.0000000E-01;  3.4663711E+03;3; -4.2948055E+01;  0.0000000E+00;  5.8392197E-06;0; -1.1214484E-02;  4.0351020E+04;  0.0000000E+00; -5.1318091E-13;  4.0000000E+04;  0.0000000E+00;  4.0000738E+04; -1.1725958E-02;  0.0000000E+00;  5.1147304E-04;  3.0766006E+02;
  6.1248541E-02;  9.9999998E-03;  1.0001861E-02;2843; -2.7409184E-03;  0.0000000E+00;  2.5953617E-05;  1.0041808E+03;  1.0000000E-01;  3.4637046E+03;3; -4.3005188E+01;  0.0000000E+00;  2.1429712E-02;0; -1.1229513E-02;  4.0351203E+04;  0.0000000E+00;  7.2536386E-05;  4.0000000E+04;  0.0000000E+00;  4.0000555E+04; -1.1736153E-02;  0.0000000E+00;  5.0663971E-04;  3.4623679E+02;
  6.1249927E-02;  9.9999998E-03;  2.0003768E-02;2844; -2.7184959E-03;  0.0000000E+00;  4.6333422E-05;  1.0041699E+03;  1.0000000E-01;  3.4546184E+03;3; -4.3157543E+01;  0.0000000E+00;  3.9271791E-02;0; -1.1271583E-02;  4.0351219E+04;  0.0000000E+00;  2.6058656E-04;  4.0000000E+04;  0.0000000E+00;  3.9999504E+04; -1.1766884E-02;  0.0000000E+00;  4.9530127E-04;  4.5306833E+02;
  6.1251860E-02;  9.9999998E-03;  3.0006012E-02;2845; -2.6845201E-03;  0.0000000E+00;  5.4707762E-05;  1.0041553E+03;  1.0000000E-01;  3.4425693E+03;3; -4.3374489E+01;  0.0000000E+00;  4.9570166E-02;0; -1.1332798E-02;  4.0351402E+04;  0.0000000E+00;  4.7215639E-04;  4.0000000E+04;  0.0000000E+00;  3.9998262E+04; -1.1818537E-02;  0.0000000E+00;  4.8573955E-04;  6.0317383E+02;
  6.1253808E-02;  9.9999998E-03;  4.0008929E-02;2846; -2.6426516E-03;  0.0000000E+00;  5.2679014E-05;  1.0041461E+03;  1.0000000E-01;  3.4349646E+03;3; -4.3614155E+01;  0.0000000E+00;  5.0413847E-02;0; -1.1403667E-02;  4.0351676E+04;  0.0000000E+00;  5.4887711E-04;  4.0000000E+04;  0.0000000E+00;  3.9997016E+04; -1.1891847E-02;  0.0000000E+00;  4.8818067E-04;  7.5952844E+02;
  6.1255056E-02;  9.9999998E-03;  5.0012801E-02;2847; -2.5983769E-03;  0.0000000E+00;  4.5353867E-05;  1.0041398E+03;  1.0000000E-01;  3.4297302E+03;3; -4.3798706E+01;  0.0000000E+00;  4.2673331E-02;0; -1.1476786E-02;  4.0352254E+04;  0.0000000E+00;  2.6559544E-04;  4.0000000E+04;  0.0000000E+00;  3.9995891E+04; -1.1987570E-02;  0.0000000E+00;  5.1078416E-04;  8.8036761E+02;
  6.1255023E-02;  9.9999998E-03;  6.0017630E-02;2848; -2.5569932E-03;  0.0000000E+00;  3.7002304E-05;  1.0041423E+03;  1.0000000E-01;  3.4318042E+03;3; -4.3877129E+01;  0.0000000E+00;  2.7471259E-02;0; -1.1550503E-02;  4.0352918E+04;  0.0000000E+00; -6.6384242E-04;  4.0000000E+04;  0.0000000E+00;  3.9995391E+04; -1.2106482E-02;  0.0000000E+00;  5.5597955E-04;  9.2822839E+02;
  7.1055681E-02;  9.9999998E-03; -1.0005089E-01;2893; -2.6371269E-03;  0.0000000E+00; -1.2591894E-04;  1.0050334E+03;  1.0000000E-01;  4.1700547E+03;3; -3.2833157E+01;  0.0000000E+00;  6.0180988E-02;0; -8.9415517E-03;  4.0420820E+04;  0.0000000E+00; -1.0425585E-02;  4.0000000E+04;  0.0000000E+00;  4.0003391E+04; -9.7527634E-03;  0.0000000E+00;  8.1121206E-04;  3.9850822E+01;
  7.1057491E-02;  9.9999998E-03; -9.0047382E-02;2894; -2.5927580E-03;  0.0000000E+00; -6.0449263E-05;  1.0049946E+03;  1.0000000E-01;  4.1378584E+03;3; -3.3108593E+01;  0.0000000E+00;  3.6220942E-02;0; -8.7966425E-03;  4.0419840E+04;  0.0000000E+00; -3.9276374E-03;  4.0000000E+04;  0.0000000E+00;  4.0000961E+04; -9.5871314E-03;  0.0000000E+00;  7.9048920E-04;  3.2069635E+02;
  7.1060225E-02;  9.9999998E-03; -8.0040418E-02;2895; -2.5785696E-03;  0.0000000E+00; -2.7055337E-05;  1.0049598E+03;  1.0000000E-01;  4.1091182E+03;3; -3.3352535E+01;  0.0000000E+00;  1.5104256E-02;0; -8.7060640E-03;  4.0418797E+04;  0.0000000E+00;  3.9146296E-04;  4.0000000E+04;  0.0000000E+00;  3.9999180E+04; -9.4311005E-03;  0.0000000E+00;  7.2503614E-04;  5.7433075E+02;
  7.1062662E-02;  9.9999998E-03; -7.0031554E-02;2896; -2.5902875E-03;  0.0000000E+00; -2.0205660E-05;  1.0049388E+03;  1.0000000E-01;  4.0917361E+03;3; -3.3517887E+01;  0.0000000E+00; -4.1597248E-03;0; -8.6462721E-03;  4.0418449E+04;  0.0000000E+00;  2.7602997E-03;  4.0000000E+04;  0.0000000E+00;  3.9997754E+04; -9.2850951E-03;  0.0000000E+00;  6.3882291E-04;  7.4336761E+02;
  7.1064085E-02;  9.9999998E-03; -6.0022745E-02;2897; -2.6203396E-03;  0.0000000E+00; -2.7496859E-05;  1.0049347E+03;  1.0000000E-01;  4.0882795E+03;3; -3.3575878E+01;  0.0000000E+00; -1.8886825E-02;0; -8.5955001E-03;  4.0418309E+04;  0.0000000E+00;  3.6109609E-03;  4.0000000E+04;  0.0000000E+00;  3.9997285E+04; -9.1503533E-03;  0.0000000E+00;  5.5485289E-04;  8.0043719E+02;
  7.1064197E-02;  9.9999998E-03; -5.0015464E-02;2898; -2.6615025E-03;  0.0000000E+00; -4.0295621E-05;  1.0049430E+03;  1.0000000E-01;  4.0951929E+03;3; -3.3521175E+01;  0.0000000E+00; -2.8326049E-02;0; -8.5392660E-03;  4.0418469E+04;  0.0000000E+00;  3.4362627E-03;  4.0000000E+04;  0.0000000E+00;  3.9997648E+04; -9.0288753E-03;  0.0000000E+00;  4.8960920E-04;  7.4801184E+02;
  7.1063243E-02;  9.9999998E-03; -4.0010158E-02;2899; -2.7075380E-03;  0.0000000E+00; -5.2719079E-05;  1.0049641E+03;  1.0000000E-01;  4.1125752E+03;3; -3.3390167E+01;  0.0000000E+00; -3.3179082E-02;0; -8.4729912E-03;  4.0418844E+04;  0.0000000E+00;  2.6859904E-03;  4.0000000E+04;  0.0000000E+00;  3.9998238E+04; -8.9233704E-03;  0.0000000E+00;  4.5037936E-04;  6.1348047E+02;
  7.1061671E-02;  9.9999998E-03; -3.0006493E-02;2900; -2.7519150E-03;  0.0000000E+00; -5.7051995E-05;  1.0049864E+03;  1.0000000E-01;  4.1311426E+03;3; -3.3215237E+01;  0.0000000E+00; -3.1693101E-02;0; -8.4014563E-03;  4.0419273E+04;  0.0000000E+00;  1.7247864E-03;  4.0000000E+04;  0.0000000E+00;  4.0000180E+04; -8.8369213E-03;  0.0000000E+00;  4.3546536E-04;  4.3944778E+02;
  7.1060047E-02;  9.9999998E-03; -2.0003911E-02;2901; -2.7886759E-03;  0.0000000E+00; -4.9388862E-05;  1.0050099E+03;  1.0000000E-01;  4.1505986E+03;3; -3.3052612E+01;  0.0000000E+00; -2.5200114E-02;0; -8.3358148E-03;  4.0419676E+04;  0.0000000E+00;  8.3469407E-04;  4.0000000E+04;  0.0000000E+00;  4.0001535E+04; -8.7725427E-03;  0.0000000E+00;  4.3672821E-04;  2.7273279E+02;
  7.1058847E-02;  9.9999998E-03; -1.0001861E-02;2902; -2.8132445E-03;  0.0000000E+00; -2.9340217E-05;  1.0050267E+03;  1.0000000E-01;  4.1645244E+03;3; -3.2938595E+01;  0.0000000E+00; -1.4068916E-02;0; -8.2892710E-03;  4.0419984E+04;  0.0000000E+00;  2.1885283E-04;  4.0000000E+04;  0.0000000E+00;  4.0002609E+04; -8.7327752E-03;  0.0000000E+00;  4.4350454E-04;  1.5427611E+02;
  7.1058393E-02;  9.9999998E-03; -5.6402733E-11;2903; -2.8223849E-03;  0.0000000E+00; -1.3920571E-09;  1.0050331E+03;  1.0000000E-01;  4.1698574E+03;3; -3.2899158E+01;  0.0000000E+00;  1.3269930E-05;0; -8.2723973E-03;  4.0420020E+04;  0.0000000E+00; -2.9048086E-13;  4.0000000E+04;  0.0000000E+00;  4.0002953E+04; -8.7193158E-03;  0.0000000E+00;  4.4691842E-04;  1.1155934E+02;
  7.1058847E-02;  9.9999998E-03;  1.0001861E-02;2904; -2.8132421E-03;  0.0000000E+00;  2.9336928E-05;  1.0050267E+03;  1.0000000E-01;  4.1645244E+03;3; -3.2938549E+01;  0.0000000E+00;  1.4086033E-02;0; -8.2892766E-03;  4.0419988E+04;  0.0000000E+00;  2.1895909E-04;  4.0000000E+04;  0.0000000E+00;  4.0002609E+04; -8.7327855E-03;  0.0000000E+00;  4.4350882E-04;  1.5427103E+02;
  7.1060047E-02;  9.9999998E-03;  2.0003911E-02;2905; -2.7886759E-03;  0.0000000E+00;  4.9385893E-05;  1.0050099E+03;  1.0000000E-01;  4.1505986E+03;3; -3.3052578E+01;  0.0000000E+00;  2.5210129E-02;0; -8.3358251E-03;  4.0419680E+04;  0.0000000E+00;  8.3485973E-04;  4.0000000E+04;  0.0000000E+00;  4.0001539E+04; -8.7725613E-03;  0.0000000E+00;  4.3673645E-04;  2.7272095E+02;
  7.1061663E-02;  9.9999998E-03;  3.0006493E-02;2906; -2.7519141E-03;  0.0000000E+00;  5.7048645E-05;  1.0049865E+03;  1.0000000E-01;  4.1311426E+03;3; -3.3215206E+01;  0.0000000E+00;  3.1689242E-02;0; -8.4014731E-03;  4.0419273E+04;  0.0000000E+00;  1.7251035E-03;  4.0000000E+04;  0.0000000E+00;  4.0000180E+04; -8.8369502E-03;  0.0000000E+00;  4.3547698E-04;  4.3944077E+02;
  7.1063243E-02;  9.9999998E-03;  4.0010158E-02;2907; -2.7075384E-03;  0.0000000E+00;  5.2716034E-05;  1.0049640E+03;  1.0000000E-01;  4.1125752E+03;3; -3.3390118E+01;  0.0000000E+00;  3.3203457E-02;0; -8.4730051E-03;  4.0418844E+04;  0.0000000E+00;  2.6865695E-03;  4.0000000E+04;  0.0000000E+00;  3.9998238E+04; -8.9233965E-03;  0.0000000E+00;  4.5039179E-04;  6.1346399E+02;
  7.1064197E-02;  9.9999998E-03;  5.0015464E-02;2908; -2.6615034E-03;  0.0000000E+00;  4.0295716E-05;  1.0049430E+03;  1.0000000E-01;  4.0951929E+03;3; -3.3521145E+01;  0.0000000E+00;  2.8332489E-02;0; -8.5392827E-03;  4.0418473E+04;  0.0000000E+00;  3.4363526E-03;  4.0000000E+04;  0.0000000E+00;  3.9997648E+04; -9.0289041E-03;  0.0000000E+00;  4.8962113E-04;  7.4800696E+02;
  7.1064085E-02;  9.9999998E-03;  6.0022745E-02;2909; -2.6203385E-03;  0.0000000E+00;  2.7496648E-05;  1.0049348E+03;  1.0000000E-01;  4.0883782E+03;3; -3.3576038E+01;  0.0000000E+00;  1.8859388E-02;0; -8.5955216E-03;  4.0418309E+04;  0.0000000E+00;  3.6107390E-03;  4.0000000E+04;  0.0000000E+00;  3.9997285E+04; -9.1503859E-03;  0.0000000E+00;  5.5486441E-04;  8.0042090E+02;
  8.0952495E-02;  9.9999998E-03; -1.0006355E-01;2954; -2.4824408E-03;  0.0000000E+00; -1.2995234E-04;  1.0050544E+03;  1.0000000E-01;  4.1875356E+03;3; -2.2080219E+01;  0.0000000E+00;  2.8016103E-02;0; -6.0448255E-03;  4.0421227E+04;  0.0000000E+00; -3.7148939E-03;  4.0000000E+04;  0.0000000E+00;  4.0006227E+04; -6.8979701E-03;  0.0000000E+00;  8.5314462E-04;  2.8756317E+02;
  8.0953151E-02;  9.9999998E-03; -9.0057373E-02;2955; -2.4304299E-03;  0.0000000E+00; -4.1293206E-05;  1.0050120E+03;  1.0000000E-01;  4.1523765E+03;3; -2.2271700E+01;  0.0000000E+00;  2.1136895E-02;0; -5.9675267E-03;  4.0420141E+04;  0.0000000E+00;  8.9467067E-04;  4.0000000E+04;  0.0000000E+00;  4.0003582E+04; -6.7881588E-03;  0.0000000E+00;  8.2063221E-04;  2.5921877E+01;
  8.0954939E-02;  9.9999998E-03; -8.0047116E-02;2956; -2.4116226E-03;  0.0000000E+00; -5.9302342E-06;  1.0049869E+03;  1.0000000E-01;  4.1315376E+03;3; -2.2456169E+01;  0.0000000E+00;  8.2980068E-03;0; -5.9377300E-03;  4.0420043E+04;  0.0000000E+00;  3.9806268E-03;  4.0000000E+04;  0.0000000E+00;  4.0001285E+04; -6.6753617E-03;  0.0000000E+00;  7.3763158E-04;  3.0448691E+02;
  8.0956973E-02;  9.9999998E-03; -7.0034839E-02;2957; -2.4197195E-03;  0.0000000E+00; -7.5087601E-06;  1.0049811E+03;  1.0000000E-01;  4.1266982E+03;3; -2.2586498E+01;  0.0000000E+00; -4.6047899E-03;0; -5.9268307E-03;  4.0420637E+04;  0.0000000E+00;  5.4102647E-03;  4.0000000E+04;  0.0000000E+00;  3.9999355E+04; -6.5578111E-03;  0.0000000E+00;  6.3098059E-04;  4.8743011E+02;
  8.0958307E-02;  9.9999998E-03; -6.0023069E-02;2958; -2.4470903E-03;  0.0000000E+00; -2.9788314E-05;  1.0049900E+03;  1.0000000E-01;  4.1341055E+03;3; -2.2632280E+01;  0.0000000E+00; -1.6511584E-02;0; -5.9106597E-03;  4.0421773E+04;  0.0000000E+00;  5.4846667E-03;  4.0000000E+04;  0.0000000E+00;  3.9999246E+04; -6.4369664E-03;  0.0000000E+00;  5.2630674E-04;  5.4547913E+02;
  8.0958769E-02;  9.9999998E-03; -5.0014000E-02;2959; -2.4868238E-03;  0.0000000E+00; -6.1100072E-05;  1.0050167E+03;  1.0000000E-01;  4.1562280E+03;3; -2.2601658E+01;  0.0000000E+00; -2.9391520E-02;0; -5.8749062E-03;  4.0423191E+04;  0.0000000E+00;  4.6770400E-03;  4.0000000E+04;  0.0000000E+00;  3.9999809E+04; -6.3170707E-03;  0.0000000E+00;  4.4216434E-04;  4.8315237E+02;
  8.0958448E-02;  9.9999998E-03; -4.0008117E-02;2960; -2.5302502E-03;  0.0000000E+00; -8.1267579E-05;  1.0050532E+03;  1.0000000E-01;  4.1864497E+03;3; -2.2507944E+01;  0.0000000E+00; -3.4337766E-02;0; -5.8172108E-03;  4.0424840E+04;  0.0000000E+00;  3.4444530E-03;  4.0000000E+04;  0.0000000E+00;  4.0001293E+04; -6.2043276E-03;  0.0000000E+00;  3.8711663E-04;  3.3200092E+02;
  8.0957614E-02;  9.9999998E-03; -3.0004907E-02;2961; -2.5735407E-03;  0.0000000E+00; -8.6640692E-05;  1.0050909E+03;  1.0000000E-01;  4.2176587E+03;3; -2.2385012E+01;  0.0000000E+00; -3.1882077E-02;0; -5.7460982E-03;  4.0426160E+04;  0.0000000E+00;  2.1391360E-03;  4.0000000E+04;  0.0000000E+00;  4.0002367E+04; -6.1061746E-03;  0.0000000E+00;  3.6007626E-04;  1.3941116E+02;
  8.0956593E-02;  9.9999998E-03; -2.0003179E-02;2962; -2.6109642E-03;  0.0000000E+00; -7.5216427E-05;  1.0051210E+03;  1.0000000E-01;  4.2426455E+03;3; -2.2266483E+01;  0.0000000E+00; -2.4244923E-02;0; -5.6767981E-03;  4.0427242E+04;  0.0000000E+00;  1.0175498E-03;  4.0000000E+04;  0.0000000E+00;  4.0004035E+04; -6.0298499E-03;  0.0000000E+00;  3.5305196E-04;  4.3672775E+01;
  8.0955878E-02;  9.9999998E-03; -1.0001764E-02;2963; -2.6361162E-03;  0.0000000E+00; -4.7937210E-05;  1.0051448E+03;  1.0000000E-01;  4.2623979E+03;3; -2.2186899E+01;  0.0000000E+00; -1.4052705E-02;0; -5.6261495E-03;  4.0427957E+04;  0.0000000E+00;  2.6478377E-04;  4.0000000E+04;  0.0000000E+00;  4.0004980E+04; -5.9813224E-03;  0.0000000E+00;  3.5517276E-04;  1.7309489E+02;
  8.0955610E-02;  9.9999998E-03; -2.4400631E-11;2964; -2.6452984E-03;  0.0000000E+00; -2.0753319E-09;  1.0051534E+03;  1.0000000E-01;  4.2695088E+03;3; -2.2159107E+01;  0.0000000E+00;  2.1901573E-05;0; -5.6075943E-03;  4.0428180E+04;  0.0000000E+00;  7.5914378E-13;  4.0000000E+04;  0.0000000E+00;  4.0005656E+04; -5.9647080E-03;  0.0000000E+00;  3.5711378E-04;  2.1962325E+02;
  8.0955878E-02;  9.9999998E-03;  1.0001764E-02;2965; -2.6361186E-03;  0.0000000E+00;  4.7934231E-05;  1.0051448E+03;  1.0000000E-01;  4.2623979E+03;3; -2.2186926E+01;  0.0000000E+00;  1.4059327E-02;0; -5.6261662E-03;  4.0427957E+04;  0.0000000E+00;  2.6496657E-04;  4.0000000E+04;  0.0000000E+00;  4.0004980E+04; -5.9813433E-03;  0.0000000E+00;  3.5517701E-04;  1.7310152E+02;
  8.0956593E-02;  9.9999998E-03;  2.0003179E-02;2966; -2.6109659E-03;  0.0000000E+00;  7.5213946E-05;  1.0051210E+03;  1.0000000E-01;  4.2426455E+03;3; -2.2266436E+01;  0.0000000E+00;  2.4267454E-02;0; -5.6767967E-03;  4.0427242E+04;  0.0000000E+00;  1.0178400E-03;  4.0000000E+04;  0.0000000E+00;  4.0004035E+04; -6.0298564E-03;  0.0000000E+00;  3.5305988E-04;  4.3680779E+01;
  8.0957614E-02;  9.9999998E-03;  3.0004907E-02;2967; -2.5735425E-03;  0.0000000E+00;  8.6638516E-05;  1.0050909E+03;  1.0000000E-01;  4.2176587E+03;3; -2.2385002E+01;  0.0000000E+00;  3.1907134E-02;0; -5.7461089E-03;  4.0426160E+04;  0.0000000E+00;  2.1394950E-03;  4.0000000E+04;  0.0000000E+00;  4.0002367E+04; -6.1061955E-03;  0.0000000E+00;  3.6008671E-04;  1.3940527E+02;
  8.0958448E-02;  9.9999998E-03;  4.0008117E-02;2968; -2.5302519E-03;  0.0000000E+00;  8.1266830E-05;  1.0050533E+03;  1.0000000E-01;  4.1865483E+03;3; -2.2508045E+01;  0.0000000E+00;  3.4329522E-02;0; -5.8172285E-03;  4.0424844E+04;  0.0000000E+00;  3.4447019E-03;  4.0000000E+04;  0.0000000E+00;  4.0001293E+04; -6.2043574E-03;  0.0000000E+00;  3.8712885E-04;  3.3199136E+02;
  8.0958769E-02;  9.9999998E-03;  5.0014000E-02;2969; -2.4868276E-03;  0.0000000E+00;  6.1111787E-05;  1.0050166E+03;  1.0000000E-01;  4.1561294E+03;3; -2.2601633E+01;  0.0000000E+00;  2.9412804E-02;0; -5.8749202E-03;  4.0423184E+04;  0.0000000E+00;  4.6779802E-03;  4.0000000E+04;  0.0000000E+00;  3.9999809E+04; -6.3170958E-03;  0.0000000E+00;  4.4217569E-04;  4.8313464E+02;
  8.0958307E-02;  9.9999998E-03;  6.0023069E-02;2970; -2.4470948E-03;  0.0000000E+00;  2.9795239E-05;  1.0049899E+03;  1.0000000E-01;  4.1341055E+03;3; -2.2632103E+01;  0.0000000E+00;  1.6547689E-02;0; -5.9106871E-03;  4.0421777E+04;  0.0000000E+00;  5.4857004E-03;  4.0000000E+04;  0.0000000E+00;  3.9999246E+04; -6.4370031E-03;  0.0000000E+00;  5.2631594E-04;  5.4547522E+02;
  9.0932757E-02;  9.9999998E-03; -1.0006669E-01;3015; -2.1024591E-03;  0.0000000E+00; -6.4855245E-05;  1.0045101E+03;  1.0000000E-01;  3.7364868E+03;3; -1.2998563E+01;  0.0000000E+00;  2.4948664E-02;0; -3.7519354E-03;  4.0373711E+04;  0.0000000E+00; -3.1230622E-03;  4.0000000E+04;  0.0000000E+00;  4.0008945E+04; -4.6148156E-03;  0.0000000E+00;  8.6288014E-04;  6.7685107E+02;
  9.0937600E-02;  9.9999998E-03; -9.0057112E-02;3016; -2.0436805E-03;  0.0000000E+00;  2.9550758E-05;  1.0044768E+03;  1.0000000E-01;  3.7089321E+03;3; -1.3116152E+01;  0.0000000E+00;  3.7574772E-02;0; -3.7554158E-03;  4.0373441E+04;  0.0000000E+00; -3.3358877E-04;  4.0000000E+04;  0.0000000E+00;  4.0005871E+04; -4.5725582E-03;  0.0000000E+00;  8.1714231E-04;  3.4400940E+02;
  9.0942644E-02;  9.9999998E-03; -8.0042765E-02;3017; -2.0196312E-03;  0.0000000E+00;  5.0775070E-05;  1.0044632E+03;  1.0000000E-01;  3.6976731E+03;3; -1.3234240E+01;  0.0000000E+00;  3.1609558E-02;0; -3.7944315E-03;  4.0374383E+04;  0.0000000E+00;  1.8712523E-03;  4.0000000E+04;  0.0000000E+00;  4.0003594E+04; -4.5124157E-03;  0.0000000E+00;  7.1798434E-04;  5.0479469E+01;
  9.0947092E-02;  9.9999998E-03; -7.0026547E-02;3018; -2.0217460E-03;  0.0000000E+00;  2.8914945E-05;  1.0044695E+03;  1.0000000E-01;  3.7029077E+03;3; -1.3316332E+01;  0.0000000E+00;  1.6776929E-02;0; -3.8368462E-03;  4.0376453E+04;  0.0000000E+00;  3.0438455E-03;  4.0000000E+04;  0.0000000E+00;  4.0002262E+04; -4.4306293E-03;  0.0000000E+00;  5.9378304E-04;  1.3868196E+02;
  9.0950452E-02;  9.9999998E-03; -6.0011797E-02;3019; -2.0433192E-03;  0.0000000E+00; -2.1182821E-05;  1.0044999E+03;  1.0000000E-01;  3.7280920E+03;3; -1.3350415E+01;  0.0000000E+00; -3.9563719E-03;0; -3.8576743E-03;  4.0379059E+04;  0.0000000E+00;  3.2749283E-03;  4.0000000E+04;  0.0000000E+00;  4.0001988E+04; -4.3292157E-03;  0.0000000E+00;  4.7154148E-04;  1.9287314E+02;
  9.0952501E-02;  9.9999998E-03; -5.0001811E-02;3020; -2.0783974E-03;  0.0000000E+00; -7.6781027E-05;  1.0045478E+03;  1.0000000E-01;  3.7677947E+03;3; -1.3330565E+01;  0.0000000E+00; -1.7053748E-02;0; -3.8440914E-03;  4.0382008E+04;  0.0000000E+00;  2.8733495E-03;  4.0000000E+04;  0.0000000E+00;  4.0002359E+04; -4.2150952E-03;  0.0000000E+00;  3.7100367E-04;  1.1904450E+02;
  9.0953402E-02;  9.9999998E-03; -3.9997518E-02;3021; -2.1181514E-03;  0.0000000E+00; -1.1772581E-04;  1.0046027E+03;  1.0000000E-01;  3.8132256E+03;3; -1.3269448E+01;  0.0000000E+00; -2.7378676E-02;0; -3.7966403E-03;  4.0384676E+04;  0.0000000E+00;  2.1577261E-03;  4.0000000E+04;  0.0000000E+00;  4.0003715E+04; -4.0982757E-03;  0.0000000E+00;  3.0163533E-04;  4.7853073E+01;
  9.0953477E-02;  9.9999998E-03; -2.9997326E-02;3022; -2.1554483E-03;  0.0000000E+00; -1.3404309E-04;  1.0046566E+03;  1.0000000E-01;  3.8579648E+03;3; -1.3190517E+01;  0.0000000E+00; -3.0493725E-02;0; -3.7275145E-03;  4.0387406E+04;  0.0000000E+00;  1.3654438E-03;  4.0000000E+04;  0.0000000E+00;  4.0005746E+04; -3.9904858E-03;  0.0000000E+00;  2.6297121E-04;  2.5632077E+02;
  9.0953164E-02;  9.9999998E-03; -1.9998722E-02;3023; -2.1863924E-03;  0.0000000E+00; -1.2485444E-04;  1.0046979E+03;  1.0000000E-01;  3.8921367E+03;3; -1.3109671E+01;  0.0000000E+00; -2.6908772E-02;0; -3.6559496E-03;  4.0389168E+04;  0.0000000E+00;  6.6091574E-04;  4.0000000E+04;  0.0000000E+00;  4.0007488E+04; -3.9034237E-03;  0.0000000E+00;  2.4747412E-04;  4.5275189E+02;
  9.0952925E-02;  9.9999998E-03; -9.9999197E-03;3024; -2.2071609E-03;  0.0000000E+00; -8.3879262E-05;  1.0047280E+03;  1.0000000E-01;  3.9170249E+03;3; -1.3051886E+01;  0.0000000E+00; -1.8970916E-02;0; -3.6023671E-03;  4.0390266E+04;  0.0000000E+00;  1.7414594E-04;  4.0000000E+04;  0.0000000E+00;  4.0007824E+04; -3.8468551E-03;  0.0000000E+00;  2.4448795E-04;  5.9099414E+02;
  9.0952918E-02;  9.9999998E-03;  9.2001406E-11;3025; -2.2141456E-03;  0.0000000E+00; -1.9993207E-09;  1.0047397E+03;  1.0000000E-01;  3.9268025E+03;3; -1.3030700E+01;  0.0000000E+00;  9.0634658E-06;0; -3.5824880E-03;  4.0390805E+04;  0.0000000E+00;  1.5613159E-13;  4.0000000E+04;  0.0000000E+00;  4.0008254E+04; -3.8272087E-03;  0.0000000E+00;  2.4472058E-04;  6.4058203E+02;
  9.0952925E-02;  9.9999998E-03;  9.9999197E-03;3026; -2.2071607E-03;  0.0000000E+00;  8.3876475E-05;  1.0047280E+03;  1.0000000E-01;  3.9170249E+03;3; -1.3051869E+01;  0.0000000E+00;  1.8992139E-02;0; -3.6023690E-03;  4.0390266E+04;  0.0000000E+00;  1.7434331E-04;  4.0000000E+04;  0.0000000E+00;  4.0007824E+04; -3.8468614E-03;  0.0000000E+00;  2.4449237E-04;  5.9099841E+02;
  9.0953164E-02;  9.9999998E-03;  1.9998722E-02;3027; -2.1863955E-03;  0.0000000E+00;  1.2485293E-04;  1.0046979E+03;  1.0000000E-01;  3.8921367E+03;3; -1.3109550E+01;  0.0000000E+00;  2.6916679E-02;0; -3.6559564E-03;  4.0389176E+04;  0.0000000E+00;  6.6132209E-04;  4.0000000E+04;  0.0000000E+00;  4.0007488E+04; -3.9034388E-03;  0.0000000E+00;  2.4748239E-04;  4.5276218E+02;
  9.0953477E-02;  9.9999998E-03;  2.9997326E-02;3028; -2.1554509E-03;  0.0000000E+00;  1.3404379E-04;  1.0046566E+03;  1.0000000E-01;  3.8579648E+03;3; -1.3190485E+01;  0.0000000E+00;  3.0516140E-02;0; -3.7275150E-03;  4.0387402E+04;  0.0000000E+00;  1.3660156E-03;  4.0000000E+04;  0.0000000E+00;  4.0005746E+04; -3.9904970E-03;  0.0000000E+00;  2.6298204E-04;  2.5633011E+02;
  9.0953402E-02;  9.9999998E-03;  3.9997518E-02;3029; -2.1181537E-03;  0.0000000E+00;  1.1773242E-04;  1.0046027E+03;  1.0000000E-01;  3.8132256E+03;3; -1.3269420E+01;  0.0000000E+00;  2.7390152E-02;0; -3.7966520E-03;  4.0384668E+04;  0.0000000E+00;  2.1589180E-03;  4.0000000E+04;  0.0000000E+00;  4.0003715E+04; -4.0982980E-03;  0.0000000E+00;  3.0164601E-04;  4.7865913E+01;
  9.0952493E-02;  9.9999998E-03;  5.0001811E-02;3030; -2.0784005E-03;  0.0000000E+00;  7.6788026E-05;  1.0045479E+03;  1.0000000E-01;  3.7677947E+03;3; -1.3330544E+01;  0.0000000E+00;  1.7089115E-02;0; -3.8441056E-03;  4.0382004E+04;  0.0000000E+00;  2.8733716E-03;  4.0000000E+04;  0.0000000E+00;  4.0002359E+04; -4.2151194E-03;  0.0000000E+00;  3.7101388E-04;  1.1903915E+02;
  9.0950452E-02;  9.9999998E-03;  6.0011797E-02;3031; -2.0433234E-03;  0.0000000E+00;  2.1191208E-05;  1.0044999E+03;  1.0000000E-01;  3.7280920E+03;3; -1.3350408E+01;  0.0000000E+00;  3.9797979E-03;0; -3.8576978E-03;  4.0379059E+04;  0.0000000E+00;  3.2760294E-03;  4.0000000E+04;  0.0000000E+00;  4.0001988E+04; -4.3292469E-03;  0.0000000E+00;  4.7154902E-04;  1.9287369E+02;
  1.0096294E-01;  9.9999998E-03; -1.0005237E-01;3076; -1.6552644E-03;  0.0000000E+00;  6.3972933E-05;  1.0036359E+03;  1.0000000E-01;  3.0122605E+03;3; -6.5913510E+00;  0.0000000E+00;  6.9676526E-02;0; -2.3593062E-03;  4.0298309E+04;  0.0000000E+00; -1.0962874E-02;  4.0000000E+04;  0.0000000E+00;  4.0011340E+04; -3.1959945E-03;  0.0000000E+00;  8.3668827E-04;  1.0942131E+03;
  1.0097802E-01;  9.9999998E-03; -9.0035729E-02;3077; -1.6023436E-03;  0.0000000E+00;  1.0804634E-04;  1.0036169E+03;  1.0000000E-01;  2.9965571E+03;3; -6.6589026E+00;  0.0000000E+00;  6.5683156E-02;0; -2.4531037E-03;  4.0299109E+04;  0.0000000E+00; -9.3368487E-03;  4.0000000E+04;  0.0000000E+00;  4.0008496E+04; -3.2318383E-03;  0.0000000E+00;  7.7873468E-04;  7.5214807E+02;
  1.0099364E-01;  9.9999998E-03; -8.0012262E-02;3078; -1.5765519E-03;  0.0000000E+00;  1.0760312E-04;  1.0036204E+03;  1.0000000E-01;  2.9994214E+03;3; -6.7190480E+00;  0.0000000E+00;  5.7007160E-02;0; -2.5644926E-03;  4.0301484E+04;  0.0000000E+00; -7.0277411E-03;  4.0000000E+04;  0.0000000E+00;  4.0006297E+04; -3.2317406E-03;  0.0000000E+00;  6.6724792E-04;  4.5138550E+02;
  1.0100850E-01;  9.9999998E-03; -6.9986954E-02;3079; -1.5712999E-03;  0.0000000E+00;  8.1313941E-05;  1.0036495E+03;  1.0000000E-01;  3.0235195E+03;3; -6.7569494E+00;  0.0000000E+00;  4.5645699E-02;0; -2.6606082E-03;  4.0305082E+04;  0.0000000E+00; -4.8682275E-03;  4.0000000E+04;  0.0000000E+00;  4.0005086E+04; -3.1909575E-03;  0.0000000E+00;  5.3034938E-04;  2.6071280E+02;
  1.0102024E-01;  9.9999998E-03; -5.9970360E-02;3080; -1.5818119E-03;  0.0000000E+00;  3.7318823E-05;  1.0037000E+03;  1.0000000E-01;  3.0652961E+03;3; -6.7641082E+00;  0.0000000E+00;  3.8107317E-02;0; -2.7178293E-03;  4.0309395E+04;  0.0000000E+00; -3.1387010E-03;  4.0000000E+04;  0.0000000E+00;  4.0004629E+04; -3.1129618E-03;  0.0000000E+00;  3.9513249E-04;  2.1043654E+02;
  1.0102879E-01;  9.9999998E-03; -4.9966119E-02;3081; -1.6031620E-03;  0.0000000E+00; -1.6529424E-05;  1.0037668E+03;  1.0000000E-01;  3.1208005E+03;3; -6.7378550E+00;  0.0000000E+00;  3.3230435E-02;0; -2.7260096E-03;  4.0313977E+04;  0.0000000E+00; -1.8638168E-03;  4.0000000E+04;  0.0000000E+00;  4.0005422E+04; -3.0077042E-03;  0.0000000E+00;  2.8169446E-04;  2.9208829E+02;
  1.0103487E-01;  9.9999998E-03; -3.9969508E-02;3082; -1.6282968E-03;  0.0000000E+00; -5.7275276E-05;  1.0038365E+03;  1.0000000E-01;  3.1784780E+03;3; -6.6863980E+00;  0.0000000E+00;  2.7023887E-02;0; -2.6892608E-03;  4.0317770E+04;  0.0000000E+00; -9.8810939E-04;  4.0000000E+04;  0.0000000E+00;  4.0006633E+04; -2.8892937E-03;  0.0000000E+00;  2.0003287E-04;  4.6845303E+02;
  1.0103887E-01;  9.9999998E-03; -2.9976642E-02;3083; -1.6510169E-03;  0.0000000E+00; -7.9156780E-05;  1.0039041E+03;  1.0000000E-01;  3.2344763E+03;3; -6.6284895E+00;  0.0000000E+00;  2.0110538E-02;0; -2.6234239E-03;  4.0321352E+04;  0.0000000E+00; -4.4169184E-04;  4.0000000E+04;  0.0000000E+00;  4.0008586E+04; -2.7739489E-03;  0.0000000E+00;  1.5052495E-04;  6.8668604E+02;
  1.0104143E-01;  9.9999998E-03; -1.9985080E-02;3084; -1.6681622E-03;  0.0000000E+00; -7.9276440E-05;  1.0039578E+03;  1.0000000E-01;  3.2789197E+03;3; -6.5719261E+00;  0.0000000E+00;  1.4878320E-02;0; -2.5512173E-03;  4.0323863E+04;  0.0000000E+00; -1.5091347E-04;  4.0000000E+04;  0.0000000E+00;  4.0009988E+04; -2.6776923E-03;  0.0000000E+00;  1.2647490E-04;  8.9116461E+02;
  1.0104304E-01;  9.9999998E-03; -9.9933986E-03;3085; -1.6776245E-03;  0.0000000E+00; -5.2097221E-05;  1.0039932E+03;  1.0000000E-01;  3.3083508E+03;3; -6.5276484E+00;  0.0000000E+00;  1.1499653E-02;0; -2.4959224E-03;  4.0325512E+04;  0.0000000E+00; -2.9717405E-05;  4.0000000E+04;  0.0000000E+00;  4.0011031E+04; -2.6138809E-03;  0.0000000E+00;  1.1795847E-04;  1.0346178E+03;
  1.0104351E-01;  9.9999998E-03;  3.2976374E-10;3086; -1.6804367E-03;  0.0000000E+00; -2.6487359E-09;  1.0040048E+03;  1.0000000E-01;  3.3178320E+03;3; -6.5118957E+00;  0.0000000E+00;  2.8006827E-05;0; -2.4752603E-03;  4.0326066E+04;  0.0000000E+00;  1.5501672E-12;  4.0000000E+04;  0.0000000E+00;  4.0011445E+04; -2.5915378E-03;  0.0000000E+00;  1.1627746E-04;  1.0859691E+03;
  1.0104304E-01;  9.9999998E-03;  9.9933995E-03;3087; -1.6776263E-03;  0.0000000E+00;  5.2094929E-05;  1.0039932E+03;  1.0000000E-01;  3.3083508E+03;3; -6.5276566E+00;  0.0000000E+00; -1.1461798E-02;0; -2.4959233E-03;  4.0325512E+04;  0.0000000E+00; -2.9528645E-05;  4.0000000E+04;  0.0000000E+00;  4.0011031E+04; -2.6138858E-03;  0.0000000E+00;  1.1796253E-04;  1.0346173E+03;
  1.0104143E-01;  9.9999998E-03;  1.9985082E-02;3088; -1.6681651E-03;  0.0000000E+00;  7.9274258E-05;  1.0039578E+03;  1.0000000E-01;  3.2789197E+03;3; -6.5719252E+00;  0.0000000E+00; -1.4847672E-02;0; -2.5512225E-03;  4.0323867E+04;  0.0000000E+00; -1.5027980E-04;  4.0000000E+04;  0.0000000E+00;  4.0009988E+04; -2.6777054E-03;  0.0000000E+00;  1.2648293E-04;  8.9117157E+02;
  1.0103887E-01;  9.9999998E-03;  2.9976642E-02;3089; -1.6510200E-03;  0.0000000E+00;  7.9157537E-05;  1.0039041E+03;  1.0000000E-01;  3.2344763E+03;3; -6.6284800E+00;  0.0000000E+00; -2.0071410E-02;0; -2.6234295E-03;  4.0321352E+04;  0.0000000E+00; -4.4114349E-04;  4.0000000E+04;  0.0000000E+00;  4.0008586E+04; -2.7739634E-03;  0.0000000E+00;  1.5053389E-04;  6.8669427E+02;
  1.0103487E-01;  9.9999998E-03;  3.9969508E-02;3090; -1.6282984E-03;  0.0000000E+00;  5.7272686E-05;  1.0038365E+03;  1.0000000E-01;  3.1784780E+03;3; -6.6863809E+00;  0.0000000E+00; -2.7035447E-02;0; -2.6892698E-03;  4.0317766E+04;  0.0000000E+00; -9.8773546E-04;  4.0000000E+04;  0.0000000E+00;  4.0006637E+04; -2.8893119E-03;  0.0000000E+00;  2.0004196E-04;  4.6846964E+02;
  1.0102878E-01;  9.9999998E-03;  4.9966119E-02;3091; -1.6031651E-03;  0.0000000E+00;  1.6531501E-05;  1.0037668E+03;  1.0000000E-01;  3.1208005E+03;3; -6.7378359E+00;  0.0000000E+00; -3.3200897E-02;0; -2.7260238E-03;  4.0313980E+04;  0.0000000E+00; -1.8633771E-03;  4.0000000E+04;  0.0000000E+00;  4.0005422E+04; -3.0077263E-03;  0.0000000E+00;  2.8170244E-04;  2.9210083E+02;
  1.0102023E-01;  9.9999998E-03;  5.9970360E-02;3092; -1.5818175E-03;  0.0000000E+00; -3.7315644E-05;  1.0036998E+03;  1.0000000E-01;  3.0651973E+03;3; -6.7640591E+00;  0.0000000E+00; -3.8064051E-02;0; -2.7178538E-03;  4.0309395E+04;  0.0000000E+00; -3.1378639E-03;  4.0000000E+04;  0.0000000E+00;  4.0004629E+04; -3.1129909E-03;  0.0000000E+00;  3.9513721E-04;  2.1044702E+02;
  1.1128510E-01;  9.9999998E-03; -1.0000126E-01;3137; -1.3735604E-03;  0.0000000E+00;  1.1317289E-04;  1.0026464E+03;  1.0000000E-01;  2.1924319E+03;3; -2.6968372E+00;  0.0000000E+00;  7.6438069E-02;0; -2.0012502E-03;  4.0212684E+04;  0.0000000E+00; -2.6661254E-02;  4.0000000E+04;  0.0000000E+00;  4.0013773E+04; -2.7765334E-03;  0.0000000E+00;  7.7528326E-04;  1.4976770E+03;
  1.1140110E-01;  9.9999998E-03; -8.9978710E-02;3138; -1.3343653E-03;  0.0000000E+00;  1.2863995E-04;  1.0026400E+03;  1.0000000E-01;  2.1871975E+03;3; -2.7030585E+00;  0.0000000E+00;  7.0691638E-02;0; -2.1917319E-03;  4.0214367E+04;  0.0000000E+00; -2.4874989E-02;  4.0000000E+04;  0.0000000E+00;  4.0011371E+04; -2.8993504E-03;  0.0000000E+00;  7.0761843E-04;  1.1533076E+03;
  1.1149301E-01;  9.9999998E-03; -7.9956748E-02;3139; -1.3135190E-03;  0.0000000E+00;  1.2010037E-04;  1.0026581E+03;  1.0000000E-01;  2.2022092E+03;3; -2.7115195E+00;  0.0000000E+00;  6.4193040E-02;0; -2.3789133E-03;  4.0217906E+04;  0.0000000E+00; -2.1007249E-02;  4.0000000E+04;  0.0000000E+00;  4.0008906E+04; -2.9671073E-03;  0.0000000E+00;  5.8819394E-04;  8.4895044E+02;
  1.1154269E-01;  9.9999998E-03; -6.9949195E-02;3140; -1.3063371E-03;  0.0000000E+00;  9.6617849E-05;  1.0027068E+03;  1.0000000E-01;  2.2425044E+03;3; -2.7171123E+00;  0.0000000E+00;  5.8851175E-02;0; -2.5294663E-03;  4.0223133E+04;  0.0000000E+00; -1.6409861E-02;  4.0000000E+04;  0.0000000E+00;  4.0007266E+04; -2.9736524E-03;  0.0000000E+00;  4.4418621E-04;  6.5523303E+02;
  1.1155690E-01;  9.9999998E-03; -5.9950322E-02;3141; -1.3082201E-03;  0.0000000E+00;  6.6051252E-05;  1.0027756E+03;  1.0000000E-01;  2.2994905E+03;3; -2.7118955E+00;  0.0000000E+00;  5.2334432E-02;0; -2.6223215E-03;  4.0229004E+04;  0.0000000E+00; -1.1924474E-02;  4.0000000E+04;  0.0000000E+00;  4.0006906E+04; -2.9236884E-03;  0.0000000E+00;  3.0136693E-04;  6.0254749E+02;
  1.1155445E-01;  9.9999998E-03; -4.9955793E-02;3142; -1.3144682E-03;  0.0000000E+00;  3.3862772E-05;  1.0028583E+03;  1.0000000E-01;  2.3680317E+03;3; -2.6930790E+00;  0.0000000E+00;  4.4205543E-02;0; -2.6515184E-03;  4.0234762E+04;  0.0000000E+00; -8.0247987E-03;  4.0000000E+04;  0.0000000E+00;  4.0007598E+04; -2.8306537E-03;  0.0000000E+00;  1.7913530E-04;  6.8331482E+02;
  1.1154871E-01;  9.9999998E-03; -3.9964151E-02;3143; -1.3228424E-03;  0.0000000E+00;  3.4643210E-06;  1.0029404E+03;  1.0000000E-01;  2.4360793E+03;3; -2.6618788E+00;  0.0000000E+00;  3.7725300E-02;0; -2.6256673E-03;  4.0239980E+04;  0.0000000E+00; -4.9181757E-03;  4.0000000E+04;  0.0000000E+00;  4.0008832E+04; -2.7135890E-03;  0.0000000E+00;  8.7921799E-05;  8.6059460E+02;
  1.1154253E-01;  9.9999998E-03; -2.9973727E-02;3144; -1.3314181E-03;  0.0000000E+00; -1.7891449E-05;  1.0030180E+03;  1.0000000E-01;  2.5003738E+03;3; -2.6256158E+00;  0.0000000E+00;  3.1922314E-02;0; -2.5644558E-03;  4.0244223E+04;  0.0000000E+00; -2.6373963E-03;  4.0000000E+04;  0.0000000E+00;  4.0010934E+04; -2.5935103E-03;  0.0000000E+00;  2.9054376E-05;  1.0808488E+03;
  1.1153729E-01;  9.9999998E-03; -1.9983439E-02;3145; -1.3380524E-03;  0.0000000E+00; -2.5000138E-05;  1.0030826E+03;  1.0000000E-01;  2.5539031E+03;3; -2.5937188E+00;  0.0000000E+00;  2.3344124E-02;0; -2.4935903E-03;  4.0247633E+04;  0.0000000E+00; -1.1209499E-03;  4.0000000E+04;  0.0000000E+00;  4.0012738E+04; -2.4905682E-03;  0.0000000E+00; -3.0221936E-06;  1.2874631E+03;
  1.1153381E-01;  9.9999998E-03; -9.9926479E-03;3146; -1.3418095E-03;  0.0000000E+00; -1.7437222E-05;  1.0031223E+03;  1.0000000E-01;  2.5866924E+03;3; -2.5720422E+00;  0.0000000E+00;  1.2471078E-02;0; -2.4384712E-03;  4.0249727E+04;  0.0000000E+00; -2.7115425E-04;  4.0000000E+04;  0.0000000E+00;  4.0013801E+04; -2.4214326E-03;  0.0000000E+00; -1.7038559E-05;  1.4324304E+03;
  1.1153258E-01;  9.9999998E-03; -1.5312464E-10;3147; -1.3430057E-03;  0.0000000E+00; -3.9646002E-09;  1.0031367E+03;  1.0000000E-01;  2.5987412E+03;3; -2.5646513E+00;  0.0000000E+00;  1.1130883E-05;0; -2.4177956E-03;  4.0250375E+04;  0.0000000E+00;  1.9805733E-12;  4.0000000E+04;  0.0000000E+00;  4.0014434E+04; -2.3971051E-03;  0.0000000E+00; -2.0690579E-05;  1.4843148E+03;
  1.1153381E-01;  9.9999998E-03;  9.9926479E-03;3148; -1.3418107E-03;  0.0000000E+00;  1.7433014E-05;  1.0031223E+03;  1.0000000E-01;  2.5866924E+03;3; -2.5720644E+00;  0.0000000E+00; -1.2460487E-02;0; -2.4384749E-03;  4.0249723E+04;  0.0000000E+00; -2.7084703E-04;  4.0000000E+04;  0.0000000E+00;  4.0013801E+04; -2.4214396E-03;  0.0000000E+00; -1.7035372E-05;  1.4324292E+03;
  1.1153729E-01;  9.9999998E-03;  1.9983439E-02;3149; -1.3380558E-03;  0.0000000E+00;  2.4995994E-05;  1.0030826E+03;  1.0000000E-01;  2.5539031E+03;3; -2.5937316E+00;  0.0000000E+00; -2.3329997E-02;0; -2.4935945E-03;  4.0247629E+04;  0.0000000E+00; -1.1206239E-03;  4.0000000E+04;  0.0000000E+00;  4.0012738E+04; -2.4905785E-03;  0.0000000E+00; -3.0161957E-06;  1.2874741E+03;
  1.1154253E-01;  9.9999998E-03;  2.9973727E-02;3150; -1.3314201E-03;  0.0000000E+00;  1.7884571E-05;  1.0030180E+03;  1.0000000E-01;  2.5003738E+03;3; -2.6256042E+00;  0.0000000E+00; -3.1905588E-02;0; -2.5644635E-03;  4.0244223E+04;  0.0000000E+00; -2.6369223E-03;  4.0000000E+04;  0.0000000E+00;  4.0010934E+04; -2.5935252E-03;  0.0000000E+00;  2.9061684E-05;  1.0808521E+03;
  1.1154871E-01;  9.9999998E-03;  3.9964151E-02;3151; -1.3228450E-03;  0.0000000E+00; -3.4682446E-06;  1.0029404E+03;  1.0000000E-01;  2.4360793E+03;3; -2.6618681E+00;  0.0000000E+00; -3.7744623E-02;0; -2.6256784E-03;  4.0239984E+04;  0.0000000E+00; -4.9170423E-03;  4.0000000E+04;  0.0000000E+00;  4.0008832E+04; -2.7136072E-03;  0.0000000E+00;  8.7928755E-05;  8.6061578E+02;
  1.1155445E-01;  9.9999998E-03;  4.9955793E-02;3152; -1.3144723E-03;  0.0000000E+00; -3.3865545E-05;  1.0028583E+03;  1.0000000E-01;  2.3680317E+03;3; -2.6930804E+00;  0.0000000E+00; -4.4238564E-02;0; -2.6515319E-03;  4.0234758E+04;  0.0000000E+00; -8.0238869E-03;  4.0000000E+04;  0.0000000E+00;  4.0007598E+04; -2.8306725E-03;  0.0000000E+00;  1.7914051E-04;  6.8333118E+02;
  1.1155690E-01;  9.9999998E-03;  5.9950318E-02;3153; -1.3082268E-03;  0.0000000E+00; -6.6057517E-05;  1.0027756E+03;  1.0000000E-01;  2.2995894E+03;3; -2.7119071E+00;  0.0000000E+00; -5.2391805E-02;0; -2.6223364E-03;  4.0229004E+04;  0.0000000E+00; -1.1922896E-02;  4.0000000E+04;  0.0000000E+00;  4.0006906E+04; -2.9237049E-03;  0.0000000E+00;  3.0136853E-04;  6.0255286E+02;
  1.2159210E-01;  9.9999998E-03; -9.9959545E-02;3198; -1.2919507E-03;  0.0000000E+00;  1.2352563E-04;  1.0017568E+03;  1.0000000E-01;  1.4554650E+03;3; -6.8068254E-01;  0.0000000E+00;  6.5543741E-02;0; -2.6195475E-03;  4.0135723E+04;  0.0000000E+00; -4.5793265E-02;  4.0000000E+04;  0.0000000E+00;  4.0015816E+04; -3.3089807E-03;  0.0000000E+00;  6.8943325E-04;  1.8344645E+03;
  1.2157412E-01;  9.9999998E-03; -8.9958459E-02;3199; -1.2617772E-03;  0.0000000E+00;  1.3364994E-04;  1.0017753E+03;  1.0000000E-01;  1.4707732E+03;3; -6.9257879E-01;  0.0000000E+00;  6.1088216E-02;0; -2.8870415E-03;  4.0139098E+04;  0.0000000E+00; -4.1754834E-02;  4.0000000E+04;  0.0000000E+00;  4.0012688E+04; -3.5053664E-03;  0.0000000E+00;  6.1832485E-04;  1.4904103E+03;
  1.2155326E-01;  9.9999998E-03; -7.9954661E-02;3200; -1.2446120E-03;  0.0000000E+00;  1.2605748E-04;  1.0018188E+03;  1.0000000E-01;  1.5068215E+03;3; -7.0188779E-01;  0.0000000E+00;  5.6791116E-02;0; -3.1290839E-03;  4.0144918E+04;  0.0000000E+00; -3.4736175E-02;  4.0000000E+04;  0.0000000E+00;  4.0011031E+04; -3.6269035E-03;  0.0000000E+00;  4.9781968E-04;  1.1807050E+03;
  1.2153449E-01;  9.9999998E-03; -6.9952130E-02;3201; -1.2363787E-03;  0.0000000E+00;  1.0418035E-04;  1.0018828E+03;  1.0000000E-01;  1.5598572E+03;3; -6.9872147E-01;  0.0000000E+00;  5.1477507E-02;0; -3.3172634E-03;  4.0151391E+04;  0.0000000E+00; -2.6796674E-02;  4.0000000E+04;  0.0000000E+00;  4.0009082E+04; -3.6701350E-03;  0.0000000E+00;  3.5287163E-04;  9.7792542E+02;
  1.2151935E-01;  9.9999998E-03; -5.9952583E-02;3202; -1.2331009E-03;  0.0000000E+00;  7.4052681E-05;  1.0019650E+03;  1.0000000E-01;  1.6280033E+03;3; -6.8970293E-01;  0.0000000E+00;  4.6445213E-02;0; -3.4344567E-03;  4.0158484E+04;  0.0000000E+00; -1.9272774E-02;  4.0000000E+04;  0.0000000E+00;  4.0008672E+04; -3.6424629E-03;  0.0000000E+00;  2.0800630E-04;  9.1516473E+02;
  1.2150780E-01;  9.9999998E-03; -4.9956042E-02;3203; -1.2321166E-03;  0.0000000E+00;  4.4170632E-05;  1.0020529E+03;  1.0000000E-01;  1.7007914E+03;3; -6.7336899E-01;  0.0000000E+00;  4.1612945E-02;0; -3.4780849E-03;  4.0164914E+04;  0.0000000E+00; -1.2887165E-02;  4.0000000E+04;  0.0000000E+00;  4.0009578E+04; -3.5601861E-03;  0.0000000E+00;  8.2101215E-05;  9.8652600E+02;
  1.2149938E-01;  9.9999998E-03; -3.9962109E-02;3204; -1.2320093E-03;  0.0000000E+00;  1.8163433E-05;  1.0021442E+03;  1.0000000E-01;  1.7764436E+03;3; -6.5254527E-01;  0.0000000E+00;  3.6890253E-02;0; -3.4597195E-03;  4.0170547E+04;  0.0000000E+00; -7.8928918E-03;  4.0000000E+04;  0.0000000E+00;  4.0010754E+04; -3.4454248E-03;  0.0000000E+00; -1.4294616E-05;  1.1559083E+03;
  1.2149322E-01;  9.9999998E-03; -2.9970303E-02;3205; -1.2316108E-03;  0.0000000E+00; -1.0135871E-06;  1.0022241E+03;  1.0000000E-01;  1.8426145E+03;3; -6.2974244E-01;  0.0000000E+00;  3.1699896E-02;0; -3.4017721E-03;  4.0175355E+04;  0.0000000E+00; -4.2580310E-03;  4.0000000E+04;  0.0000000E+00;  4.0012578E+04; -3.3226248E-03;  0.0000000E+00; -7.9147307E-05;  1.3699565E+03;
  1.2148849E-01;  9.9999998E-03; -1.9980123E-02;3206; -1.2311711E-03;  0.0000000E+00; -9.5841688E-06;  1.0022899E+03;  1.0000000E-01;  1.8971315E+03;3; -6.1011285E-01;  0.0000000E+00;  2.2518076E-02;0; -3.3320673E-03;  4.0178578E+04;  0.0000000E+00; -1.8288469E-03;  4.0000000E+04;  0.0000000E+00;  4.0014195E+04; -3.2151432E-03;  0.0000000E+00; -1.1692406E-04;  1.5719779E+03;
  1.2148561E-01;  9.9999998E-03; -9.9906195E-03;3207; -1.2308557E-03;  0.0000000E+00; -7.9332513E-06;  1.0023304E+03;  1.0000000E-01;  1.9307108E+03;3; -5.9627652E-01;  0.0000000E+00;  1.1953426E-02;0; -3.2773574E-03;  4.0180914E+04;  0.0000000E+00; -4.4676932E-04;  4.0000000E+04;  0.0000000E+00;  4.0015480E+04; -3.1422523E-03;  0.0000000E+00; -1.3510510E-04;  1.7139586E+03;
  1.2148464E-01;  9.9999998E-03; -2.2138065E-10;3208; -1.2307551E-03;  0.0000000E+00; -2.3436917E-09;  1.0023445E+03;  1.0000000E-01;  1.9423649E+03;3; -5.9129077E-01;  0.0000000E+00;  1.8161469E-06;0; -3.2567931E-03;  4.0181602E+04;  0.0000000E+00;  5.2056113E-13;  4.0000000E+04;  0.0000000E+00;  4.0015867E+04; -3.1164973E-03;  0.0000000E+00; -1.4029573E-04;  1.7647816E+03;
  1.2148561E-01;  9.9999998E-03;  9.9906186E-03;3209; -1.2308573E-03;  0.0000000E+00;  7.9288857E-06;  1.0023304E+03;  1.0000000E-01;  1.9307108E+03;3; -5.9626496E-01;  0.0000000E+00; -1.1892117E-02;0; -3.2773563E-03;  4.0180914E+04;  0.0000000E+00; -4.4658594E-04;  4.0000000E+04;  0.0000000E+00;  4.0015480E+04; -3.1422540E-03;  0.0000000E+00; -1.3510240E-04;  1.7139586E+03;
  1.2148849E-01;  9.9999998E-03;  1.9980123E-02;3210; -1.2311725E-03;  0.0000000E+00;  9.5802907E-06;  1.0022899E+03;  1.0000000E-01;  1.8971315E+03;3; -6.1012125E-01;  0.0000000E+00; -2.2484230E-02;0; -3.3320705E-03;  4.0178574E+04;  0.0000000E+00; -1.8282774E-03;  4.0000000E+04;  0.0000000E+00;  4.0014195E+04; -3.2151511E-03;  0.0000000E+00; -1.1691951E-04;  1.5719863E+03;
  1.2149322E-01;  9.9999998E-03;  2.9970303E-02;3211; -1.2316147E-03;  0.0000000E+00;  1.0091907E-06;  1.0022241E+03;  1.0000000E-01;  1.8426145E+03;3; -6.2976152E-01;  0.0000000E+00; -3.1680807E-02;0; -3.4017749E-03;  4.0175355E+04;  0.0000000E+00; -4.2573367E-03;  4.0000000E+04;  0.0000000E+00;  4.0012578E+04; -3.3226328E-03;  0.0000000E+00; -7.9142264E-05;  1.3699707E+03;
  1.2149938E-01;  9.9999998E-03;  3.9962109E-02;3212; -1.2320132E-03;  0.0000000E+00; -1.8166560E-05;  1.0021442E+03;  1.0000000E-01;  1.7764436E+03;3; -6.5255618E-01;  0.0000000E+00; -3.6879107E-02;0; -3.4597309E-03;  4.0170543E+04;  0.0000000E+00; -7.8919120E-03;  4.0000000E+04;  0.0000000E+00;  4.0010754E+04; -3.4454411E-03;  0.0000000E+00; -1.4289659E-05;  1.1559181E+03;
  1.2150780E-01;  9.9999998E-03;  4.9956042E-02;3213; -1.2321224E-03;  0.0000000E+00; -4.4170149E-05;  1.0020528E+03;  1.0000000E-01;  1.7006926E+03;3; -6.7338312E-01;  0.0000000E+00; -4.1557673E-02;0; -3.4780984E-03;  4.0164910E+04;  0.0000000E+00; -1.2886040E-02;  4.0000000E+04;  0.0000000E+00;  4.0009578E+04; -3.5602020E-03;  0.0000000E+00;  8.2103557E-05;  9.8653131E+02;
  1.2151935E-01;  9.9999998E-03;  5.9952583E-02;3214; -1.2331051E-03;  0.0000000E+00; -7.4056523E-05;  1.0019650E+03;  1.0000000E-01;  1.6280033E+03;3; -6.8970853E-01;  0.0000000E+00; -4.6449341E-02;0; -3.4344760E-03;  4.0158484E+04;  0.0000000E+00; -1.9272583E-02;  4.0000000E+04;  0.0000000E+00;  4.0008672E+04; -3.6424808E-03;  0.0000000E+00;  2.0800480E-04;  9.1517352E+02;
  1.3151717E-01;  9.9999998E-03; -9.9953994E-02;3259; -1.3733149E-03;  0.0000000E+00;  1.1635035E-04;  1.0010814E+03;  1.0000000E-01;  8.9587592E+02;3;  2.0919643E-01;  0.0000000E+00;  5.4699384E-02;0; -3.8785352E-03;  4.0076363E+04;  0.0000000E+00; -6.0077801E-02;  4.0000000E+04;  0.0000000E+00;  4.0017059E+04; -4.4735777E-03;  0.0000000E+00;  5.9504237E-04;  2.0544880E+03;
  1.3148239E-01;  9.9999998E-03; -8.9952044E-02;3260; -1.3486606E-03;  0.0000000E+00;  1.2651407E-04;  1.0010984E+03;  1.0000000E-01;  9.0999896E+02;3;  2.1255350E-01;  0.0000000E+00;  5.1985554E-02;0; -4.2091273E-03;  4.0080324E+04;  0.0000000E+00; -5.2502718E-02;  4.0000000E+04;  0.0000000E+00;  4.0014703E+04; -4.7318437E-03;  0.0000000E+00;  5.2271638E-04;  1.7102572E+03;
  1.3144909E-01;  9.9999998E-03; -7.9947136E-02;3261; -1.3327402E-03;  0.0000000E+00;  1.2082922E-04;  1.0011426E+03;  1.0000000E-01;  9.4663989E+02;3;  2.1649900E-01;  0.0000000E+00;  4.8579417E-02;0; -4.4957120E-03;  4.0085863E+04;  0.0000000E+00; -4.2258356E-02;  4.0000000E+04;  0.0000000E+00;  4.0012141E+04; -4.8992704E-03;  0.0000000E+00;  4.0355840E-04;  1.3936476E+03;
  1.3142167E-01;  9.9999998E-03; -6.9943011E-02;3262; -1.3220331E-03;  0.0000000E+00;  1.0234500E-04;  1.0012048E+03;  1.0000000E-01;  9.9819397E+02;3;  2.2393928E-01;  0.0000000E+00;  4.4715744E-02;0; -4.7128163E-03;  4.0092492E+04;  0.0000000E+00; -3.1719979E-02;  4.0000000E+04;  0.0000000E+00;  4.0010449E+04; -4.9737762E-03;  0.0000000E+00;  2.6095993E-04;  1.1786218E+03;
  1.3140048E-01;  9.9999998E-03; -5.9941746E-02;3263; -1.3140260E-03;  0.0000000E+00;  7.7056262E-05;  1.0012841E+03;  1.0000000E-01;  1.0637723E+03;3;  2.3486063E-01;  0.0000000E+00;  4.0561609E-02;0; -4.8468038E-03;  4.0099328E+04;  0.0000000E+00; -2.2329915E-02;  4.0000000E+04;  0.0000000E+00;  4.0009637E+04; -4.9649077E-03;  0.0000000E+00;  1.1810382E-04;  1.1004818E+03;
  1.3138412E-01;  9.9999998E-03; -4.9943931E-02;3264; -1.3074033E-03;  0.0000000E+00;  5.0726234E-05;  1.0013724E+03;  1.0000000E-01;  1.1369554E+03;3;  2.5153270E-01;  0.0000000E+00;  3.5381489E-02;0; -4.8985137E-03;  4.0105664E+04;  0.0000000E+00; -1.4725505E-02;  4.0000000E+04;  0.0000000E+00;  4.0010168E+04; -4.8915306E-03;  0.0000000E+00; -6.9830467E-06;  1.1554620E+03;
  1.3137153E-01;  9.9999998E-03; -3.9949555E-02;3265; -1.3014274E-03;  0.0000000E+00;  2.7474140E-05;  1.0014601E+03;  1.0000000E-01;  1.2096448E+03;3;  2.7099282E-01;  0.0000000E+00;  3.0144857E-02;0; -4.8827715E-03;  4.0111527E+04;  0.0000000E+00; -8.9756977E-03;  4.0000000E+04;  0.0000000E+00;  4.0011719E+04; -4.7786920E-03;  0.0000000E+00; -1.0407967E-04;  1.3090487E+03;
  1.3136183E-01;  9.9999998E-03; -2.9959297E-02;3266; -1.2954120E-03;  0.0000000E+00;  9.9438921E-06;  1.0015406E+03;  1.0000000E-01;  1.2764083E+03;3;  2.8956732E-01;  0.0000000E+00;  2.2602437E-02;0; -4.8246793E-03;  4.0116000E+04;  0.0000000E+00; -4.8591136E-03;  4.0000000E+04;  0.0000000E+00;  4.0013188E+04; -4.6537644E-03;  0.0000000E+00; -1.7091491E-04;  1.5090454E+03;
  1.3135441E-01;  9.9999998E-03; -1.9972373E-02;3267; -1.2903557E-03;  0.0000000E+00;  1.8017018E-07;  1.0016028E+03;  1.0000000E-01;  1.3279624E+03;3;  3.0427819E-01;  0.0000000E+00;  1.6967570E-02;0; -4.7539161E-03;  4.0119281E+04;  0.0000000E+00; -2.1048416E-03;  4.0000000E+04;  0.0000000E+00;  4.0014734E+04; -4.5426833E-03;  0.0000000E+00; -2.1123271E-04;  1.6996947E+03;
  1.3134947E-01;  9.9999998E-03; -9.9866558E-03;3268; -1.2871734E-03;  0.0000000E+00; -2.2353570E-06;  1.0016422E+03;  1.0000000E-01;  1.3604553E+03;3;  3.1387061E-01;  0.0000000E+00;  8.9779617E-03;0; -4.6982495E-03;  4.0121250E+04;  0.0000000E+00; -5.1855651E-04;  4.0000000E+04;  0.0000000E+00;  4.0015949E+04; -4.4667167E-03;  0.0000000E+00; -2.3153266E-04;  1.8340743E+03;
  1.3134767E-01;  9.9999998E-03; -2.3355470E-10;3269; -1.2860949E-03;  0.0000000E+00; -2.5659006E-09;  1.0016550E+03;  1.0000000E-01;  1.3711217E+03;3;  3.1723157E-01;  0.0000000E+00;  2.7773140E-06;0; -4.6773297E-03;  4.0122027E+04;  0.0000000E+00;  2.1109215E-12;  4.0000000E+04;  0.0000000E+00;  4.0016195E+04; -4.4397819E-03;  0.0000000E+00; -2.3754789E-04;  1.8822018E+03;
  1.3134947E-01;  9.9999998E-03;  9.9866558E-03;3270; -1.2871738E-03;  0.0000000E+00;  2.2314487E-06;  1.0016422E+03;  1.0000000E-01;  1.3604553E+03;3;  3.1388757E-01;  0.0000000E+00; -8.9625204E-03;0; -4.6982621E-03;  4.0121250E+04;  0.0000000E+00; -5.1838061E-04;  4.0000000E+04;  0.0000000E+00;  4.0015949E+04; -4.4667316E-03;  0.0000000E+00; -2.3153059E-04;  1.8340780E+03;
  1.3135439E-01;  9.9999998E-03;  1.9972373E-02;3271; -1.2903576E-03;  0.0000000E+00; -1.8277110E-07;  1.0016029E+03;  1.0000000E-01;  1.3279624E+03;3;  3.0424979E-01;  0.0000000E+00; -1.6941944E-02;0; -4.7539184E-03;  4.0119277E+04;  0.0000000E+00; -2.1046768E-03;  4.0000000E+04;  0.0000000E+00;  4.0014734E+04; -4.5426888E-03;  0.0000000E+00; -2.1122933E-04;  1.6997028E+03;
  1.3136183E-01;  9.9999998E-03;  2.9959297E-02;3272; -1.2954164E-03;  0.0000000E+00; -9.9463559E-06;  1.0015406E+03;  1.0000000E-01;  1.2764083E+03;3;  2.8954965E-01;  0.0000000E+00; -2.2600649E-02;0; -4.8246798E-03;  4.0116004E+04;  0.0000000E+00; -4.8585762E-03;  4.0000000E+04;  0.0000000E+00;  4.0013188E+04; -4.6537681E-03;  0.0000000E+00; -1.7091149E-04;  1.5090553E+03;
  1.3137153E-01;  9.9999998E-03;  3.9949555E-02;3273; -1.3014331E-03;  0.0000000E+00; -2.7476668E-05;  1.0014601E+03;  1.0000000E-01;  1.2097435E+03;3;  2.7095646E-01;  0.0000000E+00; -3.0130722E-02;0; -4.8827855E-03;  4.0111527E+04;  0.0000000E+00; -8.9756846E-03;  4.0000000E+04;  0.0000000E+00;  4.0011719E+04; -4.7787079E-03;  0.0000000E+00; -1.0407742E-04;  1.3090625E+03;
  1.3138410E-01;  9.9999998E-03;  4.9943931E-02;3274; -1.3074094E-03;  0.0000000E+00; -5.0731760E-05;  1.0013724E+03;  1.0000000E-01;  1.1369554E+03;3;  2.5152588E-01;  0.0000000E+00; -3.5447385E-02;0; -4.8985276E-03;  4.0105664E+04;  0.0000000E+00; -1.4725407E-02;  4.0000000E+04;  0.0000000E+00;  4.0010168E+04; -4.8915450E-03;  0.0000000E+00; -6.9824728E-06;  1.1554749E+03;
  1.3140048E-01;  9.9999998E-03;  5.9941743E-02;3275; -1.3140329E-03;  0.0000000E+00; -7.7057157E-05;  1.0012840E+03;  1.0000000E-01;  1.0637723E+03;3;  2.3483643E-01;  0.0000000E+00; -4.0551011E-02;0; -4.8468192E-03;  4.0099320E+04;  0.0000000E+00; -2.2329269E-02;  4.0000000E+04;  0.0000000E+00;  4.0009637E+04; -4.9649193E-03;  0.0000000E+00;  1.1810000E-04;  1.1004893E+03;
  1.4140475E-01;  9.9999998E-03; -9.9944778E-02;3320; -1.5725869E-03;  0.0000000E+00;  9.2847054E-05;  1.0006101E+03;  1.0000000E-01;  5.0546719E+02;3;  5.4476917E-01;  0.0000000E+00;  4.4851407E-02;0; -5.4655420E-03;  4.0034934E+04;  0.0000000E+00; -6.4163759E-02;  4.0000000E+04;  0.0000000E+00;  4.0017250E+04; -5.9651146E-03;  0.0000000E+00;  4.9957255E-04;  2.1178188E+03;
  1.4136113E-01;  9.9999998E-03; -8.9940250E-02;3321; -1.5517144E-03;  0.0000000E+00;  1.0675882E-04;  1.0006154E+03;  1.0000000E-01;  5.0981274E+02;3;  5.5465525E-01;  0.0000000E+00;  4.2867776E-02;0; -5.8458582E-03;  4.0037816E+04;  0.0000000E+00; -5.3162955E-02;  4.0000000E+04;  0.0000000E+00;  4.0014426E+04; -6.2735854E-03;  0.0000000E+00;  4.2772709E-04;  1.7739634E+03;
  1.4132100E-01;  9.9999998E-03; -7.9932675E-02;3322; -1.5351454E-03;  0.0000000E+00;  1.0672033E-04;  1.0006454E+03;  1.0000000E-01;  5.3470093E+02;3;  5.6663382E-01;  0.0000000E+00;  4.0527932E-02;0; -6.1651841E-03;  4.0042445E+04;  0.0000000E+00; -4.1059978E-02;  4.0000000E+04;  0.0000000E+00;  4.0011984E+04; -6.4772516E-03;  0.0000000E+00;  3.1206771E-04;  1.4506217E+03;
  1.4128739E-01;  9.9999998E-03; -6.9926858E-02;3323; -1.5208949E-03;  0.0000000E+00;  9.4902389E-05;  1.0006964E+03;  1.0000000E-01;  5.7687256E+02;3;  5.7983375E-01;  0.0000000E+00;  3.8178682E-02;0; -6.4008334E-03;  4.0048086E+04;  0.0000000E+00; -2.9929362E-02;  4.0000000E+04;  0.0000000E+00;  4.0010309E+04; -6.5755248E-03;  0.0000000E+00;  1.7469160E-04;  1.2221957E+03;
  1.4125943E-01;  9.9999998E-03; -5.9925690E-02;3324; -1.5074217E-03;  0.0000000E+00;  7.5439675E-05;  1.0007654E+03;  1.0000000E-01;  6.3415491E+02;3;  5.9566778E-01;  0.0000000E+00;  3.3920106E-02;0; -6.5424773E-03;  4.0054145E+04;  0.0000000E+00; -2.0757224E-02;  4.0000000E+04;  0.0000000E+00;  4.0009359E+04; -6.5799896E-03;  0.0000000E+00;  3.7512058E-05;  1.1257023E+03;
  1.4123565E-01;  9.9999998E-03; -4.9930390E-02;3325; -1.4938862E-03;  0.0000000E+00;  5.2928222E-05;  1.0008425E+03;  1.0000000E-01;  6.9805432E+02;3;  6.1089718E-01;  0.0000000E+00;  3.0073492E-02;0; -6.5944684E-03;  4.0059906E+04;  0.0000000E+00; -1.3718878E-02;  4.0000000E+04;  0.0000000E+00;  4.0009832E+04; -6.5119900E-03;  0.0000000E+00; -8.2478255E-05;  1.1594646E+03;
  1.4121629E-01;  9.9999998E-03; -3.9939974E-02;3326; -1.4813200E-03;  0.0000000E+00;  3.2155211E-05;  1.0009182E+03;  1.0000000E-01;  7.6066986E+02;3;  6.2477261E-01;  0.0000000E+00;  2.5551828E-02;0; -6.5750731E-03;  4.0064973E+04;  0.0000000E+00; -8.5201943E-03;  4.0000000E+04;  0.0000000E+00;  4.0010934E+04; -6.3993176E-03;  0.0000000E+00; -1.7575551E-04;  1.2910413E+03;
  1.4120176E-01;  9.9999998E-03; -2.9953221E-02;3327; -1.4704313E-03;  0.0000000E+00;  1.6200276E-05;  1.0009907E+03;  1.0000000E-01;  8.2071753E+02;3;  6.3674754E-01;  0.0000000E+00;  1.9395567E-02;0; -6.5121646E-03;  4.0068969E+04;  0.0000000E+00; -4.7521261E-03;  4.0000000E+04;  0.0000000E+00;  4.0012570E+04; -6.2718797E-03;  0.0000000E+00; -2.4028498E-04;  1.4703302E+03;
  1.4119159E-01;  9.9999998E-03; -1.9969065E-02;3328; -1.4620434E-03;  0.0000000E+00;  6.2424906E-06;  1.0010451E+03;  1.0000000E-01;  8.6585205E+02;3;  6.4706159E-01;  0.0000000E+00;  1.3400810E-02;0; -6.4371596E-03;  4.0071914E+04;  0.0000000E+00; -2.1245612E-03;  4.0000000E+04;  0.0000000E+00;  4.0014066E+04; -6.1575845E-03;  0.0000000E+00; -2.7957503E-04;  1.6436747E+03;
  1.4118497E-01;  9.9999998E-03; -9.9853026E-03;3329; -1.4567687E-03;  0.0000000E+00;  1.5734533E-06;  1.0010832E+03;  1.0000000E-01;  8.9735736E+02;3;  6.5349132E-01;  0.0000000E+00;  6.6346382E-03;0; -6.3786288E-03;  4.0073816E+04;  0.0000000E+00; -5.3590554E-04;  4.0000000E+04;  0.0000000E+00;  4.0014750E+04; -6.0790214E-03;  0.0000000E+00; -2.9960746E-04;  1.7663719E+03;
  1.4118257E-01;  9.9999998E-03; -2.5666377E-10;3330; -1.4549741E-03;  0.0000000E+00; -9.6338337E-10;  1.0010930E+03;  1.0000000E-01;  9.0545587E+02;3;  6.5583783E-01;  0.0000000E+00;  1.2151706E-05;0; -6.3566780E-03;  4.0074391E+04;  0.0000000E+00;  5.4251747E-13;  4.0000000E+04;  0.0000000E+00;  4.0015164E+04; -6.0510733E-03;  0.0000000E+00; -3.0560454E-04;  1.8103199E+03;
  1.4118497E-01;  9.9999998E-03;  9.9853016E-03;3331; -1.4567702E-03;  0.0000000E+00; -1.5761102E-06;  1.0010832E+03;  1.0000000E-01;  8.9735736E+02;3;  6.5347600E-01;  0.0000000E+00; -6.6152206E-03;0; -6.3786330E-03;  4.0073820E+04;  0.0000000E+00; -5.3576345E-04;  4.0000000E+04;  0.0000000E+00;  4.0014750E+04; -6.0790265E-03;  0.0000000E+00; -2.9960633E-04;  1.7663737E+03;
  1.4119159E-01;  9.9999998E-03;  1.9969065E-02;3332; -1.4620471E-03;  0.0000000E+00; -6.2450272E-06;  1.0010451E+03;  1.0000000E-01;  8.6585205E+02;3;  6.4704275E-01;  0.0000000E+00; -1.3376165E-02;0; -6.4371652E-03;  4.0071914E+04;  0.0000000E+00; -2.1244793E-03;  4.0000000E+04;  0.0000000E+00;  4.0014066E+04; -6.1575919E-03;  0.0000000E+00; -2.7957323E-04;  1.6436785E+03;
  1.4120176E-01;  9.9999998E-03;  2.9953221E-02;3333; -1.4704354E-03;  0.0000000E+00; -1.6203829E-05;  1.0009907E+03;  1.0000000E-01;  8.2071753E+02;3;  6.3675892E-01;  0.0000000E+00; -1.9384766E-02;0; -6.5121730E-03;  4.0068965E+04;  0.0000000E+00; -4.7519668E-03;  4.0000000E+04;  0.0000000E+00;  4.0012570E+04; -6.2718894E-03;  0.0000000E+00; -2.4028342E-04;  1.4703370E+03;
  1.4121628E-01;  9.9999998E-03;  3.9939974E-02;3334; -1.4813242E-03;  0.0000000E+00; -3.2157495E-05;  1.0009182E+03;  1.0000000E-01;  7.6076862E+02;3;  6.2479126E-01;  0.0000000E+00; -2.5563963E-02;0; -6.5750917E-03;  4.0064977E+04;  0.0000000E+00; -8.5199336E-03;  4.0000000E+04;  0.0000000E+00;  4.0010934E+04; -6.3993367E-03;  0.0000000E+00; -1.7575509E-04;  1.2910505E+03;
  1.4123563E-01;  9.9999998E-03;  4.9930390E-02;3335; -1.4938911E-03;  0.0000000E+00; -5.2928812E-05;  1.0008425E+03;  1.0000000E-01;  6.9805432E+02;3;  6.1089689E-01;  0.0000000E+00; -3.0072313E-02;0; -6.5944819E-03;  4.0059902E+04;  0.0000000E+00; -1.3718147E-02;  4.0000000E+04;  0.0000000E+00;  4.0009836E+04; -6.5120016E-03;  0.0000000E+00; -8.2480197E-05;  1.1594664E+03;
  1.4125943E-01;  9.9999998E-03;  5.9925690E-02;3336; -1.5074259E-03;  0.0000000E+00; -7.5441880E-05;  1.0007654E+03;  1.0000000E-01;  6.3415491E+02;3;  5.9568238E-01;  0.0000000E+00; -3.3956375E-02;0; -6.5424936E-03;  4.0054145E+04;  0.0000000E+00; -2.0757915E-02;  4.0000000E+04;  0.0000000E+00;  4.0009359E+04; -6.5800007E-03;  0.0000000E+00;  3.7507070E-05;  1.1257065E+03;
  1.5102619E-01;  9.9999998E-03; -9.9867517E-03;3390; -1.6877165E-03;  0.0000000E+00;  3.9140841E-06;  1.0006694E+03;  1.0000000E-01;  5.5455225E+02;3;  7.4209034E-01;  0.0000000E+00;  4.8826220E-03;0; -8.0026044E-03;  4.0040137E+04;  0.0000000E+00; -6.3484721E-04;  4.0000000E+04;  0.0000000E+00;  4.0012555E+04; -7.6670307E-03;  0.0000000E+00; -3.3557342E-04;  1.5116136E+03;
  1.5102327E-01;  9.9999998E-03; -3.1017239E-10;3391; -1.6851722E-03;  0.0000000E+00; -2.1858677E-09;  1.0006795E+03;  1.0000000E-01;  5.6294702E+02;3;  7.4559671E-01;  0.0000000E+00; -2.9969985E-06;0; -7.9789329E-03;  4.0040637E+04;  0.0000000E+00;  9.4116772E-13;  4.0000000E+04;  0.0000000E+00;  4.0012703E+04; -7.6382719E-03;  0.0000000E+00; -3.4066063E-04;  1.5502841E+03;
  1.5102619E-01;  9.9999998E-03;  9.9867517E-03;3392; -1.6877182E-03;  0.0000000E+00; -3.9164138E-06;  1.0006694E+03;  1.0000000E-01;  5.5455225E+02;3;  7.4210346E-01;  0.0000000E+00; -4.8703160E-03;0; -8.0026016E-03;  4.0040137E+04;  0.0000000E+00; -6.3479261E-04;  4.0000000E+04;  0.0000000E+00;  4.0012555E+04; -7.6670283E-03;  0.0000000E+00; -3.3557275E-04;  1.5116173E+03;
  1.5103446E-01;  9.9999998E-03; -1.9971382E-02;3389; -1.6951869E-03;  0.0000000E+00;  1.0256090E-05;  1.0006397E+03;  1.0000000E-01;  5.2996033E+02;3;  7.3527014E-01;  0.0000000E+00;  1.0762056E-02;0; -8.0661597E-03;  4.0038578E+04;  0.0000000E+00; -2.4123993E-03;  4.0000000E+04;  0.0000000E+00;  4.0011926E+04; -7.7478439E-03;  0.0000000E+00; -3.1831543E-04;  1.4035834E+03;
  1.5103446E-01;  9.9999998E-03;  1.9971382E-02;3393; -1.6951908E-03;  0.0000000E+00; -1.0256145E-05;  1.0006397E+03;  1.0000000E-01;  5.2996033E+02;3;  7.3525107E-01;  0.0000000E+00; -1.0748579E-02;0; -8.0661606E-03;  4.0038578E+04;  0.0000000E+00; -2.4119085E-03;  4.0000000E+04;  0.0000000E+00;  4.0011926E+04; -7.7478457E-03;  0.0000000E+00; -3.1831465E-04;  1.4035905E+03;
  1.5104802E-01;  9.9999998E-03; -2.9956149E-02;3388; -1.7070948E-03;  0.0000000E+00;  2.0551275E-05;  1.0005896E+03;  1.0000000E-01;  4.8848001E+02;3;  7.2494292E-01;  0.0000000E+00;  1.6319199E-02;0; -8.1489896E-03;  4.0036105E+04;  0.0000000E+00; -5.0437748E-03;  4.0000000E+04;  0.0000000E+00;  4.0010402E+04; -7.8652697E-03;  0.0000000E+00; -2.8371986E-04;  1.2514734E+03;
  1.5104802E-01;  9.9999998E-03;  2.9956149E-02;3394; -1.7070981E-03;  0.0000000E+00; -2.0551077E-05;  1.0005896E+03;  1.0000000E-01;  4.8848001E+02;3;  7.2493535E-01;  0.0000000E+00; -1.6329575E-02;0; -8.1489980E-03;  4.0036102E+04;  0.0000000E+00; -5.0435616E-03;  4.0000000E+04;  0.0000000E+00;  4.0010402E+04; -7.8652781E-03;  0.0000000E+00; -2.8371965E-04;  1.2514817E+03;
  1.5106732E-01;  9.9999998E-03; -3.9943170E-02;3387; -1.7225570E-03;  0.0000000E+00;  3.5034918E-05;  1.0005339E+03;  1.0000000E-01;  4.4235785E+02;3;  7.1210730E-01;  0.0000000E+00;  2.1318894E-02;0; -8.2213460E-03;  4.0032684E+04;  0.0000000E+00; -8.3059827E-03;  4.0000000E+04;  0.0000000E+00;  4.0009238E+04; -7.9956194E-03;  0.0000000E+00; -2.2572675E-04;  1.0970131E+03;
  1.5106732E-01;  9.9999998E-03;  3.9943170E-02;3395; -1.7225617E-03;  0.0000000E+00; -3.5038414E-05;  1.0005339E+03;  1.0000000E-01;  4.4225909E+02;3;  7.1211445E-01;  0.0000000E+00; -2.1363698E-02;0; -8.2213618E-03;  4.0032684E+04;  0.0000000E+00; -8.3049387E-03;  4.0000000E+04;  0.0000000E+00;  4.0009238E+04; -7.9956334E-03;  0.0000000E+00; -2.2572852E-04;  1.0970171E+03;
  1.5109265E-01;  9.9999998E-03; -4.9933422E-02;3386; -1.7404765E-03;  0.0000000E+00;  5.2380045E-05;  1.0004696E+03;  1.0000000E-01;  3.8902603E+02;3;  6.9811982E-01;  0.0000000E+00;  2.4893425E-02;0; -8.2500512E-03;  4.0028484E+04;  0.0000000E+00; -1.2267371E-02;  4.0000000E+04;  0.0000000E+00;  4.0008133E+04; -8.1095686E-03;  0.0000000E+00; -1.4048266E-04;  9.9121509E+02;
  1.5109265E-01;  9.9999998E-03;  4.9933422E-02;3396; -1.7404822E-03;  0.0000000E+00; -5.2382682E-05;  1.0004695E+03;  1.0000000E-01;  3.8902603E+02;3;  6.9810402E-01;  0.0000000E+00; -2.4926715E-02;0; -8.2500800E-03;  4.0028484E+04;  0.0000000E+00; -1.2266066E-02;  4.0000000E+04;  0.0000000E+00;  4.0008133E+04; -8.1095919E-03;  0.0000000E+00; -1.4048773E-04;  9.9122046E+02;
  1.5112391E-01;  9.9999998E-03; -5.9927046E-02;3385; -1.7596647E-03;  0.0000000E+00;  6.9918780E-05;  1.0004070E+03;  1.0000000E-01;  3.3717566E+02;3;  6.8316829E-01;  0.0000000E+00;  2.7569063E-02;0; -8.2050208E-03;  4.0023828E+04;  0.0000000E+00; -1.7367933E-02;  4.0000000E+04;  0.0000000E+00;  4.0008035E+04; -8.1756515E-03;  0.0000000E+00; -2.9368826E-05;  9.8148120E+02;
  1.5112391E-01;  9.9999998E-03;  5.9927043E-02;3397; -1.7596686E-03;  0.0000000E+00; -6.9920810E-05;  1.0004070E+03;  1.0000000E-01;  3.3717566E+02;3;  6.8315595E-01;  0.0000000E+00; -2.7620964E-02;0; -8.2050487E-03;  4.0023824E+04;  0.0000000E+00; -1.7367406E-02;  4.0000000E+04;  0.0000000E+00;  4.0008035E+04; -8.1756720E-03;  0.0000000E+00; -2.9376743E-05;  9.8148230E+02;
  1.5116055E-01;  9.9999998E-03; -6.9924116E-02;3384; -1.7789542E-03;  0.0000000E+00;  8.3689483E-05;  1.0003569E+03;  1.0000000E-01;  2.9569534E+02;3;  6.6747469E-01;  0.0000000E+00;  2.9581064E-02;0; -8.0650924E-03;  4.0019082E+04;  0.0000000E+00; -2.4279485E-02;  4.0000000E+04;  0.0000000E+00;  4.0008906E+04; -8.1641413E-03;  0.0000000E+00;  9.9049161E-05;  1.0970505E+03;
  1.5120220E-01;  9.9999998E-03; -7.9924472E-02;3383; -1.7976071E-03;  0.0000000E+00;  8.9147579E-05;  1.0003258E+03;  1.0000000E-01;  2.6991830E+02;3;  6.5196329E-01;  0.0000000E+00;  3.1228958E-02;0; -7.8223255E-03;  4.0014977E+04;  0.0000000E+00; -3.3553705E-02;  4.0000000E+04;  0.0000000E+00;  4.0011242E+04; -8.0513423E-03;  0.0000000E+00;  2.2901646E-04;  1.3369207E+03;
  1.5124799E-01;  9.9999998E-03; -8.9926779E-02;3382; -1.8153634E-03;  0.0000000E+00;  8.2675979E-05;  1.0003177E+03;  1.0000000E-01;  2.6320242E+02;3;  6.3732958E-01;  0.0000000E+00;  3.2195773E-02;0; -7.4833436E-03;  4.0011730E+04;  0.0000000E+00; -4.5165721E-02;  4.0000000E+04;  0.0000000E+00;  4.0013543E+04; -7.8232680E-03;  0.0000000E+00;  3.3992442E-04;  1.6631890E+03;
  1.5129718E-01;  9.9999998E-03; -9.9929661E-02;3381; -1.8323699E-03;  0.0000000E+00;  6.3981817E-05;  1.0003341E+03;  1.0000000E-01;  2.7683167E+02;3;  6.2526029E-01;  0.0000000E+00;  3.2912556E-02;0; -7.0679896E-03;  4.0010863E+04;  0.0000000E+00; -5.8038663E-02;  4.0000000E+04;  0.0000000E+00;  4.0016434E+04; -7.4787419E-03;  0.0000000E+00;  4.1075249E-04;  2.0036307E+03;
  1.6125861E-01;  9.9999998E-03; -9.9955782E-02;3442; -2.1174736E-03;  0.0000000E+00;  4.4734774E-05;  1.0002219E+03;  1.0000000E-01;  1.8379727E+02;3;  6.3217419E-01;  0.0000000E+00;  2.2616161E-02;0; -8.4101353E-03;  4.0001469E+04;  0.0000000E+00; -4.6503466E-02;  4.0000000E+04;  0.0000000E+00;  4.0014023E+04; -8.7445714E-03;  0.0000000E+00;  3.3443622E-04;  1.7283234E+03;
  1.6121040E-01;  9.9999998E-03; -8.9956813E-02;3443; -2.1063802E-03;  0.0000000E+00;  6.5322012E-05;  1.0001807E+03;  1.0000000E-01;  1.4972417E+02;3;  6.4461094E-01;  0.0000000E+00;  2.4019893E-02;0; -8.8454522E-03;  4.0000730E+04;  0.0000000E+00; -3.4249112E-02;  4.0000000E+04;  0.0000000E+00;  4.0011422E+04; -9.1094840E-03;  0.0000000E+00;  2.6403190E-04;  1.3942012E+03;
  1.6116203E-01;  9.9999998E-03; -7.9956889E-02;3444; -2.0898716E-03;  0.0000000E+00;  7.5353470E-05;  1.0001650E+03;  1.0000000E-01;  1.3668748E+02;3;  6.5868789E-01;  0.0000000E+00;  2.4153531E-02;0; -9.1913221E-03;  4.0001988E+04;  0.0000000E+00; -2.5658432E-02;  4.0000000E+04;  0.0000000E+00;  4.0008797E+04; -9.3493927E-03;  0.0000000E+00;  1.5807031E-04;  1.0669734E+03;
  1.6111718E-01;  9.9999998E-03; -6.9957592E-02;3445; -2.0687196E-03;  0.0000000E+00;  7.4271557E-05;  1.0001750E+03;  1.0000000E-01;  1.4498355E+02;3;  6.7326945E-01;  0.0000000E+00;  2.3703253E-02;0; -9.4312103E-03;  4.0004578E+04;  0.0000000E+00; -2.0210696E-02;  4.0000000E+04;  0.0000000E+00;  4.0006691E+04; -9.4679333E-03;  0.0000000E+00;  3.6722940E-05;  8.1696826E+02;
  1.6107786E-01;  9.9999998E-03; -5.9959747E-02;3446; -2.0441595E-03;  0.0000000E+00;  6.4392938E-05;  1.0002104E+03;  1.0000000E-01;  1.7431606E+02;3;  6.9234627E-01;  0.0000000E+00;  2.0753846E-02;0; -9.5617473E-03;  4.0008121E+04;  0.0000000E+00; -1.6675927E-02;  4.0000000E+04;  0.0000000E+00;  4.0005438E+04; -9.4811385E-03;  0.0000000E+00; -8.0608435E-05;  6.8313104E+02;
  1.6104516E-01;  9.9999998E-03; -4.9963530E-02;3447; -2.0174615E-03;  0.0000000E+00;  4.9676459E-05;  1.0002556E+03;  1.0000000E-01;  2.1174710E+02;3;  7.1358967E-01;  0.0000000E+00;  1.8615818E-02;0; -9.5938696E-03;  4.0011762E+04;  0.0000000E+00; -1.3755228E-02;  4.0000000E+04;  0.0000000E+00;  4.0005531E+04; -9.4143329E-03;  0.0000000E+00; -1.7953658E-04;  6.6947101E+02;
  1.6101857E-01;  9.9999998E-03; -3.9969262E-02;3448; -1.9912492E-03;  0.0000000E+00;  3.4213190E-05;  1.0003067E+03;  1.0000000E-01;  2.5411627E+02;3;  7.3137075E-01;  0.0000000E+00;  1.6786044E-02;0; -9.5511144E-03;  4.0015121E+04;  0.0000000E+00; -1.0594145E-02;  4.0000000E+04;  0.0000000E+00;  4.0006051E+04; -9.2982864E-03;  0.0000000E+00; -2.5282783E-04;  7.4978528E+02;
  1.6099809E-01;  9.9999998E-03; -2.9977234E-02;3449; -1.9680629E-03;  0.0000000E+00;  2.0837853E-05;  1.0003569E+03;  1.0000000E-01;  2.9569534E+02;3;  7.4537259E-01;  0.0000000E+00;  1.3866094E-02;0; -9.4656814E-03;  4.0017969E+04;  0.0000000E+00; -7.0313923E-03;  4.0000000E+04;  0.0000000E+00;  4.0007137E+04; -9.1654044E-03;  0.0000000E+00; -3.0027749E-04;  8.7917566E+02;
  1.6098301E-01;  9.9999998E-03; -1.9986551E-02;3450; -1.9499123E-03;  0.0000000E+00;  1.0969627E-05;  1.0003975E+03;  1.0000000E-01;  3.2937341E+02;3;  7.5610006E-01;  0.0000000E+00;  9.9444194E-03;0; -9.3722921E-03;  4.0020059E+04;  0.0000000E+00; -3.5480929E-03;  4.0000000E+04;  0.0000000E+00;  4.0008297E+04; -9.0456167E-03;  0.0000000E+00; -3.2667565E-04;  1.0091985E+03;
  1.6097341E-01;  9.9999998E-03; -9.9950973E-03;3451; -1.9383291E-03;  0.0000000E+00;  4.4728413E-06;  1.0004217E+03;  1.0000000E-01;  3.4932346E+02;3;  7.6301819E-01;  0.0000000E+00;  5.2368003E-03;0; -9.3018711E-03;  4.0021445E+04;  0.0000000E+00; -9.6008094E-04;  4.0000000E+04;  0.0000000E+00;  4.0009160E+04; -8.9631230E-03;  0.0000000E+00; -3.3874848E-04;  1.1014528E+03;
  1.6096984E-01;  9.9999998E-03; -3.2240524E-10;3452; -1.9343338E-03;  0.0000000E+00; -2.9207001E-10;  1.0004308E+03;  1.0000000E-01;  3.5692816E+02;3;  7.6552796E-01;  0.0000000E+00;  2.2353020E-06;0; -9.2758099E-03;  4.0021840E+04;  0.0000000E+00; -9.3200838E-13;  4.0000000E+04;  0.0000000E+00;  4.0009309E+04; -8.9337490E-03;  0.0000000E+00; -3.4206119E-04;  1.1342819E+03;
  1.6097341E-01;  9.9999998E-03;  9.9950964E-03;3453; -1.9383304E-03;  0.0000000E+00; -4.4733051E-06;  1.0004216E+03;  1.0000000E-01;  3.4932346E+02;3;  7.6300812E-01;  0.0000000E+00; -5.2115326E-03;0; -9.3018776E-03;  4.0021445E+04;  0.0000000E+00; -9.6010952E-04;  4.0000000E+04;  0.0000000E+00;  4.0009160E+04; -8.9631295E-03;  0.0000000E+00; -3.3874833E-04;  1.1014574E+03;
  1.6098301E-01;  9.9999998E-03;  1.9986551E-02;3454; -1.9499144E-03;  0.0000000E+00; -1.0968764E-05;  1.0003975E+03;  1.0000000E-01;  3.2937341E+02;3;  7.5608915E-01;  0.0000000E+00; -9.9252304E-03;0; -9.3722893E-03;  4.0020059E+04;  0.0000000E+00; -3.5479458E-03;  4.0000000E+04;  0.0000000E+00;  4.0008297E+04; -9.0456139E-03;  0.0000000E+00; -3.2667577E-04;  1.0092075E+03;
  1.6099809E-01;  9.9999998E-03;  2.9977234E-02;3455; -1.9680643E-03;  0.0000000E+00; -2.0837095E-05;  1.0003569E+03;  1.0000000E-01;  2.9569534E+02;3;  7.4537039E-01;  0.0000000E+00; -1.3877068E-02;0; -9.4656851E-03;  4.0017965E+04;  0.0000000E+00; -7.0315395E-03;  4.0000000E+04;  0.0000000E+00;  4.0007137E+04; -9.1654062E-03;  0.0000000E+00; -3.0027877E-04;  8.7918323E+02;
  1.6101857E-01;  9.9999998E-03;  3.9969258E-02;3456; -1.9912538E-03;  0.0000000E+00; -3.4213059E-05;  1.0003066E+03;  1.0000000E-01;  2.5401750E+02;3;  7.3133487E-01;  0.0000000E+00; -1.6754493E-02;0; -9.5511321E-03;  4.0015121E+04;  0.0000000E+00; -1.0592935E-02;  4.0000000E+04;  0.0000000E+00;  4.0006051E+04; -9.2983013E-03;  0.0000000E+00; -2.5283080E-04;  7.4978711E+02;
  1.6104516E-01;  9.9999998E-03;  4.9963530E-02;3457; -2.0174661E-03;  0.0000000E+00; -4.9678270E-05;  1.0002556E+03;  1.0000000E-01;  2.1174710E+02;3;  7.1360451E-01;  0.0000000E+00; -1.8656695E-02;0; -9.5938891E-03;  4.0011762E+04;  0.0000000E+00; -1.3755228E-02;  4.0000000E+04;  0.0000000E+00;  4.0005531E+04; -9.4143469E-03;  0.0000000E+00; -1.7954258E-04;  6.6947870E+02;
  1.6107786E-01;  9.9999998E-03;  5.9959747E-02;3458; -2.0441634E-03;  0.0000000E+00; -6.4393367E-05;  1.0002104E+03;  1.0000000E-01;  1.7431606E+02;3;  6.9234473E-01;  0.0000000E+00; -2.0749016E-02;0; -9.5617659E-03;  4.0008121E+04;  0.0000000E+00; -1.6674314E-02;  4.0000000E+04;  0.0000000E+00;  4.0005441E+04; -9.4811488E-03;  0.0000000E+00; -8.0617581E-05;  6.8313593E+02;
  1.7123288E-01;  9.9999998E-03; -1.0002138E-01;3503; -2.3989156E-03;  0.0000000E+00;  3.6268313E-05;  1.0002236E+03;  1.0000000E-01;  1.8527872E+02;3;  6.3401353E-01;  0.0000000E+00;  1.0184249E-02;0; -9.2636188E-03;  4.0003539E+04;  0.0000000E+00; -3.5956074E-02;  4.0000000E+04;  0.0000000E+00;  4.0010727E+04; -9.5388638E-03;  0.0000000E+00;  2.7524529E-04;  1.3128174E+03;
  1.7117703E-01;  9.9999998E-03; -9.0023383E-02;3504; -2.3939637E-03;  0.0000000E+00;  5.6781479E-05;  1.0001644E+03;  1.0000000E-01;  1.3619368E+02;3;  6.5106601E-01;  0.0000000E+00;  1.3830461E-02;0; -9.7015379E-03;  4.0001156E+04;  0.0000000E+00; -2.6960734E-02;  4.0000000E+04;  0.0000000E+00;  4.0007812E+04; -9.9049900E-03;  0.0000000E+00;  2.0345206E-04;  9.8675751E+02;
  1.7112531E-01;  9.9999998E-03; -8.0022864E-02;3505; -2.3783175E-03;  0.0000000E+00;  6.7844208E-05;  1.0001385E+03;  1.0000000E-01;  1.1476218E+02;3;  6.6856271E-01;  0.0000000E+00;  1.4991579E-02;0; -1.0040806E-02;  4.0001133E+04;  0.0000000E+00; -2.3201145E-02;  4.0000000E+04;  0.0000000E+00;  4.0005301E+04; -1.0142359E-02;  0.0000000E+00;  1.0155286E-04;  6.6201306E+02;
  1.7108110E-01;  9.9999998E-03; -7.0020296E-02;3506; -2.3538789E-03;  0.0000000E+00;  6.7880799E-05;  1.0001346E+03;  1.0000000E-01;  1.1150302E+02;3;  6.8573672E-01;  0.0000000E+00;  1.5448429E-02;0; -1.0267633E-02;  4.0002781E+04;  0.0000000E+00; -2.2335285E-02;  4.0000000E+04;  0.0000000E+00;  4.0003270E+04; -1.0256754E-02;  0.0000000E+00; -1.0878860E-05;  4.0598358E+02;
  1.7104807E-01;  9.9999998E-03; -6.0016297E-02;3507; -2.3234126E-03;  0.0000000E+00;  5.9561087E-05;  1.0001561E+03;  1.0000000E-01;  1.2937906E+02;3;  7.0422161E-01;  0.0000000E+00;  1.5826497E-02;0; -1.0381358E-02;  4.0005590E+04;  0.0000000E+00; -2.1943538E-02;  4.0000000E+04;  0.0000000E+00;  4.0001895E+04; -1.0265740E-02;  0.0000000E+00; -1.1561839E-04;  2.5869305E+02;
  1.7103289E-01;  9.9999998E-03; -5.0012503E-02;3508; -2.2902281E-03;  0.0000000E+00;  4.6783443E-05;  1.0001973E+03;  1.0000000E-01;  1.6345216E+02;3;  7.2168624E-01;  0.0000000E+00;  1.5226125E-02;0; -1.0395641E-02;  4.0008773E+04;  0.0000000E+00; -2.0246917E-02;  4.0000000E+04;  0.0000000E+00;  4.0001809E+04; -1.0195828E-02;  0.0000000E+00; -1.9981366E-04;  2.2645343E+02;
  1.7103936E-01;  9.9999998E-03; -4.0011380E-02;3509; -2.2577744E-03;  0.0000000E+00;  3.2919797E-05;  1.0002446E+03;  1.0000000E-01;  2.0266093E+02;3;  7.3825920E-01;  0.0000000E+00;  1.3828033E-02;0; -1.0336304E-02;  4.0012023E+04;  0.0000000E+00; -1.6551267E-02;  4.0000000E+04;  0.0000000E+00;  4.0002227E+04; -1.0078428E-02;  0.0000000E+00; -2.5787589E-04;  2.8571622E+02;
  1.7105898E-01;  9.9999998E-03; -3.0012907E-02;3510; -2.2289520E-03;  0.0000000E+00;  2.0627598E-05;  1.0002912E+03;  1.0000000E-01;  2.4127713E+02;3;  7.5304842E-01;  0.0000000E+00;  1.1463141E-02;0; -1.0236798E-02;  4.0014797E+04;  0.0000000E+00; -1.1288562E-02;  4.0000000E+04;  0.0000000E+00;  4.0003305E+04; -9.9455649E-03;  0.0000000E+00; -2.9123254E-04;  3.9421350E+02;
  1.7107536E-01;  9.9999998E-03; -2.0014277E-02;3511; -2.2060648E-03;  0.0000000E+00;  1.1187229E-05;  1.0003283E+03;  1.0000000E-01;  2.7199231E+02;3;  7.6600832E-01;  0.0000000E+00;  7.6182918E-03;0; -1.0132467E-02;  4.0016789E+04;  0.0000000E+00; -5.7541043E-03;  4.0000000E+04;  0.0000000E+00;  4.0003992E+04; -9.8262411E-03;  0.0000000E+00; -3.0622658E-04;  5.0545999E+02;
  1.7107739E-01;  9.9999998E-03; -1.0011918E-02;3512; -2.1911508E-03;  0.0000000E+00;  4.6855707E-06;  1.0003524E+03;  1.0000000E-01;  2.9194235E+02;3;  7.7475953E-01;  0.0000000E+00;  3.4748046E-03;0; -1.0054735E-02;  4.0018066E+04;  0.0000000E+00; -1.5609227E-03;  4.0000000E+04;  0.0000000E+00;  4.0004980E+04; -9.7438283E-03;  0.0000000E+00; -3.1090662E-04;  5.8398895E+02;
  1.7107677E-01;  9.9999998E-03; -1.9376646E-10;3513; -2.1858688E-03;  0.0000000E+00; -3.1165276E-10;  1.0003594E+03;  1.0000000E-01;  2.9776935E+02;3;  7.7958781E-01;  0.0000000E+00;  1.1869017E-05;0; -1.0026138E-02;  4.0018566E+04;  0.0000000E+00;  2.9785782E-13;  4.0000000E+04;  0.0000000E+00;  4.0005199E+04; -9.7144796E-03;  0.0000000E+00; -3.1165883E-04;  6.1156219E+02;
  1.7107739E-01;  9.9999998E-03;  1.0011917E-02;3514; -2.1911513E-03;  0.0000000E+00; -4.6850078E-06;  1.0003524E+03;  1.0000000E-01;  2.9194235E+02;3;  7.7474767E-01;  0.0000000E+00; -3.4549129E-03;0; -1.0054748E-02;  4.0018070E+04;  0.0000000E+00; -1.5609437E-03;  4.0000000E+04;  0.0000000E+00;  4.0004980E+04; -9.7438404E-03;  0.0000000E+00; -3.1090688E-04;  5.8398859E+02;
  1.7107536E-01;  9.9999998E-03;  2.0014277E-02;3515; -2.2060676E-03;  0.0000000E+00; -1.1186398E-05;  1.0003284E+03;  1.0000000E-01;  2.7209106E+02;3;  7.6598662E-01;  0.0000000E+00; -7.6020188E-03;0; -1.0132458E-02;  4.0016789E+04;  0.0000000E+00; -5.7540699E-03;  4.0000000E+04;  0.0000000E+00;  4.0003992E+04; -9.8262299E-03;  0.0000000E+00; -3.0622797E-04;  5.0546460E+02;
  1.7105898E-01;  9.9999998E-03;  3.0012907E-02;3516; -2.2289541E-03;  0.0000000E+00; -2.0626847E-05;  1.0002913E+03;  1.0000000E-01;  2.4127713E+02;3;  7.5306207E-01;  0.0000000E+00; -1.1465195E-02;0; -1.0236818E-02;  4.0014793E+04;  0.0000000E+00; -1.1289177E-02;  4.0000000E+04;  0.0000000E+00;  4.0003305E+04; -9.9455826E-03;  0.0000000E+00; -2.9123537E-04;  3.9421719E+02;
  1.7103936E-01;  9.9999998E-03;  4.0011380E-02;3517; -2.2577790E-03;  0.0000000E+00; -3.2920318E-05;  1.0002444E+03;  1.0000000E-01;  2.0246341E+02;3;  7.3824936E-01;  0.0000000E+00; -1.3846178E-02;0; -1.0336302E-02;  4.0012016E+04;  0.0000000E+00; -1.6550923E-02;  4.0000000E+04;  0.0000000E+00;  4.0002227E+04; -1.0078422E-02;  0.0000000E+00; -2.5788025E-04;  2.8572150E+02;
  1.7103289E-01;  9.9999998E-03;  5.0012503E-02;3518; -2.2902312E-03;  0.0000000E+00; -4.6782450E-05;  1.0001972E+03;  1.0000000E-01;  1.6335341E+02;3;  7.2168010E-01;  0.0000000E+00; -1.5245228E-02;0; -1.0395668E-02;  4.0008770E+04;  0.0000000E+00; -2.0249031E-02;  4.0000000E+04;  0.0000000E+00;  4.0001809E+04; -1.0195848E-02;  0.0000000E+00; -1.9982109E-04;  2.2645790E+02;
  1.7104807E-01;  9.9999998E-03;  6.0016293E-02;3519; -2.3234161E-03;  0.0000000E+00; -5.9560665E-05;  1.0001561E+03;  1.0000000E-01;  1.2937906E+02;3;  7.0423317E-01;  0.0000000E+00; -1.5834622E-02;0; -1.0381383E-02;  4.0005582E+04;  0.0000000E+00; -2.1939903E-02;  4.0000000E+04;  0.0000000E+00;  4.0001895E+04; -1.0265755E-02;  0.0000000E+00; -1.1562880E-04;  2.5869971E+02;
  1.8118253E-01;  9.9999998E-03; -1.0007347E-01;3564; -2.6568065E-03;  0.0000000E+00;  3.7994458E-05;  1.0002937E+03;  1.0000000E-01;  2.4335114E+02;3;  6.3493079E-01;  0.0000000E+00; -2.1319452E-03;0; -9.5025022E-03;  4.0011953E+04;  0.0000000E+00; -2.7882390E-02;  4.0000000E+04;  0.0000000E+00;  4.0006047E+04; -9.7372970E-03;  0.0000000E+00;  2.3479515E-04;  7.7578046E+02;
  1.8114531E-01;  9.9999998E-03; -9.0074763E-02;3565; -2.6572070E-03;  0.0000000E+00;  5.6535620E-05;  1.0002291E+03;  1.0000000E-01;  1.8982179E+02;3;  6.4969665E-01;  0.0000000E+00;  8.0354296E-04;0; -9.9274237E-03;  4.0009379E+04;  0.0000000E+00; -2.4250031E-02;  4.0000000E+04;  0.0000000E+00;  4.0003766E+04; -1.0085950E-02;  0.0000000E+00;  1.5852583E-04;  4.6263959E+02;
  1.8112575E-01;  9.9999998E-03; -8.0072887E-02;3566; -2.6425030E-03;  0.0000000E+00;  6.5104832E-05;  1.0001977E+03;  1.0000000E-01;  1.6374846E+02;3;  6.6641182E-01;  0.0000000E+00;  2.0398139E-03;0; -1.0247116E-02;  4.0009301E+04;  0.0000000E+00; -2.6146989E-02;  4.0000000E+04;  0.0000000E+00;  4.0001012E+04; -1.0305878E-02;  0.0000000E+00;  5.8762220E-05;  1.5126651E+02;
  1.8112490E-01;  9.9999998E-03; -7.0067167E-02;3567; -2.6154520E-03;  0.0000000E+00;  6.3414343E-05;  1.0002034E+03;  1.0000000E-01;  1.6848906E+02;3;  6.8482023E-01;  0.0000000E+00;  3.1586986E-03;0; -1.0450458E-02;  4.0011039E+04;  0.0000000E+00; -2.9592549E-02;  4.0000000E+04;  0.0000000E+00;  3.9999055E+04; -1.0405155E-02;  0.0000000E+00; -4.5303379E-05;  1.1500358E+02;
  1.8113789E-01;  9.9999998E-03; -6.0058139E-02;3568; -2.5796546E-03;  0.0000000E+00;  5.4519231E-05;  1.0002257E+03;  1.0000000E-01;  1.8695767E+02;3;  7.0600981E-01;  0.0000000E+00;  4.0096655E-03;0; -1.0539169E-02;  4.0014008E+04;  0.0000000E+00; -3.1350691E-02;  4.0000000E+04;  0.0000000E+00;  3.9997676E+04; -1.0402560E-02;  0.0000000E+00; -1.3660964E-04;  2.6181570E+02;
  1.8116204E-01;  9.9999998E-03; -5.0048567E-02;3569; -2.5390689E-03;  0.0000000E+00;  4.1990304E-05;  1.0002728E+03;  1.0000000E-01;  2.2596892E+02;3;  7.2959930E-01;  0.0000000E+00;  5.1910770E-03;0; -1.0528699E-02;  4.0017828E+04;  0.0000000E+00; -2.9591162E-02;  4.0000000E+04;  0.0000000E+00;  3.9997570E+04; -1.0324622E-02;  0.0000000E+00; -2.0407805E-04;  2.9987967E+02;
  1.8119343E-01;  9.9999998E-03; -4.0042229E-02;3570; -2.4979771E-03;  0.0000000E+00;  2.9040477E-05;  1.0003244E+03;  1.0000000E-01;  2.6873315E+02;3;  7.5231272E-01;  0.0000000E+00;  6.1492058E-03;0; -1.0446406E-02;  4.0021586E+04;  0.0000000E+00; -2.4142129E-02;  4.0000000E+04;  0.0000000E+00;  3.9997969E+04; -1.0202159E-02;  0.0000000E+00; -2.4424668E-04;  2.4691660E+02;
  1.8122892E-01;  9.9999998E-03; -3.0041408E-02;3571; -2.4607566E-03;  0.0000000E+00;  1.7786369E-05;  1.0003770E+03;  1.0000000E-01;  3.1228748E+02;3;  7.7458185E-01;  0.0000000E+00;  7.2575547E-03;0; -1.0327321E-02;  4.0025027E+04;  0.0000000E+00; -1.6300173E-02;  4.0000000E+04;  0.0000000E+00;  3.9998840E+04; -1.0066586E-02;  0.0000000E+00; -2.6073540E-04;  1.4522676E+02;
  1.8125805E-01;  9.9999998E-03; -2.0040765E-02;3572; -2.4312064E-03;  0.0000000E+00;  9.4036113E-06;  1.0004208E+03;  1.0000000E-01;  3.4863211E+02;3;  7.9027116E-01;  0.0000000E+00;  6.1850436E-03;0; -1.0208379E-02;  4.0027523E+04;  0.0000000E+00; -8.2288515E-03;  4.0000000E+04;  0.0000000E+00;  3.9999754E+04; -9.9464580E-03;  0.0000000E+00; -2.6192085E-04;  4.1780895E+01;
  1.8127653E-01;  9.9999998E-03; -1.0029861E-02;3573; -2.4121795E-03;  0.0000000E+00;  3.8486396E-06;  1.0004457E+03;  1.0000000E-01;  3.6927350E+02;3;  7.9909152E-01;  0.0000000E+00;  3.4516030E-03;0; -1.0121912E-02;  4.0029188E+04;  0.0000000E+00; -2.2204944E-03;  4.0000000E+04;  0.0000000E+00;  4.0000145E+04; -9.8644132E-03;  0.0000000E+00; -2.5749870E-04;  3.1259605E+01;
  1.8128511E-01;  9.9999998E-03; -1.1233568E-10;3574; -2.4056248E-03;  0.0000000E+00;  4.2627513E-10;  1.0004570E+03;  1.0000000E-01;  3.7865594E+02;3;  8.0219460E-01;  0.0000000E+00;  7.3750116E-06;0; -1.0090300E-02;  4.0029684E+04;  0.0000000E+00; -6.0070162E-13;  4.0000000E+04;  0.0000000E+00;  4.0000684E+04; -9.8352516E-03;  0.0000000E+00; -2.5504862E-04;  5.5375454E+01;
  1.8127653E-01;  9.9999998E-03;  1.0029861E-02;3575; -2.4121800E-03;  0.0000000E+00; -3.8471962E-06;  1.0004457E+03;  1.0000000E-01;  3.6927350E+02;3;  7.9910982E-01;  0.0000000E+00; -3.4270203E-03;0; -1.0121928E-02;  4.0029188E+04;  0.0000000E+00; -2.2206963E-03;  4.0000000E+04;  0.0000000E+00;  4.0000145E+04; -9.8644281E-03;  0.0000000E+00; -2.5749940E-04;  3.1261820E+01;
  1.8125804E-01;  9.9999998E-03;  2.0040765E-02;3576; -2.4312066E-03;  0.0000000E+00; -9.4023735E-06;  1.0004208E+03;  1.0000000E-01;  3.4863211E+02;3;  7.9029316E-01;  0.0000000E+00; -6.1574229E-03;0; -1.0208369E-02;  4.0027523E+04;  0.0000000E+00; -8.2290964E-03;  4.0000000E+04;  0.0000000E+00;  3.9999754E+04; -9.9464469E-03;  0.0000000E+00; -2.6192237E-04;  4.1779999E+01;
  1.8122892E-01;  9.9999998E-03;  3.0041408E-02;3577; -2.4607601E-03;  0.0000000E+00; -1.7785507E-05;  1.0003769E+03;  1.0000000E-01;  3.1228748E+02;3;  7.7458149E-01;  0.0000000E+00; -7.2536059E-03;0; -1.0327341E-02;  4.0025031E+04;  0.0000000E+00; -1.6300699E-02;  4.0000000E+04;  0.0000000E+00;  3.9998840E+04; -1.0066602E-02;  0.0000000E+00; -2.6073880E-04;  1.4521678E+02;
  1.8119343E-01;  9.9999998E-03;  4.0042229E-02;3578; -2.4979794E-03;  0.0000000E+00; -2.9039280E-05;  1.0003244E+03;  1.0000000E-01;  2.6873315E+02;3;  7.5232154E-01;  0.0000000E+00; -6.1484925E-03;0; -1.0446427E-02;  4.0021586E+04;  0.0000000E+00; -2.4141939E-02;  4.0000000E+04;  0.0000000E+00;  3.9997969E+04; -1.0202174E-02;  0.0000000E+00; -2.4425288E-04;  2.4691040E+02;
  1.8116204E-01;  9.9999998E-03;  5.0048567E-02;3579; -2.5390713E-03;  0.0000000E+00; -4.1989602E-05;  1.0002728E+03;  1.0000000E-01;  2.2596892E+02;3;  7.2960275E-01;  0.0000000E+00; -5.2202917E-03;0; -1.0528717E-02;  4.0017824E+04;  0.0000000E+00; -2.9591948E-02;  4.0000000E+04;  0.0000000E+00;  3.9997570E+04; -1.0324631E-02;  0.0000000E+00; -2.0408626E-04;  2.9987125E+02;
  1.8113789E-01;  9.9999998E-03;  6.0058139E-02;3580; -2.5796597E-03;  0.0000000E+00; -5.4520071E-05;  1.0002257E+03;  1.0000000E-01;  1.8695767E+02;3;  7.0600659E-01;  0.0000000E+00; -4.0407735E-03;0; -1.0539200E-02;  4.0014008E+04;  0.0000000E+00; -3.1351626E-02;  4.0000000E+04;  0.0000000E+00;  3.9997676E+04; -1.0402579E-02;  0.0000000E+00; -1.3662102E-04;  2.6181299E+02;
  1.9117098E-01;  9.9999998E-03; -1.0009844E-01;3625; -2.8863230E-03;  0.0000000E+00;  4.4198481E-05;  1.0003944E+03;  1.0000000E-01;  3.2680557E+02;3;  6.3083678E-01;  0.0000000E+00; -1.9665562E-02;0; -9.1033997E-03;  4.0024277E+04;  0.0000000E+00; -1.7031685E-02;  4.0000000E+04;  0.0000000E+00;  4.0001090E+04; -9.3154041E-03;  0.0000000E+00;  2.1200415E-04;  1.6671039E+02;
  1.9117820E-01;  9.9999998E-03; -9.0096667E-02;3626; -2.8917072E-03;  0.0000000E+00;  5.5328146E-05;  1.0003459E+03;  1.0000000E-01;  2.8660919E+02;3;  6.4413953E-01;  0.0000000E+00; -1.8647948E-02;0; -9.4965929E-03;  4.0022672E+04;  0.0000000E+00; -2.0228293E-02;  4.0000000E+04;  0.0000000E+00;  3.9998891E+04; -9.6244346E-03;  0.0000000E+00;  1.2784194E-04;  1.3370006E+02;
  1.9119859E-01;  9.9999998E-03; -8.0092385E-02;3627; -2.8773339E-03;  0.0000000E+00;  5.7119592E-05;  1.0003314E+03;  1.0000000E-01;  2.7456015E+02;3;  6.5948033E-01;  0.0000000E+00; -1.8129148E-02;0; -9.7813178E-03;  4.0023855E+04;  0.0000000E+00; -2.7644189E-02;  4.0000000E+04;  0.0000000E+00;  3.9996531E+04; -9.8093310E-03;  0.0000000E+00;  2.8013210E-05;  4.2661093E+02;
  1.9122501E-01;  9.9999998E-03; -7.0085205E-02;3628; -2.8465495E-03;  0.0000000E+00;  5.1113126E-05;  1.0003497E+03;  1.0000000E-01;  2.8976959E+02;3;  6.7494243E-01;  0.0000000E+00; -1.6705833E-02;0; -9.9500669E-03;  4.0026980E+04;  0.0000000E+00; -3.4422059E-02;  4.0000000E+04;  0.0000000E+00;  3.9994707E+04; -9.8814433E-03;  0.0000000E+00; -6.8623289E-05;  6.6140094E+02;
  1.9125125E-01;  9.9999998E-03; -6.0074754E-02;3629; -2.8036206E-03;  0.0000000E+00;  4.0541989E-05;  1.0003964E+03;  1.0000000E-01;  3.2838577E+02;3;  6.9370121E-01;  0.0000000E+00; -1.4403060E-02;0; -1.0007463E-02;  4.0031301E+04;  0.0000000E+00; -3.7335586E-02;  4.0000000E+04;  0.0000000E+00;  3.9993504E+04; -9.8610148E-03;  0.0000000E+00; -1.4644887E-04;  7.9759570E+02;
  1.9127509E-01;  9.9999998E-03; -5.0063491E-02;3630; -2.7537146E-03;  0.0000000E+00;  2.8502816E-05;  1.0004574E+03;  1.0000000E-01;  3.7895224E+02;3;  7.1332163E-01;  0.0000000E+00; -1.1651864E-02;0; -9.9707367E-03;  4.0036277E+04;  0.0000000E+00; -3.5109140E-02;  4.0000000E+04;  0.0000000E+00;  3.9993652E+04; -9.7741969E-03;  0.0000000E+00; -1.9653996E-04;  8.2410553E+02;
  1.9129786E-01;  9.9999998E-03; -4.0054016E-02;3631; -2.7020893E-03;  0.0000000E+00;  1.7553088E-05;  1.0005236E+03;  1.0000000E-01;  4.3376550E+02;3;  7.3564082E-01;  0.0000000E+00; -8.7018386E-03;0; -9.8676514E-03;  4.0041117E+04;  0.0000000E+00; -2.8300138E-02;  4.0000000E+04;  0.0000000E+00;  3.9994570E+04; -9.6497713E-03;  0.0000000E+00; -2.1788004E-04;  7.6078503E+02;
  1.9132695E-01;  9.9999998E-03; -3.0051772E-02;3632; -2.6546621E-03;  0.0000000E+00;  9.1468964E-06;  1.0005853E+03;  1.0000000E-01;  4.8492456E+02;3;  7.5856495E-01;  0.0000000E+00; -5.4467404E-03;0; -9.7324541E-03;  4.0045406E+04;  0.0000000E+00; -1.8868672E-02;  4.0000000E+04;  0.0000000E+00;  3.9995531E+04; -9.5159793E-03;  0.0000000E+00; -2.1647495E-04;  6.5051477E+02;
  1.9135937E-01;  9.9999998E-03; -2.0051148E-02;3633; -2.6164141E-03;  0.0000000E+00;  3.8478183E-06;  1.0006391E+03;  1.0000000E-01;  5.2946649E+02;3;  7.7737987E-01;  0.0000000E+00; -2.5872481E-03;0; -9.6015567E-03;  4.0048887E+04;  0.0000000E+00; -9.4332881E-03;  4.0000000E+04;  0.0000000E+00;  3.9995766E+04; -9.3986802E-03;  0.0000000E+00; -2.0287685E-04;  5.4101898E+02;
  1.9138449E-01;  9.9999998E-03; -1.0037735E-02;3634; -2.5914831E-03;  0.0000000E+00;  1.1790586E-06;  1.0006714E+03;  1.0000000E-01;  5.5623120E+02;3;  7.9205424E-01;  0.0000000E+00; -1.3754396E-03;0; -9.5076524E-03;  4.0050809E+04;  0.0000000E+00; -2.5309955E-03;  4.0000000E+04;  0.0000000E+00;  3.9996891E+04; -9.3189878E-03;  0.0000000E+00; -1.8866410E-04;  4.6657898E+02;
  1.9139522E-01;  9.9999998E-03; -6.3749478E-11;3635; -2.5828353E-03;  0.0000000E+00;  7.7891316E-10;  1.0006856E+03;  1.0000000E-01;  5.6798395E+02;3;  7.9689330E-01;  0.0000000E+00;  8.3095629E-06;0; -9.4734188E-03;  4.0051707E+04;  0.0000000E+00; -1.0329043E-12;  4.0000000E+04;  0.0000000E+00;  3.9997129E+04; -9.2906384E-03;  0.0000000E+00; -1.8278029E-04;  4.4130518E+02;
  1.9138449E-01;  9.9999998E-03;  1.0037735E-02;3636; -2.5914845E-03;  0.0000000E+00; -1.1768286E-06;  1.0006713E+03;  1.0000000E-01;  5.5613245E+02;3;  7.9205704E-01;  0.0000000E+00;  1.4031312E-03;0; -9.5076459E-03;  4.0050809E+04;  0.0000000E+00; -2.5312123E-03;  4.0000000E+04;  0.0000000E+00;  3.9996891E+04; -9.3189813E-03;  0.0000000E+00; -1.8866480E-04;  4.6657495E+02;
  1.9135937E-01;  9.9999998E-03;  2.0051148E-02;3637; -2.6164160E-03;  0.0000000E+00; -3.8455510E-06;  1.0006391E+03;  1.0000000E-01;  5.2946649E+02;3;  7.7740008E-01;  0.0000000E+00;  2.5974328E-03;0; -9.6015558E-03;  4.0048887E+04;  0.0000000E+00; -9.4336169E-03;  4.0000000E+04;  0.0000000E+00;  3.9995766E+04; -9.3986765E-03;  0.0000000E+00; -2.0287903E-04;  5.4101520E+02;
  1.9132695E-01;  9.9999998E-03;  3.0051772E-02;3638; -2.6546628E-03;  0.0000000E+00; -9.1456805E-06;  1.0005853E+03;  1.0000000E-01;  4.8492456E+02;3;  7.5858754E-01;  0.0000000E+00;  5.4496969E-03;0; -9.7324615E-03;  4.0045410E+04;  0.0000000E+00; -1.8869014E-02;  4.0000000E+04;  0.0000000E+00;  3.9995531E+04; -9.5159821E-03;  0.0000000E+00; -2.1647896E-04;  6.5050647E+02;
  1.9129786E-01;  9.9999998E-03;  4.0054016E-02;3639; -2.7020914E-03;  0.0000000E+00; -1.7551349E-05;  1.0005236E+03;  1.0000000E-01;  4.3376550E+02;3;  7.3568696E-01;  0.0000000E+00;  8.6931437E-03;0; -9.8676663E-03;  4.0041113E+04;  0.0000000E+00; -2.8301844E-02;  4.0000000E+04;  0.0000000E+00;  3.9994570E+04; -9.6497796E-03;  0.0000000E+00; -2.1788635E-04;  7.6077533E+02;
  1.9127509E-01;  9.9999998E-03;  5.0063491E-02;3640; -2.7537213E-03;  0.0000000E+00; -2.8501716E-05;  1.0004574E+03;  1.0000000E-01;  3.7895224E+02;3;  7.1329224E-01;  0.0000000E+00;  1.1644285E-02;0; -9.9707507E-03;  4.0036277E+04;  0.0000000E+00; -3.5110496E-02;  4.0000000E+04;  0.0000000E+00;  3.9993652E+04; -9.7742015E-03;  0.0000000E+00; -1.9654895E-04;  8.2409271E+02;
  1.9125125E-01;  9.9999998E-03;  6.0074754E-02;3641; -2.8036265E-03;  0.0000000E+00; -4.0541621E-05;  1.0003965E+03;  1.0000000E-01;  3.2848453E+02;3;  6.9376761E-01;  0.0000000E+00;  1.4383265E-02;0; -1.0007495E-02;  4.0031293E+04;  0.0000000E+00; -3.7336577E-02;  4.0000000E+04;  0.0000000E+00;  3.9993504E+04; -9.8610343E-03;  0.0000000E+00; -1.4646068E-04;  7.9758533E+02;
  2.0121345E-01;  9.9999998E-03; -1.0010201E-01;3686; -3.0820686E-03;  0.0000000E+00;  4.8016766E-05;  1.0005119E+03;  1.0000000E-01;  4.2408676E+02;3;  6.3185495E-01;  0.0000000E+00; -3.4701213E-02;0; -8.1249094E-03;  4.0038602E+04;  0.0000000E+00;  4.7421218E-03;  4.0000000E+04;  0.0000000E+00;  3.9996641E+04; -8.3289640E-03;  0.0000000E+00;  2.0405471E-04;  4.4886935E+02;
  2.0125355E-01;  9.9999998E-03; -9.0094626E-02;3687; -3.0910517E-03;  0.0000000E+00;  4.8681173E-05;  1.0005004E+03;  1.0000000E-01;  4.1450681E+02;3;  6.4623350E-01;  0.0000000E+00; -3.4544837E-02;0; -8.4718224E-03;  4.0039598E+04;  0.0000000E+00; -5.8697467E-03;  4.0000000E+04;  0.0000000E+00;  3.9994387E+04; -8.5807564E-03;  0.0000000E+00;  1.0893401E-04;  7.1749579E+02;
  2.0129883E-01;  9.9999998E-03; -8.0084316E-02;3688; -3.0761156E-03;  0.0000000E+00;  4.1099916E-05;  1.0005190E+03;  1.0000000E-01;  4.3001254E+02;3;  6.6111076E-01;  0.0000000E+00; -3.4493465E-02;0; -8.7129744E-03;  4.0043039E+04;  0.0000000E+00; -1.8284429E-02;  4.0000000E+04;  0.0000000E+00;  3.9992512E+04; -8.7197106E-03;  0.0000000E+00;  6.7364931E-06;  9.7998077E+02;
  2.0134354E-01;  9.9999998E-03; -7.0070215E-02;3689; -3.0413507E-03;  0.0000000E+00;  2.8085107E-05;  1.0005654E+03;  1.0000000E-01;  4.6843118E+02;3;  6.7622942E-01;  0.0000000E+00; -3.4308873E-02;0; -8.8438466E-03;  4.0048125E+04;  0.0000000E+00; -2.7895048E-02;  4.0000000E+04;  0.0000000E+00;  3.9990820E+04; -8.7596998E-03;  0.0000000E+00; -8.4146908E-05;  1.1836230E+03;
  2.0137778E-01;  9.9999998E-03; -6.0052004E-02;3690; -2.9919595E-03;  0.0000000E+00;  1.2959012E-05;  1.0006298E+03;  1.0000000E-01;  5.2176300E+02;3;  6.9241989E-01;  0.0000000E+00; -3.3214848E-02;0; -8.8716997E-03;  4.0054414E+04;  0.0000000E+00; -3.2284416E-02;  4.0000000E+04;  0.0000000E+00;  3.9990055E+04; -8.7220296E-03;  0.0000000E+00; -1.4967009E-04;  1.2909919E+03;
  2.0139739E-01;  9.9999998E-03; -5.0031930E-02;3691; -2.9336310E-03;  0.0000000E+00; -1.0021099E-06;  1.0007122E+03;  1.0000000E-01;  5.9000800E+02;3;  7.0839262E-01;  0.0000000E+00; -3.2860167E-02;0; -8.8146972E-03;  4.0060758E+04;  0.0000000E+00; -3.0988177E-02;  4.0000000E+04;  0.0000000E+00;  3.9990215E+04; -8.6315172E-03;  0.0000000E+00; -1.8317954E-04;  1.2907848E+03;
  2.0140868E-01;  9.9999998E-03; -4.0014800E-02;3692; -2.8720603E-03;  0.0000000E+00; -1.0699840E-05;  1.0007938E+03;  1.0000000E-01;  6.5766040E+02;3;  7.2582620E-01;  0.0000000E+00; -3.0237511E-02;0; -8.6993854E-03;  4.0066723E+04;  0.0000000E+00; -2.5088958E-02;  4.0000000E+04;  0.0000000E+00;  3.9990387E+04; -8.5131805E-03;  0.0000000E+00; -1.8620516E-04;  1.2024073E+03;
  2.0142543E-01;  9.9999998E-03; -3.0008547E-02;3693; -2.8138154E-03;  0.0000000E+00; -1.4185882E-05;  1.0008703E+03;  1.0000000E-01;  7.2106604E+02;3;  7.4497187E-01;  0.0000000E+00; -2.5854189E-02;0; -8.5573280E-03;  4.0071730E+04;  0.0000000E+00; -1.6695149E-02;  4.0000000E+04;  0.0000000E+00;  3.9991918E+04; -8.3900495E-03;  0.0000000E+00; -1.6727844E-04;  1.0696027E+03;
  2.0144588E-01;  9.9999998E-03; -2.0009594E-02;3694; -2.7648120E-03;  0.0000000E+00; -1.1290645E-05;  1.0009286E+03;  1.0000000E-01;  7.6936096E+02;3;  7.6533413E-01;  0.0000000E+00; -1.8235736E-02;0; -8.4232446E-03;  4.0075711E+04;  0.0000000E+00; -8.3098626E-03;  4.0000000E+04;  0.0000000E+00;  3.9993039E+04; -8.2840016E-03;  0.0000000E+00; -1.3924339E-04;  9.4055762E+02;
  2.0146285E-01;  9.9999998E-03; -1.0009510E-02;3695; -2.7325186E-03;  0.0000000E+00; -5.8710466E-06;  1.0009707E+03;  1.0000000E-01;  8.0422418E+02;3;  7.7977759E-01;  0.0000000E+00; -7.8179175E-03;0; -8.3281910E-03;  4.0078062E+04;  0.0000000E+00; -2.2190134E-03;  4.0000000E+04;  0.0000000E+00;  3.9993840E+04; -8.2126539E-03;  0.0000000E+00; -1.1553737E-04;  8.5155188E+02;
  2.0147155E-01;  9.9999998E-03;  3.2622106E-11;3696; -2.7211974E-03;  0.0000000E+00;  1.6870729E-09;  1.0009849E+03;  1.0000000E-01;  8.1597693E+02;3;  7.8569096E-01;  0.0000000E+00;  1.8556850E-05;0; -8.2935616E-03;  4.0078844E+04;  0.0000000E+00; -1.2823422E-12;  4.0000000E+04;  0.0000000E+00;  3.9994051E+04; -8.1872204E-03;  0.0000000E+00; -1.0634123E-04;  8.2065436E+02;
  2.0146285E-01;  9.9999998E-03;  1.0009510E-02;3697; -2.7325191E-03;  0.0000000E+00;  5.8739361E-06;  1.0009708E+03;  1.0000000E-01;  8.0422418E+02;3;  7.7977657E-01;  0.0000000E+00;  7.8432178E-03;0; -8.3281845E-03;  4.0078062E+04;  0.0000000E+00; -2.2194106E-03;  4.0000000E+04;  0.0000000E+00;  3.9993840E+04; -8.2126455E-03;  0.0000000E+00; -1.1553851E-04;  8.5154675E+02;
  2.0144588E-01;  9.9999998E-03;  2.0009594E-02;3698; -2.7648150E-03;  0.0000000E+00;  1.1294216E-05;  1.0009286E+03;  1.0000000E-01;  7.6936096E+02;3;  7.6533782E-01;  0.0000000E+00;  1.8257560E-02;0; -8.4232520E-03;  4.0075711E+04;  0.0000000E+00; -8.3102398E-03;  4.0000000E+04;  0.0000000E+00;  3.9993039E+04; -8.2840063E-03;  0.0000000E+00; -1.3924587E-04;  9.4054950E+02;
  2.0142543E-01;  9.9999998E-03;  3.0008547E-02;3699; -2.8138196E-03;  0.0000000E+00;  1.4187810E-05;  1.0008703E+03;  1.0000000E-01;  7.2106604E+02;3;  7.4496913E-01;  0.0000000E+00;  2.5859907E-02;0; -8.5573308E-03;  4.0071730E+04;  0.0000000E+00; -1.6695825E-02;  4.0000000E+04;  0.0000000E+00;  3.9991918E+04; -8.3900485E-03;  0.0000000E+00; -1.6728276E-04;  1.0695883E+03;
  2.0140868E-01;  9.9999998E-03;  4.0014803E-02;3700; -2.8720659E-03;  0.0000000E+00;  1.0701442E-05;  1.0007939E+03;  1.0000000E-01;  6.5775916E+02;3;  7.2580093E-01;  0.0000000E+00;  3.0236801E-02;0; -8.6994078E-03;  4.0066727E+04;  0.0000000E+00; -2.5089065E-02;  4.0000000E+04;  0.0000000E+00;  3.9990387E+04; -8.5131964E-03;  0.0000000E+00; -1.8621140E-04;  1.2024005E+03;
  2.0139739E-01;  9.9999998E-03;  5.0031934E-02;3701; -2.9336365E-03;  0.0000000E+00;  1.0038799E-06;  1.0007122E+03;  1.0000000E-01;  5.9000800E+02;3;  7.0840663E-01;  0.0000000E+00;  3.2839298E-02;0; -8.8147288E-03;  4.0060762E+04;  0.0000000E+00; -3.0989200E-02;  4.0000000E+04;  0.0000000E+00;  3.9990215E+04; -8.6315405E-03;  0.0000000E+00; -1.8318873E-04;  1.2907750E+03;
  2.0137778E-01;  9.9999998E-03;  6.0052004E-02;3702; -2.9919688E-03;  0.0000000E+00; -1.2957751E-05;  1.0006298E+03;  1.0000000E-01;  5.2176300E+02;3;  6.9243813E-01;  0.0000000E+00;  3.3186790E-02;0; -8.8717332E-03;  4.0054414E+04;  0.0000000E+00; -3.2282498E-02;  4.0000000E+04;  0.0000000E+00;  3.9990059E+04; -8.7220510E-03;  0.0000000E+00; -1.4968221E-04;  1.2909838E+03;
  2.1137957E-01;  9.9999998E-03; -1.0005129E-01;3747; -3.2356908E-03;  0.0000000E+00;  4.7170197E-05;  1.0006546E+03;  1.0000000E-01;  5.4230566E+02;3;  6.3803053E-01;  0.0000000E+00; -4.9106825E-02;0; -6.6893008E-03;  4.0054691E+04;  0.0000000E+00;  4.2204149E-02;  4.0000000E+04;  0.0000000E+00;  3.9991730E+04; -6.8949726E-03;  0.0000000E+00;  2.0567200E-04;  1.0107515E+03;
  2.1144469E-01;  9.9999998E-03; -9.0033829E-02;3748; -3.2463323E-03;  0.0000000E+00;  3.7002319E-05;  1.0006859E+03;  1.0000000E-01;  5.6828021E+02;3;  6.5243757E-01;  0.0000000E+00; -4.9547046E-02;0; -6.9819828E-03;  4.0058930E+04;  0.0000000E+00;  2.3932075E-02;  4.0000000E+04;  0.0000000E+00;  3.9990344E+04; -7.0790648E-03;  0.0000000E+00;  9.7082055E-05;  1.2448462E+03;
  2.1147932E-01;  9.9999998E-03; -8.0021381E-02;3749; -3.2290074E-03;  0.0000000E+00;  1.9482908E-05;  1.0007410E+03;  1.0000000E-01;  6.1390857E+02;3;  6.6699648E-01;  0.0000000E+00; -4.9367756E-02;0; -7.1823951E-03;  4.0064938E+04;  0.0000000E+00;  6.6640466E-03;  4.0000000E+04;  0.0000000E+00;  3.9988645E+04; -7.1728784E-03;  0.0000000E+00; -9.5167243E-06;  1.4628074E+03;
  2.1148591E-01;  9.9999998E-03; -7.0010334E-02;3750; -3.1887190E-03;  0.0000000E+00; -1.6185165E-06;  1.0008076E+03;  1.0000000E-01;  6.6911688E+02;3;  6.8213701E-01;  0.0000000E+00; -4.9226079E-02;0; -7.2876434E-03;  4.0071770E+04;  0.0000000E+00; -6.2943101E-03;  4.0000000E+04;  0.0000000E+00;  3.9987664E+04; -7.1911658E-03;  0.0000000E+00; -9.6477714E-05;  1.6191074E+03;
  2.1147166E-01;  9.9999998E-03; -5.9997022E-02;3751; -3.1317526E-03;  0.0000000E+00; -2.2845919E-05;  1.0008927E+03;  1.0000000E-01;  7.3963342E+02;3;  6.9688207E-01;  0.0000000E+00; -4.8508927E-02;0; -7.3034088E-03;  4.0078988E+04;  0.0000000E+00; -1.3757626E-02;  4.0000000E+04;  0.0000000E+00;  3.9987020E+04; -7.1517099E-03;  0.0000000E+00; -1.5169912E-04;  1.6814640E+03;
  2.1144542E-01;  9.9999998E-03; -4.9982388E-02;3752; -3.0647814E-03;  0.0000000E+00; -4.0996703E-05;  1.0009810E+03;  1.0000000E-01;  8.1271777E+02;3;  7.1175998E-01;  0.0000000E+00; -4.7716983E-02;0; -7.2448268E-03;  4.0085949E+04;  0.0000000E+00; -1.5959090E-02;  4.0000000E+04;  0.0000000E+00;  3.9987254E+04; -7.0739109E-03;  0.0000000E+00; -1.7091603E-04;  1.6410011E+03;
  2.1142061E-01;  9.9999998E-03; -3.9972194E-02;3753; -2.9947343E-03;  0.0000000E+00; -5.2477259E-05;  1.0010714E+03;  1.0000000E-01;  8.8757983E+02;3;  7.2799665E-01;  0.0000000E+00; -4.6552803E-02;0; -7.1345749E-03;  4.0091977E+04;  0.0000000E+00; -1.4053016E-02;  4.0000000E+04;  0.0000000E+00;  3.9988809E+04; -6.9765085E-03;  0.0000000E+00; -1.5806653E-04;  1.5182136E+03;
  2.1140912E-01;  9.9999998E-03; -2.9973004E-02;3754; -2.9283788E-03;  0.0000000E+00; -5.4241671E-05;  1.0011493E+03;  1.0000000E-01;  9.5217059E+02;3;  7.4484164E-01;  0.0000000E+00; -4.2303078E-02;0; -7.0009772E-03;  4.0097285E+04;  0.0000000E+00; -9.7547406E-03;  4.0000000E+04;  0.0000000E+00;  3.9989844E+04; -6.8770372E-03;  0.0000000E+00; -1.2393994E-04;  1.3567423E+03;
  2.1140666E-01;  9.9999998E-03; -1.9980583E-02;3755; -2.8721828E-03;  0.0000000E+00; -4.4947188E-05;  1.0012132E+03;  1.0000000E-01;  1.0051074E+03;3;  7.6171714E-01;  0.0000000E+00; -3.5168421E-02;0; -6.8759713E-03;  4.0101152E+04;  0.0000000E+00; -4.9629998E-03;  4.0000000E+04;  0.0000000E+00;  3.9991102E+04; -6.7926119E-03;  0.0000000E+00; -8.3359453E-05;  1.2041265E+03;
  2.1140654E-01;  9.9999998E-03; -9.9900421E-03;3756; -2.8329908E-03;  0.0000000E+00; -2.6288581E-05;  1.0012518E+03;  1.0000000E-01;  1.0371064E+03;3;  7.7360481E-01;  0.0000000E+00; -2.3626925E-02;0; -6.7880652E-03;  4.0103523E+04;  0.0000000E+00; -1.3388027E-03;  4.0000000E+04;  0.0000000E+00;  3.9992102E+04; -6.7366627E-03;  0.0000000E+00; -5.1402647E-05;  1.0981743E+03;
  2.1140724E-01;  9.9999998E-03;  9.0658779E-11;3757; -2.8185272E-03;  0.0000000E+00;  2.0369482E-09;  1.0012665E+03;  1.0000000E-01;  1.0493530E+03;3;  7.7715528E-01;  0.0000000E+00;  1.4596437E-05;0; -6.7564133E-03;  4.0104238E+04;  0.0000000E+00; -1.0322873E-12;  4.0000000E+04;  0.0000000E+00;  3.9992371E+04; -6.7170621E-03;  0.0000000E+00; -3.9351340E-05;  1.0607343E+03;
  2.1140654E-01;  9.9999998E-03;  9.9900430E-03;3758; -2.8329929E-03;  0.0000000E+00;  2.6292193E-05;  1.0012518E+03;  1.0000000E-01;  1.0371064E+03;3;  7.7358466E-01;  0.0000000E+00;  2.3654357E-02;0; -6.7880759E-03;  4.0103527E+04;  0.0000000E+00; -1.3390983E-03;  4.0000000E+04;  0.0000000E+00;  3.9992102E+04; -6.7366720E-03;  0.0000000E+00; -5.1403858E-05;  1.0981661E+03;
  2.1140666E-01;  9.9999998E-03;  1.9980583E-02;3759; -2.8721839E-03;  0.0000000E+00;  4.4950546E-05;  1.0012132E+03;  1.0000000E-01;  1.0051074E+03;3;  7.6173151E-01;  0.0000000E+00;  3.5184268E-02;0; -6.8759797E-03;  4.0101148E+04;  0.0000000E+00; -4.9637761E-03;  4.0000000E+04;  0.0000000E+00;  3.9991102E+04; -6.7926175E-03;  0.0000000E+00; -8.3362014E-05;  1.2041238E+03;
  2.1140912E-01;  9.9999998E-03;  2.9973006E-02;3760; -2.9283827E-03;  0.0000000E+00;  5.4245011E-05;  1.0011494E+03;  1.0000000E-01;  9.5217059E+02;3;  7.4485463E-01;  0.0000000E+00;  4.2305287E-02;0; -7.0009907E-03;  4.0097285E+04;  0.0000000E+00; -9.7554326E-03;  4.0000000E+04;  0.0000000E+00;  3.9989844E+04; -6.8770465E-03;  0.0000000E+00; -1.2394432E-04;  1.3567361E+03;
  2.1142061E-01;  9.9999998E-03;  3.9972194E-02;3761; -2.9947406E-03;  0.0000000E+00;  5.2480009E-05;  1.0010714E+03;  1.0000000E-01;  8.8767859E+02;3;  7.2798383E-01;  0.0000000E+00;  4.6545960E-02;0; -7.1345884E-03;  4.0091973E+04;  0.0000000E+00; -1.4053293E-02;  4.0000000E+04;  0.0000000E+00;  3.9988809E+04; -6.9765151E-03;  0.0000000E+00; -1.5807338E-04;  1.5182164E+03;
  2.1144542E-01;  9.9999998E-03;  4.9982388E-02;3762; -3.0647882E-03;  0.0000000E+00;  4.0998788E-05;  1.0009811E+03;  1.0000000E-01;  8.1281653E+02;3;  7.1178353E-01;  0.0000000E+00;  4.7694996E-02;0; -7.2448505E-03;  4.0085945E+04;  0.0000000E+00; -1.5960654E-02;  4.0000000E+04;  0.0000000E+00;  3.9987254E+04; -7.0739253E-03;  0.0000000E+00; -1.7092506E-04;  1.6409890E+03;
  2.1147166E-01;  9.9999998E-03;  5.9997022E-02;3763; -3.1317582E-03;  0.0000000E+00;  2.2847324E-05;  1.0008927E+03;  1.0000000E-01;  7.3963342E+02;3;  6.9690776E-01;  0.0000000E+00;  4.8475474E-02;0; -7.3034391E-03;  4.0078988E+04;  0.0000000E+00; -1.3760916E-02;  4.0000000E+04;  0.0000000E+00;  3.9987016E+04; -7.1517285E-03;  0.0000000E+00; -1.5171080E-04;  1.6814558E+03;
  2.2150464E-01;  9.9999998E-03; -9.9998400E-02;3808; -3.3379837E-03;  0.0000000E+00;  4.1470685E-05;  1.0008092E+03;  1.0000000E-01;  6.7040082E+02;3;  6.4342016E-01;  0.0000000E+00; -6.2628970E-02;0; -5.0014802E-03;  4.0071309E+04;  0.0000000E+00;  9.1096140E-02;  4.0000000E+04;  0.0000000E+00;  3.9988957E+04; -5.2114269E-03;  0.0000000E+00;  2.0994672E-04;  1.4449532E+03;
  2.2151156E-01;  9.9999998E-03; -8.9992911E-02;3809; -3.3467612E-03;  0.0000000E+00;  2.2272478E-05;  1.0008745E+03;  1.0000000E-01;  7.2452271E+02;3;  6.5784121E-01;  0.0000000E+00; -6.3161798E-02;0; -5.2540135E-03;  4.0077996E+04;  0.0000000E+00;  6.5012716E-02;  4.0000000E+04;  0.0000000E+00;  3.9987289E+04; -5.3412905E-03;  0.0000000E+00;  8.7277076E-05;  1.6346039E+03;
  2.2149329E-01;  9.9999998E-03; -7.9990558E-02;3810; -3.3241317E-03;  0.0000000E+00; -4.3371497E-06;  1.0009512E+03;  1.0000000E-01;  7.8812585E+02;3;  6.7275584E-01;  0.0000000E+00; -6.2428050E-02;0; -5.4284385E-03;  4.0085648E+04;  0.0000000E+00;  4.2720124E-02;  4.0000000E+04;  0.0000000E+00;  3.9986207E+04; -5.4034283E-03;  0.0000000E+00; -2.5010368E-05;  1.8032502E+03;
  2.2145680E-01;  9.9999998E-03; -6.9986790E-02;3811; -3.2754238E-03;  0.0000000E+00; -3.1648557E-05;  1.0010338E+03;  1.0000000E-01;  8.5646960E+02;3;  6.8786186E-01;  0.0000000E+00; -6.1892044E-02;0; -5.5218404E-03;  4.0092949E+04;  0.0000000E+00;  2.5647240E-02;  4.0000000E+04;  0.0000000E+00;  3.9985324E+04; -5.4114955E-03;  0.0000000E+00; -1.1034490E-04;  1.9111877E+03;
  2.2140819E-01;  9.9999998E-03; -5.9979666E-02;3812; -3.2085311E-03;  0.0000000E+00; -5.7955491E-05;  1.0011199E+03;  1.0000000E-01;  9.2787500E+02;3;  7.0291185E-01;  0.0000000E+00; -6.1248291E-02;0; -5.5390350E-03;  4.0100012E+04;  0.0000000E+00;  1.3661201E-02;  4.0000000E+04;  0.0000000E+00;  3.9985438E+04; -5.3806058E-03;  0.0000000E+00; -1.5842920E-04;  1.9294219E+03;
  2.2135478E-01;  9.9999998E-03; -4.9969982E-02;3813; -3.1306765E-03;  0.0000000E+00; -7.8737365E-05;  1.0012053E+03;  1.0000000E-01;  9.9849030E+02;3;  7.1791017E-01;  0.0000000E+00; -6.0126543E-02;0; -5.4926593E-03;  4.0106473E+04;  0.0000000E+00;  6.0319272E-03;  4.0000000E+04;  0.0000000E+00;  3.9986016E+04; -5.3255791E-03;  0.0000000E+00; -1.6708007E-04;  1.8511825E+03;
  2.2130884E-01;  9.9999998E-03; -3.9965171E-02;3814; -3.0508705E-03;  0.0000000E+00; -9.0673995E-05;  1.0012828E+03;  1.0000000E-01;  1.0627848E+03;3;  7.3427731E-01;  0.0000000E+00; -5.9203852E-02;0; -5.4014237E-03;  4.0111848E+04;  0.0000000E+00;  1.8336637E-03;  4.0000000E+04;  0.0000000E+00;  3.9987414E+04; -5.2591828E-03;  0.0000000E+00; -1.4224110E-04;  1.6981487E+03;
  2.2127898E-01;  9.9999998E-03; -2.9970169E-02;3815; -2.9760420E-03;  0.0000000E+00; -9.1438742E-05;  1.0013564E+03;  1.0000000E-01;  1.1238201E+03;3;  7.5209439E-01;  0.0000000E+00; -5.6244288E-02;0; -5.2893837E-03;  4.0115996E+04;  0.0000000E+00;  5.9144913E-05;  4.0000000E+04;  0.0000000E+00;  3.9988750E+04; -5.1928759E-03;  0.0000000E+00; -9.6507938E-05;  1.5130031E+03;
  2.2126110E-01;  9.9999998E-03; -1.9979917E-02;3816; -2.9137731E-03;  0.0000000E+00; -7.8114259E-05;  1.0014092E+03;  1.0000000E-01;  1.1675719E+03;3;  7.6933026E-01;  0.0000000E+00; -4.9208011E-02;0; -5.1838844E-03;  4.0119070E+04;  0.0000000E+00; -3.0661433E-04;  4.0000000E+04;  0.0000000E+00;  3.9990039E+04; -5.1376228E-03;  0.0000000E+00; -4.6261557E-05;  1.3422422E+03;
  2.2125141E-01;  9.9999998E-03; -9.9902907E-03;3817; -2.8718922E-03;  0.0000000E+00; -4.7391630E-05;  1.0014464E+03;  1.0000000E-01;  1.1982871E+03;3;  7.8283787E-01;  0.0000000E+00; -3.3319272E-02;0; -5.1092696E-03;  4.0120980E+04;  0.0000000E+00; -1.2952404E-04;  4.0000000E+04;  0.0000000E+00;  3.9991121E+04; -5.1013865E-03;  0.0000000E+00; -7.8832900E-06;  1.2242595E+03;
  2.2124901E-01;  9.9999998E-03;  9.8022680E-11;3818; -2.8570828E-03;  0.0000000E+00;  1.9426165E-09;  1.0014559E+03;  1.0000000E-01;  1.2061881E+03;3;  7.8833562E-01;  0.0000000E+00;  1.5522610E-05;0; -5.0822599E-03;  4.0121668E+04;  0.0000000E+00; -2.8336413E-13;  4.0000000E+04;  0.0000000E+00;  3.9991539E+04; -5.0886818E-03;  0.0000000E+00;  6.4219134E-06;  1.1824988E+03;
  2.2125141E-01;  9.9999998E-03;  9.9902907E-03;3819; -2.8718910E-03;  0.0000000E+00;  4.7395610E-05;  1.0014463E+03;  1.0000000E-01;  1.1981884E+03;3;  7.8284049E-01;  0.0000000E+00;  3.3350039E-02;0; -5.1092748E-03;  4.0120980E+04;  0.0000000E+00; -1.2987164E-04;  4.0000000E+04;  0.0000000E+00;  3.9991121E+04; -5.1013902E-03;  0.0000000E+00; -7.8847670E-06;  1.2242562E+03;
  2.2126110E-01;  9.9999998E-03;  1.9979918E-02;3820; -2.9137749E-03;  0.0000000E+00;  7.8118050E-05;  1.0014093E+03;  1.0000000E-01;  1.1675719E+03;3;  7.6933545E-01;  0.0000000E+00;  4.9229961E-02;0; -5.1839044E-03;  4.0119070E+04;  0.0000000E+00; -3.0712574E-04;  4.0000000E+04;  0.0000000E+00;  3.9990039E+04; -5.1376396E-03;  0.0000000E+00; -4.6264664E-05;  1.3422379E+03;
  2.2127897E-01;  9.9999998E-03;  2.9970169E-02;3821; -2.9760450E-03;  0.0000000E+00;  9.1442183E-05;  1.0013564E+03;  1.0000000E-01;  1.1238201E+03;3;  7.5208485E-01;  0.0000000E+00;  5.6251749E-02;0; -5.2893991E-03;  4.0115996E+04;  0.0000000E+00;  5.8930804E-05;  4.0000000E+04;  0.0000000E+00;  3.9988750E+04; -5.1928866E-03;  0.0000000E+00; -9.6512260E-05;  1.5129948E+03;
  2.2130883E-01;  9.9999998E-03;  3.9965171E-02;3822; -3.0508761E-03;  0.0000000E+00;  9.0676935E-05;  1.0012828E+03;  1.0000000E-01;  1.0627848E+03;3;  7.3427564E-01;  0.0000000E+00;  5.9197452E-02;0; -5.4014423E-03;  4.0111848E+04;  0.0000000E+00;  1.8330258E-03;  4.0000000E+04;  0.0000000E+00;  3.9987414E+04; -5.2591949E-03;  0.0000000E+00; -1.4224753E-04;  1.6981334E+03;
  2.2135478E-01;  9.9999998E-03;  4.9969982E-02;3823; -3.1306841E-03;  0.0000000E+00;  7.8739242E-05;  1.0012053E+03;  1.0000000E-01;  9.9849030E+02;3;  7.1788734E-01;  0.0000000E+00;  6.0107332E-02;0; -5.4926774E-03;  4.0106469E+04;  0.0000000E+00;  6.0305558E-03;  4.0000000E+04;  0.0000000E+00;  3.9986023E+04; -5.3255889E-03;  0.0000000E+00; -1.6708839E-04;  1.8511688E+03;
  2.2140819E-01;  9.9999998E-03;  5.9979670E-02;3824; -3.2085369E-03;  0.0000000E+00;  5.7956422E-05;  1.0011199E+03;  1.0000000E-01;  9.2777625E+02;3;  7.0290220E-01;  0.0000000E+00;  6.1213318E-02;0; -5.5390554E-03;  4.0100012E+04;  0.0000000E+00;  1.3661232E-02;  4.0000000E+04;  0.0000000E+00;  3.9985434E+04; -5.3806151E-03;  0.0000000E+00; -1.5844050E-04;  1.9294147E+03;
  2.3148757E-01;  9.9999998E-03; -9.9985041E-02;3869; -3.3801782E-03;  0.0000000E+00;  3.2458211E-05;  1.0009550E+03;  1.0000000E-01;  7.9118750E+02;3;  6.4901745E-01;  0.0000000E+00; -7.5648144E-02;0; -3.2832038E-03;  4.0085922E+04;  0.0000000E+00;  1.3851407E-01;  4.0000000E+04;  0.0000000E+00;  3.9986703E+04; -3.4914908E-03;  0.0000000E+00;  2.0828693E-04;  1.7199623E+03;
  2.3145077E-01;  9.9999998E-03; -8.9988634E-02;3870; -3.3836891E-03;  0.0000000E+00;  7.0566148E-06;  1.0010420E+03;  1.0000000E-01;  8.6328424E+02;3;  6.6375983E-01;  0.0000000E+00; -7.4771099E-02;0; -3.5002369E-03;  4.0094035E+04;  0.0000000E+00;  1.0585168E-01;  4.0000000E+04;  0.0000000E+00;  3.9985613E+04; -3.5725487E-03;  0.0000000E+00;  7.2311763E-05;  1.8734364E+03;
  2.3140049E-01;  9.9999998E-03; -7.9992309E-02;3871; -3.3510495E-03;  0.0000000E+00; -2.3926614E-05;  1.0011220E+03;  1.0000000E-01;  9.2955396E+02;3;  6.7830873E-01;  0.0000000E+00; -7.5200371E-02;0; -3.6564998E-03;  4.0101570E+04;  0.0000000E+00;  7.9453066E-02;  4.0000000E+04;  0.0000000E+00;  3.9984949E+04; -3.6101819E-03;  0.0000000E+00; -4.6317833E-05;  2.0010098E+03;
  2.3133975E-01;  9.9999998E-03; -6.9991969E-02;3872; -3.2909138E-03;  0.0000000E+00; -5.5891822E-05;  1.0011974E+03;  1.0000000E-01;  9.9197192E+02;3;  6.9322258E-01;  0.0000000E+00; -7.4046686E-02;0; -3.7493440E-03;  4.0108273E+04;  0.0000000E+00;  5.8623385E-02;  4.0000000E+04;  0.0000000E+00;  3.9984430E+04; -3.6172944E-03;  0.0000000E+00; -1.3204968E-04;  2.0673301E+03;
  2.3127246E-01;  9.9999998E-03; -5.9986565E-02;3873; -3.2114016E-03;  0.0000000E+00; -8.3992883E-05;  1.0012672E+03;  1.0000000E-01;  1.0498468E+03;3;  7.0834076E-01;  0.0000000E+00; -7.3164642E-02;0; -3.7818474E-03;  4.0113777E+04;  0.0000000E+00;  4.2041741E-02;  4.0000000E+04;  0.0000000E+00;  3.9984473E+04; -3.6056084E-03;  0.0000000E+00; -1.7623899E-04;  2.0475801E+03;
  2.3120569E-01;  9.9999998E-03; -4.9978167E-02;3874; -3.1213469E-03;  0.0000000E+00; -1.0536341E-04;  1.0013286E+03;  1.0000000E-01;  1.1007096E+03;3;  7.2523600E-01;  0.0000000E+00; -7.3339030E-02;0; -3.7626242E-03;  4.0118113E+04;  0.0000000E+00;  2.8688960E-02;  4.0000000E+04;  0.0000000E+00;  3.9985320E+04; -3.5842152E-03;  0.0000000E+00; -1.7840913E-04;  1.9382996E+03;
  2.3115195E-01;  9.9999998E-03; -3.9974369E-02;3875; -3.0304941E-03;  0.0000000E+00; -1.1707442E-04;  1.0013859E+03;  1.0000000E-01;  1.1481157E+03;3;  7.4414092E-01;  0.0000000E+00; -7.2858416E-02;0; -3.7049386E-03;  4.0121520E+04;  0.0000000E+00;  1.8070905E-02;  4.0000000E+04;  0.0000000E+00;  3.9986941E+04; -3.5589035E-03;  0.0000000E+00; -1.4603505E-04;  1.7627621E+03;
  2.3111708E-01;  9.9999998E-03; -2.9978540E-02;3876; -2.9457433E-03;  0.0000000E+00; -1.1663559E-04;  1.0014363E+03;  1.0000000E-01;  1.1899911E+03;3;  7.7217770E-01;  0.0000000E+00; -7.0192575E-02;0; -3.6272062E-03;  4.0124098E+04;  0.0000000E+00;  1.0000289E-02;  4.0000000E+04;  0.0000000E+00;  3.9988414E+04; -3.5342255E-03;  0.0000000E+00; -9.2980663E-05;  1.5623313E+03;
  2.3109694E-01;  9.9999998E-03; -1.9986156E-02;3877; -2.8758945E-03;  0.0000000E+00; -1.0013227E-04;  1.0014758E+03;  1.0000000E-01;  1.2226815E+03;3;  8.0394876E-01;  0.0000000E+00; -6.9101900E-02;0; -3.5509206E-03;  4.0125863E+04;  0.0000000E+00;  4.3735043E-03;  4.0000000E+04;  0.0000000E+00;  3.9989855E+04; -3.5142510E-03;  0.0000000E+00; -3.6669626E-05;  1.3817076E+03;
  2.3108669E-01;  9.9999998E-03; -9.9938167E-03;3878; -2.8289391E-03;  0.0000000E+00; -6.1691273E-05;  1.0014994E+03;  1.0000000E-01;  1.2422365E+03;3;  8.2456630E-01;  0.0000000E+00; -4.9750585E-02;0; -3.4957889E-03;  4.0126809E+04;  0.0000000E+00;  1.0797163E-03;  4.0000000E+04;  0.0000000E+00;  3.9990641E+04; -3.5014891E-03;  0.0000000E+00;  5.7002694E-06;  1.2580902E+03;
  2.3108402E-01;  9.9999998E-03;  3.8134832E-11;3879; -2.8113634E-03;  0.0000000E+00;  2.1824798E-09;  1.0015090E+03;  1.0000000E-01;  1.2501375E+03;3;  8.3550954E-01;  0.0000000E+00;  2.0591648E-05;0; -3.4756598E-03;  4.0127172E+04;  0.0000000E+00; -6.7729562E-13;  4.0000000E+04;  0.0000000E+00;  3.9991023E+04; -3.4970550E-03;  0.0000000E+00;  2.1395284E-05;  1.2144388E+03;
  2.3108669E-01;  9.9999998E-03;  9.9938167E-03;3880; -2.8289375E-03;  0.0000000E+00;  6.1695464E-05;  1.0014994E+03;  1.0000000E-01;  1.2422365E+03;3;  8.2456905E-01;  0.0000000E+00;  4.9784910E-02;0; -3.4957926E-03;  4.0126809E+04;  0.0000000E+00;  1.0795227E-03;  4.0000000E+04;  0.0000000E+00;  3.9990641E+04; -3.5014916E-03;  0.0000000E+00;  5.6990893E-06;  1.2580834E+03;
  2.3109694E-01;  9.9999998E-03;  1.9986156E-02;3881; -2.8758969E-03;  0.0000000E+00;  1.0013593E-04;  1.0014758E+03;  1.0000000E-01;  1.2226815E+03;3;  8.0394125E-01;  0.0000000E+00;  6.9125310E-02;0; -3.5509304E-03;  4.0125863E+04;  0.0000000E+00;  4.3731290E-03;  4.0000000E+04;  0.0000000E+00;  3.9989855E+04; -3.5142580E-03;  0.0000000E+00; -3.6672533E-05;  1.3817024E+03;
  2.3111708E-01;  9.9999998E-03;  2.9978540E-02;3882; -2.9457454E-03;  0.0000000E+00;  1.1663909E-04;  1.0014363E+03;  1.0000000E-01;  1.1899911E+03;3;  7.7217185E-01;  0.0000000E+00;  7.0205420E-02;0; -3.6272220E-03;  4.0124102E+04;  0.0000000E+00;  1.0000003E-02;  4.0000000E+04;  0.0000000E+00;  3.9988414E+04; -3.5342367E-03;  0.0000000E+00; -9.2985392E-05;  1.5623218E+03;
  2.3115195E-01;  9.9999998E-03;  3.9974369E-02;3883; -3.0304973E-03;  0.0000000E+00;  1.1707770E-04;  1.0013859E+03;  1.0000000E-01;  1.1481157E+03;3;  7.4416786E-01;  0.0000000E+00;  7.2853021E-02;0; -3.7049542E-03;  4.0121523E+04;  0.0000000E+00;  1.8070206E-02;  4.0000000E+04;  0.0000000E+00;  3.9986941E+04; -3.5589125E-03;  0.0000000E+00; -1.4604152E-04;  1.7627463E+03;
  2.3120569E-01;  9.9999998E-03;  4.9978167E-02;3884; -3.1213539E-03;  0.0000000E+00;  1.0536581E-04;  1.0013286E+03;  1.0000000E-01;  1.1007096E+03;3;  7.2523791E-01;  0.0000000E+00;  7.3323630E-02;0; -3.7626526E-03;  4.0118113E+04;  0.0000000E+00;  2.8689168E-02;  4.0000000E+04;  0.0000000E+00;  3.9985320E+04; -3.5842357E-03;  0.0000000E+00; -1.7841687E-04;  1.9382919E+03;
  2.3127246E-01;  9.9999998E-03;  5.9986565E-02;3885; -3.2114140E-03;  0.0000000E+00;  8.3994062E-05;  1.0012672E+03;  1.0000000E-01;  1.0498468E+03;3;  7.0836157E-01;  0.0000000E+00;  7.3129699E-02;0; -3.7818686E-03;  4.0113777E+04;  0.0000000E+00;  4.2043589E-02;  4.0000000E+04;  0.0000000E+00;  3.9984473E+04; -3.6056198E-03;  0.0000000E+00; -1.7624885E-04;  2.0475758E+03;
  2.4139787E-01;  9.9999998E-03; -9.9992767E-02;3930; -3.3631625E-03;  0.0000000E+00;  2.7423228E-05;  1.0010709E+03;  1.0000000E-01;  8.8718481E+02;3;  6.5486288E-01;  0.0000000E+00; -8.5044146E-02;0; -1.7039650E-03;  4.0097207E+04;  0.0000000E+00;  1.7043637E-01;  4.0000000E+04;  0.0000000E+00;  3.9986012E+04; -1.8946973E-03;  0.0000000E+00;  1.9073232E-04;  1.8562592E+03;
  2.4133836E-01;  9.9999998E-03; -8.9999110E-02;3931; -3.3566959E-03;  0.0000000E+00; -3.2916396E-06;  1.0011502E+03;  1.0000000E-01;  9.5296069E+02;3;  6.6867238E-01;  0.0000000E+00; -8.7304279E-02;0; -1.8913718E-03;  4.0104797E+04;  0.0000000E+00;  1.3394623E-01;  4.0000000E+04;  0.0000000E+00;  3.9984684E+04; -1.9350518E-03;  0.0000000E+00;  4.3679975E-05;  1.9839489E+03;
  2.4127185E-01;  9.9999998E-03; -8.0003925E-02;3932; -3.3118641E-03;  0.0000000E+00; -3.7786383E-05;  1.0012137E+03;  1.0000000E-01;  1.0056012E+03;3;  6.8393993E-01;  0.0000000E+00; -8.6290456E-02;0; -2.0400002E-03;  4.0110926E+04;  0.0000000E+00;  1.0551593E-01;  4.0000000E+04;  0.0000000E+00;  3.9984066E+04; -1.9591833E-03;  0.0000000E+00; -8.0816819E-05;  2.0784629E+03;
  2.4120055E-01;  9.9999998E-03; -7.0003808E-02;3933; -3.2368489E-03;  0.0000000E+00; -6.9610869E-05;  1.0012618E+03;  1.0000000E-01;  1.0454026E+03;3;  6.9902110E-01;  0.0000000E+00; -8.5846506E-02;0; -2.1460247E-03;  4.0115172E+04;  0.0000000E+00;  8.2579844E-02;  4.0000000E+04;  0.0000000E+00;  3.9984105E+04; -1.9778041E-03;  0.0000000E+00; -1.6822058E-04;  2.1095583E+03;
  2.4112840E-01;  9.9999998E-03; -5.9998240E-02;3934; -3.1419978E-03;  0.0000000E+00; -9.5828858E-05;  1.0012983E+03;  1.0000000E-01;  1.0756239E+03;3;  7.1674359E-01;  0.0000000E+00; -8.4974982E-02;0; -2.2091253E-03;  4.0117848E+04;  0.0000000E+00;  6.2912054E-02;  4.0000000E+04;  0.0000000E+00;  3.9984367E+04; -1.9978404E-03;  0.0000000E+00; -2.1128489E-04;  2.0581160E+03;
  2.4106237E-01;  9.9999998E-03; -4.9989842E-02;3935; -3.0365544E-03;  0.0000000E+00; -1.1133336E-04;  1.0013300E+03;  1.0000000E-01;  1.1017960E+03;3;  7.4181783E-01;  0.0000000E+00; -8.5089199E-02;0; -2.2326370E-03;  4.0119172E+04;  0.0000000E+00;  4.5400761E-02;  4.0000000E+04;  0.0000000E+00;  3.9985734E+04; -2.0217826E-03;  0.0000000E+00; -2.1085449E-04;  1.9251388E+03;
  2.4101208E-01;  9.9999998E-03; -3.9985869E-02;3936; -2.9302230E-03;  0.0000000E+00; -1.1925858E-04;  1.0013522E+03;  1.0000000E-01;  1.1202646E+03;3;  7.8976977E-01;  0.0000000E+00; -8.4358327E-02;0; -2.2236241E-03;  4.0119770E+04;  0.0000000E+00;  3.0007940E-02;  4.0000000E+04;  0.0000000E+00;  3.9987312E+04; -2.0482426E-03;  0.0000000E+00; -1.7538150E-04;  1.7353667E+03;
  2.4098046E-01;  9.9999998E-03; -2.9988410E-02;3937; -2.8339545E-03;  0.0000000E+00; -1.1716616E-04;  1.0013759E+03;  1.0000000E-01;  1.1399183E+03;3;  8.5916430E-01;  0.0000000E+00; -8.5920468E-02;0; -2.1936807E-03;  4.0119988E+04;  0.0000000E+00;  1.7259257E-02;  4.0000000E+04;  0.0000000E+00;  3.9988762E+04; -2.0742589E-03;  0.0000000E+00; -1.1942194E-04;  1.5284856E+03;
  2.4096330E-01;  9.9999998E-03; -1.9993629E-02;3938; -2.7582271E-03;  0.0000000E+00; -9.5366668E-05;  1.0013892E+03;  1.0000000E-01;  1.1509797E+03;3;  9.0527987E-01;  0.0000000E+00; -7.6918513E-02;0; -2.1573736E-03;  4.0119922E+04;  0.0000000E+00;  7.7664265E-03;  4.0000000E+04;  0.0000000E+00;  3.9990211E+04; -2.0964940E-03;  0.0000000E+00; -6.0879673E-05;  1.3463688E+03;
  2.4095704E-01;  9.9999998E-03; -9.9982461E-03;3939; -2.7069259E-03;  0.0000000E+00; -5.4763055E-05;  1.0013989E+03;  1.0000000E-01;  1.1589796E+03;3;  9.4270027E-01;  0.0000000E+00; -4.9242202E-02;0; -2.1284930E-03;  4.0119477E+04;  0.0000000E+00;  1.9518932E-03;  4.0000000E+04;  0.0000000E+00;  3.9991094E+04; -2.1113227E-03;  0.0000000E+00; -1.7170212E-05;  1.2232858E+03;
  2.4095638E-01;  9.9999998E-03; -2.1310901E-11;3940; -2.6884910E-03;  0.0000000E+00;  2.2549895E-09;  1.0014001E+03;  1.0000000E-01;  1.1599672E+03;3;  9.5545971E-01;  0.0000000E+00;  1.9293431E-05;0; -2.1174850E-03;  4.0119488E+04;  0.0000000E+00; -1.3052338E-12;  4.0000000E+04;  0.0000000E+00;  3.9991402E+04; -2.1164501E-03;  0.0000000E+00; -1.0350378E-06;  1.1800552E+03;
  2.4095704E-01;  9.9999998E-03;  9.9982452E-03;3941; -2.7069256E-03;  0.0000000E+00;  5.4767046E-05;  1.0013988E+03;  1.0000000E-01;  1.1588809E+03;3;  9.4270551E-01;  0.0000000E+00;  4.9271204E-02;0; -2.1284963E-03;  4.0119477E+04;  0.0000000E+00;  1.9518808E-03;  4.0000000E+04;  0.0000000E+00;  3.9991094E+04; -2.1113248E-03;  0.0000000E+00; -1.7171449E-05;  1.2232842E+03;
  2.4096330E-01;  9.9999998E-03;  1.9993629E-02;3942; -2.7582275E-03;  0.0000000E+00;  9.5370808E-05;  1.0013892E+03;  1.0000000E-01;  1.1509797E+03;3;  9.0529335E-01;  0.0000000E+00;  7.6944396E-02;0; -2.1573773E-03;  4.0119922E+04;  0.0000000E+00;  7.7665704E-03;  4.0000000E+04;  0.0000000E+00;  3.9990211E+04; -2.0964949E-03;  0.0000000E+00; -6.0882390E-05;  1.3463577E+03;
  2.4098046E-01;  9.9999998E-03;  2.9988410E-02;3943; -2.8339559E-03;  0.0000000E+00;  1.1716968E-04;  1.0013759E+03;  1.0000000E-01;  1.1399183E+03;3;  8.5914165E-01;  0.0000000E+00;  8.5932381E-02;0; -2.1936919E-03;  4.0119988E+04;  0.0000000E+00;  1.7258907E-02;  4.0000000E+04;  0.0000000E+00;  3.9988762E+04; -2.0742654E-03;  0.0000000E+00; -1.1942661E-04;  1.5284736E+03;
  2.4101208E-01;  9.9999998E-03;  3.9985869E-02;3944; -2.9302281E-03;  0.0000000E+00;  1.1926205E-04;  1.0013522E+03;  1.0000000E-01;  1.1202646E+03;3;  7.8977162E-01;  0.0000000E+00;  8.4356911E-02;0; -2.2236344E-03;  4.0119777E+04;  0.0000000E+00;  3.0007288E-02;  4.0000000E+04;  0.0000000E+00;  3.9987316E+04; -2.0482468E-03;  0.0000000E+00; -1.7538763E-04;  1.7353647E+03;
  2.4106237E-01;  9.9999998E-03;  4.9989842E-02;3945; -3.0365600E-03;  0.0000000E+00;  1.1133559E-04;  1.0013300E+03;  1.0000000E-01;  1.1018948E+03;3;  7.4182284E-01;  0.0000000E+00;  8.5074805E-02;0; -2.2326536E-03;  4.0119176E+04;  0.0000000E+00;  4.5402095E-02;  4.0000000E+04;  0.0000000E+00;  3.9985734E+04; -2.0217916E-03;  0.0000000E+00; -2.1086194E-04;  1.9251289E+03;
  2.4112840E-01;  9.9999998E-03;  5.9998240E-02;3946; -3.1420079E-03;  0.0000000E+00;  9.5830139E-05;  1.0012983E+03;  1.0000000E-01;  1.0756239E+03;3;  7.1675158E-01;  0.0000000E+00;  8.4941313E-02;0; -2.2091446E-03;  4.0117852E+04;  0.0000000E+00;  6.2912017E-02;  4.0000000E+04;  0.0000000E+00;  3.9984367E+04; -1.9978506E-03;  0.0000000E+00; -2.1129397E-04;  2.0581140E+03;
  2.5128675E-01;  9.9999998E-03; -1.0000376E-01;3991; -3.2991492E-03;  0.0000000E+00;  2.4162002E-05;  1.0011414E+03;  1.0000000E-01;  9.4555353E+02;3;  6.6157967E-01;  0.0000000E+00; -9.6807487E-02;0; -3.9218756E-04;  4.0104242E+04;  0.0000000E+00;  1.7621256E-01;  4.0000000E+04;  0.0000000E+00;  3.9985801E+04; -5.3942413E-04;  0.0000000E+00;  1.4723655E-04;  1.8883157E+03;
  2.5121549E-01;  9.9999998E-03; -9.0010524E-02;3992; -3.2760391E-03;  0.0000000E+00; -6.3593006E-06;  1.0011937E+03;  1.0000000E-01;  9.8900909E+02;3;  6.7608821E-01;  0.0000000E+00; -9.5231138E-02;0; -5.6101137E-04;  4.0109582E+04;  0.0000000E+00;  1.3955402E-01;  4.0000000E+04;  0.0000000E+00;  3.9984785E+04; -5.5377826E-04;  0.0000000E+00; -7.2331113E-06;  1.9963361E+03;
  2.5114411E-01;  9.9999998E-03; -8.0014624E-02;3993; -3.2110400E-03;  0.0000000E+00; -3.7333459E-05;  1.0012216E+03;  1.0000000E-01;  1.0121195E+03;3;  6.9306612E-01;  0.0000000E+00; -9.4585679E-02;0; -7.1581977E-04;  4.0112508E+04;  0.0000000E+00;  1.1207404E-01;  4.0000000E+04;  0.0000000E+00;  3.9984309E+04; -5.7986850E-04;  0.0000000E+00; -1.3595124E-04;  2.0622356E+03;
  2.5107408E-01;  9.9999998E-03; -7.0013873E-02;3994; -3.1104051E-03;  0.0000000E+00; -6.1663945E-05;  1.0012267E+03;  1.0000000E-01;  1.0163663E+03;3;  7.1605164E-01;  0.0000000E+00; -9.3608998E-02;0; -8.5038046E-04;  4.0113031E+04;  0.0000000E+00;  8.9808255E-02;  4.0000000E+04;  0.0000000E+00;  3.9984438E+04; -6.2507589E-04;  0.0000000E+00; -2.2530455E-04;  2.0621311E+03;
  2.5100949E-01;  9.9999998E-03; -6.0008343E-02;3995; -2.9915671E-03;  0.0000000E+00; -7.2408206E-05;  1.0012198E+03;  1.0000000E-01;  1.0106381E+03;3;  7.6248133E-01;  0.0000000E+00; -8.7148294E-02;0; -9.5974829E-04;  4.0112043E+04;  0.0000000E+00;  6.9953777E-02;  4.0000000E+04;  0.0000000E+00;  3.9985176E+04; -6.9059938E-04;  0.0000000E+00; -2.6914894E-04;  1.9838970E+03;
  2.5096262E-01;  9.9999998E-03; -5.0000522E-02;3996; -2.8632348E-03;  0.0000000E+00; -7.7043405E-05;  1.0012061E+03;  1.0000000E-01;  9.9928040E+02;3;  8.6797678E-01;  0.0000000E+00; -7.3551908E-02;0; -1.0403076E-03;  4.0110031E+04;  0.0000000E+00;  5.1399682E-02;  4.0000000E+04;  0.0000000E+00;  3.9986387E+04; -7.7109475E-04;  0.0000000E+00; -2.6921279E-04;  1.8339388E+03;
  2.5093621E-01;  9.9999998E-03; -3.9995711E-02;3997; -2.7542289E-03;  0.0000000E+00; -7.9724778E-05;  1.0011923E+03;  1.0000000E-01;  9.8782391E+02;3;  9.6883112E-01;  0.0000000E+00; -7.0563085E-02;0; -1.0927388E-03;  4.0107145E+04;  0.0000000E+00;  3.4419149E-02;  4.0000000E+04;  0.0000000E+00;  3.9987770E+04; -8.5832470E-04;  0.0000000E+00; -2.3441410E-04;  1.6383263E+03;
  2.5092688E-01;  9.9999998E-03; -2.9995238E-02;3998; -2.6660552E-03;  0.0000000E+00; -7.2647628E-05;  1.0011783E+03;  1.0000000E-01;  9.7616992E+02;3;  1.0278380E+00;  0.0000000E+00; -5.1463693E-02;0; -1.1213461E-03;  4.0104629E+04;  0.0000000E+00;  1.9968396E-02;  4.0000000E+04;  0.0000000E+00;  3.9989195E+04; -9.4191148E-04;  0.0000000E+00; -1.7943460E-04;  1.4340472E+03;
  2.5092819E-01;  9.9999998E-03; -1.9997289E-02;3999; -2.5995965E-03;  0.0000000E+00; -5.3665291E-05;  1.0011685E+03;  1.0000000E-01;  9.6807141E+02;3;  1.0641040E+00;  0.0000000E+00; -3.0498864E-02;0; -1.1332460E-03;  4.0102336E+04;  0.0000000E+00;  9.0337889E-03;  4.0000000E+04;  0.0000000E+00;  3.9990469E+04; -1.0111856E-03;  0.0000000E+00; -1.2206044E-04;  1.2588005E+03;
  2.5093338E-01;  9.9999998E-03; -9.9993646E-03;4000; -2.5578109E-03;  0.0000000E+00; -2.7944841E-05;  1.0011603E+03;  1.0000000E-01;  9.6135553E+02;3;  1.0861067E+00;  0.0000000E+00; -1.6505495E-02;0; -1.1362704E-03;  4.0101043E+04;  0.0000000E+00;  2.2770218E-03;  4.0000000E+04;  0.0000000E+00;  3.9991461E+04; -1.0569099E-03;  0.0000000E+00; -7.9360470E-05;  1.1421249E+03;
  2.5093681E-01;  9.9999998E-03; -3.7423523E-11;4001; -2.5430883E-03;  0.0000000E+00;  3.1219098E-09;  1.0011585E+03;  1.0000000E-01;  9.5977533E+02;3;  1.0933510E+00;  0.0000000E+00;  1.7129976E-05;0; -1.1364423E-03;  4.0100512E+04;  0.0000000E+00; -5.2406939E-13;  4.0000000E+04;  0.0000000E+00;  3.9991734E+04; -1.0728033E-03;  0.0000000E+00; -6.3639040E-05;  1.1014387E+03;
  2.5093338E-01;  9.9999998E-03;  9.9993646E-03;4002; -2.5578120E-03;  0.0000000E+00;  2.7950799E-05;  1.0011603E+03;  1.0000000E-01;  9.6135553E+02;3;  1.0861000E+00;  0.0000000E+00;  1.6540390E-02;0; -1.1362742E-03;  4.0101043E+04;  0.0000000E+00;  2.2769498E-03;  4.0000000E+04;  0.0000000E+00;  3.9991461E+04; -1.0569122E-03;  0.0000000E+00; -7.9361947E-05;  1.1421223E+03;
  2.5092819E-01;  9.9999998E-03;  1.9997289E-02;4003; -2.5995986E-03;  0.0000000E+00;  5.3670759E-05;  1.0011685E+03;  1.0000000E-01;  9.6807141E+02;3;  1.0641071E+00;  0.0000000E+00;  3.0525949E-02;0; -1.1332500E-03;  4.0102348E+04;  0.0000000E+00;  9.0335365E-03;  4.0000000E+04;  0.0000000E+00;  3.9990473E+04; -1.0111867E-03;  0.0000000E+00; -1.2206325E-04;  1.2587939E+03;
  2.5092688E-01;  9.9999998E-03;  2.9995238E-02;4004; -2.6660601E-03;  0.0000000E+00;  7.2652794E-05;  1.0011782E+03;  1.0000000E-01;  9.7616992E+02;3;  1.0278357E+00;  0.0000000E+00;  5.1481899E-02;0; -1.1213513E-03;  4.0104629E+04;  0.0000000E+00;  1.9968668E-02;  4.0000000E+04;  0.0000000E+00;  3.9989195E+04; -9.4191288E-04;  0.0000000E+00; -1.7943833E-04;  1.4340369E+03;
  2.5093621E-01;  9.9999998E-03;  3.9995711E-02;4005; -2.7542324E-03;  0.0000000E+00;  7.9728517E-05;  1.0011924E+03;  1.0000000E-01;  9.8782391E+02;3;  9.6883571E-01;  0.0000000E+00;  7.0563316E-02;0; -1.0927486E-03;  4.0107152E+04;  0.0000000E+00;  3.4419868E-02;  4.0000000E+04;  0.0000000E+00;  3.9987770E+04; -8.5832854E-04;  0.0000000E+00; -2.3442011E-04;  1.6383143E+03;
  2.5096262E-01;  9.9999998E-03;  5.0000522E-02;4006; -2.8632416E-03;  0.0000000E+00;  7.7046221E-05;  1.0012060E+03;  1.0000000E-01;  9.9918164E+02;3;  8.6798114E-01;  0.0000000E+00;  7.3533908E-02;0; -1.0403194E-03;  4.0110027E+04;  0.0000000E+00;  5.1398229E-02;  4.0000000E+04;  0.0000000E+00;  3.9986387E+04; -7.7109918E-04;  0.0000000E+00; -2.6922030E-04;  1.8339323E+03;
  2.5100949E-01;  9.9999998E-03;  6.0008343E-02;4007; -2.9915753E-03;  0.0000000E+00;  7.2409566E-05;  1.0012199E+03;  1.0000000E-01;  1.0106381E+03;3;  7.6249546E-01;  0.0000000E+00;  8.7117553E-02;0; -9.5976423E-04;  4.0112043E+04;  0.0000000E+00;  6.9951884E-02;  4.0000000E+04;  0.0000000E+00;  3.9985176E+04; -6.9060735E-04;  0.0000000E+00; -2.6915691E-04;  1.9838916E+03;
  2.6119485E-01;  9.9999998E-03; -1.0001133E-01;4052; -3.1875728E-03;  0.0000000E+00;  3.0160261E-05;  1.0011531E+03;  1.0000000E-01;  9.5533099E+02;3;  6.7672527E-01;  0.0000000E+00; -9.7340353E-02;0;  5.7292741E-04;  4.0106422E+04;  0.0000000E+00;  1.5159613E-01;  4.0000000E+04;  0.0000000E+00;  3.9986176E+04;  5.0414627E-04;  0.0000000E+00;  6.8781148E-05;  1.8538269E+03;
  2.6112238E-01;  9.9999998E-03; -9.0016432E-02;4053; -3.1338129E-03;  0.0000000E+00;  6.5935601E-06;  1.0011708E+03;  1.0000000E-01;  9.6994788E+02;3;  6.9828635E-01;  0.0000000E+00; -9.2177399E-02;0;  4.0843739E-04;  4.0108352E+04;  0.0000000E+00;  1.1887555E-01;  4.0000000E+04;  0.0000000E+00;  3.9985457E+04;  4.9685268E-04;  0.0000000E+00; -8.8415298E-05;  1.9427666E+03;
  2.6106197E-01;  9.9999998E-03; -8.0018573E-02;4054; -3.0309469E-03;  0.0000000E+00; -9.4091447E-06;  1.0011508E+03;  1.0000000E-01;  9.5335577E+02;3;  7.4830192E-01;  0.0000000E+00; -8.4253363E-02;0;  2.3287222E-04;  4.0107281E+04;  0.0000000E+00;  9.5862105E-02;  4.0000000E+04;  0.0000000E+00;  3.9985305E+04;  4.5154555E-04;  0.0000000E+00; -2.1867333E-04;  1.9802764E+03;
  2.6101425E-01;  9.9999998E-03; -7.0015803E-02;4055; -2.8992177E-03;  0.0000000E+00; -6.2575746E-06;  1.0011086E+03;  1.0000000E-01;  9.1839380E+02;3;  8.5406452E-01;  0.0000000E+00; -4.8010509E-02;0;  5.5923476E-05;  4.0103594E+04;  0.0000000E+00;  7.7726141E-02;  4.0000000E+04;  0.0000000E+00;  3.9985242E+04;  3.6506791E-04;  0.0000000E+00; -3.0914444E-04;  1.9503737E+03;
  2.6097840E-01;  9.9999998E-03; -6.0008872E-02;4056; -2.7735063E-03;  0.0000000E+00; -6.0492457E-06;  1.0010518E+03;  1.0000000E-01;  8.7138275E+02;3;  1.0122588E+00;  0.0000000E+00; -1.8407600E-02;0; -1.1268850E-04;  4.0098555E+04;  0.0000000E+00;  6.1351039E-02;  4.0000000E+04;  0.0000000E+00;  3.9985656E+04;  2.4178579E-04;  0.0000000E+00; -3.5447429E-04;  1.8489908E+03;
  2.6095620E-01;  9.9999998E-03; -5.0000686E-02;4057; -2.6761384E-03;  0.0000000E+00; -1.1280069E-05;  1.0009930E+03;  1.0000000E-01;  8.2269281E+02;3;  1.0939035E+00;  0.0000000E+00; -1.1927147E-02;0; -2.6360992E-04;  4.0092602E+04;  0.0000000E+00;  4.5587506E-02;  4.0000000E+04;  0.0000000E+00;  3.9987082E+04;  9.3156865E-05;  0.0000000E+00; -3.5676680E-04;  1.6880742E+03;
  2.6094842E-01;  9.9999998E-03; -3.9995354E-02;4058; -2.5971772E-03;  0.0000000E+00; -1.7452150E-05;  1.0009389E+03;  1.0000000E-01;  7.7785455E+02;3;  1.1263032E+00;  0.0000000E+00; -8.2851350E-03;0; -3.8919121E-04;  4.0086641E+04;  0.0000000E+00;  3.0770957E-02;  4.0000000E+04;  0.0000000E+00;  3.9988602E+04; -6.4198393E-05;  0.0000000E+00; -3.2499281E-04;  1.4943184E+03;
  2.6094759E-01;  9.9999998E-03; -2.9994301E-02;4059; -2.5334915E-03;  0.0000000E+00; -2.1434642E-05;  1.0008913E+03;  1.0000000E-01;  7.3844824E+02;3;  1.1492982E+00;  0.0000000E+00; -9.2490846E-03;0; -4.8567491E-04;  4.0081570E+04;  0.0000000E+00;  1.7939791E-02;  4.0000000E+04;  0.0000000E+00;  3.9989953E+04; -2.1216765E-04;  0.0000000E+00; -2.7350726E-04;  1.3012135E+03;
  2.6094800E-01;  9.9999998E-03; -1.9996066E-02;4060; -2.4864837E-03;  0.0000000E+00; -1.9588939E-05;  1.0008558E+03;  1.0000000E-01;  7.0901697E+02;3;  1.1622046E+00;  0.0000000E+00; -4.6075745E-03;0; -5.5260374E-04;  4.0077355E+04;  0.0000000E+00;  8.1381798E-03;  4.0000000E+04;  0.0000000E+00;  3.9991344E+04; -3.3313988E-04;  0.0000000E+00; -2.1946387E-04;  1.1404749E+03;
  2.6094818E-01;  9.9999998E-03; -9.9982396E-03;4061; -2.4572366E-03;  0.0000000E+00; -1.1360480E-05;  1.0008337E+03;  1.0000000E-01;  6.9074591E+02;3;  1.1668113E+00;  0.0000000E+00; -3.2762873E-03;0; -5.9148471E-04;  4.0074703E+04;  0.0000000E+00;  2.0540433E-03;  4.0000000E+04;  0.0000000E+00;  3.9992129E+04; -4.1230355E-04;  0.0000000E+00; -1.7918117E-04;  1.0354929E+03;
  2.6094851E-01;  9.9999998E-03;  1.0938378E-10;4062; -2.4473453E-03;  0.0000000E+00;  4.1473669E-09;  1.0008260E+03;  1.0000000E-01;  6.8432635E+02;3;  1.1709763E+00;  0.0000000E+00;  1.6851198E-05;0; -6.0417486E-04;  4.0073766E+04;  0.0000000E+00; -1.2268617E-12;  4.0000000E+04;  0.0000000E+00;  3.9992477E+04; -4.3982919E-04;  0.0000000E+00; -1.6434568E-04;  9.9922150E+02;
  2.6094818E-01;  9.9999998E-03;  9.9982396E-03;4063; -2.4572385E-03;  0.0000000E+00;  1.1368634E-05;  1.0008337E+03;  1.0000000E-01;  6.9074591E+02;3;  1.1668221E+00;  0.0000000E+00;  3.3084047E-03;0; -5.9148495E-04;  4.0074703E+04;  0.0000000E+00;  2.0540303E-03;  4.0000000E+04;  0.0000000E+00;  3.9992125E+04; -4.1230267E-04;  0.0000000E+00; -1.7918229E-04;  1.0354830E+03;
  2.6094800E-01;  9.9999998E-03;  1.9996066E-02;4064; -2.4864869E-03;  0.0000000E+00;  1.9596580E-05;  1.0008558E+03;  1.0000000E-01;  7.0901697E+02;3;  1.1622148E+00;  0.0000000E+00;  4.6334863E-03;0; -5.5260537E-04;  4.0077355E+04;  0.0000000E+00;  8.1384508E-03;  4.0000000E+04;  0.0000000E+00;  3.9991344E+04; -3.3313900E-04;  0.0000000E+00; -2.1946637E-04;  1.1404670E+03;
  2.6094759E-01;  9.9999998E-03;  2.9994301E-02;4065; -2.5334966E-03;  0.0000000E+00;  2.1441614E-05;  1.0008912E+03;  1.0000000E-01;  7.3834949E+02;3;  1.1492965E+00;  0.0000000E+00;  9.2658019E-03;0; -4.8567759E-04;  4.0081570E+04;  0.0000000E+00;  1.7939944E-02;  4.0000000E+04;  0.0000000E+00;  3.9989953E+04; -2.1216666E-04;  0.0000000E+00; -2.7351093E-04;  1.3012009E+03;
  2.6094842E-01;  9.9999998E-03;  3.9995354E-02;4066; -2.5971816E-03;  0.0000000E+00;  1.7457702E-05;  1.0009389E+03;  1.0000000E-01;  7.7785455E+02;3;  1.1263129E+00;  0.0000000E+00;  8.2883108E-03;0; -3.8919502E-04;  4.0086641E+04;  0.0000000E+00;  3.0770831E-02;  4.0000000E+04;  0.0000000E+00;  3.9988602E+04; -6.4197251E-05;  0.0000000E+00; -3.2499776E-04;  1.4942985E+03;
  2.6095620E-01;  9.9999998E-03;  5.0000686E-02;4067; -2.6761449E-03;  0.0000000E+00;  1.1284337E-05;  1.0009930E+03;  1.0000000E-01;  8.2269281E+02;3;  1.0939127E+00;  0.0000000E+00;  1.1912479E-02;0; -2.6361531E-04;  4.0092602E+04;  0.0000000E+00;  4.5587689E-02;  4.0000000E+04;  0.0000000E+00;  3.9987082E+04;  9.3157403E-05;  0.0000000E+00; -3.5677271E-04;  1.6880758E+03;
  2.6097840E-01;  9.9999998E-03;  6.0008872E-02;4068; -2.7735143E-03;  0.0000000E+00;  6.0517614E-06;  1.0010518E+03;  1.0000000E-01;  8.7138275E+02;3;  1.0122437E+00;  0.0000000E+00;  1.8379325E-02;0; -1.1269383E-04;  4.0098555E+04;  0.0000000E+00;  6.1352260E-02;  4.0000000E+04;  0.0000000E+00;  3.9985656E+04;  2.4178629E-04;  0.0000000E+00; -3.5448011E-04;  1.8489893E+03;
  2.7114320E-01;  9.9999998E-03; -1.0001593E-01;4113; -3.0208947E-03;  0.0000000E+00;  5.0331244E-05;  1.0011321E+03;  1.0000000E-01;  9.3794879E+02;3;  7.4520373E-01;  0.0000000E+00; -7.0810229E-02;0;  1.1650178E-03;  4.0104637E+04;  0.0000000E+00;  1.0025122E-01;  4.0000000E+04;  0.0000000E+00;  3.9986465E+04;  1.2160429E-03;  0.0000000E+00; -5.1025083E-05;  1.7881925E+03;
  2.7108732E-01;  9.9999998E-03; -9.0017729E-02;4114; -2.9261527E-03;  0.0000000E+00;  5.0588271E-05;  1.0010959E+03;  1.0000000E-01;  9.0792493E+02;3;  8.4657198E-01;  0.0000000E+00; -3.8052239E-02;0;  9.8984677E-04;  4.0102559E+04;  0.0000000E+00;  7.5554058E-02;  4.0000000E+04;  0.0000000E+00;  3.9985934E+04;  1.1956878E-03;  0.0000000E+00; -2.0584103E-04;  1.8530640E+03;
  2.7104756E-01;  9.9999998E-03; -8.0015868E-02;4115; -2.8110319E-03;  0.0000000E+00;  5.7446279E-05;  1.0010251E+03;  1.0000000E-01;  8.4925995E+02;3;  9.8807847E-01;  0.0000000E+00;  9.6313264E-03;0;  7.7948417E-04;  4.0096961E+04;  0.0000000E+00;  6.0531914E-02;  4.0000000E+04;  0.0000000E+00;  3.9985773E+04;  1.1135660E-03;  0.0000000E+00; -3.3408185E-04;  1.8588500E+03;
  2.7101701E-01;  9.9999998E-03; -7.0010714E-02;4116; -2.7138512E-03;  0.0000000E+00;  5.1619256E-05;  1.0009327E+03;  1.0000000E-01;  7.7271887E+02;3;  1.1104105E+00;  0.0000000E+00;  2.1370551E-02;0;  5.4715504E-04;  4.0089203E+04;  0.0000000E+00;  4.9947433E-02;  4.0000000E+04;  0.0000000E+00;  3.9986375E+04;  9.7083912E-04;  0.0000000E+00; -4.2368405E-04;  1.7987035E+03;
  2.7098909E-01;  9.9999998E-03; -6.0004801E-02;4117; -2.6395740E-03;  0.0000000E+00;  3.8694270E-05;  1.0008332E+03;  1.0000000E-01;  6.9025208E+02;3;  1.1560971E+00;  0.0000000E+00;  1.5768930E-02;0;  3.0908376E-04;  4.0080516E+04;  0.0000000E+00;  4.0510498E-02;  4.0000000E+04;  0.0000000E+00;  3.9987328E+04;  7.7868090E-04;  0.0000000E+00; -4.6959714E-04;  1.6770684E+03;
  2.7096221E-01;  9.9999998E-03; -5.0000135E-02;4118; -2.5759952E-03;  0.0000000E+00;  2.4243249E-05;  1.0007333E+03;  1.0000000E-01;  6.0758777E+02;3;  1.1788428E+00;  0.0000000E+00;  1.1871099E-02;0;  8.2343206E-05;  4.0071164E+04;  0.0000000E+00;  3.0917615E-02;  4.0000000E+04;  0.0000000E+00;  3.9988613E+04;  5.5635866E-04;  0.0000000E+00; -4.7401545E-04;  1.5107559E+03;
  2.7094132E-01;  9.9999998E-03; -3.9998449E-02;4119; -2.5209393E-03;  0.0000000E+00;  1.0978389E-05;  1.0006414E+03;  1.0000000E-01;  5.3144177E+02;3;  1.1941326E+00;  0.0000000E+00;  7.7664875E-03;0; -1.1811219E-04;  4.0062621E+04;  0.0000000E+00;  2.1331172E-02;  4.0000000E+04;  0.0000000E+00;  3.9989938E+04;  3.2763719E-04;  0.0000000E+00; -4.4574938E-04;  1.3260205E+03;
  2.7092960E-01;  9.9999998E-03; -2.9999411E-02;4120; -2.4759544E-03;  0.0000000E+00;  9.4616229E-07;  1.0005679E+03;  1.0000000E-01;  4.7050522E+02;3;  1.2006731E+00;  0.0000000E+00;  4.1091316E-03;0; -2.8141186E-04;  4.0055148E+04;  0.0000000E+00;  1.2639539E-02;  4.0000000E+04;  0.0000000E+00;  3.9991367E+04;  1.1722303E-04;  0.0000000E+00; -3.9863490E-04;  1.1516685E+03;
  2.7092582E-01;  9.9999998E-03; -2.0001037E-02;4121; -2.4426575E-03;  0.0000000E+00; -3.7652487E-06;  1.0005106E+03;  1.0000000E-01;  4.2300040E+02;3;  1.2044549E+00;  0.0000000E+00;  1.9763322E-03;0; -4.0098245E-04;  4.0049434E+04;  0.0000000E+00;  5.7970895E-03;  4.0000000E+04;  0.0000000E+00;  3.9992434E+04; -5.2079853E-05;  0.0000000E+00; -3.4890260E-04;  1.0122454E+03;
  2.7092671E-01;  9.9999998E-03; -1.0001292E-02;4122; -2.4222273E-03;  0.0000000E+00; -3.7156385E-06;  1.0004760E+03;  1.0000000E-01;  3.9435922E+02;3;  1.2067727E+00;  0.0000000E+00;  8.9554995E-04;0; -4.7356932E-04;  4.0045980E+04;  0.0000000E+00;  1.4723504E-03;  4.0000000E+04;  0.0000000E+00;  3.9993062E+04; -1.6177210E-04;  0.0000000E+00; -3.1179722E-04;  9.2376227E+02;
  2.7092740E-01;  9.9999998E-03;  2.4388741E-10;4123; -2.4153753E-03;  0.0000000E+00;  5.1400328E-09;  1.0004641E+03;  1.0000000E-01;  3.8448294E+02;3;  1.2073263E+00;  0.0000000E+00;  1.6295822E-05;0; -4.9787067E-04;  4.0044805E+04;  0.0000000E+00; -9.4746205E-13;  4.0000000E+04;  0.0000000E+00;  3.9993371E+04; -1.9974833E-04;  0.0000000E+00; -2.9812232E-04;  8.9361774E+02;
  2.7092671E-01;  9.9999998E-03;  1.0001292E-02;4124; -2.4222285E-03;  0.0000000E+00;  3.7256859E-06;  1.0004760E+03;  1.0000000E-01;  3.9435922E+02;3;  1.2067776E+00;  0.0000000E+00; -8.6519582E-04;0; -4.7356982E-04;  4.0045977E+04;  0.0000000E+00;  1.4724574E-03;  4.0000000E+04;  0.0000000E+00;  3.9993062E+04; -1.6177120E-04;  0.0000000E+00; -3.1179862E-04;  9.2375574E+02;
  2.7092582E-01;  9.9999998E-03;  2.0001037E-02;4125; -2.4426603E-03;  0.0000000E+00;  3.7748616E-06;  1.0005106E+03;  1.0000000E-01;  4.2300040E+02;3;  1.2044638E+00;  0.0000000E+00; -1.9500094E-03;0; -4.0098390E-04;  4.0049438E+04;  0.0000000E+00;  5.7975282E-03;  4.0000000E+04;  0.0000000E+00;  3.9992434E+04; -5.2078554E-05;  0.0000000E+00; -3.4890536E-04;  1.0122352E+03;
  2.7092960E-01;  9.9999998E-03;  2.9999411E-02;4126; -2.4759599E-03;  0.0000000E+00; -9.3753721E-07;  1.0005679E+03;  1.0000000E-01;  4.7050522E+02;3;  1.2006669E+00;  0.0000000E+00; -4.0893713E-03;0; -2.8141213E-04;  4.0055148E+04;  0.0000000E+00;  1.2640028E-02;  4.0000000E+04;  0.0000000E+00;  3.9991367E+04;  1.1722644E-04;  0.0000000E+00; -3.9863857E-04;  1.1516506E+03;
  2.7094132E-01;  9.9999998E-03;  3.9998449E-02;4127; -2.5209438E-03;  0.0000000E+00; -1.0970962E-05;  1.0006415E+03;  1.0000000E-01;  5.3144177E+02;3;  1.1941481E+00;  0.0000000E+00; -7.7613364E-03;0; -1.1811068E-04;  4.0062621E+04;  0.0000000E+00;  2.1331785E-02;  4.0000000E+04;  0.0000000E+00;  3.9989938E+04;  3.2764266E-04;  0.0000000E+00; -4.4575334E-04;  1.3259990E+03;
  2.7096221E-01;  9.9999998E-03;  5.0000135E-02;4128; -2.5760005E-03;  0.0000000E+00; -2.4237548E-05;  1.0007333E+03;  1.0000000E-01;  6.0758777E+02;3;  1.1788443E+00;  0.0000000E+00; -1.1878262E-02;0;  8.2344952E-05;  4.0071168E+04;  0.0000000E+00;  3.0917861E-02;  4.0000000E+04;  0.0000000E+00;  3.9988613E+04;  5.5636489E-04;  0.0000000E+00; -4.7401994E-04;  1.5107467E+03;
  2.7098909E-01;  9.9999998E-03;  6.0004801E-02;4129; -2.6395840E-03;  0.0000000E+00; -3.8689275E-05;  1.0008331E+03;  1.0000000E-01;  6.9015332E+02;3;  1.1560791E+00;  0.0000000E+00; -1.5788021E-02;0;  3.0908542E-04;  4.0080512E+04;  0.0000000E+00;  4.0511250E-02;  4.0000000E+04;  0.0000000E+00;  3.9987324E+04;  7.7868783E-04;  0.0000000E+00; -4.6960241E-04;  1.6770625E+03;
  2.8110483E-01;  9.9999998E-03; -1.0001725E-01;4174; -2.8599927E-03;  0.0000000E+00;  9.0021917E-05;  1.0010696E+03;  1.0000000E-01;  8.8609839E+02;3;  9.2699736E-01;  0.0000000E+00; -1.6181528E-03;0;  1.4104617E-03;  4.0100008E+04;  0.0000000E+00;  3.2888249E-02;  4.0000000E+04;  0.0000000E+00;  3.9987234E+04;  1.6243436E-03;  0.0000000E+00; -2.1388187E-04;  1.7184569E+03;
  2.8105766E-01;  9.9999998E-03; -9.0015456E-02;4175; -2.7709682E-03;  0.0000000E+00;  9.3929601E-05;  1.0009872E+03;  1.0000000E-01;  8.1795215E+02;3;  1.0540045E+00;  0.0000000E+00;  3.1890642E-02;0;  1.2099968E-03;  4.0093781E+04;  0.0000000E+00;  1.9736785E-02;  4.0000000E+04;  0.0000000E+00;  3.9986566E+04;  1.5712136E-03;  0.0000000E+00; -3.6121681E-04;  1.7507476E+03;
  2.8102025E-01;  9.9999998E-03; -8.0012679E-02;4176; -2.6965798E-03;  0.0000000E+00;  8.3796731E-05;  1.0008721E+03;  1.0000000E-01;  7.2254749E+02;3;  1.1486839E+00;  0.0000000E+00;  3.2609697E-02;0;  9.5498050E-04;  4.0084570E+04;  0.0000000E+00;  1.5567974E-02;  4.0000000E+04;  0.0000000E+00;  3.9986785E+04;  1.4384391E-03;  0.0000000E+00; -4.8345860E-04;  1.7199276E+03;
  2.8098959E-01;  9.9999998E-03; -7.0009992E-02;4177; -2.6392168E-03;  0.0000000E+00;  6.7515517E-05;  1.0007393E+03;  1.0000000E-01;  6.1252588E+02;3;  1.1904625E+00;  0.0000000E+00;  2.1992287E-02;0;  6.6414353E-04;  4.0073258E+04;  0.0000000E+00;  1.5006667E-02;  4.0000000E+04;  0.0000000E+00;  3.9987324E+04;  1.2333078E-03;  0.0000000E+00; -5.6916423E-04;  1.6287759E+03;
  2.8096679E-01;  9.9999998E-03; -6.0007490E-02;4178; -2.5898565E-03;  0.0000000E+00;  4.9697283E-05;  1.0006069E+03;  1.0000000E-01;  5.0280060E+02;3;  1.2083032E+00;  0.0000000E+00;  1.4862454E-02;0;  3.5956845E-04;  4.0061395E+04;  0.0000000E+00;  1.4647448E-02;  4.0000000E+04;  0.0000000E+00;  3.9988453E+04;  9.7338308E-04;  0.0000000E+00; -6.1381463E-04;  1.4897715E+03;
  2.8095701E-01;  9.9999998E-03; -5.0005071E-02;4179; -2.5463526E-03;  0.0000000E+00;  3.2510921E-05;  1.0004766E+03;  1.0000000E-01;  3.9485303E+02;3;  1.2186224E+00;  0.0000000E+00;  9.2002470E-03;0;  6.3547108E-05;  4.0049594E+04;  0.0000000E+00;  1.2995002E-02;  4.0000000E+04;  0.0000000E+00;  3.9989781E+04;  6.8329863E-04;  0.0000000E+00; -6.1975152E-04;  1.3235377E+03;
  2.8096393E-01;  9.9999998E-03; -4.0003534E-02;4180; -2.5100403E-03;  0.0000000E+00;  1.8014440E-05;  1.0003622E+03;  1.0000000E-01;  3.0013965E+02;3;  1.2236590E+00;  0.0000000E+00;  4.8901681E-03;0; -2.0392644E-04;  4.0039090E+04;  0.0000000E+00;  1.0000519E-02;  4.0000000E+04;  0.0000000E+00;  3.9990840E+04;  3.9141686E-04;  0.0000000E+00; -5.9534330E-04;  1.1545447E+03;
  2.8098062E-01;  9.9999998E-03; -3.0003477E-02;4181; -2.4812312E-03;  0.0000000E+00;  7.2858052E-06;  1.0002639E+03;  1.0000000E-01;  2.1856172E+02;3;  1.2261162E+00;  0.0000000E+00;  1.8137937E-03;0; -4.2665625E-04;  4.0030109E+04;  0.0000000E+00;  6.3934932E-03;  4.0000000E+04;  0.0000000E+00;  3.9991938E+04;  1.2673924E-04;  0.0000000E+00; -5.5339548E-04;  1.0054094E+03;
  2.8099757E-01;  9.9999998E-03; -2.0004172E-02;4182; -2.4609552E-03;  0.0000000E+00;  1.4281451E-06;  1.0001915E+03;  1.0000000E-01;  1.5871156E+02;3;  1.2276423E+00;  0.0000000E+00;  3.1232554E-04;0; -5.9293356E-04;  4.0023457E+04;  0.0000000E+00;  3.0828062E-03;  4.0000000E+04;  0.0000000E+00;  3.9992754E+04; -8.4161162E-05;  0.0000000E+00; -5.0877238E-04;  8.9247552E+02;
  2.8100887E-01;  9.9999998E-03; -1.0003478E-02;4183; -2.4490042E-03;  0.0000000E+00; -4.5192644E-07;  1.0001467E+03;  1.0000000E-01;  1.2157681E+02;3;  1.2281712E+00;  0.0000000E+00; -2.5899158E-04;0; -6.9532346E-04;  4.0019340E+04;  0.0000000E+00;  8.0556830E-04;  4.0000000E+04;  0.0000000E+00;  3.9993473E+04; -2.1995604E-04;  0.0000000E+00; -4.7536739E-04;  8.2375726E+02;
  2.8101292E-01;  9.9999998E-03;  4.3514908E-10;4184; -2.4449886E-03;  0.0000000E+00;  6.0008585E-09;  1.0001306E+03;  1.0000000E-01;  1.0814509E+02;3;  1.2285160E+00;  0.0000000E+00;  1.6644799E-05;0; -7.2987098E-04;  4.0018027E+04;  0.0000000E+00;  6.0136369E-13;  4.0000000E+04;  0.0000000E+00;  3.9993492E+04; -2.6682529E-04;  0.0000000E+00; -4.6304567E-04;  8.0092975E+02;
  2.8100887E-01;  9.9999998E-03;  1.0003479E-02;4185; -2.4490061E-03;  0.0000000E+00;  4.6370897E-07;  1.0001467E+03;  1.0000000E-01;  1.2157681E+02;3;  1.2281659E+00;  0.0000000E+00;  2.8706511E-04;0; -6.9532235E-04;  4.0019348E+04;  0.0000000E+00;  8.0580224E-04;  4.0000000E+04;  0.0000000E+00;  3.9993473E+04; -2.1995399E-04;  0.0000000E+00; -4.7536838E-04;  8.2375317E+02;
  2.8099757E-01;  9.9999998E-03;  2.0004172E-02;4186; -2.4609591E-03;  0.0000000E+00; -1.4171532E-06;  1.0001915E+03;  1.0000000E-01;  1.5871156E+02;3;  1.2276518E+00;  0.0000000E+00; -2.8359343E-04;0; -5.9293082E-04;  4.0023457E+04;  0.0000000E+00;  3.0833159E-03;  4.0000000E+04;  0.0000000E+00;  3.9992754E+04; -8.4156294E-05;  0.0000000E+00; -5.0877454E-04;  8.9246716E+02;
  2.8098062E-01;  9.9999998E-03;  3.0003477E-02;4187; -2.4812366E-03;  0.0000000E+00; -7.2754547E-06;  1.0002638E+03;  1.0000000E-01;  2.1856172E+02;3;  1.2261038E+00;  0.0000000E+00; -1.7947755E-03;0; -4.2665182E-04;  4.0030109E+04;  0.0000000E+00;  6.3945130E-03;  4.0000000E+04;  0.0000000E+00;  3.9991938E+04;  1.2674692E-04;  0.0000000E+00; -5.5339874E-04;  1.0053869E+03;
  2.8096393E-01;  9.9999998E-03;  4.0003534E-02;4188; -2.5100473E-03;  0.0000000E+00; -1.8005159E-05;  1.0003622E+03;  1.0000000E-01;  3.0004089E+02;3;  1.2236502E+00;  0.0000000E+00; -4.8818504E-03;0; -2.0392003E-04;  4.0039090E+04;  0.0000000E+00;  1.0002104E-02;  4.0000000E+04;  0.0000000E+00;  3.9990840E+04;  3.9142687E-04;  0.0000000E+00; -5.9534691E-04;  1.1545302E+03;
  2.8095701E-01;  9.9999998E-03;  5.0005071E-02;4189; -2.5463649E-03;  0.0000000E+00; -3.2502787E-05;  1.0004766E+03;  1.0000000E-01;  3.9485303E+02;3;  1.2186083E+00;  0.0000000E+00; -9.2037693E-03;0;  6.3554733E-05;  4.0049590E+04;  0.0000000E+00;  1.2996067E-02;  4.0000000E+04;  0.0000000E+00;  3.9989781E+04;  6.8331003E-04;  0.0000000E+00; -6.1975530E-04;  1.3235270E+03;
  2.8096679E-01;  9.9999998E-03;  6.0007486E-02;4190; -2.5898670E-03;  0.0000000E+00; -4.9690454E-05;  1.0006069E+03;  1.0000000E-01;  5.0280060E+02;3;  1.2083198E+00;  0.0000000E+00; -1.4885709E-02;0;  3.5957596E-04;  4.0061395E+04;  0.0000000E+00;  1.4648054E-02;  4.0000000E+04;  0.0000000E+00;  3.9988453E+04;  9.7339461E-04;  0.0000000E+00; -6.1381864E-04;  1.4897751E+03;
  2.9105189E-01;  9.9999998E-03; -1.0001977E-01;4235; -2.7725594E-03;  0.0000000E+00;  1.1356013E-04;  1.0009865E+03;  1.0000000E-01;  8.1726086E+02;3;  1.0584608E+00;  0.0000000E+00;  2.7279703E-02;0;  1.3812965E-03;  4.0093836E+04;  0.0000000E+00; -3.5828717E-02;  4.0000000E+04;  0.0000000E+00;  3.9987375E+04;  1.7978076E-03;  0.0000000E+00; -4.1651109E-04;  1.6593324E+03;
  2.9101917E-01;  9.9999998E-03; -9.0017252E-02;4236; -2.7049475E-03;  0.0000000E+00;  1.0517201E-04;  1.0008657E+03;  1.0000000E-01;  7.1721429E+02;3;  1.1558280E+00;  0.0000000E+00;  3.2591499E-02;0;  1.1470485E-03;  4.0084270E+04;  0.0000000E+00; -3.5144553E-02;  4.0000000E+04;  0.0000000E+00;  3.9987375E+04;  1.6995030E-03;  0.0000000E+00; -5.5245456E-04;  1.6495261E+03;
  2.9100117E-01;  9.9999998E-03; -8.0014497E-02;4237; -2.6572072E-03;  0.0000000E+00;  8.8837056E-05;  1.0007227E+03;  1.0000000E-01;  5.9879785E+02;3;  1.2017636E+00;  0.0000000E+00;  2.0601943E-02;0;  8.4664172E-04;  4.0071996E+04;  0.0000000E+00; -2.7118757E-02;  4.0000000E+04;  0.0000000E+00;  3.9987773E+04;  1.5119977E-03;  0.0000000E+00; -6.6535594E-04;  1.5780762E+03;
  2.9100257E-01;  9.9999998E-03; -7.0010290E-02;4238; -2.6203960E-03;  0.0000000E+00;  7.0252565E-05;  1.0005675E+03;  1.0000000E-01;  4.7020892E+02;3;  1.2256351E+00;  0.0000000E+00;  1.1945585E-02;0;  5.0221023E-04;  4.0058434E+04;  0.0000000E+00; -1.7036105E-02;  4.0000000E+04;  0.0000000E+00;  3.9988844E+04;  1.2471424E-03;  0.0000000E+00; -7.4493221E-04;  1.4573999E+03;
  2.9101637E-01;  9.9999998E-03; -6.0005933E-02;4239; -2.5898083E-03;  0.0000000E+00;  5.1006093E-05;  1.0004099E+03;  1.0000000E-01;  3.3954596E+02;3;  1.2335125E+00;  0.0000000E+00;  6.5802010E-03;0;  1.3960665E-04;  4.0044594E+04;  0.0000000E+00; -8.2625104E-03;  4.0000000E+04;  0.0000000E+00;  3.9989801E+04;  9.2663377E-04;  0.0000000E+00; -7.8702712E-04;  1.3062629E+03;
  2.9102984E-01;  9.9999998E-03; -5.0003745E-02;4240; -2.5656056E-03;  0.0000000E+00;  3.3267454E-05;  1.0002634E+03;  1.0000000E-01;  2.1816667E+02;3;  1.2378966E+00;  0.0000000E+00;  1.3784879E-03;0; -2.1453958E-04;  4.0031516E+04;  0.0000000E+00; -2.3362318E-03;  4.0000000E+04;  0.0000000E+00;  3.9991012E+04;  5.7908386E-04;  0.0000000E+00; -7.9362345E-04;  1.1465485E+03;
  2.9103860E-01;  9.9999998E-03; -4.0003967E-02;4241; -2.5467824E-03;  0.0000000E+00;  1.9406618E-05;  1.0001359E+03;  1.0000000E-01;  1.1258941E+02;3;  1.2389356E+00;  0.0000000E+00; -1.5086643E-03;0; -5.3598930E-04;  4.0020000E+04;  0.0000000E+00;  6.3554535E-04;  4.0000000E+04;  0.0000000E+00;  3.9992305E+04;  2.3636772E-04;  0.0000000E+00; -7.7235705E-04;  9.9918707E+02;
  2.9104736E-01;  9.9999998E-03; -3.0005360E-02;4242; -2.5337448E-03;  0.0000000E+00;  9.3984982E-06;  1.0000289E+03;  1.0000000E-01;  2.3900558E+01;3;  1.2377306E+00;  0.0000000E+00; -1.7712237E-03;0; -8.0512196E-04;  4.0010516E+04;  0.0000000E+00;  1.3947827E-03;  4.0000000E+04;  0.0000000E+00;  3.9992883E+04; -7.0042966E-05;  0.0000000E+00; -7.3507900E-04;  8.7984851E+02;
  2.9105851E-01;  9.9999998E-03; -2.0006306E-02;4243; -2.5250497E-03;  0.0000000E+00;  3.3129861E-06;  9.9995026E+02;  1.0000000E-01; -4.1233402E+01;3;  1.2396368E+00;  0.0000000E+00; -1.8495279E-03;0; -1.0072902E-03;  4.0003711E+04;  0.0000000E+00;  9.7051793E-04;  4.0000000E+04;  0.0000000E+00;  3.9993590E+04; -3.1191995E-04;  0.0000000E+00; -6.9537025E-04;  7.9628528E+02;
  2.9106829E-01;  9.9999998E-03; -1.0005117E-02;4244; -2.5202092E-03;  0.0000000E+00;  6.9499589E-07;  9.9990125E+02;  1.0000000E-01; -8.1824844E+01;3;  1.2389400E+00;  0.0000000E+00; -9.1310591E-04;0; -1.1324655E-03;  3.9999418E+04;  0.0000000E+00;  2.9708841E-04;  4.0000000E+04;  0.0000000E+00;  3.9993914E+04; -4.6678682E-04;  0.0000000E+00; -6.6567876E-04;  7.4884375E+02;
  2.9107225E-01;  9.9999998E-03;  5.6570948E-10;4245; -2.5186806E-03;  0.0000000E+00;  6.7205992E-09;  9.9988477E+02;  1.0000000E-01; -9.5454094E+01;3;  1.2385228E+00;  0.0000000E+00;  1.7958118E-05;0; -1.1748432E-03;  3.9997984E+04;  0.0000000E+00;  7.3495822E-14;  4.0000000E+04;  0.0000000E+00;  3.9993992E+04; -5.2010722E-04;  0.0000000E+00; -6.5473601E-04;  7.3381091E+02;
  2.9106829E-01;  9.9999998E-03;  1.0005118E-02;4246; -2.5202113E-03;  0.0000000E+00; -6.8152184E-07;  9.9990125E+02;  1.0000000E-01; -8.1824844E+01;3;  1.2389498E+00;  0.0000000E+00;  9.4468059E-04;0; -1.1324635E-03;  3.9999418E+04;  0.0000000E+00;  2.9746594E-04;  4.0000000E+04;  0.0000000E+00;  3.9993914E+04; -4.6678362E-04;  0.0000000E+00; -6.6567987E-04;  7.4883917E+02;
  2.9105851E-01;  9.9999998E-03;  2.0006306E-02;4247; -2.5250539E-03;  0.0000000E+00; -3.3003744E-06;  9.9995020E+02;  1.0000000E-01; -4.1282784E+01;3;  1.2396382E+00;  0.0000000E+00;  1.8741513E-03;0; -1.0072844E-03;  4.0003711E+04;  0.0000000E+00;  9.7123283E-04;  4.0000000E+04;  0.0000000E+00;  3.9993590E+04; -3.1191282E-04;  0.0000000E+00; -6.9537159E-04;  7.9628027E+02;
  2.9104736E-01;  9.9999998E-03;  3.0005360E-02;4248; -2.5337513E-03;  0.0000000E+00; -9.3863937E-06;  1.0000289E+03;  1.0000000E-01;  2.3900558E+01;3;  1.2377321E+00;  0.0000000E+00;  1.7926364E-03;0; -8.0511399E-04;  4.0010516E+04;  0.0000000E+00;  1.3958282E-03;  4.0000000E+04;  0.0000000E+00;  3.9992883E+04; -7.0032613E-05;  0.0000000E+00; -7.3508138E-04;  8.7983545E+02;
  2.9103860E-01;  9.9999998E-03;  4.0003967E-02;4249; -2.5467880E-03;  0.0000000E+00; -1.9396357E-05;  1.0001359E+03;  1.0000000E-01;  1.1258941E+02;3;  1.2389482E+00;  0.0000000E+00;  1.5133871E-03;0; -5.3597928E-04;  4.0020000E+04;  0.0000000E+00;  6.3682499E-04;  4.0000000E+04;  0.0000000E+00;  3.9992301E+04;  2.3638007E-04;  0.0000000E+00; -7.7235937E-04;  9.9917499E+02;
  2.9102984E-01;  9.9999998E-03;  5.0003745E-02;4250; -2.5656123E-03;  0.0000000E+00; -3.3258431E-05;  1.0002632E+03;  1.0000000E-01;  2.1806790E+02;3;  1.2378919E+00;  0.0000000E+00; -1.3920355E-03;0; -2.1452602E-04;  4.0031516E+04;  0.0000000E+00; -2.3357274E-03;  4.0000000E+04;  0.0000000E+00;  3.9991012E+04;  5.7910057E-04;  0.0000000E+00; -7.9362659E-04;  1.1465431E+03;
  2.9101637E-01;  9.9999998E-03;  6.0005933E-02;4251; -2.5898165E-03;  0.0000000E+00; -5.0997936E-05;  1.0004099E+03;  1.0000000E-01;  3.3954596E+02;3;  1.2335227E+00;  0.0000000E+00; -6.6024214E-03;0;  1.3962371E-04;  4.0044594E+04;  0.0000000E+00; -8.2623279E-03;  4.0000000E+04;  0.0000000E+00;  3.9989801E+04;  9.2665345E-04;  0.0000000E+00; -7.8702974E-04;  1.3062534E+03;
  3.0102026E-01;  9.9999998E-03; -1.0002060E-01;4296; -2.7348897E-03;  0.0000000E+00;  1.2099405E-04;  1.0009052E+03;  1.0000000E-01;  7.4990472E+02;3;  1.1299369E+00;  0.0000000E+00;  1.7274074E-02;0;  1.1695332E-03;  4.0087156E+04;  0.0000000E+00; -9.1812916E-02;  4.0000000E+04;  0.0000000E+00;  3.9987598E+04;  1.8225223E-03;  0.0000000E+00; -6.5298897E-04;  1.6114246E+03;
  3.0102062E-01;  9.9999998E-03; -9.0013176E-02;4297; -2.6857799E-03;  0.0000000E+00;  1.0714202E-04;  1.0007653E+03;  1.0000000E-01;  6.3395740E+02;3;  1.1944340E+00;  0.0000000E+00;  1.3453573E-02;0;  8.9865288E-04;  4.0075434E+04;  0.0000000E+00; -7.6970406E-02;  4.0000000E+04;  0.0000000E+00;  3.9988195E+04;  1.6739395E-03;  0.0000000E+00; -7.7528664E-04;  1.5542150E+03;
  3.0103108E-01;  9.9999998E-03; -8.0006383E-02;4298; -2.6540821E-03;  0.0000000E+00;  8.8287241E-05;  1.0006052E+03;  1.0000000E-01;  5.0131915E+02;3;  1.2296458E+00;  0.0000000E+00;  5.9378524E-03;0;  5.5725756E-04;  4.0061891E+04;  0.0000000E+00; -5.7488937E-02;  4.0000000E+04;  0.0000000E+00;  3.9989016E+04;  1.4339130E-03;  0.0000000E+00; -8.7665545E-04;  1.4434108E+03;
  3.0104336E-01;  9.9999998E-03; -7.0003055E-02;4299; -2.6350943E-03;  0.0000000E+00;  6.8126290E-05;  1.0004392E+03;  1.0000000E-01;  3.6384155E+02;3;  1.2444850E+00;  0.0000000E+00; -1.3934810E-03;0;  1.7023180E-04;  4.0047555E+04;  0.0000000E+00; -3.8286157E-02;  4.0000000E+04;  0.0000000E+00;  3.9990293E+04;  1.1181473E-03;  0.0000000E+00; -9.4791548E-04;  1.2981626E+03;
  3.0106363E-01;  9.9999998E-03; -6.0002316E-02;4300; -2.6222947E-03;  0.0000000E+00;  4.9257706E-05;  1.0002809E+03;  1.0000000E-01;  2.3278354E+02;3;  1.2483267E+00;  0.0000000E+00; -6.1393240E-03;0; -2.3481454E-04;  4.0033316E+04;  0.0000000E+00; -2.2386221E-02;  4.0000000E+04;  0.0000000E+00;  3.9991340E+04;  7.5103721E-04;  0.0000000E+00; -9.8585174E-04;  1.1410748E+03;
  3.0109060E-01;  9.9999998E-03; -5.0002687E-02;4301; -2.6147794E-03;  0.0000000E+00;  3.2514359E-05;  1.0001335E+03;  1.0000000E-01;  1.1061416E+02;3;  1.2472618E+00;  0.0000000E+00; -7.2681480E-03;0; -6.2981842E-04;  4.0020320E+04;  0.0000000E+00; -1.1068173E-02;  4.0000000E+04;  0.0000000E+00;  3.9992465E+04;  3.6275687E-04;  0.0000000E+00; -9.9257531E-04;  9.9385199E+02;
  3.0111781E-01;  9.9999998E-03; -4.0004209E-02;4302; -2.6109908E-03;  0.0000000E+00;  1.9254021E-05;  1.0000045E+03;  1.0000000E-01;  3.6542177E+00;3;  1.2454511E+00;  0.0000000E+00; -7.3418254E-03;0; -9.8867633E-04;  4.0009023E+04;  0.0000000E+00; -4.2460626E-03;  4.0000000E+04;  0.0000000E+00;  3.9993195E+04; -1.3809480E-05;  0.0000000E+00; -9.7486685E-04;  8.7270544E+02;
  3.0113903E-01;  9.9999998E-03; -3.0006040E-02;4303; -2.6099640E-03;  0.0000000E+00;  9.9020490E-06;  9.9989929E+02;  1.0000000E-01; -8.3454430E+01;3;  1.2421485E+00;  0.0000000E+00; -6.8934266E-03;0; -1.2894560E-03;  4.0000043E+04;  0.0000000E+00; -9.7286352E-04;  4.0000000E+04;  0.0000000E+00;  3.9993719E+04; -3.4646643E-04;  0.0000000E+00; -9.4298960E-04;  7.8563177E+02;
  3.0115247E-01;  9.9999998E-03; -2.0006742E-02;4304; -2.6103517E-03;  0.0000000E+00;  4.2403476E-06;  9.9982312E+02;  1.0000000E-01; -1.4656375E+02;3;  1.2401568E+00;  0.0000000E+00; -5.2837627E-03;0; -1.5155111E-03;  3.9993344E+04;  0.0000000E+00;  5.9135371E-05;  4.0000000E+04;  0.0000000E+00;  3.9994254E+04; -6.0676469E-04;  0.0000000E+00; -9.0874638E-04;  7.3224731E+02;
  3.0115977E-01;  9.9999998E-03; -1.0005030E-02;4305; -2.6111386E-03;  0.0000000E+00;  1.3533114E-06;  9.9977563E+02;  1.0000000E-01; -1.8587129E+02;3;  1.2386650E+00;  0.0000000E+00; -3.0387668E-03;0; -1.6555120E-03;  3.9989324E+04;  0.0000000E+00;  9.2934017E-05;  4.0000000E+04;  0.0000000E+00;  3.9994352E+04; -7.7246071E-04;  0.0000000E+00; -8.8305131E-04;  7.0587714E+02;
  3.0116206E-01;  9.9999998E-03;  5.6211147E-10;4306; -2.6114897E-03;  0.0000000E+00;  7.4161539E-09;  9.9975922E+02;  1.0000000E-01; -1.9950053E+02;3;  1.2382727E+00;  0.0000000E+00;  1.5698542E-05;0; -1.7028998E-03;  3.9987973E+04;  0.0000000E+00;  9.6966012E-13;  4.0000000E+04;  0.0000000E+00;  3.9994355E+04; -8.2933391E-04;  0.0000000E+00; -8.7356591E-04;  6.9835309E+02;
  3.0115977E-01;  9.9999998E-03;  1.0005031E-02;4307; -2.6111407E-03;  0.0000000E+00; -1.3384578E-06;  9.9977563E+02;  1.0000000E-01; -1.8587129E+02;3;  1.2386833E+00;  0.0000000E+00;  3.0751794E-03;0; -1.6555081E-03;  3.9989320E+04;  0.0000000E+00;  9.3191506E-05;  4.0000000E+04;  0.0000000E+00;  3.9994352E+04; -7.7245693E-04;  0.0000000E+00; -8.8305114E-04;  7.0586938E+02;
  3.0115247E-01;  9.9999998E-03;  2.0006744E-02;4308; -2.6103549E-03;  0.0000000E+00; -4.2261918E-06;  9.9982312E+02;  1.0000000E-01; -1.4656375E+02;3;  1.2401602E+00;  0.0000000E+00;  5.3099338E-03;0; -1.5155033E-03;  3.9993344E+04;  0.0000000E+00;  5.9716876E-05;  4.0000000E+04;  0.0000000E+00;  3.9994254E+04; -6.0675648E-04;  0.0000000E+00; -9.0874673E-04;  7.3222809E+02;
  3.0113903E-01;  9.9999998E-03;  3.0006040E-02;4309; -2.6099693E-03;  0.0000000E+00; -9.8886403E-06;  9.9989929E+02;  1.0000000E-01; -8.3454430E+01;3;  1.2421547E+00;  0.0000000E+00;  6.9127930E-03;0; -1.2894438E-03;  4.0000043E+04;  0.0000000E+00; -9.7231724E-04;  4.0000000E+04;  0.0000000E+00;  3.9993719E+04; -3.4645424E-04;  0.0000000E+00; -9.4298954E-04;  7.8561835E+02;
  3.0111781E-01;  9.9999998E-03;  4.0004209E-02;4310; -2.6109959E-03;  0.0000000E+00; -1.9241616E-05;  1.0000044E+03;  1.0000000E-01;  3.6542177E+00;3;  1.2454542E+00;  0.0000000E+00;  7.3482967E-03;0; -9.8866096E-04;  4.0009027E+04;  0.0000000E+00; -4.2452803E-03;  4.0000000E+04;  0.0000000E+00;  3.9993195E+04; -1.3793375E-05;  0.0000000E+00; -9.7486755E-04;  8.7269574E+02;
  3.0109060E-01;  9.9999998E-03;  5.0002687E-02;4311; -2.6147873E-03;  0.0000000E+00; -3.2503511E-05;  1.0001334E+03;  1.0000000E-01;  1.1051540E+02;3;  1.2472652E+00;  0.0000000E+00;  7.2569260E-03;0; -6.2980177E-04;  4.0020316E+04;  0.0000000E+00; -1.1067849E-02;  4.0000000E+04;  0.0000000E+00;  3.9992465E+04;  3.6277555E-04;  0.0000000E+00; -9.9257729E-04;  9.9385303E+02;
  3.0106363E-01;  9.9999998E-03;  6.0002316E-02;4312; -2.6223019E-03;  0.0000000E+00; -4.9248400E-05;  1.0002809E+03;  1.0000000E-01;  2.3278354E+02;3;  1.2483307E+00;  0.0000000E+00;  6.1167274E-03;0; -2.3479393E-04;  4.0033312E+04;  0.0000000E+00; -2.2384927E-02;  4.0000000E+04;  0.0000000E+00;  3.9991340E+04;  7.5105851E-04;  0.0000000E+00; -9.8585244E-04;  1.1410763E+03;
  3.1102511E-01;  9.9999998E-03; -1.0000981E-01;4357; -2.7233586E-03;  0.0000000E+00;  1.2424143E-04;  1.0008375E+03;  1.0000000E-01;  6.9380756E+02;3;  1.1684221E+00;  0.0000000E+00; -1.2438168E-03;0;  8.6214417E-04;  4.0081777E+04;  0.0000000E+00; -1.2564741E-01;  4.0000000E+04;  0.0000000E+00;  3.9988078E+04;  1.7770620E-03;  0.0000000E+00; -9.1491779E-04;  1.5675232E+03;
  3.1105483E-01;  9.9999998E-03; -9.0002276E-02;4358; -2.6885173E-03;  0.0000000E+00;  1.0672017E-04;  1.0006945E+03;  1.0000000E-01;  5.7539111E+02;3;  1.2162609E+00;  0.0000000E+00; -6.7595104E-03;0;  5.5825489E-04;  4.0069527E+04;  0.0000000E+00; -9.8527156E-02;  4.0000000E+04;  0.0000000E+00;  3.9989082E+04;  1.5809789E-03;  0.0000000E+00; -1.0227240E-03;  1.4637919E+03;
  3.1109229E-01;  9.9999998E-03; -7.9997495E-02;4359; -2.6721959E-03;  0.0000000E+00;  8.6179985E-05;  1.0005441E+03;  1.0000000E-01;  4.5075269E+02;3;  1.2424872E+00;  0.0000000E+00; -1.3607530E-02;0;  1.8608279E-04;  4.0056070E+04;  0.0000000E+00; -7.0313670E-02;  4.0000000E+04;  0.0000000E+00;  3.9990004E+04;  1.2980467E-03;  0.0000000E+00; -1.1119639E-03;  1.3189514E+03;
  3.1112790E-01;  9.9999998E-03; -6.9996417E-02;4360; -2.6678485E-03;  0.0000000E+00;  6.6420551E-05;  1.0003896E+03;  1.0000000E-01;  3.2285507E+02;3;  1.2539315E+00;  0.0000000E+00; -1.7913111E-02;0; -2.2874202E-04;  4.0042359E+04;  0.0000000E+00; -4.5182668E-02;  4.0000000E+04;  0.0000000E+00;  3.9990945E+04;  9.4626623E-04;  0.0000000E+00; -1.1750082E-03;  1.1573451E+03;
  3.1115538E-01;  9.9999998E-03; -5.9998360E-02;4361; -2.6702979E-03;  0.0000000E+00;  4.8438407E-05;  1.0002418E+03;  1.0000000E-01;  2.0038939E+02;3;  1.2531400E+00;  0.0000000E+00; -1.8305713E-02;0; -6.5784802E-04;  4.0029500E+04;  0.0000000E+00; -2.5490336E-02;  4.0000000E+04;  0.0000000E+00;  3.9992105E+04;  5.5121904E-04;  0.0000000E+00; -1.2090671E-03;  1.0029272E+03;
  3.1117323E-01;  9.9999998E-03; -5.0002437E-02;4362; -2.6763366E-03;  0.0000000E+00;  3.3198758E-05;  1.0001076E+03;  1.0000000E-01;  8.9182663E+01;3;  1.2509936E+00;  0.0000000E+00; -1.8324418E-02;0; -1.0730058E-03;  4.0017555E+04;  0.0000000E+00; -1.1967337E-02;  4.0000000E+04;  0.0000000E+00;  3.9993117E+04;  1.4304585E-04;  0.0000000E+00; -1.2160516E-03;  8.7451776E+02;
  3.1118441E-01;  9.9999998E-03; -4.0006869E-02;4363; -2.6845930E-03;  0.0000000E+00;  2.1152027E-05;  9.9999103E+02;  1.0000000E-01; -7.4565792E+00;3;  1.2473460E+00;  0.0000000E+00; -1.5336630E-02;0; -1.4485840E-03;  4.0007590E+04;  0.0000000E+00; -4.0838127E-03;  4.0000000E+04;  0.0000000E+00;  3.9993980E+04; -2.4659114E-04;  0.0000000E+00; -1.2019929E-03;  7.8263269E+02;
  3.1119153E-01;  9.9999998E-03; -3.0009737E-02;4364; -2.6933781E-03;  0.0000000E+00;  1.2347777E-05;  9.9989886E+02;  1.0000000E-01; -8.3800102E+01;3;  1.2440085E+00;  0.0000000E+00; -1.2142686E-02;0; -1.7629620E-03;  3.9999598E+04;  0.0000000E+00; -5.1462383E-04;  4.0000000E+04;  0.0000000E+00;  3.9994133E+04; -5.8717554E-04;  0.0000000E+00; -1.1757864E-03;  7.2813812E+02;
  3.1119642E-01;  9.9999998E-03; -2.0009818E-02;4365; -2.7011642E-03;  0.0000000E+00;  6.4336568E-06;  9.9983203E+02;  1.0000000E-01; -1.3915656E+02;3;  1.2411516E+00;  0.0000000E+00; -8.7391296E-03;0; -1.9993105E-03;  3.9993672E+04;  0.0000000E+00;  3.9468196E-04;  4.0000000E+04;  0.0000000E+00;  3.9994430E+04; -8.5185177E-04;  0.0000000E+00; -1.1474587E-03;  7.0345709E+02;
  3.1119978E-01;  9.9999998E-03; -1.0006612E-02;4366; -2.7065203E-03;  0.0000000E+00;  2.6657669E-06;  9.9978833E+02;  1.0000000E-01; -1.7535306E+02;3;  1.2381960E+00;  0.0000000E+00; -4.1597341E-03;0; -2.1458003E-03;  3.9990309E+04;  0.0000000E+00;  1.9863354E-04;  4.0000000E+04;  0.0000000E+00;  3.9994312E+04; -1.0196278E-03;  0.0000000E+00; -1.1261726E-03;  6.9645685E+02;
  3.1120127E-01;  9.9999998E-03;  6.2852412E-10;4367; -2.7084330E-03;  0.0000000E+00;  8.2088345E-09;  9.9977295E+02;  1.0000000E-01; -1.8809344E+02;3;  1.2368528E+00;  0.0000000E+00;  2.1031696E-05;0; -2.1954225E-03;  3.9989188E+04;  0.0000000E+00;  4.6174354E-13;  4.0000000E+04;  0.0000000E+00;  3.9994617E+04; -1.0771030E-03;  0.0000000E+00; -1.1183197E-03;  6.9570361E+02;
  3.1119978E-01;  9.9999998E-03;  1.0006613E-02;4368; -2.7065219E-03;  0.0000000E+00; -2.6492596E-06;  9.9978827E+02;  1.0000000E-01; -1.7540245E+02;3;  1.2381930E+00;  0.0000000E+00;  4.1998061E-03;0; -2.1457959E-03;  3.9990309E+04;  0.0000000E+00;  1.9884744E-04;  4.0000000E+04;  0.0000000E+00;  3.9994312E+04; -1.0196225E-03;  0.0000000E+00; -1.1261733E-03;  6.9645227E+02;
  3.1119642E-01;  9.9999998E-03;  2.0009818E-02;4369; -2.7011675E-03;  0.0000000E+00; -6.4179890E-06;  9.9983209E+02;  1.0000000E-01; -1.3910718E+02;3;  1.2411700E+00;  0.0000000E+00;  8.7673012E-03;0; -1.9993018E-03;  3.9993676E+04;  0.0000000E+00;  3.9504890E-04;  4.0000000E+04;  0.0000000E+00;  3.9994430E+04; -8.5184257E-04;  0.0000000E+00; -1.1474591E-03;  7.0345154E+02;
  3.1119153E-01;  9.9999998E-03;  3.0009739E-02;4370; -2.6933835E-03;  0.0000000E+00; -1.2332986E-05;  9.9989886E+02;  1.0000000E-01; -8.3800102E+01;3;  1.2440236E+00;  0.0000000E+00;  1.2158382E-02;0; -1.7629499E-03;  3.9999598E+04;  0.0000000E+00; -5.1435060E-04;  4.0000000E+04;  0.0000000E+00;  3.9994133E+04; -5.8716303E-04;  0.0000000E+00; -1.1757868E-03;  7.2812354E+02;
  3.1118441E-01;  9.9999998E-03;  4.0006869E-02;4371; -2.6845986E-03;  0.0000000E+00; -2.1138241E-05;  9.9999109E+02;  1.0000000E-01; -7.4071980E+00;3;  1.2473537E+00;  0.0000000E+00;  1.5342967E-02;0; -1.4485680E-03;  4.0007590E+04;  0.0000000E+00; -4.0837922E-03;  4.0000000E+04;  0.0000000E+00;  3.9993980E+04; -2.4657464E-04;  0.0000000E+00; -1.2019933E-03;  7.8262122E+02;
  3.1117323E-01;  9.9999998E-03;  5.0002437E-02;4372; -2.6763442E-03;  0.0000000E+00; -3.3186370E-05;  1.0001075E+03;  1.0000000E-01;  8.9083900E+01;3;  1.2509961E+00;  0.0000000E+00;  1.8309657E-02;0; -1.0729844E-03;  4.0017555E+04;  0.0000000E+00; -1.1966635E-02;  4.0000000E+04;  0.0000000E+00;  3.9993117E+04;  1.4306541E-04;  0.0000000E+00; -1.2160499E-03;  8.7451294E+02;
  3.1115538E-01;  9.9999998E-03;  5.9998363E-02;4373; -2.6703095E-03;  0.0000000E+00; -4.8427002E-05;  1.0002419E+03;  1.0000000E-01;  2.0038939E+02;3;  1.2531202E+00;  0.0000000E+00;  1.8278928E-02;0; -6.5782381E-04;  4.0029492E+04;  0.0000000E+00; -2.5489580E-02;  4.0000000E+04;  0.0000000E+00;  3.9992105E+04;  5.5124279E-04;  0.0000000E+00; -1.2090666E-03;  1.0029111E+03;
  3.2124981E-01;  9.9999998E-03; -1.0005469E-02;4427; -2.7986772E-03;  0.0000000E+00;  4.7780723E-06;  9.9992639E+02;  1.0000000E-01; -6.0985931E+01;3;  1.2366829E+00;  0.0000000E+00; -5.7321140E-03;0; -2.5224322E-03;  4.0001922E+04;  0.0000000E+00;  5.1702349E-04;  4.0000000E+04;  0.0000000E+00;  3.9994176E+04; -1.1250133E-03;  0.0000000E+00; -1.3974189E-03;  7.1690729E+02;
  3.2124999E-01;  9.9999998E-03;  5.6831251E-10;4428; -2.8019103E-03;  0.0000000E+00;  9.0527319E-09;  9.9991583E+02;  1.0000000E-01; -6.9726425E+01;3;  1.2359068E+00;  0.0000000E+00;  2.2707378E-05;0; -2.5714764E-03;  4.0001074E+04;  0.0000000E+00;  1.4078404E-12;  4.0000000E+04;  0.0000000E+00;  3.9994246E+04; -1.1800689E-03;  0.0000000E+00; -1.3914075E-03;  7.2159937E+02;
  3.2124981E-01;  9.9999998E-03;  1.0005470E-02;4429; -2.7986793E-03;  0.0000000E+00; -4.7601020E-06;  9.9992639E+02;  1.0000000E-01; -6.0985931E+01;3;  1.2366756E+00;  0.0000000E+00;  5.7740477E-03;0; -2.5224271E-03;  4.0001922E+04;  0.0000000E+00;  5.1710301E-04;  4.0000000E+04;  0.0000000E+00;  3.9994176E+04; -1.1250096E-03;  0.0000000E+00; -1.3974174E-03;  7.1690216E+02;
  3.2124895E-01;  9.9999998E-03; -2.0008752E-02;4426; -2.7893756E-03;  0.0000000E+00;  1.0264483E-05;  9.9996155E+02;  1.0000000E-01; -3.1850950E+01;3;  1.2395945E+00;  0.0000000E+00; -1.2271998E-02;0; -2.3775273E-03;  4.0004543E+04;  0.0000000E+00;  1.6184696E-03;  4.0000000E+04;  0.0000000E+00;  3.9994312E+04; -9.6392079E-04;  0.0000000E+00; -1.4136066E-03;  7.0797327E+02;
  3.2124895E-01;  9.9999998E-03;  2.0008752E-02;4430; -2.7893793E-03;  0.0000000E+00; -1.0247107E-05;  9.9996155E+02;  1.0000000E-01; -3.1850950E+01;3;  1.2395872E+00;  0.0000000E+00;  1.2299380E-02;0; -2.3775203E-03;  4.0004543E+04;  0.0000000E+00;  1.6187505E-03;  4.0000000E+04;  0.0000000E+00;  3.9994312E+04; -9.6391264E-04;  0.0000000E+00; -1.4136077E-03;  7.0797314E+02;
  3.2124594E-01;  9.9999998E-03; -3.0009728E-02;4425; -2.7751646E-03;  0.0000000E+00;  1.7178032E-05;  1.0000182E+03;  1.0000000E-01;  1.5110683E+01;3;  1.2432882E+00;  0.0000000E+00; -1.8518806E-02;0; -2.1434715E-03;  4.0009129E+04;  0.0000000E+00;  2.0536992E-03;  4.0000000E+04;  0.0000000E+00;  3.9994379E+04; -7.0865173E-04;  0.0000000E+00; -1.4348197E-03;  7.0766357E+02;
  3.2124594E-01;  9.9999998E-03;  3.0009728E-02;4431; -2.7751687E-03;  0.0000000E+00; -1.7161796E-05;  1.0000182E+03;  1.0000000E-01;  1.5110683E+01;3;  1.2432936E+00;  0.0000000E+00;  1.8535854E-02;0; -2.1434615E-03;  4.0009125E+04;  0.0000000E+00;  2.0538070E-03;  4.0000000E+04;  0.0000000E+00;  3.9994379E+04; -7.0863956E-04;  0.0000000E+00; -1.4348219E-03;  7.0765411E+02;
  3.2123902E-01;  9.9999998E-03; -4.0008299E-02;4424; -2.7576638E-03;  0.0000000E+00;  2.6180987E-05;  1.0000898E+03;  1.0000000E-01;  7.4467033E+01;3;  1.2476976E+00;  0.0000000E+00; -2.3602039E-02;0; -1.8315945E-03;  4.0015332E+04;  0.0000000E+00;  3.0291736E-05;  4.0000000E+04;  0.0000000E+00;  3.9994160E+04; -3.7790634E-04;  0.0000000E+00; -1.4536881E-03;  7.3163794E+02;
  3.2123902E-01;  9.9999998E-03;  4.0008299E-02;4432; -2.7576690E-03;  0.0000000E+00; -2.6165768E-05;  1.0000898E+03;  1.0000000E-01;  7.4368271E+01;3;  1.2477120E+00;  0.0000000E+00;  2.3602841E-02;0; -1.8315774E-03;  4.0015336E+04;  0.0000000E+00;  2.9716084E-05;  4.0000000E+04;  0.0000000E+00;  3.9994160E+04; -3.7788981E-04;  0.0000000E+00; -1.4536876E-03;  7.3162134E+02;
  3.2122636E-01;  9.9999998E-03; -5.0004832E-02;4423; -2.7389610E-03;  0.0000000E+00;  3.7590551E-05;  1.0001870E+03;  1.0000000E-01;  1.5495859E+02;3;  1.2510368E+00;  0.0000000E+00; -2.9189836E-02;0; -1.4578918E-03;  4.0023547E+04;  0.0000000E+00; -6.4242659E-03;  4.0000000E+04;  0.0000000E+00;  3.9993855E+04;  4.2327438E-06;  0.0000000E+00; -1.4621245E-03;  7.9296069E+02;
  3.2122636E-01;  9.9999998E-03;  5.0004836E-02;4433; -2.7389685E-03;  0.0000000E+00; -3.7576410E-05;  1.0001870E+03;  1.0000000E-01;  1.5485982E+02;3;  1.2510232E+00;  0.0000000E+00;  2.9174048E-02;0; -1.4578700E-03;  4.0023547E+04;  0.0000000E+00; -6.4230785E-03;  4.0000000E+04;  0.0000000E+00;  3.9993859E+04;  4.2533529E-06;  0.0000000E+00; -1.4621234E-03;  7.9295135E+02;
  3.2120883E-01;  9.9999998E-03; -6.0000431E-02;4422; -2.7213558E-03;  0.0000000E+00;  5.1573410E-05;  1.0003002E+03;  1.0000000E-01;  2.4878308E+02;3;  1.2539232E+00;  0.0000000E+00; -3.2625549E-02;0; -1.0428242E-03;  4.0033180E+04;  0.0000000E+00; -1.9039892E-02;  4.0000000E+04;  0.0000000E+00;  3.9992840E+04;  4.1014975E-04;  0.0000000E+00; -1.4529739E-03;  8.9729620E+02;
  3.2120883E-01;  9.9999998E-03;  6.0000435E-02;4434; -2.7213646E-03;  0.0000000E+00; -5.1560648E-05;  1.0003002E+03;  1.0000000E-01;  2.4878308E+02;3;  1.2539265E+00;  0.0000000E+00;  3.2591045E-02;0; -1.0427991E-03;  4.0033180E+04;  0.0000000E+00; -1.9038985E-02;  4.0000000E+04;  0.0000000E+00;  3.9992840E+04;  4.1017140E-04;  0.0000000E+00; -1.4529706E-03;  8.9728943E+02;
  3.2119000E-01;  9.9999998E-03; -6.9995821E-02;4421; -2.7070581E-03;  0.0000000E+00;  6.8111985E-05;  1.0004199E+03;  1.0000000E-01;  3.4794077E+02;3;  1.2524785E+00;  0.0000000E+00; -3.4840610E-02;0; -6.1066356E-04;  4.0044020E+04;  0.0000000E+00; -3.8873974E-02;  4.0000000E+04;  0.0000000E+00;  3.9991895E+04;  8.1077055E-04;  0.0000000E+00; -1.4214341E-03;  1.0403439E+03;
  3.2116836E-01;  9.9999998E-03; -7.9992130E-02;4420; -2.6991379E-03;  0.0000000E+00;  8.7201472E-05;  1.0005489E+03;  1.0000000E-01;  4.5470319E+02;3;  1.2433327E+00;  0.0000000E+00; -3.4032337E-02;0; -1.8777000E-04;  4.0055879E+04;  0.0000000E+00; -6.5927818E-02;  4.0000000E+04;  0.0000000E+00;  3.9990742E+04;  1.1780699E-03;  0.0000000E+00; -1.3658399E-03;  1.2073416E+03;
  3.2113981E-01;  9.9999998E-03; -8.9992203E-02;4419; -2.7014432E-03;  0.0000000E+00;  1.0804197E-04;  1.0006803E+03;  1.0000000E-01;  5.6363837E+02;3;  1.2282547E+00;  0.0000000E+00; -2.9593792E-02;0;  1.9940850E-04;  4.0067840E+04;  0.0000000E+00; -9.8814048E-02;  4.0000000E+04;  0.0000000E+00;  3.9989688E+04;  1.4875422E-03;  0.0000000E+00; -1.2881337E-03;  1.3751266E+03;
  3.2110164E-01;  9.9999998E-03; -9.9997208E-02;4418; -2.7225155E-03;  0.0000000E+00;  1.2789745E-04;  1.0008074E+03;  1.0000000E-01;  6.6891937E+02;3;  1.1891402E+00;  0.0000000E+00; -2.8865568E-02;0;  5.2654906E-04;  4.0079094E+04;  0.0000000E+00; -1.3444932E-01;  4.0000000E+04;  0.0000000E+00;  3.9988656E+04;  1.7205281E-03;  0.0000000E+00; -1.1939791E-03;  1.5174617E+03;
  3.3118582E-01;  9.9999998E-03; -9.9989720E-02;4479; -2.7206349E-03;  0.0000000E+00;  1.3591873E-04;  1.0008170E+03;  1.0000000E-01;  6.7682037E+02;3;  1.2058665E+00;  0.0000000E+00; -5.3586289E-02;0;  2.0717387E-04;  4.0079691E+04;  0.0000000E+00; -1.2123007E-01;  4.0000000E+04;  0.0000000E+00;  3.9988883E+04;  1.6874679E-03;  0.0000000E+00; -1.4802940E-03;  1.4561061E+03;
  3.3122081E-01;  9.9999998E-03; -8.9988284E-02;4480; -2.7154998E-03;  0.0000000E+00;  1.1458871E-04;  1.0007201E+03;  1.0000000E-01;  5.9662512E+02;3;  1.2322214E+00;  0.0000000E+00; -5.3580150E-02;0; -1.2920424E-04;  4.0070250E+04;  0.0000000E+00; -8.1807114E-02;  4.0000000E+04;  0.0000000E+00;  3.9990074E+04;  1.4347413E-03;  0.0000000E+00; -1.5639456E-03;  1.2884641E+03;
  3.3124253E-01;  9.9999998E-03; -7.9990365E-02;4481; -2.7255865E-03;  0.0000000E+00;  9.4061288E-05;  1.0006185E+03;  1.0000000E-01;  5.1247931E+02;3;  1.2446603E+00;  0.0000000E+00; -5.1743537E-02;0; -5.1429297E-04;  4.0060875E+04;  0.0000000E+00; -4.8561841E-02;  4.0000000E+04;  0.0000000E+00;  3.9991719E+04;  1.1192947E-03;  0.0000000E+00; -1.6335876E-03;  1.1120553E+03;
  3.3125320E-01;  9.9999998E-03; -6.9994636E-02;4482; -2.7447578E-03;  0.0000000E+00;  7.5875811E-05;  1.0005220E+03;  1.0000000E-01;  4.3248160E+02;3;  1.2489662E+00;  0.0000000E+00; -5.0000276E-02;0; -9.2591543E-04;  4.0052020E+04;  0.0000000E+00; -2.3358567E-02;  4.0000000E+04;  0.0000000E+00;  3.9992922E+04;  7.5910345E-04;  0.0000000E+00; -1.6850189E-03;  9.5248438E+02;
  3.3125576E-01;  9.9999998E-03; -5.9999920E-02;4483; -2.7694099E-03;  0.0000000E+00;  6.0273240E-05;  1.0004343E+03;  1.0000000E-01;  3.5979230E+02;3;  1.2489578E+00;  0.0000000E+00; -4.5095921E-02;0; -1.3403094E-03;  4.0043516E+04;  0.0000000E+00; -6.5375157E-03;  4.0000000E+04;  0.0000000E+00;  3.9993668E+04;  3.7644635E-04;  0.0000000E+00; -1.7167558E-03;  8.2910974E+02;
  3.3125347E-01;  9.9999998E-03; -5.0004914E-02;4484; -2.7968322E-03;  0.0000000E+00;  4.6794838E-05;  1.0003513E+03;  1.0000000E-01;  2.9105350E+02;3;  1.2464074E+00;  0.0000000E+00; -3.8313393E-02;0; -1.7342598E-03;  4.0036500E+04;  0.0000000E+00;  2.7126847E-03;  4.0000000E+04;  0.0000000E+00;  3.9994438E+04; -4.1269386E-06;  0.0000000E+00; -1.7301328E-03;  7.5171826E+02;
  3.3124942E-01;  9.9999998E-03; -4.0008385E-02;4485; -2.8242469E-03;  0.0000000E+00;  3.5179200E-05;  1.0002855E+03;  1.0000000E-01;  2.3653651E+02;3;  1.2433882E+00;  0.0000000E+00; -3.0374268E-02;0; -2.0866944E-03;  4.0030723E+04;  0.0000000E+00;  6.0130097E-03;  4.0000000E+04;  0.0000000E+00;  3.9994719E+04; -3.5771879E-04;  0.0000000E+00; -1.7289756E-03;  7.1913733E+02;
  3.3124560E-01;  9.9999998E-03; -3.0009668E-02;4486; -2.8490638E-03;  0.0000000E+00;  2.5046709E-05;  1.0002305E+03;  1.0000000E-01;  1.9100694E+02;3;  1.2393574E+00;  0.0000000E+00; -2.2650447E-02;0; -2.3797082E-03;  4.0026203E+04;  0.0000000E+00;  5.4321177E-03;  4.0000000E+04;  0.0000000E+00;  3.9994445E+04; -6.6088449E-04;  0.0000000E+00; -1.7188238E-03;  7.2094684E+02;
  3.3124280E-01;  9.9999998E-03; -2.0008506E-02;4487; -2.8688372E-03;  0.0000000E+00;  1.6067826E-05;  1.0001896E+03;  1.0000000E-01;  1.5713136E+02;3;  1.2361351E+00;  0.0000000E+00; -1.4455136E-02;0; -2.5991253E-03;  4.0023297E+04;  0.0000000E+00;  3.1088854E-03;  4.0000000E+04;  0.0000000E+00;  3.9994199E+04; -8.9333864E-04;  0.0000000E+00; -1.7057867E-03;  7.4098694E+02;
  3.3124113E-01;  9.9999998E-03; -1.0005044E-02;4488; -2.8815321E-03;  0.0000000E+00;  7.8391686E-06;  1.0001653E+03;  1.0000000E-01;  1.3688503E+02;3;  1.2342902E+00;  0.0000000E+00; -7.1122642E-03;0; -2.7348083E-03;  4.0021418E+04;  0.0000000E+00;  8.8575704E-04;  4.0000000E+04;  0.0000000E+00;  3.9993934E+04; -1.0394251E-03;  0.0000000E+00; -1.6953832E-03;  7.6198029E+02;
  3.3124059E-01;  9.9999998E-03;  5.7024618E-10;4489; -2.8859412E-03;  0.0000000E+00;  9.8334674E-09;  1.0001587E+03;  1.0000000E-01;  1.3145308E+02;3;  1.2333288E+00;  0.0000000E+00;  2.2277738E-05;0; -2.7807052E-03;  4.0020840E+04;  0.0000000E+00;  1.4351216E-12;  4.0000000E+04;  0.0000000E+00;  3.9993824E+04; -1.0892501E-03;  0.0000000E+00; -1.6914550E-03;  7.7062537E+02;
  3.3124113E-01;  9.9999998E-03;  1.0005045E-02;4490; -2.8815349E-03;  0.0000000E+00; -7.8197445E-06;  1.0001653E+03;  1.0000000E-01;  1.3688503E+02;3;  1.2342863E+00;  0.0000000E+00;  7.1533052E-03;0; -2.7348031E-03;  4.0021418E+04;  0.0000000E+00;  8.8580517E-04;  4.0000000E+04;  0.0000000E+00;  3.9993934E+04; -1.0394215E-03;  0.0000000E+00; -1.6953816E-03;  7.6197736E+02;
  3.3124280E-01;  9.9999998E-03;  2.0008508E-02;4491; -2.8688409E-03;  0.0000000E+00; -1.6049109E-05;  1.0001896E+03;  1.0000000E-01;  1.5703259E+02;3;  1.2361401E+00;  0.0000000E+00;  1.4487792E-02;0; -2.5991171E-03;  4.0023293E+04;  0.0000000E+00;  3.1087620E-03;  4.0000000E+04;  0.0000000E+00;  3.9994195E+04; -8.9332944E-04;  0.0000000E+00; -1.7057876E-03;  7.4098651E+02;
  3.3124560E-01;  9.9999998E-03;  3.0009668E-02;4492; -2.8490699E-03;  0.0000000E+00; -2.5029140E-05;  1.0002305E+03;  1.0000000E-01;  1.9100694E+02;3;  1.2393500E+00;  0.0000000E+00;  2.2666093E-02;0; -2.3796975E-03;  4.0026207E+04;  0.0000000E+00;  5.4318919E-03;  4.0000000E+04;  0.0000000E+00;  3.9994445E+04; -6.6087273E-04;  0.0000000E+00; -1.7188247E-03;  7.2094049E+02;
  3.3124942E-01;  9.9999998E-03;  4.0008388E-02;4493; -2.8242527E-03;  0.0000000E+00; -3.5162815E-05;  1.0002855E+03;  1.0000000E-01;  2.3653651E+02;3;  1.2433740E+00;  0.0000000E+00;  3.0370684E-02;0; -2.0866795E-03;  4.0030719E+04;  0.0000000E+00;  6.0126772E-03;  4.0000000E+04;  0.0000000E+00;  3.9994727E+04; -3.5770296E-04;  0.0000000E+00; -1.7289766E-03;  7.1913525E+02;
  3.3125347E-01;  9.9999998E-03;  5.0004914E-02;4494; -2.7968399E-03;  0.0000000E+00; -4.6779580E-05;  1.0003513E+03;  1.0000000E-01;  2.9105350E+02;3;  1.2464061E+00;  0.0000000E+00;  3.8292725E-02;0; -1.7342404E-03;  4.0036500E+04;  0.0000000E+00;  2.7123205E-03;  4.0000000E+04;  0.0000000E+00;  3.9994438E+04; -4.1092799E-06;  0.0000000E+00; -1.7301312E-03;  7.5170990E+02;
  3.3125576E-01;  9.9999998E-03;  5.9999920E-02;4495; -2.7694185E-03;  0.0000000E+00; -6.0259263E-05;  1.0004343E+03;  1.0000000E-01;  3.5979230E+02;3;  1.2489251E+00;  0.0000000E+00;  4.5060851E-02;0; -1.3402882E-03;  4.0043516E+04;  0.0000000E+00; -6.5383115E-03;  4.0000000E+04;  0.0000000E+00;  3.9993668E+04;  3.7646637E-04;  0.0000000E+00; -1.7167545E-03;  8.2911060E+02;
  3.4122014E-01;  9.9999998E-03; -9.9986494E-02;4540; -2.7092907E-03;  0.0000000E+00;  1.5154356E-04;  1.0008618E+03;  1.0000000E-01;  7.1395514E+02;3;  1.2295035E+00;  0.0000000E+00; -7.0954576E-02;0; -7.8528188E-05;  4.0082562E+04;  0.0000000E+00; -9.2159733E-02;  4.0000000E+04;  0.0000000E+00;  3.9989672E+04;  1.6877964E-03;  0.0000000E+00; -1.7663246E-03;  1.3863391E+03;
  3.4122393E-01;  9.9999998E-03; -8.9988798E-02;4541; -2.7236210E-03;  0.0000000E+00;  1.2901770E-04;  1.0007975E+03;  1.0000000E-01;  6.6072205E+02;3;  1.2381910E+00;  0.0000000E+00; -6.9041282E-02;0; -4.0662999E-04;  4.0075789E+04;  0.0000000E+00; -5.3738948E-02;  4.0000000E+04;  0.0000000E+00;  3.9990961E+04;  1.4369689E-03;  0.0000000E+00; -1.8435989E-03;  1.2104985E+03;
  3.4122446E-01;  9.9999998E-03; -7.9992965E-02;4542; -2.7461343E-03;  0.0000000E+00;  1.0860476E-04;  1.0007312E+03;  1.0000000E-01;  6.0581000E+02;3;  1.2447050E+00;  0.0000000E+00; -6.6222630E-02;0; -7.7050901E-04;  4.0069160E+04;  0.0000000E+00; -2.4001807E-02;  4.0000000E+04;  0.0000000E+00;  3.9992238E+04;  1.1389717E-03;  0.0000000E+00; -1.9094807E-03;  1.0398071E+03;
  3.4122333E-01;  9.9999998E-03; -6.9998041E-02;4543; -2.7754917E-03;  0.0000000E+00;  9.0884554E-05;  1.0006708E+03;  1.0000000E-01;  5.5573737E+02;3;  1.2441776E+00;  0.0000000E+00; -6.1827194E-02;0; -1.1510752E-03;  4.0062934E+04;  0.0000000E+00; -3.6313708E-03;  4.0000000E+04;  0.0000000E+00;  3.9993449E+04;  8.0989779E-04;  0.0000000E+00; -1.9609730E-03;  8.9719995E+02;
  3.4122169E-01;  9.9999998E-03; -6.0002916E-02;4544; -2.8093739E-03;  0.0000000E+00;  7.5458876E-05;  1.0006127E+03;  1.0000000E-01;  5.0763995E+02;3;  1.2442222E+00;  0.0000000E+00; -5.3966038E-02;0; -1.5282158E-03;  4.0057516E+04;  0.0000000E+00;  8.0153178E-03;  4.0000000E+04;  0.0000000E+00;  3.9994230E+04;  4.6867784E-04;  0.0000000E+00; -1.9968937E-03;  7.9789844E+02;
  3.4121972E-01;  9.9999998E-03; -5.0006911E-02;4545; -2.8451805E-03;  0.0000000E+00;  6.1540071E-05;  1.0005635E+03;  1.0000000E-01;  4.6685098E+02;3;  1.2437298E+00;  0.0000000E+00; -4.5189135E-02;0; -1.8825945E-03;  4.0053148E+04;  0.0000000E+00;  1.2493088E-02;  4.0000000E+04;  0.0000000E+00;  3.9994469E+04;  1.3544832E-04;  0.0000000E+00; -2.0180428E-03;  7.4685394E+02;
  3.4121817E-01;  9.9999998E-03; -4.0009297E-02;4546; -2.8802489E-03;  0.0000000E+00;  4.8594491E-05;  1.0005242E+03;  1.0000000E-01;  4.3425931E+02;3;  1.2405258E+00;  0.0000000E+00; -3.5427269E-02;0; -2.1969450E-03;  4.0050020E+04;  0.0000000E+00;  1.1890221E-02;  4.0000000E+04;  0.0000000E+00;  3.9994703E+04; -1.6989143E-04;  0.0000000E+00; -2.0270536E-03;  7.3877509E+02;
  3.4121713E-01;  9.9999998E-03; -3.0009761E-02;4547; -2.9113614E-03;  0.0000000E+00;  3.6193360E-05;  1.0004949E+03;  1.0000000E-01;  4.0996371E+02;3;  1.2380131E+00;  0.0000000E+00; -2.6246358E-02;0; -2.4567300E-03;  4.0047758E+04;  0.0000000E+00;  8.4715672E-03;  4.0000000E+04;  0.0000000E+00;  3.9994258E+04; -4.2899090E-04;  0.0000000E+00; -2.0277391E-03;  7.6051556E+02;
  3.4121603E-01;  9.9999998E-03; -2.0008212E-02;4548; -2.9357898E-03;  0.0000000E+00;  2.4075414E-05;  1.0004739E+03;  1.0000000E-01;  3.9268027E+02;3;  1.2363580E+00;  0.0000000E+00; -1.6916940E-02;0; -2.6504928E-03;  4.0046320E+04;  0.0000000E+00;  4.3444308E-03;  4.0000000E+04;  0.0000000E+00;  3.9993973E+04; -6.2621670E-04;  0.0000000E+00; -2.0242762E-03;  7.9456976E+02;
  3.4121570E-01;  9.9999998E-03; -1.0004611E-02;4549; -2.9514076E-03;  0.0000000E+00;  1.2040595E-05;  1.0004620E+03;  1.0000000E-01;  3.8270523E+02;3;  1.2354894E+00;  0.0000000E+00; -8.3803264E-03;0; -2.7700183E-03;  4.0045500E+04;  0.0000000E+00;  1.1736266E-03;  4.0000000E+04;  0.0000000E+00;  3.9993754E+04; -7.4956758E-04;  0.0000000E+00; -2.0204508E-03;  8.2362762E+02;
  3.4121540E-01;  9.9999998E-03;  6.3880512E-10;4550; -2.9567862E-03;  0.0000000E+00;  1.0601716E-08;  1.0004573E+03;  1.0000000E-01;  3.7885349E+02;3;  1.2348207E+00;  0.0000000E+00;  2.0578096E-05;0; -2.8104018E-03;  4.0045215E+04;  0.0000000E+00;  1.8551107E-12;  4.0000000E+04;  0.0000000E+00;  3.9993672E+04; -7.9154468E-04;  0.0000000E+00; -2.0188573E-03;  8.3488837E+02;
  3.4121570E-01;  9.9999998E-03;  1.0004612E-02;4551; -2.9514099E-03;  0.0000000E+00; -1.2019616E-05;  1.0004620E+03;  1.0000000E-01;  3.8280399E+02;3;  1.2354623E+00;  0.0000000E+00;  8.4194914E-03;0; -2.7700141E-03;  4.0045496E+04;  0.0000000E+00;  1.1734583E-03;  4.0000000E+04;  0.0000000E+00;  3.9993754E+04; -7.4956304E-04;  0.0000000E+00; -2.0204510E-03;  8.2361920E+02;
  3.4121603E-01;  9.9999998E-03;  2.0008214E-02;4552; -2.9357926E-03;  0.0000000E+00; -2.4055278E-05;  1.0004739E+03;  1.0000000E-01;  3.9268027E+02;3;  1.2363410E+00;  0.0000000E+00;  1.6946403E-02;0; -2.6504830E-03;  4.0046320E+04;  0.0000000E+00;  4.3439637E-03;  4.0000000E+04;  0.0000000E+00;  3.9993973E+04; -6.2620797E-04;  0.0000000E+00; -2.0242750E-03;  7.9457104E+02;
  3.4121713E-01;  9.9999998E-03;  3.0009763E-02;4553; -2.9113642E-03;  0.0000000E+00; -3.6174508E-05;  1.0004949E+03;  1.0000000E-01;  4.1006247E+02;3;  1.2380123E+00;  0.0000000E+00;  2.6258195E-02;0; -2.4567218E-03;  4.0047766E+04;  0.0000000E+00;  8.4712319E-03;  4.0000000E+04;  0.0000000E+00;  3.9994258E+04; -4.2898246E-04;  0.0000000E+00; -2.0277393E-03;  7.6051105E+02;
  3.4121817E-01;  9.9999998E-03;  4.0009301E-02;4554; -2.8802522E-03;  0.0000000E+00; -4.8576981E-05;  1.0005241E+03;  1.0000000E-01;  4.3425931E+02;3;  1.2405051E+00;  0.0000000E+00;  3.5421249E-02;0; -2.1969313E-03;  4.0050020E+04;  0.0000000E+00;  1.1890445E-02;  4.0000000E+04;  0.0000000E+00;  3.9994703E+04; -1.6987928E-04;  0.0000000E+00; -2.0270520E-03;  7.3877600E+02;
  3.4121972E-01;  9.9999998E-03;  5.0006915E-02;4555; -2.8451842E-03;  0.0000000E+00; -6.1523722E-05;  1.0005636E+03;  1.0000000E-01;  4.6694977E+02;3;  1.2437159E+00;  0.0000000E+00;  4.5166265E-02;0; -1.8825802E-03;  4.0053148E+04;  0.0000000E+00;  1.2492443E-02;  4.0000000E+04;  0.0000000E+00;  3.9994465E+04;  1.3546285E-04;  0.0000000E+00; -2.0180431E-03;  7.4684430E+02;
  3.4122169E-01;  9.9999998E-03;  6.0002919E-02;4556; -2.8093799E-03;  0.0000000E+00; -7.5443488E-05;  1.0006127E+03;  1.0000000E-01;  5.0763995E+02;3;  1.2442044E+00;  0.0000000E+00;  5.3928312E-02;0; -1.5281952E-03;  4.0057512E+04;  0.0000000E+00;  8.0144657E-03;  4.0000000E+04;  0.0000000E+00;  3.9994230E+04;  4.6869469E-04;  0.0000000E+00; -1.9968899E-03;  7.9790216E+02;
  3.5116926E-01;  9.9999998E-03; -9.9990115E-02;4601; -2.6845422E-03;  0.0000000E+00;  1.7856839E-04;  1.0009189E+03;  1.0000000E-01;  7.6136121E+02;3;  1.2622011E+00;  0.0000000E+00; -7.6951154E-02;0; -3.3115793E-04;  4.0086211E+04;  0.0000000E+00; -5.3856231E-02;  4.0000000E+04;  0.0000000E+00;  3.9990020E+04;  1.7165673E-03;  0.0000000E+00; -2.0477253E-03;  1.3141907E+03;
  3.5117185E-01;  9.9999998E-03; -8.9992747E-02;4602; -2.7199441E-03;  0.0000000E+00;  1.5373626E-04;  1.0008862E+03;  1.0000000E-01;  7.3420148E+02;3;  1.2539040E+00;  0.0000000E+00; -7.5813800E-02;0; -6.3363300E-04;  4.0082035E+04;  0.0000000E+00; -2.0481301E-02;  4.0000000E+04;  0.0000000E+00;  3.9991387E+04;  1.4913199E-03;  0.0000000E+00; -2.1249529E-03;  1.1459897E+03;
  3.5117373E-01;  9.9999998E-03; -7.9996362E-02;4603; -2.7561134E-03;  0.0000000E+00;  1.3230929E-04;  1.0008500E+03;  1.0000000E-01;  7.0427637E+02;3;  1.2492820E+00;  0.0000000E+00; -7.3018409E-02;0; -9.5800601E-04;  4.0078227E+04;  0.0000000E+00;  2.7927158E-03;  4.0000000E+04;  0.0000000E+00;  3.9992754E+04;  1.2348777E-03;  0.0000000E+00; -2.1928838E-03;  9.9303784E+02;
  3.5117573E-01;  9.9999998E-03; -7.0000216E-02;4604; -2.7952576E-03;  0.0000000E+00;  1.1398304E-04;  1.0008216E+03;  1.0000000E-01;  6.8067212E+02;3;  1.2460294E+00;  0.0000000E+00; -6.7626320E-02;0; -1.2889004E-03;  4.0074598E+04;  0.0000000E+00;  1.6339138E-02;  4.0000000E+04;  0.0000000E+00;  3.9993633E+04;  9.6052611E-04;  0.0000000E+00; -2.2494264E-03;  8.7422363E+02;
  3.5117811E-01;  9.9999998E-03; -6.0003724E-02;4605; -2.8373008E-03;  0.0000000E+00;  9.7633063E-05;  1.0007988E+03;  1.0000000E-01;  6.6180847E+02;3;  1.2427731E+00;  0.0000000E+00; -5.9216756E-02;0; -1.6105548E-03;  4.0072035E+04;  0.0000000E+00;  2.1662731E-02;  4.0000000E+04;  0.0000000E+00;  3.9994070E+04;  6.8305206E-04;  0.0000000E+00; -2.2936068E-03;  8.0039948E+02;
  3.5118079E-01;  9.9999998E-03; -5.0006326E-02;4606; -2.8804142E-03;  0.0000000E+00;  8.2149258E-05;  1.0007783E+03;  1.0000000E-01;  6.4482129E+02;3;  1.2424937E+00;  0.0000000E+00; -4.8989959E-02;0; -1.9082406E-03;  4.0070293E+04;  0.0000000E+00;  2.0914750E-02;  4.0000000E+04;  0.0000000E+00;  3.9994363E+04;  4.1746398E-04;  0.0000000E+00; -2.3257046E-03;  7.7287787E+02;
  3.5118297E-01;  9.9999998E-03; -4.0007882E-02;4607; -2.9217717E-03;  0.0000000E+00;  6.6728586E-05;  1.0007663E+03;  1.0000000E-01;  6.3484625E+02;3;  1.2397419E+00;  0.0000000E+00; -3.8463324E-02;0; -2.1692088E-03;  4.0069426E+04;  0.0000000E+00;  1.6473748E-02;  4.0000000E+04;  0.0000000E+00;  3.9994246E+04;  1.7796589E-04;  0.0000000E+00; -2.3471748E-03;  7.8393341E+02;
  3.5118374E-01;  9.9999998E-03; -3.0008258E-02;4608; -2.9579869E-03;  0.0000000E+00;  5.0924886E-05;  1.0007585E+03;  1.0000000E-01;  6.2842670E+02;3;  1.2393330E+00;  0.0000000E+00; -2.7499070E-02;0; -2.3830242E-03;  4.0069176E+04;  0.0000000E+00;  1.0589398E-02;  4.0000000E+04;  0.0000000E+00;  3.9994047E+04; -2.2802942E-05;  0.0000000E+00; -2.3602212E-03;  8.1942383E+02;
  3.5118333E-01;  9.9999998E-03; -2.0007065E-02;4609; -2.9862223E-03;  0.0000000E+00;  3.4461496E-05;  1.0007529E+03;  1.0000000E-01;  6.2378485E+02;3;  1.2387435E+00;  0.0000000E+00; -1.7978765E-02;0; -2.5415565E-03;  4.0069078E+04;  0.0000000E+00;  5.1111788E-03;  4.0000000E+04;  0.0000000E+00;  3.9993594E+04; -1.7428922E-04;  0.0000000E+00; -2.3672674E-03;  8.6210394E+02;
  3.5118213E-01;  9.9999998E-03; -1.0004183E-02;4610; -3.0041980E-03;  0.0000000E+00;  1.7436121E-05;  1.0007537E+03;  1.0000000E-01;  6.2437738E+02;3;  1.2379032E+00;  0.0000000E+00; -8.7431138E-03;0; -2.6390017E-03;  4.0069332E+04;  0.0000000E+00;  1.3363058E-03;  4.0000000E+04;  0.0000000E+00;  3.9993230E+04; -2.6854122E-04;  0.0000000E+00; -2.3704604E-03;  8.9565369E+02;
  3.5118130E-01;  9.9999998E-03;  7.4713291E-10;4611; -3.0103605E-03;  0.0000000E+00;  1.1410611E-08;  1.0007548E+03;  1.0000000E-01;  6.2536505E+02;3;  1.2371055E+00;  0.0000000E+00;  1.8547720E-05;0; -2.6718783E-03;  4.0069539E+04;  0.0000000E+00;  4.6491386E-13;  4.0000000E+04;  0.0000000E+00;  3.9993156E+04; -3.0054623E-04;  0.0000000E+00; -2.3713321E-03;  9.0826929E+02;
  3.5118213E-01;  9.9999998E-03;  1.0004185E-02;4612; -3.0042010E-03;  0.0000000E+00; -1.7413773E-05;  1.0007537E+03;  1.0000000E-01;  6.2437738E+02;3;  1.2378955E+00;  0.0000000E+00;  8.7763509E-03;0; -2.6389980E-03;  4.0069332E+04;  0.0000000E+00;  1.3361677E-03;  4.0000000E+04;  0.0000000E+00;  3.9993230E+04; -2.6853767E-04;  0.0000000E+00; -2.3704604E-03;  8.9564655E+02;
  3.5118333E-01;  9.9999998E-03;  2.0007066E-02;4613; -2.9862267E-03;  0.0000000E+00; -3.4439916E-05;  1.0007530E+03;  1.0000000E-01;  6.2388361E+02;3;  1.2387302E+00;  0.0000000E+00;  1.8001949E-02;0; -2.5415481E-03;  4.0069078E+04;  0.0000000E+00;  5.1107155E-03;  4.0000000E+04;  0.0000000E+00;  3.9993594E+04; -1.7428385E-04;  0.0000000E+00; -2.3672644E-03;  8.6210144E+02;
  3.5118374E-01;  9.9999998E-03;  3.0008260E-02;4614; -2.9579911E-03;  0.0000000E+00; -5.0904764E-05;  1.0007585E+03;  1.0000000E-01;  6.2842670E+02;3;  1.2393087E+00;  0.0000000E+00;  2.7506905E-02;0; -2.3830133E-03;  4.0069176E+04;  0.0000000E+00;  1.0588680E-02;  4.0000000E+04;  0.0000000E+00;  3.9994047E+04; -2.2795559E-05;  0.0000000E+00; -2.3602177E-03;  8.1942426E+02;
  3.5118297E-01;  9.9999998E-03;  4.0007882E-02;4615; -2.9217752E-03;  0.0000000E+00; -6.6709734E-05;  1.0007664E+03;  1.0000000E-01;  6.3494501E+02;3;  1.2397140E+00;  0.0000000E+00;  3.8455870E-02;0; -2.1691984E-03;  4.0069422E+04;  0.0000000E+00;  1.6472515E-02;  4.0000000E+04;  0.0000000E+00;  3.9994246E+04;  1.7797417E-04;  0.0000000E+00; -2.3471725E-03;  7.8393073E+02;
  3.5118079E-01;  9.9999998E-03;  5.0006326E-02;4616; -2.8804219E-03;  0.0000000E+00; -8.2131817E-05;  1.0007783E+03;  1.0000000E-01;  6.4482129E+02;3;  1.2424538E+00;  0.0000000E+00;  4.8957091E-02;0; -1.9082264E-03;  4.0070289E+04;  0.0000000E+00;  2.0914607E-02;  4.0000000E+04;  0.0000000E+00;  3.9994363E+04;  4.1747440E-04;  0.0000000E+00; -2.3257008E-03;  7.7288379E+02;
  3.5117811E-01;  9.9999998E-03;  6.0003724E-02;4617; -2.8373101E-03;  0.0000000E+00; -9.7615964E-05;  1.0007988E+03;  1.0000000E-01;  6.6180847E+02;3;  1.2427498E+00;  0.0000000E+00;  5.9181225E-02;0; -1.6105366E-03;  4.0072035E+04;  0.0000000E+00;  2.1661330E-02;  4.0000000E+04;  0.0000000E+00;  3.9994074E+04;  6.8306387E-04;  0.0000000E+00; -2.2936005E-03;  8.0040448E+02;
  3.6112076E-01;  9.9999998E-03; -9.9994890E-02;4662; -2.6442306E-03;  0.0000000E+00;  2.2001965E-04;  1.0009608E+03;  1.0000000E-01;  7.9592810E+02;3;  1.3154005E+00;  0.0000000E+00; -7.1443222E-02;0; -5.5508490E-04;  4.0088809E+04;  0.0000000E+00; -1.2119092E-02;  4.0000000E+04;  0.0000000E+00;  3.9990719E+04;  1.7709442E-03;  0.0000000E+00; -2.3260291E-03;  1.2459524E+03;
  3.6112264E-01;  9.9999998E-03; -8.9997396E-02;4663; -2.6995400E-03;  0.0000000E+00;  1.9169317E-04;  1.0009496E+03;  1.0000000E-01;  7.8674316E+02;3;  1.2846283E+00;  0.0000000E+00; -7.2443478E-02;0; -8.1384054E-04;  4.0086555E+04;  0.0000000E+00;  1.3202703E-02;  4.0000000E+04;  0.0000000E+00;  3.9991914E+04;  1.5945841E-03;  0.0000000E+00; -2.4084246E-03;  1.0988611E+03;
  3.6112601E-01;  9.9999998E-03; -8.0000088E-02;4664; -2.7516081E-03;  0.0000000E+00;  1.6655539E-04;  1.0009444E+03;  1.0000000E-01;  7.8239764E+02;3;  1.2612621E+00;  0.0000000E+00; -7.2329223E-02;0; -1.0811454E-03;  4.0085102E+04;  0.0000000E+00;  2.8160663E-02;  4.0000000E+04;  0.0000000E+00;  3.9992887E+04;  1.4021564E-03;  0.0000000E+00; -2.4833018E-03;  9.7220825E+02;
  3.6113104E-01;  9.9999998E-03; -7.0002399E-02;4665; -2.7999454E-03;  0.0000000E+00;  1.4579823E-04;  1.0009410E+03;  1.0000000E-01;  7.7963226E+02;3;  1.2510689E+00;  0.0000000E+00; -6.7858525E-02;0; -1.3458561E-03;  4.0084008E+04;  0.0000000E+00;  3.4009874E-02;  4.0000000E+04;  0.0000000E+00;  3.9993781E+04;  1.2033035E-03;  0.0000000E+00; -2.5491596E-03;  8.8048962E+02;
  3.6113650E-01;  9.9999998E-03; -6.0003936E-02;4666; -2.8486419E-03;  0.0000000E+00;  1.2697148E-04;  1.0009442E+03;  1.0000000E-01;  7.8229889E+02;3;  1.2464597E+00;  0.0000000E+00; -5.9656136E-02;0; -1.5968907E-03;  4.0083801E+04;  0.0000000E+00;  3.2893900E-02;  4.0000000E+04;  0.0000000E+00;  3.9994031E+04;  1.0081154E-03;  0.0000000E+00; -2.6050061E-03;  8.3114111E+02;
  3.6114046E-01;  9.9999998E-03; -5.0005030E-02;4667; -2.8971666E-03;  0.0000000E+00;  1.0852268E-04;  1.0009518E+03;  1.0000000E-01;  7.8861969E+02;3;  1.2444358E+00;  0.0000000E+00; -4.9698599E-02;0; -1.8244295E-03;  4.0084219E+04;  0.0000000E+00;  2.7304579E-02;  4.0000000E+04;  0.0000000E+00;  3.9993988E+04;  8.2607003E-04;  0.0000000E+00; -2.6504996E-03;  8.2307147E+02;
  3.6114183E-01;  9.9999998E-03; -4.0005829E-02;4668; -2.9428615E-03;  0.0000000E+00;  8.9307847E-05;  1.0009577E+03;  1.0000000E-01;  7.9345905E+02;3;  1.2433594E+00;  0.0000000E+00; -3.8905039E-02;0; -2.0205474E-03;  4.0085320E+04;  0.0000000E+00;  1.9645629E-02;  4.0000000E+04;  0.0000000E+00;  3.9993883E+04;  6.6545390E-04;  0.0000000E+00; -2.6860014E-03;  8.4775342E+02;
  3.6114079E-01;  9.9999998E-03; -3.0006107E-02;4669; -2.9826120E-03;  0.0000000E+00;  6.8836300E-05;  1.0009689E+03;  1.0000000E-01;  8.0264398E+02;3;  1.2435151E+00;  0.0000000E+00; -2.7766794E-02;0; -2.1791267E-03;  4.0086527E+04;  0.0000000E+00;  1.1914121E-02;  4.0000000E+04;  0.0000000E+00;  3.9993566E+04;  5.3316937E-04;  0.0000000E+00; -2.7122961E-03;  8.9135760E+02;
  3.6113873E-01;  9.9999998E-03; -2.0005370E-02;4670; -3.0134090E-03;  0.0000000E+00;  4.6901565E-05;  1.0009772E+03;  1.0000000E-01;  8.0965613E+02;3;  1.2429854E+00;  0.0000000E+00; -1.8207097E-02;0; -2.2956003E-03;  4.0087738E+04;  0.0000000E+00;  5.5436105E-03;  4.0000000E+04;  0.0000000E+00;  3.9993078E+04;  4.3468305E-04;  0.0000000E+00; -2.7302834E-03;  9.3809747E+02;
  3.6113617E-01;  9.9999998E-03; -1.0003278E-02;4671; -3.0328769E-03;  0.0000000E+00;  2.3806371E-05;  1.0009872E+03;  1.0000000E-01;  8.1795215E+02;3;  1.2426314E+00;  0.0000000E+00; -9.1367150E-03;0; -2.3667698E-03;  4.0088445E+04;  0.0000000E+00;  1.4202720E-03;  4.0000000E+04;  0.0000000E+00;  3.9992738E+04;  3.7392668E-04;  0.0000000E+00; -2.7406965E-03;  9.7319720E+02;
  3.6113530E-01;  9.9999998E-03;  8.8588376E-10;4672; -3.0395612E-03;  0.0000000E+00;  1.2138439E-08;  1.0009893E+03;  1.0000000E-01;  8.1953235E+02;3;  1.2424406E+00;  0.0000000E+00;  1.4852395E-05;0; -2.3907041E-03;  4.0088844E+04;  0.0000000E+00;  8.3565798E-16;  4.0000000E+04;  0.0000000E+00;  3.9992641E+04;  3.5340444E-04;  0.0000000E+00; -2.7441087E-03;  9.8615979E+02;
  3.6113617E-01;  9.9999998E-03;  1.0003280E-02;4673; -3.0328794E-03;  0.0000000E+00; -2.3782444E-05;  1.0009872E+03;  1.0000000E-01;  8.1795215E+02;3;  1.2426273E+00;  0.0000000E+00;  9.1635333E-03;0; -2.3667691E-03;  4.0088445E+04;  0.0000000E+00;  1.4200441E-03;  4.0000000E+04;  0.0000000E+00;  3.9992742E+04;  3.7392581E-04;  0.0000000E+00; -2.7406949E-03;  9.7318866E+02;
  3.6113873E-01;  9.9999998E-03;  2.0005371E-02;4674; -3.0134134E-03;  0.0000000E+00; -4.6878540E-05;  1.0009772E+03;  1.0000000E-01;  8.0965613E+02;3;  1.2429770E+00;  0.0000000E+00;  1.8226791E-02;0; -2.2955933E-03;  4.0087734E+04;  0.0000000E+00;  5.5431277E-03;  4.0000000E+04;  0.0000000E+00;  3.9993078E+04;  4.3468756E-04;  0.0000000E+00; -2.7302809E-03;  9.3809143E+02;
  3.6114079E-01;  9.9999998E-03;  3.0006109E-02;4675; -2.9826181E-03;  0.0000000E+00; -6.8815119E-05;  1.0009688E+03;  1.0000000E-01;  8.0264398E+02;3;  1.2434863E+00;  0.0000000E+00;  2.7770607E-02;0; -2.1791249E-03;  4.0086523E+04;  0.0000000E+00;  1.1913343E-02;  4.0000000E+04;  0.0000000E+00;  3.9993566E+04;  5.3317141E-04;  0.0000000E+00; -2.7122963E-03;  8.9134418E+02;
  3.6114183E-01;  9.9999998E-03;  4.0005833E-02;4676; -2.9428669E-03;  0.0000000E+00; -8.9287707E-05;  1.0009577E+03;  1.0000000E-01;  7.9345905E+02;3;  1.2433478E+00;  0.0000000E+00;  3.8892131E-02;0; -2.0205420E-03;  4.0085320E+04;  0.0000000E+00;  1.9645581E-02;  4.0000000E+04;  0.0000000E+00;  3.9993883E+04;  6.6545716E-04;  0.0000000E+00; -2.6859993E-03;  8.4775879E+02;
  3.6114046E-01;  9.9999998E-03;  5.0005034E-02;4677; -2.8971676E-03;  0.0000000E+00; -1.0850379E-04;  1.0009518E+03;  1.0000000E-01;  7.8861969E+02;3;  1.2444295E+00;  0.0000000E+00;  4.9673412E-02;0; -1.8244232E-03;  4.0084223E+04;  0.0000000E+00;  2.7303603E-02;  4.0000000E+04;  0.0000000E+00;  3.9993988E+04;  8.2607311E-04;  0.0000000E+00; -2.6504963E-03;  8.2306494E+02;
  3.6113650E-01;  9.9999998E-03;  6.0003940E-02;4678; -2.8486485E-03;  0.0000000E+00; -1.2695273E-04;  1.0009442E+03;  1.0000000E-01;  7.8229889E+02;3;  1.2464257E+00;  0.0000000E+00;  5.9622638E-02;0; -1.5968856E-03;  4.0083797E+04;  0.0000000E+00;  3.2893289E-02;  4.0000000E+04;  0.0000000E+00;  3.9994035E+04;  1.0081186E-03;  0.0000000E+00; -2.6050042E-03;  8.3115240E+02;
  3.7108585E-01;  9.9999998E-03; -1.0000075E-01;4723; -2.5960449E-03;  0.0000000E+00;  2.7469429E-04;  1.0009693E+03;  1.0000000E-01;  8.0303900E+02;3;  1.3793749E+00;  0.0000000E+00; -5.1282629E-02;0; -7.3463959E-04;  4.0088629E+04;  0.0000000E+00;  2.8302077E-02;  4.0000000E+04;  0.0000000E+00;  3.9991160E+04;  1.8677323E-03;  0.0000000E+00; -2.6023719E-03;  1.1885563E+03;
  3.7108555E-01;  9.9999998E-03; -9.0002604E-02;4724; -2.6612182E-03;  0.0000000E+00;  2.4344781E-04;  1.0009764E+03;  1.0000000E-01;  8.0896478E+02;3;  1.3384463E+00;  0.0000000E+00; -5.6155529E-02;0; -9.3479664E-04;  4.0088242E+04;  0.0000000E+00;  4.3979082E-02;  4.0000000E+04;  0.0000000E+00;  3.9992191E+04;  1.7593002E-03;  0.0000000E+00; -2.6940969E-03;  1.0713967E+03;
  3.7108752E-01;  9.9999998E-03; -8.0003656E-02;4725; -2.7286888E-03;  0.0000000E+00;  2.1309283E-04;  1.0009880E+03;  1.0000000E-01;  8.1854474E+02;3;  1.2954072E+00;  0.0000000E+00; -5.9210438E-02;0; -1.1318485E-03;  4.0088277E+04;  0.0000000E+00;  5.0077826E-02;  4.0000000E+04;  0.0000000E+00;  3.9992918E+04;  1.6478935E-03;  0.0000000E+00; -2.7797420E-03;  9.7530847E+02;
  3.7109175E-01;  9.9999998E-03; -7.0004232E-02;4726; -2.7869113E-03;  0.0000000E+00;  1.8695895E-04;  1.0010043E+03;  1.0000000E-01;  8.3207526E+02;3;  1.2685682E+00;  0.0000000E+00; -6.0313970E-02;0; -1.3190218E-03;  4.0089043E+04;  0.0000000E+00;  4.8495576E-02;  4.0000000E+04;  0.0000000E+00;  3.9993355E+04;  1.5390437E-03;  0.0000000E+00; -2.8580655E-03;  9.1106409E+02;
  3.7109557E-01;  9.9999998E-03; -6.0004681E-02;4727; -2.8403741E-03;  0.0000000E+00;  1.6365761E-04;  1.0010228E+03;  1.0000000E-01;  8.4738342E+02;3;  1.2578613E+00;  0.0000000E+00; -5.5627216E-02;0; -1.4900091E-03;  4.0090500E+04;  0.0000000E+00;  4.1687749E-02;  4.0000000E+04;  0.0000000E+00;  3.9993805E+04;  1.4378709E-03;  0.0000000E+00; -2.9278800E-03;  8.8342285E+02;
  3.7109628E-01;  9.9999998E-03; -5.0005179E-02;4728; -2.8913731E-03;  0.0000000E+00;  1.4047662E-04;  1.0010469E+03;  1.0000000E-01;  8.6733350E+02;3;  1.2528964E+00;  0.0000000E+00; -4.7110345E-02;0; -1.6398379E-03;  4.0092434E+04;  0.0000000E+00;  3.2160360E-02;  4.0000000E+04;  0.0000000E+00;  3.9993688E+04;  1.3483744E-03;  0.0000000E+00; -2.9882123E-03;  8.9026038E+02;
  3.7109348E-01;  9.9999998E-03; -4.0005475E-02;4729; -2.9384315E-03;  0.0000000E+00;  1.1602484E-04;  1.0010732E+03;  1.0000000E-01;  8.8916003E+02;3;  1.2510214E+00;  0.0000000E+00; -3.7455417E-02;0; -1.7652018E-03;  4.0094586E+04;  0.0000000E+00;  2.2057796E-02;  4.0000000E+04;  0.0000000E+00;  3.9993426E+04;  1.2732539E-03;  0.0000000E+00; -3.0384557E-03;  9.2335278E+02;
  3.7108895E-01;  9.9999998E-03; -3.0005209E-02;4730; -2.9788646E-03;  0.0000000E+00;  8.9622445E-05;  1.0010918E+03;  1.0000000E-01;  9.0456702E+02;3;  1.2510418E+00;  0.0000000E+00; -2.7304096E-02;0; -1.8640815E-03;  4.0096695E+04;  0.0000000E+00;  1.2968170E-02;  4.0000000E+04;  0.0000000E+00;  3.9993070E+04;  1.2141094E-03;  0.0000000E+00; -3.0781908E-03;  9.7031030E+02;
  3.7108451E-01;  9.9999998E-03; -2.0004183E-02;4731; -3.0099726E-03;  0.0000000E+00;  6.1161263E-05;  1.0011118E+03;  1.0000000E-01;  9.2106036E+02;3;  1.2504096E+00;  0.0000000E+00; -1.8132443E-02;0; -1.9353124E-03;  4.0098586E+04;  0.0000000E+00;  5.9198379E-03;  4.0000000E+04;  0.0000000E+00;  3.9992785E+04;  1.1716994E-03;  0.0000000E+00; -3.1070118E-03;  1.0171873E+03;
  3.7108061E-01;  9.9999998E-03; -1.0002376E-02;4732; -3.0294997E-03;  0.0000000E+00;  3.1051182E-05;  1.0011223E+03;  1.0000000E-01;  9.2975146E+02;3;  1.2508522E+00;  0.0000000E+00; -8.8183954E-03;0; -1.9783000E-03;  4.0099715E+04;  0.0000000E+00;  1.5011361E-03;  4.0000000E+04;  0.0000000E+00;  3.9992316E+04;  1.1461874E-03;  0.0000000E+00; -3.1244874E-03;  1.0513334E+03;
  3.7107888E-01;  9.9999998E-03;  1.0526967E-09;4733; -3.0361724E-03;  0.0000000E+00;  1.2899191E-08;  1.0011270E+03;  1.0000000E-01;  9.3370197E+02;3;  1.2504960E+00;  0.0000000E+00;  1.2481343E-05;0; -1.9926778E-03;  4.0100281E+04;  0.0000000E+00;  1.2456070E-12;  4.0000000E+04;  0.0000000E+00;  3.9992195E+04;  1.1376570E-03;  0.0000000E+00; -3.1303347E-03;  1.0638246E+03;
  3.7108061E-01;  9.9999998E-03;  1.0002377E-02;4734; -3.0295001E-03;  0.0000000E+00; -3.1025735E-05;  1.0011223E+03;  1.0000000E-01;  9.2975146E+02;3;  1.2508436E+00;  0.0000000E+00;  8.8370247E-03;0; -1.9782996E-03;  4.0099715E+04;  0.0000000E+00;  1.5008403E-03;  4.0000000E+04;  0.0000000E+00;  3.9992316E+04;  1.1461872E-03;  0.0000000E+00; -3.1244869E-03;  1.0513379E+03;
  3.7108451E-01;  9.9999998E-03;  2.0004187E-02;4735; -3.0099743E-03;  0.0000000E+00; -6.1137049E-05;  1.0011118E+03;  1.0000000E-01;  9.2115912E+02;3;  1.2504073E+00;  0.0000000E+00;  1.8147433E-02;0; -1.9353100E-03;  4.0098586E+04;  0.0000000E+00;  5.9193424E-03;  4.0000000E+04;  0.0000000E+00;  3.9992785E+04;  1.1716986E-03;  0.0000000E+00; -3.1070085E-03;  1.0171935E+03;
  3.7108895E-01;  9.9999998E-03;  3.0005213E-02;4736; -2.9788685E-03;  0.0000000E+00; -8.9599824E-05;  1.0010918E+03;  1.0000000E-01;  9.0456702E+02;3;  1.2510012E+00;  0.0000000E+00;  2.7302042E-02;0; -1.8640799E-03;  4.0096695E+04;  0.0000000E+00;  1.2967331E-02;  4.0000000E+04;  0.0000000E+00;  3.9993070E+04;  1.2141080E-03;  0.0000000E+00; -3.0781878E-03;  9.7030084E+02;
  3.7109348E-01;  9.9999998E-03;  4.0005479E-02;4737; -2.9384398E-03;  0.0000000E+00; -1.1600323E-04;  1.0010732E+03;  1.0000000E-01;  8.8916003E+02;3;  1.2509764E+00;  0.0000000E+00;  3.7443593E-02;0; -1.7651997E-03;  4.0094586E+04;  0.0000000E+00;  2.2056760E-02;  4.0000000E+04;  0.0000000E+00;  3.9993426E+04;  1.2732528E-03;  0.0000000E+00; -3.0384525E-03;  9.2335089E+02;
  3.7109628E-01;  9.9999998E-03;  5.0005179E-02;4738; -2.8913787E-03;  0.0000000E+00; -1.4045583E-04;  1.0010469E+03;  1.0000000E-01;  8.6733350E+02;3;  1.2528868E+00;  0.0000000E+00;  4.7088180E-02;0; -1.6398408E-03;  4.0092426E+04;  0.0000000E+00;  3.2158803E-02;  4.0000000E+04;  0.0000000E+00;  3.9993688E+04;  1.3483706E-03;  0.0000000E+00; -2.9882113E-03;  8.9026172E+02;
  3.7109557E-01;  9.9999998E-03;  6.0004681E-02;4739; -2.8403767E-03;  0.0000000E+00; -1.6363680E-04;  1.0010229E+03;  1.0000000E-01;  8.4748218E+02;3;  1.2578717E+00;  0.0000000E+00;  5.5594340E-02;0; -1.4900073E-03;  4.0090496E+04;  0.0000000E+00;  4.1686915E-02;  4.0000000E+04;  0.0000000E+00;  3.9993805E+04;  1.4378672E-03;  0.0000000E+00; -2.9278744E-03;  8.8342725E+02;
  3.8106534E-01;  9.9999998E-03; -1.0000631E-01;4784; -2.5593038E-03;  0.0000000E+00;  3.3359812E-04;  1.0009390E+03;  1.0000000E-01;  7.7795331E+02;3;  1.4347038E+00;  0.0000000E+00; -2.8534310E-02;0; -8.2309754E-04;  4.0085312E+04;  0.0000000E+00;  6.4095519E-02;  4.0000000E+04;  0.0000000E+00;  3.9991668E+04;  2.0559398E-03;  0.0000000E+00; -2.8790373E-03;  1.1472021E+03;
  3.8106123E-01;  9.9999998E-03; -9.0007536E-02;4785; -2.6162984E-03;  0.0000000E+00;  3.0352650E-04;  1.0009523E+03;  1.0000000E-01;  7.8901471E+02;3;  1.4016029E+00;  0.0000000E+00; -3.4138966E-02;0; -9.5652789E-04;  4.0085914E+04;  0.0000000E+00;  7.0023119E-02;  4.0000000E+04;  0.0000000E+00;  3.9992176E+04;  2.0260222E-03;  0.0000000E+00; -2.9825501E-03;  1.0638116E+03;
  3.8105801E-01;  9.9999998E-03; -8.0007620E-02;4786; -2.6859490E-03;  0.0000000E+00;  2.7002775E-04;  1.0009697E+03;  1.0000000E-01;  8.0333533E+02;3;  1.3559979E+00;  0.0000000E+00; -3.8751721E-02;0; -1.0777665E-03;  4.0086828E+04;  0.0000000E+00;  6.7952774E-02;  4.0000000E+04;  0.0000000E+00;  3.9992648E+04;  2.0032930E-03;  0.0000000E+00; -3.0810595E-03;  9.9885944E+02;
  3.8105565E-01;  9.9999998E-03; -7.0007458E-02;4787; -2.7542629E-03;  0.0000000E+00;  2.3697753E-04;  1.0009976E+03;  1.0000000E-01;  8.2644574E+02;3;  1.3118154E+00;  0.0000000E+00; -4.3150369E-02;0; -1.1842027E-03;  4.0088418E+04;  0.0000000E+00;  6.0065784E-02;  4.0000000E+04;  0.0000000E+00;  3.9993074E+04;  1.9891332E-03;  0.0000000E+00; -3.1733359E-03;  9.5986340E+02;
  3.8105193E-01;  9.9999998E-03; -6.0007498E-02;4788; -2.8120524E-03;  0.0000000E+00;  2.0669353E-04;  1.0010239E+03;  1.0000000E-01;  8.4827228E+02;3;  1.2818363E+00;  0.0000000E+00; -4.4737253E-02;0; -1.2739676E-03;  4.0090543E+04;  0.0000000E+00;  4.8778661E-02;  4.0000000E+04;  0.0000000E+00;  3.9993273E+04;  1.9839266E-03;  0.0000000E+00; -3.2578942E-03;  9.4995868E+02;
  3.8104600E-01;  9.9999998E-03; -5.0007608E-02;4789; -2.8630283E-03;  0.0000000E+00;  1.7714698E-04;  1.0010498E+03;  1.0000000E-01;  8.6970380E+02;3;  1.2712388E+00;  0.0000000E+00; -4.0437847E-02;0; -1.3464233E-03;  4.0093137E+04;  0.0000000E+00;  3.6293644E-02;  4.0000000E+04;  0.0000000E+00;  3.9992930E+04;  1.9868053E-03;  0.0000000E+00; -3.3332286E-03;  9.6689081E+02;
  3.8103876E-01;  9.9999998E-03; -4.0007323E-02;4790; -2.9086054E-03;  0.0000000E+00;  1.4618215E-04;  1.0010777E+03;  1.0000000E-01;  8.9281427E+02;3;  1.2659595E+00;  0.0000000E+00; -3.3248708E-02;0; -1.4021797E-03;  4.0095586E+04;  0.0000000E+00;  2.4338678E-02;  4.0000000E+04;  0.0000000E+00;  3.9992641E+04;  1.9957123E-03;  0.0000000E+00; -3.3978920E-03;  1.0034341E+03;
  3.8103083E-01;  9.9999998E-03; -3.0006351E-02;4791; -2.9470434E-03;  0.0000000E+00;  1.1279044E-04;  1.0011033E+03;  1.0000000E-01;  9.1404822E+02;3;  1.2633619E+00;  0.0000000E+00; -2.4670100E-02;0; -1.4428019E-03;  4.0097750E+04;  0.0000000E+00;  1.4119416E-02;  4.0000000E+04;  0.0000000E+00;  3.9992246E+04;  2.0075990E-03;  0.0000000E+00; -3.4504009E-03;  1.0492421E+03;
  3.8102326E-01;  9.9999998E-03; -2.0004712E-02;4792; -2.9762823E-03;  0.0000000E+00;  7.6910736E-05;  1.0011228E+03;  1.0000000E-01;  9.3024530E+02;3;  1.2635008E+00;  0.0000000E+00; -1.6303610E-02;0; -1.4701555E-03;  4.0099594E+04;  0.0000000E+00;  6.3980818E-03;  4.0000000E+04;  0.0000000E+00;  3.9992219E+04;  2.0191150E-03;  0.0000000E+00; -3.4892706E-03;  1.0928245E+03;
  3.8101786E-01;  9.9999998E-03; -1.0002493E-02;4793; -2.9946549E-03;  0.0000000E+00;  3.9029339E-05;  1.0011304E+03;  1.0000000E-01;  9.3656610E+02;3;  1.2627584E+00;  0.0000000E+00; -8.6069945E-03;0; -1.4858630E-03;  4.0101105E+04;  0.0000000E+00;  1.6166922E-03;  4.0000000E+04;  0.0000000E+00;  3.9992105E+04;  2.0273481E-03;  0.0000000E+00; -3.5132112E-03;  1.1238494E+03;
  3.8101569E-01;  9.9999998E-03;  1.2186375E-09;4794; -3.0008464E-03;  0.0000000E+00;  1.3663858E-08;  1.0011373E+03;  1.0000000E-01;  9.4229431E+02;3;  1.2631739E+00;  0.0000000E+00;  8.6920791E-06;0; -1.4909825E-03;  4.0101516E+04;  0.0000000E+00;  9.9773987E-13;  4.0000000E+04;  0.0000000E+00;  3.9991930E+04;  2.0303049E-03;  0.0000000E+00; -3.5212873E-03;  1.1350685E+03;
  3.8101786E-01;  9.9999998E-03;  1.0002496E-02;4795; -2.9946556E-03;  0.0000000E+00; -3.9002654E-05;  1.0011304E+03;  1.0000000E-01;  9.3646735E+02;3;  1.2627616E+00;  0.0000000E+00;  8.6176088E-03;0; -1.4858607E-03;  4.0101109E+04;  0.0000000E+00;  1.6164541E-03;  4.0000000E+04;  0.0000000E+00;  3.9992105E+04;  2.0273447E-03;  0.0000000E+00; -3.5132053E-03;  1.1238451E+03;
  3.8102326E-01;  9.9999998E-03;  2.0004716E-02;4796; -2.9762832E-03;  0.0000000E+00; -7.6885051E-05;  1.0011228E+03;  1.0000000E-01;  9.3024530E+02;3;  1.2634838E+00;  0.0000000E+00;  1.6313665E-02;0; -1.4701644E-03;  4.0099594E+04;  0.0000000E+00;  6.3974131E-03;  4.0000000E+04;  0.0000000E+00;  3.9992219E+04;  2.0191076E-03;  0.0000000E+00; -3.4892720E-03;  1.0928125E+03;
  3.8103083E-01;  9.9999998E-03;  3.0006353E-02;4797; -2.9470471E-03;  0.0000000E+00; -1.1276617E-04;  1.0011033E+03;  1.0000000E-01;  9.1404822E+02;3;  1.2633377E+00;  0.0000000E+00;  2.4662668E-02;0; -1.4428128E-03;  4.0097750E+04;  0.0000000E+00;  1.4118866E-02;  4.0000000E+04;  0.0000000E+00;  3.9992246E+04;  2.0075890E-03;  0.0000000E+00; -3.4504018E-03;  1.0492498E+03;
  3.8103876E-01;  9.9999998E-03;  4.0007323E-02;4798; -2.9086105E-03;  0.0000000E+00; -1.4615903E-04;  1.0010776E+03;  1.0000000E-01;  8.9271552E+02;3;  1.2659086E+00;  0.0000000E+00;  3.3234578E-02;0; -1.4021951E-03;  4.0095586E+04;  0.0000000E+00;  2.4336856E-02;  4.0000000E+04;  0.0000000E+00;  3.9992641E+04;  1.9956992E-03;  0.0000000E+00; -3.3978943E-03;  1.0034473E+03;
  3.8104600E-01;  9.9999998E-03;  5.0007612E-02;4799; -2.8630372E-03;  0.0000000E+00; -1.7712508E-04;  1.0010498E+03;  1.0000000E-01;  8.6970380E+02;3;  1.2711996E+00;  0.0000000E+00;  4.0409572E-02;0; -1.3464317E-03;  4.0093133E+04;  0.0000000E+00;  3.6292743E-02;  4.0000000E+04;  0.0000000E+00;  3.9992930E+04;  1.9867916E-03;  0.0000000E+00; -3.3332233E-03;  9.6689117E+02;
  3.8105193E-01;  9.9999998E-03;  6.0007498E-02;4800; -2.8120617E-03;  0.0000000E+00; -2.0667122E-04;  1.0010239E+03;  1.0000000E-01;  8.4827228E+02;3;  1.2818004E+00;  0.0000000E+00;  4.4704784E-02;0; -1.2739794E-03;  4.0090555E+04;  0.0000000E+00;  4.8778068E-02;  4.0000000E+04;  0.0000000E+00;  3.9993273E+04;  1.9839099E-03;  0.0000000E+00; -3.2578893E-03;  9.4997284E+02;
  3.9105454E-01;  9.9999998E-03; -1.0001086E-01;4845; -2.5425600E-03;  0.0000000E+00;  3.8949761E-04;  1.0008737E+03;  1.0000000E-01;  7.2383136E+02;3;  1.4504547E+00;  0.0000000E+00; -2.0809984E-02;0; -7.3892670E-04;  4.0079238E+04;  0.0000000E+00;  9.3337968E-02;  4.0000000E+04;  0.0000000E+00;  3.9991777E+04;  2.4201719E-03;  0.0000000E+00; -3.1590986E-03;  1.1246326E+03;
  3.9104831E-01;  9.9999998E-03; -9.0011403E-02;4846; -2.5855796E-03;  0.0000000E+00;  3.6165933E-04;  1.0008823E+03;  1.0000000E-01;  7.3094226E+02;3;  1.4503994E+00;  0.0000000E+00; -1.4576484E-02;0; -8.0712279E-04;  4.0079863E+04;  0.0000000E+00;  9.0647213E-02;  4.0000000E+04;  0.0000000E+00;  3.9992125E+04;  2.4676912E-03;  0.0000000E+00; -3.2748140E-03;  1.0747988E+03;
  3.9103785E-01;  9.9999998E-03; -8.0010973E-02;4847; -2.6387535E-03;  0.0000000E+00;  3.2912468E-04;  1.0008983E+03;  1.0000000E-01;  7.4427527E+02;3;  1.4223199E+00;  0.0000000E+00; -1.8426336E-02;0; -8.5718394E-04;  4.0081066E+04;  0.0000000E+00;  8.1869416E-02;  4.0000000E+04;  0.0000000E+00;  3.9992207E+04;  2.5290062E-03;  0.0000000E+00; -3.3861902E-03;  1.0384060E+03;
  3.9102593E-01;  9.9999998E-03; -7.0010580E-02;4848; -2.7009866E-03;  0.0000000E+00;  2.9272481E-04;  1.0009205E+03;  1.0000000E-01;  7.6254633E+02;3;  1.3845433E+00;  0.0000000E+00; -2.0167429E-02;0; -8.9003332E-04;  4.0082426E+04;  0.0000000E+00;  6.9137245E-02;  4.0000000E+04;  0.0000000E+00;  3.9992410E+04;  2.6019379E-03;  0.0000000E+00; -3.4919712E-03;  1.0206343E+03;
  3.9101362E-01;  9.9999998E-03; -6.0010299E-02;4849; -2.7608043E-03;  0.0000000E+00;  2.5496745E-04;  1.0009436E+03;  1.0000000E-01;  7.8180505E+02;3;  1.3436921E+00;  0.0000000E+00; -2.4264010E-02;0; -9.0737757E-04;  4.0084340E+04;  0.0000000E+00;  5.4555360E-02;  4.0000000E+04;  0.0000000E+00;  3.9992520E+04;  2.6830302E-03;  0.0000000E+00; -3.5904078E-03;  1.0234948E+03;
  3.9100012E-01;  9.9999998E-03; -5.0009780E-02;4850; -2.8108172E-03;  0.0000000E+00;  2.1713031E-04;  1.0009625E+03;  1.0000000E-01;  7.9740955E+02;3;  1.3133192E+00;  0.0000000E+00; -2.6427405E-02;0; -9.1199600E-04;  4.0086227E+04;  0.0000000E+00;  3.9898019E-02;  4.0000000E+04;  0.0000000E+00;  3.9992289E+04;  2.7674390E-03;  0.0000000E+00; -3.6794350E-03;  1.0449918E+03;
  3.9098597E-01;  9.9999998E-03; -4.0008750E-02;4851; -2.8519842E-03;  0.0000000E+00;  1.7836402E-04;  1.0009832E+03;  1.0000000E-01;  8.1449548E+02;3;  1.2999330E+00;  0.0000000E+00; -2.3929887E-02;0; -9.0759434E-04;  4.0088148E+04;  0.0000000E+00;  2.6501892E-02;  4.0000000E+04;  0.0000000E+00;  3.9992020E+04;  2.8492548E-03;  0.0000000E+00; -3.7568491E-03;  1.0797054E+03;
  3.9097309E-01;  9.9999998E-03; -3.0007124E-02;4852; -2.8855370E-03;  0.0000000E+00;  1.3723109E-04;  1.0009992E+03;  1.0000000E-01;  8.2782843E+02;3;  1.2940779E+00;  0.0000000E+00; -1.9096617E-02;0; -8.9832651E-04;  4.0090051E+04;  0.0000000E+00;  1.5303079E-02;  4.0000000E+04;  0.0000000E+00;  3.9991605E+04;  2.9220700E-03;  0.0000000E+00; -3.8203965E-03;  1.1197314E+03;
  3.9096248E-01;  9.9999998E-03; -2.0005036E-02;4853; -2.9106301E-03;  0.0000000E+00;  9.3420647E-05;  1.0010104E+03;  1.0000000E-01;  8.3711212E+02;3;  1.2919031E+00;  0.0000000E+00; -1.2333511E-02;0; -8.8827335E-04;  4.0091312E+04;  0.0000000E+00;  6.9213128E-03;  4.0000000E+04;  0.0000000E+00;  3.9991535E+04;  2.9795435E-03;  0.0000000E+00; -3.8678169E-03;  1.1565065E+03;
  3.9095542E-01;  9.9999998E-03; -1.0002624E-02;4854; -2.9261776E-03;  0.0000000E+00;  4.7380712E-05;  1.0010192E+03;  1.0000000E-01;  8.4442053E+02;3;  1.2900331E+00;  0.0000000E+00; -5.4934132E-03;0; -8.8080065E-04;  4.0092340E+04;  0.0000000E+00;  1.7477961E-03;  4.0000000E+04;  0.0000000E+00;  3.9991324E+04;  3.0163685E-03;  0.0000000E+00; -3.8971691E-03;  1.1822335E+03;
  3.9095274E-01;  9.9999998E-03;  1.3863510E-09;4855; -2.9313832E-03;  0.0000000E+00;  1.4407661E-08;  1.0010224E+03;  1.0000000E-01;  8.4708716E+02;3;  1.2896708E+00;  0.0000000E+00;  5.6977160E-06;0; -8.7807071E-04;  4.0092516E+04;  0.0000000E+00;  1.3796069E-12;  4.0000000E+04;  0.0000000E+00;  3.9991320E+04;  3.0290328E-03;  0.0000000E+00; -3.9071036E-03;  1.1914503E+03;
  3.9095542E-01;  9.9999998E-03;  1.0002627E-02;4856; -2.9261764E-03;  0.0000000E+00; -4.7352398E-05;  1.0010192E+03;  1.0000000E-01;  8.4442053E+02;3;  1.2900056E+00;  0.0000000E+00;  5.5040563E-03;0; -8.8080880E-04;  4.0092336E+04;  0.0000000E+00;  1.7476871E-03;  4.0000000E+04;  0.0000000E+00;  3.9991324E+04;  3.0163608E-03;  0.0000000E+00; -3.8971696E-03;  1.1822289E+03;
  3.9096248E-01;  9.9999998E-03;  2.0005038E-02;4857; -2.9106317E-03;  0.0000000E+00; -9.3393341E-05;  1.0010105E+03;  1.0000000E-01;  8.3721088E+02;3;  1.2918930E+00;  0.0000000E+00;  1.2338443E-02;0; -8.8828825E-04;  4.0091309E+04;  0.0000000E+00;  6.9208522E-03;  4.0000000E+04;  0.0000000E+00;  3.9991539E+04;  2.9795319E-03;  0.0000000E+00; -3.8678201E-03;  1.1565016E+03;
  3.9097309E-01;  9.9999998E-03;  3.0007126E-02;4858; -2.8855396E-03;  0.0000000E+00; -1.3720512E-04;  1.0009992E+03;  1.0000000E-01;  8.2782843E+02;3;  1.2940496E+00;  0.0000000E+00;  1.9090552E-02;0; -8.9833816E-04;  4.0090051E+04;  0.0000000E+00;  1.5302287E-02;  4.0000000E+04;  0.0000000E+00;  3.9991598E+04;  2.9220574E-03;  0.0000000E+00; -3.8203956E-03;  1.1197389E+03;
  3.9098597E-01;  9.9999998E-03;  4.0008750E-02;4859; -2.8519926E-03;  0.0000000E+00; -1.7833855E-04;  1.0009832E+03;  1.0000000E-01;  8.1449548E+02;3;  1.2999113E+00;  0.0000000E+00;  2.3917226E-02;0; -9.0761273E-04;  4.0088152E+04;  0.0000000E+00;  2.6501060E-02;  4.0000000E+04;  0.0000000E+00;  3.9992023E+04;  2.8492354E-03;  0.0000000E+00; -3.7568482E-03;  1.0797102E+03;
  3.9100012E-01;  9.9999998E-03;  5.0009783E-02;4860; -2.8108172E-03;  0.0000000E+00; -2.1710590E-04;  1.0009625E+03;  1.0000000E-01;  7.9740955E+02;3;  1.3133107E+00;  0.0000000E+00;  2.6406821E-02;0; -9.1202674E-04;  4.0086227E+04;  0.0000000E+00;  3.9896950E-02;  4.0000000E+04;  0.0000000E+00;  3.9992289E+04;  2.7674115E-03;  0.0000000E+00; -3.6794383E-03;  1.0450052E+03;
  3.9101362E-01;  9.9999998E-03;  6.0010303E-02;4861; -2.7608080E-03;  0.0000000E+00; -2.5494359E-04;  1.0009435E+03;  1.0000000E-01;  7.8170630E+02;3;  1.3436476E+00;  0.0000000E+00;  2.4232389E-02;0; -9.0740016E-04;  4.0084340E+04;  0.0000000E+00;  5.4554828E-02;  4.0000000E+04;  0.0000000E+00;  3.9992516E+04;  2.6830051E-03;  0.0000000E+00; -3.5904052E-03;  1.0234968E+03;
  4.0104559E-01;  9.9999998E-03; -1.0001471E-01;4906; -2.5399490E-03;  0.0000000E+00;  4.4120432E-04;  1.0007742E+03;  1.0000000E-01;  6.4136456E+02;3;  1.4550651E+00;  0.0000000E+00; -2.0149427E-02;0; -3.7230551E-04;  4.0070953E+04;  0.0000000E+00;  1.1490235E-01;  4.0000000E+04;  0.0000000E+00;  3.9991699E+04;  3.0735044E-03;  0.0000000E+00; -3.4458099E-03;  1.1208768E+03;
  4.0103891E-01;  9.9999998E-03; -9.0014212E-02;4907; -2.5746720E-03;  0.0000000E+00;  4.1235928E-04;  1.0007815E+03;  1.0000000E-01;  6.4748785E+02;3;  1.4637130E+00;  0.0000000E+00; -1.0937192E-02;0; -3.8763718E-04;  4.0071301E+04;  0.0000000E+00;  1.0547602E-01;  4.0000000E+04;  0.0000000E+00;  3.9991988E+04;  3.1843765E-03;  0.0000000E+00; -3.5720137E-03;  1.1011694E+03;
  4.0102530E-01;  9.9999998E-03; -8.0013178E-02;4908; -2.6086441E-03;  0.0000000E+00;  3.8075232E-04;  1.0007811E+03;  1.0000000E-01;  6.4709283E+02;3;  1.4647688E+00;  0.0000000E+00; -6.2670242E-03;0; -3.8226461E-04;  4.0071762E+04;  0.0000000E+00;  9.1713689E-02;  4.0000000E+04;  0.0000000E+00;  3.9992090E+04;  3.3119621E-03;  0.0000000E+00; -3.6942267E-03;  1.0887166E+03;
  4.0100673E-01;  9.9999998E-03; -7.0012189E-02;4909; -2.6493457E-03;  0.0000000E+00;  3.4399328E-04;  1.0007891E+03;  1.0000000E-01;  6.5370990E+02;3;  1.4504641E+00;  0.0000000E+00; -5.6559658E-03;0; -3.5960181E-04;  4.0072062E+04;  0.0000000E+00;  7.5533718E-02;  4.0000000E+04;  0.0000000E+00;  3.9991902E+04;  3.4515013E-03;  0.0000000E+00; -3.8111031E-03;  1.0865840E+03;
  4.0098649E-01;  9.9999998E-03; -6.0011283E-02;4910; -2.6931437E-03;  0.0000000E+00;  3.0306130E-04;  1.0007954E+03;  1.0000000E-01;  6.5894434E+02;3;  1.4273758E+00;  0.0000000E+00; -4.6953652E-03;0; -3.2378035E-04;  4.0072758E+04;  0.0000000E+00;  5.8664825E-02;  4.0000000E+04;  0.0000000E+00;  3.9991762E+04;  3.5968958E-03;  0.0000000E+00; -3.9206762E-03;  1.0960533E+03;
  4.0096712E-01;  9.9999998E-03; -5.0010186E-02;4911; -2.7337889E-03;  0.0000000E+00;  2.5875634E-04;  1.0008004E+03;  1.0000000E-01;  6.6309235E+02;3;  1.4009641E+00;  0.0000000E+00; -4.8281802E-03;0; -2.7966942E-04;  4.0073645E+04;  0.0000000E+00;  4.2501818E-02;  4.0000000E+04;  0.0000000E+00;  3.9991750E+04;  3.7408441E-03;  0.0000000E+00; -4.0205135E-03;  1.1160522E+03;
  4.0094888E-01;  9.9999998E-03; -4.0008735E-02;4912; -2.7673612E-03;  0.0000000E+00;  2.1152139E-04;  1.0008035E+03;  1.0000000E-01;  6.6566016E+02;3;  1.3765779E+00;  0.0000000E+00; -6.8728384E-03;0; -2.3281807E-04;  4.0074012E+04;  0.0000000E+00;  2.8087070E-02;  4.0000000E+04;  0.0000000E+00;  3.9991246E+04;  3.8750144E-03;  0.0000000E+00; -4.1078324E-03;  1.1431898E+03;
  4.0093267E-01;  9.9999998E-03; -3.0006960E-02;4913; -2.7920816E-03;  0.0000000E+00;  1.6201846E-04;  1.0008074E+03;  1.0000000E-01;  6.6891937E+02;3;  1.3605174E+00;  0.0000000E+00; -7.2515067E-03;0; -1.8888246E-04;  4.0074703E+04;  0.0000000E+00;  1.6177678E-02;  4.0000000E+04;  0.0000000E+00;  3.9991262E+04;  3.9908690E-03;  0.0000000E+00; -4.1797515E-03;  1.1726537E+03;
  4.0091968E-01;  9.9999998E-03; -2.0004842E-02;4914; -2.8092153E-03;  0.0000000E+00;  1.0988344E-04;  1.0008079E+03;  1.0000000E-01;  6.6931439E+02;3;  1.3552182E+00;  0.0000000E+00; -5.0295191E-03;0; -1.5315413E-04;  4.0075176E+04;  0.0000000E+00;  7.3089348E-03;  4.0000000E+04;  0.0000000E+00;  3.9990926E+04;  4.0803752E-03;  0.0000000E+00; -4.2335293E-03;  1.1989969E+03;
  4.0091112E-01;  9.9999998E-03; -1.0002464E-02;4915; -2.8196014E-03;  0.0000000E+00;  5.5593478E-05;  1.0008113E+03;  1.0000000E-01;  6.7217853E+02;3;  1.3508236E+00;  0.0000000E+00; -2.3914180E-03;0; -1.2988225E-04;  4.0075371E+04;  0.0000000E+00;  1.8450177E-03;  4.0000000E+04;  0.0000000E+00;  3.9990859E+04;  4.1369544E-03;  0.0000000E+00; -4.2668367E-03;  1.2172291E+03;
  4.0090802E-01;  9.9999998E-03;  1.5575270E-09;4916; -2.8230089E-03;  0.0000000E+00;  1.5036228E-08;  1.0008104E+03;  1.0000000E-01;  6.7138843E+02;3;  1.3507075E+00;  0.0000000E+00;  1.5871610E-06;0; -1.2182351E-04;  4.0075590E+04;  0.0000000E+00;  4.4824330E-13;  4.0000000E+04;  0.0000000E+00;  3.9990695E+04;  4.1563003E-03;  0.0000000E+00; -4.2781238E-03;  1.2237383E+03;
  4.0091112E-01;  9.9999998E-03;  1.0002467E-02;4917; -2.8195966E-03;  0.0000000E+00; -5.5563647E-05;  1.0008113E+03;  1.0000000E-01;  6.7217853E+02;3;  1.3508168E+00;  0.0000000E+00;  2.3958276E-03;0; -1.2989761E-04;  4.0075367E+04;  0.0000000E+00;  1.8448086E-03;  4.0000000E+04;  0.0000000E+00;  3.9990859E+04;  4.1369451E-03;  0.0000000E+00; -4.2668427E-03;  1.2172313E+03;
  4.0091968E-01;  9.9999998E-03;  2.0004844E-02;4918; -2.8092165E-03;  0.0000000E+00; -1.0985455E-04;  1.0008079E+03;  1.0000000E-01;  6.6931439E+02;3;  1.3552082E+00;  0.0000000E+00;  5.0284253E-03;0; -1.5316950E-04;  4.0075188E+04;  0.0000000E+00;  7.3085665E-03;  4.0000000E+04;  0.0000000E+00;  3.9990926E+04;  4.0803594E-03;  0.0000000E+00; -4.2335289E-03;  1.1989993E+03;
  4.0093267E-01;  9.9999998E-03;  3.0006964E-02;4919; -2.7920848E-03;  0.0000000E+00; -1.6199041E-04;  1.0008074E+03;  1.0000000E-01;  6.6891937E+02;3;  1.3605112E+00;  0.0000000E+00;  7.2444300E-03;0; -1.8890947E-04;  4.0074699E+04;  0.0000000E+00;  1.6176842E-02;  4.0000000E+04;  0.0000000E+00;  3.9991262E+04;  3.9908406E-03;  0.0000000E+00; -4.1797501E-03;  1.1726406E+03;
  4.0094888E-01;  9.9999998E-03;  4.0008739E-02;4920; -2.7673584E-03;  0.0000000E+00; -2.1149467E-04;  1.0008036E+03;  1.0000000E-01;  6.6575897E+02;3;  1.3765715E+00;  0.0000000E+00;  6.8576373E-03;0; -2.3284252E-04;  4.0074016E+04;  0.0000000E+00;  2.8085915E-02;  4.0000000E+04;  0.0000000E+00;  3.9991242E+04;  3.8749843E-03;  0.0000000E+00; -4.1078269E-03;  1.1431824E+03;
  4.0096712E-01;  9.9999998E-03;  5.0010189E-02;4921; -2.7337887E-03;  0.0000000E+00; -2.5873006E-04;  1.0008004E+03;  1.0000000E-01;  6.6309235E+02;3;  1.4009447E+00;  0.0000000E+00;  4.8050880E-03;0; -2.7970225E-04;  4.0073641E+04;  0.0000000E+00;  4.2500999E-02;  4.0000000E+04;  0.0000000E+00;  3.9991750E+04;  3.7408094E-03;  0.0000000E+00; -4.0205116E-03;  1.1160442E+03;
  4.0098649E-01;  9.9999998E-03;  6.0011286E-02;4922; -2.6931507E-03;  0.0000000E+00; -3.0303467E-04;  1.0007954E+03;  1.0000000E-01;  6.5894434E+02;3;  1.4273552E+00;  0.0000000E+00;  4.6701892E-03;0; -3.2382039E-04;  4.0072758E+04;  0.0000000E+00;  5.8664676E-02;  4.0000000E+04;  0.0000000E+00;  3.9991762E+04;  3.5968539E-03;  0.0000000E+00; -3.9206743E-03;  1.0960494E+03;
  4.1103533E-01;  9.9999998E-03; -1.0001830E-01;4967; -2.5489742E-03;  0.0000000E+00;  4.8708968E-04;  1.0006710E+03;  1.0000000E-01;  5.5583612E+02;3;  1.4550495E+00;  0.0000000E+00; -2.4601419E-02;0;  4.0017930E-04;  4.0062281E+04;  0.0000000E+00;  1.2789468E-01;  4.0000000E+04;  0.0000000E+00;  3.9991398E+04;  4.1423347E-03;  0.0000000E+00; -3.7421554E-03;  1.1324763E+03;
  4.1102961E-01;  9.9999998E-03; -9.0016536E-02;4968; -2.5768089E-03;  0.0000000E+00;  4.5556918E-04;  1.0006608E+03;  1.0000000E-01;  5.4744128E+02;3;  1.4664021E+00;  0.0000000E+00; -1.4760613E-02;0;  4.1502714E-04;  4.0061781E+04;  0.0000000E+00;  1.1394293E-01;  4.0000000E+04;  0.0000000E+00;  3.9991496E+04;  4.2904196E-03;  0.0000000E+00; -3.8753925E-03;  1.1374789E+03;
  4.1101760E-01;  9.9999998E-03; -8.0014534E-02;4969; -2.5993127E-03;  0.0000000E+00;  4.2151977E-04;  1.0006465E+03;  1.0000000E-01;  5.3568854E+02;3;  1.4801996E+00;  0.0000000E+00; -6.4227474E-03;0;  4.5002298E-04;  4.0060930E+04;  0.0000000E+00;  9.6957713E-02;  4.0000000E+04;  0.0000000E+00;  3.9991305E+04;  4.4546449E-03;  0.0000000E+00; -4.0046219E-03;  1.1427869E+03;
  4.1099924E-01;  9.9999998E-03; -7.0012592E-02;4970; -2.6188046E-03;  0.0000000E+00;  3.8356287E-04;  1.0006339E+03;  1.0000000E-01;  5.2512097E+02;3;  1.4844900E+00;  0.0000000E+00; -1.6925216E-03;0;  5.0036563E-04;  4.0059945E+04;  0.0000000E+00;  7.8640848E-02;  4.0000000E+04;  0.0000000E+00;  3.9991332E+04;  4.6288287E-03;  0.0000000E+00; -4.1284631E-03;  1.1497529E+03;
  4.1097808E-01;  9.9999998E-03; -6.0010668E-02;4971; -2.6390157E-03;  0.0000000E+00;  3.4073647E-04;  1.0006190E+03;  1.0000000E-01;  5.1277563E+02;3;  1.4871112E+00;  0.0000000E+00;  2.8367415E-03;0;  5.6095654E-04;  4.0058887E+04;  0.0000000E+00;  6.0435347E-02;  4.0000000E+04;  0.0000000E+00;  3.9991328E+04;  4.8058061E-03;  0.0000000E+00; -4.2448496E-03;  1.1592709E+03;
  4.1095650E-01;  9.9999998E-03; -5.0008785E-02;4972; -2.6562933E-03;  0.0000000E+00;  2.9338046E-04;  1.0006006E+03;  1.0000000E-01;  4.9766495E+02;3;  1.4827592E+00;  0.0000000E+00;  4.9565188E-03;0;  6.2622270E-04;  4.0057938E+04;  0.0000000E+00;  4.3465748E-02;  4.0000000E+04;  0.0000000E+00;  3.9991199E+04;  4.9773119E-03;  0.0000000E+00; -4.3510892E-03;  1.1714893E+03;
  4.1093615E-01;  9.9999998E-03; -4.0006995E-02;4973; -2.6698206E-03;  0.0000000E+00;  2.4125940E-04;  1.0005837E+03;  1.0000000E-01;  4.8364066E+02;3;  1.4782838E+00;  0.0000000E+00;  4.8573357E-03;0;  6.9025531E-04;  4.0056566E+04;  0.0000000E+00;  2.8580695E-02;  4.0000000E+04;  0.0000000E+00;  3.9990875E+04;  5.1343860E-03;  0.0000000E+00; -4.4441307E-03;  1.1855754E+03;
  4.1091889E-01;  9.9999998E-03; -3.0005286E-02;4974; -2.6791734E-03;  0.0000000E+00;  1.8497287E-04;  1.0005718E+03;  1.0000000E-01;  4.7376437E+02;3;  1.4694767E+00;  0.0000000E+00;  4.6025161E-03;0;  7.4737566E-04;  4.0055695E+04;  0.0000000E+00;  1.6404986E-02;  4.0000000E+04;  0.0000000E+00;  3.9990918E+04;  5.2681821E-03;  0.0000000E+00; -4.5208065E-03;  1.2000171E+03;
  4.1090530E-01;  9.9999998E-03; -2.0003574E-02;4975; -2.6844123E-03;  0.0000000E+00;  1.2531060E-04;  1.0005577E+03;  1.0000000E-01;  4.6201163E+02;3;  1.4633241E+00;  0.0000000E+00;  3.1319226E-03;0;  7.9237064E-04;  4.0055055E+04;  0.0000000E+00;  7.3948354E-03;  4.0000000E+04;  0.0000000E+00;  3.9990828E+04;  5.3704861E-03;  0.0000000E+00; -4.5781154E-03;  1.2126852E+03;
  4.1089657E-01;  9.9999998E-03; -1.0001803E-02;4976; -2.6862852E-03;  0.0000000E+00;  6.3257256E-05;  1.0005539E+03;  1.0000000E-01;  4.5885123E+02;3;  1.4600651E+00;  0.0000000E+00;  2.5455251E-03;0;  8.2117552E-04;  4.0054539E+04;  0.0000000E+00;  1.8642334E-03;  4.0000000E+04;  0.0000000E+00;  3.9990672E+04;  5.4347613E-03;  0.0000000E+00; -4.6135858E-03;  1.2213976E+03;
  4.1089344E-01;  9.9999998E-03;  1.7021753E-09;4977; -2.6869557E-03;  0.0000000E+00;  1.5769729E-08;  1.0005510E+03;  1.0000000E-01;  4.5648093E+02;3;  1.4562081E+00;  0.0000000E+00;  9.5460564E-09;0;  8.3105545E-04;  4.0054590E+04;  0.0000000E+00;  5.0164195E-14;  4.0000000E+04;  0.0000000E+00;  3.9990703E+04;  5.4566590E-03;  0.0000000E+00; -4.6256036E-03;  1.2245056E+03;
  4.1089657E-01;  9.9999998E-03;  1.0001807E-02;4978; -2.6862805E-03;  0.0000000E+00; -6.3226093E-05;  1.0005538E+03;  1.0000000E-01;  4.5885123E+02;3;  1.4600641E+00;  0.0000000E+00; -2.5460946E-03;0;  8.2115643E-04;  4.0054535E+04;  0.0000000E+00;  1.8641725E-03;  4.0000000E+04;  0.0000000E+00;  3.9990672E+04;  5.4347487E-03;  0.0000000E+00; -4.6135923E-03;  1.2214032E+03;
  4.1090530E-01;  9.9999998E-03;  2.0003578E-02;4979; -2.6844149E-03;  0.0000000E+00; -1.2528020E-04;  1.0005577E+03;  1.0000000E-01;  4.6211038E+02;3;  1.4633085E+00;  0.0000000E+00; -3.1371079E-03;0;  7.9234643E-04;  4.0055051E+04;  0.0000000E+00;  7.3945289E-03;  4.0000000E+04;  0.0000000E+00;  3.9990824E+04;  5.3704623E-03;  0.0000000E+00; -4.5781159E-03;  1.2126819E+03;
  4.1091889E-01;  9.9999998E-03;  3.0005289E-02;4980; -2.6791748E-03;  0.0000000E+00; -1.8494326E-04;  1.0005718E+03;  1.0000000E-01;  4.7376437E+02;3;  1.4694666E+00;  0.0000000E+00; -4.6113185E-03;0;  7.4733840E-04;  4.0055699E+04;  0.0000000E+00;  1.6405024E-02;  4.0000000E+04;  0.0000000E+00;  3.9990918E+04;  5.2681481E-03;  0.0000000E+00; -4.5208097E-03;  1.2000164E+03;
  4.1093615E-01;  9.9999998E-03;  4.0006999E-02;4981; -2.6698175E-03;  0.0000000E+00; -2.4123075E-04;  1.0005837E+03;  1.0000000E-01;  4.8364066E+02;3;  1.4782676E+00;  0.0000000E+00; -4.8714411E-03;0;  6.9020595E-04;  4.0056566E+04;  0.0000000E+00;  2.8579686E-02;  4.0000000E+04;  0.0000000E+00;  3.9990875E+04;  5.1343362E-03;  0.0000000E+00; -4.4441302E-03;  1.1855758E+03;
  4.1095650E-01;  9.9999998E-03;  5.0008789E-02;4982; -2.6562950E-03;  0.0000000E+00; -2.9335197E-04;  1.0006006E+03;  1.0000000E-01;  4.9766495E+02;3;  1.4827538E+00;  0.0000000E+00; -4.9773213E-03;0;  6.2617147E-04;  4.0057945E+04;  0.0000000E+00;  4.3465190E-02;  4.0000000E+04;  0.0000000E+00;  3.9991199E+04;  4.9772621E-03;  0.0000000E+00; -4.3510906E-03;  1.1714860E+03;
  4.1097808E-01;  9.9999998E-03;  6.0010672E-02;4983; -2.6390210E-03;  0.0000000E+00; -3.4070769E-04;  1.0006190E+03;  1.0000000E-01;  5.1277563E+02;3;  1.4871168E+00;  0.0000000E+00; -2.8648111E-03;0;  5.6090672E-04;  4.0058887E+04;  0.0000000E+00;  6.0434699E-02;  4.0000000E+04;  0.0000000E+00;  3.9991328E+04;  4.8057539E-03;  0.0000000E+00; -4.2448472E-03;  1.1592784E+03;
  4.2102969E-01;  9.9999998E-03; -1.0002198E-01;5028; -2.5654424E-03;  0.0000000E+00;  5.2597467E-04;  1.0005762E+03;  1.0000000E-01;  4.7731982E+02;3;  1.4529533E+00;  0.0000000E+00; -3.1637911E-02;0;  1.6969661E-03;  4.0054664E+04;  0.0000000E+00;  1.3151012E-01;  4.0000000E+04;  0.0000000E+00;  3.9991348E+04;  5.7474417E-03;  0.0000000E+00; -4.0504755E-03;  1.1535210E+03;
  4.2102858E-01;  9.9999998E-03; -9.0019017E-02;5029; -2.5875599E-03;  0.0000000E+00;  4.9076788E-04;  1.0005511E+03;  1.0000000E-01;  4.5657968E+02;3;  1.4667242E+00;  0.0000000E+00; -2.2738533E-02;0;  1.7110007E-03;  4.0053137E+04;  0.0000000E+00;  1.1540371E-01;  4.0000000E+04;  0.0000000E+00;  3.9991059E+04;  5.8972286E-03;  0.0000000E+00; -4.1862279E-03;  1.1764122E+03;
  4.2101997E-01;  9.9999998E-03; -8.0015987E-02;5030; -2.6024259E-03;  0.0000000E+00;  4.5267103E-04;  1.0005205E+03;  1.0000000E-01;  4.3119769E+02;3;  1.4829987E+00;  0.0000000E+00; -1.3546669E-02;0;  1.7417427E-03;  4.0050969E+04;  0.0000000E+00;  9.7018249E-02;  4.0000000E+04;  0.0000000E+00;  3.9990809E+04;  6.0591619E-03;  0.0000000E+00; -4.3174191E-03;  1.1923859E+03;
  4.2100644E-01;  9.9999998E-03; -7.0013009E-02;5031; -2.6090122E-03;  0.0000000E+00;  4.1098482E-04;  1.0004874E+03;  1.0000000E-01;  4.0374167E+02;3;  1.5019125E+00;  0.0000000E+00; -6.3707875E-03;0;  1.7845929E-03;  4.0048344E+04;  0.0000000E+00;  7.7925302E-02;  4.0000000E+04;  0.0000000E+00;  3.9990699E+04;  6.2274421E-03;  0.0000000E+00; -4.4428492E-03;  1.2015945E+03;
  4.2098984E-01;  9.9999998E-03; -6.0010131E-02;5032; -2.6101961E-03;  0.0000000E+00;  3.6516390E-04;  1.0004521E+03;  1.0000000E-01;  3.7450793E+02;3;  1.5128713E+00;  0.0000000E+00; -6.5508205E-04;0;  1.8347567E-03;  4.0045402E+04;  0.0000000E+00;  5.9401743E-02;  4.0000000E+04;  0.0000000E+00;  3.9990883E+04;  6.3952459E-03;  0.0000000E+00; -4.5604892E-03;  1.2049606E+03;
  4.2097175E-01;  9.9999998E-03; -5.0007515E-02;5033; -2.6063707E-03;  0.0000000E+00;  3.1456086E-04;  1.0004086E+03;  1.0000000E-01;  3.3845956E+02;3;  1.5298349E+00;  0.0000000E+00;  5.0004055E-03;0;  1.8874323E-03;  4.0042359E+04;  0.0000000E+00;  4.2431157E-02;  4.0000000E+04;  0.0000000E+00;  3.9990719E+04;  6.5551139E-03;  0.0000000E+00; -4.6676816E-03;  1.2040505E+03;
  4.2095384E-01;  9.9999998E-03; -4.0005330E-02;5034; -2.5974007E-03;  0.0000000E+00;  2.5953044E-04;  1.0003725E+03;  1.0000000E-01;  3.0863324E+02;3;  1.5439340E+00;  0.0000000E+00;  6.7262412E-03;0;  1.9380338E-03;  4.0039527E+04;  0.0000000E+00;  2.7740575E-02;  4.0000000E+04;  0.0000000E+00;  3.9990570E+04;  6.6994014E-03;  0.0000000E+00; -4.7613676E-03;  1.2007072E+03;
  4.2093778E-01;  9.9999998E-03; -3.0003566E-02;5035; -2.5869163E-03;  0.0000000E+00;  1.9961879E-04;  1.0003411E+03;  1.0000000E-01;  2.8255991E+02;3;  1.5535855E+00;  0.0000000E+00;  7.2686621E-03;0;  1.9823737E-03;  4.0037234E+04;  0.0000000E+00;  1.5848545E-02;  4.0000000E+04;  0.0000000E+00;  3.9990586E+04;  6.8207900E-03;  0.0000000E+00; -4.8384164E-03;  1.1966835E+03;
  4.2092448E-01;  9.9999998E-03; -2.0002143E-02;5036; -2.5766355E-03;  0.0000000E+00;  1.3562590E-04;  1.0003149E+03;  1.0000000E-01;  2.6083212E+02;3;  1.5648682E+00;  0.0000000E+00;  6.0986313E-03;0;  2.0167911E-03;  4.0035098E+04;  0.0000000E+00;  7.1189306E-03;  4.0000000E+04;  0.0000000E+00;  3.9990668E+04;  6.9126636E-03;  0.0000000E+00; -4.8958724E-03;  1.1932654E+03;
  4.2091620E-01;  9.9999998E-03; -1.0000998E-02;5037; -2.5690575E-03;  0.0000000E+00;  6.8608831E-05;  1.0002971E+03;  1.0000000E-01;  2.4611650E+02;3;  1.5704433E+00;  0.0000000E+00;  3.2300849E-03;0;  2.0386525E-03;  4.0034020E+04;  0.0000000E+00;  1.7907380E-03;  4.0000000E+04;  0.0000000E+00;  3.9990711E+04;  6.9700526E-03;  0.0000000E+00; -4.9314001E-03;  1.1910365E+03;
  4.2091328E-01;  9.9999998E-03;  1.8505073E-09;5038; -2.5661304E-03;  0.0000000E+00;  1.6379454E-08;  1.0002914E+03;  1.0000000E-01;  2.4147466E+02;3;  1.5732731E+00;  0.0000000E+00; -3.8370126E-06;0;  2.0461250E-03;  4.0033613E+04;  0.0000000E+00; -1.5481069E-13;  4.0000000E+04;  0.0000000E+00;  3.9990652E+04;  6.9895438E-03;  0.0000000E+00; -4.9434188E-03;  1.1902697E+03;
  4.2091620E-01;  9.9999998E-03;  1.0001001E-02;5039; -2.5690531E-03;  0.0000000E+00; -6.8576439E-05;  1.0002971E+03;  1.0000000E-01;  2.4611650E+02;3;  1.5704265E+00;  0.0000000E+00; -3.2358859E-03;0;  2.0386470E-03;  4.0034023E+04;  0.0000000E+00;  1.7906785E-03;  4.0000000E+04;  0.0000000E+00;  3.9990715E+04;  6.9700470E-03;  0.0000000E+00; -4.9314001E-03;  1.1910365E+03;
  4.2092448E-01;  9.9999998E-03;  2.0002147E-02;5040; -2.5766413E-03;  0.0000000E+00; -1.3559400E-04;  1.0003148E+03;  1.0000000E-01;  2.6083212E+02;3;  1.5648593E+00;  0.0000000E+00; -6.1071757E-03;0;  2.0167641E-03;  4.0035094E+04;  0.0000000E+00;  7.1186651E-03;  4.0000000E+04;  0.0000000E+00;  3.9990668E+04;  6.9126361E-03;  0.0000000E+00; -4.8958720E-03;  1.1932573E+03;
  4.2093778E-01;  9.9999998E-03;  3.0003568E-02;5041; -2.5869217E-03;  0.0000000E+00; -1.9958751E-04;  1.0003411E+03;  1.0000000E-01;  2.8255991E+02;3;  1.5535821E+00;  0.0000000E+00; -7.2780089E-03;0;  1.9823429E-03;  4.0037234E+04;  0.0000000E+00;  1.5848089E-02;  4.0000000E+04;  0.0000000E+00;  3.9990586E+04;  6.8207541E-03;  0.0000000E+00; -4.8384112E-03;  1.1966783E+03;
  4.2095384E-01;  9.9999998E-03;  4.0005334E-02;5042; -2.5974049E-03;  0.0000000E+00; -2.5949968E-04;  1.0003725E+03;  1.0000000E-01;  3.0863324E+02;3;  1.5439320E+00;  0.0000000E+00; -6.7429682E-03;0;  1.9379882E-03;  4.0039527E+04;  0.0000000E+00;  2.7739158E-02;  4.0000000E+04;  0.0000000E+00;  3.9990574E+04;  6.6993521E-03;  0.0000000E+00; -4.7613638E-03;  1.2007021E+03;
  4.2097175E-01;  9.9999998E-03;  5.0007518E-02;5043; -2.6063700E-03;  0.0000000E+00; -3.1453051E-04;  1.0004086E+03;  1.0000000E-01;  3.3855832E+02;3;  1.5298272E+00;  0.0000000E+00; -5.0209863E-03;0;  1.8873666E-03;  4.0042363E+04;  0.0000000E+00;  4.2431120E-02;  4.0000000E+04;  0.0000000E+00;  3.9990719E+04;  6.5550501E-03;  0.0000000E+00; -4.6676835E-03;  1.2040392E+03;
  4.2098984E-01;  9.9999998E-03;  6.0010131E-02;5044; -2.6102026E-03;  0.0000000E+00; -3.6513299E-04;  1.0004521E+03;  1.0000000E-01;  3.7450793E+02;3;  1.5128769E+00;  0.0000000E+00;  6.2863965E-04;0;  1.8346943E-03;  4.0045395E+04;  0.0000000E+00;  5.9401561E-02;  4.0000000E+04;  0.0000000E+00;  3.9990887E+04;  6.3951830E-03;  0.0000000E+00; -4.5604887E-03;  1.2049521E+03;
  4.3103388E-01;  9.9999998E-03; -1.0002546E-01;5089; -2.5855862E-03;  0.0000000E+00;  5.5718195E-04;  1.0005128E+03;  1.0000000E-01;  4.2477811E+02;3;  1.4501927E+00;  0.0000000E+00; -4.1749511E-02;0;  3.6095837E-03;  4.0049793E+04;  0.0000000E+00;  1.2526175E-01;  4.0000000E+04;  0.0000000E+00;  3.9991094E+04;  7.9816310E-03;  0.0000000E+00; -4.3720473E-03;  1.1772455E+03;
  4.3103641E-01;  9.9999998E-03; -9.0021603E-02;5090; -2.6025570E-03;  0.0000000E+00;  5.1757350E-04;  1.0004766E+03;  1.0000000E-01;  3.9485303E+02;3;  1.4658973E+00;  0.0000000E+00; -3.2149330E-02;0;  3.5847398E-03;  4.0047188E+04;  0.0000000E+00;  1.0941673E-01;  4.0000000E+04;  0.0000000E+00;  3.9990762E+04;  8.0899997E-03;  0.0000000E+00; -4.5052599E-03;  1.2099486E+03;
  4.3103424E-01;  9.9999998E-03; -8.0017589E-02;5091; -2.6118809E-03;  0.0000000E+00;  4.7467492E-04;  1.0004312E+03;  1.0000000E-01;  3.5722446E+02;3;  1.4834040E+00;  0.0000000E+00; -2.4569105E-02;0;  3.5723248E-03;  4.0043965E+04;  0.0000000E+00;  9.1565177E-02;  4.0000000E+04;  0.0000000E+00;  3.9990527E+04;  8.2053589E-03;  0.0000000E+00; -4.6330341E-03;  1.2290944E+03;
  4.3102735E-01;  9.9999998E-03; -7.0013672E-02;5092; -2.6110562E-03;  0.0000000E+00;  4.2826959E-04;  1.0003766E+03;  1.0000000E-01;  3.1208994E+02;3;  1.5050440E+00;  0.0000000E+00; -1.7212631E-02;0;  3.5680649E-03;  4.0039855E+04;  0.0000000E+00;  7.3194131E-02;  4.0000000E+04;  0.0000000E+00;  3.9990543E+04;  8.3223190E-03;  0.0000000E+00; -4.7542541E-03;  1.2341012E+03;
  4.3101710E-01;  9.9999998E-03; -6.0010128E-02;5093; -2.6002710E-03;  0.0000000E+00;  3.7817511E-04;  1.0003195E+03;  1.0000000E-01;  2.6468387E+02;3;  1.5279074E+00;  0.0000000E+00; -1.0925584E-02;0;  3.5687941E-03;  4.0035242E+04;  0.0000000E+00;  5.5517141E-02;  4.0000000E+04;  0.0000000E+00;  3.9990371E+04;  8.4359692E-03;  0.0000000E+00; -4.8671751E-03;  1.2261111E+03;
  4.3100473E-01;  9.9999998E-03; -5.0007135E-02;5094; -2.5816404E-03;  0.0000000E+00;  3.2421833E-04;  1.0002624E+03;  1.0000000E-01;  2.1737657E+02;3;  1.5521209E+00;  0.0000000E+00; -4.6775988E-03;0;  3.5720826E-03;  4.0030805E+04;  0.0000000E+00;  3.9455328E-02;  4.0000000E+04;  0.0000000E+00;  3.9990477E+04;  8.5415253E-03;  0.0000000E+00; -4.9694427E-03;  1.2083364E+03;
  4.3099093E-01;  9.9999998E-03; -4.0004704E-02;5095; -2.5588470E-03;  0.0000000E+00;  2.6590464E-04;  1.0002093E+03;  1.0000000E-01;  1.7342720E+02;3;  1.5739787E+00;  0.0000000E+00;  3.9551666E-04;0;  3.5760477E-03;  4.0026363E+04;  0.0000000E+00;  2.5668062E-02;  4.0000000E+04;  0.0000000E+00;  3.9990648E+04;  8.6343996E-03;  0.0000000E+00; -5.0583519E-03;  1.1851029E+03;
  4.3097773E-01;  9.9999998E-03; -3.0002937E-02;5096; -2.5343029E-03;  0.0000000E+00;  2.0393747E-04;  1.0001622E+03;  1.0000000E-01;  1.3441595E+02;3;  1.5974798E+00;  0.0000000E+00;  1.9652033E-03;0;  3.5797716E-03;  4.0022504E+04;  0.0000000E+00;  1.4600952E-02;  4.0000000E+04;  0.0000000E+00;  3.9990711E+04;  8.7109040E-03;  0.0000000E+00; -5.1311324E-03;  1.1610560E+03;
  4.3096682E-01;  9.9999998E-03; -2.0001665E-02;5097; -2.5130899E-03;  0.0000000E+00;  1.3820884E-04;  1.0001298E+03;  1.0000000E-01;  1.0755251E+02;3;  1.6129608E+00;  0.0000000E+00;  1.8450071E-03;0;  3.5826419E-03;  4.0019559E+04;  0.0000000E+00;  6.5360065E-03;  4.0000000E+04;  0.0000000E+00;  3.9990895E+04;  8.7678777E-03;  0.0000000E+00; -5.1852358E-03;  1.1406237E+03;
  4.3095952E-01;  9.9999998E-03; -1.0000709E-02;5098; -2.4987825E-03;  0.0000000E+00;  6.9874244E-05;  1.0001051E+03;  1.0000000E-01;  8.7108650E+01;3;  1.6242186E+00;  0.0000000E+00;  2.0500850E-03;0;  3.5844129E-03;  4.0017816E+04;  0.0000000E+00;  1.6405382E-03;  4.0000000E+04;  0.0000000E+00;  3.9990969E+04;  8.8030100E-03;  0.0000000E+00; -5.2185971E-03;  1.1269666E+03;
  4.3095726E-01;  9.9999998E-03;  1.9998916E-09;5099; -2.4937361E-03;  0.0000000E+00;  1.6778587E-08;  1.0000958E+03;  1.0000000E-01;  7.9306396E+01;3;  1.6282330E+00;  0.0000000E+00; -6.2741560E-06;0;  3.5850247E-03;  4.0017117E+04;  0.0000000E+00; -2.6135103E-13;  4.0000000E+04;  0.0000000E+00;  3.9991133E+04;  8.8149123E-03;  0.0000000E+00; -5.2298876E-03;  1.1222277E+03;
  4.3095952E-01;  9.9999998E-03;  1.0000712E-02;5100; -2.4987808E-03;  0.0000000E+00; -6.9840906E-05;  1.0001052E+03;  1.0000000E-01;  8.7108650E+01;3;  1.6242243E+00;  0.0000000E+00; -2.0629214E-03;0;  3.5843789E-03;  4.0017816E+04;  0.0000000E+00;  1.6404546E-03;  4.0000000E+04;  0.0000000E+00;  3.9990969E+04;  8.8029793E-03;  0.0000000E+00; -5.2186004E-03;  1.1269594E+03;
  4.3096682E-01;  9.9999998E-03;  2.0001668E-02;5101; -2.5130890E-03;  0.0000000E+00; -1.3817569E-04;  1.0001296E+03;  1.0000000E-01;  1.0735499E+02;3;  1.6129588E+00;  0.0000000E+00; -1.8570414E-03;0;  3.5826014E-03;  4.0019562E+04;  0.0000000E+00;  6.5359287E-03;  4.0000000E+04;  0.0000000E+00;  3.9990895E+04;  8.7678358E-03;  0.0000000E+00; -5.1852344E-03;  1.1406179E+03;
  4.3097773E-01;  9.9999998E-03;  3.0002940E-02;5102; -2.5343096E-03;  0.0000000E+00; -2.0390475E-04;  1.0001622E+03;  1.0000000E-01;  1.3441595E+02;3;  1.5974762E+00;  0.0000000E+00; -1.9783070E-03;0;  3.5797125E-03;  4.0022504E+04;  0.0000000E+00;  1.4601220E-02;  4.0000000E+04;  0.0000000E+00;  3.9990711E+04;  8.7108463E-03;  0.0000000E+00; -5.1311338E-03;  1.1610560E+03;
  4.3099093E-01;  9.9999998E-03;  4.0004708E-02;5103; -2.5588574E-03;  0.0000000E+00; -2.6587237E-04;  1.0002091E+03;  1.0000000E-01;  1.7322968E+02;3;  1.5739536E+00;  0.0000000E+00; -4.1157042E-04;0;  3.5759932E-03;  4.0026367E+04;  0.0000000E+00;  2.5667666E-02;  4.0000000E+04;  0.0000000E+00;  3.9990648E+04;  8.6343409E-03;  0.0000000E+00; -5.0583477E-03;  1.1850944E+03;
  4.3100473E-01;  9.9999998E-03;  5.0007138E-02;5104; -2.5816509E-03;  0.0000000E+00; -3.2418611E-04;  1.0002623E+03;  1.0000000E-01;  2.1737657E+02;3;  1.5521132E+00;  0.0000000E+00;  4.6564150E-03;0;  3.5720035E-03;  4.0030809E+04;  0.0000000E+00;  3.9455239E-02;  4.0000000E+04;  0.0000000E+00;  3.9990484E+04;  8.5414443E-03;  0.0000000E+00; -4.9694409E-03;  1.2083380E+03;
  4.3101710E-01;  9.9999998E-03;  6.0010131E-02;5105; -2.6002761E-03;  0.0000000E+00; -3.7814278E-04;  1.0003195E+03;  1.0000000E-01;  2.6468387E+02;3;  1.5279051E+00;  0.0000000E+00;  1.0904050E-02;0;  3.5687080E-03;  4.0035246E+04;  0.0000000E+00;  5.5515483E-02;  4.0000000E+04;  0.0000000E+00;  3.9990371E+04;  8.4358882E-03;  0.0000000E+00; -4.8671803E-03;  1.2261144E+03;
  4.4104210E-01;  9.9999998E-03; -1.0002786E-01;5150; -2.6054175E-03;  0.0000000E+00;  5.8063288E-04;  1.0004947E+03;  1.0000000E-01;  4.0986496E+02;3;  1.4509312E+00;  0.0000000E+00; -5.1336054E-02;0;  6.1773299E-03;  4.0048465E+04;  0.0000000E+00;  1.0927151E-01;  4.0000000E+04;  0.0000000E+00;  3.9990934E+04;  1.0884124E-02;  0.0000000E+00; -4.7067939E-03;  1.1967130E+03;
  4.4104785E-01;  9.9999998E-03; -9.0023093E-02;5151; -2.6179168E-03;  0.0000000E+00;  5.3601735E-04;  1.0004506E+03;  1.0000000E-01;  3.7332278E+02;3;  1.4658843E+00;  0.0000000E+00; -4.3681085E-02;0;  6.0713426E-03;  4.0045305E+04;  0.0000000E+00;  9.5937930E-02;  4.0000000E+04;  0.0000000E+00;  3.9990523E+04;  1.0904272E-02;  0.0000000E+00; -4.8329295E-03;  1.2304810E+03;
  4.4104967E-01;  9.9999998E-03; -8.0018081E-02;5152; -2.6223822E-03;  0.0000000E+00;  4.8809021E-04;  1.0003978E+03;  1.0000000E-01;  3.2957092E+02;3;  1.4857945E+00;  0.0000000E+00; -3.6486048E-02;0;  5.9730234E-03;  4.0041258E+04;  0.0000000E+00;  8.0560215E-02;  4.0000000E+04;  0.0000000E+00;  3.9990422E+04;  1.0925319E-02;  0.0000000E+00; -4.9522957E-03;  1.2453772E+03;
  4.4104770E-01;  9.9999998E-03; -7.0013359E-02;5153; -2.6164863E-03;  0.0000000E+00;  4.3678016E-04;  1.0003344E+03;  1.0000000E-01;  2.7702921E+02;3;  1.5071930E+00;  0.0000000E+00; -2.9588582E-02;0;  5.8798660E-03;  4.0036293E+04;  0.0000000E+00;  6.4523093E-02;  4.0000000E+04;  0.0000000E+00;  3.9990406E+04;  1.0943921E-02;  0.0000000E+00; -5.0640553E-03;  1.2405161E+03;
  4.4104302E-01;  9.9999998E-03; -6.0009319E-02;5154; -2.5992785E-03;  0.0000000E+00;  3.8233172E-04;  1.0002662E+03;  1.0000000E-01;  2.2053697E+02;3;  1.5318651E+00;  0.0000000E+00; -2.3341633E-02;0;  5.7914024E-03;  4.0030707E+04;  0.0000000E+00;  4.8973508E-02;  4.0000000E+04;  0.0000000E+00;  3.9990516E+04;  1.0958277E-02;  0.0000000E+00; -5.1668743E-03;  1.2178157E+03;
  4.4103640E-01;  9.9999998E-03; -5.0006110E-02;5155; -2.5727593E-03;  0.0000000E+00;  3.2496205E-04;  1.0001958E+03;  1.0000000E-01;  1.6216826E+02;3;  1.5602828E+00;  0.0000000E+00; -1.7586745E-02;0;  5.7086903E-03;  4.0025156E+04;  0.0000000E+00;  3.4794036E-02;  4.0000000E+04;  0.0000000E+00;  3.9990730E+04;  1.0967684E-02;  0.0000000E+00; -5.2589937E-03;  1.1816495E+03;
  4.4102871E-01;  9.9999998E-03; -4.0003758E-02;5156; -2.5408431E-03;  0.0000000E+00;  2.6465874E-04;  1.0001317E+03;  1.0000000E-01;  1.0903395E+02;3;  1.5922749E+00;  0.0000000E+00; -1.1839189E-02;0;  5.6341267E-03;  4.0019895E+04;  0.0000000E+00;  2.2613969E-02;  4.0000000E+04;  0.0000000E+00;  3.9991098E+04;  1.0972470E-02;  0.0000000E+00; -5.3383433E-03;  1.1383524E+03;
  4.4102007E-01;  9.9999998E-03; -3.0002175E-02;5157; -2.5096068E-03;  0.0000000E+00;  2.0128836E-04;  1.0000792E+03;  1.0000000E-01;  6.5578392E+01;3;  1.6145539E+00;  0.0000000E+00; -7.8171827E-03;0;  5.5707456E-03;  4.0015168E+04;  0.0000000E+00;  1.2847517E-02;  4.0000000E+04;  0.0000000E+00;  3.9991406E+04;  1.0973536E-02;  0.0000000E+00; -5.4027908E-03;  1.0950790E+03;
  4.4101271E-01;  9.9999998E-03; -2.0001179E-02;5158; -2.4836001E-03;  0.0000000E+00;  1.3575880E-04;  1.0000345E+03;  1.0000000E-01;  2.8542402E+01;3;  1.6349622E+00;  0.0000000E+00; -2.7336730E-03;0;  5.5222725E-03;  4.0011684E+04;  0.0000000E+00;  5.7445294E-03;  4.0000000E+04;  0.0000000E+00;  3.9991590E+04;  1.0972696E-02;  0.0000000E+00; -5.4504238E-03;  1.0586196E+03;
  4.4100788E-01;  9.9999998E-03; -1.0000512E-02;5159; -2.4662199E-03;  0.0000000E+00;  6.8344751E-05;  1.0000096E+03;  1.0000000E-01;  7.9010110E+00;3;  1.6479410E+00;  0.0000000E+00; -2.1117516E-03;0;  5.4917959E-03;  4.0009359E+04;  0.0000000E+00;  1.4407352E-03;  4.0000000E+04;  0.0000000E+00;  3.9991754E+04;  1.0971472E-02;  0.0000000E+00; -5.4796757E-03;  1.0343771E+03;
  4.4100562E-01;  9.9999998E-03;  2.1527111E-09;5160; -2.4601629E-03;  0.0000000E+00;  1.7241048E-08;  1.0000010E+03;  1.0000000E-01;  7.9010111E-01;3;  1.6519169E+00;  0.0000000E+00; -9.7127831E-06;0;  5.4812604E-03;  4.0008566E+04;  0.0000000E+00; -1.5898432E-12;  4.0000000E+04;  0.0000000E+00;  3.9991875E+04;  1.0970792E-02;  0.0000000E+00; -5.4895314E-03;  1.0258859E+03;
  4.4100788E-01;  9.9999998E-03;  1.0000516E-02;5161; -2.4662218E-03;  0.0000000E+00; -6.8310379E-05;  1.0000096E+03;  1.0000000E-01;  7.9010110E+00;3;  1.6479453E+00;  0.0000000E+00;  2.0935822E-03;0;  5.4917750E-03;  4.0009363E+04;  0.0000000E+00;  1.4407660E-03;  4.0000000E+04;  0.0000000E+00;  3.9991754E+04;  1.0971455E-02;  0.0000000E+00; -5.4796799E-03;  1.0343820E+03;
  4.4101271E-01;  9.9999998E-03;  2.0001184E-02;5162; -2.4836040E-03;  0.0000000E+00; -1.3572442E-04;  1.0000345E+03;  1.0000000E-01;  2.8542402E+01;3;  1.6349492E+00;  0.0000000E+00;  2.7164314E-03;0;  5.5222246E-03;  4.0011680E+04;  0.0000000E+00;  5.7443529E-03;  4.0000000E+04;  0.0000000E+00;  3.9991590E+04;  1.0972650E-02;  0.0000000E+00; -5.4504252E-03;  1.0586207E+03;
  4.4102007E-01;  9.9999998E-03;  3.0002179E-02;5163; -2.5096103E-03;  0.0000000E+00; -2.0125447E-04;  1.0000792E+03;  1.0000000E-01;  6.5578392E+01;3;  1.6145579E+00;  0.0000000E+00;  7.7999802E-03;0;  5.5706799E-03;  4.0015168E+04;  0.0000000E+00;  1.2847298E-02;  4.0000000E+04;  0.0000000E+00;  3.9991402E+04;  1.0973471E-02;  0.0000000E+00; -5.4027913E-03;  1.0950640E+03;
  4.4102871E-01;  9.9999998E-03;  4.0003762E-02;5164; -2.5408478E-03;  0.0000000E+00; -2.6462521E-04;  1.0001316E+03;  1.0000000E-01;  1.0903395E+02;3;  1.5922904E+00;  0.0000000E+00;  1.1824735E-02;0;  5.6340541E-03;  4.0019895E+04;  0.0000000E+00;  2.2613198E-02;  4.0000000E+04;  0.0000000E+00;  3.9991098E+04;  1.0972399E-02;  0.0000000E+00; -5.3383452E-03;  1.1383469E+03;
  4.4103640E-01;  9.9999998E-03;  5.0006114E-02;5165; -2.5727656E-03;  0.0000000E+00; -3.2492864E-04;  1.0001959E+03;  1.0000000E-01;  1.6226701E+02;3;  1.5602697E+00;  0.0000000E+00;  1.7565602E-02;0;  5.7086060E-03;  4.0025156E+04;  0.0000000E+00;  3.4793887E-02;  4.0000000E+04;  0.0000000E+00;  3.9990730E+04;  1.0967605E-02;  0.0000000E+00; -5.2589988E-03;  1.1816404E+03;
  4.4104299E-01;  9.9999998E-03;  6.0009319E-02;5166; -2.5992882E-03;  0.0000000E+00; -3.8229779E-04;  1.0002661E+03;  1.0000000E-01;  2.2043822E+02;3;  1.5318719E+00;  0.0000000E+00;  2.3321627E-02;0;  5.7912995E-03;  4.0030707E+04;  0.0000000E+00;  4.8973422E-02;  4.0000000E+04;  0.0000000E+00;  3.9990512E+04;  1.0958182E-02;  0.0000000E+00; -5.1668822E-03;  1.2178224E+03;
  4.5103881E-01;  9.9999998E-03; -1.0002653E-01;5211; -2.6213806E-03;  0.0000000E+00;  5.9662911E-04;  1.0005248E+03;  1.0000000E-01;  4.3485190E+02;3;  1.4527531E+00;  0.0000000E+00; -6.2875234E-02;0;  9.3636839E-03;  4.0050816E+04;  0.0000000E+00;  8.4345445E-02;  4.0000000E+04;  0.0000000E+00;  3.9990809E+04;  1.4417407E-02;  0.0000000E+00; -5.0537232E-03;  1.2055465E+03;
  4.5104691E-01;  9.9999998E-03; -9.0021439E-02;5212; -2.6289679E-03;  0.0000000E+00;  5.4680021E-04;  1.0004811E+03;  1.0000000E-01;  3.9860602E+02;3;  1.4698545E+00;  0.0000000E+00; -5.5617090E-02;0;  9.1328733E-03;  4.0047754E+04;  0.0000000E+00;  7.5302586E-02;  4.0000000E+04;  0.0000000E+00;  3.9990664E+04;  1.4302488E-02;  0.0000000E+00; -5.1696151E-03;  1.2315298E+03;
  4.5105270E-01;  9.9999998E-03; -8.0016039E-02;5213; -2.6287092E-03;  0.0000000E+00;  4.9392437E-04;  1.0004224E+03;  1.0000000E-01;  3.4991602E+02;3;  1.4895591E+00;  0.0000000E+00; -4.8802283E-02;0;  8.9063812E-03;  4.0043164E+04;  0.0000000E+00;  6.4120047E-02;  4.0000000E+04;  0.0000000E+00;  3.9990328E+04;  1.4183559E-02;  0.0000000E+00; -5.2771773E-03;  1.2356978E+03;
  4.5105645E-01;  9.9999998E-03; -7.0011005E-02;5214; -2.6185610E-03;  0.0000000E+00;  4.3806894E-04;  1.0003589E+03;  1.0000000E-01;  2.9737430E+02;3;  1.5126734E+00;  0.0000000E+00; -4.2385105E-02;0;  8.6843735E-03;  4.0038035E+04;  0.0000000E+00;  5.1954724E-02;  4.0000000E+04;  0.0000000E+00;  3.9990535E+04;  1.4060293E-02;  0.0000000E+00; -5.3759199E-03;  1.2172408E+03;
  4.5105827E-01;  9.9999998E-03; -6.0006768E-02;5215; -2.5971578E-03;  0.0000000E+00;  3.7961730E-04;  1.0002877E+03;  1.0000000E-01;  2.3831425E+02;3;  1.5406475E+00;  0.0000000E+00; -3.5641935E-02;0;  8.4696766E-03;  4.0032133E+04;  0.0000000E+00;  3.9812677E-02;  4.0000000E+04;  0.0000000E+00;  3.9990789E+04;  1.3934731E-02;  0.0000000E+00; -5.4650540E-03;  1.1785117E+03;
  4.5105842E-01;  9.9999998E-03; -5.0003670E-02;5216; -2.5666510E-03;  0.0000000E+00;  3.1924687E-04;  1.0002183E+03;  1.0000000E-01;  1.8083440E+02;3;  1.5714511E+00;  0.0000000E+00; -2.9465143E-02;0;  8.2677845E-03;  4.0026270E+04;  0.0000000E+00;  2.8505426E-02;  4.0000000E+04;  0.0000000E+00;  3.9991164E+04;  1.3811272E-02;  0.0000000E+00; -5.5434876E-03;  1.1248646E+03;
  4.5105737E-01;  9.9999998E-03; -4.0001657E-02;5217; -2.5320407E-03;  0.0000000E+00;  2.5733811E-04;  1.0001533E+03;  1.0000000E-01;  1.2700875E+02;3;  1.6001455E+00;  0.0000000E+00; -2.3492180E-02;0;  8.0860704E-03;  4.0020770E+04;  0.0000000E+00;  1.8640993E-02;  4.0000000E+04;  0.0000000E+00;  3.9991688E+04;  1.3696109E-02;  0.0000000E+00; -5.6100390E-03;  1.0639832E+03;
  4.5105609E-01;  9.9999998E-03; -3.0000567E-02;5218; -2.4988761E-03;  0.0000000E+00;  1.9424477E-04;  1.0001016E+03;  1.0000000E-01;  8.4145767E+01;3;  1.6266197E+00;  0.0000000E+00; -1.6626881E-02;0;  7.9329684E-03;  4.0015941E+04;  0.0000000E+00;  1.0639660E-02;  4.0000000E+04;  0.0000000E+00;  3.9992039E+04;  1.3596428E-02;  0.0000000E+00; -5.6634587E-03;  1.0045565E+03;
  4.5105457E-01;  9.9999998E-03; -2.0000169E-02;5219; -2.4714395E-03;  0.0000000E+00;  1.3020502E-04;  1.0000556E+03;  1.0000000E-01;  4.6023388E+01;3;  1.6467532E+00;  0.0000000E+00; -1.1604193E-02;0;  7.8165196E-03;  4.0012145E+04;  0.0000000E+00;  4.7725630E-03;  4.0000000E+04;  0.0000000E+00;  3.9992422E+04;  1.3519086E-02;  0.0000000E+00; -5.7025664E-03;  9.5499200E+02;
  4.5105326E-01;  9.9999998E-03; -1.0000030E-02;5220; -2.4538031E-03;  0.0000000E+00;  6.5263965E-05;  1.0000272E+03;  1.0000000E-01;  2.2517881E+01;3;  1.6611866E+00;  0.0000000E+00; -6.0233576E-03;0;  7.7435477E-03;  4.0009828E+04;  0.0000000E+00;  1.1991491E-03;  4.0000000E+04;  0.0000000E+00;  3.9992738E+04;  1.3469986E-02;  0.0000000E+00; -5.7264380E-03;  9.2221399E+02;
  4.5105270E-01;  9.9999998E-03;  2.3327729E-09;5221; -2.4477320E-03;  0.0000000E+00;  1.7815742E-08;  1.0000196E+03;  1.0000000E-01;  1.6197073E+01;3;  1.6668119E+00;  0.0000000E+00; -1.0364681E-05;0;  7.7186599E-03;  4.0008961E+04;  0.0000000E+00; -2.1053996E-12;  4.0000000E+04;  0.0000000E+00;  3.9992930E+04;  1.3453118E-02;  0.0000000E+00; -5.7344576E-03;  9.1078735E+02;
  4.5105326E-01;  9.9999998E-03;  1.0000034E-02;5222; -2.4538063E-03;  0.0000000E+00; -6.5228436E-05;  1.0000271E+03;  1.0000000E-01;  2.2419119E+01;3;  1.6611959E+00;  0.0000000E+00;  6.0016150E-03;0;  7.7435155E-03;  4.0009828E+04;  0.0000000E+00;  1.1991697E-03;  4.0000000E+04;  0.0000000E+00;  3.9992738E+04;  1.3469955E-02;  0.0000000E+00; -5.7264394E-03;  9.2221515E+02;
  4.5105457E-01;  9.9999998E-03;  2.0000175E-02;5223; -2.4714472E-03;  0.0000000E+00; -1.3016968E-04;  1.0000556E+03;  1.0000000E-01;  4.6023388E+01;3;  1.6467592E+00;  0.0000000E+00;  1.1582916E-02;0;  7.8164702E-03;  4.0012145E+04;  0.0000000E+00;  4.7725905E-03;  4.0000000E+04;  0.0000000E+00;  3.9992426E+04;  1.3519040E-02;  0.0000000E+00; -5.7025701E-03;  9.5499072E+02;
  4.5105609E-01;  9.9999998E-03;  3.0000571E-02;5224; -2.4988819E-03;  0.0000000E+00; -1.9420958E-04;  1.0001014E+03;  1.0000000E-01;  8.4047005E+01;3;  1.6266251E+00;  0.0000000E+00;  1.6609149E-02;0;  7.9329014E-03;  4.0015949E+04;  0.0000000E+00;  1.0639545E-02;  4.0000000E+04;  0.0000000E+00;  3.9992039E+04;  1.3596365E-02;  0.0000000E+00; -5.6634634E-03;  1.0045435E+03;
  4.5105737E-01;  9.9999998E-03;  4.0001661E-02;5225; -2.5320491E-03;  0.0000000E+00; -2.5730304E-04;  1.0001533E+03;  1.0000000E-01;  1.2700875E+02;3;  1.6001529E+00;  0.0000000E+00;  2.3475386E-02;0;  8.0859773E-03;  4.0020770E+04;  0.0000000E+00;  1.8641930E-02;  4.0000000E+04;  0.0000000E+00;  3.9991684E+04;  1.3696024E-02;  0.0000000E+00; -5.6100464E-03;  1.0639847E+03;
  4.5105839E-01;  9.9999998E-03;  5.0003674E-02;5226; -2.5666591E-03;  0.0000000E+00; -3.1921157E-04;  1.0002184E+03;  1.0000000E-01;  1.8093315E+02;3;  1.5714591E+00;  0.0000000E+00;  2.9449852E-02;0;  8.2676681E-03;  4.0026270E+04;  0.0000000E+00;  2.8505791E-02;  4.0000000E+04;  0.0000000E+00;  3.9991164E+04;  1.3811163E-02;  0.0000000E+00; -5.5434946E-03;  1.1248510E+03;
  4.5105827E-01;  9.9999998E-03;  6.0006771E-02;5227; -2.5971639E-03;  0.0000000E+00; -3.7958185E-04;  1.0002877E+03;  1.0000000E-01;  2.3831425E+02;3;  1.5406600E+00;  0.0000000E+00;  3.5626736E-02;0;  8.4695686E-03;  4.0032133E+04;  0.0000000E+00;  3.9813966E-02;  4.0000000E+04;  0.0000000E+00;  3.9990789E+04;  1.3934618E-02;  0.0000000E+00; -5.4650498E-03;  1.1785221E+03;
  4.6101820E-01;  9.9999998E-03; -1.0002135E-01;5272; -2.6270309E-03;  0.0000000E+00;  6.0632685E-04;  1.0005943E+03;  1.0000000E-01;  4.9233176E+02;3;  1.4574527E+00;  0.0000000E+00; -7.4522741E-02;0;  1.3046572E-02;  4.0056484E+04;  0.0000000E+00;  5.1850744E-02;  4.0000000E+04;  0.0000000E+00;  3.9990797E+04;  1.8458750E-02;  0.0000000E+00; -5.4121786E-03;  1.2001962E+03;
  4.6102947E-01;  9.9999998E-03; -9.0016663E-02;5273; -2.6294324E-03;  0.0000000E+00;  5.5128802E-04;  1.0005534E+03;  1.0000000E-01;  4.5845618E+02;3;  1.4751275E+00;  0.0000000E+00; -6.8685092E-02;0;  1.2649704E-02;  4.0053547E+04;  0.0000000E+00;  4.8107043E-02;  4.0000000E+04;  0.0000000E+00;  3.9990762E+04;  1.8166663E-02;  0.0000000E+00; -5.5169598E-03;  1.2105419E+03;
  4.6104035E-01;  9.9999998E-03; -8.0011770E-02;5274; -2.6238693E-03;  0.0000000E+00;  4.9338449E-04;  1.0005064E+03;  1.0000000E-01;  4.1954370E+02;3;  1.4961218E+00;  0.0000000E+00; -6.3260444E-02;0;  1.2256274E-02;  4.0049539E+04;  0.0000000E+00;  4.2324774E-02;  4.0000000E+04;  0.0000000E+00;  3.9990883E+04;  1.7868035E-02;  0.0000000E+00; -5.6117610E-03;  1.1989487E+03;
  4.6105012E-01;  9.9999998E-03; -7.0007250E-02;5275; -2.6090031E-03;  0.0000000E+00;  4.3335118E-04;  1.0004440E+03;  1.0000000E-01;  3.6789084E+02;3;  1.5197728E+00;  0.0000000E+00; -5.6313116E-02;0;  1.1869444E-02;  4.0044449E+04;  0.0000000E+00;  3.5276454E-02;  4.0000000E+04;  0.0000000E+00;  3.9990945E+04;  1.7565871E-02;  0.0000000E+00; -5.6964266E-03;  1.1649490E+03;
  4.6105877E-01;  9.9999998E-03; -6.0003553E-02;5276; -2.5838097E-03;  0.0000000E+00;  3.7177949E-04;  1.0003828E+03;  1.0000000E-01;  3.1712683E+02;3;  1.5511242E+00;  0.0000000E+00; -5.0508287E-02;0;  1.1496348E-02;  4.0039344E+04;  0.0000000E+00;  2.7698135E-02;  4.0000000E+04;  0.0000000E+00;  3.9991352E+04;  1.7267104E-02;  0.0000000E+00; -5.7707559E-03;  1.1111923E+03;
  4.6106580E-01;  9.9999998E-03; -5.0000925E-02;5277; -2.5518504E-03;  0.0000000E+00;  3.0949275E-04;  1.0003177E+03;  1.0000000E-01;  2.6320242E+02;3;  1.5828671E+00;  0.0000000E+00; -4.2690691E-02;0;  1.1147388E-02;  4.0033652E+04;  0.0000000E+00;  2.0244956E-02;  4.0000000E+04;  0.0000000E+00;  3.9991727E+04;  1.6981866E-02;  0.0000000E+00; -5.8344780E-03;  1.0433538E+03;
  4.6107176E-01;  9.9999998E-03; -3.9999399E-02;5278; -2.5184834E-03;  0.0000000E+00;  2.4703352E-04;  1.0002644E+03;  1.0000000E-01;  2.1905553E+02;3;  1.6103240E+00;  0.0000000E+00; -3.4646664E-02;0;  1.0835454E-02;  4.0028496E+04;  0.0000000E+00;  1.3463425E-02;  4.0000000E+04;  0.0000000E+00;  3.9992457E+04;  1.6722754E-02;  0.0000000E+00; -5.8872998E-03;  9.6950726E+02;
  4.6107617E-01;  9.9999998E-03; -2.9998871E-02;5279; -2.4878923E-03;  0.0000000E+00;  1.8475484E-04;  1.0002128E+03;  1.0000000E-01;  1.7629131E+02;3;  1.6342957E+00;  0.0000000E+00; -2.6505230E-02;0;  1.0574176E-02;  4.0024133E+04;  0.0000000E+00;  7.7851652E-03;  4.0000000E+04;  0.0000000E+00;  3.9993113E+04;  1.6503051E-02;  0.0000000E+00; -5.9288749E-03;  8.9891467E+02;
  4.6107963E-01;  9.9999998E-03; -1.9999003E-02;5280; -2.4635999E-03;  0.0000000E+00;  1.2271080E-04;  1.0001751E+03;  1.0000000E-01;  1.4508232E+02;3;  1.6504103E+00;  0.0000000E+00; -1.9238813E-02;0;  1.0376625E-02;  4.0020621E+04;  0.0000000E+00;  3.5245963E-03;  4.0000000E+04;  0.0000000E+00;  3.9993414E+04;  1.6335502E-02;  0.0000000E+00; -5.9588775E-03;  8.4065973E+02;
  4.6108204E-01;  9.9999998E-03; -9.9994605E-03;5281; -2.4478300E-03;  0.0000000E+00;  6.1258135E-05;  1.0001536E+03;  1.0000000E-01;  1.2730504E+02;3;  1.6625897E+00;  0.0000000E+00; -8.8117393E-03;0;  1.0253470E-02;  4.0018676E+04;  0.0000000E+00;  8.9043577E-04;  4.0000000E+04;  0.0000000E+00;  3.9993742E+04;  1.6230486E-02;  0.0000000E+00; -5.9770155E-03;  8.0241174E+02;
  4.6108299E-01;  9.9999998E-03;  2.5382421E-09;5282; -2.4422701E-03;  0.0000000E+00;  1.8463968E-08;  1.0001447E+03;  1.0000000E-01;  1.1979908E+02;3;  1.6667445E+00;  0.0000000E+00; -1.2422846E-05;0;  1.0211643E-02;  4.0017891E+04;  0.0000000E+00; -1.2899171E-12;  4.0000000E+04;  0.0000000E+00;  3.9993805E+04;  1.6194740E-02;  0.0000000E+00; -5.9830979E-03;  7.8908453E+02;
  4.6108204E-01;  9.9999998E-03;  9.9994652E-03;5283; -2.4478333E-03;  0.0000000E+00; -6.1221326E-05;  1.0001536E+03;  1.0000000E-01;  1.2730504E+02;3;  1.6626115E+00;  0.0000000E+00;  8.7889368E-03;0;  1.0253450E-02;  4.0018676E+04;  0.0000000E+00;  8.9065050E-04;  4.0000000E+04;  0.0000000E+00;  3.9993746E+04;  1.6230471E-02;  0.0000000E+00; -5.9770215E-03;  8.0240796E+02;
  4.6107963E-01;  9.9999998E-03;  1.9999007E-02;5284; -2.4636039E-03;  0.0000000E+00; -1.2267419E-04;  1.0001751E+03;  1.0000000E-01;  1.4508232E+02;3;  1.6504140E+00;  0.0000000E+00;  1.9219123E-02;0;  1.0376574E-02;  4.0020625E+04;  0.0000000E+00;  3.5246490E-03;  4.0000000E+04;  0.0000000E+00;  3.9993410E+04;  1.6335456E-02;  0.0000000E+00; -5.9588812E-03;  8.4066431E+02;
  4.6107617E-01;  9.9999998E-03;  2.9998876E-02;5285; -2.4879002E-03;  0.0000000E+00; -1.8471837E-04;  1.0002128E+03;  1.0000000E-01;  1.7629131E+02;3;  1.6343066E+00;  0.0000000E+00;  2.6489127E-02;0;  1.0574101E-02;  4.0024133E+04;  0.0000000E+00;  7.7857361E-03;  4.0000000E+04;  0.0000000E+00;  3.9993113E+04;  1.6502982E-02;  0.0000000E+00; -5.9288805E-03;  8.9891241E+02;
  4.6107176E-01;  9.9999998E-03;  3.9999403E-02;5286; -2.5184914E-03;  0.0000000E+00; -2.4699702E-04;  1.0002643E+03;  1.0000000E-01;  2.1895677E+02;3;  1.6103580E+00;  0.0000000E+00;  3.4634110E-02;0;  1.0835372E-02;  4.0028492E+04;  0.0000000E+00;  1.3463468E-02;  4.0000000E+04;  0.0000000E+00;  3.9992453E+04;  1.6722677E-02;  0.0000000E+00; -5.8873058E-03;  9.6950464E+02;
  4.6106580E-01;  9.9999998E-03;  5.0000928E-02;5287; -2.5518588E-03;  0.0000000E+00; -3.0945631E-04;  1.0003177E+03;  1.0000000E-01;  2.6320242E+02;3;  1.5828675E+00;  0.0000000E+00;  4.2681735E-02;0;  1.1147283E-02;  4.0033652E+04;  0.0000000E+00;  2.0244321E-02;  4.0000000E+04;  0.0000000E+00;  3.9991730E+04;  1.6981769E-02;  0.0000000E+00; -5.8344859E-03;  1.0433445E+03;
  4.6105877E-01;  9.9999998E-03;  6.0003556E-02;5288; -2.5838134E-03;  0.0000000E+00; -3.7174282E-04;  1.0003827E+03;  1.0000000E-01;  3.1702808E+02;3;  1.5511612E+00;  0.0000000E+00;  5.0497279E-02;0;  1.1496246E-02;  4.0039348E+04;  0.0000000E+00;  2.7697822E-02;  4.0000000E+04;  0.0000000E+00;  3.9991352E+04;  1.7267009E-02;  0.0000000E+00; -5.7707629E-03;  1.1111810E+03;
  4.7098091E-01;  9.9999998E-03; -1.0001593E-01;5333; -2.6131589E-03;  0.0000000E+00;  6.1114685E-04;  1.0006882E+03;  1.0000000E-01;  5.7015668E+02;3;  1.4681442E+00;  0.0000000E+00; -8.6520471E-02;0;  1.7013982E-02;  4.0063992E+04;  0.0000000E+00;  1.3671001E-02;  4.0000000E+04;  0.0000000E+00;  3.9990980E+04;  2.2796609E-02;  0.0000000E+00; -5.7826256E-03;  1.1816188E+03;
  4.7099429E-01;  9.9999998E-03; -9.0012334E-02;5334; -2.6093540E-03;  0.0000000E+00;  5.5055838E-04;  1.0006570E+03;  1.0000000E-01;  5.4437964E+02;3;  1.4851871E+00;  0.0000000E+00; -8.0790393E-02;0;  1.6414668E-02;  4.0061523E+04;  0.0000000E+00;  1.5290217E-02;  4.0000000E+04;  0.0000000E+00;  3.9991117E+04;  2.2292927E-02;  0.0000000E+00; -5.8782580E-03;  1.1702856E+03;
  4.7100812E-01;  9.9999998E-03; -8.0008529E-02;5335; -2.5978412E-03;  0.0000000E+00;  4.8808282E-04;  1.0006196E+03;  1.0000000E-01;  5.1326941E+02;3;  1.5092754E+00;  0.0000000E+00; -7.5599924E-02;0;  1.5821030E-02;  4.0058328E+04;  0.0000000E+00;  1.5404854E-02;  4.0000000E+04;  0.0000000E+00;  3.9991250E+04;  2.1783277E-02;  0.0000000E+00; -5.9622466E-03;  1.1396373E+03;
  4.7102216E-01;  9.9999998E-03; -7.0004962E-02;5336; -2.5743938E-03;  0.0000000E+00;  4.2431493E-04;  1.0005708E+03;  1.0000000E-01;  4.7287549E+02;3;  1.5421733E+00;  0.0000000E+00; -6.9494694E-02;0;  1.5240228E-02;  4.0054316E+04;  0.0000000E+00;  1.4254656E-02;  4.0000000E+04;  0.0000000E+00;  3.9991812E+04;  2.1275062E-02;  0.0000000E+00; -6.0348338E-03;  1.0897953E+03;
  4.7103596E-01;  9.9999998E-03; -6.0001973E-02;5337; -2.5445358E-03;  0.0000000E+00;  3.6016357E-04;  1.0005245E+03;  1.0000000E-01;  4.3455557E+02;3;  1.5737294E+00;  0.0000000E+00; -6.3766733E-02;0;  1.4684035E-02;  4.0050039E+04;  0.0000000E+00;  1.2156635E-02;  4.0000000E+04;  0.0000000E+00;  3.9992102E+04;  2.0780427E-02;  0.0000000E+00; -6.0963919E-03;  1.0235096E+03;
  4.7104913E-01;  9.9999998E-03; -4.9999848E-02;5338; -2.5128138E-03;  0.0000000E+00;  2.9690322E-04;  1.0004772E+03;  1.0000000E-01;  3.9534680E+02;3;  1.6008846E+00;  0.0000000E+00; -5.4440215E-02;0;  1.4168195E-02;  4.0045629E+04;  0.0000000E+00;  9.4849737E-03;  4.0000000E+04;  0.0000000E+00;  3.9992797E+04;  2.0315550E-02;  0.0000000E+00; -6.1473553E-03;  9.4614563E+02;
  4.7106105E-01;  9.9999998E-03; -3.9998643E-02;5339; -2.4830988E-03;  0.0000000E+00;  2.3490025E-04;  1.0004340E+03;  1.0000000E-01;  3.5949597E+02;3;  1.6264114E+00;  0.0000000E+00; -4.4678375E-02;0;  1.3710672E-02;  4.0041566E+04;  0.0000000E+00;  6.6353437E-03;  4.0000000E+04;  0.0000000E+00;  3.9993590E+04;  1.9898945E-02;  0.0000000E+00; -6.1882739E-03;  8.6527386E+02;
  4.7107100E-01;  9.9999998E-03; -2.9998273E-02;5340; -2.4580378E-03;  0.0000000E+00;  1.7424763E-04;  1.0003974E+03;  1.0000000E-01;  3.2927463E+02;3;  1.6455855E+00;  0.0000000E+00; -3.5135444E-02;0;  1.3330111E-02;  4.0037996E+04;  0.0000000E+00;  3.9850888E-03;  4.0000000E+04;  0.0000000E+00;  3.9993891E+04;  1.9549713E-02;  0.0000000E+00; -6.2196017E-03;  7.8972858E+02;
  4.7107854E-01;  9.9999998E-03; -1.9998558E-02;5341; -2.4391711E-03;  0.0000000E+00;  1.1510693E-04;  1.0003698E+03;  1.0000000E-01;  3.0636169E+02;3;  1.6602151E+00;  0.0000000E+00; -2.4210930E-02;0;  1.3043839E-02;  4.0035211E+04;  0.0000000E+00;  1.8523657E-03;  4.0000000E+04;  0.0000000E+00;  3.9994422E+04;  1.9285569E-02;  0.0000000E+00; -6.2417290E-03;  7.2825671E+02;
  4.7108334E-01;  9.9999998E-03; -9.9992361E-03;5342; -2.4275261E-03;  0.0000000E+00;  5.7222027E-05;  1.0003536E+03;  1.0000000E-01;  2.9302872E+02;3;  1.6696699E+00;  0.0000000E+00; -1.2978673E-02;0;  1.2865990E-02;  4.0033688E+04;  0.0000000E+00;  4.7532294E-04;  4.0000000E+04;  0.0000000E+00;  3.9994812E+04;  1.9120898E-02;  0.0000000E+00; -6.2549082E-03;  6.8816119E+02;
  4.7108501E-01;  9.9999998E-03;  2.7391081E-09;5343; -2.4236625E-03;  0.0000000E+00;  1.9243377E-08;  1.0003463E+03;  1.0000000E-01;  2.8690546E+02;3;  1.6717815E+00;  0.0000000E+00; -1.1347612E-05;0;  1.2805654E-02;  4.0032824E+04;  0.0000000E+00; -1.8648462E-12;  4.0000000E+04;  0.0000000E+00;  3.9995020E+04;  1.9064954E-02;  0.0000000E+00; -6.2592998E-03;  6.7427972E+02;
  4.7108334E-01;  9.9999998E-03;  9.9992417E-03;5344; -2.4275291E-03;  0.0000000E+00; -5.7183697E-05;  1.0003536E+03;  1.0000000E-01;  2.9292996E+02;3;  1.6696744E+00;  0.0000000E+00;  1.2958559E-02;0;  1.2865964E-02;  4.0033688E+04;  0.0000000E+00;  4.7554035E-04;  4.0000000E+04;  0.0000000E+00;  3.9994812E+04;  1.9120876E-02;  0.0000000E+00; -6.2549119E-03;  6.8816162E+02;
  4.7107854E-01;  9.9999998E-03;  1.9998563E-02;5345; -2.4391755E-03;  0.0000000E+00; -1.1506878E-04;  1.0003698E+03;  1.0000000E-01;  3.0636169E+02;3;  1.6602272E+00;  0.0000000E+00;  2.4194490E-02;0;  1.3043771E-02;  4.0035211E+04;  0.0000000E+00;  1.8527157E-03;  4.0000000E+04;  0.0000000E+00;  3.9994422E+04;  1.9285502E-02;  0.0000000E+00; -6.2417304E-03;  7.2825146E+02;
  4.7107100E-01;  9.9999998E-03;  2.9998276E-02;5346; -2.4580443E-03;  0.0000000E+00; -1.7420971E-04;  1.0003973E+03;  1.0000000E-01;  3.2917584E+02;3;  1.6455976E+00;  0.0000000E+00;  3.5122063E-02;0;  1.3330020E-02;  4.0038000E+04;  0.0000000E+00;  3.9857584E-03;  4.0000000E+04;  0.0000000E+00;  3.9993891E+04;  1.9549632E-02;  0.0000000E+00; -6.2196120E-03;  7.8972400E+02;
  4.7106105E-01;  9.9999998E-03;  3.9998647E-02;5347; -2.4831055E-03;  0.0000000E+00; -2.3486229E-04;  1.0004339E+03;  1.0000000E-01;  3.5949597E+02;3;  1.6264528E+00;  0.0000000E+00;  4.4671007E-02;0;  1.3710583E-02;  4.0041566E+04;  0.0000000E+00;  6.6356375E-03;  4.0000000E+04;  0.0000000E+00;  3.9993594E+04;  1.9898852E-02;  0.0000000E+00; -6.1882697E-03;  8.6527399E+02;
  4.7104913E-01;  9.9999998E-03;  4.9999852E-02;5348; -2.5128219E-03;  0.0000000E+00; -2.9686527E-04;  1.0004772E+03;  1.0000000E-01;  3.9534680E+02;3;  1.6009152E+00;  0.0000000E+00;  5.4434530E-02;0;  1.4168054E-02;  4.0045629E+04;  0.0000000E+00;  9.4843823E-03;  4.0000000E+04;  0.0000000E+00;  3.9992797E+04;  2.0315427E-02;  0.0000000E+00; -6.1473730E-03;  9.4613770E+02;
  4.7103596E-01;  9.9999998E-03;  6.0001977E-02;5349; -2.5445444E-03;  0.0000000E+00; -3.6012547E-04;  1.0005246E+03;  1.0000000E-01;  4.3465433E+02;3;  1.5737556E+00;  0.0000000E+00;  6.3765779E-02;0;  1.4683917E-02;  4.0050039E+04;  0.0000000E+00;  1.2156811E-02;  4.0000000E+04;  0.0000000E+00;  3.9992102E+04;  2.0780316E-02;  0.0000000E+00; -6.0963985E-03;  1.0235079E+03;
  4.8097199E-01;  9.9999998E-03; -1.0001235E-01;5394; -2.5662566E-03;  0.0000000E+00;  6.1237213E-04;  1.0007996E+03;  1.0000148E-01;  6.6249976E+02;3;  1.4868083E+00;  0.0000000E+00; -9.3270712E-02;0;  2.0985065E-02;  4.0071637E+04;  0.0000000E+00; -2.7695414E-02;  4.0000000E+04;  0.0000000E+00;  3.9991441E+04;  2.7154116E-02;  0.0000000E+00; -6.1690509E-03;  1.1546761E+03;
  4.8098853E-01;  9.9999998E-03; -9.0009876E-02;5395; -2.5485256E-03;  0.0000000E+00;  5.4635660E-04;  1.0007869E+03;  1.0000148E-01;  6.5193213E+02;3;  1.5180148E+00;  0.0000000E+00; -8.9673348E-02;0;  2.0156603E-02;  4.0070176E+04;  0.0000000E+00; -2.1551849E-02;  4.0000000E+04;  0.0000000E+00;  3.9991660E+04;  2.6417423E-02;  0.0000000E+00; -6.2608202E-03;  1.1183020E+03;
  4.8100784E-01;  9.9999998E-03; -8.0007121E-02;5396; -2.5186688E-03;  0.0000000E+00;  4.7964591E-04;  1.0007608E+03;  1.0000142E-01;  6.3030310E+02;3;  1.5564183E+00;  0.0000000E+00; -8.5403867E-02;0;  1.9341048E-02;  4.0067910E+04;  0.0000000E+00; -1.5813153E-02;  4.0000000E+04;  0.0000000E+00;  3.9992055E+04;  2.5680576E-02;  0.0000000E+00; -6.3395272E-03;  1.0674398E+03;
  4.8105010E-01;  9.9999998E-03; -6.0001943E-02;5398; -2.4505672E-03;  0.0000000E+00;  3.4830478E-04;  1.0007040E+03;  1.0000145E-01;  5.8329211E+02;3;  1.6248786E+00;  0.0000000E+00; -7.1946658E-02;0;  1.7797893E-02;  4.0062469E+04;  0.0000000E+00; -6.9038314E-03;  4.0000000E+04;  0.0000000E+00;  3.9992883E+04;  2.4257826E-02;  0.0000000E+00; -6.4599332E-03;  9.2793835E+02;
  4.8105010E-01;  9.9999998E-03;  6.0001947E-02;5410; -2.4505814E-03;  0.0000000E+00; -3.4826456E-04;  1.0007040E+03;  1.0000145E-01;  5.8329211E+02;3;  1.6249071E+00;  0.0000000E+00;  7.1952127E-02;0;  1.7797764E-02;  4.0062465E+04;  0.0000000E+00; -6.9032414E-03;  4.0000000E+04;  0.0000000E+00;  3.9992883E+04;  2.4257705E-02;  0.0000000E+00; -6.4599407E-03;  9.2793610E+02;
  4.8102877E-01;  9.9999998E-03; -7.0004404E-02;5397; -2.4842219E-03;  0.0000000E+00;  4.1331368E-04;  1.0007328E+03;  1.0000142E-01;  6.0709387E+02;3;  1.5920098E+00;  0.0000000E+00; -7.9221591E-02;0;  1.8549372E-02;  4.0065426E+04;  0.0000000E+00; -1.0854393E-02;  4.0000000E+04;  0.0000000E+00;  3.9992469E+04;  2.4955023E-02;  0.0000000E+00; -6.4056516E-03;  1.0030937E+03;
  4.8107097E-01;  9.9999998E-03; -4.9999997E-02;5399; -2.4219146E-03;  0.0000000E+00;  2.8534763E-04;  1.0006793E+03;  1.0000148E-01;  5.6284827E+02;3;  1.6476672E+00;  0.0000000E+00; -6.1249625E-02;0;  1.7107036E-02;  4.0059492E+04;  0.0000000E+00; -4.0157749E-03;  4.0000000E+04;  0.0000000E+00;  3.9993645E+04;  2.3610428E-02;  0.0000000E+00; -6.5033915E-03;  8.4656848E+02;
  4.8107097E-01;  9.9999998E-03;  5.0000001E-02;5409; -2.4219281E-03;  0.0000000E+00; -2.8530756E-04;  1.0006793E+03;  1.0000148E-01;  5.6284827E+02;3;  1.6477045E+00;  0.0000000E+00;  6.1247937E-02;0;  1.7106920E-02;  4.0059484E+04;  0.0000000E+00; -4.0136394E-03;  4.0000000E+04;  0.0000000E+00;  3.9993648E+04;  2.3610324E-02;  0.0000000E+00; -6.5034037E-03;  8.4657391E+02;
  4.8112658E-01;  9.9999998E-03; -9.9993274E-03;5403; -2.3702052E-03;  0.0000000E+00;  5.4018252E-05;  1.0006050E+03;  1.0000148E-01;  5.0122037E+02;3;  1.6844083E+00;  0.0000000E+00; -1.3727451E-02;0;  1.5389629E-02;  4.0051816E+04;  0.0000000E+00; -7.1960843E-05;  4.0000000E+04;  0.0000000E+00;  3.9995727E+04;  2.1979421E-02;  0.0000000E+00; -6.5897931E-03;  5.9432605E+02;
  4.8112908E-01;  9.9999998E-03;  2.9144376E-09;5404; -2.3685580E-03;  0.0000000E+00;  2.0004418E-08;  1.0006009E+03;  1.0000145E-01;  4.9786243E+02;3;  1.6850157E+00;  0.0000000E+00; -1.1682110E-05;0;  1.5310875E-02;  4.0051410E+04;  0.0000000E+00; -1.3288656E-12;  4.0000000E+04;  0.0000000E+00;  3.9995766E+04;  2.1904022E-02;  0.0000000E+00; -6.5931464E-03;  5.8117542E+02;
  4.8112658E-01;  9.9999998E-03;  9.9993329E-03;5405; -2.3702094E-03;  0.0000000E+00; -5.3978183E-05;  1.0006049E+03;  1.0000148E-01;  5.0112158E+02;3;  1.6844208E+00;  0.0000000E+00;  1.3708446E-02;0;  1.5389604E-02;  4.0051820E+04;  0.0000000E+00; -7.1887662E-05;  4.0000000E+04;  0.0000000E+00;  3.9995727E+04;  2.1979392E-02;  0.0000000E+00; -6.5897866E-03;  5.9432501E+02;
  4.8111874E-01;  9.9999998E-03; -1.9998705E-02;5402; -2.3753424E-03;  0.0000000E+00;  1.0897160E-04;  1.0006161E+03;  1.0000151E-01;  5.1050403E+02;3;  1.6816212E+00;  0.0000000E+00; -2.6756950E-02;0;  1.5621988E-02;  4.0052910E+04;  0.0000000E+00; -3.3865494E-04;  4.0000000E+04;  0.0000000E+00;  3.9995473E+04;  2.2201614E-02;  0.0000000E+00; -6.5796259E-03;  6.3241791E+02;
  4.8111874E-01;  9.9999998E-03;  1.9998711E-02;5406; -2.3753466E-03;  0.0000000E+00; -1.0893173E-04;  1.0006161E+03;  1.0000151E-01;  5.1050403E+02;3;  1.6816299E+00;  0.0000000E+00;  2.6742719E-02;0;  1.5621968E-02;  4.0052914E+04;  0.0000000E+00; -3.3825400E-04;  4.0000000E+04;  0.0000000E+00;  3.9995473E+04;  2.2201587E-02;  0.0000000E+00; -6.5796184E-03;  6.3240460E+02;
  4.8110643E-01;  9.9999998E-03; -2.9998433E-02;5401; -2.3848638E-03;  0.0000000E+00;  1.6571651E-04;  1.0006285E+03;  1.0000148E-01;  5.2077533E+02;3;  1.6760993E+00;  0.0000000E+00; -3.9941367E-02;0;  1.5997441E-02;  4.0054676E+04;  0.0000000E+00; -9.4338291E-04;  4.0000000E+04;  0.0000000E+00;  3.9994941E+04;  2.2559723E-02;  0.0000000E+00; -6.5622814E-03;  6.9142303E+02;
  4.8110643E-01;  9.9999998E-03;  2.9998438E-02;5407; -2.3848722E-03;  0.0000000E+00; -1.6567676E-04;  1.0006285E+03;  1.0000148E-01;  5.2077533E+02;3;  1.6761237E+00;  0.0000000E+00;  3.9931234E-02;0;  1.5997387E-02;  4.0054676E+04;  0.0000000E+00; -9.4324542E-04;  4.0000000E+04;  0.0000000E+00;  3.9994941E+04;  2.2559671E-02;  0.0000000E+00; -6.5622842E-03;  6.9140869E+02;
  4.8109019E-01;  9.9999998E-03; -3.9998785E-02;5400; -2.4000618E-03;  0.0000000E+00;  2.2448998E-04;  1.0006488E+03;  1.0000148E-01;  5.3756500E+02;3;  1.6650002E+00;  0.0000000E+00; -5.1016871E-02;0;  1.6499365E-02;  4.0056805E+04;  0.0000000E+00; -2.0928215E-03;  4.0000000E+04;  0.0000000E+00;  3.9994367E+04;  2.3036513E-02;  0.0000000E+00; -6.5371487E-03;  7.6524304E+02;
  4.8109019E-01;  9.9999998E-03;  3.9998788E-02;5408; -2.4000711E-03;  0.0000000E+00; -2.2445024E-04;  1.0006488E+03;  1.0000148E-01;  5.3756500E+02;3;  1.6650249E+00;  0.0000000E+00;  5.1008493E-02;0;  1.6499257E-02;  4.0056801E+04;  0.0000000E+00; -2.0924814E-03;  4.0000000E+04;  0.0000000E+00;  3.9994363E+04;  2.3036417E-02;  0.0000000E+00; -6.5371594E-03;  7.6523920E+02;
  4.9120572E-01;  9.9999998E-03; -9.9983104E-03;5464; -2.2057595E-03;  0.0000000E+00;  5.3054551E-05;  1.0008354E+03;  1.0000206E-01;  6.9212854E+02;3;  1.7850065E+00;  0.0000000E+00; -1.3155562E-02;0;  1.7583048E-02;  4.0069227E+04;  0.0000000E+00; -7.4702053E-04;  4.0000000E+04;  0.0000000E+00;  3.9996301E+04;  2.4594713E-02;  0.0000000E+00; -7.0116646E-03;  5.3298718E+02;
  4.9120820E-01;  9.9999998E-03;  2.9979215E-09;5465; -2.2074708E-03;  0.0000000E+00;  2.0949519E-08;  1.0008364E+03;  1.0000201E-01;  6.9291864E+02;3;  1.7842138E+00;  0.0000000E+00; -6.7963651E-06;0;  1.7487884E-02;  4.0069023E+04;  0.0000000E+00; -1.5036720E-12;  4.0000000E+04;  0.0000000E+00;  3.9996352E+04;  2.4502827E-02;  0.0000000E+00; -7.0149442E-03;  5.2174292E+02;
  4.9120572E-01;  9.9999998E-03;  9.9983169E-03;5466; -2.2057642E-03;  0.0000000E+00; -5.3012529E-05;  1.0008354E+03;  1.0000206E-01;  6.9212854E+02;3;  1.7850035E+00;  0.0000000E+00;  1.3143770E-02;0;  1.7583016E-02;  4.0069230E+04;  0.0000000E+00; -7.4681209E-04;  4.0000000E+04;  0.0000000E+00;  3.9996301E+04;  2.4594683E-02;  0.0000000E+00; -7.0116660E-03;  5.3298260E+02;
  4.9119845E-01;  9.9999998E-03; -1.9996667E-02;5463; -2.2015343E-03;  0.0000000E+00;  1.0692938E-04;  1.0008397E+03;  1.0000205E-01;  6.9568396E+02;3;  1.7895179E+00;  0.0000000E+00; -2.3762926E-02;0;  1.7864712E-02;  4.0069574E+04;  0.0000000E+00; -3.0222924E-03;  4.0000000E+04;  0.0000000E+00;  3.9996090E+04;  2.4866372E-02;  0.0000000E+00; -7.0016612E-03;  5.6576367E+02;
  4.9119845E-01;  9.9999998E-03;  1.9996673E-02;5467; -2.2015409E-03;  0.0000000E+00; -1.0688761E-04;  1.0008395E+03;  1.0000205E-01;  6.9558521E+02;3;  1.7895149E+00;  0.0000000E+00;  2.3753928E-02;0;  1.7864659E-02;  4.0069574E+04;  0.0000000E+00; -3.0219057E-03;  4.0000000E+04;  0.0000000E+00;  3.9996090E+04;  2.4866328E-02;  0.0000000E+00; -7.0016691E-03;  5.6574658E+02;
  4.9118671E-01;  9.9999998E-03; -2.9995190E-02;5462; -2.1975848E-03;  0.0000000E+00;  1.6215378E-04;  1.0008419E+03;  1.0000210E-01;  6.9746173E+02;3;  1.7936536E+00;  0.0000000E+00; -3.5445541E-02;0;  1.8321406E-02;  4.0070156E+04;  0.0000000E+00; -6.9117458E-03;  4.0000000E+04;  0.0000000E+00;  3.9995609E+04;  2.5305970E-02;  0.0000000E+00; -6.9845635E-03;  6.1735822E+02;
  4.9118671E-01;  9.9999998E-03;  2.9995196E-02;5468; -2.1975962E-03;  0.0000000E+00; -1.6211120E-04;  1.0008419E+03;  1.0000210E-01;  6.9756049E+02;3;  1.7936682E+00;  0.0000000E+00;  3.5447020E-02;0;  1.8321337E-02;  4.0070160E+04;  0.0000000E+00; -6.9111818E-03;  4.0000000E+04;  0.0000000E+00;  3.9995605E+04;  2.5305910E-02;  0.0000000E+00; -6.9845729E-03;  6.1735492E+02;
  4.9117061E-01;  9.9999998E-03; -3.9994083E-02;5461; -2.1979595E-03;  0.0000000E+00;  2.1912236E-04;  1.0008464E+03;  1.0000205E-01;  7.0121466E+02;3;  1.7933707E+00;  0.0000000E+00; -4.6363164E-02;0;  1.8935459E-02;  4.0071332E+04;  0.0000000E+00; -1.2501605E-02;  4.0000000E+04;  0.0000000E+00;  3.9995223E+04;  2.5895068E-02;  0.0000000E+00; -6.9596097E-03;  6.8344208E+02;
  4.9117061E-01;  9.9999998E-03;  3.9994091E-02;5469; -2.1979765E-03;  0.0000000E+00; -2.1907994E-04;  1.0008465E+03;  1.0000205E-01;  7.0131342E+02;3;  1.7933763E+00;  0.0000000E+00;  4.6360292E-02;0;  1.8935390E-02;  4.0071332E+04;  0.0000000E+00; -1.2501427E-02;  4.0000000E+04;  0.0000000E+00;  3.9995223E+04;  2.5895001E-02;  0.0000000E+00; -6.9596125E-03;  6.8343292E+02;
  4.9115053E-01;  9.9999998E-03; -4.9993496E-02;5460; -2.2067677E-03;  0.0000000E+00;  2.7837686E-04;  1.0008541E+03;  1.0000209E-01;  7.0763428E+02;3;  1.7841752E+00;  0.0000000E+00; -5.6931578E-02;0;  1.9684292E-02;  4.0072559E+04;  0.0000000E+00; -1.9803919E-02;  4.0000000E+04;  0.0000000E+00;  3.9994539E+04;  2.6610047E-02;  0.0000000E+00; -6.9257542E-03;  7.5889630E+02;
  4.9115053E-01;  9.9999998E-03;  4.9993504E-02;5470; -2.2067986E-03;  0.0000000E+00; -2.7833358E-04;  1.0008541E+03;  1.0000209E-01;  7.0763428E+02;3;  1.7842149E+00;  0.0000000E+00;  5.6944266E-02;0;  1.9684169E-02;  4.0072559E+04;  0.0000000E+00; -1.9804673E-02;  4.0000000E+04;  0.0000000E+00;  3.9994539E+04;  2.6609929E-02;  0.0000000E+00; -6.9257598E-03;  7.5889856E+02;
  4.9112755E-01;  9.9999998E-03; -5.9993479E-02;5459; -2.2270342E-03;  0.0000000E+00;  3.3997034E-04;  1.0008643E+03;  1.0000206E-01;  7.1602905E+02;3;  1.7642472E+00;  0.0000000E+00; -6.6240281E-02;0;  2.0542910E-02;  4.0073840E+04;  0.0000000E+00; -2.8677341E-02;  4.0000000E+04;  0.0000000E+00;  3.9993840E+04;  2.7424587E-02;  0.0000000E+00; -6.8816766E-03;  8.3860864E+02;
  4.9112755E-01;  9.9999998E-03;  5.9993483E-02;5471; -2.2270575E-03;  0.0000000E+00; -3.3992782E-04;  1.0008643E+03;  1.0000206E-01;  7.1602905E+02;3;  1.7642846E+00;  0.0000000E+00;  6.6248335E-02;0;  2.0542800E-02;  4.0073840E+04;  0.0000000E+00; -2.8678864E-02;  4.0000000E+04;  0.0000000E+00;  3.9993840E+04;  2.7424479E-02;  0.0000000E+00; -6.8816785E-03;  8.3860223E+02;
  4.9110273E-01;  9.9999998E-03; -6.9994025E-02;5458; -2.2600878E-03;  0.0000000E+00;  4.0389784E-04;  1.0008723E+03;  1.0000208E-01;  7.2264618E+02;3;  1.7317498E+00;  0.0000000E+00; -7.6760359E-02;0;  2.1485792E-02;  4.0075043E+04;  0.0000000E+00; -3.8756937E-02;  4.0000000E+04;  0.0000000E+00;  3.9993289E+04;  2.8311742E-02;  0.0000000E+00; -6.8259500E-03;  9.1808380E+02;
  4.9107733E-01;  9.9999998E-03; -7.9995058E-02;5457; -2.3047423E-03;  0.0000000E+00;  4.7027014E-04;  1.0008800E+03;  1.0000210E-01;  7.2906573E+02;3;  1.6888953E+00;  0.0000000E+00; -8.7089993E-02;0;  2.2489021E-02;  4.0076410E+04;  0.0000000E+00; -4.9425989E-02;  4.0000000E+04;  0.0000000E+00;  3.9992543E+04;  2.9246353E-02;  0.0000000E+00; -6.7573315E-03;  9.9396594E+02;
  4.9105272E-01;  9.9999998E-03; -8.9996420E-02;5456; -2.3571874E-03;  0.0000000E+00;  5.3884945E-04;  1.0008885E+03;  1.0000204E-01;  7.3617664E+02;3;  1.6406754E+00;  0.0000000E+00; -9.7698174E-02;0;  2.3532391E-02;  4.0077586E+04;  0.0000000E+00; -5.9838656E-02;  4.0000000E+04;  0.0000000E+00;  3.9992230E+04;  3.0207325E-02;  0.0000000E+00; -6.6749332E-03;  1.0635690E+03;
  4.9103060E-01;  9.9999998E-03; -9.9997826E-02;5455; -2.4107436E-03;  0.0000000E+00;  6.0921273E-04;  1.0008917E+03;  1.0000208E-01;  7.3874451E+02;3;  1.5847496E+00;  0.0000000E+00; -1.0634145E-01;0;  2.4601037E-02;  4.0078086E+04;  0.0000000E+00; -6.8993911E-02;  4.0000000E+04;  0.0000000E+00;  3.9991684E+04;  3.1179283E-02;  0.0000000E+00; -6.5782461E-03;  1.1247216E+03;
  5.0102824E-01;  9.9999998E-03; -9.9986553E-02;5516; -1.9286687E-03;  0.0000000E+00;  6.1235449E-04;  1.0009479E+03;  1.0000372E-01;  7.8536047E+02;3;  1.9203020E+00;  0.0000000E+00; -8.9657322E-02;0;  2.7425185E-02;  4.0081312E+04;  0.0000000E+00; -1.0593755E-01;  4.0000000E+04;  0.0000000E+00;  3.9991902E+04;  3.4438137E-02;  0.0000000E+00; -7.0129521E-03;  1.0981073E+03;
  5.0104409E-01;  9.9999998E-03; -8.9986585E-02;5517; -1.8459116E-03;  0.0000000E+00;  5.3977058E-04;  1.0009573E+03;  1.0000387E-01;  7.9316272E+02;3;  2.0107114E+00;  0.0000000E+00; -8.2359217E-02;0;  2.6131282E-02;  4.0081145E+04;  0.0000000E+00; -9.5601931E-02;  4.0000000E+04;  0.0000000E+00;  3.9992617E+04;  3.3256929E-02;  0.0000000E+00; -7.1256473E-03;  1.0166562E+03;
  5.0106049E-01;  9.9999998E-03; -7.9987116E-02;5518; -1.7825973E-03;  0.0000000E+00;  4.6991496E-04;  1.0009653E+03;  1.0000373E-01;  7.9977979E+02;3;  2.0867536E+00;  0.0000000E+00; -6.6257089E-02;0;  2.4882350E-02;  4.0080707E+04;  0.0000000E+00; -8.1999749E-02;  4.0000000E+04;  0.0000000E+00;  3.9993109E+04;  3.2105394E-02;  0.0000000E+00; -7.2230431E-03;  9.3276251E+02;
  5.0107688E-01;  9.9999998E-03; -6.9988079E-02;5519; -1.7436007E-03;  0.0000000E+00;  4.0293715E-04;  1.0009666E+03;  1.0000388E-01;  8.0076740E+02;3;  2.1420968E+00;  0.0000000E+00; -5.4049540E-02;0;  2.3695692E-02;  4.0080727E+04;  0.0000000E+00; -6.6667281E-02;  4.0000000E+04;  0.0000000E+00;  3.9993965E+04;  3.1001111E-02;  0.0000000E+00; -7.3054195E-03;  8.4979547E+02;
  5.0109273E-01;  9.9999998E-03; -5.9989300E-02;5520; -1.7287328E-03;  0.0000000E+00;  3.3876934E-04;  1.0009728E+03;  1.0000376E-01;  8.0600183E+02;3;  2.1754899E+00;  0.0000000E+00; -4.6333984E-02;0;  2.2593338E-02;  4.0080512E+04;  0.0000000E+00; -5.1062126E-02;  4.0000000E+04;  0.0000000E+00;  3.9994438E+04;  2.9966857E-02;  0.0000000E+00; -7.3735183E-03;  7.7050751E+02;
  5.0110739E-01;  9.9999998E-03; -4.9990844E-02;5521; -1.7337730E-03;  0.0000000E+00;  2.7759414E-04;  1.0009786E+03;  1.0000374E-01;  8.1074243E+02;3;  2.1894352E+00;  0.0000000E+00; -3.7804302E-02;0;  2.1600125E-02;  4.0080250E+04;  0.0000000E+00; -3.6420420E-02;  4.0000000E+04;  0.0000000E+00;  3.9994980E+04;  2.9028554E-02;  0.0000000E+00; -7.4284282E-03;  6.9712604E+02;
  5.0112003E-01;  9.9999998E-03; -3.9992668E-02;5522; -1.7524572E-03;  0.0000000E+00;  2.1921171E-04;  1.0009845E+03;  1.0000377E-01;  8.1568060E+02;3;  2.1876993E+00;  0.0000000E+00; -3.0227726E-02;0;  2.0741940E-02;  4.0080285E+04;  0.0000000E+00; -2.3672795E-02;  4.0000000E+04;  0.0000000E+00;  3.9995711E+04;  2.8213389E-02;  0.0000000E+00; -7.4714506E-03;  6.3203943E+02;
  5.0113004E-01;  9.9999998E-03; -2.9994607E-02;5523; -1.7773100E-03;  0.0000000E+00;  1.6281242E-04;  1.0009919E+03;  1.0000386E-01;  8.2180383E+02;3;  2.1762557E+00;  0.0000000E+00; -2.4749473E-02;0;  2.0043608E-02;  4.0080520E+04;  0.0000000E+00; -1.3418421E-02;  4.0000000E+04;  0.0000000E+00;  3.9996035E+04;  2.7547380E-02;  0.0000000E+00; -7.5037722E-03;  5.7779822E+02;
  5.0113732E-01;  9.9999998E-03; -1.9996585E-02;5524; -1.8011733E-03;  0.0000000E+00;  1.0777226E-04;  1.0009980E+03;  1.0000373E-01;  8.2684076E+02;3;  2.1615634E+00;  0.0000000E+00; -1.8526819E-02;0;  1.9527188E-02;  4.0080391E+04;  0.0000000E+00; -5.9817182E-03;  4.0000000E+04;  0.0000000E+00;  3.9996531E+04;  2.7053492E-02;  0.0000000E+00; -7.5263050E-03;  5.3704291E+02;
  5.0114173E-01;  9.9999998E-03; -9.9983662E-03;5525; -1.8181653E-03;  0.0000000E+00;  5.3659314E-05;  1.0010010E+03;  1.0000381E-01;  8.2930981E+02;3;  2.1496866E+00;  0.0000000E+00; -9.9253543E-03;0;  1.9209921E-02;  4.0080516E+04;  0.0000000E+00; -1.4965378E-03;  4.0000000E+04;  0.0000000E+00;  3.9996609E+04;  2.6749542E-02;  0.0000000E+00; -7.5396206E-03;  5.1172769E+02;
  5.0114316E-01;  9.9999998E-03;  3.0682985E-09;5526; -1.8243082E-03;  0.0000000E+00;  2.2780654E-08;  1.0010018E+03;  1.0000373E-01;  8.2990240E+02;3;  2.1453943E+00;  0.0000000E+00; -3.6745666E-06;0;  1.9102901E-02;  4.0080648E+04;  0.0000000E+00;  1.8986920E-13;  4.0000000E+04;  0.0000000E+00;  3.9996680E+04;  2.6646914E-02;  0.0000000E+00; -7.5440127E-03;  5.0317587E+02;
  5.0114173E-01;  9.9999998E-03;  9.9983728E-03;5527; -1.8181672E-03;  0.0000000E+00; -5.3613720E-05;  1.0010010E+03;  1.0000381E-01;  8.2930981E+02;3;  2.1496935E+00;  0.0000000E+00;  9.9239089E-03;0;  1.9209862E-02;  4.0080520E+04;  0.0000000E+00; -1.4964170E-03;  4.0000000E+04;  0.0000000E+00;  3.9996613E+04;  2.6749486E-02;  0.0000000E+00; -7.5396248E-03;  5.1171707E+02;
  5.0113732E-01;  9.9999998E-03;  1.9996591E-02;5528; -1.8011861E-03;  0.0000000E+00; -1.0772708E-04;  1.0009980E+03;  1.0000373E-01;  8.2684076E+02;3;  2.1615603E+00;  0.0000000E+00;  1.8522983E-02;0;  1.9527122E-02;  4.0080391E+04;  0.0000000E+00; -5.9813885E-03;  4.0000000E+04;  0.0000000E+00;  3.9996531E+04;  2.7053436E-02;  0.0000000E+00; -7.5263130E-03;  5.3704218E+02;
  5.0113004E-01;  9.9999998E-03;  2.9994614E-02;5529; -1.7773353E-03;  0.0000000E+00; -1.6276768E-04;  1.0009919E+03;  1.0000386E-01;  8.2180383E+02;3;  2.1762397E+00;  0.0000000E+00;  2.4756949E-02;0;  2.0043530E-02;  4.0080520E+04;  0.0000000E+00; -1.3418291E-02;  4.0000000E+04;  0.0000000E+00;  3.9996035E+04;  2.7547318E-02;  0.0000000E+00; -7.5037894E-03;  5.7778833E+02;
  5.0112003E-01;  9.9999998E-03;  3.9992675E-02;5530; -1.7524883E-03;  0.0000000E+00; -2.1916664E-04;  1.0009845E+03;  1.0000377E-01;  8.1568060E+02;3;  2.1877010E+00;  0.0000000E+00;  3.0232567E-02;0;  2.0741861E-02;  4.0080281E+04;  0.0000000E+00; -2.3671871E-02;  4.0000000E+04;  0.0000000E+00;  3.9995711E+04;  2.8213322E-02;  0.0000000E+00; -7.4714608E-03;  6.3203613E+02;
  5.0110739E-01;  9.9999998E-03;  4.9990851E-02;5531; -1.7338300E-03;  0.0000000E+00; -2.7754906E-04;  1.0009786E+03;  1.0000374E-01;  8.1074243E+02;3;  2.1894288E+00;  0.0000000E+00;  3.7812620E-02;0;  2.1600036E-02;  4.0080250E+04;  0.0000000E+00; -3.6419265E-02;  4.0000000E+04;  0.0000000E+00;  3.9994977E+04;  2.9028473E-02;  0.0000000E+00; -7.4284375E-03;  6.9712231E+02;
  5.0109273E-01;  9.9999998E-03;  5.9989307E-02;5532; -1.7287689E-03;  0.0000000E+00; -3.3872382E-04;  1.0009728E+03;  1.0000376E-01;  8.0600183E+02;3;  2.1754928E+00;  0.0000000E+00;  4.6348378E-02;0;  2.2593178E-02;  4.0080500E+04;  0.0000000E+00; -5.1061131E-02;  4.0000000E+04;  0.0000000E+00;  3.9994438E+04;  2.9966706E-02;  0.0000000E+00; -7.3735281E-03;  7.7050806E+02;
  5.1098794E-01;  9.9999998E-03; -9.9981785E-02;5577; -9.1892766E-04;  0.0000000E+00;  6.2062795E-04;  1.0009486E+03;  1.0000619E-01;  7.8595300E+02;3;  2.6155744E+00;  0.0000000E+00; -6.6910543E-02;0;  2.9160531E-02;  4.0078711E+04;  0.0000000E+00; -1.3333236E-01;  4.0000000E+04;  0.0000000E+00;  3.9992207E+04;  3.6645729E-02;  0.0000000E+00; -7.4851983E-03;  1.0780212E+03;
  5.1099557E-01;  9.9999998E-03; -8.9983322E-02;5578; -8.6326234E-04;  0.0000000E+00;  5.4160022E-04;  1.0009597E+03;  1.0000612E-01;  7.9503918E+02;3;  2.7219839E+00;  0.0000000E+00; -5.7757881E-02;0;  2.7698558E-02;  4.0078539E+04;  0.0000000E+00; -1.2370108E-01;  4.0000000E+04;  0.0000000E+00;  3.9992738E+04;  3.5325747E-02;  0.0000000E+00; -7.6271887E-03;  9.8410480E+02;
  5.1100326E-01;  9.9999998E-03; -7.9985216E-02;5579; -8.4541534E-04;  0.0000000E+00;  4.6586519E-04;  1.0009663E+03;  1.0000617E-01;  8.0056989E+02;3;  2.8046536E+00;  0.0000000E+00; -4.2815905E-02;0;  2.6307302E-02;  4.0078547E+04;  0.0000000E+00; -1.0880940E-01;  4.0000000E+04;  0.0000000E+00;  3.9993617E+04;  3.4060501E-02;  0.0000000E+00; -7.7531985E-03;  8.9267682E+02;
  5.1101118E-01;  9.9999998E-03; -6.9987237E-02;5580; -8.6267770E-04;  0.0000000E+00;  3.9449398E-04;  1.0009766E+03;  1.0000610E-01;  8.0916223E+02;3;  2.8591063E+00;  0.0000000E+00; -3.3464510E-02;0;  2.5003208E-02;  4.0078855E+04;  0.0000000E+00; -9.0535082E-02;  4.0000000E+04;  0.0000000E+00;  3.9994188E+04;  3.2866120E-02;  0.0000000E+00; -7.8629125E-03;  8.0831512E+02;
  5.1101929E-01;  9.9999998E-03; -5.9989262E-02;5581; -9.0763578E-04;  0.0000000E+00;  3.2855393E-04;  1.0009890E+03;  1.0000613E-01;  8.1933478E+02;3;  2.8887210E+00;  0.0000000E+00; -2.4206746E-02;0;  2.3806617E-02;  4.0079008E+04;  0.0000000E+00; -7.0834622E-02;  4.0000000E+04;  0.0000000E+00;  3.9994738E+04;  3.1763043E-02;  0.0000000E+00; -7.9564266E-03;  7.3392334E+02;
  5.1102734E-01;  9.9999998E-03; -4.9991284E-02;5582; -9.7070594E-04;  0.0000000E+00;  2.6786767E-04;  1.0010019E+03;  1.0000623E-01;  8.3000116E+02;3;  2.8937922E+00;  0.0000000E+00; -1.4750157E-02;0;  2.2740096E-02;  4.0079559E+04;  0.0000000E+00; -5.1507447E-02;  4.0000000E+04;  0.0000000E+00;  3.9995246E+04;  3.0774338E-02;  0.0000000E+00; -8.0342414E-03;  6.7084863E+02;
  5.1103431E-01;  9.9999998E-03; -3.9993301E-02;5583; -1.0409680E-03;  0.0000000E+00;  2.1125155E-04;  1.0010148E+03;  1.0000616E-01;  8.4076630E+02;3;  2.8818200E+00;  0.0000000E+00; -8.0853775E-03;0;  2.1826807E-02;  4.0080156E+04;  0.0000000E+00; -3.4047727E-02;  4.0000000E+04;  0.0000000E+00;  3.9995906E+04;  2.9923862E-02;  0.0000000E+00; -8.0970535E-03;  6.1951312E+02;
  5.1103997E-01;  9.9999998E-03; -2.9995225E-02;5584; -1.1079153E-03;  0.0000000E+00;  1.5734317E-04;  1.0010294E+03;  1.0000622E-01;  8.5281531E+02;3;  2.8600321E+00;  0.0000000E+00; -3.7969307E-03;0;  2.1088963E-02;  4.0080641E+04;  0.0000000E+00; -1.9569712E-02;  4.0000000E+04;  0.0000000E+00;  3.9996102E+04;  2.9234430E-02;  0.0000000E+00; -8.1454664E-03;  5.8005383E+02;
  5.1104432E-01;  9.9999998E-03; -1.9997047E-02;5585; -1.1626168E-03;  0.0000000E+00;  1.0446543E-04;  1.0010391E+03;  1.0000621E-01;  8.6081512E+02;3;  2.8343718E+00;  0.0000000E+00; -4.6645962E-03;0;  2.0546250E-02;  4.0081625E+04;  0.0000000E+00; -8.8148909E-03;  4.0000000E+04;  0.0000000E+00;  3.9996395E+04;  2.8726188E-02;  0.0000000E+00; -8.1799384E-03;  5.5229919E+02;
  5.1104701E-01;  9.9999998E-03; -9.9986484E-03;5586; -1.1983026E-03;  0.0000000E+00;  5.2156749E-05;  1.0010467E+03;  1.0000639E-01;  8.6713593E+02;3;  2.8165541E+00;  0.0000000E+00; -1.5313519E-03;0;  2.0213975E-02;  4.0081871E+04;  0.0000000E+00; -2.2196565E-03;  4.0000000E+04;  0.0000000E+00;  3.9996492E+04;  2.8414560E-02;  0.0000000E+00; -8.2005858E-03;  5.3587317E+02;
  5.1104814E-01;  9.9999998E-03;  3.1329561E-09;5587; -1.2106153E-03;  0.0000000E+00;  2.4776460E-08;  1.0010480E+03;  1.0000618E-01;  8.6832104E+02;3;  2.8108153E+00;  0.0000000E+00;  3.4239165E-06;0;  2.0102151E-02;  4.0081965E+04;  0.0000000E+00;  1.4808147E-12;  4.0000000E+04;  0.0000000E+00;  3.9996371E+04;  2.8309632E-02;  0.0000000E+00; -8.2074814E-03;  5.3048816E+02;
  5.1104701E-01;  9.9999998E-03;  9.9986549E-03;5588; -1.1983077E-03;  0.0000000E+00; -5.2107051E-05;  1.0010468E+03;  1.0000639E-01;  8.6723468E+02;3;  2.8165562E+00;  0.0000000E+00;  1.5373878E-03;0;  2.0213973E-02;  4.0081871E+04;  0.0000000E+00; -2.2196709E-03;  4.0000000E+04;  0.0000000E+00;  3.9996492E+04;  2.8414566E-02;  0.0000000E+00; -8.2005924E-03;  5.3587244E+02;
  5.1104432E-01;  9.9999998E-03;  1.9997055E-02;5589; -1.1626215E-03;  0.0000000E+00; -1.0441605E-04;  1.0010391E+03;  1.0000621E-01;  8.6081512E+02;3;  2.8343866E+00;  0.0000000E+00;  4.6710153E-03;0;  2.0546217E-02;  4.0081625E+04;  0.0000000E+00; -8.8146972E-03;  4.0000000E+04;  0.0000000E+00;  3.9996395E+04;  2.8726153E-02;  0.0000000E+00; -8.1799375E-03;  5.5227979E+02;
  5.1103997E-01;  9.9999998E-03;  2.9995231E-02;5590; -1.1079260E-03;  0.0000000E+00; -1.5729421E-04;  1.0010294E+03;  1.0000622E-01;  8.5281531E+02;3;  2.8600316E+00;  0.0000000E+00;  3.8080569E-03;0;  2.1088909E-02;  4.0080637E+04;  0.0000000E+00; -1.9569304E-02;  4.0000000E+04;  0.0000000E+00;  3.9996102E+04;  2.9234387E-02;  0.0000000E+00; -8.1454767E-03;  5.8005145E+02;
  5.1103431E-01;  9.9999998E-03;  3.9993308E-02;5591; -1.0409951E-03;  0.0000000E+00; -2.1120399E-04;  1.0010149E+03;  1.0000611E-01;  8.4086505E+02;3;  2.8818271E+00;  0.0000000E+00;  8.0973161E-03;0;  2.1826740E-02;  4.0080156E+04;  0.0000000E+00; -3.4047920E-02;  4.0000000E+04;  0.0000000E+00;  3.9995906E+04;  2.9923793E-02;  0.0000000E+00; -8.0970516E-03;  6.1949646E+02;
  5.1102734E-01;  9.9999998E-03;  4.9991291E-02;5592; -9.7074447E-04;  0.0000000E+00; -2.6782064E-04;  1.0010019E+03;  1.0000623E-01;  8.3000116E+02;3;  2.8937879E+00;  0.0000000E+00;  1.4768978E-02;0;  2.2740018E-02;  4.0079559E+04;  0.0000000E+00; -5.1507693E-02;  4.0000000E+04;  0.0000000E+00;  3.9995250E+04;  3.0774264E-02;  0.0000000E+00; -8.0342470E-03;  6.7083960E+02;
  5.1101929E-01;  9.9999998E-03;  5.9989270E-02;5593; -9.0769626E-04;  0.0000000E+00; -3.2850727E-04;  1.0009890E+03;  1.0000613E-01;  8.1933478E+02;3;  2.8887017E+00;  0.0000000E+00;  2.4221273E-02;0;  2.3806509E-02;  4.0079012E+04;  0.0000000E+00; -7.0832200E-02;  4.0000000E+04;  0.0000000E+00;  3.9994738E+04;  3.1762943E-02;  0.0000000E+00; -7.9564350E-03;  7.3393903E+02;
  5.2093112E-01;  9.9999998E-03; -9.9984013E-02;5638;  3.0295391E-04;  0.0000000E+00;  6.2270905E-04;  1.0008795E+03;  1.0001040E-01;  7.2867072E+02;3;  3.4003162E+00;  0.0000000E+00; -8.4342487E-02;0;  2.9705249E-02;  4.0068738E+04;  0.0000000E+00; -1.4574592E-01;  4.0000000E+04;  0.0000000E+00;  3.9992246E+04;  3.7715461E-02;  0.0000000E+00; -8.0102123E-03;  1.0633763E+03;
  5.2093345E-01;  9.9999998E-03; -8.9985967E-02;5639;  2.5036777E-04;  0.0000000E+00;  5.3623348E-04;  1.0008791E+03;  1.0001049E-01;  7.2827563E+02;3;  3.4872351E+00;  0.0000000E+00; -8.3131149E-02;0;  2.8173365E-02;  4.0068227E+04;  0.0000000E+00; -1.3854168E-01;  4.0000000E+04;  0.0000000E+00;  3.9993023E+04;  3.6369026E-02;  0.0000000E+00; -8.1956610E-03;  9.6654285E+02;
  5.2093571E-01;  9.9999998E-03; -7.9988025E-02;5640;  1.6206240E-04;  0.0000000E+00;  4.5613694E-04;  1.0008806E+03;  1.0001046E-01;  7.2955957E+02;3;  3.5506604E+00;  0.0000000E+00; -7.7415720E-02;0;  2.6739340E-02;  4.0067707E+04;  0.0000000E+00; -1.2451980E-01;  4.0000000E+04;  0.0000000E+00;  3.9993648E+04;  3.5103995E-02;  0.0000000E+00; -8.3646541E-03;  8.7562677E+02;
  5.2093810E-01;  9.9999998E-03; -6.9990009E-02;5641;  4.7107838E-05;  0.0000000E+00;  3.8346139E-04;  1.0008899E+03;  1.0001037E-01;  7.3726306E+02;3;  3.5897095E+00;  0.0000000E+00; -6.9895163E-02;0;  2.5414877E-02;  4.0067531E+04;  0.0000000E+00; -1.0564817E-01;  4.0000000E+04;  0.0000000E+00;  3.9994273E+04;  3.3930749E-02;  0.0000000E+00; -8.5158711E-03;  7.9619055E+02;
  5.2094078E-01;  9.9999998E-03; -5.9991885E-02;5642; -8.3085695E-05;  0.0000000E+00;  3.1827349E-04;  1.0009000E+03;  1.0001051E-01;  7.4555908E+02;3;  3.6055734E+00;  0.0000000E+00; -6.5103129E-02;0;  2.4215002E-02;  4.0067734E+04;  0.0000000E+00; -8.4129252E-02;  4.0000000E+04;  0.0000000E+00;  3.9994793E+04;  3.2863326E-02;  0.0000000E+00; -8.6483257E-03;  7.3140033E+02;
  5.2094370E-01;  9.9999998E-03; -4.9993664E-02;5643; -2.1634405E-04;  0.0000000E+00;  2.5981339E-04;  1.0009134E+03;  1.0001035E-01;  7.5671930E+02;3;  3.5997910E+00;  0.0000000E+00; -6.0120836E-02;0;  2.3156904E-02;  4.0068191E+04;  0.0000000E+00; -6.2140360E-02;  4.0000000E+04;  0.0000000E+00;  3.9995262E+04;  3.1918336E-02;  0.0000000E+00; -8.7614330E-03;  6.8194189E+02;
  5.2094603E-01;  9.9999998E-03; -3.9995372E-02;5644; -3.4121933E-04;  0.0000000E+00;  2.0600545E-04;  1.0009245E+03;  1.0001035E-01;  7.6590424E+02;3;  3.5792408E+00;  0.0000000E+00; -4.5087617E-02;0;  2.2258732E-02;  4.0068859E+04;  0.0000000E+00; -4.1633692E-02;  4.0000000E+04;  0.0000000E+00;  3.9995434E+04;  3.1113507E-02;  0.0000000E+00; -8.8547748E-03;  6.4677521E+02;
  5.2094817E-01;  9.9999998E-03; -2.9996851E-02;5645; -4.4822518E-04;  0.0000000E+00;  1.5396553E-04;  1.0009341E+03;  1.0001040E-01;  7.7390399E+02;3;  3.5510883E+00;  0.0000000E+00; -3.3648636E-02;0;  2.1537978E-02;  4.0069711E+04;  0.0000000E+00; -2.4193324E-02;  4.0000000E+04;  0.0000000E+00;  3.9995676E+04;  3.0466067E-02;  0.0000000E+00; -8.9280894E-03;  6.2370398E+02;
  5.2094990E-01;  9.9999998E-03; -1.9998156E-02;5646; -5.3014635E-04;  0.0000000E+00;  1.0259139E-04;  1.0009471E+03;  1.0001042E-01;  7.8466913E+02;3;  3.5234640E+00;  0.0000000E+00; -2.3085473E-02;0;  2.1010377E-02;  4.0070562E+04;  0.0000000E+00; -1.0986091E-02;  4.0000000E+04;  0.0000000E+00;  3.9995738E+04;  2.9991312E-02;  0.0000000E+00; -8.9809345E-03;  6.1005273E+02;
  5.2095109E-01;  9.9999998E-03; -9.9992100E-03;5647; -5.8121403E-04;  0.0000000E+00;  5.1471841E-05;  1.0009544E+03;  1.0001042E-01;  7.9069360E+02;3;  3.5039062E+00;  0.0000000E+00; -1.1172699E-02;0;  2.0688437E-02;  4.0071055E+04;  0.0000000E+00; -2.7800752E-03;  4.0000000E+04;  0.0000000E+00;  3.9995629E+04;  2.9701333E-02;  0.0000000E+00; -9.0128956E-03;  6.0311694E+02;
  5.2095157E-01;  9.9999998E-03;  3.2221055E-09;5648; -5.9864752E-04;  0.0000000E+00;  2.6016105E-08;  1.0009586E+03;  1.0001050E-01;  7.9415033E+02;3;  3.4965482E+00;  0.0000000E+00;  3.3366482E-06;0;  2.0580182E-02;  4.0071219E+04;  0.0000000E+00;  1.1487543E-12;  4.0000000E+04;  0.0000000E+00;  3.9995832E+04;  2.9603781E-02;  0.0000000E+00; -9.0235993E-03;  6.0111584E+02;
  5.2095109E-01;  9.9999998E-03;  9.9992165E-03;5649; -5.8122509E-04;  0.0000000E+00; -5.1420095E-05;  1.0009545E+03;  1.0001042E-01;  7.9079242E+02;3;  3.5039151E+00;  0.0000000E+00;  1.1179430E-02;0;  2.0688396E-02;  4.0071055E+04;  0.0000000E+00; -2.7803790E-03;  4.0000000E+04;  0.0000000E+00;  3.9995629E+04;  2.9701291E-02;  0.0000000E+00; -9.0128956E-03;  6.0312140E+02;
  5.2094990E-01;  9.9999998E-03;  1.9998163E-02;5650; -5.3016155E-04;  0.0000000E+00; -1.0253916E-04;  1.0009471E+03;  1.0001042E-01;  7.8466913E+02;3;  3.5234654E+00;  0.0000000E+00;  2.3097539E-02;0;  2.1010354E-02;  4.0070562E+04;  0.0000000E+00; -1.0986509E-02;  4.0000000E+04;  0.0000000E+00;  3.9995738E+04;  2.9991297E-02;  0.0000000E+00; -8.9809429E-03;  6.1003595E+02;
  5.2094817E-01;  9.9999998E-03;  2.9996859E-02;5651; -4.4824937E-04;  0.0000000E+00; -1.5391309E-04;  1.0009340E+03;  1.0001040E-01;  7.7380524E+02;3;  3.5510807E+00;  0.0000000E+00;  3.3664439E-02;0;  2.1537907E-02;  4.0069715E+04;  0.0000000E+00; -2.4193222E-02;  4.0000000E+04;  0.0000000E+00;  3.9995676E+04;  3.0466000E-02;  0.0000000E+00; -8.9280913E-03;  6.2370337E+02;
  5.2094597E-01;  9.9999998E-03;  3.9995380E-02;5652; -3.4125012E-04;  0.0000000E+00; -2.0595304E-04;  1.0009244E+03;  1.0001045E-01;  7.6580542E+02;3;  3.5792310E+00;  0.0000000E+00;  4.5101952E-02;0;  2.2258662E-02;  4.0068859E+04;  0.0000000E+00; -4.1633271E-02;  4.0000000E+04;  0.0000000E+00;  3.9995434E+04;  3.1113440E-02;  0.0000000E+00; -8.8547785E-03;  6.4677148E+02;
  5.2094370E-01;  9.9999998E-03;  4.9993671E-02;5653; -2.1636806E-04;  0.0000000E+00; -2.5976062E-04;  1.0009134E+03;  1.0001035E-01;  7.5671930E+02;3;  3.5997910E+00;  0.0000000E+00;  6.0141880E-02;0;  2.3156885E-02;  4.0068195E+04;  0.0000000E+00; -6.2140606E-02;  4.0000000E+04;  0.0000000E+00;  3.9995262E+04;  3.1918313E-02;  0.0000000E+00; -8.7614292E-03;  6.8194751E+02;
  5.2094078E-01;  9.9999998E-03;  5.9991892E-02;5654; -8.3089450E-05;  0.0000000E+00; -3.1821936E-04;  1.0009000E+03;  1.0001051E-01;  7.4565784E+02;3;  3.6055872E+00;  0.0000000E+00;  6.5121248E-02;0;  2.4214892E-02;  4.0067734E+04;  0.0000000E+00; -8.4129110E-02;  4.0000000E+04;  0.0000000E+00;  3.9994793E+04;  3.2863230E-02;  0.0000000E+00; -8.6483378E-03;  7.3139227E+02;
  5.3087634E-01;  9.9999998E-03; -9.9991851E-02;5699;  1.1781806E-03;  0.0000000E+00;  6.7045941E-04;  1.0007456E+03;  1.0001730E-01;  6.1776025E+02;3;  4.0010738E+00;  0.0000000E+00; -1.5717866E-01;0;  2.9233664E-02;  4.0052035E+04;  0.0000000E+00; -1.3843176E-01;  4.0000000E+04;  0.0000000E+00;  3.9992066E+04;  3.7839714E-02;  0.0000000E+00; -8.6060502E-03;  1.0507198E+03;
  5.3087550E-01;  9.9999998E-03; -8.9993566E-02;5700;  9.9855172E-04;  0.0000000E+00;  5.9144764E-04;  1.0007300E+03;  1.0001747E-01;  6.0482233E+02;3;  4.0365586E+00;  0.0000000E+00; -1.5934710E-01;0;  2.7756371E-02;  4.0050086E+04;  0.0000000E+00; -1.3504452E-01;  4.0000000E+04;  0.0000000E+00;  3.9992820E+04;  3.6604509E-02;  0.0000000E+00; -8.8481391E-03;  9.6036786E+02;
  5.3087437E-01;  9.9999998E-03; -7.9995230E-02;5701;  8.0939435E-04;  0.0000000E+00;  5.1826023E-04;  1.0007184E+03;  1.0001741E-01;  5.9514362E+02;3;  4.0476565E+00;  0.0000000E+00; -1.5589006E-01;0;  2.6399899E-02;  4.0048648E+04;  0.0000000E+00; -1.2415426E-01;  4.0000000E+04;  0.0000000E+00;  3.9993527E+04;  3.5473153E-02;  0.0000000E+00; -9.0732528E-03;  8.7767651E+02;
  5.3087300E-01;  9.9999998E-03; -6.9996692E-02;5702;  6.1903580E-04;  0.0000000E+00;  4.4861721E-04;  1.0007135E+03;  1.0001725E-01;  5.9109436E+02;3;  4.0403004E+00;  0.0000000E+00; -1.4454259E-01;0;  2.5167825E-02;  4.0047238E+04;  0.0000000E+00; -1.0747533E-01;  4.0000000E+04;  0.0000000E+00;  3.9994043E+04;  3.4446646E-02;  0.0000000E+00; -9.2788208E-03;  8.0910779E+02;
  5.3087163E-01;  9.9999998E-03; -5.9997909E-02;5703;  4.3474813E-04;  0.0000000E+00;  3.8163777E-04;  1.0007076E+03;  1.0001735E-01;  5.8625500E+02;3;  4.0203118E+00;  0.0000000E+00; -1.2857282E-01;0;  2.4067249E-02;  4.0046824E+04;  0.0000000E+00; -8.7119035E-02;  4.0000000E+04;  0.0000000E+00;  3.9994379E+04;  3.3529658E-02;  0.0000000E+00; -9.4624097E-03;  7.5805890E+02;
  5.3086984E-01;  9.9999998E-03; -4.9998961E-02;5704;  2.6337171E-04;  0.0000000E+00;  3.1675139E-04;  1.0007125E+03;  1.0001732E-01;  5.9030426E+02;3;  3.9938765E+00;  0.0000000E+00; -1.0797664E-01;0;  2.3107963E-02;  4.0046605E+04;  0.0000000E+00; -6.5354750E-02;  4.0000000E+04;  0.0000000E+00;  3.9994652E+04;  3.2729775E-02;  0.0000000E+00; -9.6218120E-03;  7.2487610E+02;
  5.3086782E-01;  9.9999998E-03; -3.9999753E-02;5705;  1.1185544E-04;  0.0000000E+00;  2.5328461E-04;  1.0007180E+03;  1.0001732E-01;  5.9484735E+02;3;  3.9623435E+00;  0.0000000E+00; -8.8991374E-02;0;  2.2301063E-02;  4.0046922E+04;  0.0000000E+00; -4.4363335E-02;  4.0000000E+04;  0.0000000E+00;  3.9994789E+04;  3.2056287E-02;  0.0000000E+00; -9.7552231E-03;  7.0719604E+02;
  5.3086656E-01;  9.9999998E-03; -3.0000158E-02;5706; -1.3528067E-05;  0.0000000E+00;  1.9039743E-04;  1.0007275E+03;  1.0001733E-01;  6.0274835E+02;3;  3.9316416E+00;  0.0000000E+00; -6.1136469E-02;0;  2.1658000E-02;  4.0047391E+04;  0.0000000E+00; -2.6051071E-02;  4.0000000E+04;  0.0000000E+00;  3.9994785E+04;  3.1519152E-02;  0.0000000E+00; -9.8611526E-03;  7.0099878E+02;
  5.3086549E-01;  9.9999998E-03; -2.0000394E-02;5707; -1.0667183E-04;  0.0000000E+00;  1.2727574E-04;  1.0007308E+03;  1.0001739E-01;  6.0551367E+02;3;  3.9114745E+00;  0.0000000E+00; -3.7540838E-02;0;  2.1189643E-02;  4.0047832E+04;  0.0000000E+00; -1.1921003E-02;  4.0000000E+04;  0.0000000E+00;  3.9994672E+04;  3.1127706E-02;  0.0000000E+00; -9.9380631E-03;  7.0139087E+02;
  5.3086501E-01;  9.9999998E-03; -1.0000333E-02;5708; -1.6382708E-04;  0.0000000E+00;  6.3916697E-05;  1.0007363E+03;  1.0001720E-01;  6.0995801E+02;3;  3.8985224E+00;  0.0000000E+00; -1.9428346E-02;0;  2.0904766E-02;  4.0048207E+04;  0.0000000E+00; -3.0308890E-03;  4.0000000E+04;  0.0000000E+00;  3.9994684E+04;  3.0889556E-02;  0.0000000E+00; -9.9847894E-03;  7.0386914E+02;
  5.3086495E-01;  9.9999998E-03;  3.3129981E-09;5709; -1.8320257E-04;  0.0000000E+00;  2.7000421E-08;  1.0007364E+03;  1.0001738E-01;  6.1005676E+02;3;  3.8913302E+00;  0.0000000E+00;  3.5070871E-06;0;  2.0809120E-02;  4.0048488E+04;  0.0000000E+00;  1.7821214E-12;  4.0000000E+04;  0.0000000E+00;  3.9994652E+04;  3.0809602E-02;  0.0000000E+00; -1.0000482E-02;  7.0512549E+02;
  5.3086501E-01;  9.9999998E-03;  1.0000340E-02;5710; -1.6383933E-04;  0.0000000E+00; -6.3862681E-05;  1.0007363E+03;  1.0001720E-01;  6.0995801E+02;3;  3.8985224E+00;  0.0000000E+00;  1.9437149E-02;0;  2.0904757E-02;  4.0048211E+04;  0.0000000E+00; -3.0311171E-03;  4.0000000E+04;  0.0000000E+00;  3.9994680E+04;  3.0889548E-02;  0.0000000E+00; -9.9847913E-03;  7.0387665E+02;
  5.3086549E-01;  9.9999998E-03;  2.0000402E-02;5711; -1.0668476E-04;  0.0000000E+00; -1.2722178E-04;  1.0007309E+03;  1.0001739E-01;  6.0551367E+02;3;  3.9114704E+00;  0.0000000E+00;  3.7546717E-02;0;  2.1189611E-02;  4.0047832E+04;  0.0000000E+00; -1.1921222E-02;  4.0000000E+04;  0.0000000E+00;  3.9994672E+04;  3.1127667E-02;  0.0000000E+00; -9.9380547E-03;  7.0140564E+02;
  5.3086656E-01;  9.9999998E-03;  3.0000165E-02;5712; -1.3540506E-05;  0.0000000E+00; -1.9034305E-04;  1.0007275E+03;  1.0001733E-01;  6.0274835E+02;3;  3.9316468E+00;  0.0000000E+00;  6.1149050E-02;0;  2.1657981E-02;  4.0047395E+04;  0.0000000E+00; -2.6051845E-02;  4.0000000E+04;  0.0000000E+00;  3.9994785E+04;  3.1519134E-02;  0.0000000E+00; -9.8611536E-03;  7.0101105E+02;
  5.3086782E-01;  9.9999998E-03;  3.9999761E-02;5713;  1.1184638E-04;  0.0000000E+00; -2.5323022E-04;  1.0007179E+03;  1.0001726E-01;  5.9474860E+02;3;  3.9623435E+00;  0.0000000E+00;  8.9008488E-02;0;  2.2300970E-02;  4.0046930E+04;  0.0000000E+00; -4.4363748E-02;  4.0000000E+04;  0.0000000E+00;  3.9994789E+04;  3.2056198E-02;  0.0000000E+00; -9.7552277E-03;  7.0717822E+02;
  5.3086984E-01;  9.9999998E-03;  4.9998969E-02;5714;  2.6333751E-04;  0.0000000E+00; -3.1669758E-04;  1.0007125E+03;  1.0001732E-01;  5.9030426E+02;3;  3.9938920E+00;  0.0000000E+00;  1.0799281E-01;0;  2.3107927E-02;  4.0046602E+04;  0.0000000E+00; -6.5355644E-02;  4.0000000E+04;  0.0000000E+00;  3.9994652E+04;  3.2729752E-02;  0.0000000E+00; -9.6218251E-03;  7.2486755E+02;
  5.3087163E-01;  9.9999998E-03;  5.9997916E-02;5715;  4.3472540E-04;  0.0000000E+00; -3.8158291E-04;  1.0007075E+03;  1.0001728E-01;  5.8615619E+02;3;  4.0203204E+00;  0.0000000E+00;  1.2858906E-01;0;  2.4067193E-02;  4.0046816E+04;  0.0000000E+00; -8.7120466E-02;  4.0000000E+04;  0.0000000E+00;  3.9994379E+04;  3.3529609E-02;  0.0000000E+00; -9.4624152E-03;  7.5805963E+02;
  5.4083556E-01;  9.9999998E-03; -1.0000420E-01;5760;  1.5506406E-03;  0.0000000E+00;  8.2896359E-04;  1.0005927E+03;  1.0002934E-01;  4.9104779E+02;3;  4.2256870E+00;  0.0000000E+00; -2.0378777E-01;0;  2.8187849E-02;  4.0029324E+04;  0.0000000E+00; -1.0831001E-01;  4.0000000E+04;  0.0000000E+00;  3.9992016E+04;  3.7479643E-02;  0.0000000E+00; -9.2917942E-03;  1.0367780E+03;
  5.4083282E-01;  9.9999998E-03; -9.0005130E-02;5761;  1.3313065E-03;  0.0000000E+00;  7.5097114E-04;  1.0005576E+03;  1.0002936E-01;  4.6201160E+02;3;  4.2186027E+00;  0.0000000E+00; -1.9312358E-01;0;  2.6889939E-02;  4.0025945E+04;  0.0000000E+00; -1.0968894E-01;  4.0000000E+04;  0.0000000E+00;  3.9992660E+04;  3.6490493E-02;  0.0000000E+00; -9.6005537E-03;  9.6036517E+02;
  5.4082936E-01;  9.9999998E-03; -8.0005981E-02;5762;  1.1165547E-03;  0.0000000E+00;  6.7104131E-04;  1.0005257E+03;  1.0002926E-01;  4.3554321E+02;3;  4.2056522E+00;  0.0000000E+00; -1.7909959E-01;0;  2.5729276E-02;  4.0022648E+04;  0.0000000E+00; -1.0406301E-01;  4.0000000E+04;  0.0000000E+00;  3.9993102E+04;  3.5620838E-02;  0.0000000E+00; -9.8915622E-03;  8.9199628E+02;
  5.4082525E-01;  9.9999998E-03; -7.0006549E-02;5763;  9.0851128E-04;  0.0000000E+00;  5.8981485E-04;  1.0004968E+03;  1.0002947E-01;  4.1164264E+02;3;  4.1852212E+00;  0.0000000E+00; -1.6117331E-01;0;  2.4698801E-02;  4.0020102E+04;  0.0000000E+00; -9.2545778E-02;  4.0000000E+04;  0.0000000E+00;  3.9993586E+04;  3.4859717E-02;  0.0000000E+00; -1.0160916E-02;  8.3870288E+02;
  5.4082018E-01;  9.9999998E-03; -6.0006823E-02;5764;  7.1131909E-04;  0.0000000E+00;  5.0808920E-04;  1.0004756E+03;  1.0002933E-01;  3.9406290E+02;3;  4.1593204E+00;  0.0000000E+00; -1.4207263E-01;0;  2.3795828E-02;  4.0017941E+04;  0.0000000E+00; -7.6773986E-02;  4.0000000E+04;  0.0000000E+00;  3.9993773E+04;  3.4200318E-02;  0.0000000E+00; -1.0404489E-02;  8.0414001E+02;
  5.4081416E-01;  9.9999998E-03; -5.0006784E-02;5765;  5.2972871E-04;  0.0000000E+00;  4.2557286E-04;  1.0004631E+03;  1.0002938E-01;  3.8369281E+02;3;  4.1311436E+00;  0.0000000E+00; -1.1923013E-01;0;  2.3020862E-02;  4.0016863E+04;  0.0000000E+00; -5.8733031E-02;  4.0000000E+04;  0.0000000E+00;  3.9993926E+04;  3.3639155E-02;  0.0000000E+00; -1.0618294E-02;  7.8830664E+02;
  5.4080844E-01;  9.9999998E-03; -4.0006321E-02;5766;  3.7062692E-04;  0.0000000E+00;  3.4237871E-04;  1.0004523E+03;  1.0002935E-01;  3.7470541E+02;3;  4.1031866E+00;  0.0000000E+00; -9.6214235E-02;0;  2.2376720E-02;  4.0016055E+04;  0.0000000E+00; -4.0518008E-02;  4.0000000E+04;  0.0000000E+00;  3.9993895E+04;  3.3175573E-02;  0.0000000E+00; -1.0798854E-02;  7.8806580E+02;
  5.4080361E-01;  9.9999998E-03; -3.0005356E-02;5767;  2.3976120E-04;  0.0000000E+00;  2.5839370E-04;  1.0004497E+03;  1.0002936E-01;  3.7253265E+02;3;  4.0784173E+00;  0.0000000E+00; -7.2036996E-02;0;  2.1867951E-02;  4.0015816E+04;  0.0000000E+00; -2.4096414E-02;  4.0000000E+04;  0.0000000E+00;  3.9993734E+04;  3.2811057E-02;  0.0000000E+00; -1.0943105E-02;  7.9785181E+02;
  5.4079992E-01;  9.9999998E-03; -2.0003960E-02;5768;  1.4303689E-04;  0.0000000E+00;  1.7335088E-04;  1.0004494E+03;  1.0002936E-01;  3.7233511E+02;3;  4.0586424E+00;  0.0000000E+00; -4.6970211E-02;0;  2.1499652E-02;  4.0015996E+04;  0.0000000E+00; -1.1127877E-02;  4.0000000E+04;  0.0000000E+00;  3.9993766E+04;  3.2547958E-02;  0.0000000E+00; -1.1048306E-02;  8.1129004E+02;
  5.4079777E-01;  9.9999998E-03; -1.0002177E-02;5769;  8.3839594E-05;  0.0000000E+00;  8.7245149E-05;  1.0004470E+03;  1.0002940E-01;  3.7035986E+02;3;  4.0415239E+00;  0.0000000E+00; -2.4241399E-02;0;  2.1276394E-02;  4.0015824E+04;  0.0000000E+00; -2.8449513E-03;  4.0000000E+04;  0.0000000E+00;  3.9993535E+04;  3.2388765E-02;  0.0000000E+00; -1.1112371E-02;  8.2230292E+02;
  5.4079717E-01;  9.9999998E-03;  3.3820220E-09;5770;  6.3850130E-05;  0.0000000E+00;  2.7780970E-08;  1.0004471E+03;  1.0002925E-01;  3.7045862E+02;3;  4.0335732E+00;  0.0000000E+00;  2.6166285E-06;0;  2.1201685E-02;  4.0015922E+04;  0.0000000E+00;  3.2690452E-12;  4.0000000E+04;  0.0000000E+00;  3.9993570E+04;  3.2335591E-02;  0.0000000E+00; -1.1133906E-02;  8.2654694E+02;
  5.4079777E-01;  9.9999998E-03;  1.0002184E-02;5771;  8.3840016E-05;  0.0000000E+00; -8.7189546E-05;  1.0004470E+03;  1.0002940E-01;  3.7035986E+02;3;  4.0415354E+00;  0.0000000E+00;  2.4246166E-02;0;  2.1276467E-02;  4.0015820E+04;  0.0000000E+00; -2.8452727E-03;  4.0000000E+04;  0.0000000E+00;  3.9993535E+04;  3.2388844E-02;  0.0000000E+00; -1.1112377E-02;  8.2229938E+02;
  5.4079992E-01;  9.9999998E-03;  2.0003967E-02;5772;  1.4302785E-04;  0.0000000E+00; -1.7329527E-04;  1.0004494E+03;  1.0002936E-01;  3.7233511E+02;3;  4.0586352E+00;  0.0000000E+00;  4.6978153E-02;0;  2.1499682E-02;  4.0016000E+04;  0.0000000E+00; -1.1128347E-02;  4.0000000E+04;  0.0000000E+00;  3.9993766E+04;  3.2547988E-02;  0.0000000E+00; -1.1048307E-02;  8.1128235E+02;
  5.4080361E-01;  9.9999998E-03;  3.0005364E-02;5773;  2.3974890E-04;  0.0000000E+00; -2.5833747E-04;  1.0004497E+03;  1.0002931E-01;  3.7253265E+02;3;  4.0784073E+00;  0.0000000E+00;  7.2047815E-02;0;  2.1867948E-02;  4.0015820E+04;  0.0000000E+00; -2.4097016E-02;  4.0000000E+04;  0.0000000E+00;  3.9993734E+04;  3.2811057E-02;  0.0000000E+00; -1.0943109E-02;  7.9784790E+02;
  5.4080844E-01;  9.9999998E-03;  4.0006328E-02;5774;  3.7060506E-04;  0.0000000E+00; -3.4232272E-04;  1.0004524E+03;  1.0002930E-01;  3.7480420E+02;3;  4.1032004E+00;  0.0000000E+00;  9.6223138E-02;0;  2.2376750E-02;  4.0016051E+04;  0.0000000E+00; -4.0518448E-02;  4.0000000E+04;  0.0000000E+00;  3.9993887E+04;  3.3175606E-02;  0.0000000E+00; -1.0798857E-02;  7.8806012E+02;
  5.4081416E-01;  9.9999998E-03;  5.0006792E-02;5775;  5.2970863E-04;  0.0000000E+00; -4.2551637E-04;  1.0004631E+03;  1.0002938E-01;  3.8369281E+02;3;  4.1311393E+00;  0.0000000E+00;  1.1924373E-01;0;  2.3020821E-02;  4.0016863E+04;  0.0000000E+00; -5.8733862E-02;  4.0000000E+04;  0.0000000E+00;  3.9993926E+04;  3.3639118E-02;  0.0000000E+00; -1.0618297E-02;  7.8831116E+02;
  5.4082018E-01;  9.9999998E-03;  6.0006831E-02;5776;  7.1129226E-04;  0.0000000E+00; -5.0803274E-04;  1.0004756E+03;  1.0002933E-01;  3.9406290E+02;3;  4.1593194E+00;  0.0000000E+00;  1.4207993E-01;0;  2.3795769E-02;  4.0017941E+04;  0.0000000E+00; -7.6776609E-02;  4.0000000E+04;  0.0000000E+00;  3.9993773E+04;  3.4200266E-02;  0.0000000E+00; -1.0404496E-02;  8.0415552E+02;
  5.5081761E-01;  9.9999998E-03; -1.0001769E-01;5821;  1.7121646E-03;  0.0000000E+00;  1.0288015E-03;  1.0004514E+03;  1.0004845E-01;  3.7401410E+02;3;  4.2825556E+00;  0.0000000E+00; -2.0915720E-01;0;  2.7165085E-02;  4.0002156E+04;  0.0000000E+00; -5.5230815E-02;  4.0000000E+04;  0.0000000E+00;  3.9991863E+04;  3.7250221E-02;  0.0000000E+00; -1.0085135E-02;  1.0205220E+03;
  5.5081499E-01;  9.9999998E-03; -9.0017758E-02;5822;  1.4941074E-03;  0.0000000E+00;  9.4191707E-04;  1.0003923E+03;  1.0004840E-01;  3.2502783E+02;3;  4.2734127E+00;  0.0000000E+00; -1.9426358E-01;0;  2.6155066E-02;  3.9997000E+04;  0.0000000E+00; -6.1702028E-02;  4.0000000E+04;  0.0000000E+00;  3.9992266E+04;  3.6620717E-02;  0.0000000E+00; -1.0465653E-02;  9.6252985E+02;
  5.5081046E-01;  9.9999998E-03; -8.0017559E-02;5823;  1.2804462E-03;  0.0000000E+00;  8.4974407E-04;  1.0003365E+03;  1.0004842E-01;  2.7880692E+02;3;  4.2590499E+00;  0.0000000E+00; -1.7598134E-01;0;  2.5290899E-02;  3.9991973E+04;  0.0000000E+00; -6.3039176E-02;  4.0000000E+04;  0.0000000E+00;  3.9992660E+04;  3.6118113E-02;  0.0000000E+00; -1.0827213E-02;  9.1160266E+02;
  5.5080384E-01;  9.9999998E-03; -7.0016988E-02;5824;  1.0727842E-03;  0.0000000E+00;  7.5298944E-04;  1.0002845E+03;  1.0004834E-01;  2.3574640E+02;3;  4.2382145E+00;  0.0000000E+00; -1.5772536E-01;0;  2.4553791E-02;  3.9987762E+04;  0.0000000E+00; -5.9441011E-02;  4.0000000E+04;  0.0000000E+00;  3.9992895E+04;  3.5718437E-02;  0.0000000E+00; -1.1164647E-02;  8.7526794E+02;
  5.5079561E-01;  9.9999998E-03; -6.0016070E-02;5825;  8.7521487E-04;  0.0000000E+00;  6.5302511E-04;  1.0002430E+03;  1.0004846E-01;  2.0137700E+02;3;  4.2096782E+00;  0.0000000E+00; -1.3952753E-01;0;  2.3929622E-02;  3.9984340E+04;  0.0000000E+00; -5.1677216E-02;  4.0000000E+04;  0.0000000E+00;  3.9993137E+04;  3.5401959E-02;  0.0000000E+00; -1.1472336E-02;  8.5739130E+02;
  5.5078638E-01;  9.9999998E-03; -5.0014846E-02;5826;  6.9313432E-04;  0.0000000E+00;  5.5005192E-04;  1.0002076E+03;  1.0004857E-01;  1.7194574E+02;3;  4.1834631E+00;  0.0000000E+00; -1.1777040E-01;0;  2.3408767E-02;  3.9981574E+04;  0.0000000E+00; -4.1042581E-02;  4.0000000E+04;  0.0000000E+00;  3.9992820E+04;  3.5153173E-02;  0.0000000E+00; -1.1744405E-02;  8.5792004E+02;
  5.5077749E-01;  9.9999998E-03; -4.0013134E-02;5827;  5.3259387E-04;  0.0000000E+00;  4.4450231E-04;  1.0001824E+03;  1.0004835E-01;  1.5110683E+02;3;  4.1572962E+00;  0.0000000E+00; -9.3480870E-02;0;  2.2985321E-02;  3.9979457E+04;  0.0000000E+00; -2.9157475E-02;  4.0000000E+04;  0.0000000E+00;  3.9992703E+04;  3.4960829E-02;  0.0000000E+00; -1.1975507E-02;  8.7307904E+02;
  5.5076933E-01;  9.9999998E-03; -3.0010844E-02;5828;  3.9997068E-04;  0.0000000E+00;  3.3607028E-04;  1.0001692E+03;  1.0004839E-01;  1.4014418E+02;3;  4.1374469E+00;  0.0000000E+00; -7.1235545E-02;0;  2.2656187E-02;  3.9978473E+04;  0.0000000E+00; -1.7730437E-02;  4.0000000E+04;  0.0000000E+00;  3.9992453E+04;  3.4816999E-02;  0.0000000E+00; -1.2160811E-02;  8.9657916E+02;
  5.5076253E-01;  9.9999998E-03; -2.0007979E-02;5829;  3.0196100E-04;  0.0000000E+00;  2.2538220E-04;  1.0001572E+03;  1.0004836E-01;  1.3016914E+02;3;  4.1205931E+00;  0.0000000E+00; -4.7875427E-02;0;  2.2420416E-02;  3.9977555E+04;  0.0000000E+00; -8.3174920E-03;  4.0000000E+04;  0.0000000E+00;  3.9992375E+04;  3.4716707E-02;  0.0000000E+00; -1.2296291E-02;  9.2091705E+02;
  5.5075783E-01;  9.9999998E-03; -1.0004353E-02;5830;  2.4164775E-04;  0.0000000E+00;  1.1304420E-04;  1.0001469E+03;  1.0004847E-01;  1.2167556E+02;3;  4.1115599E+00;  0.0000000E+00; -2.3989327E-02;0;  2.2278372E-02;  3.9977004E+04;  0.0000000E+00; -2.1464508E-03;  4.0000000E+04;  0.0000000E+00;  3.9992410E+04;  3.4657221E-02;  0.0000000E+00; -1.2378848E-02;  9.3903046E+02;
  5.5075610E-01;  9.9999998E-03;  3.4139156E-09;5831;  2.2108642E-04;  0.0000000E+00;  2.8283816E-08;  1.0001473E+03;  1.0004861E-01;  1.2197185E+02;3;  4.1097374E+00;  0.0000000E+00;  1.3743239E-06;0;  2.2230875E-02;  3.9976906E+04;  0.0000000E+00;  3.6213881E-12;  4.0000000E+04;  0.0000000E+00;  3.9992215E+04;  3.4637455E-02;  0.0000000E+00; -1.2406580E-02;  9.4574951E+02;
  5.5075783E-01;  9.9999998E-03;  1.0004360E-02;5832;  2.4164194E-04;  0.0000000E+00; -1.1298742E-04;  1.0001469E+03;  1.0004843E-01;  1.2167556E+02;3;  4.1115513E+00;  0.0000000E+00;  2.3992864E-02;0;  2.2278279E-02;  3.9977000E+04;  0.0000000E+00; -2.1468555E-03;  4.0000000E+04;  0.0000000E+00;  3.9992410E+04;  3.4657143E-02;  0.0000000E+00; -1.2378865E-02;  9.3903870E+02;
  5.5076253E-01;  9.9999998E-03;  2.0007987E-02;5833;  3.0194971E-04;  0.0000000E+00; -2.2532465E-04;  1.0001572E+03;  1.0004843E-01;  1.3026791E+02;3;  4.1205883E+00;  0.0000000E+00;  4.7883186E-02;0;  2.2420384E-02;  3.9977559E+04;  0.0000000E+00; -8.3181402E-03;  4.0000000E+04;  0.0000000E+00;  3.9992375E+04;  3.4716684E-02;  0.0000000E+00; -1.2296300E-02;  9.2092651E+02;
  5.5076933E-01;  9.9999998E-03;  3.0010851E-02;5834;  3.9995962E-04;  0.0000000E+00; -3.3601225E-04;  1.0001692E+03;  1.0004839E-01;  1.4014418E+02;3;  4.1374559E+00;  0.0000000E+00;  7.1245797E-02;0;  2.2656225E-02;  3.9978477E+04;  0.0000000E+00; -1.7731309E-02;  4.0000000E+04;  0.0000000E+00;  3.9992453E+04;  3.4817044E-02;  0.0000000E+00; -1.2160820E-02;  8.9657361E+02;
  5.5077749E-01;  9.9999998E-03;  4.0013142E-02;5835;  5.3257367E-04;  0.0000000E+00; -4.4444398E-04;  1.0001824E+03;  1.0004835E-01;  1.5110683E+02;3;  4.1572723E+00;  0.0000000E+00;  9.3491383E-02;0;  2.2985296E-02;  3.9979457E+04;  0.0000000E+00; -2.9157873E-02;  4.0000000E+04;  0.0000000E+00;  3.9992703E+04;  3.4960799E-02;  0.0000000E+00; -1.1975503E-02;  8.7306549E+02;
  5.5078638E-01;  9.9999998E-03;  5.0014853E-02;5836;  6.9310755E-04;  0.0000000E+00; -5.4999336E-04;  1.0002077E+03;  1.0004857E-01;  1.7204451E+02;3;  4.1834559E+00;  0.0000000E+00;  1.1777871E-01;0;  2.3408748E-02;  3.9981574E+04;  0.0000000E+00; -4.1043341E-02;  4.0000000E+04;  0.0000000E+00;  3.9992820E+04;  3.5153143E-02;  0.0000000E+00; -1.1744394E-02;  8.5792798E+02;
  5.5079561E-01;  9.9999998E-03;  6.0016077E-02;5837;  8.7518519E-04;  0.0000000E+00; -6.5296638E-04;  1.0002431E+03;  1.0004842E-01;  2.0137700E+02;3;  4.2096634E+00;  0.0000000E+00;  1.3953365E-01;0;  2.3929585E-02;  3.9984336E+04;  0.0000000E+00; -5.1678456E-02;  4.0000000E+04;  0.0000000E+00;  3.9993137E+04;  3.5401929E-02;  0.0000000E+00; -1.1472345E-02;  8.5741064E+02;
  5.6083512E-01;  9.9999998E-03; -1.0002586E-01;5882;  1.7964814E-03;  0.0000000E+00;  1.2336458E-03;  1.0003553E+03;  1.0007958E-01;  2.9441141E+02;3;  4.3024411E+00;  0.0000000E+00; -2.1097234E-01;0;  2.6804954E-02;  3.9969383E+04;  0.0000000E+00;  1.6620317E-02;  4.0000000E+04;  0.0000000E+00;  3.9991691E+04;  3.7805319E-02;  0.0000000E+00; -1.1000366E-02;  1.0032951E+03;
  5.6083548E-01;  9.9999998E-03; -9.0025149E-02;5883;  1.5871845E-03;  0.0000000E+00;  1.1365657E-03;  1.0002779E+03;  1.0007951E-01;  2.3021570E+02;3;  4.2916880E+00;  0.0000000E+00; -1.9360374E-01;0;  2.6163228E-02;  3.9962703E+04;  0.0000000E+00;  5.5496725E-03;  4.0000000E+04;  0.0000000E+00;  3.9991891E+04;  3.7614968E-02;  0.0000000E+00; -1.1451740E-02;  9.6433868E+02;
  5.6083232E-01;  9.9999998E-03; -8.0024093E-02;5884;  1.3812075E-03;  0.0000000E+00;  1.0315720E-03;  1.0002010E+03;  1.0007960E-01;  1.6661256E+02;3;  4.2769127E+00;  0.0000000E+00; -1.7621711E-01;0;  2.5667837E-02;  3.9956312E+04;  0.0000000E+00; -3.5979580E-03;  4.0000000E+04;  0.0000000E+00;  3.9992148E+04;  3.7550267E-02;  0.0000000E+00; -1.1882430E-02;  9.3044080E+02;
  5.6082541E-01;  9.9999998E-03; -7.0022643E-02;5885;  1.1802376E-03;  0.0000000E+00;  9.1976795E-04;  1.0001280E+03;  1.0007960E-01;  1.0607107E+02;3;  4.2583575E+00;  0.0000000E+00; -1.5595669E-01;0;  2.5287714E-02;  3.9950352E+04;  0.0000000E+00; -9.8963706E-03;  4.0000000E+04;  0.0000000E+00;  3.9992281E+04;  3.7574112E-02;  0.0000000E+00; -1.2286399E-02;  9.0935748E+02;
  5.6081581E-01;  9.9999998E-03; -6.0020808E-02;5886;  9.8739413E-04;  0.0000000E+00;  8.0161932E-04;  1.0000667E+03;  1.0007947E-01;  5.5307076E+01;3;  4.2355456E+00;  0.0000000E+00; -1.3617712E-01;0;  2.4997538E-02;  3.9945355E+04;  0.0000000E+00; -1.2928027E-02;  4.0000000E+04;  0.0000000E+00;  3.9992273E+04;  3.7654184E-02;  0.0000000E+00; -1.2656646E-02;  9.0543799E+02;
  5.6080478E-01;  9.9999998E-03; -5.0018683E-02;5887;  8.0890418E-04;  0.0000000E+00;  6.7820062E-04;  1.0000142E+03;  1.0007939E-01;  1.1752753E+01;3;  4.2102995E+00;  0.0000000E+00; -1.1353973E-01;0;  2.4777202E-02;  3.9941270E+04;  0.0000000E+00; -1.2911122E-02;  4.0000000E+04;  0.0000000E+00;  3.9992250E+04;  3.7762880E-02;  0.0000000E+00; -1.2985678E-02;  9.1886188E+02;
  5.6079364E-01;  9.9999998E-03; -4.0016316E-02;5888;  6.5068045E-04;  0.0000000E+00;  5.4975785E-04;  9.9997229E+02;  1.0007937E-01; -2.2962313E+01;3;  4.1904426E+00;  0.0000000E+00; -9.3535736E-02;0;  2.4612192E-02;  3.9938125E+04;  0.0000000E+00; -1.0601298E-02;  4.0000000E+04;  0.0000000E+00;  3.9991863E+04;  3.7878431E-02;  0.0000000E+00; -1.3266240E-02;  9.4575385E+02;
  5.6078315E-01;  9.9999998E-03; -3.0013490E-02;5889;  5.2100251E-04;  0.0000000E+00;  4.1677043E-04;  9.9994012E+02;  1.0007945E-01; -4.9628223E+01;3;  4.1725159E+00;  0.0000000E+00; -7.1026996E-02;0;  2.4491685E-02;  3.9936039E+04;  0.0000000E+00; -7.0872167E-03;  4.0000000E+04;  0.0000000E+00;  3.9991520E+04;  3.7983552E-02;  0.0000000E+00; -1.3491867E-02;  9.7945831E+02;
  5.6077427E-01;  9.9999998E-03; -2.0010028E-02;5890;  4.2313797E-04;  0.0000000E+00;  2.8030993E-04;  9.9991962E+02;  1.0007954E-01; -6.6615395E+01;3;  4.1520987E+00;  0.0000000E+00; -4.6025842E-02;0;  2.4409110E-02;  3.9934473E+04;  0.0000000E+00; -3.5322446E-03;  4.0000000E+04;  0.0000000E+00;  3.9991188E+04;  3.8066216E-02;  0.0000000E+00; -1.3657106E-02;  1.0118611E+03;
  5.6076771E-01;  9.9999998E-03; -1.0005671E-02;5891;  3.6202918E-04;  0.0000000E+00;  1.4088563E-04;  9.9990985E+02;  1.0007961E-01; -7.4664551E+01;3;  4.1399579E+00;  0.0000000E+00; -2.3233363E-02;0;  2.4360657E-02;  3.9933430E+04;  0.0000000E+00; -9.4312121E-04;  4.0000000E+04;  0.0000000E+00;  3.9991039E+04;  3.8118526E-02;  0.0000000E+00; -1.3757869E-02;  1.0352441E+03;
  5.6076515E-01;  9.9999998E-03;  3.4589882E-09;5892;  3.4138651E-04;  0.0000000E+00;  2.9232110E-08;  9.9990369E+02;  1.0007939E-01; -7.9800209E+01;3;  4.1372132E+00;  0.0000000E+00;  1.1705821E-06;0;  2.4344590E-02;  3.9933230E+04;  0.0000000E+00;  3.6382165E-12;  4.0000000E+04;  0.0000000E+00;  3.9990965E+04;  3.8136289E-02;  0.0000000E+00; -1.3791699E-02;  1.0437625E+03;
  5.6076771E-01;  9.9999998E-03;  1.0005677E-02;5893;  3.6202240E-04;  0.0000000E+00; -1.4082692E-04;  9.9990985E+02;  1.0007961E-01; -7.4664551E+01;3;  4.1399431E+00;  0.0000000E+00;  2.3236262E-02;0;  2.4360597E-02;  3.9933426E+04;  0.0000000E+00; -9.4349438E-04;  4.0000000E+04;  0.0000000E+00;  3.9991039E+04;  3.8118478E-02;  0.0000000E+00; -1.3757882E-02;  1.0352493E+03;
  5.6077427E-01;  9.9999998E-03;  2.0010035E-02;5894;  4.2312703E-04;  0.0000000E+00; -2.8025094E-04;  9.9991962E+02;  1.0007954E-01; -6.6615395E+01;3;  4.1520858E+00;  0.0000000E+00;  4.6030488E-02;0;  2.4409126E-02;  3.9934465E+04;  0.0000000E+00; -3.5330774E-03;  4.0000000E+04;  0.0000000E+00;  3.9991191E+04;  3.8066234E-02;  0.0000000E+00; -1.3657107E-02;  1.0118636E+03;
  5.6078315E-01;  9.9999998E-03;  3.0013496E-02;5895;  5.2098610E-04;  0.0000000E+00; -4.1671074E-04;  9.9994012E+02;  1.0007945E-01; -4.9628223E+01;3;  4.1725016E+00;  0.0000000E+00;  7.1034245E-02;0;  2.4491614E-02;  3.9936039E+04;  0.0000000E+00; -7.0890323E-03;  4.0000000E+04;  0.0000000E+00;  3.9991520E+04;  3.7983477E-02;  0.0000000E+00; -1.3491863E-02;  9.7946844E+02;
  5.6079358E-01;  9.9999998E-03;  4.0016323E-02;5896;  6.5065944E-04;  0.0000000E+00; -5.4969761E-04;  9.9997229E+02;  1.0007937E-01; -2.2962313E+01;3;  4.1904273E+00;  0.0000000E+00;  9.3543880E-02;0;  2.4612233E-02;  3.9938121E+04;  0.0000000E+00; -1.0602869E-02;  4.0000000E+04;  0.0000000E+00;  3.9991863E+04;  3.7878487E-02;  0.0000000E+00; -1.3266254E-02;  9.4575610E+02;
  5.6080478E-01;  9.9999998E-03;  5.0018691E-02;5897;  8.0888229E-04;  0.0000000E+00; -6.7814009E-04;  1.0000142E+03;  1.0007939E-01;  1.1752753E+01;3;  4.2102857E+00;  0.0000000E+00;  1.1354691E-01;0;  2.4777239E-02;  3.9941273E+04;  0.0000000E+00; -1.2912224E-02;  4.0000000E+04;  0.0000000E+00;  3.9992250E+04;  3.7762918E-02;  0.0000000E+00; -1.2985678E-02;  9.1886768E+02;
  5.6081581E-01;  9.9999998E-03;  6.0020816E-02;5898;  9.8737061E-04;  0.0000000E+00; -8.0155872E-04;  1.0000667E+03;  1.0007951E-01;  5.5208309E+01;3;  4.2355142E+00;  0.0000000E+00;  1.3618064E-01;0;  2.4997462E-02;  3.9945352E+04;  0.0000000E+00; -1.2929091E-02;  4.0000000E+04;  0.0000000E+00;  3.9992273E+04;  3.7654120E-02;  0.0000000E+00; -1.2656658E-02;  9.0544086E+02;
  5.7090056E-01;  9.9999998E-03; -1.0002434E-01;5943;  1.8466526E-03;  0.0000000E+00;  1.4340444E-03;  1.0003196E+03;  1.0013086E-01;  2.6478262E+02;3;  4.3078127E+00;  0.0000000E+00; -2.1302263E-01;0;  2.7696718E-02;  3.9925488E+04;  0.0000000E+00;  9.7165830E-02;  4.0000000E+04;  0.0000000E+00;  3.9991520E+04;  3.9742284E-02;  0.0000000E+00; -1.2045565E-02;  9.8612335E+02;
  5.7090819E-01;  9.9999998E-03; -9.0022899E-02;5944;  1.6484878E-03;  0.0000000E+00;  1.3262356E-03;  1.0002315E+03;  1.0013097E-01;  1.9179703E+02;3;  4.3001165E+00;  0.0000000E+00; -1.9430768E-01;0;  2.7469071E-02;  3.9918055E+04;  0.0000000E+00;  8.3015531E-02;  4.0000000E+04;  0.0000000E+00;  3.9991520E+04;  4.0029883E-02;  0.0000000E+00; -1.2560813E-02;  9.6322644E+02;
  5.7091117E-01;  9.9999998E-03; -8.0021165E-02;5945;  1.4534156E-03;  0.0000000E+00;  1.2084385E-03;  1.0001429E+03;  1.0013099E-01;  1.1841640E+02;3;  4.2866960E+00;  0.0000000E+00; -1.7412111E-01;0;  2.7380228E-02;  3.9910875E+04;  0.0000000E+00;  6.6582076E-02;  4.0000000E+04;  0.0000000E+00;  3.9991812E+04;  4.0433433E-02;  0.0000000E+00; -1.3053205E-02;  9.4243286E+02;
  5.7090974E-01;  9.9999998E-03; -7.0019171E-02;5946;  1.2627797E-03;  0.0000000E+00;  1.0816118E-03;  1.0000564E+03;  1.0013084E-01;  4.6714725E+01;3;  4.2723174E+00;  0.0000000E+00; -1.5333639E-01;0;  2.7387828E-02;  3.9904309E+04;  0.0000000E+00;  4.9941890E-02;  4.0000000E+04;  0.0000000E+00;  3.9991664E+04;  4.0904149E-02;  0.0000000E+00; -1.3516321E-02;  9.3210645E+02;
  5.7090402E-01;  9.9999998E-03; -6.0017034E-02;5947;  1.0793649E-03;  0.0000000E+00;  9.4656384E-04;  9.9998218E+02;  1.0013077E-01; -1.4765014E+01;3;  4.2514148E+00;  0.0000000E+00; -1.3211797E-01;0;  2.7456094E-02;  3.9898164E+04;  0.0000000E+00;  3.4844957E-02;  4.0000000E+04;  0.0000000E+00;  3.9991664E+04;  4.1398197E-02;  0.0000000E+00; -1.3942103E-02;  9.3726538E+02;
  5.7089525E-01;  9.9999998E-03; -5.0014827E-02;5948;  9.0797042E-04;  0.0000000E+00;  8.0341788E-04;  9.9991388E+02;  1.0013092E-01; -7.1356003E+01;3;  4.2367024E+00;  0.0000000E+00; -1.1098272E-01;0;  2.7555574E-02;  3.9893086E+04;  0.0000000E+00;  2.2410162E-02;  4.0000000E+04;  0.0000000E+00;  3.9991410E+04;  4.1877195E-02;  0.0000000E+00; -1.4321622E-02;  9.5870624E+02;
  5.7088464E-01;  9.9999998E-03; -4.0012717E-02;5949;  7.5755111E-04;  0.0000000E+00;  6.5262272E-04;  9.9986005E+02;  1.0013068E-01; -1.1594733E+02;3;  4.2163305E+00;  0.0000000E+00; -8.8444941E-02;0;  2.7662696E-02;  3.9889336E+04;  0.0000000E+00;  1.3064836E-02;  4.0000000E+04;  0.0000000E+00;  3.9991051E+04;  4.2308714E-02;  0.0000000E+00; -1.4646018E-02;  9.9282874E+02;
  5.7087386E-01;  9.9999998E-03; -3.0010581E-02;5950;  6.3173258E-04;  0.0000000E+00;  4.9611740E-04;  9.9981830E+02;  1.0013074E-01; -1.5051425E+02;3;  4.1921415E+00;  0.0000000E+00; -6.3892789E-02;0;  2.7760997E-02;  3.9886086E+04;  0.0000000E+00;  6.6616060E-03;  4.0000000E+04;  0.0000000E+00;  3.9990840E+04;  4.2668317E-02;  0.0000000E+00; -1.4907320E-02;  1.0327736E+03;
  5.7086450E-01;  9.9999998E-03; -2.0008193E-02;5951;  5.3745991E-04;  0.0000000E+00;  3.3418718E-04;  9.9978888E+02;  1.0013067E-01; -1.7490862E+02;3;  4.1754155E+00;  0.0000000E+00; -4.2499654E-02;0;  2.7838413E-02;  3.9884078E+04;  0.0000000E+00;  2.7097331E-03;  4.0000000E+04;  0.0000000E+00;  3.9990324E+04;  4.2937398E-02;  0.0000000E+00; -1.5098985E-02;  1.0701132E+03;
  5.7085741E-01;  9.9999998E-03; -1.0005006E-02;5952;  4.7899014E-04;  0.0000000E+00;  1.6816934E-04;  9.9977350E+02;  1.0013087E-01; -1.8764900E+02;3;  4.1659021E+00;  0.0000000E+00; -2.1095017E-02;0;  2.7887151E-02;  3.9882711E+04;  0.0000000E+00;  6.3644547E-04;  4.0000000E+04;  0.0000000E+00;  3.9990242E+04;  4.3103077E-02;  0.0000000E+00; -1.5215925E-02;  1.0967524E+03;
  5.7085460E-01;  9.9999998E-03;  3.4718619E-09;5953;  4.5934619E-04;  0.0000000E+00;  3.0146598E-08;  9.9976495E+02;  1.0013071E-01; -1.9471053E+02;3;  4.1637292E+00;  0.0000000E+00;  1.6361473E-06;0;  2.7903639E-02;  3.9882371E+04;  0.0000000E+00;  2.4421691E-12;  4.0000000E+04;  0.0000000E+00;  3.9990102E+04;  4.3158855E-02;  0.0000000E+00; -1.5255217E-02;  1.1064086E+03;
  5.7085741E-01;  9.9999998E-03;  1.0005012E-02;5954;  4.7898872E-04;  0.0000000E+00; -1.6810896E-04;  9.9977338E+02;  1.0013088E-01; -1.8774776E+02;3;  4.1658998E+00;  0.0000000E+00;  2.1098873E-02;0;  2.7887100E-02;  3.9882711E+04;  0.0000000E+00;  6.3596189E-04;  4.0000000E+04;  0.0000000E+00;  3.9990242E+04;  4.3103032E-02;  0.0000000E+00; -1.5215931E-02;  1.0967512E+03;
  5.7086450E-01;  9.9999998E-03;  2.0008201E-02;5955;  5.3744763E-04;  0.0000000E+00; -3.3412644E-04;  9.9978888E+02;  1.0013067E-01; -1.7490862E+02;3;  4.1754036E+00;  0.0000000E+00;  4.2504191E-02;0;  2.7838424E-02;  3.9884078E+04;  0.0000000E+00;  2.7089594E-03;  4.0000000E+04;  0.0000000E+00;  3.9990324E+04;  4.2937405E-02;  0.0000000E+00; -1.5098981E-02;  1.0701049E+03;
  5.7087386E-01;  9.9999998E-03;  3.0010588E-02;5956;  6.3171639E-04;  0.0000000E+00; -4.9605593E-04;  9.9981830E+02;  1.0013074E-01; -1.5051425E+02;3;  4.1921363E+00;  0.0000000E+00;  6.3899972E-02;0;  2.7761027E-02;  3.9886074E+04;  0.0000000E+00;  6.6602533E-03;  4.0000000E+04;  0.0000000E+00;  3.9990840E+04;  4.2668346E-02;  0.0000000E+00; -1.4907320E-02;  1.0327623E+03;
  5.7088464E-01;  9.9999998E-03;  4.0012725E-02;5957;  7.5753022E-04;  0.0000000E+00; -6.5256091E-04;  9.9985999E+02;  1.0013068E-01; -1.1599671E+02;3;  4.2163153E+00;  0.0000000E+00;  8.8449180E-02;0;  2.7662700E-02;  3.9889355E+04;  0.0000000E+00;  1.3063026E-02;  4.0000000E+04;  0.0000000E+00;  3.9991051E+04;  4.2308714E-02;  0.0000000E+00; -1.4646014E-02;  9.9283124E+02;
  5.7089525E-01;  9.9999998E-03;  5.0014835E-02;5958;  9.0794917E-04;  0.0000000E+00; -8.0335559E-04;  9.9991370E+02;  1.0013079E-01; -7.1504143E+01;3;  4.2366867E+00;  0.0000000E+00;  1.1098583E-01;0;  2.7555548E-02;  3.9893090E+04;  0.0000000E+00;  2.2407150E-02;  4.0000000E+04;  0.0000000E+00;  3.9991410E+04;  4.1877165E-02;  0.0000000E+00; -1.4321618E-02;  9.5870312E+02;
  5.7090402E-01;  9.9999998E-03;  6.0017042E-02;5959;  1.0793395E-03;  0.0000000E+00; -9.4650150E-04;  9.9998212E+02;  1.0013077E-01; -1.4814395E+01;3;  4.2513871E+00;  0.0000000E+00;  1.3211633E-01;0;  2.7456084E-02;  3.9898164E+04;  0.0000000E+00;  3.4840204E-02;  4.0000000E+04;  0.0000000E+00;  3.9991660E+04;  4.1398160E-02;  0.0000000E+00; -1.3942076E-02;  9.3726648E+02;
  5.8098739E-01;  9.9999998E-03; -1.0001854E-01;6004;  1.8808596E-03;  0.0000000E+00;  1.6259800E-03;  1.0003070E+03;  1.0021400E-01;  2.5431378E+02;3;  4.3123965E+00;  0.0000000E+00; -2.1618076E-01;0;  3.0296508E-02;  3.9859078E+04;  0.0000000E+00;  1.7058964E-01;  4.0000000E+04;  0.0000000E+00;  3.9991316E+04;  4.3512873E-02;  0.0000000E+00; -1.3216365E-02;  9.6523981E+02;
  5.8101052E-01;  9.9999998E-03; -9.0015702E-02;6005;  1.6979357E-03;  0.0000000E+00;  1.5072057E-03;  1.0002178E+03;  1.0021414E-01;  1.8043933E+02;3;  4.3074412E+00;  0.0000000E+00; -1.9352502E-01;0;  3.0489659E-02;  3.9852027E+04;  0.0000000E+00;  1.5593408E-01;  4.0000000E+04;  0.0000000E+00;  3.9991312E+04;  4.4272933E-02;  0.0000000E+00; -1.3783274E-02;  9.5280133E+02;
  5.8102757E-01;  9.9999998E-03; -8.0012776E-02;6006;  1.5191253E-03;  0.0000000E+00;  1.3760320E-03;  1.0001270E+03;  1.0021397E-01;  1.0518221E+02;3;  4.2999277E+00;  0.0000000E+00; -1.7214246E-01;0;  3.0806048E-02;  3.9844875E+04;  0.0000000E+00;  1.3449435E-01;  4.0000000E+04;  0.0000000E+00;  3.9991410E+04;  4.5130644E-02;  0.0000000E+00; -1.4324596E-02;  9.3963531E+02;
  5.8103698E-01;  9.9999998E-03; -7.0010133E-02;6007;  1.3417359E-03;  0.0000000E+00;  1.2344585E-03;  1.0000443E+03;  1.0021388E-01;  3.6640938E+01;3;  4.2826061E+00;  0.0000000E+00; -1.5091826E-01;0;  3.1194674E-02;  3.9838496E+04;  0.0000000E+00;  1.0925017E-01;  4.0000000E+04;  0.0000000E+00;  3.9991102E+04;  4.6028368E-02;  0.0000000E+00; -1.4833694E-02;  9.3457526E+02;
  5.8103913E-01;  9.9999998E-03; -6.0007937E-02;6008;  1.1717692E-03;  0.0000000E+00;  1.0822660E-03;  9.9996387E+02;  1.0021403E-01; -2.9925077E+01;3;  4.2711453E+00;  0.0000000E+00; -1.3031083E-01;0;  3.1610034E-02;  3.9832285E+04;  0.0000000E+00;  8.3172329E-02;  4.0000000E+04;  0.0000000E+00;  3.9991164E+04;  4.6912197E-02;  0.0000000E+00; -1.5302164E-02;  9.4355145E+02;
  5.8103544E-01;  9.9999998E-03; -5.0006267E-02;6009;  1.0150829E-03;  0.0000000E+00;  9.1993902E-04;  9.9989539E+02;  1.0021371E-01; -8.6664207E+01;3;  4.2555966E+00;  0.0000000E+00; -1.0578127E-01;0;  3.2014877E-02;  3.9827039E+04;  0.0000000E+00;  5.8762211E-02;  4.0000000E+04;  0.0000000E+00;  3.9990781E+04;  4.7735076E-02;  0.0000000E+00; -1.5720200E-02;  9.6828687E+02;
  5.8102727E-01;  9.9999998E-03; -4.0005196E-02;6010;  8.7236159E-04;  0.0000000E+00;  7.4919173E-04;  9.9983563E+02;  1.0021380E-01; -1.3619366E+02;3;  4.2321272E+00;  0.0000000E+00; -8.1063494E-02;0;  3.2380804E-02;  3.9822711E+04;  0.0000000E+00;  3.7765853E-02;  4.0000000E+04;  0.0000000E+00;  3.9990367E+04;  4.8458677E-02;  0.0000000E+00; -1.6077871E-02;  1.0055219E+03;
  5.8101732E-01;  9.9999998E-03; -3.0004524E-02;6011;  7.5356697E-04;  0.0000000E+00;  5.7011965E-04;  9.9978796E+02;  1.0021389E-01; -1.7564934E+02;3;  4.2145166E+00;  0.0000000E+00; -6.0378090E-02;0;  3.2685157E-02;  3.9819375E+04;  0.0000000E+00;  2.1168133E-02;  4.0000000E+04;  0.0000000E+00;  3.9990070E+04;  4.9051333E-02;  0.0000000E+00; -1.6366176E-02;  1.0483583E+03;
  5.8100837E-01;  9.9999998E-03; -2.0003978E-02;6012;  6.6446915E-04;  0.0000000E+00;  3.8417819E-04;  9.9975568E+02;  1.0021383E-01; -2.0241402E+02;3;  4.2008214E+00;  0.0000000E+00; -3.9999943E-02;0;  3.2912374E-02;  3.9817062E+04;  0.0000000E+00;  9.3478626E-03;  4.0000000E+04;  0.0000000E+00;  3.9989820E+04;  4.9490210E-02;  0.0000000E+00; -1.6577838E-02;  1.0881486E+03;
  5.8100182E-01;  9.9999998E-03; -1.0002881E-02;6013;  6.0957490E-04;  0.0000000E+00;  1.9328872E-04;  9.9973138E+02;  1.0021370E-01; -2.2256158E+02;3;  4.1944976E+00;  0.0000000E+00; -2.0015787E-02;0;  3.3052143E-02;  3.9815504E+04;  0.0000000E+00;  2.3244706E-03;  4.0000000E+04;  0.0000000E+00;  3.9989484E+04;  4.9759272E-02;  0.0000000E+00; -1.6707130E-02;  1.1163300E+03;
  5.8099914E-01;  9.9999998E-03;  3.4485848E-09;6014;  5.9083337E-04;  0.0000000E+00;  3.0734082E-08;  9.9972485E+02;  1.0021380E-01; -2.2794415E+02;3;  4.1911216E+00;  0.0000000E+00;  8.4555631E-07;0;  3.3099215E-02;  3.9815098E+04;  0.0000000E+00;  2.2346274E-12;  4.0000000E+04;  0.0000000E+00;  3.9989551E+04;  4.9849804E-02;  0.0000000E+00; -1.6750589E-02;  1.1265452E+03;
  5.8100182E-01;  9.9999998E-03;  1.0002889E-02;6015;  6.0957094E-04;  0.0000000E+00; -1.9322682E-04;  9.9973138E+02;  1.0021370E-01; -2.2256158E+02;3;  4.1945004E+00;  0.0000000E+00;  2.0020818E-02;0;  3.3052184E-02;  3.9815500E+04;  0.0000000E+00;  2.3239297E-03;  4.0000000E+04;  0.0000000E+00;  3.9989488E+04;  4.9759295E-02;  0.0000000E+00; -1.6707113E-02;  1.1163245E+03;
  5.8100837E-01;  9.9999998E-03;  2.0003986E-02;6016;  6.6445820E-04;  0.0000000E+00; -3.8411570E-04;  9.9975568E+02;  1.0021383E-01; -2.0241402E+02;3;  4.2008162E+00;  0.0000000E+00;  4.0006313E-02;0;  3.2912493E-02;  3.9817062E+04;  0.0000000E+00;  9.3472470E-03;  4.0000000E+04;  0.0000000E+00;  3.9989820E+04;  4.9490333E-02;  0.0000000E+00; -1.6577838E-02;  1.0881378E+03;
  5.8101732E-01;  9.9999998E-03;  3.0004531E-02;6017;  7.5354939E-04;  0.0000000E+00; -5.7005644E-04;  9.9978796E+02;  1.0021389E-01; -1.7564934E+02;3;  4.2145128E+00;  0.0000000E+00;  6.0384944E-02;0;  3.2685101E-02;  3.9819375E+04;  0.0000000E+00;  2.1166585E-02;  4.0000000E+04;  0.0000000E+00;  3.9990070E+04;  4.9051289E-02;  0.0000000E+00; -1.6366186E-02;  1.0483594E+03;
  5.8102727E-01;  9.9999998E-03;  4.0005203E-02;6018;  8.7233749E-04;  0.0000000E+00; -7.4912835E-04;  9.9983563E+02;  1.0021380E-01; -1.3619366E+02;3;  4.2320995E+00;  0.0000000E+00;  8.1069663E-02;0;  3.2380864E-02;  3.9822711E+04;  0.0000000E+00;  3.7763253E-02;  4.0000000E+04;  0.0000000E+00;  3.9990367E+04;  4.8458718E-02;  0.0000000E+00; -1.6077856E-02;  1.0055251E+03;
  5.8103544E-01;  9.9999998E-03;  5.0006274E-02;6019;  1.0150523E-03;  0.0000000E+00; -9.1987528E-04;  9.9989539E+02;  1.0021371E-01; -8.6664207E+01;3;  4.2555695E+00;  0.0000000E+00;  1.0578187E-01;0;  3.2014899E-02;  3.9827039E+04;  0.0000000E+00;  5.8758549E-02;  4.0000000E+04;  0.0000000E+00;  3.9990781E+04;  4.7735099E-02;  0.0000000E+00; -1.5720202E-02;  9.6828198E+02;
  5.8103913E-01;  9.9999998E-03;  6.0007945E-02;6020;  1.1717316E-03;  0.0000000E+00; -1.0822017E-03;  9.9996387E+02;  1.0021403E-01; -2.9925077E+01;3;  4.2711010E+00;  0.0000000E+00;  1.3030663E-01;0;  3.1610083E-02;  3.9832289E+04;  0.0000000E+00;  8.3169751E-02;  4.0000000E+04;  0.0000000E+00;  3.9991164E+04;  4.6912227E-02;  0.0000000E+00; -1.5302145E-02;  9.4356134E+02;
  5.9106123E-01;  9.9999998E-03; -1.0001237E-01;6065;  1.9155579E-03;  0.0000000E+00;  1.8087410E-03;  1.0002559E+03;  1.0034835E-01;  2.1194461E+02;3;  4.3132029E+00;  0.0000000E+00; -2.1928836E-01;0;  3.4845877E-02;  3.9750672E+04;  0.0000000E+00;  2.1807286E-01;  4.0000000E+04;  0.0000000E+00;  3.9990848E+04;  4.9343955E-02;  0.0000000E+00; -1.4498078E-02;  9.2998895E+02;
  5.9109598E-01;  9.9999998E-03; -9.0009414E-02;6066;  1.7561642E-03;  0.0000000E+00;  1.6762936E-03;  1.0001837E+03;  1.0034798E-01;  1.5219322E+02;3;  4.3133259E+00;  0.0000000E+00; -1.9577149E-01;0;  3.5417214E-02;  3.9744812E+04;  0.0000000E+00;  2.0617539E-01;  4.0000000E+04;  0.0000000E+00;  3.9990699E+04;  5.0515957E-02;  0.0000000E+00; -1.5098743E-02;  9.2109717E+02;
  5.9112519E-01;  9.9999998E-03; -8.0006845E-02;6067;  1.5951941E-03;  0.0000000E+00;  1.5319578E-03;  1.0001069E+03;  1.0034810E-01;  8.8590080E+01;3;  4.3056931E+00;  0.0000000E+00; -1.7197923E-01;0;  3.6091395E-02;  3.9739055E+04;  0.0000000E+00;  1.8371961E-01;  4.0000000E+04;  0.0000000E+00;  3.9990828E+04;  5.1761996E-02;  0.0000000E+00; -1.5670603E-02;  9.1019415E+02;
  5.9114695E-01;  9.9999998E-03; -7.0004448E-02;6068;  1.4394135E-03;  0.0000000E+00;  1.3745320E-03;  1.0000319E+03;  1.0034806E-01;  2.6468386E+01;3;  4.3004270E+00;  0.0000000E+00; -1.5013476E-01;0;  3.6809187E-02;  3.9733484E+04;  0.0000000E+00;  1.5405600E-01;  4.0000000E+04;  0.0000000E+00;  3.9990621E+04;  5.3016871E-02;  0.0000000E+00; -1.6207684E-02;  9.0624738E+02;
  5.9115869E-01;  9.9999998E-03; -6.0002487E-02;6069;  1.2903992E-03;  0.0000000E+00;  1.2053874E-03;  9.9996411E+02;  1.0034783E-01; -2.9727552E+01;3;  4.2865119E+00;  0.0000000E+00; -1.2641832E-01;0;  3.7518851E-02;  3.9728227E+04;  0.0000000E+00;  1.2093949E-01;  4.0000000E+04;  0.0000000E+00;  3.9990516E+04;  5.4220222E-02;  0.0000000E+00; -1.6701372E-02;  9.1559113E+02;
  5.9116095E-01;  9.9999998E-03; -5.0001219E-02;6070;  1.1459122E-03;  0.0000000E+00;  1.0263206E-03;  9.9989709E+02;  1.0034808E-01; -8.5232147E+01;3;  4.2663665E+00;  0.0000000E+00; -1.0322550E-01;0;  3.8180284E-02;  3.9723492E+04;  0.0000000E+00;  8.7951988E-02;  4.0000000E+04;  0.0000000E+00;  3.9990219E+04;  5.5321902E-02;  0.0000000E+00; -1.7141616E-02;  9.4060510E+02;
  5.9115684E-01;  9.9999998E-03; -4.0000767E-02;6071;  1.0157848E-03;  0.0000000E+00;  8.3618378E-04;  9.9984570E+02;  1.0034766E-01; -1.2784823E+02;3;  4.2518415E+00;  0.0000000E+00; -8.1004076E-02;0;  3.8759913E-02;  3.9719719E+04;  0.0000000E+00;  5.8026336E-02;  4.0000000E+04;  0.0000000E+00;  3.9989648E+04;  5.6278199E-02;  0.0000000E+00; -1.7518286E-02;  9.7860956E+02;
  5.9114909E-01;  9.9999998E-03; -3.0000782E-02;6072;  9.0671307E-04;  0.0000000E+00;  6.3650525E-04;  9.9979840E+02;  1.0034752E-01; -1.6700761E+02;3;  4.2413607E+00;  0.0000000E+00; -5.9164807E-02;0;  3.9232910E-02;  3.9716523E+04;  0.0000000E+00;  3.3258580E-02;  4.0000000E+04;  0.0000000E+00;  3.9989477E+04;  5.7054814E-02;  0.0000000E+00; -1.7821902E-02;  1.0224672E+03;
  5.9114093E-01;  9.9999998E-03; -2.0001039E-02;6073;  8.2450401E-04;  0.0000000E+00;  4.2890053E-04;  9.9976263E+02;  1.0034764E-01; -1.9663640E+02;3;  4.2339001E+00;  0.0000000E+00; -3.9247621E-02;0;  3.9581686E-02;  3.9714477E+04;  0.0000000E+00;  1.4941197E-02;  4.0000000E+04;  0.0000000E+00;  3.9989043E+04;  5.7626426E-02;  0.0000000E+00; -1.8044740E-02;  1.0632393E+03;
  5.9113473E-01;  9.9999998E-03; -1.0001051E-02;6074;  7.7295891E-04;  0.0000000E+00;  2.1606623E-04;  9.9974573E+02;  1.0034753E-01; -2.1066069E+02;3;  4.2269411E+00;  0.0000000E+00; -1.7970849E-02;0;  3.9795015E-02;  3.9712918E+04;  0.0000000E+00;  3.7557757E-03;  4.0000000E+04;  0.0000000E+00;  3.9988730E+04;  5.7975866E-02;  0.0000000E+00; -1.8180851E-02;  1.0920503E+03;
  5.9113222E-01;  9.9999998E-03;  3.5352485E-09;6075;  7.5533782E-04;  0.0000000E+00;  3.1689446E-08;  9.9973956E+02;  1.0034761E-01; -2.1574696E+02;3;  4.2251811E+00;  0.0000000E+00;  3.0253505E-06;0;  3.9866634E-02;  3.9712430E+04;  0.0000000E+00;  2.0650528E-12;  4.0000000E+04;  0.0000000E+00;  3.9988613E+04;  5.8093261E-02;  0.0000000E+00; -1.8226629E-02;  1.1024598E+03;
  5.9113473E-01;  9.9999998E-03;  1.0001059E-02;6076;  7.7294256E-04;  0.0000000E+00; -2.1600274E-04;  9.9974585E+02;  1.0034746E-01; -2.1056194E+02;3;  4.2269249E+00;  0.0000000E+00;  1.7976785E-02;0;  3.9794996E-02;  3.9712918E+04;  0.0000000E+00;  3.7554677E-03;  4.0000000E+04;  0.0000000E+00;  3.9988734E+04;  5.7975851E-02;  0.0000000E+00; -1.8180853E-02;  1.0920588E+03;
  5.9114093E-01;  9.9999998E-03;  2.0001046E-02;6077;  8.2448270E-04;  0.0000000E+00; -4.2883650E-04;  9.9976276E+02;  1.0034756E-01; -1.9653764E+02;3;  4.2338886E+00;  0.0000000E+00;  3.9254379E-02;0;  3.9581724E-02;  3.9714477E+04;  0.0000000E+00;  1.4940500E-02;  4.0000000E+04;  0.0000000E+00;  3.9989043E+04;  5.7626449E-02;  0.0000000E+00; -1.8044727E-02;  1.0632382E+03;
  5.9114909E-01;  9.9999998E-03;  3.0000789E-02;6078;  9.0668816E-04;  0.0000000E+00; -6.3644076E-04;  9.9979846E+02;  1.0034752E-01; -1.6695822E+02;3;  4.2413483E+00;  0.0000000E+00;  5.9170872E-02;0;  3.9232865E-02;  3.9716527E+04;  0.0000000E+00;  3.3257104E-02;  4.0000000E+04;  0.0000000E+00;  3.9989477E+04;  5.7054784E-02;  0.0000000E+00; -1.7821919E-02;  1.0224817E+03;
  5.9115684E-01;  9.9999998E-03;  4.0000774E-02;6079;  1.0157615E-03;  0.0000000E+00; -8.3611894E-04;  9.9984570E+02;  1.0034766E-01; -1.2784823E+02;3;  4.2518177E+00;  0.0000000E+00;  8.1007585E-02;0;  3.8759913E-02;  3.9719719E+04;  0.0000000E+00;  5.8024187E-02;  4.0000000E+04;  0.0000000E+00;  3.9989648E+04;  5.6278199E-02;  0.0000000E+00; -1.7518286E-02;  9.7861200E+02;
  5.9116095E-01;  9.9999998E-03;  5.0001226E-02;6080;  1.1458817E-03;  0.0000000E+00; -1.0262552E-03;  9.9989709E+02;  1.0034808E-01; -8.5232147E+01;3;  4.2663331E+00;  0.0000000E+00;  1.0322600E-01;0;  3.8180292E-02;  3.9723488E+04;  0.0000000E+00;  8.7948754E-02;  4.0000000E+04;  0.0000000E+00;  3.9990215E+04;  5.5321895E-02;  0.0000000E+00; -1.7141601E-02;  9.4061584E+02;
  5.9115869E-01;  9.9999998E-03;  6.0002495E-02;6081;  1.2903707E-03;  0.0000000E+00; -1.2053218E-03;  9.9996405E+02;  1.0034789E-01; -2.9776934E+01;3;  4.2864795E+00;  0.0000000E+00;  1.2641460E-01;0;  3.7518814E-02;  3.9728219E+04;  0.0000000E+00;  1.2093768E-01;  4.0000000E+04;  0.0000000E+00;  3.9990516E+04;  5.4220170E-02;  0.0000000E+00; -1.6701357E-02;  9.1559875E+02;
  6.0109293E-01;  9.9999998E-03; -1.0001003E-01;6126;  1.9712981E-03;  0.0000000E+00;  1.9804738E-03;  1.0001269E+03;  1.0056186E-01;  1.0508344E+02;3;  4.3108387E+00;  0.0000000E+00; -2.2187795E-01;0;  4.1324601E-02;  3.9574484E+04;  0.0000000E+00;  2.2272691E-01;  4.0000000E+04;  0.0000000E+00;  3.9989891E+04;  5.7193439E-02;  0.0000000E+00; -1.5868839E-02;  8.6876471E+02;
  6.0112786E-01;  9.9999998E-03; -9.0009496E-02;6127;  1.8361490E-03;  0.0000000E+00;  1.8332833E-03;  1.0000715E+03;  1.0056183E-01;  5.9257580E+01;3;  4.3153186E+00;  0.0000000E+00; -1.9903350E-01;0;  4.2179704E-02;  3.9570312E+04;  0.0000000E+00;  2.1738283E-01;  4.0000000E+04;  0.0000000E+00;  3.9989914E+04;  5.8662031E-02;  0.0000000E+00; -1.6482329E-02;  8.5684406E+02;
  6.0115731E-01;  9.9999998E-03; -8.0009304E-02;6128;  1.7079427E-03;  0.0000000E+00;  1.6725952E-03;  1.0000161E+03;  1.0056185E-01;  1.3332955E+01;3;  4.3181434E+00;  0.0000000E+00; -1.7503935E-01;0;  4.3106608E-02;  3.9566414E+04;  0.0000000E+00;  1.9928598E-01;  4.0000000E+04;  0.0000000E+00;  3.9989926E+04;  6.0169753E-02;  0.0000000E+00; -1.7063145E-02;  8.4386151E+02;
  6.0118037E-01;  9.9999998E-03; -7.0008740E-02;6129;  1.5810824E-03;  0.0000000E+00;  1.4997463E-03;  9.9996008E+02;  1.0056146E-01; -3.3085480E+01;3;  4.3103590E+00;  0.0000000E+00; -1.4993188E-01;0;  4.4049338E-02;  3.9562469E+04;  0.0000000E+00;  1.7144966E-01;  4.0000000E+04;  0.0000000E+00;  3.9989887E+04;  6.1655935E-02;  0.0000000E+00; -1.7606597E-02;  8.3822009E+02;
  6.0119671E-01;  9.9999998E-03; -6.0007501E-02;6130;  1.4512572E-03;  0.0000000E+00;  1.3154804E-03;  9.9990778E+02;  1.0056137E-01; -7.6392899E+01;3;  4.3030658E+00;  0.0000000E+00; -1.2844919E-01;0;  4.4958800E-02;  3.9558781E+04;  0.0000000E+00;  1.3775092E-01;  4.0000000E+04;  0.0000000E+00;  3.9989750E+04;  6.3064113E-02;  0.0000000E+00; -1.8105313E-02;  8.4644006E+02;
  6.0120648E-01;  9.9999998E-03; -5.0005551E-02;6131;  1.3289746E-03;  0.0000000E+00;  1.1188042E-03;  9.9986438E+02;  1.0056134E-01; -1.1234249E+02;3;  4.2965622E+00;  0.0000000E+00; -1.0564095E-01;0;  4.5790672E-02;  3.9555766E+04;  0.0000000E+00;  1.0225707E-01;  4.0000000E+04;  0.0000000E+00;  3.9989293E+04;  6.4340465E-02;  0.0000000E+00; -1.8549794E-02;  8.7116803E+02;
  6.0120928E-01;  9.9999998E-03; -4.0003404E-02;6132;  1.2170625E-03;  0.0000000E+00;  9.1107260E-04;  9.9981964E+02;  1.0056116E-01; -1.4942786E+02;3;  4.2876039E+00;  0.0000000E+00; -8.2773417E-02;0;  4.6510633E-02;  3.9552922E+04;  0.0000000E+00;  6.8660147E-02;  4.0000000E+04;  0.0000000E+00;  3.9988887E+04;  6.5440357E-02;  0.0000000E+00; -1.8929724E-02;  9.0952466E+02;
  6.0120636E-01;  9.9999998E-03; -3.0001741E-02;6133;  1.1212612E-03;  0.0000000E+00;  6.9321087E-04;  9.9978308E+02;  1.0056099E-01; -1.7969861E+02;3;  4.2787051E+00;  0.0000000E+00; -6.1605696E-02;0;  4.7092363E-02;  3.9550645E+04;  0.0000000E+00;  3.9914802E-02;  4.0000000E+04;  0.0000000E+00;  3.9988379E+04;  6.6327982E-02;  0.0000000E+00; -1.9235620E-02;  9.5413367E+02;
  6.0120136E-01;  9.9999998E-03; -2.0000776E-02;6134;  1.0474449E-03;  0.0000000E+00;  4.6723869E-04;  9.9975659E+02;  1.0056104E-01; -2.0167329E+02;3;  4.2689338E+00;  0.0000000E+00; -3.8057707E-02;0;  4.7518812E-02;  3.9548789E+04;  0.0000000E+00;  1.8118538E-02;  4.0000000E+04;  0.0000000E+00;  3.9988184E+04;  6.6978760E-02;  0.0000000E+00; -1.9459946E-02;  9.9564465E+02;
  6.0119736E-01;  9.9999998E-03; -1.0000292E-02;6135;  1.0004262E-03;  0.0000000E+00;  2.3536995E-04;  9.9973718E+02;  1.0056102E-01; -2.1772221E+02;3;  4.2653999E+00;  0.0000000E+00; -1.9684840E-02;0;  4.7779098E-02;  3.9548078E+04;  0.0000000E+00;  4.5828791E-03;  4.0000000E+04;  0.0000000E+00;  3.9988043E+04;  6.7376114E-02;  0.0000000E+00; -1.9597014E-02;  1.0250056E+03;
  6.0119593E-01;  9.9999998E-03;  3.7103205E-09;6136;  9.8419609E-04;  0.0000000E+00;  3.2538811E-08;  9.9973364E+02;  1.0056108E-01; -2.2068510E+02;3;  4.2647243E+00;  0.0000000E+00;  3.8874405E-06;0;  4.7866635E-02;  3.9547551E+04;  0.0000000E+00;  9.9699231E-13;  4.0000000E+04;  0.0000000E+00;  3.9987793E+04;  6.7509726E-02;  0.0000000E+00; -1.9643089E-02;  1.0355765E+03;
  6.0119736E-01;  9.9999998E-03;  1.0000300E-02;6137;  1.0004141E-03;  0.0000000E+00; -2.3530504E-04;  9.9973724E+02;  1.0056102E-01; -2.1767284E+02;3;  4.2653899E+00;  0.0000000E+00;  1.9691285E-02;0;  4.7779128E-02;  3.9548078E+04;  0.0000000E+00;  4.5828549E-03;  4.0000000E+04;  0.0000000E+00;  3.9988039E+04;  6.7376107E-02;  0.0000000E+00; -1.9596981E-02;  1.0250040E+03;
  6.0120136E-01;  9.9999998E-03;  2.0000784E-02;6138;  1.0474318E-03;  0.0000000E+00; -4.6717335E-04;  9.9975659E+02;  1.0056099E-01; -2.0167329E+02;3;  4.2689147E+00;  0.0000000E+00;  3.8064577E-02;0;  4.7518797E-02;  3.9548789E+04;  0.0000000E+00;  1.8118169E-02;  4.0000000E+04;  0.0000000E+00;  3.9988180E+04;  6.6978753E-02;  0.0000000E+00; -1.9459955E-02;  9.9564325E+02;
  6.0120636E-01;  9.9999998E-03;  3.0001748E-02;6139;  1.1212423E-03;  0.0000000E+00; -6.9314515E-04;  9.9978302E+02;  1.0056105E-01; -1.7974799E+02;3;  4.2786865E+00;  0.0000000E+00;  6.1610006E-02;0;  4.7092341E-02;  3.9550645E+04;  0.0000000E+00;  3.9913543E-02;  4.0000000E+04;  0.0000000E+00;  3.9988379E+04;  6.6327974E-02;  0.0000000E+00; -1.9235631E-02;  9.5414325E+02;
  6.0120928E-01;  9.9999998E-03;  4.0003411E-02;6140;  1.2170317E-03;  0.0000000E+00; -9.1100676E-04;  9.9981970E+02;  1.0056146E-01; -1.4937848E+02;3;  4.2875752E+00;  0.0000000E+00;  8.2775734E-02;0;  4.6510577E-02;  3.9552930E+04;  0.0000000E+00;  6.8657801E-02;  4.0000000E+04;  0.0000000E+00;  3.9988887E+04;  6.5440297E-02;  0.0000000E+00; -1.8929722E-02;  9.0953900E+02;
  6.0120648E-01;  9.9999998E-03;  5.0005559E-02;6141;  1.3289488E-03;  0.0000000E+00; -1.1187380E-03;  9.9986432E+02;  1.0056129E-01; -1.1239188E+02;3;  4.2965264E+00;  0.0000000E+00;  1.0563678E-01;0;  4.5790669E-02;  3.9555777E+04;  0.0000000E+00;  1.0225459E-01;  4.0000000E+04;  0.0000000E+00;  3.9989297E+04;  6.4340465E-02;  0.0000000E+00; -1.8549796E-02;  8.7116241E+02;
  6.0119671E-01;  9.9999998E-03;  6.0007509E-02;6142;  1.4512151E-03;  0.0000000E+00; -1.3154140E-03;  9.9990790E+02;  1.0056137E-01; -7.6294136E+01;3;  4.3030109E+00;  0.0000000E+00;  1.2844038E-01;0;  4.4958826E-02;  3.9558777E+04;  0.0000000E+00;  1.3774581E-01;  4.0000000E+04;  0.0000000E+00;  3.9989750E+04;  6.3064113E-02;  0.0000000E+00; -1.8105287E-02;  8.4644165E+02;
  6.1106098E-01;  9.9999998E-03; -1.0001791E-01;6187;  2.0677466E-03;  0.0000000E+00;  2.1405071E-03;  9.9990424E+02;  1.0089583E-01; -7.9355774E+01;3;  4.3188157E+00;  0.0000000E+00; -2.2659220E-01;0;  4.9437031E-02;  3.9300289E+04;  0.0000000E+00;  1.7447674E-01;  4.0000000E+04;  0.0000000E+00;  3.9987992E+04;  6.6739999E-02;  0.0000000E+00; -1.7302969E-02;  7.7928223E+02;
  6.1109155E-01;  9.9999998E-03; -9.0019137E-02;6188;  1.9737375E-03;  0.0000000E+00;  1.9751617E-03;  9.9987756E+02;  1.0089567E-01; -1.0142922E+02;3;  4.3277135E+00;  0.0000000E+00; -2.0162885E-01;0;  5.0436065E-02;  3.9298289E+04;  0.0000000E+00;  1.7953345E-01;  4.0000000E+04;  0.0000000E+00;  3.9988215E+04;  6.8346530E-02;  0.0000000E+00; -1.7910466E-02;  7.5742493E+02;
  6.1111629E-01;  9.9999998E-03; -8.0019861E-02;6189;  1.8825729E-03;  0.0000000E+00;  1.7986500E-03;  9.9984674E+02;  1.0089529E-01; -1.2695937E+02;3;  4.3279147E+00;  0.0000000E+00; -1.7585161E-01;0;  5.1475286E-02;  3.9296418E+04;  0.0000000E+00;  1.7181312E-01;  4.0000000E+04;  0.0000000E+00;  3.9988543E+04;  6.9956020E-02;  0.0000000E+00; -1.8480735E-02;  7.3897681E+02;
  6.1113471E-01;  9.9999998E-03; -7.0019610E-02;6190;  1.7900937E-03;  0.0000000E+00;  1.6096951E-03;  9.9981836E+02;  1.0089497E-01; -1.5046487E+02;3;  4.3425274E+00;  0.0000000E+00; -1.5725878E-01;0;  5.2503273E-02;  3.9294750E+04;  0.0000000E+00;  1.5321647E-01;  4.0000000E+04;  0.0000000E+00;  3.9988297E+04;  7.1514152E-02;  0.0000000E+00; -1.9010881E-02;  7.3069684E+02;
  6.1114746E-01;  9.9999998E-03; -6.0018167E-02;6191;  1.7010344E-03;  0.0000000E+00;  1.4078389E-03;  9.9979175E+02;  1.0089485E-01; -1.7253831E+02;3;  4.3509603E+00;  0.0000000E+00; -1.3278121E-01;0;  5.3473819E-02;  3.9293008E+04;  0.0000000E+00;  1.2687467E-01;  4.0000000E+04;  0.0000000E+00;  3.9988027E+04;  7.2968796E-02;  0.0000000E+00; -1.9494977E-02;  7.3765540E+02;
  6.1115551E-01;  9.9999998E-03; -5.0015774E-02;6192;  1.6102528E-03;  0.0000000E+00;  1.1954030E-03;  9.9976422E+02;  1.0089473E-01; -1.9535248E+02;3;  4.3464899E+00;  0.0000000E+00; -1.1014000E-01;0;  5.4351591E-02;  3.9291547E+04;  0.0000000E+00;  9.6585363E-02;  4.0000000E+04;  0.0000000E+00;  3.9987887E+04;  7.4276455E-02;  0.0000000E+00; -1.9924862E-02;  7.6189691E+02;
  6.1115998E-01;  9.9999998E-03; -4.0012620E-02;6193;  1.5230336E-03;  0.0000000E+00;  9.7168557E-04;  9.9973950E+02;  1.0089454E-01; -2.1579636E+02;3;  4.3441968E+00;  0.0000000E+00; -9.0688750E-02;0;  5.5106655E-02;  3.9290301E+04;  0.0000000E+00;  6.6197395E-02;  4.0000000E+04;  0.0000000E+00;  3.9987387E+04;  7.5398259E-02;  0.0000000E+00; -2.0291606E-02;  8.0060046E+02;
  6.1116213E-01;  9.9999998E-03; -3.0009065E-02;6194;  1.4464925E-03;  0.0000000E+00;  7.3824311E-04;  9.9971918E+02;  1.0089444E-01; -2.3263538E+02;3;  4.3366756E+00;  0.0000000E+00; -6.6143483E-02;0;  5.5715460E-02;  3.9289293E+04;  0.0000000E+00;  3.9102737E-02;  4.0000000E+04;  0.0000000E+00;  3.9986902E+04;  7.6302238E-02;  0.0000000E+00; -2.0586777E-02;  8.4632269E+02;
  6.1116278E-01;  9.9999998E-03; -2.0005595E-02;6195;  1.3847188E-03;  0.0000000E+00;  4.9767777E-04;  9.9970251E+02;  1.0089423E-01; -2.4646214E+02;3;  4.3247609E+00;  0.0000000E+00; -4.1465968E-02;0;  5.6161799E-02;  3.9288664E+04;  0.0000000E+00;  1.7953565E-02;  4.0000000E+04;  0.0000000E+00;  3.9986926E+04;  7.6964885E-02;  0.0000000E+00; -2.0803088E-02;  8.8910114E+02;
  6.1116260E-01;  9.9999998E-03; -1.0002591E-02;6196;  1.3442466E-03;  0.0000000E+00;  2.5055904E-04;  9.9969476E+02;  1.0089421E-01; -2.5288171E+02;3;  4.3208790E+00;  0.0000000E+00; -2.2068307E-02;0;  5.6433968E-02;  3.9288184E+04;  0.0000000E+00;  4.5723175E-03;  4.0000000E+04;  0.0000000E+00;  3.9986453E+04;  7.7369101E-02;  0.0000000E+00; -2.0935131E-02;  9.1932520E+02;
  6.1116266E-01;  9.9999998E-03;  3.9011177E-09;6197;  1.3305090E-03;  0.0000000E+00;  3.2838607E-08;  9.9968896E+02;  1.0089427E-01; -2.5767169E+02;3;  4.3192854E+00;  0.0000000E+00;  3.5000812E-06;0;  5.6525432E-02;  3.9288012E+04;  0.0000000E+00; -2.9634647E-13;  4.0000000E+04;  0.0000000E+00;  3.9986441E+04;  7.7505007E-02;  0.0000000E+00; -2.0979574E-02;  9.3019659E+02;
  6.1116260E-01;  9.9999998E-03;  1.0002598E-02;6198;  1.3442410E-03;  0.0000000E+00; -2.5049283E-04;  9.9969476E+02;  1.0089421E-01; -2.5288171E+02;3;  4.3208733E+00;  0.0000000E+00;  2.2079626E-02;0;  5.6434017E-02;  3.9288188E+04;  0.0000000E+00;  4.5723277E-03;  4.0000000E+04;  0.0000000E+00;  3.9986453E+04;  7.7369139E-02;  0.0000000E+00; -2.0935122E-02;  9.1931903E+02;
  6.1116278E-01;  9.9999998E-03;  2.0005604E-02;6199;  1.3847038E-03;  0.0000000E+00; -4.9761153E-04;  9.9970251E+02;  1.0089423E-01; -2.4646214E+02;3;  4.3247490E+00;  0.0000000E+00;  4.1473184E-02;0;  5.6161851E-02;  3.9288668E+04;  0.0000000E+00;  1.7953290E-02;  4.0000000E+04;  0.0000000E+00;  3.9986926E+04;  7.6964945E-02;  0.0000000E+00; -2.0803096E-02;  8.8911194E+02;
  6.1116213E-01;  9.9999998E-03;  3.0009072E-02;6200;  1.4464691E-03;  0.0000000E+00; -7.3817663E-04;  9.9971918E+02;  1.0089444E-01; -2.3263538E+02;3;  4.3366570E+00;  0.0000000E+00;  6.6145658E-02;0;  5.5715498E-02;  3.9289297E+04;  0.0000000E+00;  3.9102502E-02;  4.0000000E+04;  0.0000000E+00;  3.9986902E+04;  7.6302275E-02;  0.0000000E+00; -2.0586777E-02;  8.4633209E+02;
  6.1115998E-01;  9.9999998E-03;  4.0012628E-02;6201;  1.5230054E-03;  0.0000000E+00; -9.7161887E-04;  9.9973950E+02;  1.0089454E-01; -2.1579636E+02;3;  4.3441749E+00;  0.0000000E+00;  9.0689093E-02;0;  5.5106580E-02;  3.9290297E+04;  0.0000000E+00;  6.6196546E-02;  4.0000000E+04;  0.0000000E+00;  3.9987387E+04;  7.5398207E-02;  0.0000000E+00; -2.0291628E-02;  8.0061407E+02;
  6.1115551E-01;  9.9999998E-03;  5.0015785E-02;6202;  1.6102197E-03;  0.0000000E+00; -1.1953360E-03;  9.9976422E+02;  1.0089470E-01; -1.9535248E+02;3;  4.3464522E+00;  0.0000000E+00;  1.1013436E-01;0;  5.4351561E-02;  3.9291547E+04;  0.0000000E+00;  9.6582390E-02;  4.0000000E+04;  0.0000000E+00;  3.9987891E+04;  7.4276417E-02;  0.0000000E+00; -1.9924857E-02;  7.6191473E+02;
  6.1114746E-01;  9.9999998E-03;  6.0018174E-02;6203;  1.7009978E-03;  0.0000000E+00; -1.4077709E-03;  9.9979181E+02;  1.0089481E-01; -1.7248894E+02;3;  4.3509169E+00;  0.0000000E+00;  1.3277301E-01;0;  5.3473867E-02;  3.9293008E+04;  0.0000000E+00;  1.2686975E-01;  4.0000000E+04;  0.0000000E+00;  3.9988023E+04;  7.2968826E-02;  0.0000000E+00; -1.9494960E-02;  7.3766687E+02;
  6.2097538E-01;  9.9999998E-03; -1.0002685E-01;6248;  2.2475494E-03;  0.0000000E+00;  2.2877213E-03;  9.9970306E+02;  1.0140263E-01; -2.4601772E+02;3;  4.3360329E+00;  0.0000000E+00; -2.2711545E-01;0;  5.8652572E-02;  3.8897781E+04;  0.0000000E+00;  7.2820432E-02;  4.0000000E+04;  0.0000000E+00;  3.9985082E+04;  7.7431813E-02;  0.0000000E+00; -1.8779239E-02;  6.8082831E+02;
  6.2100035E-01;  9.9999998E-03; -9.0028733E-02;6249;  2.2032780E-03;  0.0000000E+00;  2.1046447E-03;  9.9970514E+02;  1.0140219E-01; -2.4428937E+02;3;  4.3494396E+00;  0.0000000E+00; -2.0288995E-01;0;  5.9630591E-02;  3.8898211E+04;  0.0000000E+00;  9.1174603E-02;  4.0000000E+04;  0.0000000E+00;  3.9985449E+04;  7.8996599E-02;  0.0000000E+00; -1.9366007E-02;  6.3701898E+02;
  6.2102079E-01;  9.9999998E-03; -8.0029458E-02;6250;  2.1718873E-03;  0.0000000E+00;  1.9091680E-03;  9.9970239E+02;  1.0140149E-01; -2.4656091E+02;3;  4.3826180E+00;  0.0000000E+00; -1.8271826E-01;0;  6.0613900E-02;  3.8898418E+04;  0.0000000E+00;  9.9127330E-02;  4.0000000E+04;  0.0000000E+00;  3.9985750E+04;  8.0524698E-02;  0.0000000E+00; -1.9910799E-02;  6.0607019E+02;
  6.2103611E-01;  9.9999998E-03; -7.0028849E-02;6251;  2.1430389E-03;  0.0000000E+00;  1.7023307E-03;  9.9969958E+02;  1.0140128E-01; -2.4888184E+02;3;  4.4053416E+00;  0.0000000E+00; -1.6099776E-01;0;  6.1562382E-02;  3.8898812E+04;  0.0000000E+00;  9.6846037E-02;  4.0000000E+04;  0.0000000E+00;  3.9985863E+04;  8.1974857E-02;  0.0000000E+00; -2.0412475E-02;  5.9252094E+02;
  6.2104619E-01;  9.9999998E-03; -6.0026798E-02;6252;  2.1083734E-03;  0.0000000E+00;  1.4849134E-03;  9.9970129E+02;  1.0140084E-01; -2.4744977E+02;3;  4.4148207E+00;  0.0000000E+00; -1.3619325E-01;0;  6.2442318E-02;  3.8899648E+04;  0.0000000E+00;  8.5905612E-02;  4.0000000E+04;  0.0000000E+00;  3.9985793E+04;  8.3309010E-02;  0.0000000E+00; -2.0866692E-02;  5.9834741E+02;
  6.2105185E-01;  9.9999998E-03; -5.0023373E-02;6253;  2.0610639E-03;  0.0000000E+00;  1.2586199E-03;  9.9969836E+02;  1.0140058E-01; -2.4991884E+02;3;  4.4147773E+00;  0.0000000E+00; -1.1287222E-01;0;  6.3227825E-02;  3.8900039E+04;  0.0000000E+00;  6.8939768E-02;  4.0000000E+04;  0.0000000E+00;  3.9985633E+04;  8.4495015E-02;  0.0000000E+00; -2.1267192E-02;  6.2302814E+02;
  6.2105399E-01;  9.9999998E-03; -4.0019233E-02;6254;  2.0080947E-03;  0.0000000E+00;  1.0213989E-03;  9.9969550E+02;  1.0140052E-01; -2.5228914E+02;3;  4.4212413E+00;  0.0000000E+00; -9.2817098E-02;0;  6.3896030E-02;  3.8900742E+04;  0.0000000E+00;  4.9187563E-02;  4.0000000E+04;  0.0000000E+00;  3.9985250E+04;  8.5502975E-02;  0.0000000E+00; -2.1606943E-02;  6.6256635E+02;
  6.2105358E-01;  9.9999998E-03; -3.0014807E-02;6255;  1.9581437E-03;  0.0000000E+00;  7.7453488E-04;  9.9969171E+02;  1.0140011E-01; -2.5540016E+02;3;  4.4262171E+00;  0.0000000E+00; -7.1048386E-02;0;  6.4430065E-02;  3.8901207E+04;  0.0000000E+00;  2.9932164E-02;  4.0000000E+04;  0.0000000E+00;  3.9985043E+04;  8.6309060E-02;  0.0000000E+00; -2.1878995E-02;  7.0919666E+02;
  6.2105197E-01;  9.9999998E-03; -2.0010112E-02;6256;  1.9159239E-03;  0.0000000E+00;  5.2079360E-04;  9.9968707E+02;  1.0139981E-01; -2.5925192E+02;3;  4.4251127E+00;  0.0000000E+00; -4.6233661E-02;0;  6.4818710E-02;  3.8901582E+04;  0.0000000E+00;  1.4027347E-02;  4.0000000E+04;  0.0000000E+00;  3.9984395E+04;  8.6896434E-02;  0.0000000E+00; -2.2077726E-02;  7.5299811E+02;
  6.2105024E-01;  9.9999998E-03; -1.0005071E-02;6257;  1.8866729E-03;  0.0000000E+00;  2.6171666E-04;  9.9968756E+02;  1.0140011E-01; -2.5885684E+02;3;  4.4230199E+00;  0.0000000E+00; -2.1844529E-02;0;  6.5054700E-02;  3.8901680E+04;  0.0000000E+00;  3.6153442E-03;  4.0000000E+04;  0.0000000E+00;  3.9984168E+04;  8.7253474E-02;  0.0000000E+00; -2.2198770E-02;  7.8405634E+02;
  6.2104946E-01;  9.9999998E-03;  4.0883563E-09;6258;  1.8764216E-03;  0.0000000E+00;  3.3225032E-08;  9.9968665E+02;  1.0139997E-01; -2.5959756E+02;3;  4.4210186E+00;  0.0000000E+00;  7.2808316E-06;0;  6.5133743E-02;  3.8901863E+04;  0.0000000E+00; -4.6757593E-12;  4.0000000E+04;  0.0000000E+00;  3.9984074E+04;  8.7373130E-02;  0.0000000E+00; -2.2239387E-02;  7.9533002E+02;
  6.2105024E-01;  9.9999998E-03;  1.0005078E-02;6259;  1.8866641E-03;  0.0000000E+00; -2.6165016E-04;  9.9968756E+02;  1.0140011E-01; -2.5885684E+02;3;  4.4230151E+00;  0.0000000E+00;  2.1855108E-02;0;  6.5054856E-02;  3.8901668E+04;  0.0000000E+00;  3.6159148E-03;  4.0000000E+04;  0.0000000E+00;  3.9984168E+04;  8.7253578E-02;  0.0000000E+00; -2.2198722E-02;  7.8406866E+02;
  6.2105197E-01;  9.9999998E-03;  2.0010119E-02;6260;  1.9159080E-03;  0.0000000E+00; -5.2072678E-04;  9.9968707E+02;  1.0139981E-01; -2.5925192E+02;3;  4.4250932E+00;  0.0000000E+00;  4.6244603E-02;0;  6.4818740E-02;  3.8901586E+04;  0.0000000E+00;  1.4028164E-02;  4.0000000E+04;  0.0000000E+00;  3.9984395E+04;  8.6896427E-02;  0.0000000E+00; -2.2077685E-02;  7.5300214E+02;
  6.2105358E-01;  9.9999998E-03;  3.0014815E-02;6261;  1.9581341E-03;  0.0000000E+00; -7.7446795E-04;  9.9969159E+02;  1.0140017E-01; -2.5549893E+02;3;  4.4261994E+00;  0.0000000E+00;  7.1049444E-02;0;  6.4429998E-02;  3.8901203E+04;  0.0000000E+00;  2.9932376E-02;  4.0000000E+04;  0.0000000E+00;  3.9985043E+04;  8.6308971E-02;  0.0000000E+00; -2.1878969E-02;  7.0919617E+02;
  6.2105399E-01;  9.9999998E-03;  4.0019240E-02;6262;  2.0080700E-03;  0.0000000E+00; -1.0213314E-03;  9.9969550E+02;  1.0140052E-01; -2.5228914E+02;3;  4.4212165E+00;  0.0000000E+00;  9.2815354E-02;0;  6.3896038E-02;  3.8900738E+04;  0.0000000E+00;  4.9186889E-02;  4.0000000E+04;  0.0000000E+00;  3.9985250E+04;  8.5502952E-02;  0.0000000E+00; -2.1606915E-02;  6.6256451E+02;
  6.2105185E-01;  9.9999998E-03;  5.0023381E-02;6263;  2.0610318E-03;  0.0000000E+00; -1.2585514E-03;  9.9969836E+02;  1.0140058E-01; -2.4991884E+02;3;  4.4147396E+00;  0.0000000E+00;  1.1286947E-01;0;  6.3227706E-02;  3.8900039E+04;  0.0000000E+00;  6.8938009E-02;  4.0000000E+04;  0.0000000E+00;  3.9985633E+04;  8.4494911E-02;  0.0000000E+00; -2.1267204E-02;  6.2301764E+02;
  6.2104619E-01;  9.9999998E-03;  6.0026806E-02;6264;  2.1083469E-03;  0.0000000E+00; -1.4848436E-03;  9.9970123E+02;  1.0140084E-01; -2.4749916E+02;3;  4.4147863E+00;  0.0000000E+00;  1.3618685E-01;0;  6.2442392E-02;  3.8899648E+04;  0.0000000E+00;  8.5903220E-02;  4.0000000E+04;  0.0000000E+00;  3.9985797E+04;  8.3309039E-02;  0.0000000E+00; -2.0866646E-02;  5.9834521E+02;
  6.3091445E-01;  9.9999998E-03; -1.0002944E-01;6309;  2.5847023E-03;  0.0000000E+00;  2.4249677E-03;  9.9968359E+02;  1.0214076E-01; -2.6211603E+02;3;  4.3910360E+00;  0.0000000E+00; -2.3096199E-01;0;  6.8301879E-02;  3.8341004E+04;  0.0000000E+00; -6.9851212E-02;  4.0000000E+04;  0.0000000E+00;  3.9980645E+04;  8.8590905E-02;  0.0000000E+00; -2.0289026E-02;  6.2861865E+02;
  6.3095474E-01;  9.9999998E-03; -9.0028666E-02;6310;  2.6369116E-03;  0.0000000E+00;  2.2182886E-03;  9.9971002E+02;  1.0213955E-01; -2.4024010E+02;3;  4.4292717E+00;  0.0000000E+00; -2.0587814E-01;0;  6.9092542E-02;  3.8343488E+04;  0.0000000E+00; -3.7040439E-02;  4.0000000E+04;  0.0000000E+00;  3.9981160E+04;  8.9942187E-02;  0.0000000E+00; -2.0849647E-02;  5.4505438E+02;
  6.3099056E-01;  9.9999998E-03; -8.0027133E-02;6311;  2.6938086E-03;  0.0000000E+00;  2.0048022E-03;  9.9974042E+02;  1.0213891E-01; -2.1505563E+02;3;  4.4696388E+00;  0.0000000E+00; -1.8284920E-01;0;  6.9856390E-02;  3.8346664E+04;  0.0000000E+00; -1.0319660E-02;  4.0000000E+04;  0.0000000E+00;  3.9981754E+04;  9.1218688E-02;  0.0000000E+00; -2.1362299E-02;  4.8421735E+02;
  6.3101959E-01;  9.9999998E-03; -7.0024878E-02;6312;  2.7477150E-03;  0.0000000E+00;  1.7805934E-03;  9.9977228E+02;  1.0213833E-01; -1.8868600E+02;3;  4.5165443E+00;  0.0000000E+00; -1.6291651E-01;0;  7.0567258E-02;  3.8349582E+04;  0.0000000E+00;  8.4297843E-03;  4.0000000E+04;  0.0000000E+00;  3.9981980E+04;  9.2394881E-02;  0.0000000E+00; -2.1827625E-02;  4.5276651E+02;
  6.3104117E-01;  9.9999998E-03; -6.0021918E-02;6313;  2.7899442E-03;  0.0000000E+00;  1.5460122E-03;  9.9979797E+02;  1.0213739E-01; -1.6735327E+02;3;  4.5543141E+00;  0.0000000E+00; -1.4254434E-01;0;  7.1206391E-02;  3.8352266E+04;  0.0000000E+00;  1.8775480E-02;  4.0000000E+04;  0.0000000E+00;  3.9982027E+04;  9.3449742E-02;  0.0000000E+00; -2.2243351E-02;  4.5086322E+02;
  6.3105577E-01;  9.9999998E-03; -5.0018400E-02;6314;  2.8124305E-03;  0.0000000E+00;  1.3037649E-03;  9.9982062E+02;  1.0213724E-01; -1.4863776E+02;3;  4.5717287E+00;  0.0000000E+00; -1.1766776E-01;0;  7.1761236E-02;  3.8355133E+04;  0.0000000E+00;  2.1591751E-02;  4.0000000E+04;  0.0000000E+00;  3.9981863E+04;  9.4366647E-02;  0.0000000E+00; -2.2605412E-02;  4.7378067E+02;
  6.3106430E-01;  9.9999998E-03; -4.0014647E-02;6315;  2.8106400E-03;  0.0000000E+00;  1.0554777E-03;  9.9984332E+02;  1.0213652E-01; -1.2982349E+02;3;  4.5724497E+00;  0.0000000E+00; -9.4022647E-02;0;  7.2223969E-02;  3.8357824E+04;  0.0000000E+00;  1.8804614E-02;  4.0000000E+04;  0.0000000E+00;  3.9981652E+04;  9.5133223E-02;  0.0000000E+00; -2.2909254E-02;  5.1402319E+02;
  6.3106853E-01;  9.9999998E-03; -3.0010991E-02;6316;  2.7944422E-03;  0.0000000E+00;  7.9903560E-04;  9.9986249E+02;  1.0213626E-01; -1.1392270E+02;3;  4.5751195E+00;  0.0000000E+00; -7.2481692E-02;0;  7.2588362E-02;  3.8359836E+04;  0.0000000E+00;  1.2929510E-02;  4.0000000E+04;  0.0000000E+00;  3.9981160E+04;  9.5738947E-02;  0.0000000E+00; -2.3150586E-02;  5.6207520E+02;
  6.3106996E-01;  9.9999998E-03; -2.0007614E-02;6317;  2.7740549E-03;  0.0000000E+00;  5.3661270E-04;  9.9987469E+02;  1.0213589E-01; -1.0379952E+02;3;  4.5742073E+00;  0.0000000E+00; -4.9864318E-02;0;  7.2850563E-02;  3.8361473E+04;  0.0000000E+00;  6.5314420E-03;  4.0000000E+04;  0.0000000E+00;  3.9980953E+04;  9.6176304E-02;  0.0000000E+00; -2.3325741E-02;  6.0736261E+02;
  6.3106978E-01;  9.9999998E-03; -1.0004204E-02;6318;  2.7577295E-03;  0.0000000E+00;  2.6931346E-04;  9.9988611E+02;  1.0213576E-01; -9.4367691E+01;3;  4.5745487E+00;  0.0000000E+00; -2.7549580E-02;0;  7.3008202E-02;  3.8362418E+04;  0.0000000E+00;  1.7544080E-03;  4.0000000E+04;  0.0000000E+00;  3.9980641E+04;  9.6440189E-02;  0.0000000E+00; -2.3431985E-02;  6.3970001E+02;
  6.3106930E-01;  9.9999998E-03;  4.2735278E-09;6319;  2.7520757E-03;  0.0000000E+00;  3.3192592E-08;  9.9988391E+02;  1.0213578E-01; -9.6194801E+01;3;  4.5734015E+00;  0.0000000E+00;  6.0442435E-06;0;  7.3060431E-02;  3.8362938E+04;  0.0000000E+00; -1.1304751E-11;  4.0000000E+04;  0.0000000E+00;  3.9980633E+04;  9.6527986E-02;  0.0000000E+00; -2.3467554E-02;  6.5140460E+02;
  6.3106978E-01;  9.9999998E-03;  1.0004212E-02;6320;  2.7577281E-03;  0.0000000E+00; -2.6924696E-04;  9.9988605E+02;  1.0213573E-01; -9.4417076E+01;3;  4.5745497E+00;  0.0000000E+00;  2.7561953E-02;0;  7.3008232E-02;  3.8362414E+04;  0.0000000E+00;  1.7552952E-03;  4.0000000E+04;  0.0000000E+00;  3.9980637E+04;  9.6440196E-02;  0.0000000E+00; -2.3431966E-02;  6.3970465E+02;
  6.3106996E-01;  9.9999998E-03;  2.0007621E-02;6321;  2.7740388E-03;  0.0000000E+00; -5.3654576E-04;  9.9987469E+02;  1.0213578E-01; -1.0379952E+02;3;  4.5741925E+00;  0.0000000E+00;  4.9870949E-02;0;  7.2850525E-02;  3.8361469E+04;  0.0000000E+00;  6.5329839E-03;  4.0000000E+04;  0.0000000E+00;  3.9980957E+04;  9.6176267E-02;  0.0000000E+00; -2.3325738E-02;  6.0736847E+02;
  6.3106853E-01;  9.9999998E-03;  3.0010998E-02;6322;  2.7944201E-03;  0.0000000E+00; -7.9896825E-04;  9.9986249E+02;  1.0213626E-01; -1.1392270E+02;3;  4.5750976E+00;  0.0000000E+00;  7.2482705E-02;0;  7.2588407E-02;  3.8359840E+04;  0.0000000E+00;  1.2931132E-02;  4.0000000E+04;  0.0000000E+00;  3.9981160E+04;  9.5738992E-02;  0.0000000E+00; -2.3150586E-02;  5.6207977E+02;
  6.3106430E-01;  9.9999998E-03;  4.0014654E-02;6323;  2.8106042E-03;  0.0000000E+00; -1.0554091E-03;  9.9984332E+02;  1.0213652E-01; -1.2982349E+02;3;  4.5724111E+00;  0.0000000E+00;  9.4018877E-02;0;  7.2224006E-02;  3.8357828E+04;  0.0000000E+00;  1.8806633E-02;  4.0000000E+04;  0.0000000E+00;  3.9981652E+04;  9.5133208E-02;  0.0000000E+00; -2.2909202E-02;  5.1403455E+02;
  6.3105577E-01;  9.9999998E-03;  5.0018407E-02;6324;  2.8123986E-03;  0.0000000E+00; -1.3036949E-03;  9.9982056E+02;  1.0213724E-01; -1.4868715E+02;3;  4.5716834E+00;  0.0000000E+00;  1.1766032E-01;0;  7.1761273E-02;  3.8355133E+04;  0.0000000E+00;  2.1589646E-02;  4.0000000E+04;  0.0000000E+00;  3.9981863E+04;  9.4366640E-02;  0.0000000E+00; -2.2605367E-02;  4.7378403E+02;
  6.3104117E-01;  9.9999998E-03;  6.0021926E-02;6325;  2.7899060E-03;  0.0000000E+00; -1.5459398E-03;  9.9979797E+02;  1.0213742E-01; -1.6735327E+02;3;  4.5542698E+00;  0.0000000E+00;  1.4253540E-01;0;  7.1206458E-02;  3.8352266E+04;  0.0000000E+00;  1.8770911E-02;  4.0000000E+04;  0.0000000E+00;  3.9982027E+04;  9.3449764E-02;  0.0000000E+00; -2.2243308E-02;  4.5086600E+02;
  6.4096344E-01;  9.9999998E-03; -1.0000652E-01;6370;  3.3020668E-03;  0.0000000E+00;  2.5496737E-03;  9.9995972E+02;  1.0316058E-01; -3.3381771E+01;3;  4.5640216E+00;  0.0000000E+00; -2.2088310E-01;0;  7.7565081E-02;  3.7609887E+04;  0.0000000E+00; -2.2971579E-01;  4.0000000E+04;  0.0000000E+00;  3.9974219E+04;  9.9395812E-02;  0.0000000E+00; -2.1830728E-02;  6.7849219E+02;
  6.4099616E-01;  9.9999998E-03; -9.0007037E-02;6371;  3.4966203E-03;  0.0000000E+00;  2.3214521E-03;  1.0000035E+03;  1.0315883E-01;  2.9628789E+00;3;  4.6554594E+00;  0.0000000E+00; -1.9692752E-01;0;  7.7970706E-02;  3.7613938E+04;  0.0000000E+00; -1.8346995E-01;  4.0000000E+04;  0.0000000E+00;  3.9975227E+04;  1.0033099E-01;  0.0000000E+00; -2.2360282E-02;  5.5100629E+02;
  6.4102495E-01;  9.9999998E-03; -8.0007337E-02;6372;  3.7033509E-03;  0.0000000E+00;  2.0874212E-03;  1.0000529E+03;  1.0315756E-01;  4.3751846E+01;3;  4.7430887E+00;  0.0000000E+00; -1.7560156E-01;0;  7.8321770E-02;  3.7618445E+04;  0.0000000E+00; -1.3781695E-01;  4.0000000E+04;  0.0000000E+00;  3.9975961E+04;  1.0115708E-01;  0.0000000E+00; -2.2835314E-02;  4.4394238E+02;
  6.4104986E-01;  9.9999998E-03; -7.0007361E-02;6373;  3.8929991E-03;  0.0000000E+00;  1.8476923E-03;  1.0001010E+03;  1.0315657E-01;  8.3651947E+01;3;  4.8096776E+00;  0.0000000E+00; -1.5154687E-01;0;  7.8616470E-02;  3.7622875E+04;  0.0000000E+00; -9.6729092E-02;  4.0000000E+04;  0.0000000E+00;  3.9976434E+04;  1.0187529E-01;  0.0000000E+00; -2.3258816E-02;  3.7022308E+02;
  6.4107078E-01;  9.9999998E-03; -6.0006946E-02;6374;  4.0449528E-03;  0.0000000E+00;  1.6011930E-03;  1.0001490E+03;  1.0315521E-01;  1.2345329E+02;3;  4.8630986E+00;  0.0000000E+00; -1.3195604E-01;0;  7.8856304E-02;  3.7627871E+04;  0.0000000E+00; -6.2842995E-02;  4.0000000E+04;  0.0000000E+00;  3.9976578E+04;  1.0248704E-01;  0.0000000E+00; -2.3630736E-02;  3.3696512E+02;
  6.4108801E-01;  9.9999998E-03; -5.0006285E-02;6375;  4.1550407E-03;  0.0000000E+00;  1.3467134E-03;  1.0001978E+03;  1.0315417E-01;  1.6384720E+02;3;  4.9051862E+00;  0.0000000E+00; -1.1678533E-01;0;  7.9045936E-02;  3.7632379E+04;  0.0000000E+00; -3.7294578E-02;  4.0000000E+04;  0.0000000E+00;  3.9976531E+04;  1.0299551E-01;  0.0000000E+00; -2.3949569E-02;  3.4245557E+02;
  6.4110136E-01;  9.9999998E-03; -4.0005714E-02;6376;  4.2252173E-03;  0.0000000E+00;  1.0858129E-03;  1.0002386E+03;  1.0315340E-01;  1.9772279E+02;3;  4.9283133E+00;  0.0000000E+00; -9.3645446E-02;0;  7.9190239E-02;  3.7636695E+04;  0.0000000E+00; -1.9822387E-02;  4.0000000E+04;  0.0000000E+00;  3.9976250E+04;  1.0340353E-01;  0.0000000E+00; -2.4213292E-02;  3.7614468E+02;
  6.4111131E-01;  9.9999998E-03; -3.0005231E-02;6377;  4.2613563E-03;  0.0000000E+00;  8.2010630E-04;  1.0002733E+03;  1.0315263E-01;  2.2646271E+02;3;  4.9376535E+00;  0.0000000E+00; -7.3110819E-02;0;  7.9295494E-02;  3.7640355E+04;  0.0000000E+00; -9.1137355E-03;  4.0000000E+04;  0.0000000E+00;  3.9975828E+04;  1.0371580E-01;  0.0000000E+00; -2.4420304E-02;  4.2342090E+02;
  6.4111835E-01;  9.9999998E-03; -2.0004969E-02;6378;  4.2754966E-03;  0.0000000E+00;  5.4994650E-04;  1.0002990E+03;  1.0315228E-01;  2.4769669E+02;3;  4.9400196E+00;  0.0000000E+00; -4.6288311E-02;0;  7.9366438E-02;  3.7643051E+04;  0.0000000E+00; -3.3409582E-03;  4.0000000E+04;  0.0000000E+00;  3.9975672E+04;  1.0393575E-01;  0.0000000E+00; -2.4569308E-02;  4.7006375E+02;
  6.4112258E-01;  9.9999998E-03; -1.0003683E-02;6379;  4.2788903E-03;  0.0000000E+00;  2.7608470E-04;  1.0003135E+03;  1.0315170E-01;  2.5974573E+02;3;  4.9408550E+00;  0.0000000E+00; -2.3788525E-02;0;  7.9407483E-02;  3.7644953E+04;  0.0000000E+00; -7.2343613E-04;  4.0000000E+04;  0.0000000E+00;  3.9975449E+04;  1.0406664E-01;  0.0000000E+00; -2.4659157E-02;  5.0386288E+02;
  6.4112395E-01;  9.9999998E-03;  4.5591060E-09;6380;  4.2791311E-03;  0.0000000E+00;  3.3010707E-08;  1.0003200E+03;  1.0315151E-01;  2.6507889E+02;3;  4.9425545E+00;  0.0000000E+00;  3.9717911E-06;0;  7.9420798E-02;  3.7645430E+04;  0.0000000E+00; -1.8632141E-11;  4.0000000E+04;  0.0000000E+00;  3.9975137E+04;  1.0411002E-01;  0.0000000E+00; -2.4689229E-02;  5.1619659E+02;
  6.4112258E-01;  9.9999998E-03;  1.0003692E-02;6381;  4.2788759E-03;  0.0000000E+00; -2.7601837E-04;  1.0003135E+03;  1.0315170E-01;  2.5974573E+02;3;  4.9408407E+00;  0.0000000E+00;  2.3795454E-02;0;  7.9407491E-02;  3.7644949E+04;  0.0000000E+00; -7.2188006E-04;  4.0000000E+04;  0.0000000E+00;  3.9975449E+04;  1.0406668E-01;  0.0000000E+00; -2.4659187E-02;  5.0387683E+02;
  6.4111835E-01;  9.9999998E-03;  2.0004977E-02;6382;  4.2754742E-03;  0.0000000E+00; -5.4987962E-04;  1.0002991E+03;  1.0315228E-01;  2.4779544E+02;3;  4.9399905E+00;  0.0000000E+00;  4.6292424E-02;0;  7.9366431E-02;  3.7643051E+04;  0.0000000E+00; -3.3386608E-03;  4.0000000E+04;  0.0000000E+00;  3.9975672E+04;  1.0393570E-01;  0.0000000E+00; -2.4569277E-02;  4.7005981E+02;
  6.4111131E-01;  9.9999998E-03;  3.0005241E-02;6383;  4.2613284E-03;  0.0000000E+00; -8.2003803E-04;  1.0002733E+03;  1.0315263E-01;  2.2646271E+02;3;  4.9376230E+00;  0.0000000E+00;  7.3110774E-02;0;  7.9295501E-02;  3.7640355E+04;  0.0000000E+00; -9.1109425E-03;  4.0000000E+04;  0.0000000E+00;  3.9975832E+04;  1.0371580E-01;  0.0000000E+00; -2.4420300E-02;  4.2342175E+02;
  6.4110136E-01;  9.9999998E-03;  4.0005725E-02;6384;  4.2251744E-03;  0.0000000E+00; -1.0857427E-03;  1.0002388E+03;  1.0315338E-01;  1.9782155E+02;3;  4.9282656E+00;  0.0000000E+00;  9.3638398E-02;0;  7.9190388E-02;  3.7636684E+04;  0.0000000E+00; -1.9820571E-02;  4.0000000E+04;  0.0000000E+00;  3.9976250E+04;  1.0340364E-01;  0.0000000E+00; -2.4213253E-02;  3.7613635E+02;
  6.4108801E-01;  9.9999998E-03;  5.0006296E-02;6385;  4.1550002E-03;  0.0000000E+00; -1.3466410E-03;  1.0001978E+03;  1.0315417E-01;  1.6384720E+02;3;  4.9051328E+00;  0.0000000E+00;  1.1677633E-01;0;  7.9045847E-02;  3.7632379E+04;  0.0000000E+00; -3.7293427E-02;  4.0000000E+04;  0.0000000E+00;  3.9976531E+04;  1.0299538E-01;  0.0000000E+00; -2.3949534E-02;  3.4244809E+02;
  6.4107078E-01;  9.9999998E-03;  6.0006954E-02;6386;  4.0449109E-03;  0.0000000E+00; -1.6011181E-03;  1.0001490E+03;  1.0315521E-01;  1.2345329E+02;3;  4.8630595E+00;  0.0000000E+00;  1.3194987E-01;0;  7.8856401E-02;  3.7627875E+04;  0.0000000E+00; -6.2842220E-02;  4.0000000E+04;  0.0000000E+00;  3.9976582E+04;  1.0248711E-01;  0.0000000E+00; -2.3630708E-02;  3.3696317E+02;
  6.5111703E-01;  9.9999998E-03;  4.8806372E-09;6441;  6.8165394E-03;  0.0000000E+00;  3.3793771E-08;  1.0008677E+03;  1.0447160E-01;  7.1889319E+02;3;  5.6687412E+00;  0.0000000E+00; -1.4384259E-06;0;  8.3733395E-02;  3.6738859E+04;  0.0000000E+00; -3.1794161E-11;  4.0000000E+04;  0.0000000E+00;  3.9967703E+04;  1.0968278E-01;  0.0000000E+00; -2.5949389E-02;  4.0775781E+02;
  6.5111464E-01;  9.9999998E-03; -1.0000805E-02;6440;  6.8070781E-03;  0.0000000E+00;  2.7628191E-04;  1.0008616E+03;  1.0447188E-01;  7.1375751E+02;3;  5.6685300E+00;  0.0000000E+00; -2.2610685E-02;0;  8.3767518E-02;  3.6738070E+04;  0.0000000E+00; -3.2383432E-03;  4.0000000E+04;  0.0000000E+00;  3.9967945E+04;  1.0969219E-01;  0.0000000E+00; -2.5924670E-02;  3.9463928E+02;
  6.5111464E-01;  9.9999998E-03;  1.0000816E-02;6442;  6.8070716E-03;  0.0000000E+00; -2.7621401E-04;  1.0008616E+03;  1.0447188E-01;  7.1375751E+02;3;  5.6685143E+00;  0.0000000E+00;  2.2616351E-02;0;  8.3767608E-02;  3.6738070E+04;  0.0000000E+00; -3.2361678E-03;  4.0000000E+04;  0.0000000E+00;  3.9967945E+04;  1.0969225E-01;  0.0000000E+00; -2.5924642E-02;  3.9463431E+02;
  6.5110719E-01;  9.9999998E-03; -2.0000421E-02;6439;  6.7747324E-03;  0.0000000E+00;  5.5163505E-04;  1.0008369E+03;  1.0447238E-01;  6.9331366E+02;3;  5.6625533E+00;  0.0000000E+00; -4.1231345E-02;0;  8.3867617E-02;  3.6735871E+04;  0.0000000E+00; -1.3313315E-02;  4.0000000E+04;  0.0000000E+00;  3.9968172E+04;  1.0971794E-01;  0.0000000E+00; -2.5850324E-02;  3.5928210E+02;
  6.5110719E-01;  9.9999998E-03;  2.0000430E-02;6443;  6.7747221E-03;  0.0000000E+00; -5.5156747E-04;  1.0008369E+03;  1.0447238E-01;  6.9331366E+02;3;  5.6625347E+00;  0.0000000E+00;  4.1230831E-02;0;  8.3867654E-02;  3.6735871E+04;  0.0000000E+00; -1.3309582E-02;  4.0000000E+04;  0.0000000E+00;  3.9968176E+04;  1.0971797E-01;  0.0000000E+00; -2.5850317E-02;  3.5927597E+02;
  6.5109485E-01;  9.9999998E-03; -2.9998872E-02;6438;  6.7109922E-03;  0.0000000E+00;  8.2484091E-04;  1.0007995E+03;  1.0447284E-01;  6.6240094E+02;3;  5.6503034E+00;  0.0000000E+00; -6.4499453E-02;0;  8.4026255E-02;  3.6732059E+04;  0.0000000E+00; -3.1181289E-02;  4.0000000E+04;  0.0000000E+00;  3.9968508E+04;  1.0975215E-01;  0.0000000E+00; -2.5725892E-02;  3.1333514E+02;
  6.5109485E-01;  9.9999998E-03;  2.9998882E-02;6444;  6.7109633E-03;  0.0000000E+00; -8.2477182E-04;  1.0007995E+03;  1.0447284E-01;  6.6240094E+02;3;  5.6502686E+00;  0.0000000E+00;  6.4486012E-02;0;  8.4026396E-02;  3.6732059E+04;  0.0000000E+00; -3.1176265E-02;  4.0000000E+04;  0.0000000E+00;  3.9968500E+04;  1.0975226E-01;  0.0000000E+00; -2.5725862E-02;  3.1332004E+02;
  6.5107799E-01;  9.9999998E-03; -3.9997499E-02;6437;  6.6033960E-03;  0.0000000E+00;  1.0967401E-03;  1.0007581E+03;  1.0447374E-01;  6.2803156E+02;3;  5.6220965E+00;  0.0000000E+00; -8.5177161E-02;0;  8.4231779E-02;  3.6727469E+04;  0.0000000E+00; -5.8037277E-02;  4.0000000E+04;  0.0000000E+00;  3.9968793E+04;  1.0978228E-01;  0.0000000E+00; -2.5550503E-02;  2.7578693E+02;
  6.5107799E-01;  9.9999998E-03;  3.9997511E-02;6445;  6.6033523E-03;  0.0000000E+00; -1.0966683E-03;  1.0007581E+03;  1.0447374E-01;  6.2803156E+02;3;  5.6220698E+00;  0.0000000E+00;  8.5169293E-02;0;  8.4231749E-02;  3.6727473E+04;  0.0000000E+00; -5.8033980E-02;  4.0000000E+04;  0.0000000E+00;  3.9968793E+04;  1.0978223E-01;  0.0000000E+00; -2.5550481E-02;  2.7579605E+02;
  6.5105677E-01;  9.9999998E-03; -4.9996838E-02;6436;  6.4392542E-03;  0.0000000E+00;  1.3659385E-03;  1.0007015E+03;  1.0447542E-01;  5.8111932E+02;3;  5.5733595E+00;  0.0000000E+00; -1.0091120E-01;0;  8.4468275E-02;  3.6721992E+04;  0.0000000E+00; -9.4781257E-02;  4.0000000E+04;  0.0000000E+00;  3.9969027E+04;  1.0979129E-01;  0.0000000E+00; -2.5323017E-02;  2.7011865E+02;
  6.5105677E-01;  9.9999998E-03;  4.9996849E-02;6446;  6.4392160E-03;  0.0000000E+00; -1.3658640E-03;  1.0007015E+03;  1.0447542E-01;  5.8121808E+02;3;  5.5733261E+00;  0.0000000E+00;  1.0090297E-01;0;  8.4468335E-02;  3.6721996E+04;  0.0000000E+00; -9.4778918E-02;  4.0000000E+04;  0.0000000E+00;  3.9969027E+04;  1.0979128E-01;  0.0000000E+00; -2.5322946E-02;  2.7012387E+02;
  6.5103155E-01;  9.9999998E-03; -5.9996560E-02;6435;  6.2106033E-03;  0.0000000E+00;  1.6313019E-03;  1.0006458E+03;  1.0447723E-01;  5.3499719E+02;3;  5.5000329E+00;  0.0000000E+00; -1.1456570E-01;0;  8.4716737E-02;  3.6716289E+04;  0.0000000E+00; -1.4141259E-01;  4.0000000E+04;  0.0000000E+00;  3.9969180E+04;  1.0975891E-01;  0.0000000E+00; -2.5042174E-02;  3.1117471E+02;
  6.5103155E-01;  9.9999998E-03;  5.9996568E-02;6447;  6.2105539E-03;  0.0000000E+00; -1.6312230E-03;  1.0006459E+03;  1.0447721E-01;  5.3509595E+02;3;  5.4999895E+00;  0.0000000E+00;  1.1456076E-01;0;  8.4716737E-02;  3.6716297E+04;  0.0000000E+00; -1.4141150E-01;  4.0000000E+04;  0.0000000E+00;  3.9969176E+04;  1.0975888E-01;  0.0000000E+00; -2.5042141E-02;  3.1118344E+02;
  6.5100360E-01;  9.9999998E-03; -6.9996223E-02;6434;  5.9151277E-03;  0.0000000E+00;  1.8923455E-03;  1.0005862E+03;  1.0447907E-01;  4.8571463E+02;3;  5.4057727E+00;  0.0000000E+00; -1.3652216E-01;0;  8.4955618E-02;  3.6710367E+04;  0.0000000E+00; -1.9651385E-01;  4.0000000E+04;  0.0000000E+00;  3.9968688E+04;  1.0966287E-01;  0.0000000E+00; -2.4707250E-02;  3.9550272E+02;
  6.5097409E-01;  9.9999998E-03; -7.9995535E-02;6433;  5.5619054E-03;  0.0000000E+00;  2.1507607E-03;  1.0005274E+03;  1.0448122E-01;  4.3692587E+02;3;  5.2848053E+00;  0.0000000E+00; -1.5559225E-01;0;  8.5163236E-02;  3.6704855E+04;  0.0000000E+00; -2.5699973E-01;  4.0000000E+04;  0.0000000E+00;  3.9968184E+04;  1.0948062E-01;  0.0000000E+00; -2.4317387E-02;  5.1310785E+02;
  6.5094358E-01;  9.9999998E-03; -8.9994863E-02;6432;  5.1748641E-03;  0.0000000E+00;  2.4062672E-03;  1.0004797E+03;  1.0448410E-01;  3.9742084E+02;3;  5.1365170E+00;  0.0000000E+00; -1.7309797E-01;0;  8.5318342E-02;  3.6699520E+04;  0.0000000E+00; -3.1819069E-01;  4.0000000E+04;  0.0000000E+00;  3.9967328E+04;  1.0918887E-01;  0.0000000E+00; -2.3870528E-02;  6.5417450E+02;
  6.5091306E-01;  9.9999998E-03; -9.9994272E-02;6431;  4.7891322E-03;  0.0000000E+00;  2.6557890E-03;  1.0004327E+03;  1.0448702E-01;  3.5850836E+02;3;  4.9838467E+00;  0.0000000E+00; -1.9182551E-01;0;  8.5403427E-02;  3.6694984E+04;  0.0000000E+00; -3.7418282E-01;  4.0000000E+04;  0.0000000E+00;  3.9966043E+04;  1.0876559E-01;  0.0000000E+00; -2.3362169E-02;  8.0622052E+02;
  6.6106659E-01;  9.9999998E-03; -9.9974293E-03;6501;  9.7983619E-03;  0.0000000E+00;  2.5880261E-04;  1.0012228E+03;  1.0608612E-01;  1.0131071E+03;3;  6.5263419E+00;  0.0000000E+00; -2.6257534E-02;0;  8.6123779E-02;  3.5649762E+04;  0.0000000E+00; -5.0798459E-03;  4.0000000E+04;  0.0000000E+00;  3.9958273E+04;  1.1342397E-01;  0.0000000E+00; -2.7300188E-02;  3.3310129E+02;
  6.6106850E-01;  9.9999998E-03;  5.1678128E-09;6502;  9.8140668E-03;  0.0000000E+00;  3.4664055E-08;  1.0012336E+03;  1.0608586E-01;  1.0220945E+03;3;  6.5297127E+00;  0.0000000E+00;  2.1159908E-06;0;  8.6041324E-02;  3.5650543E+04;  0.0000000E+00; -4.3956783E-11;  4.0000000E+04;  0.0000000E+00;  3.9958121E+04;  1.1336195E-01;  0.0000000E+00; -2.7320633E-02;  3.4731479E+02;
  6.6106659E-01;  9.9999998E-03;  9.9974396E-03;6503;  9.7983228E-03;  0.0000000E+00; -2.5873398E-04;  1.0012227E+03;  1.0608622E-01;  1.0129095E+03;3;  6.5263324E+00;  0.0000000E+00;  2.6268927E-02;0;  8.6123876E-02;  3.5649770E+04;  0.0000000E+00; -5.0771874E-03;  4.0000000E+04;  0.0000000E+00;  3.9958273E+04;  1.1342403E-01;  0.0000000E+00; -2.7300159E-02;  3.3309842E+02;
  6.6106099E-01;  9.9999998E-03; -1.9994659E-02;6500;  9.7512119E-03;  0.0000000E+00;  5.1825074E-04;  1.0011975E+03;  1.0608685E-01;  9.9207062E+02;3;  6.5133915E+00;  0.0000000E+00; -5.0863471E-02;0;  8.6367726E-02;  3.5647164E+04;  0.0000000E+00; -2.0611268E-02;  4.0000000E+04;  0.0000000E+00;  3.9958371E+04;  1.1360600E-01;  0.0000000E+00; -2.7238276E-02;  2.9584854E+02;
  6.6106099E-01;  9.9999998E-03;  1.9994671E-02;6504;  9.7511979E-03;  0.0000000E+00; -5.1818241E-04;  1.0011975E+03;  1.0608685E-01;  9.9207062E+02;3;  6.5133901E+00;  0.0000000E+00;  5.0856251E-02;0;  8.6367749E-02;  3.5647172E+04;  0.0000000E+00; -2.0607004E-02;  4.0000000E+04;  0.0000000E+00;  3.9958371E+04;  1.1360601E-01;  0.0000000E+00; -2.7238265E-02;  2.9585150E+02;
  6.6105223E-01;  9.9999998E-03; -2.9991550E-02;6499;  9.6664829E-03;  0.0000000E+00;  7.7907869E-04;  1.0011614E+03;  1.0608841E-01;  9.6224432E+02;3;  6.4909554E+00;  0.0000000E+00; -7.1420513E-02;0;  8.6762205E-02;  3.5642887E+04;  0.0000000E+00; -4.7297962E-02;  4.0000000E+04;  0.0000000E+00;  3.9958723E+04;  1.1389562E-01;  0.0000000E+00; -2.7133416E-02;  2.5276727E+02;
  6.6105223E-01;  9.9999998E-03;  2.9991560E-02;6505;  9.6664550E-03;  0.0000000E+00; -7.7900756E-04;  1.0011614E+03;  1.0608827E-01;  9.6214557E+02;3;  6.4909234E+00;  0.0000000E+00;  7.1411602E-02;0;  8.6762108E-02;  3.5642883E+04;  0.0000000E+00; -4.7292095E-02;  4.0000000E+04;  0.0000000E+00;  3.9958723E+04;  1.1389549E-01;  0.0000000E+00; -2.7133385E-02;  2.5275369E+02;
  6.6104007E-01;  9.9999998E-03; -3.9988190E-02;6498;  9.5317410E-03;  0.0000000E+00;  1.0428980E-03;  1.0011134E+03;  1.0609008E-01;  9.2244299E+02;3;  6.4535232E+00;  0.0000000E+00; -9.4816953E-02;0;  8.7287754E-02;  3.5637523E+04;  0.0000000E+00; -8.5819669E-02;  4.0000000E+04;  0.0000000E+00;  3.9959207E+04;  1.1427060E-01;  0.0000000E+00; -2.6982842E-02;  2.3460657E+02;
  6.6104007E-01;  9.9999998E-03;  3.9988201E-02;6506;  9.5317466E-03;  0.0000000E+00; -1.0428240E-03;  1.0011134E+03;  1.0609008E-01;  9.2244299E+02;3;  6.4534907E+00;  0.0000000E+00;  9.4811782E-02;0;  8.7287821E-02;  3.5637523E+04;  0.0000000E+00; -8.5812882E-02;  4.0000000E+04;  0.0000000E+00;  3.9959207E+04;  1.1427064E-01;  0.0000000E+00; -2.6982822E-02;  2.3461366E+02;
  6.6102445E-01;  9.9999998E-03; -4.9985178E-02;6497;  9.3351286E-03;  0.0000000E+00;  1.3109016E-03;  1.0010536E+03;  1.0609205E-01;  8.7286414E+02;3;  6.3921008E+00;  0.0000000E+00; -1.1395968E-01;0;  8.7919533E-02;  3.5631590E+04;  0.0000000E+00; -1.3628542E-01;  4.0000000E+04;  0.0000000E+00;  3.9959316E+04;  1.1470253E-01;  0.0000000E+00; -2.6782995E-02;  2.6989365E+02;
  6.6102445E-01;  9.9999998E-03;  4.9985185E-02;6507;  9.3350979E-03;  0.0000000E+00; -1.3108253E-03;  1.0010535E+03;  1.0609199E-01;  8.7286414E+02;3;  6.3920655E+00;  0.0000000E+00;  1.1394585E-01;0;  8.7919503E-02;  3.5631594E+04;  0.0000000E+00; -1.3627990E-01;  4.0000000E+04;  0.0000000E+00;  3.9959316E+04;  1.1470246E-01;  0.0000000E+00; -2.6782963E-02;  2.6988669E+02;
  6.6100574E-01;  9.9999998E-03; -5.9982445E-02;6496;  9.0701757E-03;  0.0000000E+00;  1.5823020E-03;  1.0009976E+03;  1.0609499E-01;  8.2654443E+02;3;  6.3043542E+00;  0.0000000E+00; -1.2913363E-01;0;  8.8625923E-02;  3.5625289E+04;  0.0000000E+00; -1.9762440E-01;  4.0000000E+04;  0.0000000E+00;  3.9959461E+04;  1.1515587E-01;  0.0000000E+00; -2.6529945E-02;  3.5528915E+02;
  6.6100574E-01;  9.9999998E-03;  5.9982456E-02;6508;  9.0701533E-03;  0.0000000E+00; -1.5822225E-03;  1.0009976E+03;  1.0609499E-01;  8.2654443E+02;3;  6.3043375E+00;  0.0000000E+00;  1.2914373E-01;0;  8.8625960E-02;  3.5625297E+04;  0.0000000E+00; -1.9762404E-01;  4.0000000E+04;  0.0000000E+00;  3.9959461E+04;  1.1515577E-01;  0.0000000E+00; -2.6529813E-02;  3.5528476E+02;
  6.6098440E-01;  9.9999998E-03; -6.9980167E-02;6495;  8.7290946E-03;  0.0000000E+00;  1.8544485E-03;  1.0009452E+03;  1.0609844E-01;  7.8308893E+02;3;  6.1888809E+00;  0.0000000E+00; -1.4634633E-01;0;  8.9369528E-02;  3.5619250E+04;  0.0000000E+00; -2.6706916E-01;  4.0000000E+04;  0.0000000E+00;  3.9958875E+04;  1.1558940E-01;  0.0000000E+00; -2.6219876E-02;  4.7386902E+02;
  6.6096109E-01;  9.9999998E-03; -7.9978421E-02;6494;  8.3118966E-03;  0.0000000E+00;  2.1289238E-03;  1.0008969E+03;  1.0610209E-01;  7.4309003E+02;3;  6.0442691E+00;  0.0000000E+00; -1.6616042E-01;0;  9.0109512E-02;  3.5613359E+04;  0.0000000E+00; -3.3995590E-01;  4.0000000E+04;  0.0000000E+00;  3.9958195E+04;  1.1595892E-01;  0.0000000E+00; -2.5849413E-02;  6.1551971E+02;
  6.6093630E-01;  9.9999998E-03; -8.9977548E-02;6493;  7.8307623E-03;  0.0000000E+00;  2.4064858E-03;  1.0008576E+03;  1.0610646E-01;  7.1049835E+02;3;  5.8758178E+00;  0.0000000E+00; -1.8604673E-01;0;  9.0804271E-02;  3.5608438E+04;  0.0000000E+00; -4.0988681E-01;  4.0000000E+04;  0.0000000E+00;  3.9957238E+04;  1.1621890E-01;  0.0000000E+00; -2.5414633E-02;  7.7198108E+02;
  6.6091079E-01;  9.9999998E-03; -9.9977598E-02;6492;  7.3161218E-03;  0.0000000E+00;  2.6845552E-03;  1.0008323E+03;  1.0611106E-01;  6.8956067E+02;3;  5.6922050E+00;  0.0000000E+00; -1.9447906E-01;0;  9.1415755E-02;  3.5604203E+04;  0.0000000E+00; -4.6933562E-01;  4.0000000E+04;  0.0000000E+00;  3.9955988E+04;  1.1632521E-01;  0.0000000E+00; -2.4909452E-02;  9.3077100E+02;
  6.7092222E-01;  9.9999998E-03; -9.9963047E-02;6553;  1.0263002E-02;  0.0000000E+00;  2.5919105E-03;  1.0008469E+03;  1.0800669E-01;  7.0170850E+02;3;  6.3942800E+00;  0.0000000E+00; -2.1938080E-01;0;  9.5198654E-02;  3.4361633E+04;  0.0000000E+00; -4.8473692E-01;  4.0000000E+04;  0.0000000E+00;  3.9943672E+04;  1.2168048E-01;  0.0000000E+00; -2.6481824E-02;  9.7656207E+02;
  6.7092890E-01;  9.9999998E-03; -8.9963749E-02;6554;  1.0651186E-02;  0.0000000E+00;  2.2946631E-03;  1.0008382E+03;  1.0799950E-01;  6.9440009E+02;3;  6.5257387E+00;  0.0000000E+00; -1.9233064E-01;0;  9.4060205E-02;  3.4364793E+04;  0.0000000E+00; -4.3076396E-01;  4.0000000E+04;  0.0000000E+00;  3.9944988E+04;  1.2106980E-01;  0.0000000E+00; -2.7009590E-02;  8.2507367E+02;
  6.7093521E-01;  9.9999998E-03; -7.9965889E-02;6555;  1.0980180E-02;  0.0000000E+00;  2.0082979E-03;  1.0008463E+03;  1.0799278E-01;  7.0111591E+02;3;  6.6247840E+00;  0.0000000E+00; -1.6485022E-01;0;  9.2831552E-02;  3.4369168E+04;  0.0000000E+00; -3.6238119E-01;  4.0000000E+04;  0.0000000E+00;  3.9946145E+04;  1.2028857E-01;  0.0000000E+00; -2.7457021E-02;  6.6848175E+02;
  6.7094117E-01;  9.9999998E-03; -6.9969170E-02;6556;  1.1240857E-02;  0.0000000E+00;  1.7309183E-03;  1.0008687E+03;  1.0798662E-01;  7.1968329E+02;3;  6.6838856E+00;  0.0000000E+00; -1.2920280E-01;0;  9.1572352E-02;  3.4374340E+04;  0.0000000E+00; -2.8809693E-01;  4.0000000E+04;  0.0000000E+00;  3.9946855E+04;  1.1940331E-01;  0.0000000E+00; -2.7830960E-02;  5.2065027E+02;
  6.7094690E-01;  9.9999998E-03; -5.9973355E-02;6557;  1.1439530E-02;  0.0000000E+00;  1.4620012E-03;  1.0009098E+03;  1.0798125E-01;  7.5375641E+02;3;  6.7251449E+00;  0.0000000E+00; -1.0234968E-01;0;  9.0344191E-02;  3.4380395E+04;  0.0000000E+00; -2.1540608E-01;  4.0000000E+04;  0.0000000E+00;  3.9947430E+04;  1.1848141E-01;  0.0000000E+00; -2.8137220E-02;  3.9091980E+02;
  6.7095250E-01;  9.9999998E-03; -4.9977928E-02;6558;  1.1578107E-02;  0.0000000E+00;  1.2033292E-03;  1.0009568E+03;  1.0797668E-01;  7.9266888E+02;3;  6.7347932E+00;  0.0000000E+00; -7.1765088E-02;0;  8.9202307E-02;  3.4386875E+04;  0.0000000E+00; -1.4993937E-01;  4.0000000E+04;  0.0000000E+00;  3.9947391E+04;  1.1758384E-01;  0.0000000E+00; -2.8381534E-02;  2.9007312E+02;
  6.7095745E-01;  9.9999998E-03; -3.9982762E-02;6559;  1.1669220E-02;  0.0000000E+00;  9.5258123E-04;  1.0010023E+03;  1.0797307E-01;  8.3039618E+02;3;  6.7357459E+00;  0.0000000E+00; -5.2384831E-02;0;  8.8197604E-02;  3.4393168E+04;  0.0000000E+00; -9.5202133E-02;  4.0000000E+04;  0.0000000E+00;  3.9947109E+04;  1.1676759E-01;  0.0000000E+00; -2.8569985E-02;  2.3880054E+02;
  6.7096156E-01;  9.9999998E-03; -2.9987577E-02;6560;  1.1731690E-02;  0.0000000E+00;  7.0845470E-04;  1.0010503E+03;  1.0797056E-01;  8.7009875E+02;3;  6.7253060E+00;  0.0000000E+00; -3.5921890E-02;0;  8.7374069E-02;  3.4398797E+04;  0.0000000E+00; -5.2839328E-02;  4.0000000E+04;  0.0000000E+00;  3.9946637E+04;  1.1608305E-01;  0.0000000E+00; -2.8708978E-02;  2.4997029E+02;
  6.7096466E-01;  9.9999998E-03; -1.9991901E-02;6561;  1.1765966E-02;  0.0000000E+00;  4.7032678E-04;  1.0010853E+03;  1.0796814E-01;  8.9913501E+02;3;  6.7219644E+00;  0.0000000E+00; -2.3352465E-02;0;  8.6761676E-02;  3.4403250E+04;  0.0000000E+00; -2.3157647E-02;  4.0000000E+04;  0.0000000E+00;  3.9946078E+04;  1.1556571E-01;  0.0000000E+00; -2.8804032E-02;  2.9493594E+02;
  6.7096668E-01;  9.9999998E-03; -9.9960174E-03;6562;  1.1784862E-02;  0.0000000E+00;  2.3477322E-04;  1.0011124E+03;  1.0796691E-01;  9.2165289E+02;3;  6.7169251E+00;  0.0000000E+00; -9.5647536E-03;0;  8.6385295E-02;  3.4406148E+04;  0.0000000E+00; -5.7305829E-03;  4.0000000E+04;  0.0000000E+00;  3.9945766E+04;  1.1524465E-01;  0.0000000E+00; -2.8859355E-02;  3.3580161E+02;
  6.7096734E-01;  9.9999998E-03;  5.3666995E-09;6563;  1.1791045E-02;  0.0000000E+00;  3.4075210E-08;  1.0011208E+03;  1.0796670E-01;  9.2856628E+02;3;  6.7148881E+00;  0.0000000E+00;  1.1992884E-06;0;  8.6258441E-02;  3.4407141E+04;  0.0000000E+00; -5.5431031E-11;  4.0000000E+04;  0.0000000E+00;  3.9945898E+04;  1.1513597E-01;  0.0000000E+00; -2.8877530E-02;  3.5150638E+02;
  6.7096668E-01;  9.9999998E-03;  9.9960277E-03;6564;  1.1784868E-02;  0.0000000E+00; -2.3470468E-04;  1.0011125E+03;  1.0796720E-01;  9.2165289E+02;3;  6.7169390E+00;  0.0000000E+00;  9.5714917E-03;0;  8.6385325E-02;  3.4406148E+04;  0.0000000E+00; -5.7278606E-03;  4.0000000E+04;  0.0000000E+00;  3.9945766E+04;  1.1524466E-01;  0.0000000E+00; -2.8859340E-02;  3.3578516E+02;
  6.7096466E-01;  9.9999998E-03;  1.9991912E-02;6565;  1.1765923E-02;  0.0000000E+00; -4.7025681E-04;  1.0010851E+03;  1.0796822E-01;  8.9903625E+02;3;  6.7219343E+00;  0.0000000E+00;  2.3356639E-02;0;  8.6761676E-02;  3.4403250E+04;  0.0000000E+00; -2.3152312E-02;  4.0000000E+04;  0.0000000E+00;  3.9946078E+04;  1.1556566E-01;  0.0000000E+00; -2.8803984E-02;  2.9494202E+02;
  6.7096156E-01;  9.9999998E-03;  2.9987589E-02;6566;  1.1731708E-02;  0.0000000E+00; -7.0838316E-04;  1.0010504E+03;  1.0797051E-01;  8.7029633E+02;3;  6.7252975E+00;  0.0000000E+00;  3.5920981E-02;0;  8.7374002E-02;  3.4398797E+04;  0.0000000E+00; -5.2833017E-02;  4.0000000E+04;  0.0000000E+00;  3.9946637E+04;  1.1608294E-01;  0.0000000E+00; -2.8708946E-02;  2.4995380E+02;
  6.7095745E-01;  9.9999998E-03;  3.9982770E-02;6567;  1.1669200E-02;  0.0000000E+00; -9.5250824E-04;  1.0010023E+03;  1.0797307E-01;  8.3039618E+02;3;  6.7357540E+00;  0.0000000E+00;  5.2370541E-02;0;  8.8197552E-02;  3.4393168E+04;  0.0000000E+00; -9.5195591E-02;  4.0000000E+04;  0.0000000E+00;  3.9947113E+04;  1.1676752E-01;  0.0000000E+00; -2.8569965E-02;  2.3879439E+02;
  6.7095250E-01;  9.9999998E-03;  4.9977940E-02;6568;  1.1578116E-02;  0.0000000E+00; -1.2032519E-03;  1.0009568E+03;  1.0797677E-01;  7.9276764E+02;3;  6.7348080E+00;  0.0000000E+00;  7.1751878E-02;0;  8.9202493E-02;  3.4386871E+04;  0.0000000E+00; -1.4993340E-01;  4.0000000E+04;  0.0000000E+00;  3.9947391E+04;  1.1758395E-01;  0.0000000E+00; -2.8381459E-02;  2.9006509E+02;
  6.7094690E-01;  9.9999998E-03;  5.9973363E-02;6569;  1.1439528E-02;  0.0000000E+00; -1.4619195E-03;  1.0009099E+03;  1.0798122E-01;  7.5375641E+02;3;  6.7251434E+00;  0.0000000E+00;  1.0234588E-01;0;  9.0344168E-02;  3.4380391E+04;  0.0000000E+00; -2.1540362E-01;  4.0000000E+04;  0.0000000E+00;  3.9947430E+04;  1.1848131E-01;  0.0000000E+00; -2.8137142E-02;  3.9091644E+02;
  6.8094891E-01;  9.9999998E-03; -9.9962845E-02;6614;  1.2509669E-02;  0.0000000E+00;  2.5255794E-03;  1.0004044E+03;  1.1015628E-01;  3.3500284E+02;3;  6.6627402E+00;  0.0000000E+00; -7.9912990E-02;0;  9.6289158E-02;  3.3003895E+04;  0.0000000E+00; -4.0304282E-01;  4.0000000E+04;  0.0000000E+00;  3.9930305E+04;  1.2439462E-01;  0.0000000E+00; -2.8105464E-02;  8.9655750E+02;
  6.8093824E-01;  9.9999998E-03; -8.9963049E-02;6615;  1.2603540E-02;  0.0000000E+00;  2.2389530E-03;  1.0003436E+03;  1.1014520E-01;  2.8473267E+02;3;  6.6720643E+00;  0.0000000E+00; -3.8923372E-02;0;  9.4701417E-02;  3.3006242E+04;  0.0000000E+00; -3.6521271E-01;  4.0000000E+04;  0.0000000E+00;  3.9931367E+04;  1.2339337E-01;  0.0000000E+00; -2.8691953E-02;  7.6602332E+02;
  6.8092746E-01;  9.9999998E-03; -7.9964817E-02;6616;  1.2659374E-02;  0.0000000E+00;  1.9630594E-03;  1.0003076E+03;  1.1013468E-01;  2.5480759E+02;3;  6.6386657E+00;  0.0000000E+00;  8.6699808E-03;0;  9.3033135E-02;  3.3009426E+04;  0.0000000E+00; -3.1126520E-01;  4.0000000E+04;  0.0000000E+00;  3.9932215E+04;  1.2221959E-01;  0.0000000E+00; -2.9186456E-02;  6.2650543E+02;
  6.8091697E-01;  9.9999998E-03; -6.9967881E-02;6617;  1.2678221E-02;  0.0000000E+00;  1.6972220E-03;  1.0002958E+03;  1.1012568E-01;  2.4512885E+02;3;  6.6198187E+00;  0.0000000E+00;  2.5037207E-02;0;  9.1356963E-02;  3.3013699E+04;  0.0000000E+00; -2.4943052E-01;  4.0000000E+04;  0.0000000E+00;  3.9932902E+04;  1.2095289E-01;  0.0000000E+00; -2.9595928E-02;  4.9287036E+02;
  6.8090713E-01;  9.9999998E-03; -5.9972107E-02;6618;  1.2675559E-02;  0.0000000E+00;  1.4383974E-03;  1.0003036E+03;  1.1011732E-01;  2.5154842E+02;3;  6.6024928E+00;  0.0000000E+00;  3.8593486E-02;0;  8.9748435E-02;  3.3019441E+04;  0.0000000E+00; -1.8724823E-01;  4.0000000E+04;  0.0000000E+00;  3.9933160E+04;  1.1967583E-01;  0.0000000E+00; -2.9927395E-02;  3.7699899E+02;
  6.8089837E-01;  9.9999998E-03; -4.9977016E-02;6619;  1.2661705E-02;  0.0000000E+00;  1.1866454E-03;  1.0003275E+03;  1.1011066E-01;  2.7130093E+02;3;  6.5783939E+00;  0.0000000E+00;  4.5306284E-02;0;  8.8275030E-02;  3.3025758E+04;  0.0000000E+00; -1.3049082E-01;  4.0000000E+04;  0.0000000E+00;  3.9933293E+04;  1.1846326E-01;  0.0000000E+00; -3.0188225E-02;  2.9445016E+02;
  6.8089086E-01;  9.9999998E-03; -3.9982192E-02;6620;  1.2639067E-02;  0.0000000E+00;  9.4107073E-04;  1.0003608E+03;  1.1010469E-01;  2.9895450E+02;3;  6.5614195E+00;  0.0000000E+00;  3.9139625E-02;0;  8.6991221E-02;  3.3032258E+04;  0.0000000E+00; -8.2807191E-02;  4.0000000E+04;  0.0000000E+00;  3.9932797E+04;  1.1737807E-01;  0.0000000E+00; -3.0386850E-02;  2.6847418E+02;
  6.8088454E-01;  9.9999998E-03; -2.9987279E-02;6621;  1.2615530E-02;  0.0000000E+00;  7.0134859E-04;  1.0003969E+03;  1.1010028E-01;  3.2878079E+02;3;  6.5467720E+00;  0.0000000E+00;  3.5718936E-02;0;  8.5944779E-02;  3.3038234E+04;  0.0000000E+00; -4.5917533E-02;  4.0000000E+04;  0.0000000E+00;  3.9932391E+04;  1.1647613E-01;  0.0000000E+00; -3.0531352E-02;  3.0147430E+02;
  6.8087959E-01;  9.9999998E-03; -1.9992040E-02;6622;  1.2598497E-02;  0.0000000E+00;  4.6584447E-04;  1.0004310E+03;  1.1009674E-01;  3.5702692E+02;3;  6.5343518E+00;  0.0000000E+00;  2.5962656E-02;0;  8.5173048E-02;  3.3042871E+04;  0.0000000E+00; -2.0115418E-02;  4.0000000E+04;  0.0000000E+00;  3.9931852E+04;  1.1580206E-01;  0.0000000E+00; -3.0629015E-02;  3.5874811E+02;
  6.8087626E-01;  9.9999998E-03; -9.9963816E-03;6623;  1.2585346E-02;  0.0000000E+00;  2.3231191E-04;  1.0004524E+03;  1.1009508E-01;  3.7480420E+02;3;  6.5329938E+00;  0.0000000E+00;  1.3408119E-02;0;  8.4699079E-02;  3.3045965E+04;  0.0000000E+00; -4.9769203E-03;  4.0000000E+04;  0.0000000E+00;  3.9931410E+04;  1.1538438E-01;  0.0000000E+00; -3.0685302E-02;  4.0587888E+02;
  6.8087518E-01;  9.9999998E-03;  5.4436398E-09;6624;  1.2581091E-02;  0.0000000E+00;  3.5062140E-08;  1.0004591E+03;  1.1009413E-01;  3.8033490E+02;3;  6.5337596E+00;  0.0000000E+00;  7.7954701E-06;0;  8.4539548E-02;  3.3047059E+04;  0.0000000E+00; -6.6531773E-11;  4.0000000E+04;  0.0000000E+00;  3.9931367E+04;  1.1524324E-01;  0.0000000E+00; -3.0703692E-02;  4.2362241E+02;
  6.8087626E-01;  9.9999998E-03;  9.9963918E-03;6625;  1.2585340E-02;  0.0000000E+00; -2.3224205E-04;  1.0004524E+03;  1.1009508E-01;  3.7480420E+02;3;  6.5330029E+00;  0.0000000E+00; -1.3408682E-02;0;  8.4699124E-02;  3.3045965E+04;  0.0000000E+00; -4.9741357E-03;  4.0000000E+04;  0.0000000E+00;  3.9931410E+04;  1.1538441E-01;  0.0000000E+00; -3.0685280E-02;  4.0588956E+02;
  6.8087959E-01;  9.9999998E-03;  1.9992052E-02;6626;  1.2598496E-02;  0.0000000E+00; -4.6577264E-04;  1.0004310E+03;  1.1009681E-01;  3.5712567E+02;3;  6.5343642E+00;  0.0000000E+00; -2.5963357E-02;0;  8.5173130E-02;  3.3042867E+04;  0.0000000E+00; -2.0109965E-02;  4.0000000E+04;  0.0000000E+00;  3.9931855E+04;  1.1580209E-01;  0.0000000E+00; -3.0628955E-02;  3.5875095E+02;
  6.8088454E-01;  9.9999998E-03;  2.9987291E-02;6627;  1.2615516E-02;  0.0000000E+00; -7.0127443E-04;  1.0003969E+03;  1.1010028E-01;  3.2878079E+02;3;  6.5467691E+00;  0.0000000E+00; -3.5721742E-02;0;  8.5944980E-02;  3.3038234E+04;  0.0000000E+00; -4.5911860E-02;  4.0000000E+04;  0.0000000E+00;  3.9932391E+04;  1.1647630E-01;  0.0000000E+00; -3.0531315E-02;  3.0147595E+02;
  6.8089086E-01;  9.9999998E-03;  3.9982203E-02;6628;  1.2639054E-02;  0.0000000E+00; -9.4099512E-04;  1.0003608E+03;  1.1010469E-01;  2.9895450E+02;3;  6.5614257E+00;  0.0000000E+00; -3.9154928E-02;0;  8.6991437E-02;  3.3032254E+04;  0.0000000E+00; -8.2800560E-02;  4.0000000E+04;  0.0000000E+00;  3.9932797E+04;  1.1737821E-01;  0.0000000E+00; -3.0386778E-02;  2.6848178E+02;
  6.8089837E-01;  9.9999998E-03;  4.9977023E-02;6629;  1.2661717E-02;  0.0000000E+00; -1.1865653E-03;  1.0003276E+03;  1.1011063E-01;  2.7139972E+02;3;  6.5783968E+00;  0.0000000E+00; -4.5306455E-02;0;  8.8274971E-02;  3.3025762E+04;  0.0000000E+00; -1.3048664E-01;  4.0000000E+04;  0.0000000E+00;  3.9933293E+04;  1.1846316E-01;  0.0000000E+00; -3.0188186E-02;  2.9444873E+02;
  6.8090713E-01;  9.9999998E-03;  5.9972119E-02;6630;  1.2675562E-02;  0.0000000E+00; -1.4383128E-03;  1.0003037E+03;  1.1011732E-01;  2.5164719E+02;3;  6.6025019E+00;  0.0000000E+00; -3.8594209E-02;0;  8.9748487E-02;  3.3019434E+04;  0.0000000E+00; -1.8724680E-01;  4.0000000E+04;  0.0000000E+00;  3.9933160E+04;  1.1967584E-01;  0.0000000E+00; -2.9927349E-02;  3.7699420E+02;
  6.9154924E-01;  9.9999998E-03; -1.0000660E-01;6675;  1.3807881E-02;  0.0000000E+00;  2.6487035E-03;  9.9960596E+02;  1.1264547E-01; -3.2645987E+02;3;  6.4066982E+00;  0.0000000E+00;  2.3184991E-01;0;  9.4510913E-02;  3.1520459E+04;  0.0000000E+00; -2.1917102E-01;  4.0000000E+04;  0.0000000E+00;  3.9914461E+04;  1.2441900E-01;  0.0000000E+00; -2.9908085E-02;  6.8385852E+02;
  6.9151282E-01;  9.9999998E-03; -9.0002842E-02;6676;  1.3661723E-02;  0.0000000E+00;  2.3633419E-03;  9.9949054E+02;  1.1262806E-01; -4.2206210E+02;3;  6.3889923E+00;  0.0000000E+00;  2.3171322E-01;0;  9.2715010E-02;  3.1522182E+04;  0.0000000E+00; -2.0855252E-01;  4.0000000E+04;  0.0000000E+00;  3.9915340E+04;  1.2331426E-01;  0.0000000E+00; -3.0599251E-02;  5.8309729E+02;
  6.9147027E-01;  9.9999998E-03; -8.0000520E-02;6677;  1.3518161E-02;  0.0000000E+00;  2.0818212E-03;  9.9940515E+02;  1.1261085E-01; -4.9282553E+02;3;  6.3903556E+00;  0.0000000E+00;  2.1977489E-01;0;  9.0854846E-02;  3.1526020E+04;  0.0000000E+00; -1.8307090E-01;  4.0000000E+04;  0.0000000E+00;  3.9916203E+04;  1.2203774E-01;  0.0000000E+00; -3.1182894E-02;  4.7833838E+02;
  6.9142342E-01;  9.9999998E-03; -6.9998644E-02;6678;  1.3380576E-02;  0.0000000E+00;  1.8047574E-03;  9.9935217E+02;  1.1259457E-01; -5.3672552E+02;3;  6.3910704E+00;  0.0000000E+00;  2.0247652E-01;0;  8.9007631E-02;  3.1531846E+04;  0.0000000E+00; -1.4909759E-01;  4.0000000E+04;  0.0000000E+00;  3.9916621E+04;  1.2067287E-01;  0.0000000E+00; -3.1665247E-02;  3.8473227E+02;
  6.9137526E-01;  9.9999998E-03; -5.9997477E-02;6679;  1.3257642E-02;  0.0000000E+00;  1.5342914E-03;  9.9932721E+02;  1.1257912E-01; -5.5741632E+02;3;  6.3981895E+00;  0.0000000E+00;  1.8592645E-01;0;  8.7248549E-02;  3.1539334E+04;  0.0000000E+00; -1.1264073E-01;  4.0000000E+04;  0.0000000E+00;  3.9917148E+04;  1.1930271E-01;  0.0000000E+00; -3.2054164E-02;  3.1671884E+02;
  6.9132859E-01;  9.9999998E-03; -4.9997255E-02;6680;  1.3148545E-02;  0.0000000E+00;  1.2695229E-03;  9.9933124E+02;  1.1256533E-01; -5.5405835E+02;3;  6.4034109E+00;  0.0000000E+00;  1.5835965E-01;0;  8.5643247E-02;  3.1547869E+04;  0.0000000E+00; -7.8413591E-02;  4.0000000E+04;  0.0000000E+00;  3.9916887E+04;  1.1800219E-01;  0.0000000E+00; -3.2358948E-02;  2.9220776E+02;
  6.9128639E-01;  9.9999998E-03; -3.9997894E-02;6681;  1.3055428E-02;  0.0000000E+00;  1.0090256E-03;  9.9934821E+02;  1.1255291E-01; -5.3998468E+02;3;  6.4085727E+00;  0.0000000E+00;  1.2783881E-01;0;  8.4249377E-02;  3.1556482E+04;  0.0000000E+00; -4.9455725E-02;  4.0000000E+04;  0.0000000E+00;  3.9916621E+04;  1.1683926E-01;  0.0000000E+00; -3.2589883E-02;  3.2167151E+02;
  6.9125110E-01;  9.9999998E-03; -2.9998798E-02;6682;  1.2982422E-02;  0.0000000E+00;  7.5307867E-04;  9.9937366E+02;  1.1254330E-01; -5.1889886E+02;3;  6.4196234E+00;  0.0000000E+00;  9.3673892E-02;0;  8.3115637E-02;  3.1564457E+04;  0.0000000E+00; -2.7186094E-02;  4.0000000E+04;  0.0000000E+00;  3.9915922E+04;  1.1587291E-01;  0.0000000E+00; -3.2757275E-02;  3.8812732E+02;
  6.9122452E-01;  9.9999998E-03; -1.9999525E-02;6683;  1.2929953E-02;  0.0000000E+00;  5.0018326E-04;  9.9939880E+02;  1.1253632E-01; -4.9805994E+02;3;  6.4211965E+00;  0.0000000E+00;  6.3546523E-02;0;  8.2279161E-02;  3.1570709E+04;  0.0000000E+00; -1.1806500E-02;  4.0000000E+04;  0.0000000E+00;  3.9915504E+04;  1.1514921E-01;  0.0000000E+00; -3.2870043E-02;  4.6112970E+02;
  6.9120806E-01;  9.9999998E-03; -1.0000022E-02;6684;  1.2897342E-02;  0.0000000E+00;  2.4953092E-04;  9.9941650E+02;  1.1253200E-01; -4.8339371E+02;3;  6.4181151E+00;  0.0000000E+00;  3.1851385E-02;0;  8.1766352E-02;  3.1574730E+04;  0.0000000E+00; -2.9032796E-03;  4.0000000E+04;  0.0000000E+00;  3.9914910E+04;  1.1470130E-01;  0.0000000E+00; -3.2934953E-02;  5.1549615E+02;
  6.9120240E-01;  9.9999998E-03;  5.5336171E-09;6685;  1.2885712E-02;  0.0000000E+00;  3.7487482E-08;  9.9942114E+02;  1.1253030E-01; -4.7959134E+02;3;  6.4186230E+00;  0.0000000E+00;  1.1591183E-06;0;  8.1593201E-02;  3.1576199E+04;  0.0000000E+00; -6.7716825E-11;  4.0000000E+04;  0.0000000E+00;  3.9914863E+04;  1.1454931E-01;  0.0000000E+00; -3.2956108E-02;  5.3545239E+02;
  6.9120806E-01;  9.9999998E-03;  1.0000033E-02;6686;  1.2897328E-02;  0.0000000E+00; -2.4945618E-04;  9.9941644E+02;  1.1253189E-01; -4.8344308E+02;3;  6.4180923E+00;  0.0000000E+00; -3.1850688E-02;0;  8.1766270E-02;  3.1574738E+04;  0.0000000E+00; -2.9008377E-03;  4.0000000E+04;  0.0000000E+00;  3.9914910E+04;  1.1470123E-01;  0.0000000E+00; -3.2934956E-02;  5.1549402E+02;
  6.9122452E-01;  9.9999998E-03;  1.9999536E-02;6687;  1.2929922E-02;  0.0000000E+00; -5.0010753E-04;  9.9939868E+02;  1.1253625E-01; -4.9815872E+02;3;  6.4212089E+00;  0.0000000E+00; -6.3546278E-02;0;  8.2279325E-02;  3.1570713E+04;  0.0000000E+00; -1.1802072E-02;  4.0000000E+04;  0.0000000E+00;  3.9915500E+04;  1.1514937E-01;  0.0000000E+00; -3.2870051E-02;  4.6113779E+02;
  6.9125110E-01;  9.9999998E-03;  2.9998809E-02;6688;  1.2982389E-02;  0.0000000E+00; -7.5300172E-04;  9.9937354E+02;  1.1254327E-01; -5.1899762E+02;3;  6.4196234E+00;  0.0000000E+00; -9.3679674E-02;0;  8.3115719E-02;  3.1564457E+04;  0.0000000E+00; -2.7180912E-02;  4.0000000E+04;  0.0000000E+00;  3.9915926E+04;  1.1587293E-01;  0.0000000E+00; -3.2757215E-02;  3.8813501E+02;
  6.9128639E-01;  9.9999998E-03;  3.9997905E-02;6689;  1.3055424E-02;  0.0000000E+00; -1.0089454E-03;  9.9934827E+02;  1.1255290E-01; -5.3993530E+02;3;  6.4085646E+00;  0.0000000E+00; -1.2784719E-01;0;  8.4249333E-02;  3.1556486E+04;  0.0000000E+00; -4.9448565E-02;  4.0000000E+04;  0.0000000E+00;  3.9916617E+04;  1.1683917E-01;  0.0000000E+00; -3.2589834E-02;  3.2170654E+02;
  6.9132859E-01;  9.9999998E-03;  4.9997266E-02;6690;  1.3148524E-02;  0.0000000E+00; -1.2694397E-03;  9.9933124E+02;  1.1256533E-01; -5.5405835E+02;3;  6.4034104E+00;  0.0000000E+00; -1.5836273E-01;0;  8.5643366E-02;  3.1547871E+04;  0.0000000E+00; -7.8409359E-02;  4.0000000E+04;  0.0000000E+00;  3.9916887E+04;  1.1800225E-01;  0.0000000E+00; -3.2358889E-02;  2.9221353E+02;
  6.9137526E-01;  9.9999998E-03;  5.9997488E-02;6691;  1.3257624E-02;  0.0000000E+00; -1.5342059E-03;  9.9932721E+02;  1.1257912E-01; -5.5741632E+02;3;  6.3981814E+00;  0.0000000E+00; -1.8593077E-01;0;  8.7248564E-02;  3.1539336E+04;  0.0000000E+00; -1.1263908E-01;  4.0000000E+04;  0.0000000E+00;  3.9917152E+04;  1.1930268E-01;  0.0000000E+00; -3.2054108E-02;  3.1671780E+02;
  7.0369571E-01;  9.9999998E-03; -1.0016955E-01;6736;  1.4645259E-02;  0.0000000E+00;  2.9910093E-03;  9.9891199E+02;  1.1572332E-01; -9.0140656E+02;3;  6.0515428E+00;  0.0000000E+00;  5.6076795E-01;0;  8.9869320E-02;  2.9845307E+04;  0.0000000E+00;  6.7786194E-02;  4.0000000E+04;  0.0000000E+00;  3.9895707E+04;  1.2198953E-01;  0.0000000E+00; -3.2120217E-02;  5.1253235E+02;
  7.0368844E-01;  9.9999998E-03; -9.0156995E-02;6737;  1.4363059E-02;  0.0000000E+00;  2.6819368E-03;  9.9874060E+02;  1.1571142E-01; -1.0433778E+03;3;  6.0992775E+00;  0.0000000E+00;  5.1008016E-01;0;  8.8246197E-02;  2.9840877E+04;  0.0000000E+00;  4.2819470E-02;  4.0000000E+04;  0.0000000E+00;  3.9896457E+04;  1.2124489E-01;  0.0000000E+00; -3.2998692E-02;  4.1495432E+02;
  7.0366848E-01;  9.9999998E-03; -8.0145597E-02;6738;  1.4099349E-02;  0.0000000E+00;  2.3731738E-03;  9.9859839E+02;  1.1569832E-01; -1.1612017E+03;3;  6.1900992E+00;  0.0000000E+00;  4.3145865E-01;0;  8.6556718E-02;  2.9839295E+04;  0.0000000E+00;  2.6976667E-02;  4.0000000E+04;  0.0000000E+00;  3.9897145E+04;  1.2030780E-01;  0.0000000E+00; -3.3751082E-02;  3.3251724E+02;
  7.0363724E-01;  9.9999998E-03; -7.0134573E-02;6739;  1.3859989E-02;  0.0000000E+00;  2.0653824E-03;  9.9849713E+02;  1.1568467E-01; -1.2451005E+03;3;  6.2528281E+00;  0.0000000E+00;  3.8165638E-01;0;  8.4870681E-02;  2.9840656E+04;  0.0000000E+00;  1.7630937E-02;  4.0000000E+04;  0.0000000E+00;  3.9897488E+04;  1.1925156E-01;  0.0000000E+00; -3.4380883E-02;  2.8185590E+02;
  7.0359778E-01;  9.9999998E-03; -6.0122874E-02;6740;  1.3648251E-02;  0.0000000E+00;  1.7598124E-03;  9.9843256E+02;  1.1567078E-01; -1.2985804E+03;3;  6.3008108E+00;  0.0000000E+00;  3.2701528E-01;0;  8.3255097E-02;  2.9844533E+04;  0.0000000E+00;  1.2240551E-02;  4.0000000E+04;  0.0000000E+00;  3.9897734E+04;  1.1815020E-01;  0.0000000E+00; -3.4895107E-02;  2.7337500E+02;
  7.0355374E-01;  9.9999998E-03; -5.0109625E-02;6741;  1.3463974E-02;  0.0000000E+00;  1.4572549E-03;  9.9840460E+02;  1.1565778E-01; -1.3217404E+03;3;  6.3430424E+00;  0.0000000E+00;  2.6693347E-01;0;  8.1771217E-02;  2.9850490E+04;  0.0000000E+00;  8.8478997E-03;  4.0000000E+04;  0.0000000E+00;  3.9897453E+04;  1.1707450E-01;  0.0000000E+00; -3.5303280E-02;  3.0806195E+02;
  7.0350939E-01;  9.9999998E-03; -4.0094245E-02;6742;  1.3314716E-02;  0.0000000E+00;  1.1592816E-03;  9.9839722E+02;  1.1564524E-01; -1.3278635E+03;3;  6.3685608E+00;  0.0000000E+00;  2.1185651E-01;0;  8.0477297E-02;  2.9857357E+04;  0.0000000E+00;  6.2557324E-03;  4.0000000E+04;  0.0000000E+00;  3.9897070E+04;  1.1609381E-01;  0.0000000E+00; -3.5616506E-02;  3.7699408E+02;
  7.0346951E-01;  9.9999998E-03; -3.0075677E-02;6743;  1.3201668E-02;  0.0000000E+00;  8.6573034E-04;  9.9840332E+02;  1.1563516E-01; -1.3228267E+03;3;  6.3876243E+00;  0.0000000E+00;  1.5871696E-01;0;  7.9420485E-02;  2.9864166E+04;  0.0000000E+00;  3.9557721E-03;  4.0000000E+04;  0.0000000E+00;  3.9896715E+04;  1.1526674E-01;  0.0000000E+00; -3.5846256E-02;  4.6312485E+02;
  7.0343792E-01;  9.9999998E-03; -2.0053230E-02;6744;  1.3119657E-02;  0.0000000E+00;  5.7560531E-04;  9.9841626E+02;  1.1562708E-01; -1.3121110E+03;3;  6.3994427E+00;  0.0000000E+00;  1.0694671E-01;0;  7.8637004E-02;  2.9869959E+04;  0.0000000E+00;  1.9484700E-03;  4.0000000E+04;  0.0000000E+00;  3.9895773E+04;  1.1463960E-01;  0.0000000E+00; -3.6002602E-02;  5.4560498E+02;
  7.0341790E-01;  9.9999998E-03; -1.0027644E-02;6745;  1.3072372E-02;  0.0000000E+00;  2.8742064E-04;  9.9843060E+02;  1.1562194E-01; -1.3002101E+03;3;  6.4074268E+00;  0.0000000E+00;  5.2636847E-02;0;  7.8155935E-02;  2.9873812E+04;  0.0000000E+00;  5.2190240E-04;  4.0000000E+04;  0.0000000E+00;  3.9895328E+04;  1.1424915E-01;  0.0000000E+00; -3.6093209E-02;  6.0461426E+02;
  7.0341098E-01;  9.9999998E-03;  5.2965592E-09;6746;  1.3056532E-02;  0.0000000E+00;  4.1148983E-08;  9.9843427E+02;  1.1562067E-01; -1.2971978E+03;3;  6.4104886E+00;  0.0000000E+00; -3.8551007E-06;0;  7.7993602E-02;  2.9875092E+04;  0.0000000E+00; -6.0183469E-11;  4.0000000E+04;  0.0000000E+00;  3.9895172E+04;  1.1411650E-01;  0.0000000E+00; -3.6122900E-02;  6.2603931E+02;
  7.0341790E-01;  9.9999998E-03;  1.0027654E-02;6747;  1.3072371E-02;  0.0000000E+00; -2.8733793E-04;  9.9843066E+02;  1.1562190E-01; -1.3001606E+03;3;  6.4074235E+00;  0.0000000E+00; -5.2647285E-02;0;  7.8155845E-02;  2.9873811E+04;  0.0000000E+00;  5.2363880E-04;  4.0000000E+04;  0.0000000E+00;  3.9895336E+04;  1.1424904E-01;  0.0000000E+00; -3.6093198E-02;  6.0461316E+02;
  7.0343792E-01;  9.9999998E-03;  2.0053240E-02;6748;  1.3119644E-02;  0.0000000E+00; -5.7552231E-04;  9.9841626E+02;  1.1562708E-01; -1.3121110E+03;3;  6.3994360E+00;  0.0000000E+00; -1.0695741E-01;0;  7.8636929E-02;  2.9869961E+04;  0.0000000E+00;  1.9515698E-03;  4.0000000E+04;  0.0000000E+00;  3.9895773E+04;  1.1463948E-01;  0.0000000E+00; -3.6002547E-02;  5.4561609E+02;
  7.0346951E-01;  9.9999998E-03;  3.0075686E-02;6749;  1.3201655E-02;  0.0000000E+00; -8.6564617E-04;  9.9840332E+02;  1.1563516E-01; -1.3228267E+03;3;  6.3876305E+00;  0.0000000E+00; -1.5873097E-01;0;  7.9420507E-02;  2.9864168E+04;  0.0000000E+00;  3.9595929E-03;  4.0000000E+04;  0.0000000E+00;  3.9896715E+04;  1.1526673E-01;  0.0000000E+00; -3.5846226E-02;  4.6315460E+02;
  7.0350939E-01;  9.9999998E-03;  4.0094256E-02;6750;  1.3314698E-02;  0.0000000E+00; -1.1591953E-03;  9.9839722E+02;  1.1564524E-01; -1.3278635E+03;3;  6.3685689E+00;  0.0000000E+00; -2.1186325E-01;0;  8.0477379E-02;  2.9857363E+04;  0.0000000E+00;  6.2592570E-03;  4.0000000E+04;  0.0000000E+00;  3.9897070E+04;  1.1609387E-01;  0.0000000E+00; -3.5616487E-02;  3.7700150E+02;
  7.0355374E-01;  9.9999998E-03;  5.0109632E-02;6751;  1.3463929E-02;  0.0000000E+00; -1.4571660E-03;  9.9840442E+02;  1.1565779E-01; -1.3218884E+03;3;  6.3430481E+00;  0.0000000E+00; -2.6693866E-01;0;  8.1771120E-02;  2.9850496E+04;  0.0000000E+00;  8.8520870E-03;  4.0000000E+04;  0.0000000E+00;  3.9897453E+04;  1.1707436E-01;  0.0000000E+00; -3.5303239E-02;  3.0807535E+02;
  7.0359778E-01;  9.9999998E-03;  6.0122885E-02;6752;  1.3648222E-02;  0.0000000E+00; -1.7597214E-03;  9.9843250E+02;  1.1567055E-01; -1.2986299E+03;3;  6.3008070E+00;  0.0000000E+00; -3.2701340E-01;0;  8.3255045E-02;  2.9844533E+04;  0.0000000E+00;  1.2242108E-02;  4.0000000E+04;  0.0000000E+00;  3.9897738E+04;  1.1815011E-01;  0.0000000E+00; -3.4895062E-02;  2.7338889E+02;
  7.1658909E-01;  9.9999998E-03; -1.0029427E-01;6797;  1.5473905E-02;  0.0000000E+00;  3.5058549E-03;  9.9896637E+02;  1.1931013E-01; -8.5632141E+02;3;  5.8824191E+00;  0.0000000E+00;  8.1291783E-01;0;  8.3337814E-02;  2.8105299E+04;  0.0000000E+00;  3.7369871E-01;  4.0000000E+04;  0.0000000E+00;  3.9875535E+04;  1.1802925E-01;  0.0000000E+00; -3.4691434E-02;  8.3488257E+02;
  7.1663088E-01;  9.9999998E-03; -9.0274535E-02;6798;  1.5123127E-02;  0.0000000E+00;  3.1598434E-03;  9.9877838E+02;  1.1931047E-01; -1.0120701E+03;3;  6.0086236E+00;  0.0000000E+00;  7.3493779E-01;0;  8.2317650E-02;  2.8094453E+04;  0.0000000E+00;  3.1706983E-01;  4.0000000E+04;  0.0000000E+00;  3.9876074E+04;  1.1814436E-01;  0.0000000E+00; -3.5826709E-02;  7.0787921E+02;
  7.1665806E-01;  9.9999998E-03; -8.0253676E-02;6799;  1.4786066E-02;  0.0000000E+00;  2.8069338E-03;  9.9862665E+02;  1.1931025E-01; -1.1377949E+03;3;  6.1373210E+00;  0.0000000E+00;  6.3724917E-01;0;  8.1211656E-02;  2.8086324E+04;  0.0000000E+00;  2.5978571E-01;  4.0000000E+04;  0.0000000E+00;  3.9876496E+04;  1.1802855E-01;  0.0000000E+00; -3.6816899E-02;  5.8267712E+02;
  7.1667111E-01;  9.9999998E-03; -7.0231274E-02;6800;  1.4470359E-02;  0.0000000E+00;  2.4522615E-03;  9.9851117E+02;  1.1930910E-01; -1.2334465E+03;3;  6.2359271E+00;  0.0000000E+00;  5.4355961E-01;0;  8.0072224E-02;  2.8081279E+04;  0.0000000E+00;  2.0420763E-01;  4.0000000E+04;  0.0000000E+00;  3.9876816E+04;  1.1773389E-01;  0.0000000E+00; -3.7661668E-02;  4.7411545E+02;
  7.1667141E-01;  9.9999998E-03; -6.0207039E-02;6801;  1.4185570E-02;  0.0000000E+00;  2.0968528E-03;  9.9843738E+02;  1.1930643E-01; -1.2945806E+03;3;  6.3105483E+00;  0.0000000E+00;  4.6453905E-01;0;  7.8952923E-02;  2.8079068E+04;  0.0000000E+00;  1.5262955E-01;  4.0000000E+04;  0.0000000E+00;  3.9876641E+04;  1.1731827E-01;  0.0000000E+00; -3.8365342E-02;  3.9785880E+02;
  7.1666270E-01;  9.9999998E-03; -5.0180744E-02;6802;  1.3937874E-02;  0.0000000E+00;  1.7422778E-03;  9.9839697E+02;  1.1930332E-01; -1.3280612E+03;3;  6.3589244E+00;  0.0000000E+00;  3.7781787E-01;0;  7.7904001E-02;  2.8079270E+04;  0.0000000E+00;  1.0701493E-01;  4.0000000E+04;  0.0000000E+00;  3.9876449E+04;  1.1684041E-01;  0.0000000E+00; -3.8936410E-02;  3.7272296E+02;
  7.1664637E-01;  9.9999998E-03; -4.0150937E-02;6803;  1.3732614E-02;  0.0000000E+00;  1.3907575E-03;  9.9838367E+02;  1.1929952E-01; -1.3391226E+03;3;  6.3917732E+00;  0.0000000E+00;  3.0203825E-01;0;  7.6973796E-02;  2.8081494E+04;  0.0000000E+00;  6.8762317E-02;  4.0000000E+04;  0.0000000E+00;  3.9875789E+04;  1.1635787E-01;  0.0000000E+00; -3.9384078E-02;  4.0662836E+02;
  7.1662498E-01;  9.9999998E-03; -3.0117111E-02;6804;  1.3569392E-02;  0.0000000E+00;  1.0406475E-03;  9.9838702E+02;  1.1929509E-01; -1.3363077E+03;3;  6.4272628E+00;  0.0000000E+00;  2.2362886E-01;0;  7.6202646E-02;  2.8084746E+04;  0.0000000E+00;  3.8697302E-02;  4.0000000E+04;  0.0000000E+00;  3.9875164E+04;  1.1592091E-01;  0.0000000E+00; -3.9718263E-02;  4.7970917E+02;
  7.1660370E-01;  9.9999998E-03; -2.0080289E-02;6805;  1.3452167E-02;  0.0000000E+00;  6.9218472E-04;  9.9840106E+02;  1.1929139E-01; -1.3247031E+03;3;  6.4468231E+00;  0.0000000E+00;  1.4932281E-01;0;  7.5626522E-02;  2.8088242E+04;  0.0000000E+00;  1.7178301E-02;  4.0000000E+04;  0.0000000E+00;  3.9874488E+04;  1.1557505E-01;  0.0000000E+00; -3.9948530E-02;  5.5960437E+02;
  7.1658826E-01;  9.9999998E-03; -1.0041146E-02;6806;  1.3384026E-02;  0.0000000E+00;  3.4557751E-04;  9.9840674E+02;  1.1928820E-01; -1.3199625E+03;3;  6.4627047E+00;  0.0000000E+00;  7.2625712E-02;0;  7.5270712E-02;  2.8090738E+04;  0.0000000E+00;  4.2886785E-03;  4.0000000E+04;  0.0000000E+00;  3.9874098E+04;  1.1535379E-01;  0.0000000E+00; -4.0083077E-02;  6.1923419E+02;
  7.1658266E-01;  9.9999998E-03;  4.5070916E-09;6807;  1.3360236E-02;  0.0000000E+00;  4.5572712E-08;  9.9840997E+02;  1.1928692E-01; -1.3172960E+03;3;  6.4649282E+00;  0.0000000E+00; -1.0903097E-05;0;  7.5149983E-02;  2.8091662E+04;  0.0000000E+00; -4.2882076E-11;  4.0000000E+04;  0.0000000E+00;  3.9873906E+04;  1.1527736E-01;  0.0000000E+00; -4.0127385E-02;  6.4112097E+02;
  7.1658826E-01;  9.9999998E-03;  1.0041155E-02;6808;  1.3384029E-02;  0.0000000E+00; -3.4548607E-04;  9.9840680E+02;  1.1928800E-01; -1.3199132E+03;3;  6.4626937E+00;  0.0000000E+00; -7.2644949E-02;0;  7.5270727E-02;  2.8090740E+04;  0.0000000E+00;  4.2893104E-03;  4.0000000E+04;  0.0000000E+00;  3.9874094E+04;  1.1535382E-01;  0.0000000E+00; -4.0083092E-02;  6.1924408E+02;
  7.1660370E-01;  9.9999998E-03;  2.0080298E-02;6809;  1.3452154E-02;  0.0000000E+00; -6.9209235E-04;  9.9840100E+02;  1.1929139E-01; -1.3247526E+03;3;  6.4468346E+00;  0.0000000E+00; -1.4934516E-01;0;  7.5626589E-02;  2.8088250E+04;  0.0000000E+00;  1.7179646E-02;  4.0000000E+04;  0.0000000E+00;  3.9874488E+04;  1.1557508E-01;  0.0000000E+00; -3.9948486E-02;  5.5961182E+02;
  7.1662498E-01;  9.9999998E-03;  3.0117121E-02;6810;  1.3569390E-02;  0.0000000E+00; -1.0405541E-03;  9.9838715E+02;  1.1929507E-01; -1.3362090E+03;3;  6.4272733E+00;  0.0000000E+00; -2.2364978E-01;0;  7.6202914E-02;  2.8084748E+04;  0.0000000E+00;  3.8698237E-02;  4.0000000E+04;  0.0000000E+00;  3.9875164E+04;  1.1592110E-01;  0.0000000E+00; -3.9718181E-02;  4.7970999E+02;
  7.1664637E-01;  9.9999998E-03;  4.0150948E-02;6811;  1.3732604E-02;  0.0000000E+00; -1.3906629E-03;  9.9838373E+02;  1.1929952E-01; -1.3390731E+03;3;  6.3917642E+00;  0.0000000E+00; -3.0205497E-01;0;  7.6973863E-02;  2.8081490E+04;  0.0000000E+00;  6.8762355E-02;  4.0000000E+04;  0.0000000E+00;  3.9875781E+04;  1.1635789E-01;  0.0000000E+00; -3.9384022E-02;  4.0663611E+02;
  7.1666270E-01;  9.9999998E-03;  5.0180756E-02;6812;  1.3937840E-02;  0.0000000E+00; -1.7421802E-03;  9.9839685E+02;  1.1930332E-01; -1.3281599E+03;3;  6.3589282E+00;  0.0000000E+00; -3.7782574E-01;0;  7.7904046E-02;  2.8079266E+04;  0.0000000E+00;  1.0701444E-01;  4.0000000E+04;  0.0000000E+00;  3.9876449E+04;  1.1684039E-01;  0.0000000E+00; -3.8936347E-02;  3.7274515E+02;
  7.1667135E-01;  9.9999998E-03;  6.0207047E-02;6813;  1.4185528E-02;  0.0000000E+00; -2.0967538E-03;  9.9843726E+02;  1.1930644E-01; -1.2946793E+03;3;  6.3105512E+00;  0.0000000E+00; -4.6454245E-01;0;  7.8952864E-02;  2.8079061E+04;  0.0000000E+00;  1.5262946E-01;  4.0000000E+04;  0.0000000E+00;  3.9876641E+04;  1.1731820E-01;  0.0000000E+00; -3.8365338E-02;  3.9787027E+02;
  7.2867429E-01;  9.9999998E-03; -1.0030667E-01;6858;  1.6460393E-02;  0.0000000E+00;  4.0797926E-03;  9.9929260E+02;  1.2296838E-01; -5.8605743E+02;3;  5.7977252E+00;  0.0000000E+00;  9.9882615E-01;0;  7.6485105E-02;  2.6496889E+04;  0.0000000E+00;  5.7500887E-01;  4.0000000E+04;  0.0000000E+00;  3.9855980E+04;  1.1381822E-01;  0.0000000E+00; -3.7333116E-02;  1.2596653E+03;
  7.2871715E-01;  9.9999998E-03; -9.0279296E-02;6859;  1.6097881E-02;  0.0000000E+00;  3.6935175E-03;  9.9913007E+02;  1.2296856E-01; -7.2072028E+02;3;  5.9851618E+00;  0.0000000E+00;  9.0744805E-01;0;  7.6315194E-02;  2.6488107E+04;  0.0000000E+00;  5.0256664E-01;  4.0000000E+04;  0.0000000E+00;  3.9856531E+04;  1.1504447E-01;  0.0000000E+00; -3.8729277E-02;  1.1054647E+03;
  7.2874343E-01;  9.9999998E-03; -8.0251075E-02;6860;  1.5730791E-02;  0.0000000E+00;  3.2963457E-03;  9.9900146E+02;  1.2296765E-01; -8.2728510E+02;3;  6.1676121E+00;  0.0000000E+00;  7.9268032E-01;0;  7.6032415E-02;  2.6481566E+04;  0.0000000E+00;  4.1913572E-01;  4.0000000E+04;  0.0000000E+00;  3.9857164E+04;  1.1599201E-01;  0.0000000E+00; -3.9959591E-02;  9.2560388E+02;
  7.2875267E-01;  9.9999998E-03; -7.0222333E-02;6861;  1.5366377E-02;  0.0000000E+00;  2.8936951E-03;  9.9890857E+02;  1.2296528E-01; -9.0422119E+02;3;  6.2911205E+00;  0.0000000E+00;  6.9812614E-01;0;  7.5668305E-02;  2.6477740E+04;  0.0000000E+00;  3.3193833E-01;  4.0000000E+04;  0.0000000E+00;  3.9857113E+04;  1.1668863E-01;  0.0000000E+00; -4.1020323E-02;  7.3993872E+02;
  7.2874844E-01;  9.9999998E-03; -6.0193006E-02;6862;  1.5021918E-02;  0.0000000E+00;  2.4833821E-03;  9.9886194E+02;  1.2296305E-01; -9.4288678E+02;3;  6.4158545E+00;  0.0000000E+00;  5.8680737E-01;0;  7.5256422E-02;  2.6476342E+04;  0.0000000E+00;  2.4800315E-01;  4.0000000E+04;  0.0000000E+00;  3.9857223E+04;  1.1717081E-01;  0.0000000E+00; -4.1914392E-02;  5.6924280E+02;
  7.2873396E-01;  9.9999998E-03; -5.0164137E-02;6863;  1.4708881E-02;  0.0000000E+00;  2.0700335E-03;  9.9883887E+02;  1.2296022E-01; -9.6199731E+02;3;  6.4978409E+00;  0.0000000E+00;  4.7745901E-01;0;  7.4831039E-02;  2.6477188E+04;  0.0000000E+00;  1.7288385E-01;  4.0000000E+04;  0.0000000E+00;  3.9857059E+04;  1.1747981E-01;  0.0000000E+00; -4.2648770E-02;  4.3955106E+02;
  7.2871447E-01;  9.9999998E-03; -4.0135972E-02;6864;  1.4446057E-02;  0.0000000E+00;  1.6558643E-03;  9.9883936E+02;  1.2295786E-01; -9.6155292E+02;3;  6.5416760E+00;  0.0000000E+00;  3.7575859E-01;0;  7.4426934E-02;  2.6479199E+04;  0.0000000E+00;  1.1011948E-01;  4.0000000E+04;  0.0000000E+00;  3.9856293E+04;  1.1765952E-01;  0.0000000E+00; -4.3232586E-02;  3.8316995E+02;
  7.2869277E-01;  9.9999998E-03; -3.0106194E-02;6865;  1.4235641E-02;  0.0000000E+00;  1.2417295E-03;  9.9885077E+02;  1.2295512E-01; -9.5212109E+02;3;  6.5664635E+00;  0.0000000E+00;  2.7574408E-01;0;  7.4075319E-02;  2.6481982E+04;  0.0000000E+00;  6.1374012E-02;  4.0000000E+04;  0.0000000E+00;  3.9855828E+04;  1.1775011E-01;  0.0000000E+00; -4.3674789E-02;  4.0665112E+02;
  7.2867244E-01;  9.9999998E-03; -2.0073812E-02;6866;  1.4080167E-02;  0.0000000E+00;  8.2770595E-04;  9.9886792E+02;  1.2295192E-01; -9.3789923E+02;3;  6.5789042E+00;  0.0000000E+00;  1.8498848E-01;0;  7.3802799E-02;  2.6484863E+04;  0.0000000E+00;  2.7011216E-02;  4.0000000E+04;  0.0000000E+00;  3.9855070E+04;  1.1778628E-01;  0.0000000E+00; -4.3983482E-02;  4.6803922E+02;
  7.2865796E-01;  9.9999998E-03; -1.0038430E-02;6867;  1.3987486E-02;  0.0000000E+00;  4.1388685E-04;  9.9888312E+02;  1.2294951E-01; -9.2530701E+02;3;  6.5889387E+00;  0.0000000E+00;  9.1370128E-02;0;  7.3630825E-02;  2.6487016E+04;  0.0000000E+00;  6.7042555E-03;  4.0000000E+04;  0.0000000E+00;  3.9854766E+04;  1.1779642E-01;  0.0000000E+00; -4.4165593E-02;  5.2188562E+02;
  7.2865289E-01;  9.9999998E-03;  4.7924620E-09;6868;  1.3955127E-02;  0.0000000E+00;  5.0451309E-08;  9.9888654E+02;  1.2294918E-01; -9.2249231E+02;3;  6.5904741E+00;  0.0000000E+00; -1.0611524E-05;0;  7.3571585E-02;  2.6487748E+04;  0.0000000E+00; -1.7329714E-11;  4.0000000E+04;  0.0000000E+00;  3.9854590E+04;  1.1779740E-01;  0.0000000E+00; -4.4225819E-02;  5.4253888E+02;
  7.2865796E-01;  9.9999998E-03;  1.0038439E-02;6869;  1.3987490E-02;  0.0000000E+00; -4.1378618E-04;  9.9888330E+02;  1.2294998E-01; -9.2515887E+02;3;  6.5889382E+00;  0.0000000E+00; -9.1399409E-02;0;  7.3630698E-02;  2.6487016E+04;  0.0000000E+00;  6.7039980E-03;  4.0000000E+04;  0.0000000E+00;  3.9854766E+04;  1.1779627E-01;  0.0000000E+00; -4.4165574E-02;  5.2189819E+02;
  7.2867244E-01;  9.9999998E-03;  2.0073822E-02;6870;  1.4080162E-02;  0.0000000E+00; -8.2760432E-04;  9.9886786E+02;  1.2295161E-01; -9.3794867E+02;3;  6.5789161E+00;  0.0000000E+00; -1.8501341E-01;0;  7.3802918E-02;  2.6484867E+04;  0.0000000E+00;  2.7010703E-02;  4.0000000E+04;  0.0000000E+00;  3.9855070E+04;  1.1778634E-01;  0.0000000E+00; -4.3983418E-02;  4.6806210E+02;
  7.2869277E-01;  9.9999998E-03;  3.0106205E-02;6871;  1.4235643E-02;  0.0000000E+00; -1.2416275E-03;  9.9885101E+02;  1.2295491E-01; -9.5192352E+02;3;  6.5664582E+00;  0.0000000E+00; -2.7576908E-01;0;  7.4075356E-02;  2.6481982E+04;  0.0000000E+00;  6.1372429E-02;  4.0000000E+04;  0.0000000E+00;  3.9855824E+04;  1.1775011E-01;  0.0000000E+00; -4.3674756E-02;  4.0663586E+02;
  7.2871447E-01;  9.9999998E-03;  4.0135983E-02;6872;  1.4446047E-02;  0.0000000E+00; -1.6557612E-03;  9.9883936E+02;  1.2295786E-01; -9.6155292E+02;3;  6.5416799E+00;  0.0000000E+00; -3.7578285E-01;0;  7.4427024E-02;  2.6479199E+04;  0.0000000E+00;  1.1011741E-01;  4.0000000E+04;  0.0000000E+00;  3.9856285E+04;  1.1765955E-01;  0.0000000E+00; -4.3232530E-02;  3.8316608E+02;
  7.2873396E-01;  9.9999998E-03;  5.0164148E-02;6873;  1.4708865E-02;  0.0000000E+00; -2.0699287E-03;  9.9883893E+02;  1.2296023E-01; -9.6194794E+02;3;  6.4978356E+00;  0.0000000E+00; -4.7747561E-01;0;  7.4831009E-02;  2.6477184E+04;  0.0000000E+00;  1.7288265E-01;  4.0000000E+04;  0.0000000E+00;  3.9857059E+04;  1.1747977E-01;  0.0000000E+00; -4.2648759E-02;  4.3955365E+02;
  7.2874844E-01;  9.9999998E-03;  6.0193017E-02;6874;  1.5021892E-02;  0.0000000E+00; -2.4832757E-03;  9.9886194E+02;  1.2296245E-01; -9.4288678E+02;3;  6.4158401E+00;  0.0000000E+00; -5.8681399E-01;0;  7.5256385E-02;  2.6476338E+04;  0.0000000E+00;  2.4800134E-01;  4.0000000E+04;  0.0000000E+00;  3.9857223E+04;  1.1717079E-01;  0.0000000E+00; -4.1914403E-02;  5.6924969E+02;
  7.4075568E-01;  9.9999998E-03; -1.0031199E-01;6919;  1.7773269E-02;  0.0000000E+00;  4.7178157E-03;  9.9948083E+02;  1.2681669E-01; -4.3011124E+02;3;  5.7297692E+00;  0.0000000E+00;  1.1297519E+00;0;  6.9123551E-02;  2.4941424E+04;  0.0000000E+00;  6.3919675E-01;  4.0000000E+04;  0.0000000E+00;  3.9836617E+04;  1.0929811E-01;  0.0000000E+00; -4.0174562E-02;  1.5112388E+03;
  7.4081504E-01;  9.9999998E-03; -9.0277322E-02;6920;  1.7461449E-02;  0.0000000E+00;  4.2930571E-03;  9.9939294E+02;  1.2681960E-01; -5.0294867E+02;3;  6.0000124E+00;  0.0000000E+00;  1.0437530E+00;0;  6.9877520E-02;  2.4934451E+04;  0.0000000E+00;  5.7036340E-01;  4.0000000E+04;  0.0000000E+00;  3.9837359E+04;  1.1171980E-01;  0.0000000E+00; -4.1842278E-02;  1.3613693E+03;
  7.4085951E-01;  9.9999998E-03; -8.0242172E-02;6921;  1.7114209E-02;  0.0000000E+00;  3.8476319E-03;  9.9933051E+02;  1.2682231E-01; -5.5465088E+02;3;  6.2736516E+00;  0.0000000E+00;  9.1809922E-01;0;  7.0496656E-02;  2.4929010E+04;  0.0000000E+00;  4.8098078E-01;  4.0000000E+04;  0.0000000E+00;  3.9837879E+04;  1.1382065E-01;  0.0000000E+00; -4.3323994E-02;  1.1587222E+03;
  7.4089020E-01;  9.9999998E-03; -7.0207164E-02;6922;  1.6741896E-02;  0.0000000E+00;  3.3927502E-03;  9.9929724E+02;  1.2682430E-01; -5.8220569E+02;3;  6.4486346E+00;  0.0000000E+00;  8.0952615E-01;0;  7.0991695E-02;  2.4925373E+04;  0.0000000E+00;  3.8214999E-01;  4.0000000E+04;  0.0000000E+00;  3.9838168E+04;  1.1560570E-01;  0.0000000E+00; -4.4614013E-02;  9.2922400E+02;
  7.4091119E-01;  9.9999998E-03; -6.0174596E-02;6923;  1.6372677E-02;  0.0000000E+00;  2.9261357E-03;  9.9928986E+02;  1.2682810E-01; -5.8832898E+02;3;  6.5876584E+00;  0.0000000E+00;  6.8739349E-01;0;  7.1375012E-02;  2.4923268E+04;  0.0000000E+00;  2.8478289E-01;  4.0000000E+04;  0.0000000E+00;  3.9838098E+04;  1.1708872E-01;  0.0000000E+00; -4.5713704E-02;  6.9795197E+02;
  7.4092084E-01;  9.9999998E-03; -5.0144382E-02;6924;  1.6027132E-02;  0.0000000E+00;  2.4528885E-03;  9.9930963E+02;  1.2683144E-01; -5.7193433E+02;3;  6.6962929E+00;  0.0000000E+00;  5.6575507E-01;0;  7.1662456E-02;  2.4922949E+04;  0.0000000E+00;  1.9725202E-01;  4.0000000E+04;  0.0000000E+00;  3.9837641E+04;  1.1828964E-01;  0.0000000E+00; -4.6627186E-02;  4.8779712E+02;
  7.4092185E-01;  9.9999998E-03; -4.0116202E-02;6925;  1.5723225E-02;  0.0000000E+00;  1.9713836E-03;  9.9934332E+02;  1.2683319E-01; -5.4403394E+02;3;  6.7614994E+00;  0.0000000E+00;  4.6171850E-01;0;  7.1869701E-02;  2.4923744E+04;  0.0000000E+00;  1.2459416E-01;  4.0000000E+04;  0.0000000E+00;  3.9837223E+04;  1.1923084E-01;  0.0000000E+00; -4.7361139E-02;  3.2544708E+02;
  7.4091804E-01;  9.9999998E-03; -3.0089706E-02;6926;  1.5471204E-02;  0.0000000E+00;  1.4823104E-03;  9.9938257E+02;  1.2683560E-01; -5.1154102E+02;3;  6.8098879E+00;  0.0000000E+00;  3.4459528E-01;0;  7.2011277E-02;  2.4925197E+04;  0.0000000E+00;  6.8869799E-02;  4.0000000E+04;  0.0000000E+00;  3.9836668E+04;  1.1993426E-01;  0.0000000E+00; -4.7922987E-02;  2.4893318E+02;
  7.4091345E-01;  9.9999998E-03; -2.0063220E-02;6927;  1.5284640E-02;  0.0000000E+00;  9.9010440E-04;  9.9941443E+02;  1.2683600E-01; -4.8512201E+02;3;  6.8368287E+00;  0.0000000E+00;  2.3268153E-01;0;  7.2101161E-02;  2.4926529E+04;  0.0000000E+00;  3.0110721E-02;  4.0000000E+04;  0.0000000E+00;  3.9835977E+04;  1.2042061E-01;  0.0000000E+00; -4.8319452E-02;  2.6339972E+02;
  7.4090993E-01;  9.9999998E-03; -1.0033785E-02;6928;  1.5169938E-02;  0.0000000E+00;  4.9536774E-04;  9.9944171E+02;  1.2683789E-01; -4.6255475E+02;3;  6.8635111E+00;  0.0000000E+00;  1.1465253E-01;0;  7.2150514E-02;  2.4927568E+04;  0.0000000E+00;  7.4441051E-03;  4.0000000E+04;  0.0000000E+00;  3.9835508E+04;  1.2070595E-01;  0.0000000E+00; -4.8555434E-02;  3.0384631E+02;
  7.4090856E-01;  9.9999998E-03;  5.1412337E-09;6929;  1.5130194E-02;  0.0000000E+00;  5.5549574E-08;  9.9944861E+02;  1.2683794E-01; -4.5682651E+02;3;  6.8641696E+00;  0.0000000E+00; -1.8818748E-05;0;  7.2166122E-02;  2.4927975E+04;  0.0000000E+00;  1.3756896E-11;  4.0000000E+04;  0.0000000E+00;  3.9835383E+04;  1.2079990E-01;  0.0000000E+00; -4.8633777E-02;  3.2162762E+02;
  7.4090993E-01;  9.9999998E-03;  1.0033796E-02;6930;  1.5169937E-02;  0.0000000E+00; -4.9525732E-04;  9.9944171E+02;  1.2683730E-01; -4.6255475E+02;3;  6.8635092E+00;  0.0000000E+00; -1.1468198E-01;0;  7.2150528E-02;  2.4927566E+04;  0.0000000E+00;  7.4432474E-03;  4.0000000E+04;  0.0000000E+00;  3.9835508E+04;  1.2070600E-01;  0.0000000E+00; -4.8555471E-02;  3.0383780E+02;
  7.4091345E-01;  9.9999998E-03;  2.0063231E-02;6931;  1.5284642E-02;  0.0000000E+00; -9.8999334E-04;  9.9941437E+02;  1.2683608E-01; -4.8517139E+02;3;  6.8368416E+00;  0.0000000E+00; -2.3270412E-01;0;  7.2101265E-02;  2.4926531E+04;  0.0000000E+00;  3.0108811E-02;  4.0000000E+04;  0.0000000E+00;  3.9835973E+04;  1.2042066E-01;  0.0000000E+00; -4.8319399E-02;  2.6339038E+02;
  7.4091804E-01;  9.9999998E-03;  3.0089717E-02;6932;  1.5471206E-02;  0.0000000E+00; -1.4822000E-03;  9.9938257E+02;  1.2683499E-01; -5.1154102E+02;3;  6.8098960E+00;  0.0000000E+00; -3.4463003E-01;0;  7.2011292E-02;  2.4925199E+04;  0.0000000E+00;  6.8867460E-02;  4.0000000E+04;  0.0000000E+00;  3.9836664E+04;  1.1993421E-01;  0.0000000E+00; -4.7922920E-02;  2.4894392E+02;
  7.4092185E-01;  9.9999998E-03;  4.0116213E-02;6933;  1.5723221E-02;  0.0000000E+00; -1.9712721E-03;  9.9934326E+02;  1.2683287E-01; -5.4408331E+02;3;  6.7615032E+00;  0.0000000E+00; -4.6174744E-01;0;  7.1869679E-02;  2.4923750E+04;  0.0000000E+00;  1.2459195E-01;  4.0000000E+04;  0.0000000E+00;  3.9837219E+04;  1.1923082E-01;  0.0000000E+00; -4.7361143E-02;  3.2544720E+02;
  7.4092084E-01;  9.9999998E-03;  5.0144393E-02;6934;  1.6027121E-02;  0.0000000E+00; -2.4527758E-03;  9.9930969E+02;  1.2683111E-01; -5.7188495E+02;3;  6.6963015E+00;  0.0000000E+00; -5.6577575E-01;0;  7.1662538E-02;  2.4922951E+04;  0.0000000E+00;  1.9724533E-01;  4.0000000E+04;  0.0000000E+00;  3.9837641E+04;  1.1828964E-01;  0.0000000E+00; -4.6627104E-02;  4.8778589E+02;
  7.4091119E-01;  9.9999998E-03;  6.0174607E-02;6935;  1.6372658E-02;  0.0000000E+00; -2.9260220E-03;  9.9928992E+02;  1.2682773E-01; -5.8827954E+02;3;  6.5876608E+00;  0.0000000E+00; -6.8740201E-01;0;  7.1374960E-02;  2.4923271E+04;  0.0000000E+00;  2.8477851E-01;  4.0000000E+04;  0.0000000E+00;  3.9838098E+04;  1.1708862E-01;  0.0000000E+00; -4.5713656E-02;  6.9794537E+02;
  7.5365669E-01;  9.9999998E-03; -1.0033728E-01;6980;  1.9538844E-02;  0.0000000E+00;  5.4324251E-03;  9.9965051E+02;  1.3108593E-01; -2.8952264E+02;3;  5.5826197E+00;  0.0000000E+00;  1.2167797E+00;0;  6.0638510E-02;  2.3367322E+04;  0.0000000E+00;  5.4516792E-01;  4.0000000E+04;  0.0000000E+00;  3.9816156E+04;  1.0402112E-01;  0.0000000E+00; -4.3382607E-02;  1.4689080E+03;
  7.5374353E-01;  9.9999998E-03; -9.0298064E-02;6981;  1.9390617E-02;  0.0000000E+00;  4.9689417E-03;  9.9965784E+02;  1.3109300E-01; -2.8349811E+02;3;  5.9749289E+00;  0.0000000E+00;  1.1413074E+00;0;  6.2260821E-02;  2.3361697E+04;  0.0000000E+00;  4.9868485E-01;  4.0000000E+04;  0.0000000E+00;  3.9817152E+04;  1.0758614E-01;  0.0000000E+00; -4.5325316E-02;  1.3750786E+03;
  7.5380129E-01;  9.9999998E-03; -8.0257878E-02;6982;  1.9176219E-02;  0.0000000E+00;  4.4768350E-03;  9.9967645E+02;  1.3109750E-01; -2.6804175E+02;3;  6.3404636E+00;  0.0000000E+00;  1.0445160E+00;0;  6.3742936E-02;  2.3357982E+04;  0.0000000E+00;  4.2537272E-01;  4.0000000E+04;  0.0000000E+00;  3.9817645E+04;  1.1079746E-01;  0.0000000E+00; -4.7054529E-02;  1.2071233E+03;
  7.5382382E-01;  9.9999998E-03; -7.0220493E-02;6983;  1.8897558E-02;  0.0000000E+00;  3.9625736E-03;  9.9970557E+02;  1.3109714E-01; -2.4394368E+02;3;  6.6593356E+00;  0.0000000E+00;  9.2387217E-01;0;  6.5079033E-02;  2.3357221E+04;  0.0000000E+00;  3.3843845E-01;  4.0000000E+04;  0.0000000E+00;  3.9817719E+04;  1.1363916E-01;  0.0000000E+00; -4.8560124E-02;  9.9317969E+02;
  7.5381529E-01;  9.9999998E-03; -6.0187798E-02;6984;  1.8577743E-02;  0.0000000E+00;  3.4333118E-03;  9.9975085E+02;  1.3109307E-01; -2.0641388E+02;3;  6.8809624E+00;  0.0000000E+00;  7.9893774E-01;0;  6.6257231E-02;  2.3359023E+04;  0.0000000E+00;  2.5078490E-01;  4.0000000E+04;  0.0000000E+00;  3.9817574E+04;  1.1609958E-01;  0.0000000E+00; -4.9842350E-02;  7.6183600E+02;
  7.5378734E-01;  9.9999998E-03; -5.0157148E-02;6985;  1.8254956E-02;  0.0000000E+00;  2.8865577E-03;  9.9980450E+02;  1.3108607E-01; -1.6197070E+02;3;  7.0577674E+00;  0.0000000E+00;  6.8405294E-01;0;  6.7265242E-02;  2.3362551E+04;  0.0000000E+00;  1.7194080E-01;  4.0000000E+04;  0.0000000E+00;  3.9817363E+04;  1.1817353E-01;  0.0000000E+00; -5.0908290E-02;  5.3766296E+02;
  7.5375164E-01;  9.9999998E-03; -4.0126476E-02;6986;  1.7948354E-02;  0.0000000E+00;  2.3263604E-03;  9.9986176E+02;  1.3107908E-01; -1.1451526E+02;3;  7.1906857E+00;  0.0000000E+00;  5.4522896E-01;0;  6.8095207E-02;  2.3366934E+04;  0.0000000E+00;  1.0725658E-01;  4.0000000E+04;  0.0000000E+00;  3.9816734E+04;  1.1986212E-01;  0.0000000E+00; -5.1766913E-02;  3.3977579E+02;
  7.5371552E-01;  9.9999998E-03; -3.0097028E-02;6987;  1.7687362E-02;  0.0000000E+00;  1.7545025E-03;  9.9991687E+02;  1.3107242E-01; -6.8886932E+01;3;  7.2715497E+00;  0.0000000E+00;  4.2041838E-01;0;  6.8742350E-02;  2.3371166E+04;  0.0000000E+00;  5.8558308E-02;  4.0000000E+04;  0.0000000E+00;  3.9816180E+04;  1.2116808E-01;  0.0000000E+00; -5.2425731E-02;  1.8167624E+02;
  7.5368500E-01;  9.9999998E-03; -2.0068720E-02;6988;  1.7488686E-02;  0.0000000E+00;  1.1726316E-03;  9.9996356E+02;  1.3106747E-01; -3.0171982E+01;3;  7.3408093E+00;  0.0000000E+00;  2.8107899E-01;0;  6.9205061E-02;  2.3374738E+04;  0.0000000E+00;  2.5351655E-02;  4.0000000E+04;  0.0000000E+00;  3.9815672E+04;  1.2209627E-01;  0.0000000E+00; -5.2891206E-02;  7.6642914E+01;
  7.5366277E-01;  9.9999998E-03; -1.0037381E-02;6989;  1.7361837E-02;  0.0000000E+00;  5.8783556E-04;  9.9999298E+02;  1.3106379E-01; -5.8269949E+00;3;  7.3794761E+00;  0.0000000E+00;  1.3723297E-01;0;  6.9483697E-02;  2.3377141E+04;  0.0000000E+00;  6.2317164E-03;  4.0000000E+04;  0.0000000E+00;  3.9815605E+04;  1.2265154E-01;  0.0000000E+00; -5.3167846E-02;  5.5114006E+01;
  7.5365424E-01;  9.9999998E-03;  5.2722373E-09;6990;  1.7318513E-02;  0.0000000E+00;  5.9877102E-08;  1.0000041E+03;  1.3106270E-01;  3.3579292E+00;3;  7.3926191E+00;  0.0000000E+00; -1.4331696E-05;0;  6.9576956E-02;  2.3377994E+04;  0.0000000E+00;  4.3592061E-11;  4.0000000E+04;  0.0000000E+00;  3.9815273E+04;  1.2283643E-01;  0.0000000E+00; -5.3259477E-02;  6.6397438E+01;
  7.5366282E-01;  9.9999998E-03;  1.0037392E-02;6991;  1.7361842E-02;  0.0000000E+00; -5.8771577E-04;  9.9999298E+02;  1.3106379E-01; -5.8269949E+00;3;  7.3794804E+00;  0.0000000E+00; -1.3725847E-01;0;  6.9483668E-02;  2.3377139E+04;  0.0000000E+00;  6.2301806E-03;  4.0000000E+04;  0.0000000E+00;  3.9815609E+04;  1.2265147E-01;  0.0000000E+00; -5.3167809E-02;  5.5096676E+01;
  7.5368500E-01;  9.9999998E-03;  2.0068731E-02;6992;  1.7488690E-02;  0.0000000E+00; -1.1725121E-03;  9.9996356E+02;  1.3106745E-01; -3.0171982E+01;3;  7.3408098E+00;  0.0000000E+00; -2.8111041E-01;0;  6.9205076E-02;  2.3374742E+04;  0.0000000E+00;  2.5349241E-02;  4.0000000E+04;  0.0000000E+00;  3.9815676E+04;  1.2209625E-01;  0.0000000E+00; -5.2891176E-02;  7.6643280E+01;
  7.5371552E-01;  9.9999998E-03;  3.0097039E-02;6993;  1.7687377E-02;  0.0000000E+00; -1.7543836E-03;  9.9991669E+02;  1.3107251E-01; -6.9035072E+01;3;  7.2715583E+00;  0.0000000E+00; -4.2044947E-01;0;  6.8742231E-02;  2.3371170E+04;  0.0000000E+00;  5.8554344E-02;  4.0000000E+04;  0.0000000E+00;  3.9816180E+04;  1.2116794E-01;  0.0000000E+00; -5.2425709E-02;  1.8166278E+02;
  7.5375164E-01;  9.9999998E-03;  4.0126484E-02;6994;  1.7948357E-02;  0.0000000E+00; -2.3262426E-03;  9.9986182E+02;  1.3107881E-01; -1.1446588E+02;3;  7.1906929E+00;  0.0000000E+00; -5.4526561E-01;0;  6.8095125E-02;  2.3366930E+04;  0.0000000E+00;  1.0725266E-01;  4.0000000E+04;  0.0000000E+00;  3.9816742E+04;  1.1986207E-01;  0.0000000E+00; -5.1766947E-02;  3.3976651E+02;
  7.5378734E-01;  9.9999998E-03;  5.0157160E-02;6995;  1.8254962E-02;  0.0000000E+00; -2.8864390E-03;  9.9980457E+02;  1.3108566E-01; -1.6192133E+02;3;  7.0577822E+00;  0.0000000E+00; -6.8406188E-01;0;  6.7265362E-02;  2.3362549E+04;  0.0000000E+00;  1.7193669E-01;  4.0000000E+04;  0.0000000E+00;  3.9817359E+04;  1.1817365E-01;  0.0000000E+00; -5.0908286E-02;  5.3765326E+02;
  7.5381529E-01;  9.9999998E-03;  6.0187809E-02;6996;  1.8577743E-02;  0.0000000E+00; -3.4331924E-03;  9.9975092E+02;  1.3109291E-01; -2.0636450E+02;3;  6.8809781E+00;  0.0000000E+00; -7.9895991E-01;0;  6.6257298E-02;  2.3359023E+04;  0.0000000E+00;  2.5077808E-01;  4.0000000E+04;  0.0000000E+00;  3.9817578E+04;  1.1609960E-01;  0.0000000E+00; -4.9842302E-02;  7.6182251E+02;
  7.6750076E-01;  9.9999998E-03; -1.0016438E-01;7041;  2.1565892E-02;  0.0000000E+00;  6.1380998E-03;  9.9998242E+02;  1.3590510E-01; -1.4567487E+01;3;  5.4475417E+00;  0.0000000E+00;  1.2233752E+00;0;  5.1305994E-02;  2.1766418E+04;  0.0000000E+00;  2.8472498E-01;  4.0000000E+04;  0.0000000E+00;  3.9794480E+04;  9.8303467E-02;  0.0000000E+00; -4.6997473E-02;  1.0636577E+03;
  7.6767218E-01;  9.9999998E-03; -9.0132207E-02;7042;  2.1653369E-02;  0.0000000E+00;  5.6262724E-03;  1.0000734E+03;  1.3593638E-01;  6.0739014E+01;3;  5.9852738E+00;  0.0000000E+00;  1.1838274E+00;0;  5.3557429E-02;  2.1755561E+04;  0.0000000E+00;  2.7260825E-01;  4.0000000E+04;  0.0000000E+00;  3.9795387E+04;  1.0275614E-01;  0.0000000E+00; -4.9198706E-02;  1.0970153E+03;
  7.6780331E-01;  9.9999998E-03; -8.0103740E-02;7043;  2.1652805E-02;  0.0000000E+00;  5.0817314E-03;  1.0001666E+03;  1.3596077E-01;  1.3797139E+02;3;  6.4994125E+00;  0.0000000E+00;  1.0827699E+00;0;  5.5661611E-02;  2.1747656E+04;  0.0000000E+00;  2.3570782E-01;  4.0000000E+04;  0.0000000E+00;  3.9795781E+04;  1.0681782E-01;  0.0000000E+00; -5.1156208E-02;  1.0387642E+03;
  7.6789528E-01;  9.9999998E-03; -7.0080116E-02;7044;  2.1575859E-02;  0.0000000E+00;  4.5126057E-03;  1.0002526E+03;  1.3597663E-01;  2.0927800E+02;3;  6.8883572E+00;  0.0000000E+00;  9.8211038E-01;0;  5.7596378E-02;  2.1742453E+04;  0.0000000E+00;  1.8587132E-01;  4.0000000E+04;  0.0000000E+00;  3.9795629E+04;  1.1045997E-01;  0.0000000E+00; -5.2863590E-02;  9.0897729E+02;
  7.6795340E-01;  9.9999998E-03; -6.0061231E-02;7045;  2.1449486E-02;  0.0000000E+00;  3.9197570E-03;  1.0003440E+03;  1.3598759E-01;  2.8502893E+02;3;  7.2474418E+00;  0.0000000E+00;  8.6058760E-01;0;  5.9336286E-02;  2.1739719E+04;  0.0000000E+00;  1.3425896E-01;  4.0000000E+04;  0.0000000E+00;  3.9795012E+04;  1.1365898E-01;  0.0000000E+00; -5.4322693E-02;  7.3745087E+02;
  7.6798213E-01;  9.9999998E-03; -5.0045725E-02;7046;  2.1286536E-02;  0.0000000E+00;  3.3032610E-03;  1.0004312E+03;  1.3599280E-01;  3.5722440E+02;3;  7.5644665E+00;  0.0000000E+00;  7.3293132E-01;0;  6.0859267E-02;  2.1739084E+04;  0.0000000E+00;  8.8684835E-02;  4.0000000E+04;  0.0000000E+00;  3.9794199E+04;  1.1639822E-01;  0.0000000E+00; -5.5538949E-02;  5.5767523E+02;
  7.6798451E-01;  9.9999998E-03; -4.0030975E-02;7047;  2.1107368E-02;  0.0000000E+00;  2.6686406E-03;  1.0005077E+03;  1.3599266E-01;  4.2063000E+02;3;  7.7989593E+00;  0.0000000E+00;  5.8776534E-01;0;  6.2144469E-02;  2.1740322E+04;  0.0000000E+00;  5.2915577E-02;  4.0000000E+04;  0.0000000E+00;  3.9793422E+04;  1.1866335E-01;  0.0000000E+00; -5.6518879E-02;  3.9931375E+02;
  7.6797152E-01;  9.9999998E-03; -3.0018710E-02;7048;  2.0943590E-02;  0.0000000E+00;  2.0183823E-03;  1.0005786E+03;  1.3599016E-01;  4.7929501E+02;3;  7.9454217E+00;  0.0000000E+00;  4.5044854E-01;0;  6.3168094E-02;  2.1742447E+04;  0.0000000E+00;  2.7580943E-02;  4.0000000E+04;  0.0000000E+00;  3.9792871E+04;  1.2043871E-01;  0.0000000E+00; -5.7270613E-02;  2.8023395E+02;
  7.6795936E-01;  9.9999998E-03; -2.0011446E-02;7049;  2.0819487E-02;  0.0000000E+00;  1.3531022E-03;  1.0006266E+03;  1.3598827E-01;  5.1909637E+02;3;  8.0565796E+00;  0.0000000E+00;  3.0874392E-01;0;  6.3909218E-02;  2.1744260E+04;  0.0000000E+00;  1.1460381E-02;  4.0000000E+04;  0.0000000E+00;  3.9792434E+04;  1.2171263E-01;  0.0000000E+00; -5.7803415E-02;  2.0485393E+02;
  7.6795220E-01;  9.9999998E-03; -1.0006444E-02;7050;  2.0740440E-02;  0.0000000E+00;  6.7831174E-04;  1.0006619E+03;  1.3598725E-01;  5.4842883E+02;3;  8.1348333E+00;  0.0000000E+00;  1.5375333E-01;0;  6.4357907E-02;  2.1745307E+04;  0.0000000E+00;  2.7391566E-03;  4.0000000E+04;  0.0000000E+00;  3.9792203E+04;  1.2247977E-01;  0.0000000E+00; -5.8121871E-02;  1.6752774E+02;
  7.6795077E-01;  9.9999998E-03;  5.4125553E-09;7051;  2.0713177E-02;  0.0000000E+00;  6.2839163E-08;  1.0006755E+03;  1.3598800E-01;  5.5968781E+02;3;  8.1579037E+00;  0.0000000E+00; -1.9876539E-05;0;  6.4507663E-02;  2.1745561E+04;  0.0000000E+00;  7.4736654E-11;  4.0000000E+04;  0.0000000E+00;  3.9792184E+04;  1.2273593E-01;  0.0000000E+00; -5.8228262E-02;  1.5699252E+02;
  7.6795220E-01;  9.9999998E-03;  1.0006454E-02;7052;  2.0740420E-02;  0.0000000E+00; -6.7818718E-04;  1.0006620E+03;  1.3598734E-01;  5.4852759E+02;3;  8.1348324E+00;  0.0000000E+00; -1.5381429E-01;0;  6.4357810E-02;  2.1745309E+04;  0.0000000E+00;  2.7379610E-03;  4.0000000E+04;  0.0000000E+00;  3.9792203E+04;  1.2247974E-01;  0.0000000E+00; -5.8121927E-02;  1.6751883E+02;
  7.6795936E-01;  9.9999998E-03;  2.0011457E-02;7053;  2.0819493E-02;  0.0000000E+00; -1.3529758E-03;  1.0006265E+03;  1.3598850E-01;  5.1909637E+02;3;  8.0565863E+00;  0.0000000E+00; -3.0876857E-01;0;  6.3909277E-02;  2.1744254E+04;  0.0000000E+00;  1.1457955E-02;  4.0000000E+04;  0.0000000E+00;  3.9792434E+04;  1.2171266E-01;  0.0000000E+00; -5.7803385E-02;  2.0485732E+02;
  7.6797152E-01;  9.9999998E-03;  3.0018721E-02;7054;  2.0943595E-02;  0.0000000E+00; -2.0182540E-03;  1.0005786E+03;  1.3599016E-01;  4.7929501E+02;3;  7.9454265E+00;  0.0000000E+00; -4.5047122E-01;0;  6.3168108E-02;  2.1742445E+04;  0.0000000E+00;  2.7577640E-02;  4.0000000E+04;  0.0000000E+00;  3.9792871E+04;  1.2043866E-01;  0.0000000E+00; -5.7270553E-02;  2.8022000E+02;
  7.6798451E-01;  9.9999998E-03;  4.0030986E-02;7055;  2.1107366E-02;  0.0000000E+00; -2.6685151E-03;  1.0005078E+03;  1.3599266E-01;  4.2063000E+02;3;  7.7989674E+00;  0.0000000E+00; -5.8780825E-01;0;  6.2144451E-02;  2.1740322E+04;  0.0000000E+00;  5.2913468E-02;  4.0000000E+04;  0.0000000E+00;  3.9793422E+04;  1.1866327E-01;  0.0000000E+00; -5.6518823E-02;  3.9929715E+02;
  7.6798213E-01;  9.9999998E-03;  5.0045732E-02;7056;  2.1286556E-02;  0.0000000E+00; -3.3031357E-03;  1.0004311E+03;  1.3599271E-01;  3.5712564E+02;3;  7.5644855E+00;  0.0000000E+00; -7.3295897E-01;0;  6.0859352E-02;  2.1739076E+04;  0.0000000E+00;  8.8680856E-02;  4.0000000E+04;  0.0000000E+00;  3.9794203E+04;  1.1639827E-01;  0.0000000E+00; -5.5538915E-02;  5.5764038E+02;
  7.6795340E-01;  9.9999998E-03;  6.0061242E-02;7057;  2.1449486E-02;  0.0000000E+00; -3.9196303E-03;  1.0003442E+03;  1.3598765E-01;  2.8512769E+02;3;  7.2474351E+00;  0.0000000E+00; -8.6061722E-01;0;  5.9336320E-02;  2.1739719E+04;  0.0000000E+00;  1.3425614E-01;  4.0000000E+04;  0.0000000E+00;  3.9795008E+04;  1.1365897E-01;  0.0000000E+00; -5.4322653E-02;  7.3744153E+02;
  7.8161913E-01;  9.9999998E-03; -1.0006439E-01;7102;  2.3459677E-02;  0.0000000E+00;  6.6938782E-03;  1.0003987E+03;  1.4114845E-01;  3.3026218E+02;3;  5.5089998E+00;  0.0000000E+00;  1.1160026E+00;0;  4.3085270E-02;  2.0205613E+04;  0.0000000E+00; -6.6158548E-02;  4.0000000E+04;  0.0000000E+00;  3.9771617E+04;  9.3790524E-02;  0.0000000E+00; -5.0705254E-02;  7.6866827E+02;
  7.8157091E-01;  9.9999998E-03; -9.0048566E-02;7103;  2.3692286E-02;  0.0000000E+00;  6.1295945E-03;  1.0004238E+03;  1.4110669E-01;  3.5110110E+02;3;  6.1355309E+00;  0.0000000E+00;  1.0722418E+00;0;  4.5905612E-02;  2.0212482E+04;  0.0000000E+00; -3.5588119E-02;  4.0000000E+04;  0.0000000E+00;  3.9772672E+04;  9.8936051E-02;  0.0000000E+00; -5.3030439E-02;  9.0214581E+02;
  7.8151375E-01;  9.9999998E-03; -8.0047749E-02;7104;  2.3859564E-02;  0.0000000E+00;  5.5354368E-03;  1.0004529E+03;  1.4106953E-01;  3.7529794E+02;3;  6.6449742E+00;  0.0000000E+00;  1.0288789E+00;0;  4.8506957E-02;  2.0219447E+04;  0.0000000E+00; -2.2097960E-02;  4.0000000E+04;  0.0000000E+00;  3.9772984E+04;  1.0358866E-01;  0.0000000E+00; -5.5081699E-02;  9.0790558E+02;
  7.8153265E-01;  9.9999998E-03; -7.0054553E-02;7105;  2.3984980E-02;  0.0000000E+00;  4.9144439E-03;  1.0005056E+03;  1.4106458E-01;  4.1885226E+02;3;  7.1435924E+00;  0.0000000E+00;  9.4253719E-01;0;  5.0838079E-02;  2.0218828E+04;  0.0000000E+00; -1.9854601E-02;  4.0000000E+04;  0.0000000E+00;  3.9772047E+04;  1.0772356E-01;  0.0000000E+00; -5.6885485E-02;  8.0497296E+02;
  7.8154939E-01;  9.9999998E-03; -6.0060412E-02;7106;  2.4057293E-02;  0.0000000E+00;  4.2658290E-03;  1.0005607E+03;  1.4106417E-01;  4.6457935E+02;3;  7.5863571E+00;  0.0000000E+00;  8.4405571E-01;0;  5.2916642E-02;  2.0217689E+04;  0.0000000E+00; -2.0557623E-02;  4.0000000E+04;  0.0000000E+00;  3.9770711E+04;  1.1134383E-01;  0.0000000E+00; -5.8427189E-02;  6.4218439E+02;
  7.8154969E-01;  9.9999998E-03; -5.0058503E-02;7107;  2.4082677E-02;  0.0000000E+00;  3.5938101E-03;  1.0006163E+03;  1.4106148E-01;  5.1060272E+02;3;  7.9913125E+00;  0.0000000E+00;  7.1073157E-01;0;  5.4727498E-02;  2.0217764E+04;  0.0000000E+00; -1.9903524E-02;  4.0000000E+04;  0.0000000E+00;  3.9769367E+04;  1.1443865E-01;  0.0000000E+00; -5.9711155E-02;  4.7410599E+02;
  7.8153950E-01;  9.9999998E-03; -4.0049572E-02;7108;  2.4076605E-02;  0.0000000E+00;  2.9025648E-03;  1.0006689E+03;  1.4105643E-01;  5.5415704E+02;3;  8.2997122E+00;  0.0000000E+00;  5.8071923E-01;0;  5.6246720E-02;  2.0218562E+04;  0.0000000E+00; -1.6589332E-02;  4.0000000E+04;  0.0000000E+00;  3.9768402E+04;  1.1699362E-01;  0.0000000E+00; -6.0746901E-02;  3.4049991E+02;
  7.8153080E-01;  9.9999998E-03; -3.0034289E-02;7109;  2.4061415E-02;  0.0000000E+00;  2.1935985E-03;  1.0007161E+03;  1.4105359E-01;  5.9326703E+02;3;  8.5209570E+00;  0.0000000E+00;  4.4553244E-01;0;  5.7449613E-02;  2.0219082E+04;  0.0000000E+00; -1.1347730E-02;  4.0000000E+04;  0.0000000E+00;  3.9767746E+04;  1.1899457E-01;  0.0000000E+00; -6.1544959E-02;  2.5725342E+02;
  7.8152639E-01;  9.9999998E-03; -2.0018304E-02;7110;  2.4047144E-02;  0.0000000E+00;  1.4701235E-03;  1.0007538E+03;  1.4105447E-01;  6.2457477E+02;3;  8.6778402E+00;  0.0000000E+00;  3.0346331E-01;0;  5.8319148E-02;  2.0219268E+04;  0.0000000E+00; -5.7688281E-03;  4.0000000E+04;  0.0000000E+00;  3.9767559E+04;  1.2043052E-01;  0.0000000E+00; -6.2111374E-02;  2.1630154E+02;
  7.8152466E-01;  9.9999998E-03; -1.0007603E-02;7111;  2.4038585E-02;  0.0000000E+00;  7.3751499E-04;  1.0007813E+03;  1.4105345E-01;  6.4729016E+02;3;  8.7794476E+00;  0.0000000E+00;  1.5283990E-01;0;  5.8844458E-02;  2.0219205E+04;  0.0000000E+00; -1.5576466E-03;  4.0000000E+04;  0.0000000E+00;  3.9767406E+04;  1.2129406E-01;  0.0000000E+00; -6.2449601E-02;  2.0073053E+02;
  7.8152418E-01;  9.9999998E-03;  5.4500235E-09;7112;  2.4035433E-02;  0.0000000E+00;  6.3059773E-08;  1.0007924E+03;  1.4105380E-01;  6.5647510E+02;3;  8.8060369E+00;  0.0000000E+00; -1.5826830E-05;0;  5.9020229E-02;  2.0219201E+04;  0.0000000E+00;  9.2017394E-11;  4.0000000E+04;  0.0000000E+00;  3.9767320E+04;  1.2158240E-01;  0.0000000E+00; -6.2562175E-02;  1.9718307E+02;
  7.8152466E-01;  9.9999998E-03;  1.0007613E-02;7113;  2.4038581E-02;  0.0000000E+00; -7.3738897E-04;  1.0007813E+03;  1.4105396E-01;  6.4729016E+02;3;  8.7794657E+00;  0.0000000E+00; -1.5285718E-01;0;  5.8844555E-02;  2.0219219E+04;  0.0000000E+00; -1.5581687E-03;  4.0000000E+04;  0.0000000E+00;  3.9767406E+04;  1.2129419E-01;  0.0000000E+00; -6.2449638E-02;  2.0071376E+02;
  7.8152639E-01;  9.9999998E-03;  2.0018315E-02;7114;  2.4047142E-02;  0.0000000E+00; -1.4699966E-03;  1.0007538E+03;  1.4105430E-01;  6.2447601E+02;3;  8.6778202E+00;  0.0000000E+00; -3.0350941E-01;0;  5.8319066E-02;  2.0219264E+04;  0.0000000E+00; -5.7697436E-03;  4.0000000E+04;  0.0000000E+00;  3.9767555E+04;  1.2043044E-01;  0.0000000E+00; -6.2111374E-02;  2.1629224E+02;
  7.8153086E-01;  9.9999998E-03;  3.0034298E-02;7115;  2.4061413E-02;  0.0000000E+00; -2.1934707E-03;  1.0007159E+03;  1.4105347E-01;  5.9316827E+02;3;  8.5209675E+00;  0.0000000E+00; -4.4556305E-01;0;  5.7449669E-02;  2.0219082E+04;  0.0000000E+00; -1.1349208E-02;  4.0000000E+04;  0.0000000E+00;  3.9767750E+04;  1.1899459E-01;  0.0000000E+00; -6.1544918E-02;  2.5727386E+02;
  7.8153950E-01;  9.9999998E-03;  4.0049583E-02;7116;  2.4076598E-02;  0.0000000E+00; -2.9024358E-03;  1.0006688E+03;  1.4105670E-01;  5.5405829E+02;3;  8.2997370E+00;  0.0000000E+00; -5.8077335E-01;0;  5.6246798E-02;  2.0218566E+04;  0.0000000E+00; -1.6591212E-02;  4.0000000E+04;  0.0000000E+00;  3.9768402E+04;  1.1699371E-01;  0.0000000E+00; -6.0746912E-02;  3.4047943E+02;
  7.8154975E-01;  9.9999998E-03;  5.0058510E-02;7117;  2.4082683E-02;  0.0000000E+00; -3.5936798E-03;  1.0006161E+03;  1.4106137E-01;  5.1050397E+02;3;  7.9913373E+00;  0.0000000E+00; -7.1075583E-01;0;  5.4727573E-02;  2.0217762E+04;  0.0000000E+00; -1.9906254E-02;  4.0000000E+04;  0.0000000E+00;  3.9769371E+04;  1.1443868E-01;  0.0000000E+00; -5.9711102E-02;  4.7409775E+02;
  7.8154939E-01;  9.9999998E-03;  6.0060423E-02;7118;  2.4057286E-02;  0.0000000E+00; -4.2656958E-03;  1.0005609E+03;  1.4106429E-01;  4.6467810E+02;3;  7.5863681E+00;  0.0000000E+00; -8.4406173E-01;0;  5.2916478E-02;  2.0217689E+04;  0.0000000E+00; -2.0558743E-02;  4.0000000E+04;  0.0000000E+00;  3.9770715E+04;  1.1134366E-01;  0.0000000E+00; -5.8427181E-02;  6.4220319E+02;
  7.9576629E-01;  9.9999998E-03; -1.0014213E-01;7163;  2.4956310E-02;  0.0000000E+00;  7.0592738E-03;  1.0002734E+03;  1.4676504E-01;  2.2656145E+02;3;  5.4950552E+00;  0.0000000E+00;  9.0085268E-01;0;  3.9019264E-02;  1.8693537E+04;  0.0000000E+00; -4.0794390E-01;  4.0000000E+04;  0.0000000E+00;  3.9747004E+04;  9.3328014E-02;  0.0000000E+00; -5.4308750E-02;  1.3801323E+03;
  7.9574037E-01;  9.9999998E-03; -9.0137139E-02;7164;  2.5319397E-02;  0.0000000E+00;  6.4540026E-03;  1.0002215E+03;  1.4673175E-01;  1.8350095E+02;3;  6.2088389E+00;  0.0000000E+00;  8.8157344E-01;0;  4.2232540E-02;  1.8695473E+04;  0.0000000E+00; -3.4753454E-01;  4.0000000E+04;  0.0000000E+00;  3.9747383E+04;  9.9028766E-02;  0.0000000E+00; -5.6796227E-02;  1.3355441E+03;
  7.9571015E-01;  9.9999998E-03; -8.0146499E-02;7165;  2.5608744E-02;  0.0000000E+00;  5.8218925E-03;  1.0001780E+03;  1.4669739E-01;  1.4755135E+02;3;  6.8200173E+00;  0.0000000E+00;  8.3552617E-01;0;  4.5169100E-02;  1.8698018E+04;  0.0000000E+00; -2.9040751E-01;  4.0000000E+04;  0.0000000E+00;  3.9746535E+04;  1.0414366E-01;  0.0000000E+00; -5.8974557E-02;  1.1843065E+03;
  7.9568166E-01;  9.9999998E-03; -7.0156477E-02;7166;  2.5836674E-02;  0.0000000E+00;  5.1607359E-03;  1.0001401E+03;  1.4666595E-01;  1.1614484E+02;3;  7.3692236E+00;  0.0000000E+00;  7.7075917E-01;0;  4.7814924E-02;  1.8700660E+04;  0.0000000E+00; -2.3568992E-01;  4.0000000E+04;  0.0000000E+00;  3.9745125E+04;  1.0866891E-01;  0.0000000E+00; -6.0853984E-02;  9.4700934E+02;
  7.9564112E-01;  9.9999998E-03; -6.0153924E-02;7167;  2.6010370E-02;  0.0000000E+00;  4.4748196E-03;  1.0001076E+03;  1.4663500E-01;  8.9182640E+01;3;  7.8588605E+00;  0.0000000E+00;  6.9652689E-01;0;  5.0155051E-02;  1.8704242E+04;  0.0000000E+00; -1.8287227E-01;  4.0000000E+04;  0.0000000E+00;  3.9743223E+04;  1.1259855E-01;  0.0000000E+00; -6.2443495E-02;  6.8167273E+02;
  7.9556048E-01;  9.9999998E-03; -5.0129838E-02;7168;  2.6133016E-02;  0.0000000E+00;  3.7639698E-03;  1.0000823E+03;  1.4659625E-01;  6.8244965E+01;3;  8.2916899E+00;  0.0000000E+00;  5.9892833E-01;0;  5.2170195E-02;  1.8709969E+04;  0.0000000E+00; -1.3306156E-01;  4.0000000E+04;  0.0000000E+00;  3.9741547E+04;  1.1591867E-01;  0.0000000E+00; -6.3748479E-02;  4.5177411E+02;
  7.9547489E-01;  9.9999998E-03; -4.0090639E-02;7169;  2.6219368E-02;  0.0000000E+00;  3.0342641E-03;  1.0000649E+03;  1.4656064E-01;  5.3726864E+01;3;  8.6127520E+00;  0.0000000E+00;  4.8836225E-01;0;  5.3842478E-02;  1.8715867E+04;  0.0000000E+00; -8.8358454E-02;  4.0000000E+04;  0.0000000E+00;  3.9740785E+04;  1.1863305E-01;  0.0000000E+00; -6.4790569E-02;  2.8991754E+02;
  7.9540157E-01;  9.9999998E-03; -3.0059583E-02;7170;  2.6282758E-02;  0.0000000E+00;  2.2903711E-03;  1.0000607E+03;  1.4653113E-01;  5.0270172E+01;3;  8.8610468E+00;  0.0000000E+00;  3.7908521E-01;0;  5.5155307E-02;  1.8720719E+04;  0.0000000E+00; -5.1116936E-02;  4.0000000E+04;  0.0000000E+00;  3.9740273E+04;  1.2074001E-01;  0.0000000E+00; -6.5584704E-02;  1.9392964E+02;
  7.9534924E-01;  9.9999998E-03; -2.0034520E-02;7171;  2.6326813E-02;  0.0000000E+00;  1.5339324E-03;  1.0000598E+03;  1.4651094E-01;  4.9480072E+01;3;  9.0455608E+00;  0.0000000E+00;  2.5844610E-01;0;  5.6099743E-02;  1.8724164E+04;  0.0000000E+00; -2.3163501E-02;  4.0000000E+04;  0.0000000E+00;  3.9740242E+04;  1.2224401E-01;  0.0000000E+00; -6.6144265E-02;  1.5743860E+02;
  7.9531789E-01;  9.9999998E-03; -1.0015365E-02;7172;  2.6351448E-02;  0.0000000E+00;  7.6898112E-04;  1.0000621E+03;  1.4649954E-01;  5.1455322E+01;3;  9.1555939E+00;  0.0000000E+00;  1.3248366E-01;0;  5.6668930E-02;  1.8725998E+04;  0.0000000E+00; -5.8559752E-03;  4.0000000E+04;  0.0000000E+00;  3.9740406E+04;  1.2314585E-01;  0.0000000E+00; -6.6476919E-02;  1.5775467E+02;
  7.9530734E-01;  9.9999998E-03;  4.8222355E-09;7173;  2.6359638E-02;  0.0000000E+00;  6.3829155E-08;  1.0000607E+03;  1.4649592E-01;  5.0270172E+01;3;  9.1918287E+00;  0.0000000E+00; -1.6698878E-05;0;  5.6859002E-02;  1.8726744E+04;  0.0000000E+00;  8.8105329E-11;  4.0000000E+04;  0.0000000E+00;  3.9740297E+04;  1.2344621E-01;  0.0000000E+00; -6.6587210E-02;  1.6234291E+02;
  7.9531789E-01;  9.9999998E-03;  1.0015375E-02;7174;  2.6351444E-02;  0.0000000E+00; -7.6885265E-04;  1.0000621E+03;  1.4649943E-01;  5.1455322E+01;3;  9.1556034E+00;  0.0000000E+00; -1.3252048E-01;0;  5.6669012E-02;  1.8726000E+04;  0.0000000E+00; -5.8555426E-03;  4.0000000E+04;  0.0000000E+00;  3.9740410E+04;  1.2314591E-01;  0.0000000E+00; -6.6476896E-02;  1.5774963E+02;
  7.9534924E-01;  9.9999998E-03;  2.0034531E-02;7175;  2.6326800E-02;  0.0000000E+00; -1.5338032E-03;  1.0000599E+03;  1.4651108E-01;  4.9578835E+01;3;  9.0455704E+00;  0.0000000E+00; -2.5850320E-01;0;  5.6099787E-02;  1.8724162E+04;  0.0000000E+00; -2.3163199E-02;  4.0000000E+04;  0.0000000E+00;  3.9740246E+04;  1.2224404E-01;  0.0000000E+00; -6.6144250E-02;  1.5744043E+02;
  7.9540151E-01;  9.9999998E-03;  3.0059597E-02;7176;  2.6282733E-02;  0.0000000E+00; -2.2902403E-03;  1.0000608E+03;  1.4653103E-01;  5.0368935E+01;3;  8.8610382E+00;  0.0000000E+00; -3.7914395E-01;0;  5.5155292E-02;  1.8720719E+04;  0.0000000E+00; -5.1116798E-02;  4.0000000E+04;  0.0000000E+00;  3.9740273E+04;  1.2073994E-01;  0.0000000E+00; -6.5584652E-02;  1.9390974E+02;
  7.9547489E-01;  9.9999998E-03;  4.0090650E-02;7177;  2.6219349E-02;  0.0000000E+00; -3.0341328E-03;  1.0000648E+03;  1.4656088E-01;  5.3726864E+01;3;  8.6127586E+00;  0.0000000E+00; -4.8839191E-01;0;  5.3842507E-02;  1.8715869E+04;  0.0000000E+00; -8.8358559E-02;  4.0000000E+04;  0.0000000E+00;  3.9740789E+04;  1.1863303E-01;  0.0000000E+00; -6.4790525E-02;  2.8991016E+02;
  7.9556048E-01;  9.9999998E-03;  5.0129853E-02;7178;  2.6132993E-02;  0.0000000E+00; -3.7638342E-03;  1.0000825E+03;  1.4659637E-01;  6.8343727E+01;3;  8.2916918E+00;  0.0000000E+00; -5.9895515E-01;0;  5.2170254E-02;  1.8709963E+04;  0.0000000E+00; -1.3306041E-01;  4.0000000E+04;  0.0000000E+00;  3.9741539E+04;  1.1591864E-01;  0.0000000E+00; -6.3748389E-02;  4.5178281E+02;
  7.9564112E-01;  9.9999998E-03;  6.0153935E-02;7179;  2.6010353E-02;  0.0000000E+00; -4.4746823E-03;  1.0001075E+03;  1.4663461E-01;  8.9083878E+01;3;  7.8588581E+00;  0.0000000E+00; -6.9653255E-01;0;  5.0155021E-02;  1.8704240E+04;  0.0000000E+00; -1.8287119E-01;  4.0000000E+04;  0.0000000E+00;  3.9743223E+04;  1.1259849E-01;  0.0000000E+00; -6.2443472E-02;  6.8168707E+02;
  8.0997044E-01;  9.9999998E-03; -1.0029548E-01;7224;  2.5930576E-02;  0.0000000E+00;  7.2399564E-03;  9.9937518E+02;  1.5264466E-01; -5.1766418E+02;3;  5.4261570E+00;  0.0000000E+00;  5.6028700E-01;0;  4.2524911E-02;  1.7262977E+04;  0.0000000E+00; -6.6742957E-01;  4.0000000E+04;  0.0000000E+00;  3.9720855E+04;  1.0028774E-01;  0.0000000E+00; -5.7762831E-02;  2.1799248E+03;
  8.0993956E-01;  9.9999998E-03; -9.0311378E-02;7225;  2.6343890E-02;  0.0000000E+00;  6.6028186E-03;  9.9924249E+02;  1.5261708E-01; -6.2758698E+02;3;  6.1672053E+00;  0.0000000E+00;  5.5392778E-01;0;  4.6405461E-02;  1.7261734E+04;  0.0000000E+00; -5.9131634E-01;  4.0000000E+04;  0.0000000E+00;  3.9720410E+04;  1.0682648E-01;  0.0000000E+00; -6.0421016E-02;  1.9991573E+03;
  8.0993015E-01;  9.9999998E-03; -8.0321476E-02;7226;  2.6696971E-02;  0.0000000E+00;  5.9418501E-03;  9.9912457E+02;  1.5260296E-01; -7.2526318E+02;3;  6.8057771E+00;  0.0000000E+00;  5.4745632E-01;0;  4.9940638E-02;  1.7258592E+04;  0.0000000E+00; -5.0437939E-01;  4.0000000E+04;  0.0000000E+00;  3.9718719E+04;  1.1267741E-01;  0.0000000E+00; -6.2736772E-02;  1.7002301E+03;
  8.0993539E-01;  9.9999998E-03; -7.0329890E-02;7227;  2.6997114E-02;  0.0000000E+00;  5.2591935E-03;  9.9902307E+02;  1.5259822E-01; -8.0935950E+02;3;  7.3571420E+00;  0.0000000E+00;  4.9643815E-01;0;  5.3110033E-02;  1.7254340E+04;  0.0000000E+00; -4.1128442E-01;  4.0000000E+04;  0.0000000E+00;  3.9716410E+04;  1.1782844E-01;  0.0000000E+00; -6.4718403E-02;  1.3319883E+03;
  8.0973965E-01;  9.9999998E-03; -6.0306139E-02;7228;  2.7235441E-02;  0.0000000E+00;  4.5546959E-03;  9.9892975E+02;  1.5251251E-01; -8.8669061E+02;3;  7.8725972E+00;  0.0000000E+00;  4.6390998E-01;0;  5.5733450E-02;  1.7268629E+04;  0.0000000E+00; -3.1538275E-01;  4.0000000E+04;  0.0000000E+00;  3.9714469E+04;  1.2206158E-01;  0.0000000E+00; -6.6328131E-02;  9.6273389E+02;
  8.0951017E-01;  9.9999998E-03; -5.0226506E-02;7229;  2.7418792E-02;  0.0000000E+00;  3.8246703E-03;  9.9884558E+02;  1.5241627E-01; -9.5641705E+02;3;  8.3286180E+00;  0.0000000E+00;  4.0406895E-01;0;  5.7920694E-02;  1.7285686E+04;  0.0000000E+00; -2.2472608E-01;  4.0000000E+04;  0.0000000E+00;  3.9712957E+04;  1.2555189E-01;  0.0000000E+00; -6.7631200E-02;  6.5406250E+02;
  8.0929732E-01;  9.9999998E-03; -4.0155664E-02;7230;  2.7557116E-02;  0.0000000E+00;  3.0777259E-03;  9.9878229E+02;  1.5232769E-01; -1.0088600E+03;3;  8.6918592E+00;  0.0000000E+00;  3.3959869E-01;0;  5.9688695E-02;  1.7301557E+04;  0.0000000E+00; -1.4610504E-01;  4.0000000E+04;  0.0000000E+00;  3.9712598E+04;  1.2834236E-01;  0.0000000E+00; -6.8653665E-02;  4.1633118E+02;
  8.0912167E-01;  9.9999998E-03; -3.0104004E-02;7231;  2.7660688E-02;  0.0000000E+00;  2.3187227E-03;  9.9873657E+02;  1.5225504E-01; -1.0467355E+03;3;  8.9944401E+00;  0.0000000E+00;  2.5700605E-01;0;  6.1052084E-02;  1.7314365E+04;  0.0000000E+00; -8.2987607E-02;  4.0000000E+04;  0.0000000E+00;  3.9712547E+04;  1.3047403E-01;  0.0000000E+00; -6.9421947E-02;  2.4654852E+02;
  8.0899382E-01;  9.9999998E-03; -2.0064371E-02;7232;  2.7729327E-02;  0.0000000E+00;  1.5512557E-03;  9.9870801E+02;  1.5220413E-01; -1.0703890E+03;3;  9.2181978E+00;  0.0000000E+00;  1.6954252E-01;0;  6.2021814E-02;  1.7323590E+04;  0.0000000E+00; -3.7091434E-02;  4.0000000E+04;  0.0000000E+00;  3.9712840E+04;  1.3197914E-01;  0.0000000E+00; -6.9957323E-02;  1.5849725E+02;
  8.0891573E-01;  9.9999998E-03; -1.0030779E-02;7233;  2.7768027E-02;  0.0000000E+00;  7.7727897E-04;  9.9869446E+02;  1.5217315E-01; -1.0815986E+03;3;  9.3493099E+00;  0.0000000E+00;  8.4539868E-02;0;  6.2601730E-02;  1.7329143E+04;  0.0000000E+00; -9.2970226E-03;  4.0000000E+04;  0.0000000E+00;  3.9713273E+04;  1.3287486E-01;  0.0000000E+00; -7.0273131E-02;  1.5500655E+02;
  8.0888981E-01;  9.9999998E-03;  5.8111147E-09;7234;  2.7780170E-02;  0.0000000E+00;  6.5501474E-08;  9.9868774E+02;  1.5216216E-01; -1.0871787E+03;3;  9.3880377E+00;  0.0000000E+00; -1.8034392E-05;0;  6.2794968E-02;  1.7331072E+04;  0.0000000E+00;  6.9733115E-11;  4.0000000E+04;  0.0000000E+00;  3.9713395E+04;  1.3317254E-01;  0.0000000E+00; -7.0377573E-02;  1.6587762E+02;
  8.0891573E-01;  9.9999998E-03;  1.0030791E-02;7235;  2.7768023E-02;  0.0000000E+00; -7.7714853E-04;  9.9869440E+02;  1.5217276E-01; -1.0816481E+03;3;  9.3493423E+00;  0.0000000E+00; -8.4563538E-02;0;  6.2601857E-02;  1.7329139E+04;  0.0000000E+00; -9.2960801E-03;  4.0000000E+04;  0.0000000E+00;  3.9713273E+04;  1.3287497E-01;  0.0000000E+00; -7.0273109E-02;  1.5501064E+02;
  8.0899382E-01;  9.9999998E-03;  2.0064384E-02;7236;  2.7729314E-02;  0.0000000E+00; -1.5511233E-03;  9.9870801E+02;  1.5220413E-01; -1.0703890E+03;3;  9.2181969E+00;  0.0000000E+00; -1.6957544E-01;0;  6.2021933E-02;  1.7323588E+04;  0.0000000E+00; -3.7089176E-02;  4.0000000E+04;  0.0000000E+00;  3.9712836E+04;  1.3197927E-01;  0.0000000E+00; -6.9957338E-02;  1.5848199E+02;
  8.0912167E-01;  9.9999998E-03;  3.0104019E-02;7237;  2.7660670E-02;  0.0000000E+00; -2.3185897E-03;  9.9873676E+02;  1.5225536E-01; -1.0465873E+03;3;  8.9944401E+00;  0.0000000E+00; -2.5704637E-01;0;  6.1052002E-02;  1.7314363E+04;  0.0000000E+00; -8.2985081E-02;  4.0000000E+04;  0.0000000E+00;  3.9712543E+04;  1.3047400E-01;  0.0000000E+00; -6.9421999E-02;  2.4653934E+02;
  8.0929732E-01;  9.9999998E-03;  4.0155679E-02;7238;  2.7557088E-02;  0.0000000E+00; -3.0775911E-03;  9.9878223E+02;  1.5232733E-01; -1.0089094E+03;3;  8.6918631E+00;  0.0000000E+00; -3.3963588E-01;0;  5.9688471E-02;  1.7301547E+04;  0.0000000E+00; -1.4610183E-01;  4.0000000E+04;  0.0000000E+00;  3.9712598E+04;  1.2834226E-01;  0.0000000E+00; -6.8653785E-02;  4.1633502E+02;
  8.0951017E-01;  9.9999998E-03;  5.0226517E-02;7239;  2.7418761E-02;  0.0000000E+00; -3.8245334E-03;  9.9884564E+02;  1.5241607E-01; -9.5636768E+02;3;  8.3286371E+00;  0.0000000E+00; -4.0408963E-01;0;  5.7920724E-02;  1.7285684E+04;  0.0000000E+00; -2.2472458E-01;  4.0000000E+04;  0.0000000E+00;  3.9712957E+04;  1.2555189E-01;  0.0000000E+00; -6.7631170E-02;  6.5406653E+02;
  8.0973971E-01;  9.9999998E-03;  6.0306154E-02;7240;  2.7235400E-02;  0.0000000E+00; -4.5545558E-03;  9.9892963E+02;  1.5251234E-01; -8.8678943E+02;3;  7.8725944E+00;  0.0000000E+00; -4.6392062E-01;0;  5.5733331E-02;  1.7268633E+04;  0.0000000E+00; -3.1538039E-01;  4.0000000E+04;  0.0000000E+00;  3.9714473E+04;  1.2206138E-01;  0.0000000E+00; -6.6328049E-02;  9.6273352E+02;
  8.2375884E-01;  9.9999998E-03;  5.2089280E-09;7295;  2.8576288E-02;  0.0000000E+00;  6.7334852E-08;  9.9743451E+02;  1.5846357E-01; -2.1254697E+03;3;  9.3552332E+00;  0.0000000E+00; -1.6110285E-05;0;  8.3629414E-02;  1.5970906E+04;  0.0000000E+00;  3.7000573E-11;  4.0000000E+04;  0.0000000E+00;  3.9686102E+04;  1.5834011E-01;  0.0000000E+00; -7.4710697E-02;  3.1275989E+02;
  8.2377136E-01;  9.9999998E-03; -1.0045949E-02;7294;  2.8557913E-02;  0.0000000E+00;  7.7226234E-04;  9.9743738E+02;  1.5846792E-01; -2.1230994E+03;3;  9.3154259E+00;  0.0000000E+00;  2.7546540E-02;0;  8.3375119E-02;  1.5970263E+04;  0.0000000E+00; -1.1247465E-02;  4.0000000E+04;  0.0000000E+00;  3.9685918E+04;  1.5797716E-01;  0.0000000E+00; -7.4602045E-02;  2.9617288E+02;
  8.2377136E-01;  9.9999998E-03;  1.0045961E-02;7296;  2.8557908E-02;  0.0000000E+00; -7.7212759E-04;  9.9743750E+02;  1.5846850E-01; -2.1230007E+03;3;  9.3154364E+00;  0.0000000E+00; -2.7567770E-02;0;  8.3375141E-02;  1.5970266E+04;  0.0000000E+00; -1.1246199E-02;  4.0000000E+04;  0.0000000E+00;  3.9685918E+04;  1.5797716E-01;  0.0000000E+00; -7.4602023E-02;  2.9614825E+02;
  8.2380986E-01;  9.9999998E-03; -2.0088950E-02;7293;  2.8503198E-02;  0.0000000E+00;  1.5418979E-03;  9.9744763E+02;  1.5848172E-01; -2.1146060E+03;3;  9.1894999E+00;  0.0000000E+00;  5.9123177E-02;0;  8.2613446E-02;  1.5968340E+04;  0.0000000E+00; -4.4874955E-02;  4.0000000E+04;  0.0000000E+00;  3.9685660E+04;  1.5688629E-01;  0.0000000E+00; -7.4272849E-02;  2.7933505E+02;
  8.2380986E-01;  9.9999998E-03;  2.0088965E-02;7297;  2.8503191E-02;  0.0000000E+00; -1.5417617E-03;  9.9744788E+02;  1.5848273E-01; -2.1144084E+03;3;  9.1895027E+00;  0.0000000E+00; -5.9142243E-02;0;  8.2613550E-02;  1.5968340E+04;  0.0000000E+00; -4.4872075E-02;  4.0000000E+04;  0.0000000E+00;  3.9685660E+04;  1.5688638E-01;  0.0000000E+00; -7.4272834E-02;  2.7933005E+02;
  8.2387841E-01;  9.9999998E-03; -3.0131018E-02;7292;  2.8412521E-02;  0.0000000E+00;  2.3063628E-03;  9.9746973E+02;  1.5850809E-01; -2.0962854E+03;3;  8.9768848E+00;  0.0000000E+00;  9.7634412E-02;0;  8.1348754E-02;  1.5964514E+04;  0.0000000E+00; -1.0045447E-01;  4.0000000E+04;  0.0000000E+00;  3.9685059E+04;  1.5506184E-01;  0.0000000E+00; -7.3713087E-02;  3.5257779E+02;
  8.2387841E-01;  9.9999998E-03;  3.0131035E-02;7298;  2.8412495E-02;  0.0000000E+00; -2.3062245E-03;  9.9746967E+02;  1.5850832E-01; -2.0963347E+03;3;  8.9768839E+00;  0.0000000E+00; -9.7662315E-02;0;  8.1348576E-02;  1.5964515E+04;  0.0000000E+00; -1.0045151E-01;  4.0000000E+04;  0.0000000E+00;  3.9685055E+04;  1.5506166E-01;  0.0000000E+00; -7.3713087E-02;  3.5256137E+02;
  8.2398343E-01;  9.9999998E-03; -4.0178854E-02;7291;  2.8283134E-02;  0.0000000E+00;  3.0625996E-03;  9.9750983E+02;  1.5854949E-01; -2.0630518E+03;3;  8.6704683E+00;  0.0000000E+00;  1.2455241E-01;0;  7.9585478E-02;  1.5958263E+04;  0.0000000E+00; -1.7708340E-01;  4.0000000E+04;  0.0000000E+00;  3.9684738E+04;  1.5249141E-01;  0.0000000E+00; -7.2905928E-02;  5.4992291E+02;
  8.2398343E-01;  9.9999998E-03;  4.0178869E-02;7299;  2.8283101E-02;  0.0000000E+00; -3.0624575E-03;  9.9750989E+02;  1.5854937E-01; -2.0630024E+03;3;  8.6704893E+00;  0.0000000E+00; -1.2456462E-01;0;  7.9585679E-02;  1.5958255E+04;  0.0000000E+00; -1.7708024E-01;  4.0000000E+04;  0.0000000E+00;  3.9684738E+04;  1.5249160E-01;  0.0000000E+00; -7.2905920E-02;  5.4992340E+02;
  8.2411915E-01;  9.9999998E-03; -5.0242569E-02;7290;  2.8111530E-02;  0.0000000E+00;  3.8078523E-03;  9.9756812E+02;  1.5860488E-01; -2.0147570E+03;3;  8.2929344E+00;  0.0000000E+00;  1.4372167E-01;0;  7.7301055E-02;  1.5949533E+04;  0.0000000E+00; -2.7296832E-01;  4.0000000E+04;  0.0000000E+00;  3.9685070E+04;  1.4912444E-01;  0.0000000E+00; -7.1823388E-02;  8.4017773E+02;
  8.2411915E-01;  9.9999998E-03;  5.0242580E-02;7300;  2.8111503E-02;  0.0000000E+00; -3.8077091E-03;  9.9756836E+02;  1.5860525E-01; -2.0145594E+03;3;  8.2929382E+00;  0.0000000E+00; -1.4375010E-01;0;  7.7301323E-02;  1.5949534E+04;  0.0000000E+00; -2.7296120E-01;  4.0000000E+04;  0.0000000E+00;  3.9685074E+04;  1.4912458E-01;  0.0000000E+00; -7.1823254E-02;  8.4017920E+02;
  8.2429349E-01;  9.9999998E-03; -6.0328279E-02;7289;  2.7894704E-02;  0.0000000E+00;  4.5410851E-03;  9.9764606E+02;  1.5867820E-01; -1.9502156E+03;3;  7.8375263E+00;  0.0000000E+00;  1.5487115E-01;0;  7.4499816E-02;  1.5937610E+04;  0.0000000E+00; -3.8464183E-01;  4.0000000E+04;  0.0000000E+00;  3.9685992E+04;  1.4493497E-01;  0.0000000E+00; -7.0435151E-02;  1.2092155E+03;
  8.2429349E-01;  9.9999998E-03;  6.0328290E-02;7301;  2.7894674E-02;  0.0000000E+00; -4.5409421E-03;  9.9764624E+02;  1.5867877E-01; -1.9500674E+03;3;  7.8375072E+00;  0.0000000E+00; -1.5489730E-01;0;  7.4500099E-02;  1.5937608E+04;  0.0000000E+00; -3.8463530E-01;  4.0000000E+04;  0.0000000E+00;  3.9685988E+04;  1.4493516E-01;  0.0000000E+00; -7.0435062E-02;  1.2092023E+03;
  8.2448494E-01;  9.9999998E-03; -7.0406623E-02;7288;  2.7630422E-02;  0.0000000E+00;  5.2573145E-03;  9.9774731E+02;  1.5876469E-01; -1.8663168E+03;3;  7.2958617E+00;  0.0000000E+00;  1.6540450E-01;0;  7.1147770E-02;  1.5923810E+04;  0.0000000E+00; -5.0525683E-01;  4.0000000E+04;  0.0000000E+00;  3.9688008E+04;  1.3985361E-01;  0.0000000E+00; -6.8705842E-02;  1.6426490E+03;
  8.2463855E-01;  9.9999998E-03; -8.0401376E-02;7287;  2.7307039E-02;  0.0000000E+00;  5.9516141E-03;  9.9786884E+02;  1.5884319E-01; -1.7656283E+03;3;  6.6923838E+00;  0.0000000E+00;  1.5611026E-01;0;  6.7190178E-02;  1.5911693E+04;  0.0000000E+00; -6.2391037E-01;  4.0000000E+04;  0.0000000E+00;  3.9690520E+04;  1.3379806E-01;  0.0000000E+00; -6.6607885E-02;  2.0950901E+03;
  8.2475662E-01;  9.9999998E-03; -9.0378217E-02;7286;  2.6932366E-02;  0.0000000E+00;  6.6286661E-03;  9.9800018E+02;  1.5892053E-01; -1.6567919E+03;3;  6.0394850E+00;  0.0000000E+00;  1.4834379E-01;0;  6.2638260E-02;  1.5900879E+04;  0.0000000E+00; -7.3073876E-01;  4.0000000E+04;  0.0000000E+00;  3.9692426E+04;  1.2674814E-01;  0.0000000E+00; -6.4109884E-02;  2.4799131E+03;
  8.2487386E-01;  9.9999998E-03; -1.0033637E-01;7285;  2.6502062E-02;  0.0000000E+00;  7.2883735E-03;  9.9814905E+02;  1.5899879E-01; -1.5334868E+03;3;  5.3556294E+00;  0.0000000E+00;  1.1484703E-01;0;  5.7577070E-02;  1.5890146E+04;  0.0000000E+00; -8.1459939E-01;  4.0000000E+04;  0.0000000E+00;  3.9693105E+04;  1.1878504E-01;  0.0000000E+00; -6.1207969E-02;  2.7176021E+03;
  8.4156680E-01;  9.9999998E-03;  5.8951706E-09;7356;  2.8993778E-02;  0.0000000E+00;  7.2465056E-08;  9.9699457E+02;  1.6612965E-01; -2.4899529E+03;3;  9.1980572E+00;  0.0000000E+00; -4.9186638E-06;0;  1.3296154E-01;  1.4557731E+04;  0.0000000E+00;  3.4706567E-12;  4.0000000E+04;  0.0000000E+00;  3.9656195E+04;  2.1370970E-01;  0.0000000E+00; -8.0748148E-02;  6.2703589E+02;
  8.4154683E-01;  9.9999998E-03; -1.0047026E-02;7355;  2.8974069E-02;  0.0000000E+00;  7.4659247E-04;  9.9698962E+02;  1.6612065E-01; -2.4940515E+03;3;  9.1594181E+00;  0.0000000E+00; -3.8779598E-02;0;  1.3245082E-01;  1.4559026E+04;  0.0000000E+00; -1.1598642E-02;  4.0000000E+04;  0.0000000E+00;  3.9656066E+04;  2.1306588E-01;  0.0000000E+00; -8.0615051E-02;  6.1174512E+02;
  8.4154683E-01;  9.9999998E-03;  1.0047039E-02;7357;  2.8974054E-02;  0.0000000E+00; -7.4644614E-04;  9.9698962E+02;  1.6612123E-01; -2.4940515E+03;3;  9.1594229E+00;  0.0000000E+00;  3.8781609E-02;0;  1.3245112E-01;  1.4559025E+04;  0.0000000E+00; -1.1597506E-02;  4.0000000E+04;  0.0000000E+00;  3.9656066E+04;  2.1306615E-01;  0.0000000E+00; -8.0615029E-02;  6.1171857E+02;
  8.4149003E-01;  9.9999998E-03; -2.0089932E-02;7354;  2.8916202E-02;  0.0000000E+00;  1.4922322E-03;  9.9698303E+02;  1.6609831E-01; -2.4994836E+03;3;  9.0473833E+00;  0.0000000E+00; -7.6950014E-02;0;  1.3093394E-01;  1.4562584E+04;  0.0000000E+00; -4.6099816E-02;  4.0000000E+04;  0.0000000E+00;  3.9655832E+04;  2.1114625E-01;  0.0000000E+00; -8.0212317E-02;  5.8050525E+02;
  8.4149003E-01;  9.9999998E-03;  2.0089947E-02;7358;  2.8916178E-02;  0.0000000E+00; -1.4920858E-03;  9.9698303E+02;  1.6609831E-01; -2.4994836E+03;3;  9.0474243E+00;  0.0000000E+00;  7.6942205E-02;0;  1.3093419E-01;  1.4562581E+04;  0.0000000E+00; -4.6097048E-02;  4.0000000E+04;  0.0000000E+00;  3.9655832E+04;  2.1114650E-01;  0.0000000E+00; -8.0212310E-02;  5.8045465E+02;
  8.4140742E-01;  9.9999998E-03; -3.0130250E-02;7353;  2.8817238E-02;  0.0000000E+00;  2.2369444E-03;  9.9697290E+02;  1.6606510E-01; -2.5078784E+03;3;  8.8444624E+00;  0.0000000E+00; -1.1132590E-01;0;  1.2845735E-01;  1.4567660E+04;  0.0000000E+00; -1.0275019E-01;  4.0000000E+04;  0.0000000E+00;  3.9655383E+04;  2.0798631E-01;  0.0000000E+00; -7.9528958E-02;  5.8444012E+02;
  8.4140736E-01;  9.9999998E-03;  3.0130265E-02;7359;  2.8817197E-02;  0.0000000E+00; -2.2367970E-03;  9.9697272E+02;  1.6606502E-01; -2.5080266E+03;3;  8.8444691E+00;  0.0000000E+00;  1.1131545E-01;0;  1.2845768E-01;  1.4567662E+04;  0.0000000E+00; -1.0274675E-01;  4.0000000E+04;  0.0000000E+00;  3.9655387E+04;  2.0798664E-01;  0.0000000E+00; -7.9528958E-02;  5.8441522E+02;
  8.4131527E-01;  9.9999998E-03; -4.0175419E-02;7352;  2.8677367E-02;  0.0000000E+00;  2.9793698E-03;  9.9696930E+02;  1.6603011E-01; -2.5108906E+03;3;  8.5574455E+00;  0.0000000E+00; -1.4841335E-01;0;  1.2508702E-01;  1.4573073E+04;  0.0000000E+00; -1.8048409E-01;  4.0000000E+04;  0.0000000E+00;  3.9655152E+04;  2.0363326E-01;  0.0000000E+00; -7.8546248E-02;  6.9598126E+02;
  8.4131527E-01;  9.9999998E-03;  4.0175438E-02;7360;  2.8677331E-02;  0.0000000E+00; -2.9792213E-03;  9.9696942E+02;  1.6603047E-01; -2.5107917E+03;3;  8.5574598E+00;  0.0000000E+00;  1.4840716E-01;0;  1.2508699E-01;  1.4573073E+04;  0.0000000E+00; -1.8048032E-01;  4.0000000E+04;  0.0000000E+00;  3.9655145E+04;  2.0363322E-01;  0.0000000E+00; -7.8546226E-02;  6.9594666E+02;
  8.4122938E-01;  9.9999998E-03; -5.0238207E-02;7351;  2.8491136E-02;  0.0000000E+00;  3.7195811E-03;  9.9697717E+02;  1.6599953E-01; -2.5043723E+03;3;  8.1727533E+00;  0.0000000E+00; -1.8712719E-01;0;  1.2088044E-01;  1.4577600E+04;  0.0000000E+00; -2.7762145E-01;  4.0000000E+04;  0.0000000E+00;  3.9655328E+04;  1.9811539E-01;  0.0000000E+00; -7.7234954E-02;  9.4080096E+02;
  8.4122932E-01;  9.9999998E-03;  5.0238222E-02;7361;  2.8491084E-02;  0.0000000E+00; -3.7194316E-03;  9.9697693E+02;  1.6600013E-01; -2.5045698E+03;3;  8.1727905E+00;  0.0000000E+00;  1.8710355E-01;0;  1.2088078E-01;  1.4577597E+04;  0.0000000E+00; -2.7761731E-01;  4.0000000E+04;  0.0000000E+00;  3.9655336E+04;  1.9811565E-01;  0.0000000E+00; -7.7234872E-02;  9.4077875E+02;
  8.4116173E-01;  9.9999998E-03; -6.0327888E-02;7350;  2.8262349E-02;  0.0000000E+00;  4.4535762E-03;  9.9700977E+02;  1.6598019E-01; -2.4773608E+03;3;  7.7183509E+00;  0.0000000E+00; -2.1031356E-01;0;  1.1588459E-01;  1.4580368E+04;  0.0000000E+00; -3.9099362E-01;  4.0000000E+04;  0.0000000E+00;  3.9656098E+04;  1.9144157E-01;  0.0000000E+00; -7.5556971E-02;  1.2939109E+03;
  8.4116173E-01;  9.9999998E-03;  6.0327902E-02;7362;  2.8262308E-02;  0.0000000E+00; -4.4534267E-03;  9.9700983E+02;  1.6598152E-01; -2.4773113E+03;3;  7.7183590E+00;  0.0000000E+00;  2.1029475E-01;0;  1.1588494E-01;  1.4580371E+04;  0.0000000E+00; -3.9098778E-01;  4.0000000E+04;  0.0000000E+00;  3.9656098E+04;  1.9144183E-01;  0.0000000E+00; -7.5556889E-02;  1.2939182E+03;
  8.4112549E-01;  9.9999998E-03; -7.0434608E-02;7349;  2.7986987E-02;  0.0000000E+00;  5.1812157E-03;  9.9706360E+02;  1.6597773E-01; -2.4327695E+03;3;  7.1758928E+00;  0.0000000E+00; -2.5442621E-01;0;  1.1015648E-01;  1.4580464E+04;  0.0000000E+00; -5.1462150E-01;  4.0000000E+04;  0.0000000E+00;  3.9657777E+04;  1.8363082E-01;  0.0000000E+00; -7.3474340E-02;  1.7196176E+03;
  8.4111536E-01;  9.9999998E-03; -8.0500863E-02;7348;  2.7663222E-02;  0.0000000E+00;  5.8980593E-03;  9.9713696E+02;  1.6598883E-01; -2.3719810E+03;3;  6.5391073E+00;  0.0000000E+00; -2.7205515E-01;0;  1.0373790E-01;  1.4578210E+04;  0.0000000E+00; -6.3795012E-01;  4.0000000E+04;  0.0000000E+00;  3.9659633E+04;  1.7469847E-01;  0.0000000E+00; -7.0960574E-02;  2.1630984E+03;
  8.4113264E-01;  9.9999998E-03; -9.0540305E-02;7347;  2.7280964E-02;  0.0000000E+00;  6.6049555E-03;  9.9723407E+02;  1.6601653E-01; -2.2915388E+03;3;  5.8373556E+00;  0.0000000E+00; -3.3470082E-01;0;  9.6661270E-02;  1.4573844E+04;  0.0000000E+00; -7.4765158E-01;  4.0000000E+04;  0.0000000E+00;  3.9661496E+04;  1.6464935E-01;  0.0000000E+00; -6.7988083E-02;  2.5382205E+03;
  8.4117883E-01;  9.9999998E-03; -1.0055946E-01;7346;  2.6852628E-02;  0.0000000E+00;  7.2975960E-03;  9.9733954E+02;  1.6606052E-01; -2.2041340E+03;3;  5.1268663E+00;  0.0000000E+00; -3.8294905E-01;0;  8.8973001E-02;  1.4567224E+04;  0.0000000E+00; -8.2964814E-01;  4.0000000E+04;  0.0000000E+00;  3.9662102E+04;  1.5351589E-01;  0.0000000E+00; -6.4542890E-02;  2.7524126E+03;
  8.5903859E-01;  9.9999998E-03; -1.0055420E-02;7416;  2.9332491E-02;  0.0000000E+00;  7.2302495E-04;  9.9792224E+02;  1.7428486E-01; -1.7213821E+03;3;  8.8428621E+00;  0.0000000E+00; -1.0032513E-01;0;  2.0501992E-01;  1.3287107E+04;  0.0000000E+00; -9.6091749E-03;  4.0000000E+04;  0.0000000E+00;  3.9625820E+04;  2.9273722E-01;  0.0000000E+00; -8.7717302E-02;  8.4950232E+02;
  8.5904193E-01;  9.9999998E-03;  6.8427033E-09;7417;  2.9351622E-02;  0.0000000E+00;  7.9991196E-08;  9.9793817E+02;  1.7428970E-01; -1.7081973E+03;3;  8.8974953E+00;  0.0000000E+00; -3.1768359E-06;0;  2.0574233E-01;  1.3287107E+04;  0.0000000E+00; -5.3805623E-12;  4.0000000E+04;  0.0000000E+00;  3.9625789E+04;  2.9362196E-01;  0.0000000E+00; -8.7879635E-02;  8.5739838E+02;
  8.5903859E-01;  9.9999998E-03;  1.0055434E-02;7418;  2.9332468E-02;  0.0000000E+00; -7.2286418E-04;  9.9792212E+02;  1.7428523E-01; -1.7214808E+03;3;  8.8428612E+00;  0.0000000E+00;  1.0034148E-01;0;  2.0501986E-01;  1.3287108E+04;  0.0000000E+00; -9.6087074E-03;  4.0000000E+04;  0.0000000E+00;  3.9625824E+04;  2.9273722E-01;  0.0000000E+00; -8.7717347E-02;  8.4950476E+02;
  8.5903007E-01;  9.9999998E-03; -2.0105947E-02;7415;  2.9277662E-02;  0.0000000E+00;  1.4473011E-03;  9.9787585E+02;  1.7427258E-01; -1.7598008E+03;3;  8.7296486E+00;  0.0000000E+00; -2.0826277E-01;0;  2.0286548E-01;  1.3287264E+04;  0.0000000E+00; -3.8225610E-02;  4.0000000E+04;  0.0000000E+00;  3.9625418E+04;  2.9009011E-01;  0.0000000E+00; -8.7224625E-02;  8.2795105E+02;
  8.5903007E-01;  9.9999998E-03;  2.0105962E-02;7419;  2.9277647E-02;  0.0000000E+00; -1.4471419E-03;  9.9787610E+02;  1.7427255E-01; -1.7596033E+03;3;  8.7296553E+00;  0.0000000E+00;  2.0826304E-01;0;  2.0286550E-01;  1.3287261E+04;  0.0000000E+00; -3.8224921E-02;  4.0000000E+04;  0.0000000E+00;  3.9625422E+04;  2.9009020E-01;  0.0000000E+00; -8.7224707E-02;  8.2792609E+02;
  8.5902095E-01;  9.9999998E-03; -3.0150844E-02;7414;  2.9181745E-02;  0.0000000E+00;  2.1758503E-03;  9.9780914E+02;  1.7425434E-01; -1.8150583E+03;3;  8.5049419E+00;  0.0000000E+00; -2.9857418E-01;0;  1.9931516E-01;  1.3287112E+04;  0.0000000E+00; -8.5412525E-02;  4.0000000E+04;  0.0000000E+00;  3.9625234E+04;  2.8569955E-01;  0.0000000E+00; -8.6384393E-02;  8.0715771E+02;
  8.5902095E-01;  9.9999998E-03;  3.0150861E-02;7420;  2.9181715E-02;  0.0000000E+00; -2.1756906E-03;  9.9780920E+02;  1.7425419E-01; -1.8150090E+03;3;  8.5049639E+00;  0.0000000E+00;  2.9857552E-01;0;  1.9931535E-01;  1.3287111E+04;  0.0000000E+00; -8.5410543E-02;  4.0000000E+04;  0.0000000E+00;  3.9625234E+04;  2.8569970E-01;  0.0000000E+00; -8.6384341E-02;  8.0713055E+02;
  8.5901672E-01;  9.9999998E-03; -4.0195853E-02;7413;  2.9045846E-02;  0.0000000E+00;  2.9069665E-03;  9.9772833E+02;  1.7423542E-01; -1.8820194E+03;3;  8.2298937E+00;  0.0000000E+00; -4.0720463E-01;0;  1.9441342E-01;  1.3286366E+04;  0.0000000E+00; -1.5076855E-01;  4.0000000E+04;  0.0000000E+00;  3.9624527E+04;  2.7958018E-01;  0.0000000E+00; -8.5166752E-02;  8.2698236E+02;
  8.5901666E-01;  9.9999998E-03;  4.0195875E-02;7421;  2.9045803E-02;  0.0000000E+00; -2.9068098E-03;  9.9772833E+02;  1.7423595E-01; -1.8820194E+03;3;  8.2299204E+00;  0.0000000E+00;  4.0719357E-01;0;  1.9441375E-01;  1.3286365E+04;  0.0000000E+00; -1.5076524E-01;  4.0000000E+04;  0.0000000E+00;  3.9624527E+04;  2.7958038E-01;  0.0000000E+00; -8.5166633E-02;  8.2693011E+02;
  8.5902321E-01;  9.9999998E-03; -5.0250109E-02;7412;  2.8867124E-02;  0.0000000E+00;  3.6447141E-03;  9.9764185E+02;  1.7421901E-01; -1.9536716E+03;3;  7.8540645E+00;  0.0000000E+00; -4.9391440E-01;0;  1.8821317E-01;  1.3284591E+04;  0.0000000E+00; -2.3365705E-01;  4.0000000E+04;  0.0000000E+00;  3.9624312E+04;  2.7174336E-01;  0.0000000E+00; -8.3530188E-02;  9.4296832E+02;
  8.5902321E-01;  9.9999998E-03;  5.0250128E-02;7422;  2.8867077E-02;  0.0000000E+00; -3.6445567E-03;  9.9764178E+02;  1.7421976E-01; -1.9537211E+03;3;  7.8540888E+00;  0.0000000E+00;  4.9388957E-01;0;  1.8821362E-01;  1.3284588E+04;  0.0000000E+00; -2.3365307E-01;  4.0000000E+04;  0.0000000E+00;  3.9624309E+04;  2.7174369E-01;  0.0000000E+00; -8.3530061E-02;  9.4292230E+02;
  8.5904640E-01;  9.9999998E-03; -6.0325008E-02;7411;  2.8645545E-02;  0.0000000E+00;  4.3860697E-03;  9.9756805E+02;  1.7420994E-01; -2.0148057E+03;3;  7.4349856E+00;  0.0000000E+00; -5.9170568E-01;0;  1.8076837E-01;  1.3281326E+04;  0.0000000E+00; -3.3215997E-01;  4.0000000E+04;  0.0000000E+00;  3.9624363E+04;  2.6219222E-01;  0.0000000E+00; -8.1423856E-02;  1.1792004E+03;
  8.5904640E-01;  9.9999998E-03;  6.0325027E-02;7423;  2.8645501E-02;  0.0000000E+00; -4.3859142E-03;  9.9756799E+02;  1.7420989E-01; -2.0148551E+03;3;  7.4349833E+00;  0.0000000E+00;  5.9168953E-01;0;  1.8076843E-01;  1.3281327E+04;  0.0000000E+00; -3.3215272E-01;  4.0000000E+04;  0.0000000E+00;  3.9624352E+04;  2.6219222E-01;  0.0000000E+00; -8.1423782E-02;  1.1791534E+03;
  8.5909736E-01;  9.9999998E-03; -7.0431083E-02;7410;  2.8376210E-02;  0.0000000E+00;  5.1288479E-03;  9.9751874E+02;  1.7421292E-01; -2.0556934E+03;3;  6.8718925E+00;  0.0000000E+00; -6.8027759E-01;0;  1.7216143E-01;  1.3276120E+04;  0.0000000E+00; -4.4156107E-01;  4.0000000E+04;  0.0000000E+00;  3.9625121E+04;  2.5095668E-01;  0.0000000E+00; -7.8795254E-02;  1.5082158E+03;
  8.5917765E-01;  9.9999998E-03; -8.0540322E-02;7409;  2.8068813E-02;  0.0000000E+00;  5.8732838E-03;  9.9750476E+02;  1.7423286E-01; -2.0672485E+03;3;  6.2830300E+00;  0.0000000E+00; -7.7420044E-01;0;  1.6248241E-01;  1.3268701E+04;  0.0000000E+00; -5.5330145E-01;  4.0000000E+04;  0.0000000E+00;  3.9626145E+04;  2.3808795E-01;  0.0000000E+00; -7.5605541E-02;  1.8654868E+03;
  8.5927945E-01;  9.9999998E-03; -9.0621531E-02;7408;  2.7717683E-02;  0.0000000E+00;  6.6189342E-03;  9.9752203E+02;  1.7426679E-01; -2.0529280E+03;3;  5.5333209E+00;  0.0000000E+00; -8.4089339E-01;0;  1.5181328E-01;  1.3259859E+04;  0.0000000E+00; -6.5498054E-01;  4.0000000E+04;  0.0000000E+00;  3.9627090E+04;  2.2365120E-01;  0.0000000E+00; -7.1837917E-02;  2.1594519E+03;
  8.5939229E-01;  9.9999998E-03; -1.0068946E-01;7407;  2.7295774E-02;  0.0000000E+00;  7.3573324E-03;  9.9756628E+02;  1.7430854E-01; -2.0162871E+03;3;  4.7936711E+00;  0.0000000E+00; -9.3300760E-01;0;  1.4019594E-01;  1.3250382E+04;  0.0000000E+00; -7.3292297E-01;  4.0000000E+04;  0.0000000E+00;  3.9627184E+04;  2.0768131E-01;  0.0000000E+00; -6.7485370E-02;  2.2908652E+03;
  8.7657177E-01;  9.9999998E-03; -1.0063817E-02;7477;  3.0048627E-02;  0.0000000E+00;  7.3927600E-04;  9.9871313E+02;  1.8267842E-01; -1.0661417E+03;3;  8.0532150E+00;  0.0000000E+00; -1.4295952E-01;0;  2.8943118E-01;  1.2134043E+04;  0.0000000E+00; -5.5491887E-03;  4.0000000E+04;  0.0000000E+00;  3.9595145E+04;  3.8487223E-01;  0.0000000E+00; -9.5441043E-02;  1.0638318E+03;
  8.7657416E-01;  9.9999998E-03;  7.5654638E-09;7478;  3.0062312E-02;  0.0000000E+00;  8.8887099E-08;  9.9873041E+02;  1.8268086E-01; -1.0518212E+03;3;  8.0800257E+00;  0.0000000E+00;  2.1709129E-06;0;  2.9049444E-01;  1.2134376E+04;  0.0000000E+00;  6.3325152E-12;  4.0000000E+04;  0.0000000E+00;  3.9595156E+04;  3.8615751E-01;  0.0000000E+00; -9.5663086E-02;  1.0625006E+03;
  8.7657177E-01;  9.9999998E-03;  1.0063832E-02;7479;  3.0048620E-02;  0.0000000E+00; -7.3909864E-04;  9.9871307E+02;  1.8267727E-01; -1.0661912E+03;3;  8.0532265E+00;  0.0000000E+00;  1.4297527E-01;0;  2.8943151E-01;  1.2134042E+04;  0.0000000E+00; -5.5494648E-03;  4.0000000E+04;  0.0000000E+00;  3.9595141E+04;  3.8487247E-01;  0.0000000E+00; -9.5440939E-02;  1.0638191E+03;
  8.7656450E-01;  9.9999998E-03; -2.0119285E-02;7476;  3.0004779E-02;  0.0000000E+00;  1.4789249E-03;  9.9865167E+02;  1.8267116E-01; -1.1170538E+03;3;  7.9024382E+00;  0.0000000E+00; -2.7876449E-01;0;  2.8625542E-01;  1.2132957E+04;  0.0000000E+00; -2.2448823E-02;  4.0000000E+04;  0.0000000E+00;  3.9595211E+04;  3.8102296E-01;  0.0000000E+00; -9.4767533E-02;  1.0609716E+03;
  8.7656450E-01;  9.9999998E-03;  2.0119302E-02;7480;  3.0004762E-02;  0.0000000E+00; -1.4787494E-03;  9.9865161E+02;  1.8267068E-01; -1.1171031E+03;3;  7.9024487E+00;  0.0000000E+00;  2.7876979E-01;0;  2.8625554E-01;  1.2132963E+04;  0.0000000E+00; -2.2449084E-02;  4.0000000E+04;  0.0000000E+00;  3.9595211E+04;  3.8102305E-01;  0.0000000E+00; -9.4767496E-02;  1.0609600E+03;
  8.7655324E-01;  9.9999998E-03; -3.0165125E-02;7475;  2.9928710E-02;  0.0000000E+00;  2.2254232E-03;  9.9856097E+02;  1.8265873E-01; -1.1922122E+03;3;  7.6866107E+00;  0.0000000E+00; -4.2819035E-01;0;  2.8101015E-01;  1.2131239E+04;  0.0000000E+00; -5.1456425E-02;  4.0000000E+04;  0.0000000E+00;  3.9594840E+04;  3.7463149E-01;  0.0000000E+00; -9.3621336E-02;  1.0413290E+03;
  8.7655324E-01;  9.9999998E-03;  3.0165143E-02;7481;  2.9928697E-02;  0.0000000E+00; -2.2252509E-03;  9.9856110E+02;  1.8265796E-01; -1.1921134E+03;3;  7.6866078E+00;  0.0000000E+00;  4.2819089E-01;0;  2.8101036E-01;  1.2131238E+04;  0.0000000E+00; -5.1456247E-02;  4.0000000E+04;  0.0000000E+00;  3.9594844E+04;  3.7463170E-01;  0.0000000E+00; -9.3621336E-02;  1.0413127E+03;
  8.7653989E-01;  9.9999998E-03; -4.0206365E-02;7474;  2.9822564E-02;  0.0000000E+00;  2.9726678E-03;  9.9843982E+02;  1.8264259E-01; -1.2925548E+03;3;  7.4000788E+00;  0.0000000E+00; -5.5933440E-01;0;  2.7376622E-01;  1.2128916E+04;  0.0000000E+00; -9.3797296E-02;  4.0000000E+04;  0.0000000E+00;  3.9594473E+04;  3.6573446E-01;  0.0000000E+00; -9.1968223E-02;  1.0051284E+03;
  8.7653989E-01;  9.9999998E-03;  4.0206388E-02;7482;  2.9822528E-02;  0.0000000E+00; -2.9724967E-03;  9.9843976E+02;  1.8264277E-01; -1.2926537E+03;3;  7.4000874E+00;  0.0000000E+00;  5.5935180E-01;0;  2.7376658E-01;  1.2128914E+04;  0.0000000E+00; -9.3798406E-02;  4.0000000E+04;  0.0000000E+00;  3.9594473E+04;  3.6573473E-01;  0.0000000E+00; -9.1968156E-02;  1.0051216E+03;
  8.7652636E-01;  9.9999998E-03; -5.0252125E-02;7473;  2.9687064E-02;  0.0000000E+00;  3.7363758E-03;  9.9831110E+02;  1.8262477E-01; -1.3992184E+03;3;  6.9643283E+00;  0.0000000E+00; -6.8848115E-01;0;  2.6461166E-01;  1.2126039E+04;  0.0000000E+00; -1.5082945E-01;  4.0000000E+04;  0.0000000E+00;  3.9593777E+04;  3.5437241E-01;  0.0000000E+00; -8.9760743E-02;  9.8116266E+02;
  8.7652636E-01;  9.9999998E-03;  5.0252147E-02;7483;  2.9687032E-02;  0.0000000E+00; -3.7362084E-03;  9.9831116E+02;  1.8262464E-01; -1.3991691E+03;3;  6.9643526E+00;  0.0000000E+00;  6.8849188E-01;0;  2.6461169E-01;  1.2126035E+04;  0.0000000E+00; -1.5083045E-01;  4.0000000E+04;  0.0000000E+00;  3.9593773E+04;  3.5437229E-01;  0.0000000E+00; -8.9760609E-02;  9.8115155E+02;
  8.7651837E-01;  9.9999998E-03; -6.0315035E-02;7472;  2.9522073E-02;  0.0000000E+00;  4.5058965E-03;  9.9818939E+02;  1.8260607E-01; -1.5000549E+03;3;  6.5557809E+00;  0.0000000E+00; -8.6540860E-01;0;  2.5366282E-01;  1.2122556E+04;  0.0000000E+00; -2.2299136E-01;  4.0000000E+04;  0.0000000E+00;  3.9593453E+04;  3.4060767E-01;  0.0000000E+00; -8.6944863E-02;  1.0205223E+03;
  8.7651837E-01;  9.9999998E-03;  6.0315061E-02;7484;  2.9522028E-02;  0.0000000E+00; -4.5057312E-03;  9.9818933E+02;  1.8260576E-01; -1.5001044E+03;3;  6.5557847E+00;  0.0000000E+00;  8.6542761E-01;0;  2.5366288E-01;  1.2122560E+04;  0.0000000E+00; -2.2298595E-01;  4.0000000E+04;  0.0000000E+00;  3.9593469E+04;  3.4060770E-01;  0.0000000E+00; -8.6944833E-02;  1.0204763E+03;
  8.7652820E-01;  9.9999998E-03; -7.0407294E-02;7471;  2.9319627E-02;  0.0000000E+00;  5.2931001E-03;  9.9809045E+02;  1.8259536E-01; -1.5820280E+03;3;  5.9798684E+00;  0.0000000E+00; -9.5812947E-01;0;  2.4107727E-01;  1.2117845E+04;  0.0000000E+00; -3.0819654E-01;  4.0000000E+04;  0.0000000E+00;  3.9593391E+04;  3.2454506E-01;  0.0000000E+00; -8.3467782E-02;  1.1521914E+03;
  8.7657821E-01;  9.9999998E-03; -8.0518626E-02;7470;  2.9085880E-02;  0.0000000E+00;  6.0925097E-03;  9.9802856E+02;  1.8260330E-01; -1.6332856E+03;3;  5.4622617E+00;  0.0000000E+00; -1.1199745E+00;0;  2.2708321E-01;  1.2110888E+04;  0.0000000E+00; -4.0052116E-01;  4.0000000E+04;  0.0000000E+00;  3.9593625E+04;  3.0637965E-01;  0.0000000E+00; -7.9296432E-02;  1.3368816E+03;
  8.7669164E-01;  9.9999998E-03; -9.0607807E-02;7469;  2.8814387E-02;  0.0000000E+00;  6.8965741E-03;  9.9800360E+02;  1.8264383E-01; -1.6539764E+03;3;  4.7788110E+00;  0.0000000E+00; -1.1886628E+00;0;  2.1195923E-01;  1.2100430E+04;  0.0000000E+00; -4.9023569E-01;  4.0000000E+04;  0.0000000E+00;  3.9593660E+04;  2.8639707E-01;  0.0000000E+00; -7.4437842E-02;  1.4791866E+03;
  8.7684011E-01;  9.9999998E-03; -1.0067267E-01;7468;  2.8471179E-02;  0.0000000E+00;  7.6982509E-03;  9.9801532E+02;  1.8270196E-01; -1.6442483E+03;3;  4.0925250E+00;  0.0000000E+00; -1.3187019E+00;0;  1.9575614E-01;  1.2088411E+04;  0.0000000E+00; -5.6612998E-01;  4.0000000E+04;  0.0000000E+00;  3.9592629E+04;  2.6466572E-01;  0.0000000E+00; -6.8909578E-02;  1.4794102E+03;
  8.9591277E-01;  9.9999998E-03; -1.0059361E-01;7529;  3.5412196E-02;  0.0000000E+00;  9.8271919E-03;  9.9829169E+02;  1.9209528E-01; -1.4153162E+03;3;  9.8339951E-01;  0.0000000E+00; -1.3509868E+00;0;  2.4408635E-01;  1.0950308E+04;  0.0000000E+00; -3.8795075E-01;  4.0000000E+04;  0.0000000E+00;  3.9555973E+04;  3.1175965E-01;  0.0000000E+00; -6.7673296E-02;  7.5647528E+02;
  8.9581221E-01;  9.9999998E-03; -9.0543114E-02;7530;  3.5397716E-02;  0.0000000E+00;  8.8161854E-03;  9.9829736E+02;  1.9206275E-01; -1.4106250E+03;3;  1.8485314E+00;  0.0000000E+00; -1.3065190E+00;0;  2.6508248E-01;  1.0958458E+04;  0.0000000E+00; -3.0974808E-01;  4.0000000E+04;  0.0000000E+00;  3.9557668E+04;  3.3970046E-01;  0.0000000E+00; -7.4617967E-02;  9.1207056E+02;
  8.9567953E-01;  9.9999998E-03; -8.0467150E-02;7531;  3.5164367E-02;  0.0000000E+00;  7.7787689E-03;  9.9833319E+02;  1.9201685E-01; -1.3808975E+03;3;  2.4519777E+00;  0.0000000E+00; -1.1198609E+00;0;  2.8470680E-01;  1.0968980E+04;  0.0000000E+00; -2.3334599E-01;  4.0000000E+04;  0.0000000E+00;  3.9558328E+04;  3.6554876E-01;  0.0000000E+00; -8.0841966E-02;  9.6946051E+02;
  8.9553487E-01;  9.9999998E-03; -7.0362225E-02;7532;  3.4811296E-02;  0.0000000E+00;  6.7192372E-03;  9.9841150E+02;  1.9196445E-01; -1.3160598E+03;3;  3.1177428E+00;  0.0000000E+00; -1.0418020E+00;0;  3.0271423E-01;  1.0980544E+04;  0.0000000E+00; -1.6439115E-01;  4.0000000E+04;  0.0000000E+00;  3.9558930E+04;  3.8897747E-01;  0.0000000E+00; -8.6263247E-02;  9.9125519E+02;
  8.9538968E-01;  9.9999998E-03; -6.0277123E-02;7533;  3.4424827E-02;  0.0000000E+00;  5.6981142E-03;  9.9852216E+02;  1.9190937E-01; -1.2243589E+03;3;  3.6485107E+00;  0.0000000E+00; -9.4068897E-01;0;  3.1878310E-01;  1.0992462E+04;  0.0000000E+00; -1.0764398E-01;  4.0000000E+04;  0.0000000E+00;  3.9559484E+04;  4.0960655E-01;  0.0000000E+00; -9.0823449E-02;  1.0368038E+03;
  8.9525092E-01;  9.9999998E-03; -5.0223287E-02;7534;  3.4083568E-02;  0.0000000E+00;  4.6943547E-03;  9.9865253E+02;  1.9185476E-01; -1.1163621E+03;3;  4.0643411E+00;  0.0000000E+00; -8.0068475E-01;0;  3.3269370E-01;  1.1004020E+04;  0.0000000E+00; -6.4953029E-02;  4.0000000E+04;  0.0000000E+00;  3.9560492E+04;  4.2723358E-01;  0.0000000E+00; -9.4539881E-02;  1.1114651E+03;
  8.9512360E-01;  9.9999998E-03; -4.0185966E-02;7535;  3.3828527E-02;  0.0000000E+00;  3.7090315E-03;  9.9878882E+02;  1.9180420E-01; -1.0034271E+03;3;  4.5003290E+00;  0.0000000E+00; -6.8303591E-01;0;  3.4429479E-01;  1.1014757E+04;  0.0000000E+00; -3.5534024E-02;  4.0000000E+04;  0.0000000E+00;  3.9561430E+04;  4.4176087E-01;  0.0000000E+00; -9.7466066E-02;  1.1831405E+03;
  8.9501435E-01;  9.9999998E-03; -3.0151989E-02;7536;  3.3650257E-02;  0.0000000E+00;  2.7691771E-03;  9.9890851E+02;  1.9175810E-01; -9.0426953E+02;3;  4.7592888E+00;  0.0000000E+00; -5.5327666E-01;0;  3.5345677E-01;  1.1023966E+04;  0.0000000E+00; -1.6984532E-02;  4.0000000E+04;  0.0000000E+00;  3.9561895E+04;  4.5312062E-01;  0.0000000E+00; -9.9663854E-02;  1.2240056E+03;
  8.9493001E-01;  9.9999998E-03; -2.0111326E-02;7537;  3.3537913E-02;  0.0000000E+00;  1.8326086E-03;  9.9900421E+02;  1.9172210E-01; -8.2501263E+02;3;  4.9235730E+00;  0.0000000E+00; -3.6784473E-01;0;  3.6007708E-01;  1.1031080E+04;  0.0000000E+00; -6.4826719E-03;  4.0000000E+04;  0.0000000E+00;  3.9562320E+04;  4.6126780E-01;  0.0000000E+00; -1.0119070E-01;  1.2293646E+03;
  8.9487672E-01;  9.9999998E-03; -1.0060003E-02;7538;  3.3471543E-02;  0.0000000E+00;  9.0741192E-04;  9.9906604E+02;  1.9170003E-01; -7.7375488E+02;3;  5.0410190E+00;  0.0000000E+00; -1.9516617E-01;0;  3.6407965E-01;  1.1035540E+04;  0.0000000E+00; -1.4449012E-03;  4.0000000E+04;  0.0000000E+00;  3.9562355E+04;  4.6616885E-01;  0.0000000E+00; -1.0208920E-01;  1.2164263E+03;
  8.9485854E-01;  9.9999998E-03;  6.8712711E-09;7539;  3.3447053E-02;  0.0000000E+00;  8.9988596E-08;  9.9908466E+02;  1.9169252E-01; -7.5834796E+02;3;  5.0774903E+00;  0.0000000E+00;  3.4774421E-06;0;  3.6541882E-01;  1.1037063E+04;  0.0000000E+00;  2.7069793E-11;  4.0000000E+04;  0.0000000E+00;  3.9562242E+04;  4.6780440E-01;  0.0000000E+00; -1.0238557E-01;  1.2085569E+03;
  8.9487672E-01;  9.9999998E-03;  1.0060018E-02;7540;  3.3471581E-02;  0.0000000E+00; -9.0723229E-04;  9.9906610E+02;  1.9169925E-01; -7.7370551E+02;3;  5.0410042E+00;  0.0000000E+00;  1.9519165E-01;0;  3.6407989E-01;  1.1035544E+04;  0.0000000E+00; -1.4450947E-03;  4.0000000E+04;  0.0000000E+00;  3.9562355E+04;  4.6616903E-01;  0.0000000E+00; -1.0208913E-01;  1.2164004E+03;
  8.9493001E-01;  9.9999998E-03;  2.0111341E-02;7541;  3.3537935E-02;  0.0000000E+00; -1.8324273E-03;  9.9900415E+02;  1.9172157E-01; -8.2506201E+02;3;  4.9235668E+00;  0.0000000E+00;  3.6785790E-01;0;  3.6007720E-01;  1.1031080E+04;  0.0000000E+00; -6.4829397E-03;  4.0000000E+04;  0.0000000E+00;  3.9562320E+04;  4.6126792E-01;  0.0000000E+00; -1.0119070E-01;  1.2293467E+03;
  8.9501435E-01;  9.9999998E-03;  3.0152002E-02;7542;  3.3650324E-02;  0.0000000E+00; -2.7689955E-03;  9.9890857E+02;  1.9175796E-01; -9.0422015E+02;3;  4.7592602E+00;  0.0000000E+00;  5.5331886E-01;0;  3.5345697E-01;  1.1023967E+04;  0.0000000E+00; -1.6984127E-02;  4.0000000E+04;  0.0000000E+00;  3.9561895E+04;  4.5312071E-01;  0.0000000E+00; -9.9663727E-02;  1.2239894E+03;
  8.9512360E-01;  9.9999998E-03;  4.0185980E-02;7543;  3.3828661E-02;  0.0000000E+00; -3.7088569E-03;  9.9878912E+02;  1.9180343E-01; -1.0031802E+03;3;  4.5002680E+00;  0.0000000E+00;  6.8302381E-01;0;  3.4429502E-01;  1.1014758E+04;  0.0000000E+00; -3.5534471E-02;  4.0000000E+04;  0.0000000E+00;  3.9561438E+04;  4.4176099E-01;  0.0000000E+00; -9.7465962E-02;  1.1830653E+03;
  8.9525092E-01;  9.9999998E-03;  5.0223302E-02;7544;  3.4083653E-02;  0.0000000E+00; -4.6941759E-03;  9.9865265E+02;  1.9185513E-01; -1.1162633E+03;3;  4.0642915E+00;  0.0000000E+00;  8.0069023E-01;0;  3.3269426E-01;  1.1004023E+04;  0.0000000E+00; -6.4956903E-02;  4.0000000E+04;  0.0000000E+00;  3.9560488E+04;  4.2723393E-01;  0.0000000E+00; -9.4539680E-02;  1.1114058E+03;
  8.9538968E-01;  9.9999998E-03;  6.0277142E-02;7545;  3.4424860E-02;  0.0000000E+00; -5.6979298E-03;  9.9852222E+02;  1.9191025E-01; -1.2243094E+03;3;  3.6484718E+00;  0.0000000E+00;  9.4068253E-01;0;  3.1878346E-01;  1.0992461E+04;  0.0000000E+00; -1.0764463E-01;  4.0000000E+04;  0.0000000E+00;  3.9559480E+04;  4.0960672E-01;  0.0000000E+00; -9.0823248E-02;  1.0368301E+03;
  9.1542351E-01;  9.9999998E-03; -1.0051656E-01;7590;  5.6426346E-02;  0.0000000E+00;  1.5294150E-02;  9.9816296E+02;  2.0211065E-01; -1.5219297E+03;3; -6.4273677E+00;  0.0000000E+00; -8.4562260E-01;0;  2.5658530E-01;  9.8950352E+03;  0.0000000E+00; -2.5664660E-01;  4.0000000E+04;  0.0000000E+00;  3.9520289E+04;  3.1834784E-01;  0.0000000E+00; -6.1762549E-02;  1.4777046E+03;
  9.1545820E-01;  9.9999998E-03; -9.0458125E-02;7591;  5.9398752E-02;  0.0000000E+00;  1.4266443E-02;  9.9816852E+02;  2.0214443E-01; -1.5173373E+03;3; -5.2908773E+00;  0.0000000E+00; -4.5260346E-01;0;  2.7984509E-01;  9.8954473E+03;  0.0000000E+00; -1.7767280E-01;  4.0000000E+04;  0.0000000E+00;  3.9521164E+04;  3.4953001E-01;  0.0000000E+00; -6.9684915E-02;  1.4311039E+03;
  9.1545111E-01;  9.9999998E-03; -8.0382563E-02;7592;  6.1785724E-02;  0.0000000E+00;  1.3050609E-02;  9.9821063E+02;  2.0215556E-01; -1.4824741E+03;3; -4.2128186E+00;  0.0000000E+00; -6.4998984E-02;0;  3.0188662E-01;  9.8986816E+03;  0.0000000E+00; -1.1739004E-01;  4.0000000E+04;  0.0000000E+00;  3.9521289E+04;  3.7883517E-01;  0.0000000E+00; -7.6948561E-02;  1.3177212E+03;
  9.1541255E-01;  9.9999998E-03; -7.0295423E-02;7593;  6.3574135E-02;  0.0000000E+00;  1.1632831E-02;  9.9828754E+02;  2.0214795E-01; -1.4187229E+03;3; -2.8882668E+00;  0.0000000E+00;  1.7338480E-01;0;  3.2238060E-01;  9.9040430E+03;  0.0000000E+00; -7.3035501E-02;  4.0000000E+04;  0.0000000E+00;  3.9521406E+04;  4.0579820E-01;  0.0000000E+00; -8.3417594E-02;  1.2020908E+03;
  9.1534823E-01;  9.9999998E-03; -6.0216274E-02;7594;  6.4730175E-02;  0.0000000E+00;  1.0071737E-02;  9.9839032E+02;  2.0212045E-01; -1.3335897E+03;3; -1.6997690E+00;  0.0000000E+00;  4.0971249E-01;0;  3.4097040E-01;  9.9109893E+03;  0.0000000E+00; -4.1725121E-02;  4.0000000E+04;  0.0000000E+00;  3.9522070E+04;  4.2996091E-01;  0.0000000E+00; -8.8990502E-02;  1.1401904E+03;
  9.1525966E-01;  9.9999998E-03; -5.0162278E-02;7595;  6.5315500E-02;  0.0000000E+00;  8.4429737E-03;  9.9850427E+02;  2.0207667E-01; -1.2391727E+03;3; -6.8570912E-01;  0.0000000E+00;  3.8874981E-01;0;  3.5731941E-01;  9.9191484E+03;  0.0000000E+00; -2.0948121E-02;  4.0000000E+04;  0.0000000E+00;  3.9522887E+04;  4.5094210E-01;  0.0000000E+00; -9.3622699E-02;  1.1460447E+03;
  9.1515565E-01;  9.9999998E-03; -4.0132482E-02;7596;  6.5579370E-02;  0.0000000E+00;  6.7671798E-03;  9.9861389E+02;  2.0202400E-01; -1.1483607E+03;3;  6.9666862E-02;  0.0000000E+00;  4.1953927E-01;0;  3.7114501E-01;  9.9277871E+03;  0.0000000E+00; -8.4998654E-03;  4.0000000E+04;  0.0000000E+00;  3.9523852E+04;  4.6847355E-01;  0.0000000E+00; -9.7328559E-02;  1.1870129E+03;
  9.1504884E-01;  9.9999998E-03; -3.0112011E-02;7597;  6.5598741E-02;  0.0000000E+00;  5.0686528E-03;  9.9870892E+02;  2.0196876E-01; -1.0696470E+03;3;  7.8624171E-01;  0.0000000E+00;  2.8587875E-01;0;  3.8219777E-01;  9.9359824E+03;  0.0000000E+00; -2.2620133E-03;  4.0000000E+04;  0.0000000E+00;  3.9524492E+04;  4.8234776E-01;  0.0000000E+00; -1.0014998E-01;  1.2201790E+03;
  9.1495579E-01;  9.9999998E-03; -2.0087544E-02;7598;  6.5493032E-02;  0.0000000E+00;  3.3941593E-03;  9.9877631E+02;  2.0191830E-01; -1.0137968E+03;3;  1.1620612E+00;  0.0000000E+00;  2.5147596E-01;0;  3.9026567E-01;  9.9427031E+03;  0.0000000E+00; -8.7476714E-05;  4.0000000E+04;  0.0000000E+00;  3.9524871E+04;  4.9239713E-01;  0.0000000E+00; -1.0213145E-01;  1.2270929E+03;
  9.1489232E-01;  9.9999998E-03; -1.0049849E-02;7599;  6.5402463E-02;  0.0000000E+00;  1.7034109E-03;  9.9881720E+02;  2.0188560E-01; -9.7992126E+02;3;  1.4448118E+00;  0.0000000E+00;  1.2424316E-01;0;  3.9518324E-01;  9.9471631E+03;  0.0000000E+00;  1.3024635E-04;  4.0000000E+04;  0.0000000E+00;  3.9524836E+04;  4.9849200E-01;  0.0000000E+00; -1.0330877E-01;  1.2165328E+03;
  9.1486996E-01;  9.9999998E-03;  8.9919432E-09;7600;  6.5369293E-02;  0.0000000E+00;  8.0650558E-08;  9.9882977E+02;  2.0187350E-01; -9.6950183E+02;3;  1.4753393E+00;  0.0000000E+00;  1.4643001E-05;0;  3.9683697E-01;  9.9487217E+03;  0.0000000E+00;  4.8324098E-11;  4.0000000E+04;  0.0000000E+00;  3.9524875E+04;  5.0053650E-01;  0.0000000E+00; -1.0369954E-01;  1.2095077E+03;
  9.1489232E-01;  9.9999998E-03;  1.0049867E-02;7601;  6.5402597E-02;  0.0000000E+00; -1.7032524E-03;  9.9881714E+02;  2.0188569E-01; -9.7997064E+02;3;  1.4448124E+00;  0.0000000E+00; -1.2422820E-01;0;  3.9518362E-01;  9.9471611E+03;  0.0000000E+00;  1.3108236E-04;  4.0000000E+04;  0.0000000E+00;  3.9524840E+04;  4.9849242E-01;  0.0000000E+00; -1.0330878E-01;  1.2165288E+03;
  9.1495579E-01;  9.9999998E-03;  2.0087557E-02;7602;  6.5493293E-02;  0.0000000E+00; -3.3940072E-03;  9.9877643E+02;  2.0191811E-01; -1.0136981E+03;3;  1.1620653E+00;  0.0000000E+00; -2.5144050E-01;0;  3.9026564E-01;  9.9426992E+03;  0.0000000E+00; -8.6316315E-05;  4.0000000E+04;  0.0000000E+00;  3.9524871E+04;  4.9239698E-01;  0.0000000E+00; -1.0213135E-01;  1.2270509E+03;
  9.1504884E-01;  9.9999998E-03;  3.0112026E-02;7603;  6.5599076E-02;  0.0000000E+00; -5.0685089E-03;  9.9870911E+02;  2.0196845E-01; -1.0694989E+03;3;  7.8621167E-01;  0.0000000E+00; -2.8593302E-01;0;  3.8219786E-01;  9.9359834E+03;  0.0000000E+00; -2.2613343E-03;  4.0000000E+04;  0.0000000E+00;  3.9524492E+04;  4.8234773E-01;  0.0000000E+00; -1.0014988E-01;  1.2201227E+03;
  9.1515565E-01;  9.9999998E-03;  4.0132497E-02;7604;  6.5579705E-02;  0.0000000E+00; -6.7670410E-03;  9.9861389E+02;  2.0202400E-01; -1.1483607E+03;3;  6.9630571E-02;  0.0000000E+00; -4.1952550E-01;0;  3.7114522E-01;  9.9277822E+03;  0.0000000E+00; -8.4985299E-03;  4.0000000E+04;  0.0000000E+00;  3.9523840E+04;  4.6847364E-01;  0.0000000E+00; -9.7328417E-02;  1.1869415E+03;
  9.1525966E-01;  9.9999998E-03;  5.0162297E-02;7605;  6.5315828E-02;  0.0000000E+00; -8.4428396E-03;  9.9850439E+02;  2.0207827E-01; -1.2390740E+03;3; -6.8570906E-01;  0.0000000E+00; -3.8875404E-01;0;  3.5732001E-01;  9.9191445E+03;  0.0000000E+00; -2.0948257E-02;  4.0000000E+04;  0.0000000E+00;  3.9522891E+04;  4.5094243E-01;  0.0000000E+00; -9.3622424E-02;  1.1460244E+03;
  9.1534823E-01;  9.9999998E-03;  6.0216289E-02;7606;  6.4730376E-02;  0.0000000E+00; -1.0071599E-02;  9.9839050E+02;  2.0212132E-01; -1.3334415E+03;3; -1.6998117E+00;  0.0000000E+00; -4.0971798E-01;0;  3.4097084E-01;  9.9109844E+03;  0.0000000E+00; -4.1723959E-02;  4.0000000E+04;  0.0000000E+00;  3.9522066E+04;  4.2996106E-01;  0.0000000E+00; -8.8990204E-02;  1.1401434E+03;
  9.3735778E-01;  9.9999998E-03; -1.0076737E-01;7651;  6.4961918E-02;  0.0000000E+00;  1.4506011E-02;  9.9844971E+02;  2.1385376E-01; -1.2844052E+03;3; -7.2910833E+00;  0.0000000E+00; -8.6834699E-02;0;  2.1462955E-01;  8.8481367E+03;  0.0000000E+00; -1.7291039E-01;  4.0000000E+04;  0.0000000E+00;  3.9484086E+04;  2.6320967E-01;  0.0000000E+00; -4.8580125E-02;  2.8290203E+03;
  9.3747950E-01;  9.9999998E-03; -9.0717688E-02;7652;  6.9277547E-02;  0.0000000E+00;  1.3687613E-02;  9.9843878E+02;  2.1394137E-01; -1.2934419E+03;3; -6.6194353E+00;  0.0000000E+00;  1.1871628E-01;0;  2.3509465E-01;  8.8428848E+03;  0.0000000E+00; -9.1502823E-02;  4.0000000E+04;  0.0000000E+00;  3.9482922E+04;  2.9139900E-01;  0.0000000E+00; -5.6304350E-02;  2.6205369E+03;
  9.3750185E-01;  9.9999998E-03; -8.0650792E-02;7653;  7.3316552E-02;  0.0000000E+00;  1.2682331E-02;  9.9844202E+02;  2.1397349E-01; -1.2907753E+03;3; -5.9657435E+00;  0.0000000E+00;  3.3774799E-01;0;  2.5467759E-01;  8.8426982E+03;  0.0000000E+00; -4.5371205E-02;  4.0000000E+04;  0.0000000E+00;  3.9481883E+04;  3.1815809E-01;  0.0000000E+00; -6.3480496E-02;  2.2245176E+03;
  9.3744653E-01;  9.9999998E-03; -7.0564441E-02;7654;  7.6991864E-02;  0.0000000E+00;  1.1515045E-02;  9.9846552E+02;  2.1395503E-01; -1.2712698E+03;3; -5.0776329E+00;  0.0000000E+00;  5.5038106E-01;0;  2.7312303E-01;  8.8462930E+03;  0.0000000E+00; -2.4058988E-02;  4.0000000E+04;  0.0000000E+00;  3.9480891E+04;  3.4309345E-01;  0.0000000E+00; -6.9970444E-02;  1.7720859E+03;
  9.3734080E-01;  9.9999998E-03; -6.0478259E-02;7655;  8.0203772E-02;  0.0000000E+00;  1.0146476E-02;  9.9849390E+02;  2.1390797E-01; -1.2477643E+03;3; -4.3041644E+00;  0.0000000E+00;  6.6534019E-01;0;  2.9008552E-01;  8.8523027E+03;  0.0000000E+00; -1.5979676E-02;  4.0000000E+04;  0.0000000E+00;  3.9480328E+04;  3.6574247E-01;  0.0000000E+00; -7.5656943E-02;  1.3883708E+03;
  9.3719971E-01;  9.9999998E-03; -5.0393827E-02;7656;  8.3009131E-02;  0.0000000E+00;  8.6436635E-03;  9.9852527E+02;  2.1383262E-01; -1.2217898E+03;3; -3.5997667E+00;  0.0000000E+00;  6.9497484E-01;0;  3.0526665E-01;  8.8599355E+03;  0.0000000E+00; -1.2579990E-02;  4.0000000E+04;  0.0000000E+00;  3.9480824E+04;  3.8574556E-01;  0.0000000E+00; -8.0478914E-02;  1.1559703E+03;
  9.3705040E-01;  9.9999998E-03; -4.0315416E-02;7657;  8.5372142E-02;  0.0000000E+00;  7.0291497E-03;  9.9855774E+02;  2.1375206E-01; -1.1948770E+03;3; -2.9804289E+00;  0.0000000E+00;  5.9836847E-01;0;  3.1829977E-01;  8.8677402E+03;  0.0000000E+00; -9.6767684E-03;  4.0000000E+04;  0.0000000E+00;  3.9481645E+04;  4.0270507E-01;  0.0000000E+00; -8.4405288E-02;  1.0828566E+03;
  9.3691713E-01;  9.9999998E-03; -3.0243361E-02;7658;  8.7249339E-02;  0.0000000E+00;  5.3529949E-03;  9.9857837E+02;  2.1367694E-01; -1.1777911E+03;3; -2.2499752E+00;  0.0000000E+00;  4.6535495E-01;0;  3.2883382E-01;  8.8745752E+03;  0.0000000E+00; -6.3580056E-03;  4.0000000E+04;  0.0000000E+00;  3.9482371E+04;  4.1626647E-01;  0.0000000E+00; -8.7432638E-02;  1.1023485E+03;
  9.3680853E-01;  9.9999998E-03; -2.0171795E-02;7659;  8.8563472E-02;  0.0000000E+00;  3.6056652E-03;  9.9858936E+02;  2.1361400E-01; -1.1687050E+03;3; -1.8048525E+00;  0.0000000E+00;  3.1645423E-01;0;  3.3660403E-01;  8.8800723E+03;  0.0000000E+00; -3.1545993E-03;  4.0000000E+04;  0.0000000E+00;  3.9482941E+04;  4.2618862E-01;  0.0000000E+00; -8.9584589E-02;  1.1409188E+03;
  9.3673706E-01;  9.9999998E-03; -1.0091630E-02;7660;  8.9372478E-02;  0.0000000E+00;  1.8174849E-03;  9.9859113E+02;  2.1357404E-01; -1.1672235E+03;3; -1.5379065E+00;  0.0000000E+00;  1.7276549E-01;0;  3.4137326E-01;  8.8836045E+03;  0.0000000E+00; -8.4200758E-04;  4.0000000E+04;  0.0000000E+00;  3.9483375E+04;  4.3224630E-01;  0.0000000E+00; -9.0873040E-02;  1.1648628E+03;
  9.3671179E-01;  9.9999998E-03;  1.1243309E-08;7661;  8.9669973E-02;  0.0000000E+00;  7.5801395E-08;  9.9859351E+02;  2.1355975E-01; -1.1652483E+03;3; -1.3754835E+00;  0.0000000E+00;  1.3116948E-05;0;  3.4298289E-01;  8.8848564E+03;  0.0000000E+00;  4.5493252E-11;  4.0000000E+04;  0.0000000E+00;  3.9483328E+04;  4.3428582E-01;  0.0000000E+00; -9.1302931E-02;  1.1715648E+03;
  9.3673712E-01;  9.9999998E-03;  1.0091652E-02;7662;  8.9372493E-02;  0.0000000E+00; -1.8173336E-03;  9.9859100E+02;  2.1357359E-01; -1.1673223E+03;3; -1.5379239E+00;  0.0000000E+00; -1.7271204E-01;0;  3.4137344E-01;  8.8836045E+03;  0.0000000E+00; -8.4046059E-04;  4.0000000E+04;  0.0000000E+00;  3.9483375E+04;  4.3224642E-01;  0.0000000E+00; -9.0872966E-02;  1.1648461E+03;
  9.3680853E-01;  9.9999998E-03;  2.0171814E-02;7663;  8.8563487E-02;  0.0000000E+00; -3.6055171E-03;  9.9858917E+02;  2.1361414E-01; -1.1688531E+03;3; -1.8048248E+00;  0.0000000E+00; -3.1641915E-01;0;  3.3660355E-01;  8.8800723E+03;  0.0000000E+00; -3.1515032E-03;  4.0000000E+04;  0.0000000E+00;  3.9482938E+04;  4.2618805E-01;  0.0000000E+00; -8.9584507E-02;  1.1409419E+03;
  9.3691713E-01;  9.9999998E-03;  3.0243380E-02;7664;  8.7249354E-02;  0.0000000E+00; -5.3528473E-03;  9.9857837E+02;  2.1367694E-01; -1.1777911E+03;3; -2.2499378E+00;  0.0000000E+00; -4.6534309E-01;0;  3.2883373E-01;  8.8745742E+03;  0.0000000E+00; -6.3542328E-03;  4.0000000E+04;  0.0000000E+00;  3.9482367E+04;  4.1626626E-01;  0.0000000E+00; -8.7432541E-02;  1.1023331E+03;
  9.3705040E-01;  9.9999998E-03;  4.0315434E-02;7665;  8.5372157E-02;  0.0000000E+00; -7.0290058E-03;  9.9855756E+02;  2.1375221E-01; -1.1950251E+03;3; -2.9803581E+00;  0.0000000E+00; -5.9837574E-01;0;  3.1829995E-01;  8.8677402E+03;  0.0000000E+00; -9.6741989E-03;  4.0000000E+04;  0.0000000E+00;  3.9481633E+04;  4.0270507E-01;  0.0000000E+00; -8.4405124E-02;  1.0828590E+03;
  9.3719971E-01;  9.9999998E-03;  5.0393842E-02;7666;  8.3009161E-02;  0.0000000E+00; -8.6435163E-03;  9.9852502E+02;  2.1383323E-01; -1.2219873E+03;3; -3.5997710E+00;  0.0000000E+00; -6.9498694E-01;0;  3.0526617E-01;  8.8599365E+03;  0.0000000E+00; -1.2577850E-02;  4.0000000E+04;  0.0000000E+00;  3.9480828E+04;  3.8574487E-01;  0.0000000E+00; -8.0478705E-02;  1.1560045E+03;
  9.3734080E-01;  9.9999998E-03;  6.0478270E-02;7667;  8.0203786E-02;  0.0000000E+00; -1.0146326E-02;  9.9849396E+02;  2.1390826E-01; -1.2477148E+03;3; -4.3041272E+00;  0.0000000E+00; -6.6533256E-01;0;  2.9008585E-01;  8.8523057E+03;  0.0000000E+00; -1.5977461E-02;  4.0000000E+04;  0.0000000E+00;  3.9480328E+04;  3.6574256E-01;  0.0000000E+00; -7.5656712E-02;  1.3883839E+03;
  9.5961940E-01;  9.9999998E-03; -1.0083508E-01;7712;  6.8230689E-02;  0.0000000E+00;  1.0285611E-02;  9.9874969E+02;  2.2637396E-01; -1.0358685E+03;3; -7.7761898E+00;  0.0000000E+00; -1.2831666E-01;0;  1.3991280E-01;  7.9065806E+03;  0.0000000E+00; -1.5437576E-01;  4.0000000E+04;  0.0000000E+00;  3.9448570E+04;  1.6703095E-01;  0.0000000E+00; -2.7118143E-02;  4.0505732E+03;
  9.5970565E-01;  9.9999998E-03; -9.0765283E-02;7713;  7.3063426E-02;  0.0000000E+00;  9.7083542E-03;  9.9872333E+02;  2.2643775E-01; -1.0576951E+03;3; -7.0566406E+00;  0.0000000E+00;  7.8843273E-02;0;  1.5592292E-01;  7.9026445E+03;  0.0000000E+00; -5.5130899E-02;  4.0000000E+04;  0.0000000E+00;  3.9445895E+04;  1.8872902E-01;  0.0000000E+00; -3.2806098E-02;  3.7940669E+03;
  9.5970607E-01;  9.9999998E-03; -8.0685236E-02;7714;  7.7503897E-02;  0.0000000E+00;  8.9850388E-03;  9.9870380E+02;  2.2644868E-01; -1.0738921E+03;3; -6.1995540E+00;  0.0000000E+00;  2.9330796E-01;0;  1.7109832E-01;  7.9025581E+03;  0.0000000E+00; -4.9369819E-03;  4.0000000E+04;  0.0000000E+00;  3.9443324E+04;  2.0916668E-01;  0.0000000E+00; -3.8068354E-02;  3.2594778E+03;
  9.5964873E-01;  9.9999998E-03; -7.0587941E-02;7715;  8.1460200E-02;  0.0000000E+00;  8.1058843E-03;  9.9869452E+02;  2.2642180E-01; -1.0815461E+03;3; -5.1965699E+00;  0.0000000E+00;  4.8959008E-01;0;  1.8523449E-01;  7.9050830E+03;  0.0000000E+00;  9.4988421E-03;  4.0000000E+04;  0.0000000E+00;  3.9441195E+04;  2.2805794E-01;  0.0000000E+00; -4.2823456E-02;  2.5991892E+03;
  9.5955151E-01;  9.9999998E-03; -6.0482550E-02;7716;  8.4879272E-02;  0.0000000E+00;  7.0887334E-03;  9.9869049E+02;  2.2636612E-01; -1.0849041E+03;3; -4.2149043E+00;  0.0000000E+00;  6.2924331E-01;0;  1.9813208E-01;  7.9094219E+03;  0.0000000E+00;  6.0232808E-03;  4.0000000E+04;  0.0000000E+00;  3.9440043E+04;  2.4514002E-01;  0.0000000E+00; -4.7007933E-02;  1.9786016E+03;
  9.5944285E-01;  9.9999998E-03; -5.0385512E-02;7717;  8.7727040E-02;  0.0000000E+00;  5.9490674E-03;  9.9869086E+02;  2.2630151E-01; -1.0846078E+03;3; -3.3656919E+00;  0.0000000E+00;  6.8410796E-01;0;  2.0952430E-01;  7.9141787E+03;  0.0000000E+00; -1.3676739E-03;  4.0000000E+04;  0.0000000E+00;  3.9440430E+04;  2.6008099E-01;  0.0000000E+00; -5.0556690E-02;  1.5371721E+03;
  9.5934379E-01;  9.9999998E-03; -4.0297464E-02;7718;  9.0069108E-02;  0.0000000E+00;  4.7795488E-03;  9.9868964E+02;  2.2623844E-01; -1.0855955E+03;3; -2.7391832E+00;  0.0000000E+00;  5.0834829E-01;0;  2.1916142E-01;  7.9184429E+03;  0.0000000E+00; -5.7427264E-03;  4.0000000E+04;  0.0000000E+00;  3.9441293E+04;  2.7259806E-01;  0.0000000E+00; -5.3436633E-02;  1.3494270E+03;
  9.5926154E-01;  9.9999998E-03; -3.0217769E-02;7719;  9.1909647E-02;  0.0000000E+00;  3.6074535E-03;  9.9868878E+02;  2.2618416E-01; -1.0863362E+03;3; -2.1806638E+00;  0.0000000E+00;  4.0541536E-01;0;  2.2685802E-01;  7.9219814E+03;  0.0000000E+00; -5.9415204E-03;  4.0000000E+04;  0.0000000E+00;  3.9442547E+04;  2.8251299E-01;  0.0000000E+00; -5.5654980E-02;  1.3658160E+03;
  9.5919752E-01;  9.9999998E-03; -2.0144040E-02;7720;  9.3221717E-02;  0.0000000E+00;  2.4183940E-03;  9.9868512E+02;  2.2614200E-01; -1.0893484E+03;3; -1.7429894E+00;  0.0000000E+00;  2.8720868E-01;0;  2.3248047E-01;  7.9246021E+03;  0.0000000E+00; -3.6043122E-03;  4.0000000E+04;  0.0000000E+00;  3.9443652E+04;  2.8971395E-01;  0.0000000E+00; -5.7233490E-02;  1.4603457E+03;
  9.5915681E-01;  9.9999998E-03; -1.0072365E-02;7721;  9.3996100E-02;  0.0000000E+00;  1.2117197E-03;  9.9867822E+02;  2.2611529E-01; -1.0950765E+03;3; -1.4904578E+00;  0.0000000E+00;  1.5981667E-01;0;  2.3590887E-01;  7.9262686E+03;  0.0000000E+00; -1.0512737E-03;  4.0000000E+04;  0.0000000E+00;  3.9444387E+04;  2.9408816E-01;  0.0000000E+00; -5.8179297E-02;  1.5419418E+03;
  9.5914263E-01;  9.9999998E-03;  1.1145331E-08;7722;  9.4248615E-02;  0.0000000E+00;  7.8739795E-08;  9.9867426E+02;  2.2610559E-01; -1.0983357E+03;3; -1.4196091E+00;  0.0000000E+00;  1.9194707E-05;0;  2.3706326E-01;  7.9268262E+03;  0.0000000E+00; -6.6968306E-12;  4.0000000E+04;  0.0000000E+00;  3.9444523E+04;  2.9555821E-01;  0.0000000E+00; -5.8494959E-02;  1.5721804E+03;
  9.5915681E-01;  9.9999998E-03;  1.0072389E-02;7723;  9.3996085E-02;  0.0000000E+00; -1.2115627E-03;  9.9867822E+02;  2.2611557E-01; -1.0950765E+03;3; -1.4903864E+00;  0.0000000E+00; -1.5979445E-01;0;  2.3590897E-01;  7.9262700E+03;  0.0000000E+00; -1.0510198E-03;  4.0000000E+04;  0.0000000E+00;  3.9444383E+04;  2.9408827E-01;  0.0000000E+00; -5.8179300E-02;  1.5419514E+03;
  9.5919746E-01;  9.9999998E-03;  2.0144062E-02;7724;  9.3221694E-02;  0.0000000E+00; -2.4182370E-03;  9.9868524E+02;  2.2614302E-01; -1.0892496E+03;3; -1.7430458E+00;  0.0000000E+00; -2.8720176E-01;0;  2.3248048E-01;  7.9245991E+03;  0.0000000E+00; -3.6043627E-03;  4.0000000E+04;  0.0000000E+00;  3.9443652E+04;  2.8971392E-01;  0.0000000E+00; -5.7233442E-02;  1.4603629E+03;
  9.5926154E-01;  9.9999998E-03;  3.0217789E-02;7725;  9.1909617E-02;  0.0000000E+00; -3.6072934E-03;  9.9868872E+02;  2.2618419E-01; -1.0863855E+03;3; -2.1806960E+00;  0.0000000E+00; -4.0543896E-01;0;  2.2685796E-01;  7.9219795E+03;  0.0000000E+00; -5.9426394E-03;  4.0000000E+04;  0.0000000E+00;  3.9442555E+04;  2.8251287E-01;  0.0000000E+00; -5.5654909E-02;  1.3657946E+03;
  9.5934373E-01;  9.9999998E-03;  4.0297478E-02;7726;  9.0069078E-02;  0.0000000E+00; -4.7793901E-03;  9.9868970E+02;  2.2623783E-01; -1.0855460E+03;3; -2.7391415E+00;  0.0000000E+00; -5.0831634E-01;0;  2.1916132E-01;  7.9184458E+03;  0.0000000E+00; -5.7458607E-03;  4.0000000E+04;  0.0000000E+00;  3.9441293E+04;  2.7259782E-01;  0.0000000E+00; -5.3436499E-02;  1.3493907E+03;
  9.5944285E-01;  9.9999998E-03;  5.0385527E-02;7727;  8.7727003E-02;  0.0000000E+00; -5.9489072E-03;  9.9869073E+02;  2.2630148E-01; -1.0847065E+03;3; -3.3656788E+00;  0.0000000E+00; -6.8411410E-01;0;  2.0952415E-01;  7.9141816E+03;  0.0000000E+00; -1.3708880E-03;  4.0000000E+04;  0.0000000E+00;  3.9440434E+04;  2.6008070E-01;  0.0000000E+00; -5.0556540E-02;  1.5371527E+03;
  9.5955151E-01;  9.9999998E-03;  6.0482565E-02;7728;  8.4879242E-02;  0.0000000E+00; -7.0885736E-03;  9.9869025E+02;  2.2636572E-01; -1.0851016E+03;3; -4.2148585E+00;  0.0000000E+00; -6.2926537E-01;0;  1.9813202E-01;  7.9094258E+03;  0.0000000E+00;  6.0173199E-03;  4.0000000E+04;  0.0000000E+00;  3.9440043E+04;  2.4513973E-01;  0.0000000E+00; -4.7007710E-02;  1.9785978E+03;
  9.8230076E-01;  9.9999998E-03; -1.0074984E-01;7773;  6.8612032E-02;  0.0000000E+00;  3.9752978E-03;  9.9831982E+02;  2.3967695E-01; -1.3920037E+03;3; -8.1600351E+00;  0.0000000E+00; -7.3402101E-01;0;  6.9554470E-02;  7.0535127E+03;  0.0000000E+00; -3.1529915E-01;  4.0000000E+04;  0.0000000E+00;  3.9413711E+04;  6.5379754E-02;  0.0000000E+00;  4.1747158E-03;  4.7100015E+03;
  9.8266143E-01;  9.9999998E-03; -9.0675764E-02;7774;  7.3593870E-02;  0.0000000E+00;  3.6696387E-03;  9.9828528E+02;  2.3990503E-01; -1.4205952E+03;3; -7.4026847E+00;  0.0000000E+00; -5.9150726E-01;0;  8.1646040E-02;  7.0392188E+03;  0.0000000E+00; -2.0069282E-01;  4.0000000E+04;  0.0000000E+00;  3.9409660E+04;  7.8300104E-02;  0.0000000E+00;  3.3459370E-03;  4.4331084E+03;
  9.8293924E-01;  9.9999998E-03; -8.0597691E-02;7775;  7.8152291E-02;  0.0000000E+00;  3.3137870E-03;  9.9826514E+02;  2.4008210E-01; -1.4372860E+03;3; -6.4519129E+00;  0.0000000E+00; -4.5046255E-01;0;  9.2673719E-02;  7.0284165E+03;  0.0000000E+00; -1.2898509E-01;  4.0000000E+04;  0.0000000E+00;  3.9405980E+04;  8.9909680E-02;  0.0000000E+00;  2.7640394E-03;  3.8990564E+03;
  9.8312461E-01;  9.9999998E-03; -7.0511743E-02;7776;  8.2174100E-02;  0.0000000E+00;  2.9037227E-03;  9.9825635E+02;  2.4019629E-01; -1.4445945E+03;3; -5.4074430E+00;  0.0000000E+00; -2.9015842E-01;0;  1.0260309E-01;  7.0212881E+03;  0.0000000E+00; -9.0521768E-02;  4.0000000E+04;  0.0000000E+00;  3.9402918E+04;  1.0031979E-01;  0.0000000E+00;  2.2832996E-03;  3.2432781E+03;
  9.8324233E-01;  9.9999998E-03; -6.0415722E-02;7777;  8.5646302E-02;  0.0000000E+00;  2.4550268E-03;  9.9826068E+02;  2.4026890E-01; -1.4409895E+03;3; -4.4190373E+00;  0.0000000E+00; -1.5052485E-01;0;  1.1134243E-01;  7.0167637E+03;  0.0000000E+00; -6.9972701E-02;  4.0000000E+04;  0.0000000E+00;  3.9401043E+04;  1.0949807E-01;  0.0000000E+00;  1.8443634E-03;  2.6340430E+03;
  9.8331684E-01;  9.9999998E-03; -5.0326578E-02;7778;  8.8548474E-02;  0.0000000E+00;  1.9776090E-03;  9.9827069E+02;  2.4031143E-01; -1.4326935E+03;3; -3.4654891E+00;  0.0000000E+00; -4.6235368E-02;0;  1.1879861E-01;  7.0139385E+03;  0.0000000E+00; -5.5058271E-02;  4.0000000E+04;  0.0000000E+00;  3.9400801E+04;  1.1736887E-01;  0.0000000E+00;  1.4297414E-03;  2.2198005E+03;
  9.8337793E-01;  9.9999998E-03; -4.0253855E-02;7779;  9.0880893E-02;  0.0000000E+00;  1.4946789E-03;  9.9828363E+02;  2.4034494E-01; -1.4219778E+03;3; -2.7190449E+00;  0.0000000E+00; -3.9682478E-02;0;  1.2487740E-01;  7.0115908E+03;  0.0000000E+00; -4.0072937E-02;  4.0000000E+04;  0.0000000E+00;  3.9401516E+04;  1.2380137E-01;  0.0000000E+00;  1.0760259E-03;  2.0701868E+03;
  9.8343486E-01;  9.9999998E-03; -3.0192025E-02;7780;  9.2715196E-02;  0.0000000E+00;  1.0851935E-03;  9.9830133E+02;  2.4037658E-01; -1.4073116E+03;3; -2.1317627E+00;  0.0000000E+00; -9.7129568E-02;0;  1.2954144E-01;  7.0094258E+03;  0.0000000E+00; -2.4923285E-02;  4.0000000E+04;  0.0000000E+00;  3.9402730E+04;  1.2874322E-01;  0.0000000E+00;  7.9822657E-04;  2.1312141E+03;
  9.8348182E-01;  9.9999998E-03; -2.0128813E-02;7781;  9.4018459E-02;  0.0000000E+00;  7.0733577E-04;  9.9831702E+02;  2.4040182E-01; -1.3943245E+03;3; -1.6221253E+00;  0.0000000E+00; -4.8357815E-02;0;  1.3283490E-01;  7.0076611E+03;  0.0000000E+00; -1.1848829E-02;  4.0000000E+04;  0.0000000E+00;  3.9404148E+04;  1.3224149E-01;  0.0000000E+00;  5.9341459E-04;  2.2784260E+03;
  9.8351645E-01;  9.9999998E-03; -1.0064067E-02;7782;  9.4774373E-02;  0.0000000E+00;  3.4504908E-04;  9.9832617E+02;  2.4042073E-01; -1.3867197E+03;3; -1.3249208E+00;  0.0000000E+00;  6.3236672E-03;0;  1.3478714E-01;  7.0063154E+03;  0.0000000E+00; -3.0731815E-03;  4.0000000E+04;  0.0000000E+00;  3.9405312E+04;  1.3431112E-01;  0.0000000E+00;  4.7601742E-04;  2.4048938E+03;
  9.8352885E-01;  9.9999998E-03;  8.4595406E-09;7783;  9.5016703E-02;  0.0000000E+00;  8.7882924E-08;  9.9833093E+02;  2.4042639E-01; -1.3827693E+03;3; -1.2663933E+00;  0.0000000E+00; -2.7604510E-06;0;  1.3543536E-01;  7.0058477E+03;  0.0000000E+00; -1.0066747E-10;  4.0000000E+04;  0.0000000E+00;  3.9405473E+04;  1.3499849E-01;  0.0000000E+00;  4.3687021E-04;  2.4527529E+03;
  9.8351645E-01;  9.9999998E-03;  1.0064085E-02;7784;  9.4774358E-02;  0.0000000E+00; -3.4487410E-04;  9.9832635E+02;  2.4042034E-01; -1.3865715E+03;3; -1.3249327E+00;  0.0000000E+00; -6.3210521E-03;0;  1.3478720E-01;  7.0063149E+03;  0.0000000E+00; -3.0760206E-03;  4.0000000E+04;  0.0000000E+00;  3.9405309E+04;  1.3431124E-01;  0.0000000E+00;  4.7595144E-04;  2.4049031E+03;
  9.8348182E-01;  9.9999998E-03;  2.0128831E-02;7785;  9.4018437E-02;  0.0000000E+00; -7.0715783E-04;  9.9831702E+02;  2.4040124E-01; -1.3943245E+03;3; -1.6220460E+00;  0.0000000E+00;  4.8357204E-02;0;  1.3283461E-01;  7.0076621E+03;  0.0000000E+00; -1.1854608E-02;  4.0000000E+04;  0.0000000E+00;  3.9404148E+04;  1.3224110E-01;  0.0000000E+00;  5.9351308E-04;  2.2784287E+03;
  9.8343486E-01;  9.9999998E-03;  3.0192042E-02;7786;  9.2715167E-02;  0.0000000E+00; -1.0850165E-03;  9.9830127E+02;  2.4037656E-01; -1.4073610E+03;3; -2.1316929E+00;  0.0000000E+00;  9.7125620E-02;0;  1.2954125E-01;  7.0094238E+03;  0.0000000E+00; -2.4931936E-02;  4.0000000E+04;  0.0000000E+00;  3.9402730E+04;  1.2874293E-01;  0.0000000E+00;  7.9831132E-04;  2.1312122E+03;
  9.8337787E-01;  9.9999998E-03;  4.0253870E-02;7787;  9.0880863E-02;  0.0000000E+00; -1.4945044E-03;  9.9828326E+02;  2.4034442E-01; -1.4222742E+03;3; -2.7190168E+00;  0.0000000E+00;  3.9703429E-02;0;  1.2487736E-01;  7.0115923E+03;  0.0000000E+00; -4.0085524E-02;  4.0000000E+04;  0.0000000E+00;  3.9401520E+04;  1.2380127E-01;  0.0000000E+00;  1.0760878E-03;  2.0701333E+03;
  9.8331678E-01;  9.9999998E-03;  5.0326589E-02;7788;  8.8548429E-02;  0.0000000E+00; -1.9774304E-03;  9.9827069E+02;  2.4031201E-01; -1.4326935E+03;3; -3.4654114E+00;  0.0000000E+00;  4.6241697E-02;0;  1.1879838E-01;  7.0139365E+03;  0.0000000E+00; -5.5076864E-02;  4.0000000E+04;  0.0000000E+00;  3.9400793E+04;  1.1736848E-01;  0.0000000E+00;  1.4299036E-03;  2.2197690E+03;
  9.8324227E-01;  9.9999998E-03;  6.0415737E-02;7789;  8.5646249E-02;  0.0000000E+00; -2.4548504E-03;  9.9826062E+02;  2.4026895E-01; -1.4410389E+03;3; -4.4190297E+00;  0.0000000E+00;  1.5051964E-01;0;  1.1134214E-01;  7.0167583E+03;  0.0000000E+00; -6.9995657E-02;  4.0000000E+04;  0.0000000E+00;  3.9401039E+04;  1.0949761E-01;  0.0000000E+00;  1.8445274E-03;  2.6340022E+03;
  1.0071461E+00;  9.9999998E-03; -1.0068009E-01;7834;  6.6903047E-02;  0.0000000E+00; -4.8791100E-03;  9.9674347E+02;  2.5485995E-01; -2.6979800E+03;3; -8.6375542E+00;  0.0000000E+00; -2.1283627E+00;0;  4.5000259E-02;  6.2265547E+03;  0.0000000E+00; -5.8389926E-01;  4.0000000E+04;  0.0000000E+00;  3.9374145E+04; -5.3634741E-03;  0.0000000E+00;  5.0363734E-02;  4.7315020E+03;
  1.0075964E+00;  9.9999998E-03; -9.0618819E-02;7835;  7.2046719E-02;  0.0000000E+00; -4.6058921E-03;  9.9668219E+02;  2.5514752E-01; -2.7487434E+03;3; -7.7913771E+00;  0.0000000E+00; -1.9232371E+00;0;  5.7668123E-02;  6.2103477E+03;  0.0000000E+00; -4.8683783E-01;  4.0000000E+04;  0.0000000E+00;  3.9370344E+04;  1.2149287E-03;  0.0000000E+00;  5.6453194E-02;  4.3156187E+03;
  1.0078758E+00;  9.9999998E-03; -8.0548503E-02;7836;  7.6709270E-02;  0.0000000E+00; -4.4068731E-03;  9.9663495E+02;  2.5532115E-01; -2.7878533E+03;3; -6.7660728E+00;  0.0000000E+00; -1.6624357E+00;0;  6.8490297E-02;  6.2000645E+03;  0.0000000E+00; -3.9973575E-01;  4.0000000E+04;  0.0000000E+00;  3.9366527E+04;  6.5244325E-03;  0.0000000E+00;  6.1965868E-02;  3.8147117E+03;
  1.0080726E+00;  9.9999998E-03; -7.0474885E-02;7837;  8.0785386E-02;  0.0000000E+00; -4.2528952E-03;  9.9659796E+02;  2.5544268E-01; -2.8185186E+03;3; -5.6740236E+00;  0.0000000E+00; -1.6404803E+00;0;  7.7425055E-02;  6.1926772E+03;  0.0000000E+00; -3.2168272E-01;  4.0000000E+04;  0.0000000E+00;  3.9363492E+04;  1.0662674E-02;  0.0000000E+00;  6.6762380E-02;  3.3508247E+03;
  1.0082492E+00;  9.9999998E-03; -1.0066904E-02;7843;  9.3087643E-02;  0.0000000E+00; -7.3536922E-04;  9.9645111E+02;  2.5554791E-01; -2.9401438E+03;3; -1.6697928E+00;  0.0000000E+00; -3.4975654E-01;0;  9.9102974E-02;  6.1823691E+03;  0.0000000E+00; -7.7320561E-03;  4.0000000E+04;  0.0000000E+00;  3.9366539E+04;  2.1602374E-02;  0.0000000E+00;  7.7500597E-02;  3.5026567E+03;
  1.0082593E+00;  9.9999998E-03;  6.3407293E-09;7844;  9.3333215E-02;  0.0000000E+00;  9.3716636E-08;  9.9644708E+02;  2.5555360E-01; -2.9435017E+03;3; -1.6059470E+00;  0.0000000E+00; -2.0414322E-05;0;  9.9416293E-02;  6.1819023E+03;  0.0000000E+00; -2.2099167E-10;  4.0000000E+04;  0.0000000E+00;  3.9367059E+04;  2.1780996E-02;  0.0000000E+00;  7.7635296E-02;  3.5584500E+03;
  1.0082492E+00;  9.9999998E-03;  1.0066917E-02;7845;  9.3087643E-02;  0.0000000E+00;  7.3555816E-04;  9.9645129E+02;  2.5554749E-01; -2.9399956E+03;3; -1.6697394E+00;  0.0000000E+00;  3.4972703E-01;0;  9.9102885E-02;  6.1823701E+03;  0.0000000E+00; -7.7368710E-03;  4.0000000E+04;  0.0000000E+00;  3.9366543E+04;  2.1602374E-02;  0.0000000E+00;  7.7500515E-02;  3.5026470E+03;
  1.0082259E+00;  9.9999998E-03; -2.0130737E-02;7842;  9.2349850E-02;  0.0000000E+00; -1.4348886E-03;  9.9646185E+02;  2.5553095E-01; -2.9312551E+03;3; -1.9014056E+00;  0.0000000E+00; -7.0363957E-01;0;  9.8123789E-02;  6.1835454E+03;  0.0000000E+00; -3.0800184E-02;  4.0000000E+04;  0.0000000E+00;  3.9365270E+04;  2.1041710E-02;  0.0000000E+00;  7.7082075E-02;  3.3513057E+03;
  1.0082259E+00;  9.9999998E-03;  2.0130752E-02;7846;  9.2349827E-02;  0.0000000E+00;  1.4350768E-03;  9.9646185E+02;  2.5553206E-01; -2.9312551E+03;3; -1.9013950E+00;  0.0000000E+00;  7.0360374E-01;0;  9.8123744E-02;  6.1835469E+03;  0.0000000E+00; -3.0809950E-02;  4.0000000E+04;  0.0000000E+00;  3.9365273E+04;  2.1041580E-02;  0.0000000E+00;  7.7082165E-02;  3.3512793E+03;
  1.0082065E+00;  9.9999998E-03; -3.0191451E-02;7841;  9.1114014E-02;  0.0000000E+00; -2.1008507E-03;  9.9647632E+02;  2.5551936E-01; -2.9193049E+03;3; -2.3185232E+00;  0.0000000E+00; -1.0700312E+00;0;  9.6369244E-02;  6.1848218E+03;  0.0000000E+00; -6.8586037E-02;  4.0000000E+04;  0.0000000E+00;  3.9363922E+04;  2.0039951E-02;  0.0000000E+00;  7.6329291E-02;  3.1514121E+03;
  1.0082065E+00;  9.9999998E-03;  3.0191466E-02;7847;  9.1113985E-02;  0.0000000E+00;  2.1010316E-03;  9.9647620E+02;  2.5552016E-01; -2.9194038E+03;3; -2.3185449E+00;  0.0000000E+00;  1.0699987E+00;0;  9.6369155E-02;  6.1848232E+03;  0.0000000E+00; -6.8601586E-02;  4.0000000E+04;  0.0000000E+00;  3.9363914E+04;  2.0039797E-02;  0.0000000E+00;  7.6329358E-02;  3.1514077E+03;
  1.0082121E+00;  9.9999998E-03; -4.0259358E-02;7840;  8.9373000E-02;  0.0000000E+00; -2.7714467E-03;  9.9650092E+02;  2.5552481E-01; -2.8989106E+03;3; -2.9038670E+00;  0.0000000E+00; -1.4348451E+00;0;  9.3672998E-02;  6.1854634E+03;  0.0000000E+00; -1.1952478E-01;  4.0000000E+04;  0.0000000E+00;  3.9362188E+04;  1.8513180E-02;  0.0000000E+00;  7.5159818E-02;  2.9744900E+03;
  1.0082121E+00;  9.9999998E-03;  4.0259369E-02;7848;  8.9372955E-02;  0.0000000E+00;  2.7716204E-03;  9.9650073E+02;  2.5552514E-01; -2.8990588E+03;3; -2.9038055E+00;  0.0000000E+00;  1.4348058E+00;0;  9.3672857E-02;  6.1854629E+03;  0.0000000E+00; -1.1954513E-01;  4.0000000E+04;  0.0000000E+00;  3.9362188E+04;  1.8512921E-02;  0.0000000E+00;  7.5159937E-02;  2.9744534E+03;
  1.0082216E+00;  9.9999998E-03; -6.0405873E-02;7838;  8.4242068E-02;  0.0000000E+00; -3.9785393E-03;  9.9656256E+02;  2.5553480E-01; -2.8478508E+03;3; -4.6200409E+00;  0.0000000E+00; -1.6733046E+00;0;  8.4508955E-02;  6.1869468E+03;  0.0000000E+00; -2.4916317E-01;  4.0000000E+04;  0.0000000E+00;  3.9361656E+04;  1.3813923E-02;  0.0000000E+00;  7.0695035E-02;  3.0299265E+03;
  1.0082215E+00;  9.9999998E-03;  6.0405899E-02;7850;  8.4242009E-02;  0.0000000E+00;  3.9787367E-03;  9.9656323E+02;  2.5553581E-01; -2.8472581E+03;3; -4.6199708E+00;  0.0000000E+00;  1.6732749E+00;0;  8.4508769E-02;  6.1869487E+03;  0.0000000E+00; -2.4919155E-01;  4.0000000E+04;  0.0000000E+00;  3.9361652E+04;  1.3813673E-02;  0.0000000E+00;  7.0695095E-02;  3.0299150E+03;
  1.0082371E+00;  9.9999998E-03; -5.0334826E-02;7839;  8.7104760E-02;  0.0000000E+00; -3.4665358E-03;  9.9653064E+02;  2.5554237E-01; -2.8742695E+03;3; -3.6595378E+00;  0.0000000E+00; -1.8048720E+00;0;  8.9818023E-02;  6.1855420E+03;  0.0000000E+00; -1.8088137E-01;  4.0000000E+04;  0.0000000E+00;  3.9361402E+04;  1.6426146E-02;  0.0000000E+00;  7.3391877E-02;  2.9087854E+03;
  1.0082370E+00;  9.9999998E-03;  5.0334841E-02;7849;  8.7104708E-02;  0.0000000E+00;  3.4667135E-03;  9.9653094E+02;  2.5554207E-01; -2.8740227E+03;3; -3.6594510E+00;  0.0000000E+00;  1.8048402E+00;0;  8.9817837E-02;  6.1855415E+03;  0.0000000E+00; -1.8090570E-01;  4.0000000E+04;  0.0000000E+00;  3.9361395E+04;  1.6425945E-02;  0.0000000E+00;  7.3391892E-02;  2.9087239E+03;
  1.0329044E+00;  9.9999998E-03;  8.7687972E-09;7905;  9.0563655E-02;  0.0000000E+00;  1.0212551E-07;  9.9436176E+02;  2.7101833E-01; -4.6711309E+03;3; -1.8942915E+00;  0.0000000E+00; -2.5693751E-05;0;  1.5940930E-01;  5.4817891E+03;  0.0000000E+00; -2.7324837E-10;  4.0000000E+04;  0.0000000E+00;  3.9329234E+04;  6.0464814E-04;  0.0000000E+00;  1.5880466E-01;  4.6652437E+03;
  1.0329231E+00;  9.9999998E-03; -1.0059508E-02;7904;  9.0317227E-02;  0.0000000E+00; -1.6872846E-03;  9.9437927E+02;  2.7102783E-01; -4.6566128E+03;3; -1.9606956E+00;  0.0000000E+00; -8.2714099E-01;0;  1.5983045E-01;  5.4815840E+03;  0.0000000E+00; -6.8489020E-03;  4.0000000E+04;  0.0000000E+00;  3.9328742E+04;  1.0882714E-03;  0.0000000E+00;  1.5874217E-01;  4.6075020E+03;
  1.0329231E+00;  9.9999998E-03;  1.0059523E-02;7906;  9.0317212E-02;  0.0000000E+00;  1.6874898E-03;  9.9437939E+02;  2.7102795E-01; -4.6565142E+03;3; -1.9606946E+00;  0.0000000E+00;  8.2709354E-01;0;  1.5983067E-01;  5.4815811E+03;  0.0000000E+00; -6.8504559E-03;  4.0000000E+04;  0.0000000E+00;  3.9328734E+04;  1.0882865E-03;  0.0000000E+00;  1.5874238E-01;  4.6074800E+03;
  1.0329823E+00;  9.9999998E-03; -2.0119188E-02;7903;  8.9565553E-02;  0.0000000E+00; -3.3834032E-03;  9.9442310E+02;  2.7106544E-01; -4.6203179E+03;3; -2.2545047E+00;  0.0000000E+00; -1.7170775E+00;0;  1.6102067E-01;  5.4808354E+03;  0.0000000E+00; -2.7512223E-02;  4.0000000E+04;  0.0000000E+00;  3.9327562E+04;  2.5288851E-03;  0.0000000E+00;  1.5849178E-01;  4.4482607E+03;
  1.0329823E+00;  9.9999998E-03;  2.0119201E-02;7907;  8.9565516E-02;  0.0000000E+00;  3.3836067E-03;  9.9442310E+02;  2.7106544E-01; -4.6203179E+03;3; -2.2545435E+00;  0.0000000E+00;  1.7170135E+00;0;  1.6102089E-01;  5.4808306E+03;  0.0000000E+00; -2.7515821E-02;  4.0000000E+04;  0.0000000E+00;  3.9327559E+04;  2.5288451E-03;  0.0000000E+00;  1.5849204E-01;  4.4481816E+03;
  1.0330873E+00;  9.9999998E-03; -3.0184614E-02;7902;  8.8298276E-02;  0.0000000E+00; -5.1061567E-03;  9.9449176E+02;  2.7113089E-01; -4.5634312E+03;3; -2.6972828E+00;  0.0000000E+00; -2.5741482E+00;0;  1.6275492E-01;  5.4792500E+03;  0.0000000E+00; -6.2142324E-02;  4.0000000E+04;  0.0000000E+00;  3.9325480E+04;  4.8940480E-03;  0.0000000E+00;  1.5786088E-01;  4.2273325E+03;
  1.0330874E+00;  9.9999998E-03;  3.0184627E-02;7908;  8.8298246E-02;  0.0000000E+00;  5.1063653E-03;  9.9449188E+02;  2.7113104E-01; -4.5633325E+03;3; -2.6972694E+00;  0.0000000E+00;  2.5740964E+00;0;  1.6275500E-01;  5.4792466E+03;  0.0000000E+00; -6.2147792E-02;  4.0000000E+04;  0.0000000E+00;  3.9325480E+04;  4.8939656E-03;  0.0000000E+00;  1.5786104E-01;  4.2272964E+03;
  1.0332459E+00;  9.9999998E-03; -4.0263295E-02;7901;  8.6505853E-02;  0.0000000E+00; -6.8837837E-03;  9.9457568E+02;  2.7123293E-01; -4.4939028E+03;3; -3.2796290E+00;  0.0000000E+00; -3.3409567E+00;0;  1.6469570E-01;  5.4764507E+03;  0.0000000E+00; -1.1047051E-01;  4.0000000E+04;  0.0000000E+00;  3.9323523E+04;  8.1323870E-03;  0.0000000E+00;  1.5656331E-01;  4.0055876E+03;
  1.0332459E+00;  9.9999998E-03;  4.0263314E-02;7909;  8.6505808E-02;  0.0000000E+00;  6.8839951E-03;  9.9457587E+02;  2.7123374E-01; -4.4937549E+03;3; -3.2796698E+00;  0.0000000E+00;  3.3408992E+00;0;  1.6469546E-01;  5.4764492E+03;  0.0000000E+00; -1.1047670E-01;  4.0000000E+04;  0.0000000E+00;  3.9323527E+04;  8.1321942E-03;  0.0000000E+00;  1.5656327E-01;  4.0055850E+03;
  1.0334570E+00;  9.9999998E-03; -5.0346054E-02;7900;  8.4189177E-02;  0.0000000E+00; -8.7191621E-03;  9.9465570E+02;  2.7137467E-01; -4.4275845E+03;3; -4.0031514E+00;  0.0000000E+00; -4.0710387E+00;0;  1.6637532E-01;  5.4722168E+03;  0.0000000E+00; -1.7124000E-01;  4.0000000E+04;  0.0000000E+00;  3.9322168E+04;  1.2144904E-02;  0.0000000E+00;  1.5423042E-01;  3.8551707E+03;
  1.0334570E+00;  9.9999998E-03;  5.0346073E-02;7910;  8.4189132E-02;  0.0000000E+00;  8.7193642E-03;  9.9465576E+02;  2.7137527E-01; -4.4275352E+03;3; -4.0031271E+00;  0.0000000E+00;  4.0709786E+00;0;  1.6637513E-01;  5.4722188E+03;  0.0000000E+00; -1.7125010E-01;  4.0000000E+04;  0.0000000E+00;  3.9322160E+04;  1.2144644E-02;  0.0000000E+00;  1.5423049E-01;  3.8551072E+03;
  1.0337116E+00;  9.9999998E-03; -6.0422383E-02;7899;  8.1311040E-02;  0.0000000E+00; -1.0676574E-02;  9.9472882E+02;  2.7154747E-01; -4.3670430E+03;3; -4.8717413E+00;  0.0000000E+00; -4.8003268E+00;0;  1.6725244E-01;  5.4666494E+03;  0.0000000E+00; -2.4185283E-01;  4.0000000E+04;  0.0000000E+00;  3.9321633E+04;  1.6769912E-02;  0.0000000E+00;  1.5048252E-01;  3.8298125E+03;
  1.0337116E+00;  9.9999998E-03;  6.0422402E-02;7911;  8.1310980E-02;  0.0000000E+00;  1.0676783E-02;  9.9472876E+02;  2.7154878E-01; -4.3670928E+03;3; -4.8716917E+00;  0.0000000E+00;  4.8002634E+00;0;  1.6725251E-01;  5.4666465E+03;  0.0000000E+00; -2.4186380E-01;  4.0000000E+04;  0.0000000E+00;  3.9321633E+04;  1.6769661E-02;  0.0000000E+00;  1.5048285E-01;  3.8298042E+03;
  1.0337532E+00;  9.9999998E-03; -1.0069895E-01;7895;  6.3665062E-02;  0.0000000E+00; -1.7410535E-02;  9.9479883E+02;  2.7161664E-01; -4.3090205E+03;3; -8.8658772E+00;  0.0000000E+00; -3.3739576E+00;0;  1.4488575E-01;  5.4703096E+03;  0.0000000E+00; -5.5836052E-01;  4.0000000E+04;  0.0000000E+00;  3.9327242E+04;  3.1266760E-02;  0.0000000E+00;  1.1361898E-01;  4.6344380E+03;
  1.0339618E+00;  9.9999998E-03; -7.0499666E-02;7898;  7.7832565E-02;  0.0000000E+00; -1.2826888E-02;  9.9477802E+02;  2.7172330E-01; -4.3262549E+03;3; -5.8627081E+00;  0.0000000E+00; -5.4587827E+00;0;  1.6658264E-01;  5.4610024E+03;  0.0000000E+00; -3.1891870E-01;  4.0000000E+04;  0.0000000E+00;  3.9321938E+04;  2.1695383E-02;  0.0000000E+00;  1.4488727E-01;  3.9304932E+03;
  1.0340792E+00;  9.9999998E-03; -9.0642788E-02;7896;  6.8885736E-02;  0.0000000E+00; -1.6691532E-02;  9.9479987E+02;  2.7182719E-01; -4.3081812E+03;3; -8.1347494E+00;  0.0000000E+00; -3.9867704E+00;0;  1.5636967E-01;  5.4599092E+03;  0.0000000E+00; -4.7968096E-01;  4.0000000E+04;  0.0000000E+00;  3.9325129E+04;  2.9831482E-02;  0.0000000E+00;  1.2653819E-01;  4.3844092E+03;
  1.0341194E+00;  9.9999998E-03; -8.0575012E-02;7897;  7.3695980E-02;  0.0000000E+00; -1.5075333E-02;  9.9480176E+02;  2.7184203E-01; -4.3066006E+03;3; -7.0655680E+00;  0.0000000E+00; -5.4137740E+00;0;  1.6335441E-01;  5.4577339E+03;  0.0000000E+00; -3.9909315E-01;  4.0000000E+04;  0.0000000E+00;  3.9323195E+04;  2.6334977E-02;  0.0000000E+00;  1.3701944E-01;  4.1286069E+03;
  1.0615357E+00;  9.9999998E-03; -1.0080406E-02;7965;  8.6291105E-02;  0.0000000E+00; -3.0206658E-03;  9.9480762E+02;  2.8926405E-01; -4.3017402E+03;3; -2.6645329E+00;  0.0000000E+00; -1.5641516E+00;0;  3.4631789E-01;  4.8249575E+03;  0.0000000E+00;  3.3652459E-03;  4.0000000E+04;  0.0000000E+00;  3.9283512E+04;  1.0611416E-01;  0.0000000E+00;  2.4020374E-01;  5.2575361E+03;
  1.0615684E+00;  9.9999998E-03;  1.3804087E-08;7966;  8.6540133E-02;  0.0000000E+00;  1.2091184E-07;  9.9479535E+02;  2.8929099E-01; -4.3119126E+03;3; -2.5775783E+00;  0.0000000E+00; -4.1480598E-05;0;  3.4456888E-01;  4.8238823E+03;  0.0000000E+00; -2.2612424E-10;  4.0000000E+04;  0.0000000E+00;  3.9284004E+04;  1.0442239E-01;  0.0000000E+00;  2.4014649E-01;  5.3265718E+03;
  1.0615357E+00;  9.9999998E-03;  1.0080432E-02;7967;  8.6291097E-02;  0.0000000E+00;  3.0209089E-03;  9.9480750E+02;  2.8926277E-01; -4.3018389E+03;3; -2.6644726E+00;  0.0000000E+00;  1.5640782E+00;0;  3.4631807E-01;  4.8249595E+03;  0.0000000E+00;  3.3736154E-03;  4.0000000E+04;  0.0000000E+00;  3.9283508E+04;  1.0611422E-01;  0.0000000E+00;  2.4020384E-01;  5.2575542E+03;
  1.0614744E+00;  9.9999998E-03; -2.0156356E-02;7964;  8.5536145E-02;  0.0000000E+00; -6.0481243E-03;  9.9484155E+02;  2.8920779E-01; -4.2735933E+03;3; -2.9100049E+00;  0.0000000E+00; -3.1126502E+00;0;  3.5169441E-01;  4.8272910E+03;  0.0000000E+00;  1.3083475E-02;  4.0000000E+04;  0.0000000E+00;  3.9282363E+04;  1.1133642E-01;  0.0000000E+00;  2.4035800E-01;  5.0662529E+03;
  1.0614744E+00;  9.9999998E-03;  2.0156380E-02;7968;  8.5536137E-02;  0.0000000E+00;  6.0483632E-03;  9.9484167E+02;  2.8920892E-01; -4.2734941E+03;3; -2.9099896E+00;  0.0000000E+00;  3.1125715E+00;0;  3.5169455E-01;  4.8272915E+03;  0.0000000E+00;  1.3100424E-02;  4.0000000E+04;  0.0000000E+00;  3.9282359E+04;  1.1133661E-01;  0.0000000E+00;  2.4035794E-01;  5.0662563E+03;
  1.0614054E+00;  9.9999998E-03; -3.0227125E-02;7963;  8.4267758E-02;  0.0000000E+00; -9.0941619E-03;  9.9489362E+02;  2.8913864E-01; -4.2304839E+03;3; -3.2679183E+00;  0.0000000E+00; -4.6012321E+00;0;  3.6040345E-01;  4.8303101E+03;  0.0000000E+00;  2.7896466E-02;  4.0000000E+04;  0.0000000E+00;  3.9280082E+04;  1.2004680E-01;  0.0000000E+00;  2.4035664E-01;  4.7958467E+03;
  1.0614054E+00;  9.9999998E-03;  3.0227143E-02;7969;  8.4267713E-02;  0.0000000E+00;  9.0943873E-03;  9.9489343E+02;  2.8913790E-01; -4.2306318E+03;3; -3.2679963E+00;  0.0000000E+00;  4.6011481E+00;0;  3.6040339E-01;  4.8303105E+03;  0.0000000E+00;  2.7919613E-02;  4.0000000E+04;  0.0000000E+00;  3.9280082E+04;  1.2004668E-01;  0.0000000E+00;  2.4035670E-01;  4.7958125E+03;
  1.0613375E+00;  9.9999998E-03; -4.0300980E-02;7962;  8.2467370E-02;  0.0000000E+00; -1.2207222E-02;  9.9494867E+02;  2.8906611E-01; -4.1848564E+03;3; -3.8450570E+00;  0.0000000E+00; -5.9415622E+00;0;  3.7182885E-01;  4.8335962E+03;  0.0000000E+00;  4.5299038E-02;  4.0000000E+04;  0.0000000E+00;  3.9278113E+04;  1.3207573E-01;  0.0000000E+00;  2.3975313E-01;  4.5098926E+03;
  1.0613376E+00;  9.9999998E-03;  4.0301003E-02;7970;  8.2467310E-02;  0.0000000E+00;  1.2207457E-02;  9.9494849E+02;  2.8906599E-01; -4.1850044E+03;3; -3.8450253E+00;  0.0000000E+00;  5.9414926E+00;0;  3.7182915E-01;  4.8335962E+03;  0.0000000E+00;  4.5326319E-02;  4.0000000E+04;  0.0000000E+00;  3.9278113E+04;  1.3207588E-01;  0.0000000E+00;  2.3975329E-01;  4.5098696E+03;
  1.0612953E+00;  9.9999998E-03; -5.0385382E-02;7961;  8.0123432E-02;  0.0000000E+00; -1.5412171E-02;  9.9500201E+02;  2.8900731E-01; -4.1406606E+03;3; -4.5794277E+00;  0.0000000E+00; -7.1756864E+00;0;  3.8533974E-01;  4.8363716E+03;  0.0000000E+00;  6.1067265E-02;  4.0000000E+04;  0.0000000E+00;  3.9276004E+04;  1.4733239E-01;  0.0000000E+00;  2.3800735E-01;  4.2771294E+03;
  1.0612954E+00;  9.9999998E-03;  5.0385408E-02;7971;  8.0123380E-02;  0.0000000E+00;  1.5412416E-02;  9.9500214E+02;  2.8900814E-01; -4.1405620E+03;3; -4.5793753E+00;  0.0000000E+00;  7.1756392E+00;0;  3.8534021E-01;  4.8363730E+03;  0.0000000E+00;  6.1100569E-02;  4.0000000E+04;  0.0000000E+00;  3.9276004E+04;  1.4733265E-01;  0.0000000E+00;  2.3800756E-01;  4.2771064E+03;
  1.0613077E+00;  9.9999998E-03; -6.0471442E-02;7960;  7.7191815E-02;  0.0000000E+00; -1.8781723E-02;  9.9502496E+02;  2.8899291E-01; -4.1216494E+03;3; -5.4468350E+00;  0.0000000E+00; -8.3355474E+00;0;  4.0028894E-01;  4.8377324E+03;  0.0000000E+00;  6.8368144E-02;  4.0000000E+04;  0.0000000E+00;  3.9274754E+04;  1.6574360E-01;  0.0000000E+00;  2.3454534E-01;  4.1508672E+03;
  1.0613077E+00;  9.9999998E-03;  6.0471464E-02;7972;  7.7191748E-02;  0.0000000E+00;  1.8781971E-02;  9.9502484E+02;  2.8899369E-01; -4.1217480E+03;3; -5.4467106E+00;  0.0000000E+00;  8.3355045E+00;0;  4.0028924E-01;  4.8377344E+03;  0.0000000E+00;  6.8406604E-02;  4.0000000E+04;  0.0000000E+00;  3.9274758E+04;  1.6574371E-01;  0.0000000E+00;  2.3454554E-01;  4.1509131E+03;
  1.0615114E+00;  9.9999998E-03; -7.0557855E-02;7959;  7.3624052E-02;  0.0000000E+00; -2.2445088E-02;  9.9503210E+02;  2.8911471E-01; -4.1157231E+03;3; -6.3623776E+00;  0.0000000E+00; -9.3591185E+00;0;  4.1744953E-01;  4.8345059E+03;  0.0000000E+00;  5.8963768E-02;  4.0000000E+04;  0.0000000E+00;  3.9273930E+04;  1.8828647E-01;  0.0000000E+00;  2.2916305E-01;  4.1396348E+03;
  1.0620053E+00;  9.9999998E-03; -8.0644652E-02;7958;  6.9438189E-02;  0.0000000E+00; -2.6472712E-02;  9.9501917E+02;  2.8944743E-01; -4.1264878E+03;3; -7.1539631E+00;  0.0000000E+00; -9.9523973E+00;0;  4.3787190E-01;  4.8245498E+03;  0.0000000E+00;  2.3144960E-02;  4.0000000E+04;  0.0000000E+00;  3.9273203E+04;  2.1615399E-01;  0.0000000E+00;  2.2171791E-01;  4.1963164E+03;
  1.0624979E+00;  9.9999998E-03; -9.0726614E-02;7957;  6.4764604E-02;  0.0000000E+00; -3.0525971E-02;  9.9497699E+02;  2.8978363E-01; -4.1613994E+03;3; -7.9283733E+00;  0.0000000E+00; -9.8927765E+00;0;  4.5787913E-01;  4.8145674E+03;  0.0000000E+00; -5.3285673E-02;  4.0000000E+04;  0.0000000E+00;  3.9272656E+04;  2.4679525E-01;  0.0000000E+00;  2.1108386E-01;  4.2301934E+03;
  1.0630662E+00;  9.9999998E-03; -1.0081290E-01;7956;  5.9638914E-02;  0.0000000E+00; -3.3870500E-02;  9.9492426E+02;  2.9016942E-01; -4.2051006E+03;3; -8.6856890E+00;  0.0000000E+00; -6.2509928E+00;0;  4.7833049E-01;  4.8032461E+03;  0.0000000E+00; -1.7405336E-01;  4.0000000E+04;  0.0000000E+00;  3.9270891E+04;  2.8087655E-01;  0.0000000E+00;  1.9745395E-01;  4.1754839E+03;
  1.0914919E+00;  9.9999998E-03; -1.0103528E-02;8026;  8.3188772E-02;  0.0000000E+00; -3.8205450E-03;  9.9976910E+02;  3.0688038E-01; -1.9129874E+02;3; -3.1483090E+00;  0.0000000E+00; -2.2347493E+00;0;  6.0314488E-01;  4.3359482E+03;  0.0000000E+00;  8.7745059E-03;  4.0000000E+04;  0.0000000E+00;  3.9239031E+04;  3.0790061E-01;  0.0000000E+00;  2.9524425E-01;  5.2692461E+03;
  1.0914872E+00;  9.9999998E-03;  1.7489358E-08;8027;  8.3446197E-02;  0.0000000E+00;  1.5986843E-07;  9.9975708E+02;  3.0688405E-01; -2.0127353E+02;3; -3.0554135E+00;  0.0000000E+00; -4.1889340E-05;0;  5.9799111E-01;  4.3357578E+03;  0.0000000E+00; -1.1780392E-10;  4.0000000E+04;  0.0000000E+00;  3.9239590E+04;  3.0344120E-01;  0.0000000E+00;  2.9454994E-01;  5.3437007E+03;
  1.0914919E+00;  9.9999998E-03;  1.0103560E-02;8028;  8.3188757E-02;  0.0000000E+00;  3.8208480E-03;  9.9976904E+02;  3.0688095E-01; -1.9134813E+02;3; -3.1483152E+00;  0.0000000E+00;  2.2346375E+00;0;  6.0314447E-01;  4.3359478E+03;  0.0000000E+00;  8.7918453E-03;  4.0000000E+04;  0.0000000E+00;  3.9239031E+04;  3.0790013E-01;  0.0000000E+00;  2.9524434E-01;  5.2692627E+03;
  1.0915154E+00;  9.9999998E-03; -2.0200960E-02;8025;  8.2416549E-02;  0.0000000E+00; -7.6930812E-03;  9.9979761E+02;  3.0687830E-01; -1.6769502E+02;3; -3.4470479E+00;  0.0000000E+00; -4.4456215E+00;0;  6.1852920E-01;  4.3363833E+03;  0.0000000E+00;  3.5274647E-02;  4.0000000E+04;  0.0000000E+00;  3.9237262E+04;  3.2129681E-01;  0.0000000E+00;  2.9723239E-01;  5.0618623E+03;
  1.0915154E+00;  9.9999998E-03;  2.0200992E-02;8029;  8.2416527E-02;  0.0000000E+00;  7.6933880E-03;  9.9979761E+02;  3.0687714E-01; -1.6769502E+02;3; -3.4469976E+00;  0.0000000E+00;  4.4455237E+00;0;  6.1852926E-01;  4.3363843E+03;  0.0000000E+00;  3.5308674E-02;  4.0000000E+04;  0.0000000E+00;  3.9237262E+04;  3.2129678E-01;  0.0000000E+00;  2.9723248E-01;  5.0618477E+03;
  1.0915627E+00;  9.9999998E-03; -3.0293725E-02;8024;  8.1121452E-02;  0.0000000E+00; -1.1680016E-02;  9.9983551E+02;  3.0688098E-01; -1.3628925E+02;3; -3.9682059E+00;  0.0000000E+00; -6.6488609E+00;0;  6.4376104E-01;  4.3368516E+03;  0.0000000E+00;  7.9275668E-02;  4.0000000E+04;  0.0000000E+00;  3.9234570E+04;  3.4356290E-01;  0.0000000E+00;  3.0019811E-01;  4.7718804E+03;
  1.0915627E+00;  9.9999998E-03;  3.0293753E-02;8030;  8.1121407E-02;  0.0000000E+00;  1.1680312E-02;  9.9983545E+02;  3.0688065E-01; -1.3633862E+02;3; -3.9682257E+00;  0.0000000E+00;  6.6487603E+00;0;  6.4376122E-01;  4.3368545E+03;  0.0000000E+00;  7.9325080E-02;  4.0000000E+04;  0.0000000E+00;  3.9234566E+04;  3.4356323E-01;  0.0000000E+00;  3.0019799E-01;  4.7718867E+03;
  1.0916276E+00;  9.9999998E-03; -4.0391345E-02;8023;  7.9285271E-02;  0.0000000E+00; -1.5840668E-02;  9.9987415E+02;  3.0688527E-01; -1.0424152E+02;3; -4.6250000E+00;  0.0000000E+00; -8.8637724E+00;0;  6.7811620E-01;  4.3372993E+03;  0.0000000E+00;  1.3842061E-01;  4.0000000E+04;  0.0000000E+00;  3.9231707E+04;  3.7452540E-01;  0.0000000E+00;  3.0359077E-01;  4.4881240E+03;
  1.0916276E+00;  9.9999998E-03;  4.0391367E-02;8031;  7.9285212E-02;  0.0000000E+00;  1.5840938E-02;  9.9987390E+02;  3.0688509E-01; -1.0448842E+02;3; -4.6249571E+00;  0.0000000E+00;  8.8636827E+00;0;  6.7811608E-01;  4.3372974E+03;  0.0000000E+00;  1.3848439E-01;  4.0000000E+04;  0.0000000E+00;  3.9231695E+04;  3.7452525E-01;  0.0000000E+00;  3.0359086E-01;  4.4881582E+03;
  1.0917299E+00;  9.9999998E-03; -5.0505489E-02;8022;  7.6889306E-02;  0.0000000E+00; -2.0217856E-02;  9.9989435E+02;  3.0690640E-01; -8.7551018E+01;3; -5.5197053E+00;  0.0000000E+00; -1.0980893E+01;0;  7.2093177E-01;  4.3372622E+03;  0.0000000E+00;  2.0529759E-01;  4.0000000E+04;  0.0000000E+00;  3.9228605E+04;  4.1423100E-01;  0.0000000E+00;  3.0670077E-01;  4.3141929E+03;
  1.0917299E+00;  9.9999998E-03;  5.0505515E-02;8032;  7.6889269E-02;  0.0000000E+00;  2.0218149E-02;  9.9989471E+02;  3.0690625E-01; -8.7205360E+01;3; -5.5196767E+00;  0.0000000E+00;  1.0980808E+01;0;  7.2093177E-01;  4.3372627E+03;  0.0000000E+00;  2.0537476E-01;  4.0000000E+04;  0.0000000E+00;  3.9228602E+04;  4.1423109E-01;  0.0000000E+00;  3.0670068E-01;  4.3142051E+03;
  1.0918698E+00;  9.9999998E-03; -6.0625833E-02;8021;  7.3867194E-02;  0.0000000E+00; -2.4962492E-02;  9.9989038E+02;  3.0695081E-01; -9.0810112E+01;3; -6.4645190E+00;  0.0000000E+00; -1.3061213E+01;0;  7.7109003E-01;  4.3365024E+03;  0.0000000E+00;  2.6443842E-01;  4.0000000E+04;  0.0000000E+00;  3.9226035E+04;  4.6244112E-01;  0.0000000E+00;  3.0864894E-01;  4.2960771E+03;
  1.0918698E+00;  9.9999998E-03;  6.0625862E-02;8033;  7.3867127E-02;  0.0000000E+00;  2.4962822E-02;  9.9989050E+02;  3.0695036E-01; -9.0711349E+01;3; -6.4644818E+00;  0.0000000E+00;  1.3061147E+01;0;  7.7109039E-01;  4.3365024E+03;  0.0000000E+00;  2.6452395E-01;  4.0000000E+04;  0.0000000E+00;  3.9226035E+04;  4.6244168E-01;  0.0000000E+00;  3.0864874E-01;  4.2961426E+03;
  1.0921234E+00;  9.9999998E-03; -7.0742115E-02;8020;  7.0190825E-02;  0.0000000E+00; -3.0097518E-02;  9.9986664E+02;  3.0706489E-01; -1.1046340E+02;3; -7.4903126E+00;  0.0000000E+00; -1.4997088E+01;0;  8.2842338E-01;  4.3337349E+03;  0.0000000E+00;  2.9284659E-01;  4.0000000E+04;  0.0000000E+00;  3.9224230E+04;  5.1973456E-01;  0.0000000E+00;  3.0868885E-01;  4.3569565E+03;
  1.0925714E+00;  9.9999998E-03; -8.0846265E-02;8019;  6.5915987E-02;  0.0000000E+00; -3.5589918E-02;  9.9983636E+02;  3.0730262E-01; -1.3554849E+02;3; -8.3285713E+00;  0.0000000E+00; -1.6502670E+01;0;  8.9340091E-01;  4.3277896E+03;  0.0000000E+00;  2.6534310E-01;  4.0000000E+04;  0.0000000E+00;  3.9222586E+04;  5.8713102E-01;  0.0000000E+00;  3.0626991E-01;  4.3368472E+03;
  1.0932009E+00;  9.9999998E-03; -9.0940796E-02;8018;  6.1100639E-02;  0.0000000E+00; -4.1355677E-02;  9.9980725E+02;  3.0765018E-01; -1.5969536E+02;3; -9.0323353E+00;  0.0000000E+00; -1.7484522E+01;0;  9.6571589E-01;  4.3190898E+03;  0.0000000E+00;  1.6525573E-01;  4.0000000E+04;  0.0000000E+00;  3.9220859E+04;  6.6481531E-01;  0.0000000E+00;  3.0090061E-01;  4.1099185E+03;
  1.0937796E+00;  9.9999998E-03; -1.0103112E-01;8017;  5.5999830E-02;  0.0000000E+00; -4.6973053E-02;  9.9975256E+02;  3.0796218E-01; -2.0497690E+02;3; -8.8772631E+00;  0.0000000E+00; -1.6749414E+01;0;  1.0410783E+00;  4.3114351E+03;  0.0000000E+00; -4.4173142E-03;  4.0000000E+04;  0.0000000E+00;  3.9218504E+04;  7.4935699E-01;  0.0000000E+00;  2.9172134E-01;  3.6620417E+03;
  1.1249343E+00;  9.9999998E-03; -1.0134065E-02;8087;  1.0343379E-01;  0.0000000E+00; -1.8405032E-03;  1.0050161E+03;  3.1998110E-01;  4.1555737E+03;3;  1.3541064E+01;  0.0000000E+00; -1.1085079E+00;0;  7.9175806E-01;  4.0340032E+03;  0.0000000E+00;  2.6619108E-04;  4.0000000E+04;  0.0000000E+00;  3.9209070E+04;  4.7430125E-01;  0.0000000E+00;  3.1745684E-01;  5.9019995E+03;
  1.1249609E+00;  9.9999998E-03;  1.8527290E-08;8088;  1.0349589E-01;  0.0000000E+00;  2.5466420E-07;  1.0049994E+03;  3.1999636E-01;  4.1417471E+03;3;  1.3740967E+01;  0.0000000E+00; -1.4862977E-05;0;  7.8310508E-01;  4.0334580E+03;  0.0000000E+00;  7.3140979E-11;  4.0000000E+04;  0.0000000E+00;  3.9209562E+04;  4.6703732E-01;  0.0000000E+00;  3.1606776E-01;  5.9822710E+03;
  1.1249342E+00;  9.9999998E-03;  1.0134101E-02;8089;  1.0343371E-01;  0.0000000E+00;  1.8409912E-03;  1.0050162E+03;  3.1998119E-01;  4.1556724E+03;3;  1.3541000E+01;  0.0000000E+00;  1.1084402E+00;0;  7.9175818E-01;  4.0340042E+03;  0.0000000E+00;  2.8059800E-04;  4.0000000E+04;  0.0000000E+00;  3.9209074E+04;  4.7430128E-01;  0.0000000E+00;  3.1745690E-01;  5.9019844E+03;
  1.1248664E+00;  9.9999998E-03; -2.0261200E-02;8086;  1.0325075E-01;  0.0000000E+00; -3.4737717E-03;  1.0050742E+03;  3.1993920E-01;  4.2036694E+03;3;  1.2962693E+01;  0.0000000E+00; -2.2832770E+00;0;  8.1758410E-01;  4.0355115E+03;  0.0000000E+00;  2.1189316E-03;  4.0000000E+04;  0.0000000E+00;  3.9207434E+04;  4.9605775E-01;  0.0000000E+00;  3.2152635E-01;  5.6710205E+03;
  1.1248664E+00;  9.9999998E-03;  2.0261237E-02;8090;  1.0325056E-01;  0.0000000E+00;  3.4743384E-03;  1.0050739E+03;  3.1994060E-01;  4.2034717E+03;3;  1.2962564E+01;  0.0000000E+00;  2.2832360E+00;0;  8.1758451E-01;  4.0355129E+03;  0.0000000E+00;  2.1486380E-03;  4.0000000E+04;  0.0000000E+00;  3.9207430E+04;  4.9605811E-01;  0.0000000E+00;  3.2152638E-01;  5.6710049E+03;
  1.1247711E+00;  9.9999998E-03; -3.0378312E-02;8085;  1.0284386E-01;  0.0000000E+00; -4.7142091E-03;  1.0051498E+03;  3.1987792E-01;  4.2663818E+03;3;  1.2012161E+01;  0.0000000E+00; -3.5827272E+00;0;  8.6011505E-01;  4.0378062E+03;  0.0000000E+00;  8.0501670E-03;  4.0000000E+04;  0.0000000E+00;  3.9204793E+04;  5.3215861E-01;  0.0000000E+00;  3.2795647E-01;  5.3254390E+03;
  1.1247711E+00;  9.9999998E-03;  3.0378349E-02;8091;  1.0284375E-01;  0.0000000E+00;  4.7147502E-03;  1.0051500E+03;  3.1987780E-01;  4.2664805E+03;3;  1.2012144E+01;  0.0000000E+00;  3.5827131E+00;0;  8.6011541E-01;  4.0378066E+03;  0.0000000E+00;  8.0961399E-03;  4.0000000E+04;  0.0000000E+00;  3.9204785E+04;  5.3215903E-01;  0.0000000E+00;  3.2795641E-01;  5.3254512E+03;
  1.1247091E+00;  9.9999998E-03; -4.0495165E-02;8084;  1.0223369E-01;  0.0000000E+00; -5.8232606E-03;  1.0052449E+03;  3.1981495E-01;  4.3450928E+03;3;  1.0786552E+01;  0.0000000E+00; -5.0460906E+00;0;  9.1876215E-01;  4.0401887E+03;  0.0000000E+00;  1.9915069E-02;  4.0000000E+04;  0.0000000E+00;  3.9201590E+04;  5.8259857E-01;  0.0000000E+00;  3.3616358E-01;  4.9437969E+03;
  1.1247091E+00;  9.9999998E-03;  4.0495202E-02;8092;  1.0223373E-01;  0.0000000E+00;  5.8238180E-03;  1.0052449E+03;  3.1981412E-01;  4.3451914E+03;3;  1.0786669E+01;  0.0000000E+00;  5.0460196E+00;0;  9.1876304E-01;  4.0401892E+03;  0.0000000E+00;  1.9979989E-02;  4.0000000E+04;  0.0000000E+00;  3.9201590E+04;  5.8259934E-01;  0.0000000E+00;  3.3616373E-01;  4.9437280E+03;
  1.1247027E+00;  9.9999998E-03; -5.0631054E-02;8083;  1.0140182E-01;  0.0000000E+00; -7.2181886E-03;  1.0053301E+03;  3.1976014E-01;  4.4157051E+03;3;  9.2924671E+00;  0.0000000E+00; -6.6992216E+00;0;  9.9270326E-01;  4.0423613E+03;  0.0000000E+00;  3.6000576E-02;  4.0000000E+04;  0.0000000E+00;  3.9198711E+04;  6.4740396E-01;  0.0000000E+00;  3.4529930E-01;  4.6238589E+03;
  1.1247027E+00;  9.9999998E-03;  5.0631095E-02;8093;  1.0140181E-01;  0.0000000E+00;  7.2187912E-03;  1.0053302E+03;  3.1976113E-01;  4.4158042E+03;3;  9.2925520E+00;  0.0000000E+00;  6.6992149E+00;0;  9.9270415E-01;  4.0423635E+03;  0.0000000E+00;  3.6078576E-02;  4.0000000E+04;  0.0000000E+00;  3.9198723E+04;  6.4740521E-01;  0.0000000E+00;  3.4529898E-01;  4.6238853E+03;
  1.1247593E+00;  9.9999998E-03; -6.0782906E-02;8082;  1.0030809E-01;  0.0000000E+00; -9.1122529E-03;  1.0053940E+03;  3.1972080E-01;  4.4687388E+03;3;  7.5168257E+00;  0.0000000E+00; -8.5445652E+00;0;  1.0807544E+00;  4.0440811E+03;  0.0000000E+00;  4.8396178E-02;  4.0000000E+04;  0.0000000E+00;  3.9196172E+04;  7.2643608E-01;  0.0000000E+00;  3.5431829E-01;  4.4506611E+03;
  1.1247593E+00;  9.9999998E-03;  6.0782950E-02;8094;  1.0030825E-01;  0.0000000E+00;  9.1129113E-03;  1.0053943E+03;  3.1972167E-01;  4.4689360E+03;3;  7.5170426E+00;  0.0000000E+00;  8.5446472E+00;0;  1.0807557E+00;  4.0440801E+03;  0.0000000E+00;  4.8486117E-02;  4.0000000E+04;  0.0000000E+00;  3.9196172E+04;  7.2643751E-01;  0.0000000E+00;  3.5431814E-01;  4.4507715E+03;
  1.1249181E+00;  9.9999998E-03; -7.0926912E-02;8081;  9.9018507E-02;  0.0000000E+00; -1.1597563E-02;  1.0054359E+03;  3.1971186E-01;  4.5033037E+03;3;  5.5307260E+00;  0.0000000E+00; -1.0547256E+01;0;  1.1815788E+00;  4.0448745E+03;  0.0000000E+00;  4.2820815E-02;  4.0000000E+04;  0.0000000E+00;  3.9194629E+04;  8.1942540E-01;  0.0000000E+00;  3.6215338E-01;  4.4235161E+03;
  1.1252152E+00;  9.9999998E-03; -8.1052899E-02;8080;  9.7698547E-02;  0.0000000E+00; -1.4728862E-02;  1.0054395E+03;  3.1974775E-01;  4.5062656E+03;3;  3.4099932E+00;  0.0000000E+00; -1.2643696E+01;0;  1.2940366E+00;  4.0444084E+03;  0.0000000E+00;  4.0595424E-03;  4.0000000E+04;  0.0000000E+00;  3.9193535E+04;  9.2614388E-01;  0.0000000E+00;  3.6789274E-01;  4.4140996E+03;
  1.1256330E+00;  9.9999998E-03; -9.1154478E-02;8079;  9.6402027E-02;  0.0000000E+00; -1.8475996E-02;  1.0054154E+03;  3.1982744E-01;  4.4864141E+03;3;  1.1308160E+00;  0.0000000E+00; -1.4752569E+01;0;  1.4168732E+00;  4.0430120E+03;  0.0000000E+00; -7.4099965E-02;  4.0000000E+04;  0.0000000E+00;  3.9192262E+04;  1.0460513E+00;  0.0000000E+00;  3.7082189E-01;  4.2611182E+03;
  1.1262019E+00;  9.9999998E-03; -1.0123388E-01;8078;  9.5507458E-02;  0.0000000E+00; -2.2797437E-02;  1.0053887E+03;  3.1994557E-01;  4.4642905E+03;3; -1.2339960E+00;  0.0000000E+00; -1.6784986E+01;0;  1.5494859E+00;  4.0407498E+03;  0.0000000E+00; -1.8088156E-01;  4.0000000E+04;  0.0000000E+00;  3.9189816E+04;  1.1789174E+00;  0.0000000E+00;  3.7056857E-01;  3.8892869E+03;
  1.1594366E+00;  9.9999998E-03; -1.0130212E-02;8148;  1.3096744E-01;  0.0000000E+00; -4.0887082E-03;  1.0022408E+03;  3.2159150E-01;  1.8564198E+03;3;  5.1499851E+01;  0.0000000E+00; -2.0646377E+00;0;  6.7432499E-01;  3.9715681E+03;  0.0000000E+00; -3.6279261E-03;  4.0000000E+04;  0.0000000E+00;  3.9213414E+04;  3.8337466E-01;  0.0000000E+00;  2.9095030E-01;  8.7537012E+03;
  1.1594887E+00;  9.9999998E-03;  2.4733795E-08;8149;  1.3040608E-01;  0.0000000E+00;  3.8243638E-07;  1.0021973E+03;  3.2159802E-01;  1.8202749E+03;3;  5.1323311E+01;  0.0000000E+00;  3.7327350E-06;0;  6.6482806E-01;  3.9710710E+03;  0.0000000E+00;  3.6709380E-10;  4.0000000E+04;  0.0000000E+00;  3.9214078E+04;  3.7575322E-01;  0.0000000E+00;  2.8907481E-01;  8.8274971E+03;
  1.1594365E+00;  9.9999998E-03;  1.0130261E-02;8150;  1.3096744E-01;  0.0000000E+00;  4.0894761E-03;  1.0022411E+03;  3.2159021E-01;  1.8566173E+03;3;  5.1499836E+01;  0.0000000E+00;  2.0646987E+00;0;  6.7432582E-01;  3.9715676E+03;  0.0000000E+00; -3.6266358E-03;  4.0000000E+04;  0.0000000E+00;  3.9213406E+04;  3.8337529E-01;  0.0000000E+00;  2.9095051E-01;  8.7536592E+03;
  1.1592917E+00;  9.9999998E-03; -2.0256396E-02;8147;  1.3257279E-01;  0.0000000E+00; -8.2395403E-03;  1.0023609E+03;  3.2156783E-01;  1.9558676E+03;3;  5.1308212E+01;  0.0000000E+00; -3.8275900E+00;0;  7.0262659E-01;  3.9730774E+03;  0.0000000E+00; -1.5577086E-02;  4.0000000E+04;  0.0000000E+00;  3.9211867E+04;  4.0620419E-01;  0.0000000E+00;  2.9642236E-01;  8.5403545E+03;
  1.1592917E+00;  9.9999998E-03;  2.0256447E-02;8151;  1.3257281E-01;  0.0000000E+00;  8.2403393E-03;  1.0023614E+03;  3.2156757E-01;  1.9562626E+03;3;  5.1308388E+01;  0.0000000E+00;  3.8276105E+00;0;  7.0262718E-01;  3.9730776E+03;  0.0000000E+00; -1.5572381E-02;  4.0000000E+04;  0.0000000E+00;  3.9211863E+04;  4.0620488E-01;  0.0000000E+00;  2.9642227E-01;  8.5402969E+03;
  1.1590539E+00;  9.9999998E-03; -3.0381849E-02;8146;  1.3517988E-01;  0.0000000E+00; -1.2546315E-02;  1.0025528E+03;  3.2152739E-01;  2.1147668E+03;3;  5.1436230E+01;  0.0000000E+00; -5.8530278E+00;0;  7.4947023E-01;  3.9755356E+03;  0.0000000E+00; -3.8142629E-02;  4.0000000E+04;  0.0000000E+00;  3.9209531E+04;  4.4436309E-01;  0.0000000E+00;  3.0510712E-01;  8.2114824E+03;
  1.1590539E+00;  9.9999998E-03;  3.0381907E-02;8152;  1.3517997E-01;  0.0000000E+00;  1.2547229E-02;  1.0025524E+03;  3.2152733E-01;  2.1144707E+03;3;  5.1436272E+01;  0.0000000E+00;  5.8532181E+00;0;  7.4947083E-01;  3.9755366E+03;  0.0000000E+00; -3.8130250E-02;  4.0000000E+04;  0.0000000E+00;  3.9209531E+04;  4.4436395E-01;  0.0000000E+00;  3.0510691E-01;  8.2114434E+03;
  1.1587558E+00;  9.9999998E-03; -4.0515158E-02;8145;  1.3893998E-01;  0.0000000E+00; -1.7077142E-02;  1.0027984E+03;  3.2147127E-01;  2.3183042E+03;3;  5.1377434E+01;  0.0000000E+00; -7.7958083E+00;0;  8.1412798E-01;  3.9787756E+03;  0.0000000E+00; -7.2955236E-02;  4.0000000E+04;  0.0000000E+00;  3.9206777E+04;  4.9780118E-01;  0.0000000E+00;  3.1632680E-01;  7.8206138E+03;
  1.1587558E+00;  9.9999998E-03;  4.0515218E-02;8153;  1.3894008E-01;  0.0000000E+00;  1.7078042E-02;  1.0027984E+03;  3.2147178E-01;  2.3183042E+03;3;  5.1377537E+01;  0.0000000E+00;  7.7959595E+00;0;  8.1412888E-01;  3.9787771E+03;  0.0000000E+00; -7.2929159E-02;  4.0000000E+04;  0.0000000E+00;  3.9206777E+04;  4.9780226E-01;  0.0000000E+00;  3.1632665E-01;  7.8206128E+03;
  1.1584709E+00;  9.9999998E-03; -5.0643232E-02;8144;  1.4384943E-01;  0.0000000E+00; -2.1926241E-02;  1.0030719E+03;  3.2139960E-01;  2.5448521E+03;3;  5.1377190E+01;  0.0000000E+00; -9.8233833E+00;0;  8.9510727E-01;  3.9825251E+03;  0.0000000E+00; -1.1972784E-01;  4.0000000E+04;  0.0000000E+00;  3.9204383E+04;  5.6599897E-01;  0.0000000E+00;  3.2910830E-01;  7.4528462E+03;
  1.1584709E+00;  9.9999998E-03;  5.0643288E-02;8154;  1.4384957E-01;  0.0000000E+00;  2.1927143E-02;  1.0030723E+03;  3.2139719E-01;  2.5452471E+03;3;  5.1377232E+01;  0.0000000E+00;  9.8235378E+00;0;  8.9510822E-01;  3.9825222E+03;  0.0000000E+00; -1.1968792E-01;  4.0000000E+04;  0.0000000E+00;  3.9204391E+04;  5.6600052E-01;  0.0000000E+00;  3.2910770E-01;  7.4528169E+03;
  1.1582719E+00;  9.9999998E-03; -6.0779557E-02;8143;  1.4991309E-01;  0.0000000E+00; -2.7242284E-02;  1.0033457E+03;  3.2131734E-01;  2.7716958E+03;3;  5.1253597E+01;  0.0000000E+00; -1.1716676E+01;0;  9.9074817E-01;  3.9865112E+03;  0.0000000E+00; -1.7702782E-01;  4.0000000E+04;  0.0000000E+00;  3.9202527E+04;  6.4837295E-01;  0.0000000E+00;  3.4237525E-01;  7.1752437E+03;
  1.1582719E+00;  9.9999998E-03;  6.0779616E-02;8155;  1.4991325E-01;  0.0000000E+00;  2.7243257E-02;  1.0033458E+03;  3.2131666E-01;  2.7716958E+03;3;  5.1253796E+01;  0.0000000E+00;  1.1716756E+01;0;  9.9074876E-01;  3.9865105E+03;  0.0000000E+00; -1.7697164E-01;  4.0000000E+04;  0.0000000E+00;  3.9202523E+04;  6.4837456E-01;  0.0000000E+00;  3.4237421E-01;  7.1752656E+03;
  1.1582463E+00;  9.9999998E-03; -7.0916869E-02;8142;  1.5719585E-01;  0.0000000E+00; -3.3006825E-02;  1.0035957E+03;  3.2122892E-01;  2.9787878E+03;3;  5.1300335E+01;  0.0000000E+00; -1.3643934E+01;0;  1.0987453E+00;  3.9903630E+03;  0.0000000E+00; -2.4334042E-01;  4.0000000E+04;  0.0000000E+00;  3.9201602E+04;  7.4375153E-01;  0.0000000E+00;  3.5499376E-01;  7.0184404E+03;
  1.1586187E+00;  9.9999998E-03; -8.1037812E-02;8141;  1.6593441E-01;  0.0000000E+00; -3.9190110E-02;  1.0037863E+03;  3.2114440E-01;  3.1366980E+03;3;  5.1639999E+01;  0.0000000E+00; -1.5791105E+01;0;  1.2147408E+00;  3.9937246E+03;  0.0000000E+00; -3.1692553E-01;  4.0000000E+04;  0.0000000E+00;  3.9201387E+04;  8.4904277E-01;  0.0000000E+00;  3.6569798E-01;  6.9703921E+03;
  1.1592885E+00;  9.9999998E-03; -9.1133945E-02;8140;  1.7603660E-01;  0.0000000E+00; -4.5568351E-02;  1.0039287E+03;  3.2106578E-01;  3.2546111E+03;3;  5.1802288E+01;  0.0000000E+00; -1.8045486E+01;0;  1.3374009E+00;  3.9967693E+03;  0.0000000E+00; -3.8988712E-01;  4.0000000E+04;  0.0000000E+00;  3.9200902E+04;  9.6347618E-01;  0.0000000E+00;  3.7392479E-01;  6.8978149E+03;
  1.1600082E+00;  9.9999998E-03; -1.0120961E-01;8139;  1.8730901E-01;  0.0000000E+00; -5.2044049E-02;  1.0040621E+03;  3.2098895E-01;  3.3651169E+03;3;  5.1869507E+01;  0.0000000E+00; -2.0242168E+01;0;  1.4676299E+00;  4.0000134E+03;  0.0000000E+00; -4.4429320E-01;  4.0000000E+04;  0.0000000E+00;  3.9198945E+04;  1.0881776E+00;  0.0000000E+00;  3.7945232E-01;  6.6434834E+03;
  1.1917093E+00;  9.9999998E-03; -6.0604226E-02;8204;  1.5155259E-01;  0.0000000E+00; -1.9638827E-02;  9.9892065E+02;  3.1475508E-01; -8.9410291E+02;3;  5.5813972E+01;  0.0000000E+00; -1.4416515E+01;0;  5.5732983E-01;  4.1123960E+03;  0.0000000E+00; -1.2014889E-01;  4.0000000E+04;  0.0000000E+00;  3.9232129E+04;  3.2802010E-01;  0.0000000E+00;  2.2930975E-01;  1.1507803E+04;
  1.1917093E+00;  9.9999998E-03;  6.0604300E-02;8216;  1.5155278E-01;  0.0000000E+00;  1.9639730E-02;  9.9892047E+02;  3.1475326E-01; -8.9425104E+02;3;  5.5814148E+01;  0.0000000E+00;  1.4416610E+01;0;  5.5733031E-01;  4.1123960E+03;  0.0000000E+00; -1.2014737E-01;  4.0000000E+04;  0.0000000E+00;  3.9232133E+04;  3.2802132E-01;  0.0000000E+00;  2.2930899E-01;  1.1507865E+04;
  1.1917874E+00;  9.9999998E-03; -5.0472271E-02;8205;  1.4428569E-01;  0.0000000E+00; -1.5813909E-02;  9.9861060E+02;  3.1484079E-01; -1.1509574E+03;3;  5.5455486E+01;  0.0000000E+00; -1.2082676E+01;0;  4.9391145E-01;  4.1080439E+03;  0.0000000E+00; -6.4881772E-02;  4.0000000E+04;  0.0000000E+00;  3.9233488E+04;  2.7918640E-01;  0.0000000E+00;  2.1472505E-01;  1.1697244E+04;
  1.1917874E+00;  9.9999998E-03;  5.0472334E-02;8215;  1.4428586E-01;  0.0000000E+00;  1.5814813E-02;  9.9861078E+02;  3.1484154E-01; -1.1508093E+03;3;  5.5455605E+01;  0.0000000E+00;  1.2082747E+01;0;  4.9391252E-01;  4.1080454E+03;  0.0000000E+00; -6.4891346E-02;  4.0000000E+04;  0.0000000E+00;  3.9233488E+04;  2.7918789E-01;  0.0000000E+00;  2.1472463E-01;  1.1697242E+04;
  1.1917417E+00;  9.9999998E-03; -7.0728056E-02;8203;  1.6018701E-01;  0.0000000E+00; -2.3726497E-02;  9.9926318E+02;  3.1464389E-01; -6.1038770E+02;3;  5.6077110E+01;  0.0000000E+00; -1.7018173E+01;0;  6.2865520E-01;  4.1174980E+03;  0.0000000E+00; -1.8592981E-01;  4.0000000E+04;  0.0000000E+00;  3.9231703E+04;  3.8523412E-01;  0.0000000E+00;  2.4342109E-01;  1.1403650E+04;
  1.1919717E+00;  9.9999998E-03; -4.0342182E-02;8206;  1.3838802E-01;  0.0000000E+00; -1.2220367E-02;  9.9833673E+02;  3.1489778E-01; -1.3778403E+03;3;  5.5080311E+01;  0.0000000E+00; -9.8136730E+00;0;  4.3969256E-01;  4.1045781E+03;  0.0000000E+00; -2.6314782E-02;  4.0000000E+04;  0.0000000E+00;  3.9235152E+04;  2.3910873E-01;  0.0000000E+00;  2.0058382E-01;  1.1972121E+04;
  1.1919717E+00;  9.9999998E-03;  4.0342256E-02;8214;  1.3838816E-01;  0.0000000E+00;  1.2221289E-02;  9.9833655E+02;  3.1489736E-01; -1.3779884E+03;3;  5.5080429E+01;  0.0000000E+00;  9.8138552E+00;0;  4.3969303E-01;  4.1045791E+03;  0.0000000E+00; -2.6327942E-02;  4.0000000E+04;  0.0000000E+00;  3.9235156E+04;  2.3910975E-01;  0.0000000E+00;  2.0058326E-01;  1.1972095E+04;
  1.1918547E+00;  9.9999998E-03; -8.0837794E-02;8202;  1.7013611E-01;  0.0000000E+00; -2.8061952E-02;  9.9961914E+02;  3.1451663E-01; -3.1551337E+02;3;  5.6090496E+01;  0.0000000E+00; -1.9571009E+01;0;  7.0697743E-01;  4.1231177E+03;  0.0000000E+00; -2.5266060E-01;  4.0000000E+04;  0.0000000E+00;  3.9231367E+04;  4.5059574E-01;  0.0000000E+00;  2.5638169E-01;  1.1318974E+04;
  1.1921997E+00;  9.9999998E-03; -3.0240398E-02;8207;  1.3378540E-01;  0.0000000E+00; -8.8321809E-03;  9.9811981E+02;  3.1493106E-01; -1.5575194E+03;3;  5.5126041E+01;  0.0000000E+00; -7.4313240E+00;0;  3.9633602E-01;  4.1020610E+03;  0.0000000E+00; -5.6994087E-03;  4.0000000E+04;  0.0000000E+00;  3.9237395E+04;  2.0824482E-01;  0.0000000E+00;  1.8809120E-01;  1.2273997E+04;
  1.1921996E+00;  9.9999998E-03;  3.0240467E-02;8213;  1.3378549E-01;  0.0000000E+00;  8.8330628E-03;  9.9812000E+02;  3.1493214E-01; -1.5573712E+03;3;  5.5126213E+01;  0.0000000E+00;  7.4314723E+00;0;  3.9633647E-01;  4.1020605E+03;  0.0000000E+00; -5.7133795E-03;  4.0000000E+04;  0.0000000E+00;  3.9237391E+04;  2.0824549E-01;  0.0000000E+00;  1.8809098E-01;  1.2273902E+04;
  1.1920468E+00;  9.9999998E-03; -9.0930879E-02;8201;  1.8130879E-01;  0.0000000E+00; -3.2520890E-02;  9.9998260E+02;  3.1438953E-01; -1.4417823E+01;3;  5.6031448E+01;  0.0000000E+00; -2.1980799E+01;0;  7.9101098E-01;  4.1290103E+03;  0.0000000E+00; -3.0833548E-01;  4.0000000E+04;  0.0000000E+00;  3.9230742E+04;  5.2349520E-01;  0.0000000E+00;  2.6751578E-01;  1.1158885E+04;
  1.1924083E+00;  9.9999998E-03; -2.0156462E-02;8208;  1.3050884E-01;  0.0000000E+00; -5.7231360E-03;  9.9796130E+02;  3.1494874E-01; -1.6888593E+03;3;  5.4771976E+01;  0.0000000E+00; -4.7572575E+00;0;  3.6481094E-01;  4.1003496E+03;  0.0000000E+00;  1.0549063E-03;  4.0000000E+04;  0.0000000E+00;  3.9239289E+04;  1.8650436E-01;  0.0000000E+00;  1.7830659E-01;  1.2536818E+04;
  1.1924083E+00;  9.9999998E-03;  2.0156525E-02;8212;  1.3050890E-01;  0.0000000E+00;  5.7239886E-03;  9.9796143E+02;  3.1494924E-01; -1.6887605E+03;3;  5.4771835E+01;  0.0000000E+00;  4.7574019E+00;0;  3.6481094E-01;  4.1003525E+03;  0.0000000E+00;  1.0432100E-03;  4.0000000E+04;  0.0000000E+00;  3.9239289E+04;  1.8650465E-01;  0.0000000E+00;  1.7830631E-01;  1.2536776E+04;
  1.1925377E+00;  9.9999998E-03; -1.0078631E-02;8209;  1.2857604E-01;  0.0000000E+00; -2.8238469E-03;  9.9786383E+02;  3.1495777E-01; -1.7695889E+03;3;  5.4679394E+01;  0.0000000E+00; -2.5444880E+00;0;  3.4582204E-01;  4.0993179E+03;  0.0000000E+00;  8.7895547E-04;  4.0000000E+04;  0.0000000E+00;  3.9240520E+04;  1.7367470E-01;  0.0000000E+00;  1.7214733E-01;  1.2709150E+04;
  1.1925375E+00;  9.9999998E-03;  1.0078695E-02;8211;  1.2857607E-01;  0.0000000E+00;  2.8246867E-03;  9.9786383E+02;  3.1495848E-01; -1.7695889E+03;3;  5.4679455E+01;  0.0000000E+00;  2.5445814E+00;0;  3.4582245E-01;  4.0993179E+03;  0.0000000E+00;  8.7244867E-04;  4.0000000E+04;  0.0000000E+00;  3.9240527E+04;  1.7367512E-01;  0.0000000E+00;  1.7214735E-01;  1.2709111E+04;
  1.1925762E+00;  9.9999998E-03;  3.1022765E-08;8210;  1.2791146E-01;  0.0000000E+00;  4.2190464E-07;  9.9783142E+02;  3.1496257E-01; -1.7964492E+03;3;  5.4727615E+01;  0.0000000E+00;  8.8362838E-05;0;  3.3953398E-01;  4.0989668E+03;  0.0000000E+00;  3.0825578E-10;  4.0000000E+04;  0.0000000E+00;  3.9241109E+04;  1.6946258E-01;  0.0000000E+00;  1.7007142E-01;  1.2767668E+04;
  1.1923162E+00;  9.9999998E-03; -1.0100976E-01;8200;  1.9372655E-01;  0.0000000E+00; -3.7064549E-02;  1.0003322E+03;  3.1426159E-01;  2.7512350E+02;3;  5.5852650E+01;  0.0000000E+00; -2.4565855E+01;0;  8.7944674E-01;  4.1350737E+03;  0.0000000E+00; -3.3967045E-01;  4.0000000E+04;  0.0000000E+00;  3.9228469E+04;  6.0313165E-01;  0.0000000E+00;  2.7631506E-01;  1.0820753E+04;
  1.2238020E+00;  9.9999998E-03; -8.0797568E-02;8263;  1.6537805E-01;  0.0000000E+00; -4.3350304E-03;  9.9513806E+02;  3.0437455E-01; -4.0273494E+03;3;  5.5883404E+01;  0.0000000E+00; -1.9189999E+01;0;  3.6305538E-01;  4.3576592E+03;  0.0000000E+00;  1.2112708E-01;  4.0000000E+04;  0.0000000E+00;  3.9254500E+04;  3.1233290E-01;  0.0000000E+00;  5.0722472E-02;  1.4019687E+04;
  1.2237484E+00;  9.9999998E-03; -9.0889111E-02;8262;  1.7697689E-01;  0.0000000E+00; -5.8210553E-03;  9.9560553E+02;  3.0429572E-01; -3.6401177E+03;3;  5.5365849E+01;  0.0000000E+00; -2.1486101E+01;0;  3.9125043E-01;  4.3631260E+03;  0.0000000E+00;  1.1888177E-01;  4.0000000E+04;  0.0000000E+00;  3.9253691E+04;  3.2402387E-01;  0.0000000E+00;  6.7226559E-02;  1.3893815E+04;
  1.2239987E+00;  9.9999998E-03; -7.0684381E-02;8264;  1.5497692E-01;  0.0000000E+00; -2.9441954E-03;  9.9469263E+02;  3.0442816E-01; -4.3963105E+03;3;  5.6225525E+01;  0.0000000E+00; -1.6775305E+01;0;  3.3795863E-01;  4.3530586E+03;  0.0000000E+00;  1.2582681E-01;  4.0000000E+04;  0.0000000E+00;  3.9254426E+04;  3.0567470E-01;  0.0000000E+00;  3.2283936E-02;  1.4076219E+04;
  1.2238549E+00;  9.9999998E-03; -1.0096112E-01;8261;  1.8971199E-01;  0.0000000E+00; -7.3521114E-03;  9.9607556E+02;  3.0419502E-01; -3.2507620E+03;3;  5.4508152E+01;  0.0000000E+00; -2.3982666E+01;0;  4.2145509E-01;  4.3694331E+03;  0.0000000E+00;  1.2888230E-01;  4.0000000E+04;  0.0000000E+00;  3.9252102E+04;  3.4015962E-01;  0.0000000E+00;  8.1295446E-02;  1.3610795E+04;
  1.2242812E+00;  9.9999998E-03; -6.0547665E-02;8265;  1.4587033E-01;  0.0000000E+00; -1.7628785E-03;  9.9430298E+02;  3.0446386E-01; -4.7190576E+03;3;  5.6246243E+01;  0.0000000E+00; -1.4236190E+01;0;  3.1673509E-01;  4.3492949E+03;  0.0000000E+00;  1.2351991E-01;  4.0000000E+04;  0.0000000E+00;  3.9254562E+04;  3.0377877E-01;  0.0000000E+00;  1.2956325E-02;  1.4137299E+04;
  1.2242812E+00;  9.9999998E-03;  6.0547732E-02;8277;  1.4587052E-01;  0.0000000E+00;  1.7636884E-03;  9.9430298E+02;  3.0446398E-01; -4.7190576E+03;3;  5.6246151E+01;  0.0000000E+00;  1.4236323E+01;0;  3.1673458E-01;  4.3492949E+03;  0.0000000E+00;  1.2347078E-01;  4.0000000E+04;  0.0000000E+00;  3.9254566E+04;  3.0377832E-01;  0.0000000E+00;  1.2956253E-02;  1.4137316E+04;
  1.2246473E+00;  9.9999998E-03; -1.0057507E-02;8270;  1.2204292E-01;  0.0000000E+00;  3.3107295E-05;  9.9334100E+02;  3.0468050E-01; -5.5158809E+03;3;  5.4804115E+01;  0.0000000E+00; -1.7213180E+00;0;  2.6044843E-01;  4.3359644E+03;  0.0000000E+00;  6.9168974E-03;  4.0000000E+04;  0.0000000E+00;  3.9257914E+04;  3.0977911E-01;  0.0000000E+00; -4.9330674E-02;  1.4684298E+04;
  1.2246439E+00;  9.9999998E-03;  3.3063362E-08;8271;  1.2139461E-01;  0.0000000E+00;  4.0202605E-07;  9.9331653E+02;  3.0468929E-01; -5.5361733E+03;3;  5.4751534E+01;  0.0000000E+00;  7.8003737E-05;0;  2.5875124E-01;  4.3355029E+03;  0.0000000E+00;  2.3107074E-12;  4.0000000E+04;  0.0000000E+00;  3.9258098E+04;  3.1006643E-01;  0.0000000E+00; -5.1315177E-02;  1.4711738E+04;
  1.2246472E+00;  9.9999998E-03;  1.0057574E-02;8272;  1.2204295E-01;  0.0000000E+00; -3.2296208E-05;  9.9334131E+02;  3.0467936E-01; -5.5156343E+03;3;  5.4804214E+01;  0.0000000E+00;  1.7214797E+00;0;  2.6044810E-01;  4.3359663E+03;  0.0000000E+00;  6.9084656E-03;  4.0000000E+04;  0.0000000E+00;  3.9257922E+04;  3.0977821E-01;  0.0000000E+00; -4.9330119E-02;  1.4684247E+04;
  1.2246532E+00;  9.9999998E-03; -2.0118114E-02;8269;  1.2399816E-01;  0.0000000E+00;  2.9634437E-05;  9.9341632E+02;  3.0465218E-01; -5.4535234E+03;3;  5.5021034E+01;  0.0000000E+00; -3.5849514E+00;0;  2.6549071E-01;  4.3373672E+03;  0.0000000E+00;  2.6205778E-02;  4.0000000E+04;  0.0000000E+00;  3.9257277E+04;  3.0894881E-01;  0.0000000E+00; -4.3458089E-02;  1.4605321E+04;
  1.2246532E+00;  9.9999998E-03;  2.0118184E-02;8273;  1.2399820E-01;  0.0000000E+00; -2.8829856E-05;  9.9341620E+02;  3.0465198E-01; -5.4536221E+03;3;  5.5021137E+01;  0.0000000E+00;  3.5851402E+00;0;  2.6549065E-01;  4.3373672E+03;  0.0000000E+00;  2.6188411E-02;  4.0000000E+04;  0.0000000E+00;  3.9257273E+04;  3.0894905E-01;  0.0000000E+00; -4.3458410E-02;  1.4605286E+04;
  1.2246630E+00;  9.9999998E-03; -3.0190201E-02;8268;  1.2729973E-01;  0.0000000E+00; -7.0065566E-05;  9.9354126E+02;  3.0460444E-01; -5.3500376E+03;3;  5.5305492E+01;  0.0000000E+00; -5.6996460E+00;0;  2.7381930E-01;  4.3396631E+03;  0.0000000E+00;  5.3799219E-02;  4.0000000E+04;  0.0000000E+00;  3.9256562E+04;  3.0786043E-01;  0.0000000E+00; -3.4041125E-02;  1.4488209E+04;
  1.2246630E+00;  9.9999998E-03;  3.0190276E-02;8274;  1.2729982E-01;  0.0000000E+00;  7.0883601E-05;  9.9354144E+02;  3.0460528E-01; -5.3498896E+03;3;  5.5305305E+01;  0.0000000E+00;  5.6998301E+00;0;  2.7381843E-01;  4.3396602E+03;  0.0000000E+00;  5.3771485E-02;  4.0000000E+04;  0.0000000E+00;  3.9256555E+04;  3.0785933E-01;  0.0000000E+00; -3.4040891E-02;  1.4488197E+04;
  1.2246640E+00;  9.9999998E-03; -4.0284205E-02;8267;  1.3200955E-01;  0.0000000E+00; -3.4061976E-04;  9.9372089E+02;  3.0454472E-01; -5.2012280E+03;3;  5.5829453E+01;  0.0000000E+00; -8.3950272E+00;0;  2.8530094E-01;  4.3427515E+03;  0.0000000E+00;  8.3760619E-02;  4.0000000E+04;  0.0000000E+00;  3.9255504E+04;  3.0679703E-01;  0.0000000E+00; -2.1496089E-02;  1.4357323E+04;
  1.2246639E+00;  9.9999998E-03;  4.0284280E-02;8275;  1.3200967E-01;  0.0000000E+00;  3.4144238E-04;  9.9372089E+02;  3.0454651E-01; -5.2012280E+03;3;  5.5829296E+01;  0.0000000E+00;  8.3951979E+00;0;  2.8530017E-01;  4.3427505E+03;  0.0000000E+00;  8.3724678E-02;  4.0000000E+04;  0.0000000E+00;  3.9255508E+04;  3.0679619E-01;  0.0000000E+00; -2.1496030E-02;  1.4357253E+04;
  1.2245885E+00;  9.9999998E-03; -5.0404027E-02;8266;  1.3817778E-01;  0.0000000E+00; -8.7074179E-04;  9.9397162E+02;  3.0448604E-01; -4.9935176E+03;3;  5.5986301E+01;  0.0000000E+00; -1.1415749E+01;0;  2.9962867E-01;  4.3462520E+03;  0.0000000E+00;  1.0926066E-01;  4.0000000E+04;  0.0000000E+00;  3.9254984E+04;  3.0559537E-01;  0.0000000E+00; -5.9666908E-03;  1.4238046E+04;
  1.2245885E+00;  9.9999998E-03;  5.0404109E-02;8276;  1.3817795E-01;  0.0000000E+00;  8.7153231E-04;  9.9397113E+02;  3.0448493E-01; -4.9939619E+03;3;  5.5986420E+01;  0.0000000E+00;  1.1415908E+01;0;  2.9962829E-01;  4.3462529E+03;  0.0000000E+00;  1.0921639E-01;  4.0000000E+04;  0.0000000E+00;  3.9254984E+04;  3.0559558E-01;  0.0000000E+00; -5.9673036E-03;  1.4238024E+04;
  1.2544494E+00;  9.9999998E-03; -1.0099549E-01;8322;  1.8464933E-01;  0.0000000E+00;  2.7659062E-02;  9.9116339E+02;  2.9210684E-01; -7.3190068E+03;3;  5.2275238E+01;  0.0000000E+00; -2.7109737E+01;0;  6.9849813E-01;  4.6877456E+03;  0.0000000E+00;  3.5825431E-01;  4.0000000E+04;  0.0000000E+00;  3.9252152E+04;  8.5190934E-01;  0.0000000E+00; -1.5341121E-01;  1.3094246E+04;
  1.2547088E+00;  9.9999998E-03; -9.0918452E-02;8323;  1.7162754E-01;  0.0000000E+00;  2.6234450E-02;  9.9054449E+02;  2.9209179E-01; -7.8315869E+03;3;  5.3868286E+01;  0.0000000E+00; -2.4253378E+01;0;  7.4540693E-01;  4.6834043E+03;  0.0000000E+00;  3.4337327E-01;  4.0000000E+04;  0.0000000E+00;  3.9252582E+04;  9.2295349E-01;  0.0000000E+00; -1.7754655E-01;  1.3236346E+04;
  1.2550957E+00;  9.9999998E-03; -8.0823235E-02;8324;  1.5981653E-01;  0.0000000E+00;  2.4577431E-02;  9.8996661E+02;  2.9205182E-01; -8.3101963E+03;3;  5.3616161E+01;  0.0000000E+00; -2.1254620E+01;0;  7.9606706E-01;  4.6802646E+03;  0.0000000E+00;  3.2812449E-01;  4.0000000E+04;  0.0000000E+00;  3.9251734E+04;  9.9932414E-01;  0.0000000E+00; -2.0325707E-01;  1.3232604E+04;
  1.2554462E+00;  9.9999998E-03; -7.0693292E-02;8325;  1.4939930E-01;  0.0000000E+00;  2.2473926E-02;  9.8945819E+02;  2.9202479E-01; -8.7312920E+03;3;  5.3544964E+01;  0.0000000E+00; -1.8742357E+01;0;  8.4508586E-01;  4.6772886E+03;  0.0000000E+00;  3.0331820E-01;  4.0000000E+04;  0.0000000E+00;  3.9250328E+04;  1.0738248E+00;  0.0000000E+00; -2.2873890E-01;  1.3130219E+04;
  1.2556332E+00;  9.9999998E-03; -6.0553018E-02;8326;  1.4043103E-01;  0.0000000E+00;  1.9903854E-02;  9.8903290E+02;  2.9204291E-01; -9.0835244E+03;3;  5.3191750E+01;  0.0000000E+00; -1.6002916E+01;0;  8.8653839E-01;  4.6735879E+03;  0.0000000E+00;  2.6401836E-01;  4.0000000E+04;  0.0000000E+00;  3.9249223E+04;  1.1386238E+00;  0.0000000E+00; -2.5208548E-01;  1.2994848E+04;
  1.2556332E+00;  9.9999998E-03;  6.0553104E-02;8338;  1.4043123E-01;  0.0000000E+00; -1.9903110E-02;  9.8903314E+02;  2.9204324E-01; -9.0833271E+03;3;  5.3191742E+01;  0.0000000E+00;  1.6002947E+01;0;  8.8653564E-01;  4.6735864E+03;  0.0000000E+00;  2.6394582E-01;  4.0000000E+04;  0.0000000E+00;  3.9249219E+04;  1.1386213E+00;  0.0000000E+00; -2.5208566E-01;  1.2994794E+04;
  1.2557110E+00;  9.9999998E-03; -5.0440002E-02;8327;  1.3290408E-01;  0.0000000E+00;  1.7001232E-02;  9.8869763E+02;  2.9208890E-01; -9.3612148E+03;3;  5.3030312E+01;  0.0000000E+00; -1.3350843E+01;0;  9.2049539E-01;  4.6696680E+03;  0.0000000E+00;  2.1174774E-01;  4.0000000E+04;  0.0000000E+00;  3.9248004E+04;  1.1933124E+00;  0.0000000E+00; -2.7281705E-01;  1.2877958E+04;
  1.2557110E+00;  9.9999998E-03;  5.0440092E-02;8337;  1.3290426E-01;  0.0000000E+00; -1.7000532E-02;  9.8869751E+02;  2.9208869E-01; -9.3613135E+03;3;  5.3030273E+01;  0.0000000E+00;  1.3350756E+01;0;  9.2049611E-01;  4.6696689E+03;  0.0000000E+00;  2.1168508E-01;  4.0000000E+04;  0.0000000E+00;  3.9248008E+04;  1.1933137E+00;  0.0000000E+00; -2.7281758E-01;  1.2877974E+04;
  1.2558905E+00;  9.9999998E-03; -3.0265788E-02;8329;  1.2206304E-01;  0.0000000E+00;  1.0596629E-02;  9.8824603E+02;  2.9214549E-01; -9.7352666E+03;3;  5.2347469E+01;  0.0000000E+00; -8.1725864E+00;0;  9.7552621E-01;  4.6641704E+03;  0.0000000E+00;  9.3927406E-02;  4.0000000E+04;  0.0000000E+00;  3.9247324E+04;  1.2820346E+00;  0.0000000E+00; -3.0650845E-01;  1.2746141E+04;
  1.2558904E+00;  9.9999998E-03;  3.0265871E-02;8335;  1.2206315E-01;  0.0000000E+00; -1.0595861E-02;  9.8824628E+02;  2.9214481E-01; -9.7350693E+03;3;  5.2347488E+01;  0.0000000E+00;  8.1726933E+00;0;  9.7552085E-01;  4.6641694E+03;  0.0000000E+00;  9.3889259E-02;  4.0000000E+04;  0.0000000E+00;  3.9247316E+04;  1.2820284E+00;  0.0000000E+00; -3.0650762E-01;  1.2746041E+04;
  1.2557952E+00;  9.9999998E-03; -4.0349558E-02;8328;  1.2678041E-01;  0.0000000E+00;  1.3887117E-02;  9.8844037E+02;  2.9212242E-01; -9.5742832E+03;3;  5.2397232E+01;  0.0000000E+00; -1.0721665E+01;0;  9.5028466E-01;  4.6665029E+03;  0.0000000E+00;  1.5242156E-01;  4.0000000E+04;  0.0000000E+00;  3.9247453E+04;  1.2414517E+00;  0.0000000E+00; -2.9116708E-01;  1.2796083E+04;
  1.2557952E+00;  9.9999998E-03;  4.0349647E-02;8336;  1.2678054E-01;  0.0000000E+00; -1.3886374E-02;  9.8844061E+02;  2.9212266E-01; -9.5740859E+03;3;  5.2397293E+01;  0.0000000E+00;  1.0721601E+01;0;  9.5028305E-01;  4.6665034E+03;  0.0000000E+00;  1.5237316E-01;  4.0000000E+04;  0.0000000E+00;  3.9247441E+04;  1.2414498E+00;  0.0000000E+00; -2.9116681E-01;  1.2796025E+04;
  1.2560163E+00;  9.9999998E-03;  3.7658875E-08;8332;  1.1602739E-01;  0.0000000E+00;  3.6980103E-07;  9.8800208E+02;  2.9217616E-01; -9.9373242E+03;3;  5.1896145E+01;  0.0000000E+00;  1.2160250E-05;0;  1.0094014E+00;  4.6611636E+03;  0.0000000E+00;  7.0708217E-11;  4.0000000E+04;  0.0000000E+00;  3.9246703E+04;  1.3367792E+00;  0.0000000E+00; -3.2737780E-01;  1.2698129E+04;
  1.2560022E+00;  9.9999998E-03; -1.0091394E-02;8331;  1.1670651E-01;  0.0000000E+00;  3.5999222E-03;  9.8803217E+02;  2.9217109E-01; -9.9123936E+03;3;  5.2183659E+01;  0.0000000E+00; -2.9155614E+00;0;  1.0055587E+00;  4.6614844E+03;  0.0000000E+00;  1.1592425E-02;  4.0000000E+04;  0.0000000E+00;  3.9246914E+04;  1.3305531E+00;  0.0000000E+00; -3.2499430E-01;  1.2703133E+04;
  1.2560022E+00;  9.9999998E-03;  1.0091471E-02;8333;  1.1670654E-01;  0.0000000E+00; -3.5991713E-03;  9.8803235E+02;  2.9217178E-01; -9.9122461E+03;3;  5.2183662E+01;  0.0000000E+00;  2.9156005E+00;0;  1.0055561E+00;  4.6614839E+03;  0.0000000E+00;  1.1580480E-02;  4.0000000E+04;  0.0000000E+00;  3.9246914E+04;  1.3305500E+00;  0.0000000E+00; -3.2499379E-01;  1.2703132E+04;
  1.2559648E+00;  9.9999998E-03; -2.0179624E-02;8330;  1.1870550E-01;  0.0000000E+00;  7.1649635E-03;  9.8811243E+02;  2.9216158E-01; -9.8458975E+03;3;  5.2044575E+01;  0.0000000E+00; -5.1398702E+00;0;  9.9434292E-01;  4.6625405E+03;  0.0000000E+00;  4.4562116E-02;  4.0000000E+04;  0.0000000E+00;  3.9247145E+04;  1.3123254E+00;  0.0000000E+00; -3.1798244E-01;  1.2717932E+04;
  1.2559648E+00;  9.9999998E-03;  2.0179704E-02;8334;  1.1870556E-01;  0.0000000E+00; -7.1642105E-03;  9.8811267E+02;  2.9216078E-01; -9.8456992E+03;3;  5.2044689E+01;  0.0000000E+00;  5.1399250E+00;0;  9.9434042E-01;  4.6625391E+03;  0.0000000E+00;  4.4538237E-02;  4.0000000E+04;  0.0000000E+00;  3.9247141E+04;  1.3123224E+00;  0.0000000E+00; -3.1798199E-01;  1.2717897E+04;
  1.2840389E+00;  9.9999998E-03; -1.0101839E-01;8383;  1.8141384E-01;  0.0000000E+00;  6.2190626E-02;  9.8778528E+02;  2.7827081E-01; -1.0115418E+04;3;  4.5474995E+01;  0.0000000E+00; -3.1281805E+01;0;  2.0137944E+00;  5.1273096E+03;  0.0000000E+00;  3.7135646E-01;  4.0000000E+04;  0.0000000E+00;  3.9228590E+04;  2.3839960E+00;  0.0000000E+00; -3.7020171E-01;  9.2296816E+03;
  1.2842727E+00;  9.9999998E-03; -9.0904705E-02;8384;  1.6883333E-01;  0.0000000E+00;  5.8110774E-02;  9.8717487E+02;  2.7823558E-01; -1.0620904E+04;3;  4.7603058E+01;  0.0000000E+00; -2.8255804E+01;0;  2.1472578E+00;  5.1233491E+03;  0.0000000E+00;  3.7702551E-01;  4.0000000E+04;  0.0000000E+00;  3.9226711E+04;  2.5472207E+00;  0.0000000E+00; -3.9996299E-01;  9.1499307E+03;
  1.2844847E+00;  9.9999998E-03; -8.0754973E-02;8385;  1.5736775E-01;  0.0000000E+00;  5.3365570E-02;  9.8663147E+02;  2.7821714E-01; -1.1070910E+04;3;  4.8309151E+01;  0.0000000E+00; -2.4685436E+01;0;  2.2730520E+00;  5.1195381E+03;  0.0000000E+00;  3.6779788E-01;  4.0000000E+04;  0.0000000E+00;  3.9224340E+04;  2.7020457E+00;  0.0000000E+00; -4.2899364E-01;  8.9460635E+03;
  1.2846212E+00;  9.9999998E-03; -7.0613250E-02;8386;  1.4720865E-01;  0.0000000E+00;  4.7974020E-02;  9.8617725E+02;  2.7823004E-01; -1.1447026E+04;3;  4.9217281E+01;  0.0000000E+00; -2.1008465E+01;0;  2.3853416E+00;  5.1153218E+03;  0.0000000E+00;  3.3936223E-01;  4.0000000E+04;  0.0000000E+00;  3.9222094E+04;  2.8415632E+00;  0.0000000E+00; -4.5622167E-01;  8.6605215E+03;
  1.2847673E+00;  9.9999998E-03; -6.0500018E-02;8387;  1.3837501E-01;  0.0000000E+00;  4.2097520E-02;  9.8581030E+02;  2.7824232E-01; -1.1750928E+04;3;  4.8523361E+01;  0.0000000E+00; -1.7987881E+01;0;  2.4882185E+00;  5.1118896E+03;  0.0000000E+00;  2.9244089E-01;  4.0000000E+04;  0.0000000E+00;  3.9219855E+04;  2.9697218E+00;  0.0000000E+00; -4.8150334E-01;  8.3430391E+03;
  1.2847674E+00;  9.9999998E-03;  6.0500119E-02;8399;  1.3837521E-01;  0.0000000E+00; -4.2096864E-02;  9.8581006E+02;  2.7824181E-01; -1.1751125E+04;3;  4.8523323E+01;  0.0000000E+00;  1.7988026E+01;0;  2.4882190E+00;  5.1118872E+03;  0.0000000E+00;  2.9237273E-01;  4.0000000E+04;  0.0000000E+00;  3.9219863E+04;  2.9697232E+00;  0.0000000E+00; -4.8150414E-01;  8.3430420E+03;
  1.2849222E+00;  9.9999998E-03; -5.0407544E-02;8388;  1.3097771E-01;  0.0000000E+00;  3.5798397E-02;  9.8553491E+02;  2.7824831E-01; -1.1978960E+04;3;  4.7806217E+01;  0.0000000E+00; -1.4500282E+01;0;  2.5804539E+00;  5.1093242E+03;  0.0000000E+00;  2.3190685E-01;  4.0000000E+04;  0.0000000E+00;  3.9217953E+04;  3.0846784E+00;  0.0000000E+00; -5.0422448E-01;  8.0418813E+03;
  1.2849222E+00;  9.9999998E-03;  5.0407644E-02;8398;  1.3097790E-01;  0.0000000E+00; -3.5797734E-02;  9.8553497E+02;  2.7824876E-01; -1.1978910E+04;3;  4.7806244E+01;  0.0000000E+00;  1.4500196E+01;0;  2.5804546E+00;  5.1093232E+03;  0.0000000E+00;  2.3184830E-01;  4.0000000E+04;  0.0000000E+00;  3.9217953E+04;  3.0846796E+00;  0.0000000E+00; -5.0422496E-01;  8.0418237E+03;
  1.2850699E+00;  9.9999998E-03; -4.0325169E-02;8389;  1.2499439E-01;  0.0000000E+00;  2.9105479E-02;  9.8533362E+02;  2.7825162E-01; -1.2145639E+04;3;  4.8116226E+01;  0.0000000E+00; -1.2007988E+01;0;  2.6597130E+00;  5.1074731E+03;  0.0000000E+00;  1.6530402E-01;  4.0000000E+04;  0.0000000E+00;  3.9216312E+04;  3.1834497E+00;  0.0000000E+00; -5.2373666E-01;  7.7846846E+03;
  1.2850699E+00;  9.9999998E-03;  4.0325269E-02;8397;  1.2499458E-01;  0.0000000E+00; -2.9104797E-02;  9.8533362E+02;  2.7825195E-01; -1.2145639E+04;3;  4.8116467E+01;  0.0000000E+00;  1.2008081E+01;0;  2.6597080E+00;  5.1074741E+03;  0.0000000E+00;  1.6525862E-01;  4.0000000E+04;  0.0000000E+00;  3.9216316E+04;  3.1834447E+00;  0.0000000E+00; -5.2373677E-01;  7.7846704E+03;
  1.2851952E+00;  9.9999998E-03; -3.0246053E-02;8390;  1.2033504E-01;  0.0000000E+00;  2.2140244E-02;  9.8519586E+02;  2.7825096E-01; -1.2259701E+04;3;  4.7665154E+01;  0.0000000E+00; -8.8677053E+00;0;  2.7236624E+00;  5.1062153E+03;  0.0000000E+00;  1.0118077E-01;  4.0000000E+04;  0.0000000E+00;  3.9214938E+04;  3.2631400E+00;  0.0000000E+00; -5.3947759E-01;  7.5795791E+03;
  1.2851952E+00;  9.9999998E-03;  3.0246150E-02;8396;  1.2033517E-01;  0.0000000E+00; -2.2139546E-02;  9.8519592E+02;  2.7825171E-01; -1.2259651E+04;3;  4.7665272E+01;  0.0000000E+00;  8.8678093E+00;0;  2.7236569E+00;  5.1062153E+03;  0.0000000E+00;  1.0114852E-01;  4.0000000E+04;  0.0000000E+00;  3.9214930E+04;  3.2631340E+00;  0.0000000E+00; -5.3947717E-01;  7.5795317E+03;
  1.2852906E+00;  9.9999998E-03; -2.0165212E-02;8391;  1.1703007E-01;  0.0000000E+00;  1.4913619E-02;  9.8511139E+02;  2.7824974E-01; -1.2329636E+04;3;  4.7317333E+01;  0.0000000E+00; -5.4345574E+00;0;  2.7706542E+00;  5.1054580E+03;  0.0000000E+00;  4.7823694E-02;  4.0000000E+04;  0.0000000E+00;  3.9213816E+04;  3.3216815E+00;  0.0000000E+00; -5.5102742E-01;  7.4271099E+03;
  1.2852906E+00;  9.9999998E-03;  2.0165307E-02;8395;  1.1703015E-01;  0.0000000E+00; -1.4912928E-02;  9.8511127E+02;  2.7825063E-01; -1.2329734E+04;3;  4.7317245E+01;  0.0000000E+00;  5.4347525E+00;0;  2.7706523E+00;  5.1054580E+03;  0.0000000E+00;  4.7802214E-02;  4.0000000E+04;  0.0000000E+00;  3.9213812E+04;  3.3216798E+00;  0.0000000E+00; -5.5102748E-01;  7.4271143E+03;
  1.2853481E+00;  9.9999998E-03; -1.0083050E-02;8392;  1.1507542E-01;  0.0000000E+00;  7.5061400E-03;  9.8506238E+02;  2.7824938E-01; -1.2370255E+04;3;  4.7326763E+01;  0.0000000E+00; -2.1663063E+00;0;  2.7992253E+00;  5.1050059E+03;  0.0000000E+00;  1.2416851E-02;  4.0000000E+04;  0.0000000E+00;  3.9213004E+04;  3.3572884E+00;  0.0000000E+00; -5.5806291E-01;  7.3312881E+03;
  1.2853667E+00;  9.9999998E-03;  4.4850474E-08;8393;  1.1445531E-01;  0.0000000E+00;  3.4232841E-07;  9.8504736E+02;  2.7824914E-01; -1.2382692E+04;3;  4.8171543E+01;  0.0000000E+00;  9.3542039E-06;0;  2.8087752E+00;  5.1048521E+03;  0.0000000E+00;  5.0072191E-10;  4.0000000E+04;  0.0000000E+00;  3.9212684E+04;  3.3691974E+00;  0.0000000E+00; -5.6042218E-01;  7.2983291E+03;
  1.2853479E+00;  9.9999998E-03;  1.0083142E-02;8394;  1.1507544E-01;  0.0000000E+00; -7.5054429E-03;  9.8506226E+02;  2.7824920E-01; -1.2370354E+04;3;  4.7326744E+01;  0.0000000E+00;  2.1663384E+00;0;  2.7992225E+00;  5.1050059E+03;  0.0000000E+00;  1.2406377E-02;  4.0000000E+04;  0.0000000E+00;  3.9212996E+04;  3.3572853E+00;  0.0000000E+00; -5.5806279E-01;  7.3312998E+03;
  1.3115422E+00;  9.9999998E-03; -1.0101321E-01;8444;  1.8224524E-01;  0.0000000E+00;  9.1633596E-02;  9.8721448E+02;  2.6316658E-01; -1.0585828E+04;3;  2.5451614E+01;  0.0000000E+00; -1.4768991E+01;0;  4.0365291E+00;  5.7241978E+03;  0.0000000E+00;  5.1119411E-01;  4.0000000E+04;  0.0000000E+00;  3.9193355E+04;  4.5482402E+00;  0.0000000E+00; -5.1171130E-01;  3.4064028E+03;
  1.3117559E+00;  9.9999998E-03; -9.0860344E-02;8445;  1.7235158E-01;  0.0000000E+00;  8.3933696E-02;  9.8680542E+02;  2.6313221E-01; -1.0924495E+04;3; -1.1720665E+00;  0.0000000E+00; -1.1631406E+01;0;  4.2328811E+00;  5.7217207E+03;  0.0000000E+00;  5.0508285E-01;  4.0000000E+04;  0.0000000E+00;  3.9189941E+04;  4.7738314E+00;  0.0000000E+00; -5.4095024E-01;  3.1632688E+03;
  1.3119403E+00;  9.9999998E-03; -8.0718175E-02;8446;  1.6583152E-01;  0.0000000E+00;  7.5554661E-02;  9.8646790E+02;  2.6312053E-01; -1.1203944E+04;3; -3.2333111E+01;  0.0000000E+00; -8.5473137E+00;0;  4.4109421E+00;  5.7190459E+03;  0.0000000E+00;  4.6749040E-01;  4.0000000E+04;  0.0000000E+00;  3.9186520E+04;  4.9793339E+00;  0.0000000E+00; -5.6839162E-01;  2.8146785E+03;
  1.3121198E+00;  9.9999998E-03; -7.0599653E-02;8447;  1.6297463E-01;  0.0000000E+00;  6.6731319E-02;  9.8620441E+02;  2.6311672E-01; -1.1422101E+04;3; -6.2320431E+01;  0.0000000E+00; -6.7122955E+00;0;  4.5709763E+00;  5.7168354E+03;  0.0000000E+00;  4.0622163E-01;  4.0000000E+04;  0.0000000E+00;  3.9183254E+04;  5.1646528E+00;  0.0000000E+00; -5.9367657E-01;  2.3800459E+03;
  1.3122869E+00;  9.9999998E-03; -6.0500879E-02;8448;  1.6298516E-01;  0.0000000E+00;  5.7619601E-02;  9.8603278E+02;  2.6311621E-01; -1.1564160E+04;3; -8.5177696E+01;  0.0000000E+00; -5.5927224E+00;0;  4.7115641E+00;  5.7153066E+03;  0.0000000E+00;  3.2995027E-01;  4.0000000E+04;  0.0000000E+00;  3.9180484E+04;  5.3279467E+00;  0.0000000E+00; -6.1638284E-01;  1.9076335E+03;
  1.3122869E+00;  9.9999998E-03;  6.0500983E-02;8460;  1.6298510E-01;  0.0000000E+00; -5.7618897E-02;  9.8603284E+02;  2.6311520E-01; -1.1564110E+04;3; -8.5177193E+01;  0.0000000E+00;  5.5926147E+00;0;  4.7115560E+00;  5.7153076E+03;  0.0000000E+00;  3.2991329E-01;  4.0000000E+04;  0.0000000E+00;  3.9180492E+04;  5.3279386E+00;  0.0000000E+00; -6.1638266E-01;  1.9075995E+03;
  1.3124434E+00;  9.9999998E-03; -5.0415091E-02;8449;  1.6485481E-01;  0.0000000E+00;  4.8328817E-02;  9.8592419E+02;  2.6311386E-01; -1.1654058E+04;3; -1.0248484E+02;  0.0000000E+00; -5.5266614E+00;0;  4.8323255E+00;  5.7145103E+03;  0.0000000E+00;  2.4770072E-01;  4.0000000E+04;  0.0000000E+00;  3.9177820E+04;  5.4685135E+00;  0.0000000E+00; -6.3618797E-01;  1.4431321E+03;
  1.3124434E+00;  9.9999998E-03;  5.0415199E-02;8459;  1.6485514E-01;  0.0000000E+00; -4.8328113E-02;  9.8592419E+02;  2.6311305E-01; -1.1654058E+04;3; -1.0248510E+02;  0.0000000E+00;  5.5264125E+00;0;  4.8323278E+00;  5.7145107E+03;  0.0000000E+00;  2.4767323E-01;  4.0000000E+04;  0.0000000E+00;  3.9177809E+04;  5.4685159E+00;  0.0000000E+00; -6.3618809E-01;  1.4430966E+03;
  1.3125904E+00;  9.9999998E-03; -4.0335312E-02;8450;  1.6773668E-01;  0.0000000E+00;  3.8942985E-02;  9.8588013E+02;  2.6310501E-01; -1.1690510E+04;3; -1.1568456E+02;  0.0000000E+00; -3.3678999E+00;0;  4.9330177E+00;  5.7144956E+03;  0.0000000E+00;  1.6805097E-01;  4.0000000E+04;  0.0000000E+00;  3.9175215E+04;  5.5858140E+00;  0.0000000E+00; -6.5279639E-01;  1.0205009E+03;
  1.3125905E+00;  9.9999998E-03;  4.0335421E-02;8458;  1.6773725E-01;  0.0000000E+00; -3.8942266E-02;  9.8588000E+02;  2.6310524E-01; -1.1690608E+04;3; -1.1568487E+02;  0.0000000E+00;  3.3678911E+00;0;  4.9330177E+00;  5.7144956E+03;  0.0000000E+00;  1.6803087E-01;  4.0000000E+04;  0.0000000E+00;  3.9175211E+04;  5.5858140E+00;  0.0000000E+00; -6.5279615E-01;  1.0204752E+03;
  1.3127147E+00;  9.9999998E-03; -3.0255778E-02;8451;  1.7079613E-01;  0.0000000E+00;  2.9328410E-02;  9.8587317E+02;  2.6309556E-01; -1.1696270E+04;3; -1.2464643E+02;  0.0000000E+00; -3.3635614E+00;0;  5.0123301E+00;  5.7148818E+03;  0.0000000E+00;  9.8505944E-02;  4.0000000E+04;  0.0000000E+00;  3.9173332E+04;  5.6782885E+00;  0.0000000E+00; -6.6595834E-01;  6.6554883E+02;
  1.3127147E+00;  9.9999998E-03;  3.0255886E-02;8457;  1.7079562E-01;  0.0000000E+00; -2.9327704E-02;  9.8587317E+02;  2.6309535E-01; -1.1696270E+04;3; -1.2464606E+02;  0.0000000E+00;  3.3634412E+00;0;  5.0123262E+00;  5.7148823E+03;  0.0000000E+00;  9.8492697E-02;  4.0000000E+04;  0.0000000E+00;  3.9173332E+04;  5.6782851E+00;  0.0000000E+00; -6.6595870E-01;  6.6549298E+02;
  1.3128027E+00;  9.9999998E-03; -2.0174270E-02;8452;  1.7323300E-01;  0.0000000E+00;  1.9666487E-02;  9.8588519E+02;  2.6308987E-01; -1.1686292E+04;3; -1.3025803E+02;  0.0000000E+00; -2.1068039E+00;0;  5.0690413E+00;  5.7153516E+03;  0.0000000E+00;  4.4967517E-02;  4.0000000E+04;  0.0000000E+00;  3.9171555E+04;  5.7445130E+00;  0.0000000E+00; -6.7547154E-01;  3.9894839E+02;
  1.3128027E+00;  9.9999998E-03;  2.0174379E-02;8456;  1.7323171E-01;  0.0000000E+00; -1.9665783E-02;  9.8588538E+02;  2.6308799E-01; -1.1686144E+04;3; -1.3025716E+02;  0.0000000E+00;  2.1067431E+00;0;  5.0690393E+00;  5.7153511E+03;  0.0000000E+00;  4.4959534E-02;  4.0000000E+04;  0.0000000E+00;  3.9171555E+04;  5.7445102E+00;  0.0000000E+00; -6.7547107E-01;  3.9891385E+02;
  1.3128713E+00;  9.9999998E-03;  5.1566698E-08;8454;  1.7528129E-01;  0.0000000E+00;  3.5492889E-07;  9.8590247E+02;  2.6308233E-01; -1.1671973E+04;3; -1.3461482E+02;  0.0000000E+00; -1.0291109E-04;0;  5.1143570E+00;  5.7157803E+03;  0.0000000E+00;  8.9827745E-10;  4.0000000E+04;  0.0000000E+00;  3.9170016E+04;  5.7974992E+00;  0.0000000E+00; -6.8314201E-01;  1.8602002E+02;
  1.3128544E+00;  9.9999998E-03; -1.0089002E-02;8453;  1.7476510E-01;  0.0000000E+00;  9.8598637E-03;  9.8589722E+02;  2.6308268E-01; -1.1676317E+04;3; -1.3354759E+02;  0.0000000E+00; -1.1633712E+00;0;  5.1030383E+00;  5.7156758E+03;  0.0000000E+00;  1.1409006E-02;  4.0000000E+04;  0.0000000E+00;  3.9170410E+04;  5.7842579E+00;  0.0000000E+00; -6.8121946E-01;  2.3742827E+02;
  1.3128544E+00;  9.9999998E-03;  1.0089105E-02;8455;  1.7476225E-01;  0.0000000E+00; -9.8591642E-03;  9.8589740E+02;  2.6308310E-01; -1.1676170E+04;3; -1.3354642E+02;  0.0000000E+00;  1.1630981E+00;0;  5.1030273E+00;  5.7156733E+03;  0.0000000E+00;  1.1405173E-02;  4.0000000E+04;  0.0000000E+00;  3.9170410E+04;  5.7842464E+00;  0.0000000E+00; -6.8121934E-01;  2.3735074E+02;
  1.3373882E+00;  9.9999998E-03; -1.0103056E-01;8505;  3.7902176E-01;  0.0000000E+00;  9.3417101E-02;  9.8991284E+02;  2.4751599E-01; -8.3492012E+03;3; -1.6626779E+02;  0.0000000E+00;  1.1261823E+01;0;  5.9136100E+00;  6.5063506E+03;  0.0000000E+00;  7.1766627E-01;  4.0000000E+04;  0.0000000E+00;  3.9158570E+04;  6.4640870E+00;  0.0000000E+00; -5.5047721E-01;  3.4349121E+03;
  1.3375261E+00;  9.9999998E-03; -9.0910211E-02;8506;  3.8873363E-01;  0.0000000E+00;  8.4833950E-02;  9.8979260E+02;  2.4751092E-01; -8.4487422E+03;3; -1.7499188E+02;  0.0000000E+00;  1.0532410E+01;0;  6.0969567E+00;  6.5054243E+03;  0.0000000E+00;  6.7380494E-01;  4.0000000E+04;  0.0000000E+00;  3.9154367E+04;  6.6693163E+00;  0.0000000E+00; -5.7235950E-01;  3.9900420E+03;
  1.3376642E+00;  9.9999998E-03; -8.0800362E-02;8507;  3.9941707E-01;  0.0000000E+00;  7.6030090E-02;  9.8970416E+02;  2.4751097E-01; -8.5218896E+03;3; -1.8285515E+02;  0.0000000E+00;  9.6887112E+00;0;  6.2596493E+00;  6.5047085E+03;  0.0000000E+00;  5.9141773E-01;  4.0000000E+04;  0.0000000E+00;  3.9150000E+04;  6.8523769E+00;  0.0000000E+00; -5.9272772E-01;  4.4925474E+03;
  1.3377970E+00;  9.9999998E-03; -7.0700414E-02;8508;  4.1044095E-01;  0.0000000E+00;  6.7006722E-02;  9.8967126E+02;  2.4751198E-01; -8.5491074E+03;3; -1.8966858E+02;  0.0000000E+00;  8.5967941E+00;0;  6.4014387E+00;  6.5045503E+03;  0.0000000E+00;  4.8674750E-01;  4.0000000E+04;  0.0000000E+00;  3.9145918E+04;  7.0127673E+00;  0.0000000E+00; -6.1132848E-01;  4.9621123E+03;
  1.3379295E+00;  9.9999998E-03; -6.0606070E-02;8509;  4.2141914E-01;  0.0000000E+00;  5.7791561E-02;  9.8969135E+02;  2.4750955E-01; -8.5325146E+03;3; -1.9536414E+02;  0.0000000E+00;  7.8710389E+00;0;  6.5230017E+00;  6.5052466E+03;  0.0000000E+00;  3.7464690E-01;  4.0000000E+04;  0.0000000E+00;  3.9142176E+04;  7.1508989E+00;  0.0000000E+00; -6.2789738E-01;  5.4101558E+03;
  1.3379295E+00;  9.9999998E-03;  6.0606182E-02;8521;  4.2141789E-01;  0.0000000E+00; -5.7790671E-02;  9.8969128E+02;  2.4751031E-01; -8.5325645E+03;3; -1.9536414E+02;  0.0000000E+00; -7.8711433E+00;0;  6.5229988E+00;  6.5052446E+03;  0.0000000E+00;  3.7465024E-01;  4.0000000E+04;  0.0000000E+00;  3.9142180E+04;  7.1508961E+00;  0.0000000E+00; -6.2789702E-01;  5.4101079E+03;
  1.3380542E+00;  9.9999998E-03; -5.0513774E-02;8510;  4.3167624E-01;  0.0000000E+00;  4.8376575E-02;  9.8976257E+02;  2.4750383E-01; -8.4735439E+03;3; -2.0003490E+02;  0.0000000E+00;  6.6174560E+00;0;  6.6245971E+00;  6.5066860E+03;  0.0000000E+00;  2.6710960E-01;  4.0000000E+04;  0.0000000E+00;  3.9138801E+04;  7.2668214E+00;  0.0000000E+00; -6.4222425E-01;  5.8365352E+03;
  1.3380542E+00;  9.9999998E-03;  5.0513886E-02;8520;  4.3167499E-01;  0.0000000E+00; -4.8375711E-02;  9.8976251E+02;  2.4750379E-01; -8.4735938E+03;3; -2.0003493E+02;  0.0000000E+00; -6.6176004E+00;0;  6.6245909E+00;  6.5066865E+03;  0.0000000E+00;  2.6711300E-01;  4.0000000E+04;  0.0000000E+00;  3.9138793E+04;  7.2668157E+00;  0.0000000E+00; -6.4222467E-01;  5.8364902E+03;
  1.3381662E+00;  9.9999998E-03; -4.0420189E-02;8511;  4.4067308E-01;  0.0000000E+00;  3.8834002E-02;  9.8986969E+02;  2.4749406E-01; -8.3848271E+03;3; -2.0391452E+02;  0.0000000E+00;  5.3040643E+00;0;  6.7067499E+00;  6.5087417E+03;  0.0000000E+00;  1.7282376E-01;  4.0000000E+04;  0.0000000E+00;  3.9135680E+04;  7.3608980E+00;  0.0000000E+00; -6.5414834E-01;  6.2325591E+03;
  1.3381662E+00;  9.9999998E-03;  4.0420301E-02;8519;  4.4067195E-01;  0.0000000E+00; -3.8833138E-02;  9.8986987E+02;  2.4749349E-01; -8.3846787E+03;3; -2.0391457E+02;  0.0000000E+00; -5.3042078E+00;0;  6.7067518E+00;  6.5087427E+03;  0.0000000E+00;  1.7283036E-01;  4.0000000E+04;  0.0000000E+00;  3.9135684E+04;  7.3608999E+00;  0.0000000E+00; -6.5414810E-01;  6.2325586E+03;
  1.3382592E+00;  9.9999998E-03; -3.0322209E-02;8512;  4.4798505E-01;  0.0000000E+00;  2.9210353E-02;  9.8997992E+02;  2.4748084E-01; -8.2935957E+03;3; -2.0695926E+02;  0.0000000E+00;  3.9567733E+00;0;  6.7699504E+00;  6.5109087E+03;  0.0000000E+00;  9.7241446E-02;  4.0000000E+04;  0.0000000E+00;  3.9132840E+04;  7.4335017E+00;  0.0000000E+00; -6.6355145E-01;  6.5803931E+03;
  1.3382592E+00;  9.9999998E-03;  3.0322319E-02;8518;  4.4798476E-01;  0.0000000E+00; -2.9209480E-02;  9.8997992E+02;  2.4748130E-01; -8.2935957E+03;3; -2.0695920E+02;  0.0000000E+00; -3.9569163E+00;0;  6.7699528E+00;  6.5109072E+03;  0.0000000E+00;  9.7249083E-02;  4.0000000E+04;  0.0000000E+00;  3.9132844E+04;  7.4335041E+00;  0.0000000E+00; -6.6355121E-01;  6.5804067E+03;
  1.3383265E+00;  9.9999998E-03; -2.0219132E-02;8513;  4.5327237E-01;  0.0000000E+00;  1.9518342E-02;  9.9007758E+02;  2.4746922E-01; -8.2127783E+03;3; -2.0915639E+02;  0.0000000E+00;  2.5991342E+00;0;  6.8145862E+00;  6.5127891E+03;  0.0000000E+00;  4.2986874E-02;  4.0000000E+04;  0.0000000E+00;  3.9130934E+04;  7.4849310E+00;  0.0000000E+00; -6.7034495E-01;  6.8559741E+03;
  1.3383647E+00;  9.9999998E-03; -1.0111270E-02;8514;  4.5639339E-01;  0.0000000E+00;  9.7744297E-03;  9.9014014E+02;  2.4746309E-01; -8.1609736E+03;3; -2.1045651E+02;  0.0000000E+00;  1.3492504E+00;0;  6.8410606E+00;  6.5139956E+03;  0.0000000E+00;  1.0680078E-02;  4.0000000E+04;  0.0000000E+00;  3.9129473E+04;  7.5155182E+00;  0.0000000E+00; -6.7445749E-01;  7.0340029E+03;
  1.3383647E+00;  9.9999998E-03;  1.0111379E-02;8516;  4.5639378E-01;  0.0000000E+00; -9.7735496E-03;  9.9014026E+02;  2.4746291E-01; -8.1608745E+03;3; -2.1045657E+02;  0.0000000E+00; -1.3493727E+00;0;  6.8410573E+00;  6.5139990E+03;  0.0000000E+00;  1.0684135E-02;  4.0000000E+04;  0.0000000E+00;  3.9129477E+04;  7.5155144E+00;  0.0000000E+00; -6.7445725E-01;  7.0340200E+03;
  1.3383265E+00;  9.9999998E-03;  2.0219242E-02;8517;  4.5327210E-01;  0.0000000E+00; -1.9517470E-02;  9.9007745E+02;  2.4746880E-01; -8.2128770E+03;3; -2.0915646E+02;  0.0000000E+00; -2.5993192E+00;0;  6.8145909E+00;  6.5127881E+03;  0.0000000E+00;  4.2994071E-02;  4.0000000E+04;  0.0000000E+00;  3.9130938E+04;  7.4849358E+00;  0.0000000E+00; -6.7034465E-01;  6.8560049E+03;
  1.3383766E+00;  9.9999998E-03;  5.4515471E-08;8515;  4.5740834E-01;  0.0000000E+00;  4.3505213E-07;  9.9016345E+02;  2.4746189E-01; -8.1416816E+03;3; -2.1087305E+02;  0.0000000E+00; -9.8114258E-05;0;  6.8498011E+00;  6.5144170E+03;  0.0000000E+00;  9.9767206E-10;  4.0000000E+04;  0.0000000E+00;  3.9128988E+04;  7.5256367E+00;  0.0000000E+00; -6.7583585E-01;  7.0956533E+03;
  1.3615499E+00;  9.9999998E-03; -8.0956206E-02;8568;  6.7886108E-01;  0.0000000E+00;  5.9470620E-02;  9.9449768E+02;  2.3216739E-01; -4.5524805E+03;3; -1.9448656E+02;  0.0000000E+00;  1.7856186E+01;0;  7.1254354E+00;  7.4683237E+03;  0.0000000E+00;  5.8103436E-01;  4.0000000E+04;  0.0000000E+00;  3.9121941E+04;  7.6412196E+00;  0.0000000E+00; -5.1578426E-01;  1.0027933E+04;
  1.3616693E+00;  9.9999998E-03; -6.0766425E-02;8570;  7.0411634E-01;  0.0000000E+00;  4.5049924E-02;  9.9469635E+02;  2.3221232E-01; -4.3880537E+03;3; -2.0158377E+02;  0.0000000E+00;  1.3436720E+01;0;  7.2827644E+00;  7.4696069E+03;  0.0000000E+00;  3.5140336E-01;  4.0000000E+04;  0.0000000E+00;  3.9112320E+04;  7.8188238E+00;  0.0000000E+00; -5.3605932E-01;  1.1232543E+04;
  1.3616693E+00;  9.9999998E-03;  6.0766544E-02;8582;  7.0411593E-01;  0.0000000E+00; -4.5048773E-02;  9.9469672E+02;  2.3221256E-01; -4.3877578E+03;3; -2.0158383E+02;  0.0000000E+00; -1.3436767E+01;0;  7.2827640E+00;  7.4696084E+03;  0.0000000E+00;  3.5142943E-01;  4.0000000E+04;  0.0000000E+00;  3.9112316E+04;  7.8188233E+00;  0.0000000E+00; -5.3605926E-01;  1.1232528E+04;
  1.3616040E+00;  9.9999998E-03; -7.0865944E-02;8569;  6.9199049E-01;  0.0000000E+00;  5.2326359E-02;  9.9457922E+02;  2.3219596E-01; -4.4850127E+03;3; -1.9845731E+02;  0.0000000E+00;  1.5692899E+01;0;  7.2116613E+00;  7.4683882E+03;  0.0000000E+00;  4.6740884E-01;  4.0000000E+04;  0.0000000E+00;  3.9117223E+04;  7.7380877E+00;  0.0000000E+00; -5.2642649E-01;  1.0640049E+04;
  1.3615294E+00;  9.9999998E-03; -9.1038920E-02;8567;  6.6542470E-01;  0.0000000E+00;  6.6415079E-02;  9.9444824E+02;  2.3212500E-01; -4.5933647E+03;3; -1.8948375E+02;  0.0000000E+00;  1.9992464E+01;0;  7.0234857E+00;  7.4698706E+03;  0.0000000E+00;  6.7849588E-01;  4.0000000E+04;  0.0000000E+00;  3.9126883E+04;  7.5277419E+00;  0.0000000E+00; -5.0425625E-01;  9.4076318E+03;
  1.3617387E+00;  9.9999998E-03; -5.0655466E-02;8571;  7.1494663E-01;  0.0000000E+00;  3.7715320E-02;  9.9484448E+02;  2.3221993E-01; -4.2654995E+03;3; -2.0397414E+02;  0.0000000E+00;  1.1202242E+01;0;  7.3398457E+00;  7.4718408E+03;  0.0000000E+00;  2.4450916E-01;  4.0000000E+04;  0.0000000E+00;  3.9108062E+04;  7.8843575E+00;  0.0000000E+00; -5.4451185E-01;  1.1792302E+04;
  1.3617387E+00;  9.9999998E-03;  5.0655585E-02;8581;  7.1494544E-01;  0.0000000E+00; -3.7714191E-02;  9.9484467E+02;  2.3222022E-01; -4.2653516E+03;3; -2.0397438E+02;  0.0000000E+00; -1.1202245E+01;0;  7.3398442E+00;  7.4718403E+03;  0.0000000E+00;  2.4453282E-01;  4.0000000E+04;  0.0000000E+00;  3.9108055E+04;  7.8843565E+00;  0.0000000E+00; -5.4451227E-01;  1.1792325E+04;
  1.3618113E+00;  9.9999998E-03; -4.0533621E-02;8572;  7.2431123E-01;  0.0000000E+00;  3.0292574E-02;  9.9501459E+02;  2.3221684E-01; -4.1247480E+03;3; -2.0579424E+02;  0.0000000E+00;  8.9593077E+00;0;  7.3841500E+00;  7.4749360E+03;  0.0000000E+00;  1.5443881E-01;  4.0000000E+04;  0.0000000E+00;  3.9104020E+04;  7.9357505E+00;  0.0000000E+00; -5.5160064E-01;  1.2303725E+04;
  1.3618112E+00;  9.9999998E-03;  4.0533736E-02;8580;  7.2431034E-01;  0.0000000E+00; -3.0291455E-02;  9.9501440E+02;  2.3221697E-01; -4.1248960E+03;3; -2.0579440E+02;  0.0000000E+00; -8.9593801E+00;0;  7.3841581E+00;  7.4749321E+03;  0.0000000E+00;  1.5446284E-01;  4.0000000E+04;  0.0000000E+00;  3.9104023E+04;  7.9357586E+00;  0.0000000E+00; -5.5160022E-01;  1.2303770E+04;
  1.3615464E+00;  9.9999998E-03; -1.0112154E-01;8566;  6.5205067E-01;  0.0000000E+00;  7.3183678E-02;  9.9440552E+02;  2.3207022E-01; -4.6287222E+03;3; -1.8354868E+02;  0.0000000E+00;  2.2256323E+01;0;  6.9053283E+00;  7.4725664E+03;  0.0000000E+00;  7.4626124E-01;  4.0000000E+04;  0.0000000E+00;  3.9131980E+04;  7.3974013E+00;  0.0000000E+00; -4.9207315E-01;  8.7779053E+03;
  1.3618782E+00;  9.9999998E-03; -3.0404937E-02;8573;  7.3188031E-01;  0.0000000E+00;  2.2768879E-02;  9.9518250E+02;  2.3220840E-01; -3.9858230E+03;3; -2.0716035E+02;  0.0000000E+00;  6.7899971E+00;0;  7.4169340E+00;  7.4782715E+03;  0.0000000E+00;  8.5028969E-02;  4.0000000E+04;  0.0000000E+00;  3.9100551E+04;  7.9741488E+00;  0.0000000E+00; -5.5721462E-01;  1.2744973E+04;
  1.3618783E+00;  9.9999998E-03;  3.0405052E-02;8579;  7.3187989E-01;  0.0000000E+00; -2.2767738E-02;  9.9518250E+02;  2.3220928E-01; -3.9858230E+03;3; -2.0716037E+02;  0.0000000E+00; -6.7899990E+00;0;  7.4169374E+00;  7.4782729E+03;  0.0000000E+00;  8.5047968E-02;  4.0000000E+04;  0.0000000E+00;  3.9100555E+04;  7.9741516E+00;  0.0000000E+00; -5.5721420E-01;  1.2744936E+04;
  1.3619297E+00;  9.9999998E-03; -2.0272870E-02;8574;  7.3737133E-01;  0.0000000E+00;  1.5196694E-02;  9.9532642E+02;  2.3219879E-01; -3.8667729E+03;3; -2.0810783E+02;  0.0000000E+00;  4.5174141E+00;0;  7.4393754E+00;  7.4811357E+03;  0.0000000E+00;  3.6954224E-02;  4.0000000E+04;  0.0000000E+00;  3.9097922E+04;  8.0006695E+00;  0.0000000E+00; -5.6129390E-01;  1.3089087E+04;
  1.3619297E+00;  9.9999998E-03;  2.0272985E-02;8578;  7.3737109E-01;  0.0000000E+00; -1.5195565E-02;  9.9532629E+02;  2.3219885E-01; -3.8668716E+03;3; -2.0810779E+02;  0.0000000E+00; -4.5174580E+00;0;  7.4393697E+00;  7.4811367E+03;  0.0000000E+00;  3.6968518E-02;  4.0000000E+04;  0.0000000E+00;  3.9097922E+04;  8.0006638E+00;  0.0000000E+00; -5.6129390E-01;  1.3089128E+04;
  1.3619597E+00;  9.9999998E-03; -1.0137947E-02;8575;  7.4064362E-01;  0.0000000E+00;  7.6048090E-03;  9.9541876E+02;  2.3219351E-01; -3.7903328E+03;3; -2.0868152E+02;  0.0000000E+00;  2.2569630E+00;0;  7.4524150E+00;  7.4830005E+03;  0.0000000E+00;  9.0852762E-03;  4.0000000E+04;  0.0000000E+00;  3.9096227E+04;  8.0161991E+00;  0.0000000E+00; -5.6378424E-01;  1.3308957E+04;
  1.3619696E+00;  9.9999998E-03;  5.8067805E-08;8576;  7.4173236E-01;  0.0000000E+00;  5.5730095E-07;  9.9545178E+02;  2.3219204E-01; -3.7630115E+03;3; -2.0887444E+02;  0.0000000E+00; -5.9503713E-05;0;  7.4566965E+00;  7.4836328E+03;  0.0000000E+00;  6.8372041E-10;  4.0000000E+04;  0.0000000E+00;  3.9095602E+04;  8.0213184E+00;  0.0000000E+00; -5.6462181E-01;  1.3384699E+04;
  1.3619597E+00;  9.9999998E-03;  1.0138064E-02;8577;  7.4064440E-01;  0.0000000E+00; -7.6036798E-03;  9.9541901E+02;  2.3219362E-01; -3.7901355E+03;3; -2.0868127E+02;  0.0000000E+00; -2.2570341E+00;0;  7.4524140E+00;  7.4830049E+03;  0.0000000E+00;  9.0928106E-03;  4.0000000E+04;  0.0000000E+00;  3.9096230E+04;  8.0161982E+00;  0.0000000E+00; -5.6378418E-01;  1.3308960E+04;
  1.3838137E+00;  9.9999998E-03; -8.1094615E-02;8629;  9.1496736E-01;  0.0000000E+00;  3.8686816E-02;  9.9890063E+02;  2.1768343E-01; -9.0908710E+02;3; -1.7039081E+02;  0.0000000E+00;  2.2724672E+01;0;  6.9502006E+00;  8.5794629E+03;  0.0000000E+00;  3.7594646E-01;  4.0000000E+04;  0.0000000E+00;  3.9104277E+04;  7.3289671E+00;  0.0000000E+00; -3.7876666E-01;  1.4018276E+04;
  1.3838431E+00;  9.9999998E-03; -9.1171496E-02;8628;  9.0197456E-01;  0.0000000E+00;  4.3170508E-02;  9.9883636E+02;  2.1761930E-01; -9.6226923E+02;3; -1.6884651E+02;  0.0000000E+00;  2.5321123E+01;0;  6.9167128E+00;  8.5826748E+03;  0.0000000E+00;  4.5223621E-01;  4.0000000E+04;  0.0000000E+00;  3.9109703E+04;  7.2927690E+00;  0.0000000E+00; -3.7605631E-01;  1.3344084E+04;
  1.3838238E+00;  9.9999998E-03; -7.0997149E-02;8630;  9.2719877E-01;  0.0000000E+00;  3.4079839E-02;  9.9897070E+02;  2.1772765E-01; -8.5117224E+02;3; -1.7132130E+02;  0.0000000E+00;  1.9942476E+01;0;  6.9741340E+00;  8.5782402E+03;  0.0000000E+00;  2.9786378E-01;  4.0000000E+04;  0.0000000E+00;  3.9098805E+04;  7.3556137E+00;  0.0000000E+00; -3.8147986E-01;  1.4705072E+04;
  1.3839270E+00;  9.9999998E-03; -1.0124010E-01;8627;  8.8855976E-01;  0.0000000E+00;  4.7476135E-02;  9.9876917E+02;  2.1753065E-01; -1.0178156E+03;3; -1.6658301E+02;  0.0000000E+00;  2.7861679E+01;0;  6.8727822E+00;  8.5878184E+03;  0.0000000E+00;  5.2479905E-01;  4.0000000E+04;  0.0000000E+00;  3.9114926E+04;  7.2462077E+00;  0.0000000E+00; -3.7342530E-01;  1.2685413E+04;
  1.3838596E+00;  9.9999998E-03; -6.0875732E-02;8631;  9.3837982E-01;  0.0000000E+00;  2.9382169E-02;  9.9906818E+02;  2.1775492E-01; -7.7053461E+02;3; -1.7179610E+02;  0.0000000E+00;  1.7279739E+01;0;  6.9897985E+00;  8.5788535E+03;  0.0000000E+00;  2.2217274E-01;  4.0000000E+04;  0.0000000E+00;  3.9093375E+04;  7.3739080E+00;  0.0000000E+00; -3.8410968E-01;  1.5387495E+04;
  1.3838596E+00;  9.9999998E-03;  6.0875863E-02;8643;  9.3837959E-01;  0.0000000E+00; -2.9380782E-02;  9.9906848E+02;  2.1775559E-01; -7.7028815E+02;3; -1.7179622E+02;  0.0000000E+00; -1.7279760E+01;0;  6.9898043E+00;  8.5788545E+03;  0.0000000E+00;  2.2220047E-01;  4.0000000E+04;  0.0000000E+00;  3.9093367E+04;  7.3739138E+00;  0.0000000E+00; -3.8410959E-01;  1.5387451E+04;
  1.3838967E+00;  9.9999998E-03; -5.0737023E-02;8632;  9.4809514E-01;  0.0000000E+00;  2.4617145E-02;  9.9919171E+02;  2.1777433E-01; -6.6840717E+02;3; -1.7195256E+02;  0.0000000E+00;  1.4610736E+01;0;  6.9992676E+00;  8.5804961E+03;  0.0000000E+00;  1.5388018E-01;  4.0000000E+04;  0.0000000E+00;  3.9088219E+04;  7.3859353E+00;  0.0000000E+00; -3.8666782E-01;  1.6041767E+04;
  1.3838967E+00;  9.9999998E-03;  5.0737157E-02;8642;  9.4809479E-01;  0.0000000E+00; -2.4615759E-02;  9.9919196E+02;  2.1777500E-01; -6.6821002E+02;3; -1.7195255E+02;  0.0000000E+00; -1.4610742E+01;0;  6.9992704E+00;  8.5804941E+03;  0.0000000E+00;  1.5390880E-01;  4.0000000E+04;  0.0000000E+00;  3.9088223E+04;  7.3859386E+00;  0.0000000E+00; -3.8666841E-01;  1.6041836E+04;
  1.3839332E+00;  9.9999998E-03; -4.0591449E-02;8633;  9.5623583E-01;  0.0000000E+00;  1.9790348E-02;  9.9933472E+02;  2.1778759E-01; -5.5016241E+02;3; -1.7187364E+02;  0.0000000E+00;  1.1758319E+01;0;  7.0040770E+00;  8.5828652E+03;  0.0000000E+00;  9.6882410E-02;  4.0000000E+04;  0.0000000E+00;  3.9083188E+04;  7.3930864E+00;  0.0000000E+00; -3.8900936E-01;  1.6642826E+04;
  1.3839332E+00;  9.9999998E-03;  4.0591579E-02;8641;  9.5623571E-01;  0.0000000E+00; -1.9788941E-02;  9.9933472E+02;  2.1778651E-01; -5.5016241E+02;3; -1.7187363E+02;  0.0000000E+00; -1.1758306E+01;0;  7.0040817E+00;  8.5828701E+03;  0.0000000E+00;  9.6906483E-02;  4.0000000E+04;  0.0000000E+00;  3.9083191E+04;  7.3930917E+00;  0.0000000E+00; -3.8900974E-01;  1.6642869E+04;
  1.3839700E+00;  9.9999998E-03; -3.0444026E-02;8634;  9.6273869E-01;  0.0000000E+00;  1.4903154E-02;  9.9947729E+02;  2.1779108E-01; -4.3226300E+02;3; -1.7168367E+02;  0.0000000E+00;  8.7898455E+00;0;  7.0056205E+00;  8.5857090E+03;  0.0000000E+00;  5.3195532E-02;  4.0000000E+04;  0.0000000E+00;  3.9079094E+04;  7.3965874E+00;  0.0000000E+00; -3.9096677E-01;  1.7161281E+04;
  1.3839700E+00;  9.9999998E-03;  3.0444156E-02;8640;  9.6273834E-01;  0.0000000E+00; -1.4901768E-02;  9.9947766E+02;  2.1779132E-01; -4.3191797E+02;3; -1.7168384E+02;  0.0000000E+00; -8.7898540E+00;0;  7.0056219E+00;  8.5857080E+03;  0.0000000E+00;  5.3216271E-02;  4.0000000E+04;  0.0000000E+00;  3.9079102E+04;  7.3965888E+00;  0.0000000E+00; -3.9096668E-01;  1.7161291E+04;
  1.3840029E+00;  9.9999998E-03; -2.0296654E-02;8635;  9.6749675E-01;  0.0000000E+00;  9.9670552E-03;  9.9959991E+02;  2.1778975E-01; -3.3082629E+02;3; -1.7147728E+02;  0.0000000E+00;  5.8468313E+00;0;  7.0053735E+00;  8.5883799E+03;  0.0000000E+00;  2.3066144E-02;  4.0000000E+04;  0.0000000E+00;  3.9075945E+04;  7.3978043E+00;  0.0000000E+00; -3.9243066E-01;  1.7564764E+04;
  1.3840029E+00;  9.9999998E-03;  2.0296780E-02;8639;  9.6749651E-01;  0.0000000E+00; -9.9656647E-03;  9.9959955E+02;  2.1778947E-01; -3.3112201E+02;3; -1.7147711E+02;  0.0000000E+00; -5.8468795E+00;0;  7.0053787E+00;  8.5883809E+03;  0.0000000E+00;  2.3080464E-02;  4.0000000E+04;  0.0000000E+00;  3.9075949E+04;  7.3978095E+00;  0.0000000E+00; -3.9243069E-01;  1.7564801E+04;
  1.3840250E+00;  9.9999998E-03; -1.0148796E-02;8636;  9.7038966E-01;  0.0000000E+00;  4.9937801E-03;  9.9968121E+02;  2.1778713E-01; -2.6359625E+02;3; -1.7133258E+02;  0.0000000E+00;  2.9089396E+00;0;  7.0046878E+00;  8.5902461E+03;  0.0000000E+00;  5.6612766E-03;  4.0000000E+04;  0.0000000E+00;  3.9073852E+04;  7.3980279E+00;  0.0000000E+00; -3.9334008E-01;  1.7822311E+04;
  1.3840320E+00;  9.9999998E-03;  6.2621922E-08;8637;  9.7135258E-01;  0.0000000E+00;  6.9605511E-07;  9.9970740E+02;  2.1778730E-01; -2.4195844E+02;3; -1.7128520E+02;  0.0000000E+00; -1.0791860E-05;0;  7.0043964E+00;  8.5908818E+03;  0.0000000E+00;  2.6632263E-10;  4.0000000E+04;  0.0000000E+00;  3.9073141E+04;  7.3980508E+00;  0.0000000E+00; -3.9365458E-01;  1.7910957E+04;
  1.3840250E+00;  9.9999998E-03;  1.0148922E-02;8638;  9.7039020E-01;  0.0000000E+00; -4.9923826E-03;  9.9968140E+02;  2.1778724E-01; -2.6344839E+02;3; -1.7133226E+02;  0.0000000E+00; -2.9089468E+00;0;  7.0046868E+00;  8.5902441E+03;  0.0000000E+00;  5.6684869E-03;  4.0000000E+04;  0.0000000E+00;  3.9073852E+04;  7.3980265E+00;  0.0000000E+00; -3.9333975E-01;  1.7822350E+04;
  1.4046490E+00;  9.9999998E-03; -9.1227323E-02;8689;  1.0807592E+00;  0.0000000E+00;  1.8867346E-02;  1.0019940E+03;  2.0435140E-01;  1.6477888E+03;3; -1.2775420E+02;  0.0000000E+00;  3.4330059E+01;0;  6.0739470E+00;  9.8053975E+03;  0.0000000E+00;  1.3800424E-01;  4.0000000E+04;  0.0000000E+00;  3.9100637E+04;  6.2998099E+00;  0.0000000E+00; -2.2586316E-01;  1.5739753E+04;
  1.4046758E+00;  9.9999998E-03; -1.0130259E-01;8688;  1.0687020E+00;  0.0000000E+00;  2.1124413E-02;  1.0019666E+03;  2.0428860E-01;  1.6251298E+03;3; -1.2908214E+02;  0.0000000E+00;  3.6737446E+01;0;  6.0998416E+00;  9.8098799E+03;  0.0000000E+00;  2.0718330E-01;  4.0000000E+04;  0.0000000E+00;  3.9105582E+04;  6.3316393E+00;  0.0000000E+00; -2.3179783E-01;  1.5125479E+04;
  1.4046575E+00;  9.9999998E-03; -8.1130676E-02;8690;  1.0917069E+00;  0.0000000E+00;  1.6618658E-02;  1.0019903E+03;  2.0439632E-01;  1.6447346E+03;3; -1.2622466E+02;  0.0000000E+00;  3.1783096E+01;0;  6.0449724E+00;  9.8023457E+03;  0.0000000E+00;  9.3943782E-02;  4.0000000E+04;  0.0000000E+00;  3.9095492E+04;  6.2655835E+00;  0.0000000E+00; -2.2061116E-01;  1.6371385E+04;
  1.4046946E+00;  9.9999998E-03; -4.0581573E-02;8694;  1.1224977E+00;  0.0000000E+00;  7.9778517E-03;  1.0020539E+03;  2.0451874E-01;  1.6972384E+03;3; -1.2018070E+02;  0.0000000E+00;  1.9121134E+01;0;  5.9329758E+00;  9.7981602E+03;  0.0000000E+00;  2.2028642E-02;  4.0000000E+04;  0.0000000E+00;  3.9074062E+04;  6.1416001E+00;  0.0000000E+00; -2.0862426E-01;  1.8968576E+04;
  1.4046946E+00;  9.9999998E-03;  4.0581711E-02;8702;  1.1224977E+00;  0.0000000E+00; -7.9763746E-03;  1.0020538E+03;  2.0451891E-01;  1.6971399E+03;3; -1.2018079E+02;  0.0000000E+00; -1.9121109E+01;0;  5.9329820E+00;  9.7981631E+03;  0.0000000E+00;  2.2047998E-02;  4.0000000E+04;  0.0000000E+00;  3.9074066E+04;  6.1416068E+00;  0.0000000E+00; -2.0862469E-01;  1.8968629E+04;
  1.4046924E+00;  9.9999998E-03; -5.0729204E-02;8693;  1.1167308E+00;  0.0000000E+00;  1.0077477E-02;  1.0020019E+03;  2.0449594E-01;  1.6542878E+03;3; -1.2152651E+02;  0.0000000E+00;  2.2685797E+01;0;  5.9577613E+00;  9.7980107E+03;  0.0000000E+00;  3.3488210E-02;  4.0000000E+04;  0.0000000E+00;  3.9078965E+04;  6.1680751E+00;  0.0000000E+00; -2.1031396E-01;  1.8354621E+04;
  1.4046924E+00;  9.9999998E-03;  5.0729342E-02;8703;  1.1167307E+00;  0.0000000E+00; -1.0076001E-02;  1.0020017E+03;  2.0449610E-01;  1.6541893E+03;3; -1.2152650E+02;  0.0000000E+00; -2.2685772E+01;0;  5.9577661E+00;  9.7980088E+03;  0.0000000E+00;  3.3507843E-02;  4.0000000E+04;  0.0000000E+00;  3.9078965E+04;  6.1680803E+00;  0.0000000E+00; -2.1031433E-01;  1.8354672E+04;
  1.4046893E+00;  9.9999998E-03; -6.0873978E-02;8692;  1.1097212E+00;  0.0000000E+00;  1.2218305E-02;  1.0019780E+03;  2.0446570E-01;  1.6345859E+03;3; -1.2300998E+02;  0.0000000E+00;  2.5960489E+01;0;  5.9852581E+00;  9.7987305E+03;  0.0000000E+00;  4.7568891E-02;  4.0000000E+04;  0.0000000E+00;  3.9084391E+04;  6.1980457E+00;  0.0000000E+00; -2.1278739E-01;  1.7697361E+04;
  1.4046893E+00;  9.9999998E-03;  6.0874112E-02;8704;  1.1097213E+00;  0.0000000E+00; -1.2216846E-02;  1.0019778E+03;  2.0446528E-01;  1.6343889E+03;3; -1.2300995E+02;  0.0000000E+00; -2.5960451E+01;0;  5.9852600E+00;  9.7987324E+03;  0.0000000E+00;  4.7588650E-02;  4.0000000E+04;  0.0000000E+00;  3.9084391E+04;  6.1980481E+00;  0.0000000E+00; -2.1278797E-01;  1.7697361E+04;
  1.4046787E+00;  9.9999998E-03; -7.1010299E-02;8691;  1.1014059E+00;  0.0000000E+00;  1.4393368E-02;  1.0019751E+03;  2.0443213E-01;  1.6321238E+03;3; -1.2458128E+02;  0.0000000E+00;  2.8935558E+01;0;  6.0146484E+00;  9.8002891E+03;  0.0000000E+00;  6.6206589E-02;  4.0000000E+04;  0.0000000E+00;  3.9090109E+04;  6.2308450E+00;  0.0000000E+00; -2.1619636E-01;  1.7028018E+04;
  1.4047164E+00;  9.9999998E-03;  6.4183951E-08;8698;  1.1330214E+00;  0.0000000E+00;  7.2711225E-07;  1.0022432E+03;  2.0454900E-01;  1.8537701E+03;3; -1.1735056E+02;  0.0000000E+00;  1.0027702E-04;0;  5.8817773E+00;  9.8017441E+03;  0.0000000E+00; -2.5778239E-11;  4.0000000E+04;  0.0000000E+00;  3.9063301E+04;  6.0882583E+00;  0.0000000E+00; -2.0648111E-01;  2.0285695E+04;
  1.4047108E+00;  9.9999998E-03; -2.0288631E-02;8696;  1.1303672E+00;  0.0000000E+00;  3.9203106E-03;  1.0021830E+03;  2.0454273E-01;  1.8040226E+03;3; -1.1810135E+02;  0.0000000E+00;  1.0447529E+01;0;  5.8953733E+00;  9.8005195E+03;  0.0000000E+00;  5.8055641E-03;  4.0000000E+04;  0.0000000E+00;  3.9066352E+04;  6.1022453E+00;  0.0000000E+00; -2.0687190E-01;  1.9923666E+04;
  1.4047155E+00;  9.9999998E-03; -1.0144158E-02;8697;  1.1323582E+00;  0.0000000E+00;  1.9529903E-03;  1.0022265E+03;  2.0454745E-01;  1.8398801E+03;3; -1.1753869E+02;  0.0000000E+00;  5.3463535E+00;0;  5.8852005E+00;  9.8014590E+03;  0.0000000E+00;  1.4750301E-03;  4.0000000E+04;  0.0000000E+00;  3.9064004E+04;  6.0917630E+00;  0.0000000E+00; -2.0656276E-01;  2.0192795E+04;
  1.4047155E+00;  9.9999998E-03;  1.0144287E-02;8699;  1.1323582E+00;  0.0000000E+00; -1.9515217E-03;  1.0022267E+03;  2.0454694E-01;  1.8400771E+03;3; -1.1753862E+02;  0.0000000E+00; -5.3462305E+00;0;  5.8851995E+00;  9.8014609E+03;  0.0000000E+00;  1.4799745E-03;  4.0000000E+04;  0.0000000E+00;  3.9064012E+04;  6.0917625E+00;  0.0000000E+00; -2.0656277E-01;  2.0192805E+04;
  1.4047108E+00;  9.9999998E-03;  2.0288764E-02;8700;  1.1303673E+00;  0.0000000E+00; -3.9188243E-03;  1.0021832E+03;  2.0454250E-01;  1.8041211E+03;3; -1.1810123E+02;  0.0000000E+00; -1.0447525E+01;0;  5.8953748E+00;  9.8005225E+03;  0.0000000E+00;  5.8151348E-03;  4.0000000E+04;  0.0000000E+00;  3.9066348E+04;  6.1022468E+00;  0.0000000E+00; -2.0687190E-01;  1.9923709E+04;
  1.4047015E+00;  9.9999998E-03; -3.0434340E-02;8695;  1.1270584E+00;  0.0000000E+00;  5.9237126E-03;  1.0021183E+03;  2.0453390E-01;  1.7504336E+03;3; -1.1901192E+02;  0.0000000E+00;  1.5076197E+01;0;  5.9117641E+00;  9.7991904E+03;  0.0000000E+00;  1.2749630E-02;  4.0000000E+04;  0.0000000E+00;  3.9069555E+04;  6.1192908E+00;  0.0000000E+00; -2.0752674E-01;  1.9504031E+04;
  1.4047015E+00;  9.9999998E-03;  3.0434476E-02;8701;  1.1270581E+00;  0.0000000E+00; -5.9222188E-03;  1.0021184E+03;  2.0453449E-01;  1.7505321E+03;3; -1.1901183E+02;  0.0000000E+00; -1.5076152E+01;0;  5.9117656E+00;  9.7991875E+03;  0.0000000E+00;  1.2763549E-02;  4.0000000E+04;  0.0000000E+00;  3.9069547E+04;  6.1192923E+00;  0.0000000E+00; -2.0752673E-01;  1.9504055E+04;
  1.4240787E+00;  9.9999998E-03; -1.0127475E-01;8749;  1.1909918E+00;  0.0000000E+00; -5.4742699E-03;  1.0038315E+03;  1.9241196E-01;  3.1635122E+03;3; -8.2284065E+01;  0.0000000E+00;  4.2990013E+01;0;  4.9672775E+00;  1.1109117E+04;  0.0000000E+00; -1.9202471E-02;  4.0000000E+04;  0.0000000E+00;  3.9100496E+04;  5.0585122E+00;  0.0000000E+00; -9.1234446E-02;  1.6372536E+04;
  1.4241366E+00;  9.9999998E-03; -9.1177166E-02;8750;  1.1996461E+00;  0.0000000E+00; -6.7246105E-03;  1.0037892E+03;  1.9243746E-01;  3.1285620E+03;3; -7.8488670E+01;  0.0000000E+00;  4.2588436E+01;0;  4.8892226E+00;  1.1106609E+04;  0.0000000E+00; -7.2177202E-02;  4.0000000E+04;  0.0000000E+00;  3.9096699E+04;  4.9685235E+00;  0.0000000E+00; -7.9300851E-02;  1.6859324E+04;
  1.4241672E+00;  9.9999998E-03; -8.1065468E-02;8751;  1.2067883E+00;  0.0000000E+00; -7.9284012E-03;  1.0036880E+03;  1.9246826E-01;  3.0449937E+03;3; -7.5041000E+01;  0.0000000E+00;  4.1968113E+01;0;  4.8182015E+00;  1.1102388E+04;  0.0000000E+00; -8.8229664E-02;  4.0000000E+04;  0.0000000E+00;  3.9092492E+04;  4.8870292E+00;  0.0000000E+00; -6.8827830E-02;  1.7348791E+04;
  1.4241743E+00;  9.9999998E-03; -6.0811643E-02;8753;  1.2175319E+00;  0.0000000E+00; -8.9851953E-03;  1.0034604E+03;  1.9253173E-01;  2.8570979E+03;3; -6.9174843E+01;  0.0000000E+00;  3.2394588E+01;0;  4.6974001E+00;  1.1093875E+04;  0.0000000E+00; -6.1800763E-02;  4.0000000E+04;  0.0000000E+00;  3.9083566E+04;  4.7498569E+00;  0.0000000E+00; -5.2456912E-02;  1.8396822E+04;
  1.4241743E+00;  9.9999998E-03;  6.0811784E-02;8765;  1.2175319E+00;  0.0000000E+00;  8.9867320E-03;  1.0034602E+03;  1.9253275E-01;  2.8569011E+03;3; -6.9174873E+01;  0.0000000E+00; -3.2394585E+01;0;  4.6974063E+00;  1.1093876E+04;  0.0000000E+00; -6.1788030E-02;  4.0000000E+04;  0.0000000E+00;  3.9083574E+04;  4.7498641E+00;  0.0000000E+00; -5.2457601E-02;  1.8396879E+04;
  1.4241779E+00;  9.9999998E-03; -7.0942208E-02;8752;  1.2126876E+00;  0.0000000E+00; -8.8717388E-03;  1.0035680E+03;  1.9250077E-01;  2.9458774E+03;3; -7.1934822E+01;  0.0000000E+00;  3.9068398E+01;0;  4.7541995E+00;  1.1097966E+04;  0.0000000E+00; -8.0589131E-02;  4.0000000E+04;  0.0000000E+00;  3.9088043E+04;  4.8140683E+00;  0.0000000E+00; -5.9868742E-02;  1.7861697E+04;
  1.4240952E+00;  9.9999998E-03;  6.6370120E-08;8759;  1.2301918E+00;  0.0000000E+00;  7.3726136E-07;  1.0033087E+03;  1.9263200E-01;  2.7318135E+03;3; -6.0821281E+01;  0.0000000E+00;  4.1584404E-05;0;  4.5293941E+00;  1.1086079E+04;  0.0000000E+00; -1.6196780E-10;  4.0000000E+04;  0.0000000E+00;  3.9064863E+04;  4.5653930E+00;  0.0000000E+00; -3.5998616E-02;  2.0611203E+04;
  1.4241093E+00;  9.9999998E-03; -2.0269781E-02;8757;  1.2288108E+00;  0.0000000E+00; -2.5315688E-03;  1.0033027E+03;  1.9261976E-01;  2.7268901E+03;3; -6.1827419E+01;  0.0000000E+00;  8.0675201E+00;0;  4.5491552E+00;  1.1086489E+04;  0.0000000E+00; -4.5053717E-03;  4.0000000E+04;  0.0000000E+00;  3.9067672E+04;  4.5864992E+00;  0.0000000E+00; -3.7344195E-02;  2.0287783E+04;
  1.4240991E+00;  9.9999998E-03; -1.0134934E-02;8758;  1.2298468E+00;  0.0000000E+00; -1.1776482E-03;  1.0033069E+03;  1.9262901E-01;  2.7304346E+03;3; -6.1074615E+01;  0.0000000E+00;  4.0525918E+00;0;  4.5343618E+00;  1.1086153E+04;  0.0000000E+00; -1.0070050E-03;  4.0000000E+04;  0.0000000E+00;  3.9065918E+04;  4.5706797E+00;  0.0000000E+00; -3.6317747E-02;  2.0527758E+04;
  1.4240991E+00;  9.9999998E-03;  1.0135066E-02;8760;  1.2298468E+00;  0.0000000E+00;  1.1790807E-03;  1.0033070E+03;  1.9262829E-01;  2.7304346E+03;3; -6.1074509E+01;  0.0000000E+00; -4.0524297E+00;0;  4.5343537E+00;  1.1086152E+04;  0.0000000E+00; -1.0047394E-03;  4.0000000E+04;  0.0000000E+00;  3.9065918E+04;  4.5706716E+00;  0.0000000E+00; -3.6317904E-02;  2.0527781E+04;
  1.4241093E+00;  9.9999998E-03;  2.0269917E-02;8761;  1.2288108E+00;  0.0000000E+00;  2.5331073E-03;  1.0033027E+03;  1.9261953E-01;  2.7268901E+03;3; -6.1827446E+01;  0.0000000E+00; -8.0673761E+00;0;  4.5491576E+00;  1.1086487E+04;  0.0000000E+00; -4.5012315E-03;  4.0000000E+04;  0.0000000E+00;  3.9067676E+04;  4.5865021E+00;  0.0000000E+00; -3.7344437E-02;  2.0287811E+04;
  1.4241260E+00;  9.9999998E-03; -3.0405033E-02;8756;  1.2270834E+00;  0.0000000E+00; -4.1792169E-03;  1.0033056E+03;  1.9260456E-01;  2.7292500E+03;3; -6.3049572E+01;  0.0000000E+00;  1.2193022E+01;0;  4.5733299E+00;  1.1087248E+04;  0.0000000E+00; -1.1694477E-02;  4.0000000E+04;  0.0000000E+00;  3.9070633E+04;  4.6125631E+00;  0.0000000E+00; -3.9233390E-02;  1.9918145E+04;
  1.4241260E+00;  9.9999998E-03;  3.0405173E-02;8762;  1.2270833E+00;  0.0000000E+00;  4.1808137E-03;  1.0033055E+03;  1.9260409E-01;  2.7292500E+03;3; -6.3049492E+01;  0.0000000E+00; -1.2192906E+01;0;  4.5733309E+00;  1.1087251E+04;  0.0000000E+00; -1.1686657E-02;  4.0000000E+04;  0.0000000E+00;  3.9070633E+04;  4.6125646E+00;  0.0000000E+00; -3.9233819E-02;  1.9918225E+04;
  1.4241467E+00;  9.9999998E-03; -4.0540997E-02;8755;  1.2246621E+00;  0.0000000E+00; -6.0898224E-03;  1.0033327E+03;  1.9258274E-01;  2.7516882E+03;3; -6.4702698E+01;  0.0000000E+00;  1.7025337E+01;0;  4.6063309E+00;  1.1088688E+04;  0.0000000E+00; -2.3809969E-02;  4.0000000E+04;  0.0000000E+00;  3.9074574E+04;  4.6485529E+00;  0.0000000E+00; -4.2221848E-02;  1.9455188E+04;
  1.4241467E+00;  9.9999998E-03;  4.0541138E-02;8763;  1.2246621E+00;  0.0000000E+00;  6.0914927E-03;  1.0033326E+03;  1.9258296E-01;  2.7515898E+03;3; -6.4702789E+01;  0.0000000E+00; -1.7025265E+01;0;  4.6063347E+00;  1.1088686E+04;  0.0000000E+00; -2.3801008E-02;  4.0000000E+04;  0.0000000E+00;  3.9074570E+04;  4.6485572E+00;  0.0000000E+00; -4.2222366E-02;  1.9455225E+04;
  1.4241631E+00;  9.9999998E-03; -5.0677203E-02;8754;  1.2214957E+00;  0.0000000E+00; -7.9192948E-03;  1.0033795E+03;  1.9256023E-01;  2.7902688E+03;3; -6.6757515E+01;  0.0000000E+00;  2.3869747E+01;0;  4.6479406E+00;  1.1090829E+04;  0.0000000E+00; -4.1135501E-02;  4.0000000E+04;  0.0000000E+00;  3.9078969E+04;  4.6945267E+00;  0.0000000E+00; -4.6586055E-02;  1.8936941E+04;
  1.4241631E+00;  9.9999998E-03;  5.0677340E-02;8764;  1.2214957E+00;  0.0000000E+00;  7.9209646E-03;  1.0033796E+03;  1.9255990E-01;  2.7903672E+03;3; -6.6757507E+01;  0.0000000E+00; -2.3869949E+01;0;  4.6479440E+00;  1.1090830E+04;  0.0000000E+00; -4.1122049E-02;  4.0000000E+04;  0.0000000E+00;  3.9078980E+04;  4.6945310E+00;  0.0000000E+00; -4.6586767E-02;  1.8936971E+04;
  1.4421939E+00;  9.9999998E-03; -1.0117399E-01;8810;  1.2608312E+00;  0.0000000E+00; -2.6738081E-02;  1.0045630E+03;  1.8194295E-01;  3.7634688E+03;3; -3.5927475E+01;  0.0000000E+00;  3.6880104E+01;0;  3.7937675E+00;  1.2450346E+04;  0.0000000E+00; -9.0873741E-02;  4.0000000E+04;  0.0000000E+00;  3.9098297E+04;  3.7595761E+00;  0.0000000E+00;  3.4191437E-02;  1.6639219E+04;
  1.4423183E+00;  9.9999998E-03; -9.1070943E-02;8811;  1.2653661E+00;  0.0000000E+00; -2.5862673E-02;  1.0044630E+03;  1.8193685E-01;  3.6809460E+03;3; -3.0870277E+01;  0.0000000E+00;  3.0106707E+01;0;  3.6895201E+00;  1.2449862E+04;  0.0000000E+00; -1.0774181E-01;  4.0000000E+04;  0.0000000E+00;  3.9095242E+04;  3.6406229E+00;  0.0000000E+00;  4.8897192E-02;  1.6963281E+04;
  1.4423879E+00;  9.9999998E-03; -8.0963530E-02;8812;  1.2687047E+00;  0.0000000E+00; -2.3440102E-02;  1.0043051E+03;  1.8194449E-01;  3.5507522E+03;3; -2.6459478E+01;  0.0000000E+00;  2.4500160E+01;0;  3.5981367E+00;  1.2446200E+04;  0.0000000E+00; -1.0014617E-01;  4.0000000E+04;  0.0000000E+00;  3.9092809E+04;  3.5364056E+00;  0.0000000E+00;  6.1731216E-02;  1.7265527E+04;
  1.4424142E+00;  9.9999998E-03; -7.0853576E-02;8813;  1.2711310E+00;  0.0000000E+00; -2.0171627E-02;  1.0041127E+03;  1.8196444E-01;  3.3920566E+03;3; -2.2626354E+01;  0.0000000E+00;  2.1377602E+01;0;  3.5188637E+00;  1.2440860E+04;  0.0000000E+00; -7.9116687E-02;  4.0000000E+04;  0.0000000E+00;  3.9089945E+04;  3.4462883E+00;  0.0000000E+00;  7.2575428E-02;  1.7576252E+04;
  1.4424145E+00;  9.9999998E-03; -6.0739156E-02;8814;  1.2728897E+00;  0.0000000E+00; -1.6703095E-02;  1.0039338E+03;  1.8198416E-01;  3.2444775E+03;3; -1.9349342E+01;  0.0000000E+00;  1.9054331E+01;0;  3.4505503E+00;  1.2435408E+04;  0.0000000E+00; -5.4132216E-02;  4.0000000E+04;  0.0000000E+00;  3.9086906E+04;  3.3691359E+00;  0.0000000E+00;  8.1414491E-02;  1.7904846E+04;
  1.4424145E+00;  9.9999998E-03;  6.0739297E-02;8826;  1.2728897E+00;  0.0000000E+00;  1.6704714E-02;  1.0039343E+03;  1.8198408E-01;  3.2449692E+03;3; -1.9349401E+01;  0.0000000E+00; -1.9054270E+01;0;  3.4505532E+00;  1.2435402E+04;  0.0000000E+00; -5.4128949E-02;  4.0000000E+04;  0.0000000E+00;  3.9086898E+04;  3.3691394E+00;  0.0000000E+00;  8.1413850E-02;  1.7904885E+04;
  1.4422743E+00;  9.9999998E-03;  6.8568824E-08;8820;  1.2765114E+00;  0.0000000E+00;  8.0780632E-07;  1.0034423E+03;  1.8206598E-01;  2.8391289E+03;3; -1.0468972E+01;  0.0000000E+00;  8.8832283E-05;0;  3.2612965E+00;  1.2418564E+04;  0.0000000E+00; -2.1878553E-10;  4.0000000E+04;  0.0000000E+00;  3.9073902E+04;  3.1606917E+00;  0.0000000E+00;  1.0060477E-01;  1.9392162E+04;
  1.4423035E+00;  9.9999998E-03; -2.0250157E-02;8818;  1.2761723E+00;  0.0000000E+00; -4.6743108E-03;  1.0034881E+03;  1.8205285E-01;  2.8768787E+03;3; -1.1443978E+01;  0.0000000E+00;  7.2954688E+00;0;  3.2823868E+00;  1.2420452E+04;  0.0000000E+00; -1.6439548E-03;  4.0000000E+04;  0.0000000E+00;  3.9076020E+04;  3.1833539E+00;  0.0000000E+00;  9.9032953E-02;  1.9160643E+04;
  1.4422833E+00;  9.9999998E-03; -1.0125603E-02;8819;  1.2764282E+00;  0.0000000E+00; -2.2778669E-03;  1.0034528E+03;  1.8206106E-01;  2.8477793E+03;3; -1.0707705E+01;  0.0000000E+00;  3.7022395E+00;0;  3.2664862E+00;  1.2419057E+04;  0.0000000E+00; -2.3423265E-04;  4.0000000E+04;  0.0000000E+00;  3.9074637E+04;  3.1662488E+00;  0.0000000E+00;  1.0023735E-01;  1.9331842E+04;
  1.4422834E+00;  9.9999998E-03;  1.0125739E-02;8821;  1.2764283E+00;  0.0000000E+00;  2.2794351E-03;  1.0034527E+03;  1.8206176E-01;  2.8476809E+03;3; -1.0707666E+01;  0.0000000E+00; -3.7020886E+00;0;  3.2664835E+00;  1.2419058E+04;  0.0000000E+00; -2.3407892E-04;  4.0000000E+04;  0.0000000E+00;  3.9074637E+04;  3.1662464E+00;  0.0000000E+00;  1.0023723E-01;  1.9331828E+04;
  1.4423035E+00;  9.9999998E-03;  2.0250292E-02;8822;  1.2761723E+00;  0.0000000E+00;  4.6758419E-03;  1.0034881E+03;  1.8205358E-01;  2.8768787E+03;3; -1.1443853E+01;  0.0000000E+00; -7.2953272E+00;0;  3.2823875E+00;  1.2420453E+04;  0.0000000E+00; -1.6431427E-03;  4.0000000E+04;  0.0000000E+00;  3.9076020E+04;  3.1833549E+00;  0.0000000E+00;  9.9032730E-02;  1.9160686E+04;
  1.4423985E+00;  9.9999998E-03; -5.0619826E-02;8815;  1.2741656E+00;  0.0000000E+00; -1.3325914E-02;  1.0037692E+03;  1.8200129E-01;  3.1087986E+03;3; -1.6604128E+01;  0.0000000E+00;  1.6586325E+01;0;  3.3927078E+00;  1.2430563E+04;  0.0000000E+00; -3.1849589E-02;  4.0000000E+04;  0.0000000E+00;  3.9083855E+04;  3.3044086E+00;  0.0000000E+00;  8.8299371E-02;  1.8246713E+04;
  1.4423985E+00;  9.9999998E-03;  5.0619967E-02;8825;  1.2741657E+00;  0.0000000E+00;  1.3327570E-02;  1.0037692E+03;  1.8200162E-01;  3.1087986E+03;3; -1.6604080E+01;  0.0000000E+00; -1.6586193E+01;0;  3.3927057E+00;  1.2430563E+04;  0.0000000E+00; -3.1844795E-02;  4.0000000E+04;  0.0000000E+00;  3.9083859E+04;  3.3044069E+00;  0.0000000E+00;  8.8298798E-02;  1.8246775E+04;
  1.4423335E+00;  9.9999998E-03; -3.0374166E-02;8817;  1.2757308E+00;  0.0000000E+00; -7.2854008E-03;  1.0035450E+03;  1.8203944E-01;  2.9238704E+03;3; -1.2671733E+01;  0.0000000E+00;  1.0683785E+01;0;  3.3087790E+00;  1.2422861E+04;  0.0000000E+00; -6.0639763E-03;  4.0000000E+04;  0.0000000E+00;  3.9078176E+04;  3.2119558E+00;  0.0000000E+00;  9.6823230E-02;  1.8902162E+04;
  1.4423335E+00;  9.9999998E-03;  3.0374303E-02;8823;  1.2757308E+00;  0.0000000E+00;  7.2869291E-03;  1.0035454E+03;  1.8203846E-01;  2.9241653E+03;3; -1.2671679E+01;  0.0000000E+00; -1.0683663E+01;0;  3.3087780E+00;  1.2422860E+04;  0.0000000E+00; -6.0620825E-03;  4.0000000E+04;  0.0000000E+00;  3.9078184E+04;  3.2119553E+00;  0.0000000E+00;  9.6822709E-02;  1.8902135E+04;
  1.4423681E+00;  9.9999998E-03; -4.0497687E-02;8816;  1.2750821E+00;  0.0000000E+00; -1.0167847E-02;  1.0036423E+03;  1.8202099E-01;  3.0040935E+03;3; -1.4389355E+01;  0.0000000E+00;  1.3794759E+01;0;  3.3455224E+00;  1.2426296E+04;  0.0000000E+00; -1.5662417E-02;  4.0000000E+04;  0.0000000E+00;  3.9080992E+04;  3.2521753E+00;  0.0000000E+00;  9.3347102E-02;  1.8587303E+04;
  1.4423681E+00;  9.9999998E-03;  4.0497828E-02;8824;  1.2750821E+00;  0.0000000E+00;  1.0169403E-02;  1.0036423E+03;  1.8202093E-01;  3.0040935E+03;3; -1.4389272E+01;  0.0000000E+00; -1.3794659E+01;0;  3.3455217E+00;  1.2426297E+04;  0.0000000E+00; -1.5659312E-02;  4.0000000E+04;  0.0000000E+00;  3.9081000E+04;  3.2521751E+00;  0.0000000E+00;  9.3346544E-02;  1.8587324E+04;
  1.4592247E+00;  9.9999998E-03; -1.0106552E-01;8871;  1.2909424E+00;  0.0000000E+00; -3.3372220E-02;  1.0044711E+03;  1.7276596E-01;  3.6829072E+03;3;  2.7171714E+00;  0.0000000E+00;  2.5185465E+01;0;  2.7642589E+00;  1.3811189E+04;  0.0000000E+00; -5.9902068E-02;  4.0000000E+04;  0.0000000E+00;  3.9097336E+04;  2.6255939E+00;  0.0000000E+00;  1.3866508E-01;  1.6069984E+04;
  1.4594026E+00;  9.9999998E-03; -9.0969004E-02;8872;  1.2917352E+00;  0.0000000E+00; -3.0427780E-02;  1.0043638E+03;  1.7274116E-01;  3.5944766E+03;3;  6.8609977E+00;  0.0000000E+00;  2.3248505E+01;0;  2.6559582E+00;  1.3813097E+04;  0.0000000E+00; -2.5708832E-02;  4.0000000E+04;  0.0000000E+00;  3.9095426E+04;  2.5025940E+00;  0.0000000E+00;  1.5336423E-01;  1.6261274E+04;
  1.4595096E+00;  9.9999998E-03; -8.0876015E-02;8873;  1.2919409E+00;  0.0000000E+00; -2.7164774E-02;  1.0041859E+03;  1.7273113E-01;  3.4479399E+03;3;  9.8529015E+00;  0.0000000E+00;  2.1223949E+01;0;  2.5623946E+00;  1.3810891E+04;  0.0000000E+00;  6.8778903E-03;  4.0000000E+04;  0.0000000E+00;  3.9093953E+04;  2.3966336E+00;  0.0000000E+00;  1.6576107E-01;  1.6404990E+04;
  1.4595621E+00;  9.9999998E-03; -7.0779338E-02;8874;  1.2917947E+00;  0.0000000E+00; -2.3668241E-02;  1.0039804E+03;  1.7273225E-01;  3.2786411E+03;3;  1.2003617E+01;  0.0000000E+00;  1.9108866E+01;0;  2.4822586E+00;  1.3806184E+04;  0.0000000E+00;  3.0715080E-02;  4.0000000E+04;  0.0000000E+00;  3.9092578E+04;  2.3063414E+00;  0.0000000E+00;  1.7591718E-01;  1.6533158E+04;
  1.4595761E+00;  9.9999998E-03; -6.0676731E-02;8875;  1.2914702E+00;  0.0000000E+00; -2.0054903E-02;  1.0037639E+03;  1.7273712E-01;  3.1003198E+03;3;  1.3634107E+01;  0.0000000E+00;  1.6845297E+01;0;  2.4143064E+00;  1.3800478E+04;  0.0000000E+00;  4.3058723E-02;  4.0000000E+04;  0.0000000E+00;  3.9091367E+04;  2.2303703E+00;  0.0000000E+00;  1.8393609E-01;  1.6661410E+04;
  1.4595761E+00;  9.9999998E-03;  6.0676869E-02;8887;  1.2914703E+00;  0.0000000E+00;  2.0056339E-02;  1.0037642E+03;  1.7273863E-01;  3.1005161E+03;3;  1.3634003E+01;  0.0000000E+00; -1.6845304E+01;0;  2.4143081E+00;  1.3800472E+04;  0.0000000E+00;  4.3058604E-02;  4.0000000E+04;  0.0000000E+00;  3.9091359E+04;  2.2303727E+00;  0.0000000E+00;  1.8393537E-01;  1.6661465E+04;
  1.4594077E+00;  9.9999998E-03; -1.0116396E-02;8880;  1.2899611E+00;  0.0000000E+00; -3.0884978E-03;  1.0031207E+03;  1.7279249E-01;  2.5706104E+03;3;  1.7107416E+01;  0.0000000E+00;  3.1388466E+00;0;  2.2387180E+00;  1.3777820E+04;  0.0000000E+00;  3.4091987E-03;  4.0000000E+04;  0.0000000E+00;  3.9085797E+04;  2.0389476E+00;  0.0000000E+00;  1.9977051E-01;  1.7264201E+04;
  1.4593972E+00;  9.9999998E-03;  7.0885527E-08;8881;  1.2899148E+00;  0.0000000E+00;  8.1323373E-07;  1.0031036E+03;  1.7279586E-01;  2.5564729E+03;3;  1.7211582E+01;  0.0000000E+00;  8.5846172E-05;0;  2.2338538E+00;  1.3777067E+04;  0.0000000E+00; -2.3869159E-10;  4.0000000E+04;  0.0000000E+00;  3.9085504E+04;  2.0337958E+00;  0.0000000E+00;  2.0005800E-01;  1.7292539E+04;
  1.4594077E+00;  9.9999998E-03;  1.0116540E-02;8882;  1.2899611E+00;  0.0000000E+00;  3.0901076E-03;  1.0031207E+03;  1.7279372E-01;  2.5706104E+03;3;  1.7107515E+01;  0.0000000E+00; -3.1387205E+00;0;  2.2387161E+00;  1.3777820E+04;  0.0000000E+00;  3.4077854E-03;  4.0000000E+04;  0.0000000E+00;  3.9085801E+04;  2.0389457E+00;  0.0000000E+00;  1.9977042E-01;  1.7264227E+04;
  1.4594363E+00;  9.9999998E-03; -2.0231374E-02;8879;  1.2901087E+00;  0.0000000E+00; -6.2395083E-03;  1.0031791E+03;  1.7278545E-01;  2.6186206E+03;3;  1.6811155E+01;  0.0000000E+00;  6.1566329E+00;0;  2.2533820E+00;  1.3780144E+04;  0.0000000E+00;  1.2675380E-02;  4.0000000E+04;  0.0000000E+00;  3.9086449E+04;  2.0545406E+00;  0.0000000E+00;  1.9884141E-01;  1.7184994E+04;
  1.4594363E+00;  9.9999998E-03;  2.0231515E-02;8883;  1.2901087E+00;  0.0000000E+00;  6.2410859E-03;  1.0031790E+03;  1.7278577E-01;  2.6186206E+03;3;  1.6811375E+01;  0.0000000E+00; -6.1564851E+00;0;  2.2533824E+00;  1.3780142E+04;  0.0000000E+00;  1.2673690E-02;  4.0000000E+04;  0.0000000E+00;  3.9086457E+04;  2.0545416E+00;  0.0000000E+00;  1.9884083E-01;  1.7185025E+04;
  1.4595593E+00;  9.9999998E-03; -5.0568845E-02;8876;  1.2910725E+00;  0.0000000E+00; -1.6437676E-02;  1.0035706E+03;  1.7274816E-01;  2.9411548E+03;3;  1.4702152E+01;  0.0000000E+00;  1.4431180E+01;0;  2.3579817E+00;  1.3794508E+04;  0.0000000E+00;  4.4319935E-02;  4.0000000E+04;  0.0000000E+00;  3.9090020E+04;  2.1680222E+00;  0.0000000E+00;  1.8995945E-01;  1.6795789E+04;
  1.4595593E+00;  9.9999998E-03;  5.0568983E-02;8886;  1.2910726E+00;  0.0000000E+00;  1.6439157E-02;  1.0035706E+03;  1.7274854E-01;  2.9410566E+03;3;  1.4702159E+01;  0.0000000E+00; -1.4431124E+01;0;  2.3579853E+00;  1.3794503E+04;  0.0000000E+00;  4.4319388E-02;  4.0000000E+04;  0.0000000E+00;  3.9090020E+04;  2.1680267E+00;  0.0000000E+00;  1.8995865E-01;  1.6795801E+04;
  1.4594767E+00;  9.9999998E-03; -3.0345131E-02;8878;  1.2903564E+00;  0.0000000E+00; -9.5033580E-03;  1.0032716E+03;  1.7277469E-01;  2.6948093E+03;3;  1.6363401E+01;  0.0000000E+00;  9.0526743E+00;0;  2.2780116E+00;  1.3783851E+04;  0.0000000E+00;  2.5153795E-02;  4.0000000E+04;  0.0000000E+00;  3.9087574E+04;  2.0809271E+00;  0.0000000E+00;  1.9708446E-01;  1.7069387E+04;
  1.4594767E+00;  9.9999998E-03;  3.0345272E-02;8884;  1.2903565E+00;  0.0000000E+00;  9.5049683E-03;  1.0032716E+03;  1.7277469E-01;  2.6948093E+03;3;  1.6363400E+01;  0.0000000E+00; -9.0525618E+00;0;  2.2780113E+00;  1.3783851E+04;  0.0000000E+00;  2.5152106E-02;  4.0000000E+04;  0.0000000E+00;  3.9087570E+04;  2.0809274E+00;  0.0000000E+00;  1.9708398E-01;  1.7069420E+04;
  1.4595219E+00;  9.9999998E-03; -4.0457819E-02;8877;  1.2906882E+00;  0.0000000E+00; -1.2905207E-02;  1.0034035E+03;  1.7276238E-01;  2.8034980E+03;3;  1.5630135E+01;  0.0000000E+00;  1.1828545E+01;0;  2.3127265E+00;  1.3788788E+04;  0.0000000E+00;  3.7087396E-02;  4.0000000E+04;  0.0000000E+00;  3.9088648E+04;  2.1184916E+00;  0.0000000E+00;  1.9423492E-01;  1.6934645E+04;
  1.4595219E+00;  9.9999998E-03;  4.0457960E-02;8885;  1.2906884E+00;  0.0000000E+00;  1.2906739E-02;  1.0034035E+03;  1.7276238E-01;  2.8034980E+03;3;  1.5629871E+01;  0.0000000E+00; -1.1828423E+01;0;  2.3127270E+00;  1.3788794E+04;  0.0000000E+00;  3.7085537E-02;  4.0000000E+04;  0.0000000E+00;  3.9088656E+04;  2.1184928E+00;  0.0000000E+00;  1.9423419E-01;  1.6934656E+04;
  1.4753982E+00;  9.9999998E-03; -1.0099005E-01;8931;  1.2987967E+00;  0.0000000E+00; -3.5941310E-02;  1.0038990E+03;  1.6474563E-01;  3.2066477E+03;3;  1.8223373E+01;  0.0000000E+00;  2.1373682E+01;0;  1.9469521E+00;  1.5174930E+04;  0.0000000E+00; -3.1108933E-03;  4.0000000E+04;  0.0000000E+00;  3.9097160E+04;  1.7271199E+00;  0.0000000E+00;  2.1983221E-01;  1.4786461E+04;
  1.4756037E+00;  9.9999998E-03; -9.0900183E-02;8932;  1.2979817E+00;  0.0000000E+00; -3.2613724E-02;  1.0038001E+03;  1.6471256E-01;  3.1253013E+03;3;  1.9726509E+01;  0.0000000E+00;  1.9434439E+01;0;  1.8490412E+00;  1.5178676E+04;  0.0000000E+00;  8.3635442E-02;  4.0000000E+04;  0.0000000E+00;  3.9095469E+04;  1.6163992E+00;  0.0000000E+00;  2.3264205E-01;  1.4925068E+04;
  1.4757403E+00;  9.9999998E-03; -8.0811657E-02;8933;  1.2970610E+00;  0.0000000E+00; -2.9105121E-02;  1.0036469E+03;  1.6469213E-01;  2.9991780E+03;3;  2.0835297E+01;  0.0000000E+00;  1.7511084E+01;0;  1.7645789E+00;  1.5178302E+04;  0.0000000E+00;  1.4293407E-01;  4.0000000E+04;  0.0000000E+00;  3.9094938E+04;  1.5215894E+00;  0.0000000E+00;  2.4298957E-01;  1.4993591E+04;
  1.4758152E+00;  9.9999998E-03; -7.0718937E-02;8934;  1.2961035E+00;  0.0000000E+00; -2.5445621E-02;  1.0034539E+03;  1.6468289E-01;  2.8404312E+03;3;  2.1631485E+01;  0.0000000E+00;  1.5600882E+01;0;  1.6926804E+00;  1.5174873E+04;  0.0000000E+00;  1.6993587E-01;  4.0000000E+04;  0.0000000E+00;  3.9094324E+04;  1.4416354E+00;  0.0000000E+00;  2.5104502E-01;  1.5019299E+04;
  1.4756190E+00;  9.9999998E-03;  7.3968131E-08;8941;  1.2921435E+00;  0.0000000E+00;  8.1380517E-07;  1.0025836E+03;  1.6472803E-01;  2.1247070E+03;3;  2.4002642E+01;  0.0000000E+00;  5.7438054E-05;0;  1.4765046E+00;  1.5141099E+04;  0.0000000E+00; -2.2577580E-10;  4.0000000E+04;  0.0000000E+00;  3.9094602E+04;  1.2097976E+00;  0.0000000E+00;  2.6670694E-01;  1.4921254E+04;
  1.4758223E+00;  9.9999998E-03; -5.0523449E-02;8936;  1.2943039E+00;  0.0000000E+00; -1.7927041E-02;  1.0030731E+03;  1.6468722E-01;  2.5272983E+03;3;  2.2771353E+01;  0.0000000E+00;  1.1576243E+01;0;  1.5830450E+00;  1.5163085E+04;  0.0000000E+00;  1.4321427E-01;  4.0000000E+04;  0.0000000E+00;  3.9094324E+04;  1.3218755E+00;  0.0000000E+00;  2.6116952E-01;  1.4999848E+04;
  1.4758223E+00;  9.9999998E-03;  5.0523594E-02;8946;  1.2943039E+00;  0.0000000E+00;  1.7928526E-02;  1.0030730E+03;  1.6468744E-01;  2.5272004E+03;3;  2.2771931E+01;  0.0000000E+00; -1.1576301E+01;0;  1.5830455E+00;  1.5163087E+04;  0.0000000E+00;  1.4320587E-01;  4.0000000E+04;  0.0000000E+00;  3.9094320E+04;  1.3218766E+00;  0.0000000E+00;  2.6116890E-01;  1.4999859E+04;
  1.4758387E+00;  9.9999998E-03; -6.0622215E-02;8935;  1.2951679E+00;  0.0000000E+00; -2.1694919E-02;  1.0032592E+03;  1.6468154E-01;  2.6803293E+03;3;  2.2298143E+01;  0.0000000E+00;  1.3636727E+01;0;  1.6324476E+00;  1.5169584E+04;  0.0000000E+00;  1.6754274E-01;  4.0000000E+04;  0.0000000E+00;  3.9094203E+04;  1.3754333E+00;  0.0000000E+00;  2.5701424E-01;  1.5017954E+04;
  1.4758387E+00;  9.9999998E-03;  6.0622361E-02;8947;  1.2951680E+00;  0.0000000E+00;  2.1696331E-02;  1.0032593E+03;  1.6468155E-01;  2.6804272E+03;3;  2.2297974E+01;  0.0000000E+00; -1.3636638E+01;0;  1.6324482E+00;  1.5169572E+04;  0.0000000E+00;  1.6753559E-01;  4.0000000E+04;  0.0000000E+00;  3.9094211E+04;  1.3754350E+00;  0.0000000E+00;  2.5701320E-01;  1.5017924E+04;
  1.4756687E+00;  9.9999998E-03; -2.0214859E-02;8939;  1.2924995E+00;  0.0000000E+00; -6.9906609E-03;  1.0026625E+03;  1.6471821E-01;  2.1895972E+03;3;  2.3724918E+01;  0.0000000E+00;  4.8056612E+00;0;  1.4930499E+00;  1.5145270E+04;  0.0000000E+00;  3.1700227E-02;  4.0000000E+04;  0.0000000E+00;  3.9094449E+04;  1.2268132E+00;  0.0000000E+00;  2.6623663E-01;  1.4933657E+04;
  1.4756317E+00;  9.9999998E-03; -1.0107856E-02;8940;  1.2922320E+00;  0.0000000E+00; -3.4817948E-03;  1.0026034E+03;  1.6472453E-01;  2.1410767E+03;3;  2.3913546E+01;  0.0000000E+00;  2.4033682E+00;0;  1.4806390E+00;  1.5142096E+04;  0.0000000E+00;  8.2556354E-03;  4.0000000E+04;  0.0000000E+00;  3.9094688E+04;  1.2140346E+00;  0.0000000E+00;  2.6660436E-01;  1.4924247E+04;
  1.4756317E+00;  9.9999998E-03;  1.0108005E-02;8942;  1.2922320E+00;  0.0000000E+00;  3.4834305E-03;  1.0026036E+03;  1.6472393E-01;  2.1412727E+03;3;  2.3913652E+01;  0.0000000E+00; -2.4031899E+00;0;  1.4806393E+00;  1.5142098E+04;  0.0000000E+00;  8.2534840E-03;  4.0000000E+04;  0.0000000E+00;  3.9094688E+04;  1.2140350E+00;  0.0000000E+00;  2.6660430E-01;  1.4924247E+04;
  1.4756687E+00;  9.9999998E-03;  2.0215005E-02;8943;  1.2924995E+00;  0.0000000E+00;  6.9922283E-03;  1.0026624E+03;  1.6471809E-01;  2.1895972E+03;3;  2.3725206E+01;  0.0000000E+00; -4.8055782E+00;0;  1.4930491E+00;  1.5145271E+04;  0.0000000E+00;  3.1696241E-02;  4.0000000E+04;  0.0000000E+00;  3.9094453E+04;  1.2268127E+00;  0.0000000E+00;  2.6623639E-01;  1.4933662E+04;
  1.4757205E+00;  9.9999998E-03; -3.0319972E-02;8938;  1.2929435E+00;  0.0000000E+00; -1.0557517E-02;  1.0027644E+03;  1.6470800E-01;  2.2735056E+03;3;  2.3504009E+01;  0.0000000E+00;  7.1433339E+00;0;  1.5140136E+00;  1.5150062E+04;  0.0000000E+00;  6.6466860E-02;  4.0000000E+04;  0.0000000E+00;  3.9094441E+04;  1.2486037E+00;  0.0000000E+00;  2.6540998E-01;  1.4950816E+04;
  1.4757205E+00;  9.9999998E-03;  3.0320117E-02;8944;  1.2929437E+00;  0.0000000E+00;  1.0559066E-02;  1.0027642E+03;  1.6470818E-01;  2.2732114E+03;3;  2.3503138E+01;  0.0000000E+00; -7.1432304E+00;0;  1.5140123E+00;  1.5150063E+04;  0.0000000E+00;  6.6461124E-02;  4.0000000E+04;  0.0000000E+00;  3.9094441E+04;  1.2486026E+00;  0.0000000E+00;  2.6540965E-01;  1.4950863E+04;
  1.4757769E+00;  9.9999998E-03; -4.0422995E-02;8937;  1.2935525E+00;  0.0000000E+00; -1.4203152E-02;  1.0029008E+03;  1.6469592E-01;  2.3855486E+03;3;  2.3157139E+01;  0.0000000E+00;  9.4112206E+00;0;  1.5438273E+00;  1.5156283E+04;  0.0000000E+00;  1.0636227E-01;  4.0000000E+04;  0.0000000E+00;  3.9094254E+04;  1.2799870E+00;  0.0000000E+00;  2.6384029E-01;  1.4974721E+04;
  1.4757769E+00;  9.9999998E-03;  4.0423140E-02;8945;  1.2935526E+00;  0.0000000E+00;  1.4204609E-02;  1.0029006E+03;  1.6469601E-01;  2.3854504E+03;3;  2.3156960E+01;  0.0000000E+00; -9.4111271E+00;0;  1.5438263E+00;  1.5156288E+04;  0.0000000E+00;  1.0635698E-01;  4.0000000E+04;  0.0000000E+00;  3.9094262E+04;  1.2799865E+00;  0.0000000E+00;  2.6383987E-01;  1.4974752E+04;
  1.4908391E+00;  9.9999998E-03; -1.0097742E-01;8990;  1.3003163E+00;  0.0000000E+00; -3.7128828E-02;  1.0030758E+03;  1.5776666E-01;  2.5249114E+03;3;  2.3124908E+01;  0.0000000E+00;  1.7869608E+01;0;  1.3421108E+00;  1.6522436E+04;  0.0000000E+00;  3.3704162E-02;  4.0000000E+04;  0.0000000E+00;  3.9096902E+04;  1.0639105E+00;  0.0000000E+00;  2.7820024E-01;  1.2924285E+04;
  1.4910631E+00;  9.9999998E-03; -9.0874158E-02;8991;  1.2989683E+00;  0.0000000E+00; -3.3464607E-02;  1.0029973E+03;  1.5773068E-01;  2.4603481E+03;3;  2.3954624E+01;  0.0000000E+00;  1.6378210E+01;0;  1.2605771E+00;  1.6528086E+04;  0.0000000E+00;  1.6079979E-01;  4.0000000E+04;  0.0000000E+00;  3.9095121E+04;  9.7209918E-01;  0.0000000E+00;  2.8847790E-01;  1.3097438E+04;
  1.4912257E+00;  9.9999998E-03; -8.0774345E-02;8992;  1.2976507E+00;  0.0000000E+00; -2.9740267E-02;  1.0028837E+03;  1.5770534E-01;  2.3670403E+03;3;  2.4742579E+01;  0.0000000E+00;  1.4839290E+01;0;  1.1901338E+00;  1.6530100E+04;  0.0000000E+00;  2.4291126E-01;  4.0000000E+04;  0.0000000E+00;  3.9094078E+04;  8.9390057E-01;  0.0000000E+00;  2.9623327E-01;  1.3188672E+04;
  1.4913207E+00;  9.9999998E-03; -7.0680179E-02;8993;  1.2963967E+00;  0.0000000E+00; -2.5951847E-02;  1.0027451E+03;  1.5769154E-01;  2.2532090E+03;3;  2.5288778E+01;  0.0000000E+00;  1.3250693E+01;0;  1.1304462E+00;  1.6528400E+04;  0.0000000E+00;  2.7589858E-01;  4.0000000E+04;  0.0000000E+00;  3.9093633E+04;  8.2871258E-01;  0.0000000E+00;  3.0173355E-01;  1.3213328E+04;
  1.4913546E+00;  9.9999998E-03; -6.0587507E-02;8994;  1.2952361E+00;  0.0000000E+00; -2.2119028E-02;  1.0025900E+03;  1.5768717E-01;  2.1259934E+03;3;  2.5694298E+01;  0.0000000E+00;  1.1597413E+01;0;  1.0807595E+00;  1.6523963E+04;  0.0000000E+00;  2.6572329E-01;  4.0000000E+04;  0.0000000E+00;  3.9093715E+04;  7.7545875E-01;  0.0000000E+00;  3.0530071E-01;  1.3182688E+04;
  1.4913546E+00;  9.9999998E-03;  6.0587656E-02;9006;  1.2952361E+00;  0.0000000E+00;  2.2120452E-02;  1.0025900E+03;  1.5768676E-01;  2.1258953E+03;3;  2.5693960E+01;  0.0000000E+00; -1.1597404E+01;0;  1.0807576E+00;  1.6523969E+04;  0.0000000E+00;  2.6571554E-01;  4.0000000E+04;  0.0000000E+00;  3.9093699E+04;  7.7545738E-01;  0.0000000E+00;  3.0530024E-01;  1.3182724E+04;
  1.4913442E+00;  9.9999998E-03; -5.0493520E-02;8995;  1.2941954E+00;  0.0000000E+00; -1.8280571E-02;  1.0024340E+03;  1.5768768E-01;  1.9979102E+03;3;  2.6109848E+01;  0.0000000E+00;  9.8656626E+00;0;  1.0401227E+00;  1.6517848E+04;  0.0000000E+00;  2.2397242E-01;  4.0000000E+04;  0.0000000E+00;  3.9094289E+04;  7.3280925E-01;  0.0000000E+00;  3.0731353E-01;  1.3106821E+04;
  1.4913442E+00;  9.9999998E-03;  5.0493665E-02;9005;  1.2941957E+00;  0.0000000E+00;  1.8282039E-02;  1.0024340E+03;  1.5768768E-01;  1.9979102E+03;3;  2.6110588E+01;  0.0000000E+00; -9.8655949E+00;0;  1.0401229E+00;  1.6517848E+04;  0.0000000E+00;  2.2396562E-01;  4.0000000E+04;  0.0000000E+00;  3.9094281E+04;  7.3281008E-01;  0.0000000E+00;  3.0731282E-01;  1.3106798E+04;
  1.4911571E+00;  9.9999998E-03; -1.0101221E-02;8999;  1.2917247E+00;  0.0000000E+00; -3.5361520E-03;  1.0020516E+03;  1.5771820E-01;  1.6840492E+03;3;  2.6890120E+01;  0.0000000E+00;  2.0752366E+00;0;  9.5614886E-01;  1.6496535E+04;  0.0000000E+00;  1.2561157E-02;  4.0000000E+04;  0.0000000E+00;  3.9097734E+04;  6.4837682E-01;  0.0000000E+00;  3.0777201E-01;  1.2714599E+04;
  1.4911436E+00;  9.9999998E-03;  7.5681371E-08;9000;  1.2916150E+00;  0.0000000E+00;  8.1340050E-07;  1.0020358E+03;  1.5772089E-01;  1.6710377E+03;3;  2.6917072E+01;  0.0000000E+00;  9.0168913E-05;0;  9.5278430E-01;  1.6495416E+04;  0.0000000E+00; -1.9495711E-10;  4.0000000E+04;  0.0000000E+00;  3.9097648E+04;  6.4512813E-01;  0.0000000E+00;  3.0765620E-01;  1.2690196E+04;
  1.4911571E+00;  9.9999998E-03;  1.0101371E-02;9001;  1.2917247E+00;  0.0000000E+00;  3.5377517E-03;  1.0020515E+03;  1.5771829E-01;  1.6839513E+03;3;  2.6890265E+01;  0.0000000E+00; -2.0751228E+00;0;  9.5614851E-01;  1.6496533E+04;  0.0000000E+00;  1.2558025E-02;  4.0000000E+04;  0.0000000E+00;  3.9097738E+04;  6.4837664E-01;  0.0000000E+00;  3.0777183E-01;  1.2714555E+04;
  1.4911944E+00;  9.9999998E-03; -2.0201711E-02;8998;  1.2920512E+00;  0.0000000E+00; -7.1083033E-03;  1.0021037E+03;  1.5771286E-01;  1.7268020E+03;3;  2.6795914E+01;  0.0000000E+00;  4.1274190E+00;0;  9.6630633E-01;  1.6499889E+04;  0.0000000E+00;  4.8428912E-02;  4.0000000E+04;  0.0000000E+00;  3.9096883E+04;  6.5825719E-01;  0.0000000E+00;  3.0804911E-01;  1.2783835E+04;
  1.4911944E+00;  9.9999998E-03;  2.0201860E-02;9002;  1.2920513E+00;  0.0000000E+00;  7.1098735E-03;  1.0021036E+03;  1.5771303E-01;  1.7267041E+03;3;  2.6796314E+01;  0.0000000E+00; -4.1273670E+00;0;  9.6630609E-01;  1.6499898E+04;  0.0000000E+00;  4.8423767E-02;  4.0000000E+04;  0.0000000E+00;  3.9096887E+04;  6.5825742E-01;  0.0000000E+00;  3.0804864E-01;  1.2783821E+04;
  1.4912468E+00;  9.9999998E-03; -3.0300580E-02;8997;  1.2925851E+00;  0.0000000E+00; -1.0751295E-02;  1.0021840E+03;  1.5770477E-01;  1.7926438E+03;3;  2.6644693E+01;  0.0000000E+00;  6.1413312E+00;0;  9.8345715E-01;  1.6504932E+04;  0.0000000E+00;  1.0215975E-01;  4.0000000E+04;  0.0000000E+00;  3.9096152E+04;  6.7517269E-01;  0.0000000E+00;  3.0828446E-01;  1.2885709E+04;
  1.4912468E+00;  9.9999998E-03;  3.0300729E-02;9003;  1.2925851E+00;  0.0000000E+00;  1.0752846E-02;  1.0021841E+03;  1.5770495E-01;  1.7927417E+03;3;  2.6645075E+01;  0.0000000E+00; -6.1412969E+00;0;  9.8345602E-01;  1.6504936E+04;  0.0000000E+00;  1.0215264E-01;  4.0000000E+04;  0.0000000E+00;  3.9096152E+04;  6.7517209E-01;  0.0000000E+00;  3.0828390E-01;  1.2885694E+04;
  1.4913028E+00;  9.9999998E-03; -4.0397871E-02;8996;  1.2933055E+00;  0.0000000E+00; -1.4482653E-02;  1.0022960E+03;  1.5769534E-01;  1.8846099E+03;3;  2.6421295E+01;  0.0000000E+00;  8.0476046E+00;0;  1.0078866E+00;  1.6511291E+04;  0.0000000E+00;  1.6473782E-01;  4.0000000E+04;  0.0000000E+00;  3.9095301E+04;  6.9971728E-01;  0.0000000E+00;  3.0816936E-01;  1.3000908E+04;
  1.4913028E+00;  9.9999998E-03;  4.0398017E-02;9004;  1.2933055E+00;  0.0000000E+00;  1.4484146E-02;  1.0022960E+03;  1.5769555E-01;  1.8846099E+03;3;  2.6421837E+01;  0.0000000E+00; -8.0476580E+00;0;  1.0078858E+00;  1.6511293E+04;  0.0000000E+00;  1.6472951E-01;  4.0000000E+04;  0.0000000E+00;  3.9095305E+04;  6.9971722E-01;  0.0000000E+00;  3.0816862E-01;  1.3000930E+04;
  1.5056520E+00;  9.9999998E-03; -1.0100906E-01;9049;  1.2997229E+00;  0.0000000E+00; -3.7510611E-02;  1.0021818E+03;  1.5171419E-01;  1.7869540E+03;3;  2.5678461E+01;  0.0000000E+00;  1.5171169E+01;0;  9.1928762E-01;  1.7837303E+04;  0.0000000E+00;  3.8373351E-02;  4.0000000E+04;  0.0000000E+00;  3.9095789E+04;  6.0323375E-01;  0.0000000E+00;  3.1605387E-01;  1.0654566E+04;
  1.5058942E+00;  9.9999998E-03; -9.0884469E-02;9050;  1.2980589E+00;  0.0000000E+00; -3.3559084E-02;  1.0021210E+03;  1.5167752E-01;  1.7371852E+03;3;  2.6229509E+01;  0.0000000E+00;  1.4016926E+01;0;  8.5500199E-01;  1.7845068E+04;  0.0000000E+00;  1.8482047E-01;  4.0000000E+04;  0.0000000E+00;  3.9093145E+04;  5.3108537E-01;  0.0000000E+00;  3.2391661E-01;  1.0914220E+04;
  1.5060717E+00;  9.9999998E-03; -8.0776200E-02;9051;  1.2965343E+00;  0.0000000E+00; -2.9696256E-02;  1.0020450E+03;  1.5165067E-01;  1.6748450E+03;3;  2.6853497E+01;  0.0000000E+00;  1.2845325E+01;0;  7.9952437E-01;  1.7848988E+04;  0.0000000E+00;  2.7938244E-01;  4.0000000E+04;  0.0000000E+00;  3.9090895E+04;  4.7029340E-01;  0.0000000E+00;  3.2923096E-01;  1.1099294E+04;
  1.5061079E+00;  9.9999998E-03; -1.0097930E-02;9058;  1.2901180E+00;  0.0000000E+00; -3.4923172E-03;  1.0015159E+03;  1.5164752E-01;  1.2415548E+03;3;  2.8403049E+01;  0.0000000E+00;  1.9135031E+00;0;  6.1326295E-01;  1.7824881E+04;  0.0000000E+00;  1.4965747E-02;  4.0000000E+04;  0.0000000E+00;  3.9092812E+04;  2.8335711E-01;  0.0000000E+00;  3.2990584E-01;  1.0829812E+04;
  1.5060960E+00;  9.9999998E-03;  7.7186144E-08;9059;  1.2900048E+00;  0.0000000E+00;  8.0650165E-07;  1.0015057E+03;  1.5165001E-01;  1.2331610E+03;3;  2.8424181E+01;  0.0000000E+00;  7.2958945E-05;0;  6.1055762E-01;  1.7823844E+04;  0.0000000E+00; -1.6073062E-10;  4.0000000E+04;  0.0000000E+00;  3.9092902E+04;  2.8096420E-01;  0.0000000E+00;  3.2959342E-01;  1.0800444E+04;
  1.5061079E+00;  9.9999998E-03;  1.0098084E-02;9060;  1.2901180E+00;  0.0000000E+00;  3.4938916E-03;  1.0015160E+03;  1.5164784E-01;  1.2415548E+03;3;  2.8403227E+01;  0.0000000E+00; -1.9134036E+00;0;  6.1326277E-01;  1.7824879E+04;  0.0000000E+00;  1.4962062E-02;  4.0000000E+04;  0.0000000E+00;  3.9092812E+04;  2.8335699E-01;  0.0000000E+00;  3.2990575E-01;  1.0829785E+04;
  1.5061407E+00;  9.9999998E-03; -2.0195570E-02;9057;  1.2904465E+00;  0.0000000E+00; -7.0576086E-03;  1.0015523E+03;  1.5164354E-01;  1.2713248E+03;3;  2.8347870E+01;  0.0000000E+00;  3.7443647E+00;0;  6.2141842E-01;  1.7827828E+04;  0.0000000E+00;  5.7543870E-02;  4.0000000E+04;  0.0000000E+00;  3.9092102E+04;  2.9065111E-01;  0.0000000E+00;  3.3076730E-01;  1.0910270E+04;
  1.5061408E+00;  9.9999998E-03;  2.0195723E-02;9061;  1.2904465E+00;  0.0000000E+00;  7.0591606E-03;  1.0015523E+03;  1.5164354E-01;  1.2713248E+03;3;  2.8347166E+01;  0.0000000E+00; -3.7443261E+00;0;  6.2141836E-01;  1.7827838E+04;  0.0000000E+00;  5.7537489E-02;  4.0000000E+04;  0.0000000E+00;  3.9092102E+04;  2.9065138E-01;  0.0000000E+00;  3.3076698E-01;  1.0910286E+04;
  1.5061852E+00;  9.9999998E-03; -7.0676267E-02;9052;  1.2951229E+00;  0.0000000E+00; -2.5856709E-02;  1.0019641E+03;  1.5163618E-01;  1.6085231E+03;3;  2.7426111E+01;  0.0000000E+00;  1.1526546E+01;0;  7.5235397E-01;  1.7849467E+04;  0.0000000E+00;  3.1816018E-01;  4.0000000E+04;  0.0000000E+00;  3.9089711E+04;  4.1995835E-01;  0.0000000E+00;  3.3239561E-01;  1.1208756E+04;
  1.5061866E+00;  9.9999998E-03; -3.0292349E-02;9056;  1.2909883E+00;  0.0000000E+00; -1.0700773E-02;  1.0016062E+03;  1.5163702E-01;  1.3154427E+03;3;  2.8304602E+01;  0.0000000E+00;  5.4635258E+00;0;  6.3514280E-01;  1.7832506E+04;  0.0000000E+00;  1.2080561E-01;  4.0000000E+04;  0.0000000E+00;  3.9090973E+04;  3.0318099E-01;  0.0000000E+00;  3.3196178E-01;  1.1021031E+04;
  1.5061866E+00;  9.9999998E-03;  3.0292500E-02;9062;  1.2909883E+00;  0.0000000E+00;  1.0702303E-02;  1.0016062E+03;  1.5163702E-01;  1.3154427E+03;3;  2.8305134E+01;  0.0000000E+00; -5.4634938E+00;0;  6.3514197E-01;  1.7832516E+04;  0.0000000E+00;  1.2079684E-01;  4.0000000E+04;  0.0000000E+00;  3.9090973E+04;  3.0318066E-01;  0.0000000E+00;  3.3196130E-01;  1.1021036E+04;
  1.5062310E+00;  9.9999998E-03; -4.0388186E-02;9055;  1.2917372E+00;  0.0000000E+00; -1.4416122E-02;  1.0016797E+03;  1.5162948E-01;  1.3756689E+03;3;  2.8213821E+01;  0.0000000E+00;  7.1208749E+00;0;  6.5468878E-01;  1.7837871E+04;  0.0000000E+00;  1.9352439E-01;  4.0000000E+04;  0.0000000E+00;  3.9090078E+04;  3.2153597E-01;  0.0000000E+00;  3.3315280E-01;  1.1132394E+04;
  1.5062310E+00;  9.9999998E-03;  4.0388335E-02;9063;  1.2917373E+00;  0.0000000E+00;  1.4417619E-02;  1.0016796E+03;  1.5163010E-01;  1.3754738E+03;3;  2.8213385E+01;  0.0000000E+00; -7.1208210E+00;0;  6.5468776E-01;  1.7837875E+04;  0.0000000E+00;  1.9351377E-01;  4.0000000E+04;  0.0000000E+00;  3.9090078E+04;  3.2153580E-01;  0.0000000E+00;  3.3315194E-01;  1.1132373E+04;
  1.5062441E+00;  9.9999998E-03; -6.0579158E-02;9053;  1.2938312E+00;  0.0000000E+00; -2.2015586E-02;  1.0018674E+03;  1.5162717E-01;  1.5293313E+03;3;  2.7825377E+01;  0.0000000E+00;  1.0153616E+01;0;  7.1282613E-01;  1.7847312E+04;  0.0000000E+00;  3.0788624E-01;  4.0000000E+04;  0.0000000E+00;  3.9089320E+04;  3.7900743E-01;  0.0000000E+00;  3.3381867E-01;  1.1244748E+04;
  1.5062441E+00;  9.9999998E-03;  6.0579311E-02;9065;  1.2938312E+00;  0.0000000E+00;  2.2017047E-02;  1.0018675E+03;  1.5162688E-01;  1.5294288E+03;3;  2.7826056E+01;  0.0000000E+00; -1.0153567E+01;0;  7.1282554E-01;  1.7847309E+04;  0.0000000E+00;  3.0787492E-01;  4.0000000E+04;  0.0000000E+00;  3.9089320E+04;  3.7900716E-01;  0.0000000E+00;  3.3381838E-01;  1.1244737E+04;
  1.5062556E+00;  9.9999998E-03; -5.0483596E-02;9054;  1.2926948E+00;  0.0000000E+00; -1.8194057E-02;  1.0017682E+03;  1.5162651E-01;  1.4481024E+03;3;  2.8111595E+01;  0.0000000E+00;  8.6641035E+00;0;  6.8043041E-01;  1.7843141E+04;  0.0000000E+00;  2.6120871E-01;  4.0000000E+04;  0.0000000E+00;  3.9089383E+04;  3.4650743E-01;  0.0000000E+00;  3.3392295E-01;  1.1214594E+04;
  1.5062556E+00;  9.9999998E-03;  5.0483745E-02;9064;  1.2926947E+00;  0.0000000E+00;  1.8195515E-02;  1.0017679E+03;  1.5162639E-01;  1.4478094E+03;3;  2.8112326E+01;  0.0000000E+00; -8.6641607E+00;0;  6.8042934E-01;  1.7843146E+04;  0.0000000E+00;  2.6119903E-01;  4.0000000E+04;  0.0000000E+00;  3.9089387E+04;  3.4650713E-01;  0.0000000E+00;  3.3392218E-01;  1.1214604E+04;
  1.5199207E+00;  9.9999998E-03; -1.0108666E-01;9108;  1.2982575E+00;  0.0000000E+00; -3.7432961E-02;  1.0013315E+03;  1.4647858E-01;  1.0875933E+03;3;  2.7231319E+01;  0.0000000E+00;  1.3032460E+01;0;  6.3284391E-01;  1.9106000E+04;  0.0000000E+00;  1.3200948E-02;  4.0000000E+04;  0.0000000E+00;  3.9091898E+04;  2.9648042E-01;  0.0000000E+00;  3.3636349E-01;  8.1823047E+03;
  1.5201532E+00;  9.9999998E-03; -9.0944767E-02;9109;  1.2963873E+00;  0.0000000E+00; -3.3232685E-02;  1.0012619E+03;  1.4644748E-01;  1.0307732E+03;3;  2.7620964E+01;  0.0000000E+00;  1.2375783E+01;0;  5.8459383E-01;  1.9113434E+04;  0.0000000E+00;  1.5583712E-01;  4.0000000E+04;  0.0000000E+00;  3.9087895E+04;  2.4227135E-01;  0.0000000E+00;  3.4232250E-01;  8.5252773E+03;
  1.5203393E+00;  9.9999998E-03; -8.0818489E-02;9110;  1.2947185E+00;  0.0000000E+00; -2.9233651E-02;  1.0012151E+03;  1.4642307E-01;  9.9246771E+02;3;  2.8229416E+01;  0.0000000E+00;  1.1392750E+01;0;  5.4250318E-01;  1.9118771E+04;  0.0000000E+00;  2.4971652E-01;  4.0000000E+04;  0.0000000E+00;  3.9084750E+04;  1.9670457E-01;  0.0000000E+00;  3.4579861E-01;  8.8261621E+03;
  1.5204796E+00;  9.9999998E-03; -7.0703872E-02;9111;  1.2931962E+00;  0.0000000E+00; -2.5340332E-02;  1.0011721E+03;  1.4640383E-01;  9.5728998E+02;3;  2.8722622E+01;  0.0000000E+00;  1.0272532E+01;0;  5.0627333E-01;  1.9122271E+04;  0.0000000E+00;  2.9092142E-01;  4.0000000E+04;  0.0000000E+00;  3.9082238E+04;  1.5903978E-01;  0.0000000E+00;  3.4723356E-01;  9.0659004E+03;
  1.5205698E+00;  9.9999998E-03; -6.0597684E-02;9112;  1.2918369E+00;  0.0000000E+00; -2.1527354E-02;  1.0011369E+03;  1.4639340E-01;  9.2854974E+02;3;  2.8821712E+01;  0.0000000E+00;  9.0667572E+00;0;  4.7566122E-01;  1.9123131E+04;  0.0000000E+00;  2.8554511E-01;  4.0000000E+04;  0.0000000E+00;  3.9080582E+04;  1.2859033E-01;  0.0000000E+00;  3.4707087E-01;  9.2364365E+03;
  1.5205699E+00;  9.9999998E-03;  6.0597837E-02;9124;  1.2918369E+00;  0.0000000E+00;  2.1528792E-02;  1.0011368E+03;  1.4639387E-01;  9.2845239E+02;3;  2.8821184E+01;  0.0000000E+00; -9.0667610E+00;0;  4.7566062E-01;  1.9123131E+04;  0.0000000E+00;  2.8553239E-01;  4.0000000E+04;  0.0000000E+00;  3.9080582E+04;  1.2859005E-01;  0.0000000E+00;  3.4707057E-01;  9.2364395E+03;
  1.5205798E+00;  9.9999998E-03; -1.0099049E-02;9117;  1.2880634E+00;  0.0000000E+00; -3.4939577E-03;  1.0010069E+03;  1.4639601E-01;  8.2232520E+02;3;  2.9735994E+01;  0.0000000E+00;  1.7659022E+00;0;  3.9666322E-01;  1.9112238E+04;  0.0000000E+00;  1.4578097E-02;  4.0000000E+04;  0.0000000E+00;  3.9079727E+04;  5.8111627E-02;  0.0000000E+00;  3.3855158E-01;  9.2676055E+03;
  1.5205739E+00;  9.9999998E-03;  7.7835629E-08;9118;  1.2879707E+00;  0.0000000E+00;  7.8666818E-07;  1.0010024E+03;  1.4639692E-01;  8.1872375E+02;3;  2.9790167E+01;  0.0000000E+00;  4.1817417E-05;0;  3.9446265E-01;  1.9111613E+04;  0.0000000E+00; -1.4452073E-10;  4.0000000E+04;  0.0000000E+00;  3.9079793E+04;  5.6361899E-02;  0.0000000E+00;  3.3810073E-01;  9.2513604E+03;
  1.5205798E+00;  9.9999998E-03;  1.0099204E-02;9119;  1.2880634E+00;  0.0000000E+00;  3.4955258E-03;  1.0010070E+03;  1.4639576E-01;  8.2242255E+02;3;  2.9734972E+01;  0.0000000E+00; -1.7658044E+00;0;  3.9666271E-01;  1.9112232E+04;  0.0000000E+00;  1.4574989E-02;  4.0000000E+04;  0.0000000E+00;  3.9079727E+04;  5.8111526E-02;  0.0000000E+00;  3.3855119E-01;  9.2675771E+03;
  1.5205961E+00;  9.9999998E-03; -2.0198079E-02;9116;  1.2883810E+00;  0.0000000E+00; -6.9809034E-03;  1.0010150E+03;  1.4639492E-01;  8.2894299E+02;3;  2.9675451E+01;  0.0000000E+00;  3.3942239E+00;0;  4.0326729E-01;  1.9113947E+04;  0.0000000E+00;  5.5723932E-02;  4.0000000E+04;  0.0000000E+00;  3.9079309E+04;  6.3440077E-02;  0.0000000E+00;  3.3982721E-01;  9.3080684E+03;
  1.5205961E+00;  9.9999998E-03;  2.0198233E-02;9120;  1.2883810E+00;  0.0000000E+00;  6.9824341E-03;  1.0010151E+03;  1.4639395E-01;  8.2904041E+02;3;  2.9676172E+01;  0.0000000E+00; -3.3942769E+00;0;  4.0326700E-01;  1.9113949E+04;  0.0000000E+00;  5.5717595E-02;  4.0000000E+04;  0.0000000E+00;  3.9079309E+04;  6.3440025E-02;  0.0000000E+00;  3.3982697E-01;  9.3080547E+03;
  1.5206158E+00;  9.9999998E-03; -3.0297048E-02;9115;  1.2889254E+00;  0.0000000E+00; -1.0505832E-02;  1.0010347E+03;  1.4639057E-01;  8.4500433E+02;3;  2.9515594E+01;  0.0000000E+00;  4.9409623E+00;0;  4.1432765E-01;  1.9116672E+04;  0.0000000E+00;  1.1593938E-01;  4.0000000E+04;  0.0000000E+00;  3.9078969E+04;  7.2625346E-02;  0.0000000E+00;  3.4170231E-01;  9.3509697E+03;
  1.5206158E+00;  9.9999998E-03;  3.0297201E-02;9121;  1.2889254E+00;  0.0000000E+00;  1.0507328E-02;  1.0010345E+03;  1.4639024E-01;  8.4490698E+02;3;  2.9516287E+01;  0.0000000E+00; -4.9410062E+00;0;  4.1432726E-01;  1.9116668E+04;  0.0000000E+00;  1.1593183E-01;  4.0000000E+04;  0.0000000E+00;  3.9078973E+04;  7.2625145E-02;  0.0000000E+00;  3.4170210E-01;  9.3509512E+03;
  1.5206267E+00;  9.9999998E-03; -4.0396035E-02;9114;  1.2896891E+00;  0.0000000E+00; -1.4104363E-02;  1.0010633E+03;  1.4638850E-01;  8.6846655E+02;3;  2.9298098E+01;  0.0000000E+00;  6.4023943E+00;0;  4.2995840E-01;  1.9119562E+04;  0.0000000E+00;  1.8372619E-01;  4.0000000E+04;  0.0000000E+00;  3.9079121E+04;  8.6128719E-02;  0.0000000E+00;  3.4382969E-01;  9.3683604E+03;
  1.5206267E+00;  9.9999998E-03;  4.0396187E-02;9122;  1.2896889E+00;  0.0000000E+00;  1.4105841E-02;  1.0010632E+03;  1.4638844E-01;  8.6836920E+02;3;  2.9297388E+01;  0.0000000E+00; -6.4021926E+00;0;  4.2995796E-01;  1.9119559E+04;  0.0000000E+00;  1.8371566E-01;  4.0000000E+04;  0.0000000E+00;  3.9079125E+04;  8.6128503E-02;  0.0000000E+00;  3.4382945E-01;  9.3683398E+03;
  1.5206157E+00;  9.9999998E-03; -5.0495837E-02;9113;  1.2906672E+00;  0.0000000E+00; -1.7778598E-02;  1.0010968E+03;  1.4638872E-01;  8.9582727E+02;3;  2.9122442E+01;  0.0000000E+00;  7.7834759E+00;0;  4.5032296E-01;  1.9122012E+04;  0.0000000E+00;  2.4515054E-01;  4.0000000E+04;  0.0000000E+00;  3.9079387E+04;  1.0454588E-01;  0.0000000E+00;  3.4577706E-01;  9.3353740E+03;
  1.5206157E+00;  9.9999998E-03;  5.0495986E-02;9123;  1.2906673E+00;  0.0000000E+00;  1.7780062E-02;  1.0010969E+03;  1.4638840E-01;  8.9582727E+02;3;  2.9121780E+01;  0.0000000E+00; -7.7833982E+00;0;  4.5032182E-01;  1.9122014E+04;  0.0000000E+00;  2.4514028E-01;  4.0000000E+04;  0.0000000E+00;  3.9079387E+04;  1.0454569E-01;  0.0000000E+00;  3.4577614E-01;  9.3353662E+03;
  1.5337117E+00;  9.9999998E-03; -1.0120326E-01;9166;  1.2964351E+00;  0.0000000E+00; -3.7173845E-02;  1.0006079E+03;  1.4196095E-01;  4.9504898E+02;3;  2.8434721E+01;  0.0000000E+00;  1.1309278E+01;0;  4.4432706E-01;  2.0317396E+04;  0.0000000E+00; -3.4214649E-02;  4.0000000E+04;  0.0000000E+00;  3.9082699E+04;  1.0203218E-01;  0.0000000E+00;  3.4229487E-01;  5.7500415E+03;
  1.5339214E+00;  9.9999998E-03; -9.1040008E-02;9167;  1.2943799E+00;  0.0000000E+00; -3.2761749E-02;  1.0004954E+03;  1.4193639E-01;  4.0339499E+02;3;  2.8953833E+01;  0.0000000E+00;  1.0861686E+01;0;  4.0908948E-01;  2.0322455E+04;  0.0000000E+00;  8.4629461E-02;  4.0000000E+04;  0.0000000E+00;  3.9078422E+04;  6.2006366E-02;  0.0000000E+00;  3.4708312E-01;  6.1120337E+03;
  1.5341115E+00;  9.9999998E-03; -8.0894321E-02;9168;  1.2925619E+00;  0.0000000E+00; -2.8615272E-02;  1.0004437E+03;  1.4191340E-01;  3.6125208E+02;3;  2.9193604E+01;  0.0000000E+00;  1.0157982E+01;0;  3.7779331E-01;  2.0328291E+04;  0.0000000E+00;  1.6489966E-01;  4.0000000E+04;  0.0000000E+00;  3.9074145E+04;  2.8319417E-02;  0.0000000E+00;  3.4947389E-01;  6.4935215E+03;
  1.5342702E+00;  9.9999998E-03; -7.0763864E-02;9169;  1.2909627E+00;  0.0000000E+00; -2.4661958E-02;  1.0004323E+03;  1.4189668E-01;  3.5192026E+02;3;  2.9505228E+01;  0.0000000E+00;  9.2293119E+00;0;  3.5045516E-01;  2.0333643E+04;  0.0000000E+00;  2.0367970E-01;  4.0000000E+04;  0.0000000E+00;  3.9070348E+04;  5.4375402E-04;  0.0000000E+00;  3.4991142E-01;  6.8585591E+03;
  1.5343932E+00;  9.9999998E-03; -6.0644049E-02;9170;  1.2895645E+00;  0.0000000E+00; -2.0858632E-02;  1.0004317E+03;  1.4188287E-01;  3.5142395E+02;3;  2.9989500E+01;  0.0000000E+00;  8.1610365E+00;0;  3.2696211E-01;  2.0337768E+04;  0.0000000E+00;  2.0566514E-01;  4.0000000E+04;  0.0000000E+00;  3.9066852E+04; -2.1893773E-02;  0.0000000E+00;  3.4885588E-01;  7.1826465E+03;
  1.5343932E+00;  9.9999998E-03;  6.0644202E-02;9182;  1.2895645E+00;  0.0000000E+00;  2.0860087E-02;  1.0004316E+03;  1.4188278E-01;  3.5132690E+02;3;  2.9988440E+01;  0.0000000E+00; -8.1610327E+00;0;  3.2696164E-01;  2.0337770E+04;  0.0000000E+00;  2.0565501E-01;  4.0000000E+04;  0.0000000E+00;  3.9066852E+04; -2.1894088E-02;  0.0000000E+00;  3.4885573E-01;  7.1825957E+03;
  1.5344815E+00;  9.9999998E-03; -5.0530404E-02;9171;  1.2883546E+00;  0.0000000E+00; -1.7173938E-02;  1.0004455E+03;  1.4187478E-01;  3.6267374E+02;3;  3.0308033E+01;  0.0000000E+00;  7.0057569E+00;0;  3.0718255E-01;  2.0340314E+04;  0.0000000E+00;  1.7978233E-01;  4.0000000E+04;  0.0000000E+00;  3.9064129E+04; -3.9606906E-02;  0.0000000E+00;  3.4678945E-01;  7.4494023E+03;
  1.5344815E+00;  9.9999998E-03;  5.0530557E-02;9181;  1.2883548E+00;  0.0000000E+00;  1.7175391E-02;  1.0004453E+03;  1.4187495E-01;  3.6257669E+02;3;  3.0307379E+01;  0.0000000E+00; -7.0056419E+00;0;  3.0718142E-01;  2.0340318E+04;  0.0000000E+00;  1.7977288E-01;  4.0000000E+04;  0.0000000E+00;  3.9064125E+04; -3.9607108E-02;  0.0000000E+00;  3.4678853E-01;  7.4494019E+03;
  1.5345379E+00;  9.9999998E-03; -4.0420830E-02;9172;  1.2873540E+00;  0.0000000E+00; -1.3602439E-02;  1.0004626E+03;  1.4186947E-01;  3.7664343E+02;3;  3.0638527E+01;  0.0000000E+00;  5.8363662E+00;0;  2.9103377E-01;  2.0341734E+04;  0.0000000E+00;  1.3666719E-01;  4.0000000E+04;  0.0000000E+00;  3.9062125E+04; -5.3170823E-02;  0.0000000E+00;  3.4420460E-01;  7.6505674E+03;
  1.5345379E+00;  9.9999998E-03;  4.0420983E-02;9180;  1.2873541E+00;  0.0000000E+00;  1.3603915E-02;  1.0004628E+03;  1.4186990E-01;  3.7674048E+02;3;  3.0637608E+01;  0.0000000E+00; -5.8362684E+00;0;  2.9103285E-01;  2.0341736E+04;  0.0000000E+00;  1.3665888E-01;  4.0000000E+04;  0.0000000E+00;  3.9062121E+04; -5.3171087E-02;  0.0000000E+00;  3.4420395E-01;  7.6505698E+03;
  1.5345707E+00;  9.9999998E-03; -3.0314153E-02;9173;  1.2865753E+00;  0.0000000E+00; -1.0146325E-02;  1.0004724E+03;  1.4186752E-01;  3.8459818E+02;3;  3.0857172E+01;  0.0000000E+00;  4.5203066E+00;0;  2.7845931E-01;  2.0342246E+04;  0.0000000E+00;  8.7329239E-02;  4.0000000E+04;  0.0000000E+00;  3.9060727E+04; -6.3123666E-02;  0.0000000E+00;  3.4158298E-01;  7.7860752E+03;
  1.5345707E+00;  9.9999998E-03;  3.0314306E-02;9179;  1.2865754E+00;  0.0000000E+00;  1.0147805E-02;  1.0004725E+03;  1.4186795E-01;  3.8469522E+02;3;  3.0857759E+01;  0.0000000E+00; -4.5203385E+00;0;  2.7845871E-01;  2.0342242E+04;  0.0000000E+00;  8.7323770E-02;  4.0000000E+04;  0.0000000E+00;  3.9060727E+04; -6.3123696E-02;  0.0000000E+00;  3.4158242E-01;  7.7860898E+03;
  1.5345932E+00;  9.9999998E-03; -1.0104396E-02;9175;  1.2856865E+00;  0.0000000E+00; -3.3960594E-03;  1.0004998E+03;  1.4186643E-01;  4.0681964E+02;3;  3.1205198E+01;  0.0000000E+00;  1.4272505E+00;0;  2.6404250E-01;  2.0342256E+04;  0.0000000E+00;  1.1180423E-02;  4.0000000E+04;  0.0000000E+00;  3.9059406E+04; -7.3830791E-02;  0.0000000E+00;  3.3787328E-01;  7.9032827E+03;
  1.5345948E+00;  9.9999998E-03;  7.7289315E-08;9176;  1.2855645E+00;  0.0000000E+00;  7.6352836E-07;  1.0005052E+03;  1.4186636E-01;  4.1128360E+02;3;  3.1259102E+01;  0.0000000E+00;  2.1237109E-05;0;  2.6223457E-01;  2.0342150E+04;  0.0000000E+00; -1.4875640E-10;  4.0000000E+04;  0.0000000E+00;  3.9059426E+04; -7.5118087E-02;  0.0000000E+00;  3.3735266E-01;  7.9141406E+03;
  1.5345932E+00;  9.9999998E-03;  1.0104551E-02;9177;  1.2856865E+00;  0.0000000E+00;  3.3975923E-03;  1.0004995E+03;  1.4186683E-01;  4.0662555E+02;3;  3.1203678E+01;  0.0000000E+00; -1.4271970E+00;0;  2.6404235E-01;  2.0342262E+04;  0.0000000E+00;  1.1178507E-02;  4.0000000E+04;  0.0000000E+00;  3.9059406E+04; -7.3830821E-02;  0.0000000E+00;  3.3787316E-01;  7.9032900E+03;
  1.5345863E+00;  9.9999998E-03; -2.0208800E-02;9174;  1.2860219E+00;  0.0000000E+00; -6.7704935E-03;  1.0004849E+03;  1.4186683E-01;  3.9468951E+02;3;  3.1030277E+01;  0.0000000E+00;  3.0334945E+00;0;  2.6946062E-01;  2.0342342E+04;  0.0000000E+00;  4.2421054E-02;  4.0000000E+04;  0.0000000E+00;  3.9059703E+04; -6.9897197E-02;  0.0000000E+00;  3.3935782E-01;  7.8653193E+03;
  1.5345863E+00;  9.9999998E-03;  2.0208953E-02;9178;  1.2860219E+00;  0.0000000E+00;  6.7720269E-03;  1.0004848E+03;  1.4186719E-01;  3.9468951E+02;3;  3.1029268E+01;  0.0000000E+00; -3.0333884E+00;0;  2.6946014E-01;  2.0342340E+04;  0.0000000E+00;  4.2417299E-02;  4.0000000E+04;  0.0000000E+00;  3.9059707E+04; -6.9897279E-02;  0.0000000E+00;  3.3935744E-01;  7.8653418E+03;
  1.5471722E+00;  9.9999998E-03; -1.0132241E-01;9223;  1.2943727E+00;  0.0000000E+00; -3.6762521E-02;  1.0000374E+03;  1.3805282E-01;  3.0268759E+01;3;  2.9535032E+01;  0.0000000E+00;  9.7631941E+00;0;  3.1893197E-01;  2.1469459E+04;  0.0000000E+00; -9.8353609E-02;  4.0000000E+04;  0.0000000E+00;  3.9065738E+04; -1.7941611E-02;  0.0000000E+00;  3.3687359E-01;  3.6180215E+03;
  1.5473356E+00;  9.9999998E-03; -9.1150835E-02;9224;  1.2921356E+00;  0.0000000E+00; -3.2241330E-02;  9.9985052E+02;  1.3803683E-01; -1.2126238E+02;3;  2.9771660E+01;  0.0000000E+00;  9.4899778E+00;0;  2.9372549E-01;  2.1468746E+04;  0.0000000E+00; -1.1832221E-02;  4.0000000E+04;  0.0000000E+00;  3.9062301E+04; -4.7449734E-02;  0.0000000E+00;  3.4117523E-01;  3.8845903E+03;
  1.5475029E+00;  9.9999998E-03; -8.0991007E-02;9225;  1.2902030E+00;  0.0000000E+00; -2.7980523E-02;  9.9975598E+02;  1.3802111E-01; -1.9793570E+02;3;  3.0179295E+01;  0.0000000E+00;  8.9026556E+00;0;  2.7080992E-01;  2.1471908E+04;  0.0000000E+00;  4.5996621E-02;  4.0000000E+04;  0.0000000E+00;  3.9057617E+04; -7.2397046E-02;  0.0000000E+00;  3.4320697E-01;  4.2620522E+03;
  1.5476608E+00;  9.9999998E-03; -7.0843831E-02;9226;  1.2885101E+00;  0.0000000E+00; -2.3957534E-02;  9.9973517E+02;  1.3800800E-01; -2.1479863E+02;3;  3.0702930E+01;  0.0000000E+00;  8.1303320E+00;0;  2.5031126E-01;  2.1476990E+04;  0.0000000E+00;  7.8211360E-02;  4.0000000E+04;  0.0000000E+00;  3.9052785E+04; -9.3061171E-02;  0.0000000E+00;  3.4337243E-01;  4.6940557E+03;
  1.5478028E+00;  9.9999998E-03; -6.0707495E-02;9227;  1.2870353E+00;  0.0000000E+00; -2.0142827E-02;  9.9975513E+02;  1.3799524E-01; -1.9859424E+02;3;  3.1193480E+01;  0.0000000E+00;  7.2519517E+00;0;  2.3227209E-01;  2.1482779E+04;  0.0000000E+00;  8.8225923E-02;  4.0000000E+04;  0.0000000E+00;  3.9048066E+04; -1.0983876E-01;  0.0000000E+00;  3.4211084E-01;  5.1369375E+03;
  1.5478028E+00;  9.9999998E-03;  6.0707647E-02;9239;  1.2870355E+00;  0.0000000E+00;  2.0144310E-02;  9.9975525E+02;  1.3799568E-01; -1.9849754E+02;3;  3.1192581E+01;  0.0000000E+00; -7.2518945E+00;0;  2.3227158E-01;  2.1482777E+04;  0.0000000E+00;  8.8220142E-02;  4.0000000E+04;  0.0000000E+00;  3.9048070E+04; -1.0983885E-01;  0.0000000E+00;  3.4211043E-01;  5.1369175E+03;
  1.5479226E+00;  9.9999998E-03; -5.0579440E-02;9228;  1.2857769E+00;  0.0000000E+00; -1.6512219E-02;  9.9979504E+02;  1.3798518E-01; -1.6624643E+02;3;  3.1572153E+01;  0.0000000E+00;  6.3016829E+00;0;  2.1674640E-01;  2.1488264E+04;  0.0000000E+00;  8.1487253E-02;  4.0000000E+04;  0.0000000E+00;  3.9043562E+04; -1.2314771E-01;  0.0000000E+00;  3.3989412E-01;  5.5563628E+03;
  1.5479226E+00;  9.9999998E-03;  5.0579593E-02;9238;  1.2857769E+00;  0.0000000E+00;  1.6513703E-02;  9.9979498E+02;  1.3798542E-01; -1.6629477E+02;3;  3.1571302E+01;  0.0000000E+00; -6.3016515E+00;0;  2.1674612E-01;  2.1488266E+04;  0.0000000E+00;  8.1483059E-02;  4.0000000E+04;  0.0000000E+00;  3.9043562E+04; -1.2314782E-01;  0.0000000E+00;  3.3989394E-01;  5.5563071E+03;
  1.5480163E+00;  9.9999998E-03; -4.0457617E-02;9229;  1.2847511E+00;  0.0000000E+00; -1.3046742E-02;  9.9984454E+02;  1.3797887E-01; -1.2607098E+02;3;  3.1881083E+01;  0.0000000E+00;  5.2643380E+00;0;  2.0381963E-01;  2.1493145E+04;  0.0000000E+00;  6.4077258E-02;  4.0000000E+04;  0.0000000E+00;  3.9039496E+04; -1.3339424E-01;  0.0000000E+00;  3.3721387E-01;  5.9252725E+03;
  1.5480163E+00;  9.9999998E-03;  4.0457770E-02;9237;  1.2847511E+00;  0.0000000E+00;  1.3048209E-02;  9.9984460E+02;  1.3797911E-01; -1.2602264E+02;3;  3.1882132E+01;  0.0000000E+00; -5.2644482E+00;0;  2.0381871E-01;  2.1493143E+04;  0.0000000E+00;  6.4072959E-02;  4.0000000E+04;  0.0000000E+00;  3.9039504E+04; -1.3339451E-01;  0.0000000E+00;  3.3721322E-01;  5.9252524E+03;
  1.5480841E+00;  9.9999998E-03; -3.0340225E-02;9230;  1.2839593E+00;  0.0000000E+00; -9.7122397E-03;  9.9989600E+02;  1.3797402E-01; -8.4351707E+01;3;  3.2144932E+01;  0.0000000E+00;  4.0218019E+00;0;  1.9359359E-01;  2.1496826E+04;  0.0000000E+00;  4.1948851E-02;  4.0000000E+04;  0.0000000E+00;  3.9036574E+04; -1.4094797E-01;  0.0000000E+00;  3.3454156E-01;  6.2237344E+03;
  1.5480841E+00;  9.9999998E-03;  3.0340377E-02;9236;  1.2839593E+00;  0.0000000E+00;  9.7137233E-03;  9.9989600E+02;  1.3797405E-01; -8.4351707E+01;3;  3.2145653E+01;  0.0000000E+00; -4.0218916E+00;0;  1.9359310E-01;  2.1496830E+04;  0.0000000E+00;  4.1947145E-02;  4.0000000E+04;  0.0000000E+00;  3.9036582E+04; -1.4094798E-01;  0.0000000E+00;  3.3454108E-01;  6.2237490E+03;
  1.5481561E+00;  9.9999998E-03; -1.0112270E-02;9232;  1.2830305E+00;  0.0000000E+00; -3.1902425E-03;  9.9996637E+02;  1.3797003E-01; -2.7262636E+01;3;  3.2507862E+01;  0.0000000E+00;  1.3091410E+00;0;  1.8166825E-01;  2.1501113E+04;  0.0000000E+00;  5.5303103E-03;  4.0000000E+04;  0.0000000E+00;  3.9033094E+04; -1.4913785E-01;  0.0000000E+00;  3.3080611E-01;  6.5688618E+03;
  1.5481561E+00;  9.9999998E-03;  1.0112424E-02;9234;  1.2830305E+00;  0.0000000E+00;  3.1917342E-03;  9.9996631E+02;  1.3797016E-01; -2.7310974E+01;3;  3.2508194E+01;  0.0000000E+00; -1.3091260E+00;0;  1.8166775E-01;  2.1501107E+04;  0.0000000E+00;  5.5301539E-03;  4.0000000E+04;  0.0000000E+00;  3.9033094E+04; -1.4913782E-01;  0.0000000E+00;  3.3080557E-01;  6.5688555E+03;
  1.5481292E+00;  9.9999998E-03; -2.0225475E-02;9231;  1.2833892E+00;  0.0000000E+00; -6.4343065E-03;  9.9994006E+02;  1.3797183E-01; -4.8628445E+01;3;  3.2384708E+01;  0.0000000E+00;  2.6065447E+00;0;  1.8617684E-01;  2.1499447E+04;  0.0000000E+00;  2.0746002E-02;  4.0000000E+04;  0.0000000E+00;  3.9034391E+04; -1.4611915E-01;  0.0000000E+00;  3.3229598E-01;  6.4397832E+03;
  1.5481292E+00;  9.9999998E-03;  2.0225629E-02;9235;  1.2833892E+00;  0.0000000E+00;  6.4358106E-03;  9.9994019E+02;  1.3797227E-01; -4.8531769E+01;3;  3.2383453E+01;  0.0000000E+00; -2.6064610E+00;0;  1.8617657E-01;  2.1499455E+04;  0.0000000E+00;  2.0745140E-02;  4.0000000E+04;  0.0000000E+00;  3.9034387E+04; -1.4611900E-01;  0.0000000E+00;  3.3229557E-01;  6.4397778E+03;
  1.5481648E+00;  9.9999998E-03;  7.7478546E-08;9233;  1.2829105E+00;  0.0000000E+00;  7.4483137E-07;  9.9997803E+02;  1.3796934E-01; -1.7836676E+01;3;  3.2543228E+01;  0.0000000E+00; -3.1662290E-05;0;  1.8015599E-01;  2.1501623E+04;  0.0000000E+00; -1.6106273E-10;  4.0000000E+04;  0.0000000E+00;  3.9032660E+04; -1.5012890E-01;  0.0000000E+00;  3.3028489E-01;  6.6116255E+03;
  1.5603675E+00;  9.9999998E-03; -1.0142502E-01;9280;  1.2921379E+00;  0.0000000E+00; -3.6093779E-02;  9.9964508E+02;  1.3467482E-01; -2.8666733E+02;3;  3.0533298E+01;  0.0000000E+00;  8.2168989E+00;0;  2.3371902E-01;  2.2558371E+04;  0.0000000E+00; -1.7620105E-01;  4.0000000E+04;  0.0000000E+00;  3.9037613E+04; -8.9047961E-02;  0.0000000E+00;  3.2276699E-01;  2.0592109E+03;
  1.5604668E+00;  9.9999998E-03; -9.1257788E-02;9281;  1.2897228E+00;  0.0000000E+00; -3.1602342E-02;  9.9935754E+02;  1.3467091E-01; -5.1887054E+02;3;  3.0916435E+01;  0.0000000E+00;  8.0297031E+00;0;  2.1568489E-01;  2.2548719E+04;  0.0000000E+00; -1.1677434E-01;  4.0000000E+04;  0.0000000E+00;  3.9036070E+04; -1.1141422E-01;  0.0000000E+00;  3.2709911E-01;  2.0915115E+03;
  1.5605853E+00;  9.9999998E-03; -8.1090510E-02;9282;  1.2876345E+00;  0.0000000E+00; -2.7299605E-02;  9.9918402E+02;  1.3466410E-01; -6.5896906E+02;3;  3.1380718E+01;  0.0000000E+00;  7.6750355E+00;0;  1.9883707E-01;  2.2545652E+04;  0.0000000E+00; -7.8111604E-02;  4.0000000E+04;  0.0000000E+00;  3.9032715E+04; -1.3053462E-01;  0.0000000E+00;  3.2937169E-01;  2.3376667E+03;
  1.5607185E+00;  9.9999998E-03; -7.0930071E-02;9283;  1.2858260E+00;  0.0000000E+00; -2.3246450E-02;  9.9911926E+02;  1.3465688E-01; -7.1120886E+02;3;  3.1922106E+01;  0.0000000E+00;  7.1112413E+00;0;  1.8331429E-01;  2.2547422E+04;  0.0000000E+00; -5.4189753E-02;  4.0000000E+04;  0.0000000E+00;  3.9028016E+04; -1.4656594E-01;  0.0000000E+00;  3.2988024E-01;  2.7297751E+03;
  1.5608561E+00;  9.9999998E-03; -6.0778365E-02;9284;  1.2842696E+00;  0.0000000E+00; -1.9443184E-02;  9.9912048E+02;  1.3464895E-01; -7.1021008E+02;3;  3.2365105E+01;  0.0000000E+00;  6.4111414E+00;0;  1.6927309E-01;  2.2552248E+04;  0.0000000E+00; -3.7256945E-02;  4.0000000E+04;  0.0000000E+00;  3.9022484E+04; -1.5973486E-01;  0.0000000E+00;  3.2900795E-01;  3.2044124E+03;
  1.5608561E+00;  9.9999998E-03;  6.0778521E-02;9296;  1.2842697E+00;  0.0000000E+00;  1.9444682E-02;  9.9912042E+02;  1.3464855E-01; -7.1025824E+02;3;  3.2364388E+01;  0.0000000E+00; -6.4111524E+00;0;  1.6927256E-01;  2.2552246E+04;  0.0000000E+00; -3.7257507E-02;  4.0000000E+04;  0.0000000E+00;  3.9022492E+04; -1.5973501E-01;  0.0000000E+00;  3.2900757E-01;  3.2044023E+03;
  1.5609885E+00;  9.9999998E-03; -5.0635077E-02;9285;  1.2829612E+00;  0.0000000E+00; -1.5870234E-02;  9.9916119E+02;  1.3464046E-01; -6.7730383E+02;3;  3.2742680E+01;  0.0000000E+00;  5.5976253E+00;0;  1.5687793E-01;  2.2558656E+04;  0.0000000E+00; -2.4588242E-02;  4.0000000E+04;  0.0000000E+00;  3.9017035E+04; -1.7030898E-01;  0.0000000E+00;  3.2718691E-01;  3.7063181E+03;
  1.5609885E+00;  9.9999998E-03;  5.0635234E-02;9295;  1.2829612E+00;  0.0000000E+00;  1.5871698E-02;  9.9916132E+02;  1.3464050E-01; -6.7720758E+02;3;  3.2743713E+01;  0.0000000E+00; -5.5976577E+00;0;  1.5687738E-01;  2.2558654E+04;  0.0000000E+00; -2.4588229E-02;  4.0000000E+04;  0.0000000E+00;  3.9017039E+04; -1.7030947E-01;  0.0000000E+00;  3.2718685E-01;  3.7063115E+03;
  1.5611054E+00;  9.9999998E-03; -4.0499657E-02;9286;  1.2819045E+00;  0.0000000E+00; -1.2498870E-02;  9.9923199E+02;  1.3463391E-01; -6.2010101E+02;3;  3.3081341E+01;  0.0000000E+00;  4.6447124E+00;0;  1.4632852E-01;  2.2565449E+04;  0.0000000E+00; -1.4964075E-02;  4.0000000E+04;  0.0000000E+00;  3.9011566E+04; -1.7855139E-01;  0.0000000E+00;  3.2487991E-01;  4.1877617E+03;
  1.5611054E+00;  9.9999998E-03;  4.0499814E-02;9294;  1.2819045E+00;  0.0000000E+00;  1.2500335E-02;  9.9923175E+02;  1.3463372E-01; -6.2029352E+02;3;  3.3080326E+01;  0.0000000E+00; -4.6446710E+00;0;  1.4632834E-01;  2.2565451E+04;  0.0000000E+00; -1.4962520E-02;  4.0000000E+04;  0.0000000E+00;  3.9011562E+04; -1.7855163E-01;  0.0000000E+00;  3.2487997E-01;  4.1877783E+03;
  1.5611981E+00;  9.9999998E-03; -3.0370086E-02;9287;  1.2810925E+00;  0.0000000E+00; -9.2685902E-03;  9.9929889E+02;  1.3462988E-01; -5.6608441E+02;3;  3.3380905E+01;  0.0000000E+00;  3.4736063E+00;0;  1.3783814E-01;  2.2571422E+04;  0.0000000E+00; -7.9100858E-03;  4.0000000E+04;  0.0000000E+00;  3.9007043E+04; -1.8469842E-01;  0.0000000E+00;  3.2253656E-01;  4.6076104E+03;
  1.5611981E+00;  9.9999998E-03;  3.0370241E-02;9293;  1.2810925E+00;  0.0000000E+00;  9.2700720E-03;  9.9929895E+02;  1.3462965E-01; -5.6603632E+02;3;  3.3381760E+01;  0.0000000E+00; -3.4736099E+00;0;  1.3783789E-01;  2.2571428E+04;  0.0000000E+00; -7.9074185E-03;  4.0000000E+04;  0.0000000E+00;  3.9007043E+04; -1.8469855E-01;  0.0000000E+00;  3.2253644E-01;  4.6075811E+03;
  1.5612639E+00;  9.9999998E-03; -2.0244656E-02;9288;  1.2805002E+00;  0.0000000E+00; -6.1061429E-03;  9.9935199E+02;  1.3462554E-01; -5.2319293E+02;3;  3.3610348E+01;  0.0000000E+00;  2.3166482E+00;0;  1.3160063E-01;  2.2576111E+04;  0.0000000E+00; -3.2701609E-03;  4.0000000E+04;  0.0000000E+00;  3.9003469E+04; -1.8894841E-01;  0.0000000E+00;  3.2054904E-01;  4.9320664E+03;
  1.5612639E+00;  9.9999998E-03;  2.0244813E-02;9292;  1.2805002E+00;  0.0000000E+00;  6.1076204E-03;  9.9935187E+02;  1.3462512E-01; -5.2328918E+02;3;  3.3608891E+01;  0.0000000E+00; -2.3166249E+00;0;  1.3160034E-01;  2.2576113E+04;  0.0000000E+00; -3.2680500E-03;  4.0000000E+04;  0.0000000E+00;  3.9003469E+04; -1.8894853E-01;  0.0000000E+00;  3.2054886E-01;  4.9320513E+03;
  1.5613031E+00;  9.9999998E-03; -1.0121712E-02;9289;  1.2801422E+00;  0.0000000E+00; -3.0296096E-03;  9.9939148E+02;  1.3462351E-01; -4.9128027E+02;3;  3.3720684E+01;  0.0000000E+00;  1.1703478E+00;0;  1.2778386E-01;  2.2579064E+04;  0.0000000E+00; -7.6795812E-04;  4.0000000E+04;  0.0000000E+00;  3.9001363E+04; -1.9144264E-01;  0.0000000E+00;  3.1922650E-01;  5.1364663E+03;
  1.5613031E+00;  9.9999998E-03;  1.0121869E-02;9291;  1.2801422E+00;  0.0000000E+00;  3.0310827E-03;  9.9939154E+02;  1.3462332E-01; -4.9123215E+02;3;  3.3721180E+01;  0.0000000E+00; -1.1703478E+00;0;  1.2778378E-01;  2.2579064E+04;  0.0000000E+00; -7.6649099E-04;  4.0000000E+04;  0.0000000E+00;  3.9001367E+04; -1.9144282E-01;  0.0000000E+00;  3.1922659E-01;  5.1364282E+03;
  1.5613165E+00;  9.9999998E-03;  7.8430595E-08;9290;  1.2800224E+00;  0.0000000E+00;  7.3286230E-07;  9.9940399E+02;  1.3462257E-01; -4.8117221E+02;3;  3.3756660E+01;  0.0000000E+00; -1.8959632E-05;0;  1.2649770E-01;  2.2579994E+04;  0.0000000E+00; -1.6197084E-10;  4.0000000E+04;  0.0000000E+00;  3.9000582E+04; -1.9226573E-01;  0.0000000E+00;  3.1876343E-01;  5.2060308E+03;
  1.5733632E+00;  9.9999998E-03; -1.0148403E-01;9336;  1.2897619E+00;  0.0000000E+00; -3.5001881E-02;  9.9945380E+02;  1.3176362E-01; -4.3884415E+02;3;  3.1577734E+01;  0.0000000E+00;  6.8342228E+00;0;  1.7248850E-01;  2.3582953E+04;  0.0000000E+00; -2.3969582E-01;  4.0000000E+04;  0.0000000E+00;  3.8994824E+04; -1.2989716E-01;  0.0000000E+00;  3.0238566E-01;  1.2590425E+03;
  1.5733941E+00;  9.9999998E-03; -9.1334231E-02;9337;  1.2871295E+00;  0.0000000E+00; -3.0734127E-02;  9.9904803E+02;  1.3176726E-01; -7.6480627E+02;3;  3.2054100E+01;  0.0000000E+00;  6.8077240E+00;0;  1.5929620E-01;  2.3562922E+04;  0.0000000E+00; -2.2190417E-01;  4.0000000E+04;  0.0000000E+00;  3.8996902E+04; -1.4765866E-01;  0.0000000E+00;  3.0695486E-01;  9.7062030E+02;
  1.5734496E+00;  9.9999998E-03; -8.1170574E-02;9338;  1.2848742E+00;  0.0000000E+00; -2.6540916E-02;  9.9876959E+02;  1.3176794E-01; -9.8851117E+02;3;  3.2528633E+01;  0.0000000E+00;  6.5670419E+00;0;  1.4666989E-01;  2.3550635E+04;  0.0000000E+00; -1.9037314E-01;  4.0000000E+04;  0.0000000E+00;  3.8996297E+04; -1.6315663E-01;  0.0000000E+00;  3.0982652E-01;  9.5065082E+02;
  1.5735317E+00;  9.9999998E-03; -7.1003906E-02;9339;  1.2829428E+00;  0.0000000E+00; -2.2539165E-02;  9.9861633E+02;  1.3176805E-01; -1.1115859E+03;3;  3.3025520E+01;  0.0000000E+00;  6.1394157E+00;0;  1.3472369E-01;  2.3545572E+04;  0.0000000E+00; -1.6451950E-01;  4.0000000E+04;  0.0000000E+00;  3.8993043E+04; -1.7638499E-01;  0.0000000E+00;  3.1110868E-01;  1.1591644E+03;
  1.5736359E+00;  9.9999998E-03; -6.0841490E-02;9340;  1.2813011E+00;  0.0000000E+00; -1.8778285E-02;  9.9856049E+02;  1.3176610E-01; -1.1564003E+03;3;  3.3481697E+01;  0.0000000E+00;  5.5506740E+00;0;  1.2361656E-01;  2.3545859E+04;  0.0000000E+00; -1.4049031E-01;  4.0000000E+04;  0.0000000E+00;  3.8988387E+04; -1.8744858E-01;  0.0000000E+00;  3.1106514E-01;  1.5347924E+03;
  1.5736359E+00;  9.9999998E-03;  6.0841642E-02;9352;  1.2813011E+00;  0.0000000E+00;  1.8779760E-02;  9.9856049E+02;  1.3176560E-01; -1.1564003E+03;3;  3.3482632E+01;  0.0000000E+00; -5.5508080E+00;0;  1.2361597E-01;  2.3545855E+04;  0.0000000E+00; -1.4048724E-01;  4.0000000E+04;  0.0000000E+00;  3.8988379E+04; -1.8744887E-01;  0.0000000E+00;  3.1106484E-01;  1.5347749E+03;
  1.5737513E+00;  9.9999998E-03; -5.0686236E-02;9341;  1.2799357E+00;  0.0000000E+00; -1.5266674E-02;  9.9857001E+02;  1.3176309E-01; -1.1486808E+03;3;  3.3873459E+01;  0.0000000E+00;  4.8522997E+00;0;  1.1356847E-01;  2.3550094E+04;  0.0000000E+00; -1.1224853E-01;  4.0000000E+04;  0.0000000E+00;  3.8982641E+04; -1.9648643E-01;  0.0000000E+00;  3.1005490E-01;  2.0060792E+03;
  1.5737513E+00;  9.9999998E-03;  5.0686393E-02;9351;  1.2799357E+00;  0.0000000E+00;  1.5268147E-02;  9.9856995E+02;  1.3176334E-01; -1.1487286E+03;3;  3.3870445E+01;  0.0000000E+00; -4.8521142E+00;0;  1.1356784E-01;  2.3550102E+04;  0.0000000E+00; -1.1224246E-01;  4.0000000E+04;  0.0000000E+00;  3.8982637E+04; -1.9648673E-01;  0.0000000E+00;  3.1005457E-01;  2.0060558E+03;
  1.5738649E+00;  9.9999998E-03; -4.0538795E-02;9342;  1.2788434E+00;  0.0000000E+00; -1.1992440E-02;  9.9861426E+02;  1.3175838E-01; -1.1130981E+03;3;  3.4211365E+01;  0.0000000E+00;  3.9958637E+00;0;  1.0483409E-01;  2.3556078E+04;  0.0000000E+00; -8.0437295E-02;  4.0000000E+04;  0.0000000E+00;  3.8976875E+04; -2.0364831E-01;  0.0000000E+00;  3.0848241E-01;  2.5040222E+03;
  1.5738649E+00;  9.9999998E-03;  4.0538952E-02;9350;  1.2788435E+00;  0.0000000E+00;  1.1993912E-02;  9.9861432E+02;  1.3175833E-01; -1.1130503E+03;3;  3.4212257E+01;  0.0000000E+00; -3.9958878E+00;0;  1.0483328E-01;  2.3556080E+04;  0.0000000E+00; -8.0430947E-02;  4.0000000E+04;  0.0000000E+00;  3.8976875E+04; -2.0364842E-01;  0.0000000E+00;  3.0848169E-01;  2.5040437E+03;
  1.5739634E+00;  9.9999998E-03; -3.0398311E-02;9343;  1.2780004E+00;  0.0000000E+00; -8.8527156E-03;  9.9867285E+02;  1.3175556E-01; -1.0659884E+03;3;  3.4525326E+01;  0.0000000E+00;  2.9791129E+00;0;  9.7681582E-02;  2.3562371E+04;  0.0000000E+00; -4.9239155E-02;  4.0000000E+04;  0.0000000E+00;  3.8971352E+04; -2.0907122E-01;  0.0000000E+00;  3.0675280E-01;  2.9666770E+03;
  1.5739634E+00;  9.9999998E-03;  3.0398468E-02;9349;  1.2780005E+00;  0.0000000E+00;  8.8541852E-03;  9.9867279E+02;  1.3175541E-01; -1.0660363E+03;3;  3.4526249E+01;  0.0000000E+00; -2.9791307E+00;0;  9.7680852E-02;  2.3562373E+04;  0.0000000E+00; -4.9233276E-02;  4.0000000E+04;  0.0000000E+00;  3.8971352E+04; -2.0907171E-01;  0.0000000E+00;  3.0675256E-01;  2.9666809E+03;
  1.5740358E+00;  9.9999998E-03; -2.0263094E-02;9344;  1.2773926E+00;  0.0000000E+00; -5.8245128E-03;  9.9872693E+02;  1.3175265E-01; -1.0225328E+03;3;  3.4690655E+01;  0.0000000E+00;  2.0313261E+00;0;  9.2366233E-02;  2.3567619E+04;  0.0000000E+00; -2.3180516E-02;  4.0000000E+04;  0.0000000E+00;  3.8967160E+04; -2.1286525E-01;  0.0000000E+00;  3.0523148E-01;  3.3407720E+03;
  1.5740358E+00;  9.9999998E-03;  2.0263251E-02;9348;  1.2773926E+00;  0.0000000E+00;  5.8259703E-03;  9.9872687E+02;  1.3175175E-01; -1.0225807E+03;3;  3.4691338E+01;  0.0000000E+00; -2.0313201E+00;0;  9.2365891E-02;  2.3567613E+04;  0.0000000E+00; -2.3176044E-02;  4.0000000E+04;  0.0000000E+00;  3.8967160E+04; -2.1286520E-01;  0.0000000E+00;  3.0523109E-01;  3.3407778E+03;
  1.5740921E+00;  9.9999998E-03;  7.8534988E-08;9346;  1.2769104E+00;  0.0000000E+00;  7.2413917E-07;  9.9877826E+02;  1.3175029E-01; -9.8124121E+02;3;  3.4833324E+01;  0.0000000E+00; -9.7997217E-06;0;  8.7987959E-02;  2.3572127E+04;  0.0000000E+00; -1.5349978E-10;  4.0000000E+04;  0.0000000E+00;  3.8963391E+04; -2.1584928E-01;  0.0000000E+00;  3.0383724E-01;  3.6681311E+03;
  1.5740784E+00;  9.9999998E-03; -1.0131145E-02;9345;  1.2770306E+00;  0.0000000E+00; -2.8882630E-03;  9.9876440E+02;  1.3175075E-01; -9.9240143E+02;3;  3.4796314E+01;  0.0000000E+00;  1.0287964E+00;0;  8.9092776E-02;  2.3571008E+04;  0.0000000E+00; -5.9897769E-03;  4.0000000E+04;  0.0000000E+00;  3.8964449E+04; -2.1510772E-01;  0.0000000E+00;  3.0420050E-01;  3.5838518E+03;
  1.5740784E+00;  9.9999998E-03;  1.0131301E-02;9347;  1.2770306E+00;  0.0000000E+00;  2.8897098E-03;  9.9876440E+02;  1.3175075E-01; -9.9240161E+02;3;  3.4796532E+01;  0.0000000E+00; -1.0288734E+00;0;  8.9092746E-02;  2.3571010E+04;  0.0000000E+00; -5.9872926E-03;  4.0000000E+04;  0.0000000E+00;  3.8964441E+04; -2.1510784E-01;  0.0000000E+00;  3.0420059E-01;  3.5838425E+03;
  1.5861884E+00;  9.9999998E-03; -8.1216358E-02;9393;  1.2819765E+00;  0.0000000E+00; -2.5585866E-02;  9.9853424E+02;  1.2926756E-01; -1.1703879E+03;3;  3.3602650E+01;  0.0000000E+00;  5.4353509E+00;0;  1.0498635E-01;  2.4490986E+04;  0.0000000E+00; -2.9168013E-01;  4.0000000E+04;  0.0000000E+00;  3.8945152E+04; -1.8102022E-01;  0.0000000E+00;  2.8600657E-01;  3.8703506E+02;
  1.5863072E+00;  9.9999998E-03; -5.0728280E-02;9396;  1.2767380E+00;  0.0000000E+00; -1.4667884E-02;  9.9804749E+02;  1.2928233E-01; -1.5589926E+03;3;  3.4916523E+01;  0.0000000E+00;  4.1236548E+00;0;  7.8578979E-02;  2.4466949E+04;  0.0000000E+00; -1.6695331E-01;  4.0000000E+04;  0.0000000E+00;  3.8938285E+04; -2.1077174E-01;  0.0000000E+00;  2.8935072E-01;  6.2442804E+02;
  1.5863072E+00;  9.9999998E-03;  5.0728440E-02;9406;  1.2767382E+00;  0.0000000E+00;  1.4669348E-02;  9.9804749E+02;  1.2928233E-01; -1.5589926E+03;3;  3.4917461E+01;  0.0000000E+00; -4.1237116E+00;0;  7.8578383E-02;  2.4466947E+04;  0.0000000E+00; -1.6694193E-01;  4.0000000E+04;  0.0000000E+00;  3.8938285E+04; -2.1077216E-01;  0.0000000E+00;  2.8935054E-01;  6.2442352E+02;
  1.5862416E+00;  9.9999998E-03; -6.0890555E-02;9395;  1.2781698E+00;  0.0000000E+00; -1.8077271E-02;  9.9811908E+02;  1.2927990E-01; -1.5018871E+03;3;  3.4541950E+01;  0.0000000E+00;  4.6379757E+00;0;  8.6758330E-02;  2.4468779E+04;  0.0000000E+00; -2.1163151E-01;  4.0000000E+04;  0.0000000E+00;  3.8942578E+04; -2.0253076E-01;  0.0000000E+00;  2.8928909E-01;  3.7296170E+02;
  1.5862416E+00;  9.9999998E-03;  6.0890712E-02;9407;  1.2781699E+00;  0.0000000E+00;  1.8078743E-02;  9.9811908E+02;  1.2927990E-01; -1.5018871E+03;3;  3.4540771E+01;  0.0000000E+00; -4.6379123E+00;0;  8.6757585E-02;  2.4468781E+04;  0.0000000E+00; -2.1162446E-01;  4.0000000E+04;  0.0000000E+00;  3.8942578E+04; -2.0253100E-01;  0.0000000E+00;  2.8928858E-01;  3.7295776E+02;
  1.5862005E+00;  9.9999998E-03; -7.1055263E-02;9394;  1.2799087E+00;  0.0000000E+00; -2.1738036E-02;  9.9827112E+02;  1.2927373E-01; -1.3805074E+03;3;  3.4088173E+01;  0.0000000E+00;  5.1106873E+00;0;  9.5624402E-02;  2.4476432E+04;  0.0000000E+00; -2.5442916E-01;  4.0000000E+04;  0.0000000E+00;  3.8945227E+04; -1.9262488E-01;  0.0000000E+00;  2.8824928E-01;  3.3308133E+02;
  1.5862012E+00;  9.9999998E-03; -9.1362685E-02;9392;  1.2844143E+00;  0.0000000E+00; -2.9508345E-02;  9.9891315E+02;  1.2926005E-01; -8.6782599E+02;3;  3.3114655E+01;  0.0000000E+00;  5.5776038E+00;0;  1.1473036E-01;  2.4513309E+04;  0.0000000E+00; -3.0240193E-01;  4.0000000E+04;  0.0000000E+00;  3.8942035E+04; -1.6777477E-01;  0.0000000E+00;  2.8250512E-01;  6.1370807E+02;
  1.5862201E+00;  9.9999998E-03; -1.0148147E-01;9391;  1.2872905E+00;  0.0000000E+00; -3.3304419E-02;  9.9939569E+02;  1.2925300E-01; -4.8254919E+02;3;  3.2653915E+01;  0.0000000E+00;  5.5422773E+00;0;  1.2480979E-01;  2.4542172E+04;  0.0000000E+00; -2.2752498E-01;  4.0000000E+04;  0.0000000E+00;  3.8935367E+04; -1.5314750E-01;  0.0000000E+00;  2.7795729E-01;  1.2115481E+03;
  1.5863843E+00;  9.9999998E-03; -4.0571950E-02;9397;  1.2756062E+00;  0.0000000E+00; -1.1494970E-02;  9.9804492E+02;  1.2928468E-01; -1.5609761E+03;3;  3.5295620E+01;  0.0000000E+00;  3.3070343E+00;0;  7.1346000E-02;  2.4468688E+04;  0.0000000E+00; -1.1955450E-01;  4.0000000E+04;  0.0000000E+00;  3.8932969E+04; -2.1740527E-01;  0.0000000E+00;  2.8875127E-01;  1.0097437E+03;
  1.5863843E+00;  9.9999998E-03;  4.0572111E-02;9405;  1.2756062E+00;  0.0000000E+00;  1.1496429E-02;  9.9804474E+02;  1.2928493E-01; -1.5611189E+03;3;  3.5294415E+01;  0.0000000E+00; -3.3070729E+00;0;  7.1345434E-02;  2.4468678E+04;  0.0000000E+00; -1.1954451E-01;  4.0000000E+04;  0.0000000E+00;  3.8932969E+04; -2.1740551E-01;  0.0000000E+00;  2.8875095E-01;  1.0097316E+03;
  1.5864600E+00;  9.9999998E-03; -3.0421982E-02;9398;  1.2747253E+00;  0.0000000E+00; -8.4610144E-03;  9.9807379E+02;  1.2928586E-01; -1.5378342E+03;3;  3.5577023E+01;  0.0000000E+00;  2.5432651E+00;0;  6.5331370E-02;  2.4472264E+04;  0.0000000E+00; -7.3378332E-02;  4.0000000E+04;  0.0000000E+00;  3.8928051E+04; -2.2249773E-01;  0.0000000E+00;  2.8782910E-01;  1.4174285E+03;
  1.5864600E+00;  9.9999998E-03;  3.0422138E-02;9404;  1.2747254E+00;  0.0000000E+00;  8.4624719E-03;  9.9807379E+02;  1.2928547E-01; -1.5378342E+03;3;  3.5575596E+01;  0.0000000E+00; -2.5432096E+00;0;  6.5330967E-02;  2.4472262E+04;  0.0000000E+00; -7.3369533E-02;  4.0000000E+04;  0.0000000E+00;  3.8928059E+04; -2.2249787E-01;  0.0000000E+00;  2.8782883E-01;  1.4174252E+03;
  1.5865541E+00;  9.9999998E-03; -1.0138505E-02;9400;  1.2737337E+00;  0.0000000E+00; -2.7552645E-03;  9.9814362E+02;  1.2928772E-01; -1.4820364E+03;3;  3.5903137E+01;  0.0000000E+00;  8.7080783E-01;0;  5.8012217E-02;  2.4478645E+04;  0.0000000E+00; -8.9758057E-03;  4.0000000E+04;  0.0000000E+00;  3.8920758E+04; -2.2823885E-01;  0.0000000E+00;  2.8625107E-01;  2.0053595E+03;
  1.5865643E+00;  9.9999998E-03;  7.8849411E-08;9401;  1.2736109E+00;  0.0000000E+00;  7.1817618E-07;  9.9815338E+02;  1.2928763E-01; -1.4742244E+03;3;  3.5943310E+01;  0.0000000E+00; -1.5826437E-05;0;  5.7066172E-02;  2.4479408E+04;  0.0000000E+00; -1.3911353E-10;  4.0000000E+04;  0.0000000E+00;  3.8919984E+04; -2.2894943E-01;  0.0000000E+00;  2.8601560E-01;  2.0888528E+03;
  1.5865541E+00;  9.9999998E-03;  1.0138663E-02;9402;  1.2737337E+00;  0.0000000E+00;  2.7566992E-03;  9.9814368E+02;  1.2928799E-01; -1.4819889E+03;3;  3.5903358E+01;  0.0000000E+00; -8.7084019E-01;0;  5.8012038E-02;  2.4478643E+04;  0.0000000E+00; -8.9722211E-03;  4.0000000E+04;  0.0000000E+00;  3.8920754E+04; -2.2823882E-01;  0.0000000E+00;  2.8625086E-01;  2.0053461E+03;
  1.5865194E+00;  9.9999998E-03; -2.0278150E-02;9399;  1.2741035E+00;  0.0000000E+00; -5.5594379E-03;  9.9810840E+02;  1.2928607E-01; -1.5101866E+03;3;  3.5778019E+01;  0.0000000E+00;  1.7328295E+00;0;  6.0813099E-02;  2.4475930E+04;  0.0000000E+00; -3.4654677E-02;  4.0000000E+04;  0.0000000E+00;  3.8923766E+04; -2.2609621E-01;  0.0000000E+00;  2.8690931E-01;  1.7687297E+03;
  1.5865194E+00;  9.9999998E-03;  2.0278309E-02;9403;  1.2741036E+00;  0.0000000E+00;  5.5608810E-03;  9.9810840E+02;  1.2928607E-01; -1.5101866E+03;3;  3.5778450E+01;  0.0000000E+00; -1.7328538E+00;0;  6.0813054E-02;  2.4475934E+04;  0.0000000E+00; -3.4648787E-02;  4.0000000E+04;  0.0000000E+00;  3.8923766E+04; -2.2609641E-01;  0.0000000E+00;  2.8690946E-01;  1.7687427E+03;
  1.5988178E+00;  9.9999998E-03;  7.9075278E-08;9455;  1.2701910E+00;  0.0000000E+00;  7.1124776E-07;  9.9755750E+02;  1.2717086E-01; -1.9363660E+03;3;  3.6904457E+01;  0.0000000E+00; -4.2475614E-05;0;  3.0166194E-02;  2.5308781E+04;  0.0000000E+00; -1.1540638E-10;  4.0000000E+04;  0.0000000E+00;  3.8867344E+04; -2.3533921E-01;  0.0000000E+00;  2.6550540E-01;  6.5719415E+02;
  1.5988166E+00;  9.9999998E-03; -1.0144747E-02;9454;  1.2703167E+00;  0.0000000E+00; -2.6186679E-03;  9.9755621E+02;  1.2717004E-01; -1.9374070E+03;3;  3.6864620E+01;  0.0000000E+00;  7.2858274E-01;0;  3.0957520E-02;  2.5308562E+04;  0.0000000E+00; -9.9317897E-03;  4.0000000E+04;  0.0000000E+00;  3.8868039E+04; -2.3463792E-01;  0.0000000E+00;  2.6559544E-01;  5.8915179E+02;
  1.5988166E+00;  9.9999998E-03;  1.0144905E-02;9456;  1.2703167E+00;  0.0000000E+00;  2.6200986E-03;  9.9755627E+02;  1.2717004E-01; -1.9373597E+03;3;  3.6864826E+01;  0.0000000E+00; -7.2861201E-01;0;  3.0957580E-02;  2.5308562E+04;  0.0000000E+00; -9.9284071E-03;  4.0000000E+04;  0.0000000E+00;  3.8868039E+04; -2.3463795E-01;  0.0000000E+00;  2.6559553E-01;  5.8916235E+02;
  1.5987549E+00;  9.9999998E-03; -4.0595215E-02;9451;  1.2722476E+00;  0.0000000E+00; -1.0961268E-02;  9.9760443E+02;  1.2715569E-01; -1.8992510E+03;3;  3.6260769E+01;  0.0000000E+00;  2.7475584E+00;0;  4.2021111E-02;  2.5310480E+04;  0.0000000E+00; -1.4241770E-01;  4.0000000E+04;  0.0000000E+00;  3.8877598E+04; -2.2405939E-01;  0.0000000E+00;  2.6608050E-01;  2.1338866E+02;
  1.5987549E+00;  9.9999998E-03;  4.0595371E-02;9459;  1.2722476E+00;  0.0000000E+00;  1.0962728E-02;  9.9760443E+02;  1.2715569E-01; -1.8992510E+03;3;  3.6259350E+01;  0.0000000E+00; -2.7474809E+00;0;  4.2020723E-02;  2.5310473E+04;  0.0000000E+00; -1.4240631E-01;  4.0000000E+04;  0.0000000E+00;  3.8877598E+04; -2.2405957E-01;  0.0000000E+00;  2.6608029E-01;  2.1337729E+02;
  1.5988054E+00;  9.9999998E-03; -2.0290755E-02;9453;  1.2706963E+00;  0.0000000E+00; -5.2971845E-03;  9.9755798E+02;  1.2716591E-01; -1.9360028E+03;3;  3.6738720E+01;  0.0000000E+00;  1.4377458E+00;0;  3.3298671E-02;  2.5308453E+04;  0.0000000E+00; -3.8885336E-02;  4.0000000E+04;  0.0000000E+00;  3.8870586E+04; -2.3252982E-01;  0.0000000E+00;  2.6582849E-01;  4.0340405E+02;
  1.5988054E+00;  9.9999998E-03;  2.0290913E-02;9457;  1.2706963E+00;  0.0000000E+00;  5.2986192E-03;  9.9755811E+02;  1.2716649E-01; -1.9359083E+03;3;  3.6739182E+01;  0.0000000E+00; -1.4377667E+00;0;  3.3298746E-02;  2.5308453E+04;  0.0000000E+00; -3.8878672E-02;  4.0000000E+04;  0.0000000E+00;  3.8870582E+04; -2.3253007E-01;  0.0000000E+00;  2.6582882E-01;  4.0340668E+02;
  1.5987821E+00;  9.9999998E-03; -3.0440381E-02;9452;  1.2713362E+00;  0.0000000E+00; -8.0615217E-03;  9.9756415E+02;  1.2716131E-01; -1.9311635E+03;3;  3.6534851E+01;  0.0000000E+00;  2.1234441E+00;0;  3.7058428E-02;  2.5308625E+04;  0.0000000E+00; -8.4374927E-02;  4.0000000E+04;  0.0000000E+00;  3.8873891E+04; -2.2900687E-01;  0.0000000E+00;  2.6606530E-01;  1.6616902E+02;
  1.5987821E+00;  9.9999998E-03;  3.0440539E-02;9458;  1.2713362E+00;  0.0000000E+00;  8.0629550E-03;  9.9756421E+02;  1.2716118E-01; -1.9311162E+03;3;  3.6537773E+01;  0.0000000E+00; -2.1235290E+00;0;  3.7058443E-02;  2.5308633E+04;  0.0000000E+00; -8.4366381E-02;  4.0000000E+04;  0.0000000E+00;  3.8873895E+04; -2.2900710E-01;  0.0000000E+00;  2.6606554E-01;  1.6614685E+02;
  1.5987374E+00;  9.9999998E-03; -5.0754864E-02;9450;  1.2734388E+00;  0.0000000E+00; -1.4019774E-02;  9.9769611E+02;  1.2714869E-01; -1.8265917E+03;3;  3.5902851E+01;  0.0000000E+00;  3.3269997E+00;0;  4.7929823E-02;  2.5315955E+04;  0.0000000E+00; -2.0848931E-01;  4.0000000E+04;  0.0000000E+00;  3.8880410E+04; -2.1767837E-01;  0.0000000E+00;  2.6560819E-01;  4.2643921E+02;
  1.5987374E+00;  9.9999998E-03;  5.0755024E-02;9460;  1.2734389E+00;  0.0000000E+00;  1.4021237E-02;  9.9769604E+02;  1.2714884E-01; -1.8266389E+03;3;  3.5905956E+01;  0.0000000E+00; -3.3270888E+00;0;  4.7929168E-02;  2.5315955E+04;  0.0000000E+00; -2.0847897E-01;  4.0000000E+04;  0.0000000E+00;  3.8880410E+04; -2.1767867E-01;  0.0000000E+00;  2.6560783E-01;  4.2644727E+02;
  1.5987405E+00;  9.9999998E-03; -6.0916871E-02;9449;  1.2749313E+00;  0.0000000E+00; -1.7242486E-02;  9.9787054E+02;  1.2714081E-01; -1.6882697E+03;3;  3.5537514E+01;  0.0000000E+00;  3.7859025E+00;0;  5.4538444E-02;  2.5326371E+04;  0.0000000E+00; -2.7929983E-01;  4.0000000E+04;  0.0000000E+00;  3.8882172E+04; -2.0985816E-01;  0.0000000E+00;  2.6439661E-01;  5.2961975E+02;
  1.5987405E+00;  9.9999998E-03;  6.0917027E-02;9461;  1.2749312E+00;  0.0000000E+00;  1.7243950E-02;  9.9787073E+02;  1.2714048E-01; -1.6881278E+03;3;  3.5538475E+01;  0.0000000E+00; -3.7860146E+00;0;  5.4537848E-02;  2.5326373E+04;  0.0000000E+00; -2.7929232E-01;  4.0000000E+04;  0.0000000E+00;  3.8882172E+04; -2.0985843E-01;  0.0000000E+00;  2.6439628E-01;  5.2962878E+02;
  1.5987718E+00;  9.9999998E-03; -7.1075201E-02;9448;  1.2767830E+00;  0.0000000E+00; -2.0698804E-02;  9.9813672E+02;  1.2713213E-01; -1.4772427E+03;3;  3.5108891E+01;  0.0000000E+00;  4.0364127E+00;0;  6.1643749E-02;  2.5343264E+04;  0.0000000E+00; -3.4507468E-01;  4.0000000E+04;  0.0000000E+00;  3.8881391E+04; -2.0062956E-01;  0.0000000E+00;  2.6227331E-01;  4.6645987E+02;
  1.5989108E+00;  9.9999998E-03; -1.0142194E-01;9445;  1.2847818E+00;  0.0000000E+00; -3.0781263E-02;  9.9944684E+02;  1.2710576E-01; -4.3853729E+02;3;  3.3729183E+01;  0.0000000E+00;  4.4534030E+00;0;  8.5079953E-02;  2.5430555E+04;  0.0000000E+00; -4.6845738E-02;  4.0000000E+04;  0.0000000E+00;  3.8859020E+04; -1.6661157E-01;  0.0000000E+00;  2.5169152E-01;  1.8404323E+03;
  1.5988261E+00;  9.9999998E-03; -8.1219770E-02;9447;  1.2790060E+00;  0.0000000E+00; -2.4250139E-02;  9.9849255E+02;  1.2712017E-01; -1.1950896E+03;3;  3.4630062E+01;  0.0000000E+00;  4.2398653E+00;0;  6.9117948E-02;  2.5367156E+04;  0.0000000E+00; -3.7784287E-01;  4.0000000E+04;  0.0000000E+00;  3.8877410E+04; -1.9012554E-01;  0.0000000E+00;  2.5924349E-01;  3.7278107E+02;
  1.5988834E+00;  9.9999998E-03; -9.1338687E-02;9446;  1.2816464E+00;  0.0000000E+00; -2.7695695E-02;  9.9893903E+02;  1.2711109E-01; -8.4108356E+02;3;  3.4170902E+01;  0.0000000E+00;  4.3318233E+00;0;  7.6922774E-02;  2.5396977E+04;  0.0000000E+00; -3.1591833E-01;  4.0000000E+04;  0.0000000E+00;  3.8869883E+04; -1.7862880E-01;  0.0000000E+00;  2.5555158E-01;  8.4613434E+02;
  1.6109538E+00;  9.9999998E-03;  7.9548713E-08;9508;  1.2667412E+00;  0.0000000E+00;  7.1218977E-07;  9.9711047E+02;  1.2535405E-01; -2.2722871E+03;3;  3.7720612E+01;  0.0000000E+00; -1.9232792E-05;0;  5.5205375E-03;  2.6070861E+04;  0.0000000E+00; -9.4214803E-11;  4.0000000E+04;  0.0000000E+00;  3.8801730E+04; -2.3684147E-01;  0.0000000E+00;  2.4236201E-01;  4.0070047E+02;
  1.6109626E+00;  9.9999998E-03; -1.0152727E-02;9507;  1.2668691E+00;  0.0000000E+00; -2.4768512E-03;  9.9712170E+02;  1.2535073E-01; -2.2634607E+03;3;  3.7676205E+01;  0.0000000E+00;  5.8170176E-01;0;  6.1600357E-03;  2.6071885E+04;  0.0000000E+00; -1.1645199E-02;  4.0000000E+04;  0.0000000E+00;  3.8802332E+04; -2.3614284E-01;  0.0000000E+00;  2.4230288E-01;  4.4205966E+02;
  1.6109625E+00;  9.9999998E-03;  1.0152887E-02;9509;  1.2668691E+00;  0.0000000E+00;  2.4782745E-03;  9.9712170E+02;  1.2535073E-01; -2.2634607E+03;3;  3.7676220E+01;  0.0000000E+00; -5.8177519E-01;0;  6.1600804E-03;  2.6071879E+04;  0.0000000E+00; -1.1642157E-02;  4.0000000E+04;  0.0000000E+00;  3.8802328E+04; -2.3614275E-01;  0.0000000E+00;  2.4230283E-01;  4.4204907E+02;
  1.6109792E+00;  9.9999998E-03; -2.0303806E-02;9506;  1.2672584E+00;  0.0000000E+00; -5.0057331E-03;  9.9715881E+02;  1.2534566E-01; -2.2342327E+03;3;  3.7557728E+01;  0.0000000E+00;  1.1480237E+00;0;  8.0523342E-03;  2.6075045E+04;  0.0000000E+00; -4.6646208E-02;  4.0000000E+04;  0.0000000E+00;  3.8803930E+04; -2.3405063E-01;  0.0000000E+00;  2.4210297E-01;  5.4989392E+02;
  1.6109792E+00;  9.9999998E-03;  2.0303965E-02;9510;  1.2672584E+00;  0.0000000E+00;  5.0071636E-03;  9.9715869E+02;  1.2534539E-01; -2.2343264E+03;3;  3.7555668E+01;  0.0000000E+00; -1.1480716E+00;0;  8.0521852E-03;  2.6075043E+04;  0.0000000E+00; -4.6640616E-02;  4.0000000E+04;  0.0000000E+00;  3.8803926E+04; -2.3405086E-01;  0.0000000E+00;  2.4210304E-01;  5.4988879E+02;
  1.6109993E+00;  9.9999998E-03; -3.0455152E-02;9505;  1.2679197E+00;  0.0000000E+00; -7.6306034E-03;  9.9723444E+02;  1.2533863E-01; -2.1747209E+03;3;  3.7351784E+01;  0.0000000E+00;  1.7030525E+00;0;  1.1078537E-02;  2.6080064E+04;  0.0000000E+00; -1.0470231E-01;  4.0000000E+04;  0.0000000E+00;  3.8805566E+04; -2.3057267E-01;  0.0000000E+00;  2.4165121E-01;  6.8060089E+02;
  1.6109992E+00;  9.9999998E-03;  3.0455312E-02;9511;  1.2679197E+00;  0.0000000E+00;  7.6320409E-03;  9.9723450E+02;  1.2533858E-01; -2.1746741E+03;3;  3.7352337E+01;  0.0000000E+00; -1.7030978E+00;0;  1.1078224E-02;  2.6080070E+04;  0.0000000E+00; -1.0469281E-01;  4.0000000E+04;  0.0000000E+00;  3.8805570E+04; -2.3057315E-01;  0.0000000E+00;  2.4165137E-01;  6.8059174E+02;
  1.6110309E+00;  9.9999998E-03; -4.0609669E-02;9504;  1.2688655E+00;  0.0000000E+00; -1.0370122E-02;  9.9735187E+02;  1.2532936E-01; -2.0823376E+03;3;  3.7085827E+01;  0.0000000E+00;  2.2006202E+00;0;  1.5043974E-02;  2.6088838E+04;  0.0000000E+00; -1.8442410E-01;  4.0000000E+04;  0.0000000E+00;  3.8807129E+04; -2.2572404E-01;  0.0000000E+00;  2.4076802E-01;  7.7294067E+02;
  1.6110309E+00;  9.9999998E-03;  4.0609825E-02;9512;  1.2688655E+00;  0.0000000E+00;  1.0371569E-02;  9.9735187E+02;  1.2532936E-01; -2.0823376E+03;3;  3.7086624E+01;  0.0000000E+00; -2.2006476E+00;0;  1.5043706E-02;  2.6088836E+04;  0.0000000E+00; -1.8441159E-01;  4.0000000E+04;  0.0000000E+00;  3.8807133E+04; -2.2572444E-01;  0.0000000E+00;  2.4076815E-01;  7.7294720E+02;
  1.6110853E+00;  9.9999998E-03; -5.0766088E-02;9503;  1.2701142E+00;  0.0000000E+00; -1.3244711E-02;  9.9754285E+02;  1.2531888E-01; -1.9320905E+03;3;  3.6749413E+01;  0.0000000E+00;  2.6422870E+00;0;  1.9731924E-02;  2.6102566E+04;  0.0000000E+00; -2.8216660E-01;  4.0000000E+04;  0.0000000E+00;  3.8807168E+04; -2.1953589E-01;  0.0000000E+00;  2.3926781E-01;  7.6171912E+02;
  1.6110853E+00;  9.9999998E-03;  5.0766245E-02;9513;  1.2701143E+00;  0.0000000E+00;  1.3246164E-02;  9.9754315E+02;  1.2531869E-01; -1.9318561E+03;3;  3.6750298E+01;  0.0000000E+00; -2.6423268E+00;0;  1.9731522E-02;  2.6102570E+04;  0.0000000E+00; -2.8215155E-01;  4.0000000E+04;  0.0000000E+00;  3.8807168E+04; -2.1953620E-01;  0.0000000E+00;  2.3926772E-01;  7.6171399E+02;
  1.6111650E+00;  9.9999998E-03; -6.0920004E-02;9502;  1.2716891E+00;  0.0000000E+00; -1.6228918E-02;  9.9780890E+02;  1.2530638E-01; -1.7228190E+03;3;  3.6363712E+01;  0.0000000E+00;  3.0329344E+00;0;  2.4960920E-02;  2.6121875E+04;  0.0000000E+00; -3.8599455E-01;  4.0000000E+04;  0.0000000E+00;  3.8805035E+04; -2.1209131E-01;  0.0000000E+00;  2.3705223E-01;  6.0102203E+02;
  1.6111650E+00;  9.9999998E-03;  6.0920160E-02;9514;  1.2716893E+00;  0.0000000E+00;  1.6230378E-02;  9.9780890E+02;  1.2530638E-01; -1.7228190E+03;3;  3.6362377E+01;  0.0000000E+00; -3.0329638E+00;0;  2.4960101E-02;  2.6121865E+04;  0.0000000E+00; -3.8598341E-01;  4.0000000E+04;  0.0000000E+00;  3.8805031E+04; -2.1209182E-01;  0.0000000E+00;  2.3705192E-01;  6.0102325E+02;
  1.6112663E+00;  9.9999998E-03; -7.1062393E-02;9501;  1.2736475E+00;  0.0000000E+00; -1.9303977E-02;  9.9815570E+02;  1.2529407E-01; -1.4500031E+03;3;  3.5994392E+01;  0.0000000E+00;  3.1522167E+00;0;  3.0605346E-02;  2.6147125E+04;  0.0000000E+00; -4.6210322E-01;  4.0000000E+04;  0.0000000E+00;  3.8800191E+04; -2.0357515E-01;  0.0000000E+00;  2.3418050E-01;  3.6040564E+02;
  1.6114274E+00;  9.9999998E-03; -1.0132027E-01;9498;  1.2822918E+00;  0.0000000E+00; -2.7439404E-02;  9.9948944E+02;  1.2527600E-01; -4.0137280E+02;3;  3.4658562E+01;  0.0000000E+00;  3.7341747E+00;0;  4.9982682E-02;  2.6243328E+04;  0.0000000E+00;  4.7233081E-01;  4.0000000E+04;  0.0000000E+00;  3.8768055E+04; -1.7539589E-01;  0.0000000E+00;  2.2537857E-01;  2.9721877E+03;
  1.6113671E+00;  9.9999998E-03; -8.1182279E-02;9500;  1.2760385E+00;  0.0000000E+00; -2.2374764E-02;  9.9857471E+02;  1.2528476E-01; -1.1204816E+03;3;  3.5547966E+01;  0.0000000E+00;  3.2382383E+00;0;  3.6632285E-02;  2.6177486E+04;  0.0000000E+00; -4.3916661E-01;  4.0000000E+04;  0.0000000E+00;  3.8792266E+04; -1.9429776E-01;  0.0000000E+00;  2.3093005E-01;  6.9519312E+02;
  1.6114298E+00;  9.9999998E-03; -9.1270737E-02;9499;  1.2789023E+00;  0.0000000E+00; -2.5166823E-02;  9.9903143E+02;  1.2527752E-01; -7.6141681E+02;3;  3.5092350E+01;  0.0000000E+00;  3.4161310E+00;0;  4.3088391E-02;  2.6210617E+04;  0.0000000E+00; -1.9193123E-01;  4.0000000E+04;  0.0000000E+00;  3.8781012E+04; -1.8471360E-01;  0.0000000E+00;  2.2780199E-01;  1.6206812E+03;
  1.6230466E+00;  9.9999998E-03; -1.0162596E-02;9559;  1.2634659E+00;  0.0000000E+00; -2.3227669E-03;  9.9685645E+02;  1.2379219E-01; -2.4489114E+03;3;  3.8376583E+01;  0.0000000E+00;  4.5145723E-01;0; -1.7110825E-02;  2.6776281E+04;  0.0000000E+00; -1.8547123E-02;  4.0000000E+04;  0.0000000E+00;  3.8720105E+04; -2.3359436E-01;  0.0000000E+00;  2.1648353E-01;  9.2052185E+02;
  1.6230249E+00;  9.9999998E-03;  7.9946041E-08;9560;  1.2633345E+00;  0.0000000E+00;  7.1106410E-07;  9.9682898E+02;  1.2379564E-01; -2.4703621E+03;3;  3.8415878E+01;  0.0000000E+00; -4.0659448E-05;0; -1.7596260E-02;  2.6773957E+04;  0.0000000E+00; -6.6357982E-11;  4.0000000E+04;  0.0000000E+00;  3.8719992E+04; -2.3428391E-01;  0.0000000E+00;  2.1668765E-01;  9.1035699E+02;
  1.6230466E+00;  9.9999998E-03;  1.0162755E-02;9561;  1.2634659E+00;  0.0000000E+00;  2.3241886E-03;  9.9685638E+02;  1.2379219E-01; -2.4489578E+03;3;  3.8376713E+01;  0.0000000E+00; -4.5149177E-01;0; -1.7111003E-02;  2.6776277E+04;  0.0000000E+00; -1.8544411E-02;  4.0000000E+04;  0.0000000E+00;  3.8720105E+04; -2.3359458E-01;  0.0000000E+00;  2.1648358E-01;  9.2052484E+02;
  1.6231011E+00;  9.9999998E-03; -2.0320138E-02;9558;  1.2638670E+00;  0.0000000E+00; -4.6919356E-03;  9.9693463E+02;  1.2378538E-01; -2.3878816E+03;3;  3.8264595E+01;  0.0000000E+00;  8.8244379E-01;0; -1.5677392E-02;  2.6782879E+04;  0.0000000E+00; -7.4469745E-02;  4.0000000E+04;  0.0000000E+00;  3.8720395E+04; -2.3154132E-01;  0.0000000E+00;  2.1586393E-01;  9.3548199E+02;
  1.6231011E+00;  9.9999998E-03;  2.0320298E-02;9562;  1.2638670E+00;  0.0000000E+00;  4.6933601E-03;  9.9693475E+02;  1.2378541E-01; -2.3877886E+03;3;  3.8267159E+01;  0.0000000E+00; -8.8251823E-01;0; -1.5677467E-02;  2.6782877E+04;  0.0000000E+00; -7.4463852E-02;  4.0000000E+04;  0.0000000E+00;  3.8720395E+04; -2.3154144E-01;  0.0000000E+00;  2.1586397E-01;  9.3548279E+02;
  1.6231776E+00;  9.9999998E-03; -3.0473355E-02;9557;  1.2645559E+00;  0.0000000E+00; -7.1418029E-03;  9.9708575E+02;  1.2377822E-01; -2.2700317E+03;3;  3.8075314E+01;  0.0000000E+00;  1.2836171E+00;0; -1.3387501E-02;  2.6793795E+04;  0.0000000E+00; -1.6790454E-01;  4.0000000E+04;  0.0000000E+00;  3.8720305E+04; -2.2815874E-01;  0.0000000E+00;  2.1477124E-01;  9.1560950E+02;
  1.6231776E+00;  9.9999998E-03;  3.0473515E-02;9563;  1.2645561E+00;  0.0000000E+00;  7.1432348E-03;  9.9708563E+02;  1.2377798E-01; -2.2701245E+03;3;  3.8075489E+01;  0.0000000E+00; -1.2836492E+00;0; -1.3387740E-02;  2.6793789E+04;  0.0000000E+00; -1.6789731E-01;  4.0000000E+04;  0.0000000E+00;  3.8720309E+04; -2.2815886E-01;  0.0000000E+00;  2.1477112E-01;  9.1561542E+02;
  1.6232821E+00;  9.9999998E-03; -4.0624112E-02;9556;  1.2655435E+00;  0.0000000E+00; -9.6720401E-03;  9.9729315E+02;  1.2376660E-01; -2.1082754E+03;3;  3.7809383E+01;  0.0000000E+00;  1.6864470E+00;0; -1.0403410E-02;  2.6809602E+04;  0.0000000E+00; -2.9478955E-01;  4.0000000E+04;  0.0000000E+00;  3.8719137E+04; -2.2350574E-01;  0.0000000E+00;  2.1310233E-01;  8.1191071E+02;
  1.6232821E+00;  9.9999998E-03;  4.0624272E-02;9564;  1.2655435E+00;  0.0000000E+00;  9.6734781E-03;  9.9729327E+02;  1.2376665E-01; -2.1081826E+03;3;  3.7807579E+01;  0.0000000E+00; -1.6864942E+00;0; -1.0403514E-02;  2.6809602E+04;  0.0000000E+00; -2.9478148E-01;  4.0000000E+04;  0.0000000E+00;  3.8719141E+04; -2.2350590E-01;  0.0000000E+00;  2.1310239E-01;  8.1191113E+02;
  1.6234154E+00;  9.9999998E-03; -5.0771751E-02;9555;  1.2668589E+00;  0.0000000E+00; -1.2282040E-02;  9.9756519E+02;  1.2375419E-01; -1.8961816E+03;3;  3.7492462E+01;  0.0000000E+00;  2.0035589E+00;0; -6.8758130E-03;  2.6831170E+04;  0.0000000E+00; -4.4179082E-01;  4.0000000E+04;  0.0000000E+00;  3.8716023E+04; -2.1769159E-01;  0.0000000E+00;  2.1081577E-01;  5.9242908E+02;
  1.6234154E+00;  9.9999998E-03;  5.0771911E-02;9565;  1.2668589E+00;  0.0000000E+00;  1.2283488E-02;  9.9756512E+02;  1.2375400E-01; -1.8962281E+03;3;  3.7491062E+01;  0.0000000E+00; -2.0035601E+00;0; -6.8766177E-03;  2.6831170E+04;  0.0000000E+00; -4.4178376E-01;  4.0000000E+04;  0.0000000E+00;  3.8716020E+04; -2.1769226E-01;  0.0000000E+00;  2.1081564E-01;  5.9242249E+02;
  1.6237963E+00;  9.9999998E-03; -1.0120736E-01;9550;  1.2799017E+00;  0.0000000E+00; -2.3508118E-02;  9.9940460E+02;  1.2371820E-01; -4.6353336E+02;3;  3.5494968E+01;  0.0000000E+00;  3.2315822E+00;0;  1.7583162E-02;  2.6975977E+04;  0.0000000E+00;  1.7131947E+00;  4.0000000E+04;  0.0000000E+00;  3.8667402E+04; -1.8251052E-01;  0.0000000E+00;  2.0009369E-01;  4.4658022E+03;
  1.6235697E+00;  9.9999998E-03; -6.0910709E-02;9554;  1.2685367E+00;  0.0000000E+00; -1.4935567E-02;  9.9790137E+02;  1.2374051E-01; -1.6341646E+03;3;  3.7109337E+01;  0.0000000E+00;  2.2691445E+00;0; -2.9095858E-03;  2.6857686E+04;  0.0000000E+00; -5.7176560E-01;  4.0000000E+04;  0.0000000E+00;  3.8710375E+04; -2.1093149E-01;  0.0000000E+00;  2.0802191E-01;  3.5729974E+02;
  1.6235697E+00;  9.9999998E-03;  6.0910869E-02;9566;  1.2685368E+00;  0.0000000E+00;  1.4937018E-02;  9.9790137E+02;  1.2374051E-01; -1.6341646E+03;3;  3.7110046E+01;  0.0000000E+00; -2.2691031E+00;0; -2.9097497E-03;  2.6857682E+04;  0.0000000E+00; -5.7176882E-01;  4.0000000E+04;  0.0000000E+00;  3.8710363E+04; -2.1093158E-01;  0.0000000E+00;  2.0802183E-01;  3.5730133E+02;
  1.6238574E+00;  9.9999998E-03; -9.1181941E-02;9551;  1.2762865E+00;  0.0000000E+00; -2.1952236E-02;  9.9907843E+02;  1.2371633E-01; -7.1742108E+02;3;  3.5905682E+01;  0.0000000E+00;  2.8030550E+00;0;  1.1737525E-02;  2.6950654E+04;  0.0000000E+00;  2.8273425E-01;  4.0000000E+04;  0.0000000E+00;  3.8679113E+04; -1.8879807E-01;  0.0000000E+00;  2.0053560E-01;  2.7081541E+03;
  1.6237173E+00;  9.9999998E-03; -7.1031615E-02;9553;  1.2706206E+00;  0.0000000E+00; -1.7525163E-02;  9.9829059E+02;  1.2372882E-01; -1.3309202E+03;3;  3.6688927E+01;  0.0000000E+00;  2.5098760E+00;0;  1.4839470E-03;  2.6888270E+04;  0.0000000E+00; -6.0268652E-01;  4.0000000E+04;  0.0000000E+00;  3.8702078E+04; -2.0355490E-01;  0.0000000E+00;  2.0503885E-01;  6.9028271E+02;
  1.6238219E+00;  9.9999998E-03; -8.1125215E-02;9552;  1.2731891E+00;  0.0000000E+00; -1.9925464E-02;  9.9869952E+02;  1.2372039E-01; -1.0124290E+03;3;  3.6328182E+01;  0.0000000E+00;  2.5620513E+00;0;  6.3582063E-03;  2.6920186E+04;  0.0000000E+00; -3.9053655E-01;  4.0000000E+04;  0.0000000E+00;  3.8691219E+04; -1.9600046E-01;  0.0000000E+00;  2.0235866E-01;  1.5122035E+03;
  1.6350650E+00;  9.9999998E-03;  8.0991747E-08;9610;  1.2600311E+00;  0.0000000E+00;  7.1169836E-07;  9.9674829E+02;  1.2247075E-01; -2.5058953E+03;3;  3.9039150E+01;  0.0000000E+00; -2.5340356E-05;0; -3.9689064E-02;  2.7423492E+04;  0.0000000E+00; -4.3039346E-11;  4.0000000E+04;  0.0000000E+00;  3.8619324E+04; -2.2840831E-01;  0.0000000E+00;  1.8871924E-01;  8.3933777E+02;
  1.6351014E+00;  9.9999998E-03; -1.0180901E-02;9609;  1.2601689E+00;  0.0000000E+00; -2.1566262E-03;  9.9679065E+02;  1.2246898E-01; -2.4731494E+03;3;  3.9000816E+01;  0.0000000E+00;  3.2462743E-01;0; -3.9360031E-02;  2.7427025E+04;  0.0000000E+00; -3.5112102E-02;  4.0000000E+04;  0.0000000E+00;  3.8619086E+04; -2.2775589E-01;  0.0000000E+00;  1.8839586E-01;  8.2135474E+02;
  1.6351014E+00;  9.9999998E-03;  1.0181063E-02;9611;  1.2601689E+00;  0.0000000E+00;  2.1580497E-03;  9.9679053E+02;  1.2246896E-01; -2.4732412E+03;3;  3.9000904E+01;  0.0000000E+00; -3.2462704E-01;0; -3.9360136E-02;  2.7427029E+04;  0.0000000E+00; -3.5111479E-02;  4.0000000E+04;  0.0000000E+00;  3.8619082E+04; -2.2775613E-01;  0.0000000E+00;  1.8839599E-01;  8.2135321E+02;
  1.6351964E+00;  9.9999998E-03; -2.0349428E-02;9608;  1.2605910E+00;  0.0000000E+00; -4.3351222E-03;  9.9690173E+02;  1.2246025E-01; -2.3873130E+03;3;  3.8890263E+01;  0.0000000E+00;  6.3195169E-01;0; -3.8383976E-02;  2.7437176E+04;  0.0000000E+00; -1.3840882E-01;  4.0000000E+04;  0.0000000E+00;  3.8618117E+04; -2.2583005E-01;  0.0000000E+00;  1.8744607E-01;  7.5616791E+02;
  1.6351964E+00;  9.9999998E-03;  2.0349590E-02;9612;  1.2605910E+00;  0.0000000E+00;  4.3365480E-03;  9.9690167E+02;  1.2246019E-01; -2.3873589E+03;3;  3.8890320E+01;  0.0000000E+00; -6.3197732E-01;0; -3.8384110E-02;  2.7437178E+04;  0.0000000E+00; -1.3840799E-01;  4.0000000E+04;  0.0000000E+00;  3.8618117E+04; -2.2583011E-01;  0.0000000E+00;  1.8744600E-01;  7.5616412E+02;
  1.6353360E+00;  9.9999998E-03; -3.0504506E-02;9607;  1.2613143E+00;  0.0000000E+00; -6.5529542E-03;  9.9709674E+02;  1.2244981E-01; -2.2367815E+03;3;  3.8711342E+01;  0.0000000E+00;  9.2105037E-01;0; -3.6826253E-02;  2.7453254E+04;  0.0000000E+00; -3.0115017E-01;  4.0000000E+04;  0.0000000E+00;  3.8616414E+04; -2.2270791E-01;  0.0000000E+00;  1.8588166E-01;  6.2107056E+02;
  1.6353360E+00;  9.9999998E-03;  3.0504666E-02;9613;  1.2613143E+00;  0.0000000E+00;  6.5543791E-03;  9.9709674E+02;  1.2244981E-01; -2.2367815E+03;3;  3.8711552E+01;  0.0000000E+00; -9.2116332E-01;0; -3.6826432E-02;  2.7453254E+04;  0.0000000E+00; -3.0115142E-01;  4.0000000E+04;  0.0000000E+00;  3.8616414E+04; -2.2270817E-01;  0.0000000E+00;  1.8588173E-01;  6.2108167E+02;
  1.6355191E+00;  9.9999998E-03; -4.0650275E-02;9606;  1.2623609E+00;  0.0000000E+00; -8.8159889E-03;  9.9736285E+02;  1.2243657E-01; -2.0313810E+03;3;  3.8460602E+01;  0.0000000E+00;  1.1838590E+00;0; -3.4799218E-02;  2.7475090E+04;  0.0000000E+00; -5.0202537E-01;  4.0000000E+04;  0.0000000E+00;  3.8612605E+04; -2.1851212E-01;  0.0000000E+00;  1.8371290E-01;  4.2055994E+02;
  1.6355191E+00;  9.9999998E-03;  4.0650439E-02;9614;  1.2623609E+00;  0.0000000E+00;  8.8174250E-03;  9.9736273E+02;  1.2243657E-01; -2.0314729E+03;3;  3.8458832E+01;  0.0000000E+00; -1.1839381E+00;0; -3.4799516E-02;  2.7475090E+04;  0.0000000E+00; -5.0202811E-01;  4.0000000E+04;  0.0000000E+00;  3.8612605E+04; -2.1851254E-01;  0.0000000E+00;  1.8371302E-01;  4.2055997E+02;
  1.6357322E+00;  9.9999998E-03; -5.0786093E-02;9605;  1.2637565E+00;  0.0000000E+00; -1.1070592E-02;  9.9767505E+02;  1.2242221E-01; -1.7905167E+03;3;  3.8147823E+01;  0.0000000E+00;  1.4298381E+00;0; -3.2375559E-02;  2.7502014E+04;  0.0000000E+00; -6.9382262E-01;  4.0000000E+04;  0.0000000E+00;  3.8606781E+04; -2.1346281E-01;  0.0000000E+00;  1.8108726E-01;  3.7617056E+02;
  1.6357322E+00;  9.9999998E-03;  5.0786257E-02;9615;  1.2637565E+00;  0.0000000E+00;  1.1072033E-02;  9.9767505E+02;  1.2242241E-01; -1.7905167E+03;3;  3.8148167E+01;  0.0000000E+00; -1.4298100E+00;0; -3.2375708E-02;  2.7502006E+04;  0.0000000E+00; -6.9383240E-01;  4.0000000E+04;  0.0000000E+00;  3.8606781E+04; -2.1346293E-01;  0.0000000E+00;  1.8108723E-01;  3.7617474E+02;
  1.6359514E+00;  9.9999998E-03; -1.0114626E-01;9600;  1.2776426E+00;  0.0000000E+00; -1.9359650E-02;  9.9912872E+02;  1.2240387E-01; -6.7087555E+02;3;  3.6221027E+01;  0.0000000E+00;  2.8263242E+00;0; -1.3215676E-02;  2.7621115E+04;  0.0000000E+00;  4.3802123E+00;  4.0000000E+04;  0.0000000E+00;  3.8562871E+04; -1.8965104E-01;  0.0000000E+00;  1.7643537E-01;  6.6114111E+03;
  1.6359426E+00;  9.9999998E-03; -6.0907613E-02;9604;  1.2655538E+00;  0.0000000E+00; -1.3263620E-02;  9.9803265E+02;  1.2240951E-01; -1.5148297E+03;3;  3.7793457E+01;  0.0000000E+00;  1.5796292E+00;0; -2.9554591E-02;  2.7532201E+04;  0.0000000E+00; -7.8184187E-01;  4.0000000E+04;  0.0000000E+00;  3.8598648E+04; -2.0789489E-01;  0.0000000E+00;  1.7834030E-01;  7.9164862E+02;
  1.6359426E+00;  9.9999998E-03;  6.0907777E-02;9616;  1.2655538E+00;  0.0000000E+00;  1.3265066E-02;  9.9803253E+02;  1.2240951E-01; -1.5149215E+03;3;  3.7791725E+01;  0.0000000E+00; -1.5795187E+00;0; -2.9555082E-02;  2.7532203E+04;  0.0000000E+00; -7.8186065E-01;  4.0000000E+04;  0.0000000E+00;  3.8598648E+04; -2.0789528E-01;  0.0000000E+00;  1.7834020E-01;  7.9163879E+02;
  1.6361423E+00;  9.9999998E-03; -9.1112711E-02;9601;  1.2738543E+00;  0.0000000E+00; -1.8281918E-02;  9.9895691E+02;  1.2239644E-01; -8.0299158E+02;3;  3.6594677E+01;  0.0000000E+00;  2.4729867E+00;0; -1.8058807E-02;  2.7609961E+04;  0.0000000E+00;  1.6140039E+00;  4.0000000E+04;  0.0000000E+00;  3.8568434E+04; -1.9261917E-01;  0.0000000E+00;  1.7456037E-01;  4.0529082E+03;
  1.6361020E+00;  9.9999998E-03; -7.1006395E-02;9603;  1.2678124E+00;  0.0000000E+00; -1.5285688E-02;  9.9839490E+02;  1.2240006E-01; -1.2356921E+03;3;  3.7398964E+01;  0.0000000E+00;  1.7814734E+00;0; -2.6255652E-02;  2.7562580E+04;  0.0000000E+00; -6.0345757E-01;  4.0000000E+04;  0.0000000E+00;  3.8588906E+04; -2.0223670E-01;  0.0000000E+00;  1.7598104E-01;  1.4858364E+03;
  1.6361793E+00;  9.9999998E-03; -8.1073195E-02;9602;  1.2705739E+00;  0.0000000E+00; -1.6962307E-02;  9.9870953E+02;  1.2239629E-01; -9.9337915E+02;3;  3.7008129E+01;  0.0000000E+00;  2.0698864E+00;0; -2.2426099E-02;  2.7589564E+04;  0.0000000E+00;  8.6095922E-02;  4.0000000E+04;  0.0000000E+00;  3.8577816E+04; -1.9697495E-01;  0.0000000E+00;  1.7454885E-01;  2.4891619E+03;
  1.6470928E+00;  9.9999998E-03;  8.1901710E-08;9658;  1.2568948E+00;  0.0000000E+00;  7.1287633E-07;  9.9679797E+02;  1.2134704E-01; -2.4369749E+03;3;  3.9583412E+01;  0.0000000E+00;  1.6581267E-05;0; -6.1329007E-02;  2.8024471E+04;  0.0000000E+00; -2.4976072E-11;  4.0000000E+04;  0.0000000E+00;  3.8499719E+04; -2.2030085E-01;  0.0000000E+00;  1.5897185E-01;  3.0118292E+02;
  1.6471452E+00;  9.9999998E-03; -1.0208366E-02;9657;  1.2570410E+00;  0.0000000E+00; -1.9382444E-03;  9.9684857E+02;  1.2134421E-01; -2.3983220E+03;3;  3.9546448E+01;  0.0000000E+00;  2.1901090E-01;0; -6.1155260E-02;  2.8028812E+04;  0.0000000E+00; -5.9707735E-02;  4.0000000E+04;  0.0000000E+00;  3.8499320E+04; -2.1973255E-01;  0.0000000E+00;  1.5857729E-01;  2.6392459E+02;
  1.6471452E+00;  9.9999998E-03;  1.0208530E-02;9659;  1.2570410E+00;  0.0000000E+00;  1.9396683E-03;  9.9684863E+02;  1.2134419E-01; -2.3982766E+03;3;  3.9546368E+01;  0.0000000E+00; -2.1902759E-01;0; -6.1155364E-02;  2.8028811E+04;  0.0000000E+00; -5.9710898E-02;  4.0000000E+04;  0.0000000E+00;  3.8499320E+04; -2.1973264E-01;  0.0000000E+00;  1.5857728E-01;  2.6392484E+02;
  1.6472837E+00;  9.9999998E-03; -2.0396819E-02;9656;  1.2574898E+00;  0.0000000E+00; -3.8785040E-03;  9.9698706E+02;  1.2133702E-01; -2.2925952E+03;3;  3.9443314E+01;  0.0000000E+00;  4.2156637E-01;0; -6.0628861E-02;  2.8041066E+04;  0.0000000E+00; -2.2828746E-01;  4.0000000E+04;  0.0000000E+00;  3.8497414E+04; -2.1807986E-01;  0.0000000E+00;  1.5745100E-01;  1.7550314E+02;
  1.6472837E+00;  9.9999998E-03;  2.0396983E-02;9660;  1.2574898E+00;  0.0000000E+00;  3.8799311E-03;  9.9698700E+02;  1.2133702E-01; -2.2926406E+03;3;  3.9443386E+01;  0.0000000E+00; -4.2161608E-01;0; -6.0629264E-02;  2.8041061E+04;  0.0000000E+00; -2.2829482E-01;  4.0000000E+04;  0.0000000E+00;  3.8497414E+04; -2.1808012E-01;  0.0000000E+00;  1.5745085E-01;  1.7551537E+02;
  1.6477453E+00;  9.9999998E-03; -1.0120010E-01;9648;  1.2755505E+00;  0.0000000E+00; -1.5457457E-02;  9.9863959E+02;  1.2130420E-01; -1.0346249E+03;3;  3.6882614E+01;  0.0000000E+00;  2.3470504E+00;0; -4.3062717E-02;  2.8177801E+04;  0.0000000E+00;  9.4704027E+00;  4.0000000E+04;  0.0000000E+00;  3.8458770E+04; -1.9775741E-01;  0.0000000E+00;  1.5469469E-01;  1.0092900E+04;
  1.6474787E+00;  9.9999998E-03; -3.0561941E-02;9655;  1.2582612E+00;  0.0000000E+00; -5.8170115E-03;  9.9720776E+02;  1.2132630E-01; -2.1241880E+03;3;  3.9272263E+01;  0.0000000E+00;  6.0890013E-01;0; -5.9761733E-02;  2.8059998E+04;  0.0000000E+00; -4.7113293E-01;  4.0000000E+04;  0.0000000E+00;  3.8493848E+04; -2.1547402E-01;  0.0000000E+00;  1.5571229E-01;  2.4339014E+02;
  1.6474787E+00;  9.9999998E-03;  3.0562105E-02;9661;  1.2582612E+00;  0.0000000E+00;  5.8184378E-03;  9.9720770E+02;  1.2132629E-01; -2.1242334E+03;3;  3.9272438E+01;  0.0000000E+00; -6.0897410E-01;0; -5.9761718E-02;  2.8059992E+04;  0.0000000E+00; -4.7114483E-01;  4.0000000E+04;  0.0000000E+00;  3.8493848E+04; -2.1547405E-01;  0.0000000E+00;  1.5571234E-01;  2.4339471E+02;
  1.6477177E+00;  9.9999998E-03; -4.0706187E-02;9654;  1.2593807E+00;  0.0000000E+00; -7.7282246E-03;  9.9747791E+02;  1.2131310E-01; -1.9181766E+03;3;  3.9036396E+01;  0.0000000E+00;  7.6791871E-01;0; -5.8602139E-02;  2.8084094E+04;  0.0000000E+00; -7.2115862E-01;  4.0000000E+04;  0.0000000E+00;  3.8488469E+04; -2.1211357E-01;  0.0000000E+00;  1.5351143E-01;  5.5746045E+02;
  1.6477177E+00;  9.9999998E-03;  4.0706355E-02;9662;  1.2593808E+00;  0.0000000E+00;  7.7296561E-03;  9.9747803E+02;  1.2131257E-01; -1.9180859E+03;3;  3.9036575E+01;  0.0000000E+00; -7.6797509E-01;0; -5.8602512E-02;  2.8084100E+04;  0.0000000E+00; -7.2117972E-01;  4.0000000E+04;  0.0000000E+00;  3.8488469E+04; -2.1211387E-01;  0.0000000E+00;  1.5351136E-01;  5.5745947E+02;
  1.6481028E+00;  9.9999998E-03; -9.1126919E-02;9649;  1.2716460E+00;  0.0000000E+00; -1.4552259E-02;  9.9853711E+02;  1.2128986E-01; -1.1121023E+03;3;  3.7304844E+01;  0.0000000E+00;  1.9785047E+00;0; -4.6785548E-02;  2.8180611E+04;  0.0000000E+00;  4.6397295E+00;  4.0000000E+04;  0.0000000E+00;  3.8454137E+04; -1.9724201E-01;  0.0000000E+00;  1.5045646E-01;  6.1423486E+03;
  1.6479671E+00;  9.9999998E-03; -5.0829738E-02;9653;  1.2608886E+00;  0.0000000E+00; -9.5613739E-03;  9.9776636E+02;  1.2130021E-01; -1.6982958E+03;3;  3.8744175E+01;  0.0000000E+00;  9.1137350E-01;0; -5.7140008E-02;  2.8110996E+04;  0.0000000E+00; -8.6280429E-01;  4.0000000E+04;  0.0000000E+00;  3.8481160E+04; -2.0831233E-01;  0.0000000E+00;  1.5117233E-01;  9.9317053E+02;
  1.6479671E+00;  9.9999998E-03;  5.0829902E-02;9663;  1.2608886E+00;  0.0000000E+00;  9.5628081E-03;  9.9776642E+02;  1.2130019E-01; -1.6982504E+03;3;  3.8742203E+01;  0.0000000E+00; -9.1128123E-01;0; -5.7140291E-02;  2.8110996E+04;  0.0000000E+00; -8.6283320E-01;  4.0000000E+04;  0.0000000E+00;  3.8481168E+04; -2.0831257E-01;  0.0000000E+00;  1.5117228E-01;  9.9316748E+02;
  1.6482785E+00;  9.9999998E-03; -8.1071638E-02;9650;  1.2682137E+00;  0.0000000E+00; -1.3647168E-02;  9.9844086E+02;  1.2128396E-01; -1.1850477E+03;3;  3.7687538E+01;  0.0000000E+00;  1.6530275E+00;0; -5.0124615E-02;  2.8174672E+04;  0.0000000E+00;  1.6473161E+00;  4.0000000E+04;  0.0000000E+00;  3.8456910E+04; -1.9847606E-01;  0.0000000E+00;  1.4835145E-01;  3.7248259E+03;
  1.6481718E+00;  9.9999998E-03; -6.0932800E-02;9652;  1.2628322E+00;  0.0000000E+00; -1.1203947E-02;  9.9804926E+02;  1.2129059E-01; -1.4828695E+03;3;  3.8411049E+01;  0.0000000E+00;  1.0667510E+00;0; -5.5288389E-02;  2.8137498E+04;  0.0000000E+00; -7.0995522E-01;  4.0000000E+04;  0.0000000E+00;  3.8472410E+04; -2.0447305E-01;  0.0000000E+00;  1.4918466E-01;  1.5493529E+03;
  1.6481718E+00;  9.9999998E-03;  6.0932964E-02;9664;  1.2628322E+00;  0.0000000E+00;  1.1205385E-02;  9.9804932E+02;  1.2129034E-01; -1.4828242E+03;3;  3.8411533E+01;  0.0000000E+00; -1.0666982E+00;0; -5.5289075E-02;  2.8137488E+04;  0.0000000E+00; -7.0999914E-01;  4.0000000E+04;  0.0000000E+00;  3.8472410E+04; -2.0447354E-01;  0.0000000E+00;  1.4918447E-01;  1.5493279E+03;
  1.6482878E+00;  9.9999998E-03; -7.1012639E-02;9651;  1.2652740E+00;  0.0000000E+00; -1.2559538E-02;  9.9827997E+02;  1.2128413E-01; -1.3073081E+03;3;  3.8073708E+01;  0.0000000E+00;  1.2857587E+00;0; -5.2962855E-02;  2.8159785E+04;  0.0000000E+00;  7.8059714E-03;  4.0000000E+04;  0.0000000E+00;  3.8463828E+04; -2.0103784E-01;  0.0000000E+00;  1.4807498E-01;  2.3524258E+03;
  1.6591504E+00;  9.9999998E-03;  8.2364863E-08;9705;  1.2539665E+00;  0.0000000E+00;  7.1312007E-07;  9.9695184E+02;  1.2039860E-01; -2.2869153E+03;3;  4.0067898E+01;  0.0000000E+00;  4.1536987E-06;0; -8.3129182E-02;  2.8578742E+04;  0.0000000E+00; -8.1730803E-12;  4.0000000E+04;  0.0000000E+00;  3.8363219E+04; -2.1126901E-01;  0.0000000E+00;  1.2813982E-01;  4.7161151E+02;
  1.6591094E+00;  9.9999998E-03; -1.0141990E-01;9695;  1.2736390E+00;  0.0000000E+00; -1.1968384E-02;  9.9821680E+02;  1.2038921E-01; -1.3379194E+03;3;  3.7490211E+01;  0.0000000E+00;  1.8176082E+00;0; -7.2535500E-02;  2.8667156E+04;  0.0000000E+00;  1.7972057E+01;  4.0000000E+04;  0.0000000E+00;  3.8352965E+04; -2.0731546E-01;  0.0000000E+00;  1.3477996E-01;  1.5216673E+04;
  1.6592066E+00;  9.9999998E-03; -1.0245541E-02;9704;  1.2541264E+00;  0.0000000E+00; -1.6612394E-03;  9.9699097E+02;  1.2039708E-01; -2.2573743E+03;3;  4.0032581E+01;  0.0000000E+00;  1.2090111E-01;0; -8.3083868E-02;  2.8582738E+04;  0.0000000E+00; -7.7397905E-02;  4.0000000E+04;  0.0000000E+00;  3.8362250E+04; -2.1085325E-01;  0.0000000E+00;  1.2776938E-01;  5.2242749E+02;
  1.6592066E+00;  9.9999998E-03;  1.0245707E-02;9706;  1.2541264E+00;  0.0000000E+00;  1.6626695E-03;  9.9699109E+02;  1.2039682E-01; -2.2572847E+03;3;  4.0032677E+01;  0.0000000E+00; -1.2089892E-01;0; -8.3083749E-02;  2.8582740E+04;  0.0000000E+00; -7.7407330E-02;  4.0000000E+04;  0.0000000E+00;  3.8362250E+04; -2.1085320E-01;  0.0000000E+00;  1.2776946E-01;  5.2242084E+02;
  1.6593559E+00;  9.9999998E-03; -2.0459162E-02;9703;  1.2546147E+00;  0.0000000E+00; -3.3018440E-03;  9.9710638E+02;  1.2039057E-01; -2.1703943E+03;3;  3.9934956E+01;  0.0000000E+00;  2.3826270E-01;0; -8.2929075E-02;  2.8593992E+04;  0.0000000E+00; -2.8194004E-01;  4.0000000E+04;  0.0000000E+00;  3.8359551E+04; -2.0967232E-01;  0.0000000E+00;  1.2674324E-01;  6.8140540E+02;
  1.6593559E+00;  9.9999998E-03;  2.0459326E-02;9707;  1.2546147E+00;  0.0000000E+00;  3.3032724E-03;  9.9710651E+02;  1.2039038E-01; -2.1703049E+03;3;  3.9935070E+01;  0.0000000E+00; -2.3829630E-01;0; -8.2929105E-02;  2.8593992E+04;  0.0000000E+00; -2.8195885E-01;  4.0000000E+04;  0.0000000E+00;  3.8359547E+04; -2.0967245E-01;  0.0000000E+00;  1.2674335E-01;  6.8140698E+02;
  1.6595629E+00;  9.9999998E-03; -3.0638922E-02;9702;  1.2554516E+00;  0.0000000E+00; -4.8954915E-03;  9.9726794E+02;  1.2038076E-01; -2.0486545E+03;3;  3.9773518E+01;  0.0000000E+00;  3.3725134E-01;0; -8.2638651E-02;  2.8610891E+04;  0.0000000E+00; -5.3189939E-01;  4.0000000E+04;  0.0000000E+00;  3.8355082E+04; -2.0789275E-01;  0.0000000E+00;  1.2525409E-01;  9.4570227E+02;
  1.6595629E+00;  9.9999998E-03;  3.0639088E-02;9708;  1.2554516E+00;  0.0000000E+00;  4.8969178E-03;  9.9726794E+02;  1.2038076E-01; -2.0486545E+03;3;  3.9773647E+01;  0.0000000E+00; -3.3730501E-01;0; -8.2638755E-02;  2.8610893E+04;  0.0000000E+00; -5.3193218E-01;  4.0000000E+04;  0.0000000E+00;  3.8355082E+04; -2.0789285E-01;  0.0000000E+00;  1.2525409E-01;  9.4570599E+02;
  1.6596224E+00;  9.9999998E-03; -9.1271147E-02;9696;  1.2696184E+00;  0.0000000E+00; -1.1091861E-02;  9.9798792E+02;  1.2037103E-01; -1.5086656E+03;3;  3.7900570E+01;  0.0000000E+00;  1.5362662E+00;0; -7.4992582E-02;  2.8673250E+04;  0.0000000E+00;  1.0370041E+01;  4.0000000E+04;  0.0000000E+00;  3.8338273E+04; -2.0330697E-01;  0.0000000E+00;  1.2831439E-01;  9.6077031E+03;
  1.6597970E+00;  9.9999998E-03; -4.0786102E-02;9701;  1.2566682E+00;  0.0000000E+00; -6.3974750E-03;  9.9744891E+02;  1.2037064E-01; -1.9123898E+03;3;  3.9550396E+01;  0.0000000E+00;  4.2720509E-01;0; -8.2191229E-02;  2.8630473E+04;  0.0000000E+00; -6.8475896E-01;  4.0000000E+04;  0.0000000E+00;  3.8348973E+04; -2.0576748E-01;  0.0000000E+00;  1.2357625E-01;  1.2880168E+03;
  1.6597970E+00;  9.9999998E-03;  4.0786266E-02;9709;  1.2566682E+00;  0.0000000E+00;  6.3989023E-03;  9.9744891E+02;  1.2037064E-01; -1.9123898E+03;3;  3.9550678E+01;  0.0000000E+00; -4.2722058E-01;0; -8.2191728E-02;  2.8630463E+04;  0.0000000E+00; -6.8480504E-01;  4.0000000E+04;  0.0000000E+00;  3.8348973E+04; -2.0576794E-01;  0.0000000E+00;  1.2357622E-01;  1.2880028E+03;
  1.6600080E+00;  9.9999998E-03; -5.0905034E-02;9700;  1.2583134E+00;  0.0000000E+00; -7.7258986E-03;  9.9762360E+02;  1.2036193E-01; -1.7809470E+03;3;  3.9282589E+01;  0.0000000E+00;  5.3531837E-01;0; -8.1509285E-02;  2.8649566E+04;  0.0000000E+00; -5.2615094E-01;  4.0000000E+04;  0.0000000E+00;  3.8342070E+04; -2.0364240E-01;  0.0000000E+00;  1.2213311E-01;  1.7100609E+03;
  1.6600080E+00;  9.9999998E-03;  5.0905202E-02;9710;  1.2583134E+00;  0.0000000E+00;  7.7273250E-03;  9.9762360E+02;  1.2036193E-01; -1.7809470E+03;3;  3.9285328E+01;  0.0000000E+00; -5.3532606E-01;0; -8.1509314E-02;  2.8649564E+04;  0.0000000E+00; -5.2619708E-01;  4.0000000E+04;  0.0000000E+00;  3.8342066E+04; -2.0364247E-01;  0.0000000E+00;  1.2213316E-01;  1.7100435E+03;
  1.6599717E+00;  9.9999998E-03; -8.1168346E-02;9697;  1.2660855E+00;  0.0000000E+00; -1.0352414E-02;  9.9788312E+02;  1.2035956E-01; -1.5865276E+03;3;  3.8278275E+01;  0.0000000E+00;  1.2871432E+00;0; -7.7210523E-02;  2.8676518E+04;  0.0000000E+00;  5.2043777E+00;  4.0000000E+04;  0.0000000E+00;  3.8331359E+04; -2.0132236E-01;  0.0000000E+00;  1.2411184E-01;  5.8375649E+03;
  1.6601385E+00;  9.9999998E-03; -6.1001919E-02;9699;  1.2604228E+00;  0.0000000E+00; -8.7796375E-03;  9.9774164E+02;  1.2035585E-01; -1.6922181E+03;3;  3.8984783E+01;  0.0000000E+00;  7.2560316E-01;0; -8.0494635E-02;  2.8665010E+04;  0.0000000E+00;  2.3976330E-01;  4.0000000E+04;  0.0000000E+00;  3.8335312E+04; -2.0191395E-01;  0.0000000E+00;  1.2141932E-01;  2.3476147E+03;
  1.6601385E+00;  9.9999998E-03;  6.1002087E-02;9711;  1.2604227E+00;  0.0000000E+00;  8.7810680E-03;  9.9774164E+02;  1.2035532E-01; -1.6922181E+03;3;  3.8985291E+01;  0.0000000E+00; -7.2552848E-01;0; -8.0494985E-02;  2.8665004E+04;  0.0000000E+00;  2.3969820E-01;  4.0000000E+04;  0.0000000E+00;  3.8335312E+04; -2.0191413E-01;  0.0000000E+00;  1.2141915E-01;  2.3475867E+03;
  1.6601393E+00;  9.9999998E-03; -7.1085043E-02;9698;  1.2630163E+00;  0.0000000E+00; -9.6009010E-03;  9.9781860E+02;  1.2035415E-01; -1.6345570E+03;3;  3.8661343E+01;  0.0000000E+00;  9.7385985E-01;0; -7.9074062E-02;  2.8674229E+04;  0.0000000E+00;  1.9960930E+00;  4.0000000E+04;  0.0000000E+00;  3.8330910E+04; -2.0099781E-01;  0.0000000E+00;  1.2192375E-01;  3.5614036E+03;
  1.6702356E+00;  9.9999998E-03; -1.0183983E-01;9741;  1.2719396E+00;  0.0000000E+00; -8.9483345E-03;  9.9803772E+02;  1.1962517E-01; -1.4504985E+03;3;  3.8060234E+01;  0.0000000E+00;  1.3396512E+00;0; -1.0232536E-01;  2.9117326E+04;  0.0000000E+00;  2.9607901E+01;  4.0000000E+04;  0.0000000E+00;  3.8235082E+04; -2.1853724E-01;  0.0000000E+00;  1.1621188E-01;  2.1052143E+04;
  1.6707597E+00;  9.9999998E-03; -9.1569543E-02;9742;  1.2677933E+00;  0.0000000E+00; -8.0521461E-03;  9.9770496E+02;  1.1960619E-01; -1.6951702E+03;3;  3.8430611E+01;  0.0000000E+00;  1.1462797E+00;0; -1.0326725E-01;  2.9121002E+04;  0.0000000E+00;  1.9384203E+01;  4.0000000E+04;  0.0000000E+00;  3.8216762E+04; -2.1109349E-01;  0.0000000E+00;  1.0782623E-01;  1.4304720E+04;
  1.6712037E+00;  9.9999998E-03;  8.2851457E-08;9751;  1.2512755E+00;  0.0000000E+00;  7.1392640E-07;  9.9694336E+02;  1.1960093E-01; -2.2563000E+03;3;  4.0498180E+01;  0.0000000E+00; -1.4692545E-05;0; -1.0549448E-01;  2.9077219E+04;  0.0000000E+00; -2.0207389E-13;  4.0000000E+04;  0.0000000E+00;  3.8212660E+04; -2.0271894E-01;  0.0000000E+00;  9.7224467E-02;  1.1527679E+03;
  1.6712464E+00;  9.9999998E-03; -1.0264006E-02;9750;  1.2514532E+00;  0.0000000E+00; -1.3202666E-03;  9.9696484E+02;  1.1959974E-01; -2.2402805E+03;3;  4.0465012E+01;  0.0000000E+00;  4.6463452E-02;0; -1.0553896E-01;  2.9079662E+04;  0.0000000E+00; -6.0739513E-02;  4.0000000E+04;  0.0000000E+00;  3.8211570E+04; -2.0252548E-01;  0.0000000E+00;  9.6986517E-02;  1.2023403E+03;
  1.6712464E+00;  9.9999998E-03;  1.0264171E-02;9752;  1.2514532E+00;  0.0000000E+00;  1.3216938E-03;  9.9696484E+02;  1.1959974E-01; -2.2402805E+03;3;  4.0464893E+01;  0.0000000E+00; -4.6472304E-02;0; -1.0553902E-01;  2.9079662E+04;  0.0000000E+00; -6.0756158E-02;  4.0000000E+04;  0.0000000E+00;  3.8211574E+04; -2.0252550E-01;  0.0000000E+00;  9.6986480E-02;  1.2023413E+03;
  1.6712261E+00;  9.9999998E-03; -8.1376210E-02;9743;  1.2641605E+00;  0.0000000E+00; -7.3623657E-03;  9.9740558E+02;  1.1959438E-01; -1.9150353E+03;3;  3.8811745E+01;  0.0000000E+00;  9.0323204E-01;0; -1.0420149E-01;  2.9120799E+04;  0.0000000E+00;  1.1586489E+01;  4.0000000E+04;  0.0000000E+00;  3.8202008E+04; -2.0594130E-01;  0.0000000E+00;  1.0173982E-01;  9.1902773E+03;
  1.6713637E+00;  9.9999998E-03; -2.0494986E-02;9749;  1.2519910E+00;  0.0000000E+00; -2.5994573E-03;  9.9700928E+02;  1.1959610E-01; -2.2071326E+03;3;  4.0368408E+01;  0.0000000E+00;  7.8640826E-02;0; -1.0566144E-01;  2.9086459E+04;  0.0000000E+00; -1.9127162E-01;  4.0000000E+04;  0.0000000E+00;  3.8208328E+04; -2.0200379E-01;  0.0000000E+00;  9.6342348E-02;  1.3421012E+03;
  1.6713637E+00;  9.9999998E-03;  2.0495154E-02;9753;  1.2519910E+00;  0.0000000E+00;  2.6008862E-03;  9.9700928E+02;  1.1959610E-01; -2.2071326E+03;3;  4.0368458E+01;  0.0000000E+00; -7.8643844E-02;0; -1.0566157E-01;  2.9086459E+04;  0.0000000E+00; -1.9130601E-01;  4.0000000E+04;  0.0000000E+00;  3.8208328E+04; -2.0200394E-01;  0.0000000E+00;  9.6342370E-02;  1.3421107E+03;
  1.6715242E+00;  9.9999998E-03; -3.0692158E-02;9748;  1.2529118E+00;  0.0000000E+00; -3.7834854E-03;  9.9707013E+02;  1.1959179E-01; -2.1617234E+03;3;  4.0214722E+01;  0.0000000E+00;  1.0400008E-01;0; -1.0581581E-01;  2.9095777E+04;  0.0000000E+00; -2.4911837E-01;  4.0000000E+04;  0.0000000E+00;  3.8203539E+04; -2.0131473E-01;  0.0000000E+00;  9.5498919E-02;  1.5598451E+03;
  1.6715242E+00;  9.9999998E-03;  3.0692324E-02;9754;  1.2529118E+00;  0.0000000E+00;  3.7849087E-03;  9.9707001E+02;  1.1959229E-01; -2.1618115E+03;3;  4.0214821E+01;  0.0000000E+00; -1.0402196E-01;0; -1.0581569E-01;  2.9095777E+04;  0.0000000E+00; -2.4916999E-01;  4.0000000E+04;  0.0000000E+00;  3.8203539E+04; -2.0131469E-01;  0.0000000E+00;  9.5498994E-02;  1.5598427E+03;
  1.6715626E+00;  9.9999998E-03; -7.1227483E-02;9744;  1.2609900E+00;  0.0000000E+00; -6.7755170E-03;  9.9724109E+02;  1.1958741E-01; -2.0354832E+03;3;  3.9171387E+01;  0.0000000E+00;  6.8696642E-01;0; -1.0501895E-01;  2.9119928E+04;  0.0000000E+00;  6.1938825E+00;  4.0000000E+04;  0.0000000E+00;  3.8193648E+04; -2.0273350E-01;  0.0000000E+00;  9.7714551E-02;  5.6850630E+03;
  1.6716781E+00;  9.9999998E-03; -4.0851936E-02;9747;  1.2542500E+00;  0.0000000E+00; -4.8010862E-03;  9.9710895E+02;  1.1958687E-01; -2.1326223E+03;3;  4.0012047E+01;  0.0000000E+00;  1.7429781E-01;0; -1.0591698E-01;  2.9105359E+04;  0.0000000E+00;  4.3166344E-04;  4.0000000E+04;  0.0000000E+00;  3.8198027E+04; -2.0070989E-01;  0.0000000E+00;  9.4792917E-02;  1.8679095E+03;
  1.6716781E+00;  9.9999998E-03;  4.0852103E-02;9755;  1.2542500E+00;  0.0000000E+00;  4.8025101E-03;  9.9710901E+02;  1.1958688E-01; -2.1325784E+03;3;  4.0012283E+01;  0.0000000E+00; -1.7432478E-01;0; -1.0591705E-01;  2.9105352E+04;  0.0000000E+00;  3.6207080E-04;  4.0000000E+04;  0.0000000E+00;  3.8198035E+04; -2.0070995E-01;  0.0000000E+00;  9.4792902E-02;  1.8678895E+03;
  1.6717685E+00;  9.9999998E-03; -5.0982859E-02;9746;  1.2560381E+00;  0.0000000E+00; -5.5969153E-03;  9.9713165E+02;  1.1958370E-01; -2.1155950E+03;3;  3.9773857E+01;  0.0000000E+00;  3.0278888E-01;0; -1.0586786E-01;  2.9112906E+04;  0.0000000E+00;  8.8096291E-01;  4.0000000E+04;  0.0000000E+00;  3.8193293E+04; -2.0050243E-01;  0.0000000E+00;  9.4634570E-02;  2.4102725E+03;
  1.6717685E+00;  9.9999998E-03;  5.0983027E-02;9756;  1.2560381E+00;  0.0000000E+00;  5.5983332E-03;  9.9713171E+02;  1.1958398E-01; -2.1155508E+03;3;  3.9774181E+01;  0.0000000E+00; -3.0280584E-01;0; -1.0586815E-01;  2.9112918E+04;  0.0000000E+00;  8.8088191E-01;  4.0000000E+04;  0.0000000E+00;  3.8193297E+04; -2.0050260E-01;  0.0000000E+00;  9.4634458E-02;  2.4102400E+03;
  1.6717410E+00;  9.9999998E-03; -6.1101876E-02;9745;  1.2582843E+00;  0.0000000E+00; -6.2213596E-03;  9.9716180E+02;  1.1958241E-01; -2.0934326E+03;3;  3.9492680E+01;  0.0000000E+00;  4.9571350E-01;0; -1.0558154E-01;  2.9117674E+04;  0.0000000E+00;  2.7918139E+00;  4.0000000E+04;  0.0000000E+00;  3.8191008E+04; -2.0105064E-01;  0.0000000E+00;  9.5469095E-02;  3.5412886E+03;
  1.6717410E+00;  9.9999998E-03;  6.1102044E-02;9757;  1.2582844E+00;  0.0000000E+00;  6.2227775E-03;  9.9716174E+02;  1.1958240E-01; -2.0934766E+03;3;  3.9493004E+01;  0.0000000E+00; -4.9569964E-01;0; -1.0558180E-01;  2.9117676E+04;  0.0000000E+00;  2.7917309E+00;  4.0000000E+04;  0.0000000E+00;  3.8191008E+04; -2.0105092E-01;  0.0000000E+00;  9.5469125E-02;  3.5412471E+03;
  1.6818231E+00;  9.9999998E-03; -9.2043035E-02;9786;  1.2661817E+00;  0.0000000E+00; -5.3427597E-03;  9.9757953E+02;  1.1896300E-01; -1.7583392E+03;3;  3.8928116E+01;  0.0000000E+00;  7.0160723E-01;0; -1.3228124E-01;  2.9538703E+04;  0.0000000E+00;  3.0016701E+01;  4.0000000E+04;  0.0000000E+00;  3.8078293E+04; -2.2054687E-01;  0.0000000E+00;  8.8265620E-02;  1.8707883E+04;
  1.6822501E+00;  9.9999998E-03; -8.1715316E-02;9787;  1.2624353E+00;  0.0000000E+00; -4.7308179E-03;  9.9731799E+02;  1.1895373E-01; -1.9470170E+03;3;  3.9290024E+01;  0.0000000E+00;  5.4167533E-01;0; -1.3171688E-01;  2.9538844E+04;  0.0000000E+00;  2.0512232E+01;  4.0000000E+04;  0.0000000E+00;  3.8064516E+04; -2.1241634E-01;  0.0000000E+00;  8.0699466E-02;  1.3103116E+04;
  1.6826376E+00;  9.9999998E-03; -7.1429551E-02;9788;  1.2591560E+00;  0.0000000E+00; -4.2431154E-03;  9.9701062E+02;  1.1894733E-01; -2.1687781E+03;3;  3.9637131E+01;  0.0000000E+00;  3.8388640E-01;0; -1.3129258E-01;  2.9532975E+04;  0.0000000E+00;  1.3078083E+01;  4.0000000E+04;  0.0000000E+00;  3.8053406E+04; -2.0646043E-01;  0.0000000E+00;  7.5167842E-02;  8.7311699E+03;
  1.6829392E+00;  9.9999998E-03; -6.1188765E-02;9789;  1.2563407E+00;  0.0000000E+00; -3.8338627E-03;  9.9674469E+02;  1.1894067E-01; -2.3605918E+03;3;  3.9942497E+01;  0.0000000E+00;  2.5071579E-01;0; -1.3088876E-01;  2.9525793E+04;  0.0000000E+00;  7.6805997E+00;  4.0000000E+04;  0.0000000E+00;  3.8045906E+04; -2.0229125E-01;  0.0000000E+00;  7.1402483E-02;  5.5740513E+03;
  1.6829392E+00;  9.9999998E-03;  6.1188933E-02;9801;  1.2563407E+00;  0.0000000E+00;  3.8352837E-03;  9.9674469E+02;  1.1894067E-01; -2.3605918E+03;3;  3.9942852E+01;  0.0000000E+00; -2.5074279E-01;0; -1.3088897E-01;  2.9525787E+04;  0.0000000E+00;  7.6804814E+00;  4.0000000E+04;  0.0000000E+00;  3.8045910E+04; -2.0229138E-01;  0.0000000E+00;  7.1402423E-02;  5.5740137E+03;
  1.6830903E+00;  9.9999998E-03;  8.3250910E-08;9795;  1.2488426E+00;  0.0000000E+00;  7.1488296E-07;  9.9656403E+02;  1.1894062E-01; -2.4909963E+03;3;  4.0871376E+01;  0.0000000E+00;  1.6734004E-05;0; -1.2853596E-01;  2.9505688E+04;  0.0000000E+00;  5.1981840E-13;  4.0000000E+04;  0.0000000E+00;  3.8052398E+04; -1.9603068E-01;  0.0000000E+00;  6.7494728E-02;  1.4172483E+03;
  1.6831113E+00;  9.9999998E-03; -1.0246954E-02;9794;  1.2490357E+00;  0.0000000E+00; -9.0059597E-04;  9.9655560E+02;  1.1894015E-01; -2.4970051E+03;3;  4.0837872E+01;  0.0000000E+00; -2.7989201E-02;0; -1.2865269E-01;  2.9506225E+04;  0.0000000E+00;  2.6208244E-02;  4.0000000E+04;  0.0000000E+00;  3.8051191E+04; -1.9609447E-01;  0.0000000E+00;  6.7441784E-02;  1.4527233E+03;
  1.6831113E+00;  9.9999998E-03;  1.0247122E-02;9796;  1.2490357E+00;  0.0000000E+00;  9.0202410E-04;  9.9655554E+02;  1.1894015E-01; -2.4970483E+03;3;  4.0837891E+01;  0.0000000E+00;  2.7960867E-02;0; -1.2865263E-01;  2.9506230E+04;  0.0000000E+00;  2.6183881E-02;  4.0000000E+04;  0.0000000E+00;  3.8051195E+04; -1.9609436E-01;  0.0000000E+00;  6.7441724E-02;  1.4527222E+03;
  1.6831607E+00;  9.9999998E-03; -2.0466557E-02;9793;  1.2496253E+00;  0.0000000E+00; -1.7424913E-03;  9.9653314E+02;  1.1893854E-01; -2.5130967E+03;3;  4.0747501E+01;  0.0000000E+00; -4.7397204E-02;0; -1.2897226E-01;  2.9508492E+04;  0.0000000E+00;  1.8386056E-01;  4.0000000E+04;  0.0000000E+00;  3.8048488E+04; -1.9632365E-01;  0.0000000E+00;  6.7351386E-02;  1.5629684E+03;
  1.6831608E+00;  9.9999998E-03;  2.0466726E-02;9797;  1.2496253E+00;  0.0000000E+00;  1.7439170E-03;  9.9653320E+02;  1.1893856E-01; -2.5130535E+03;3;  4.0747513E+01;  0.0000000E+00;  4.7399357E-02;0; -1.2897214E-01;  2.9508484E+04;  0.0000000E+00;  1.8380657E-01;  4.0000000E+04;  0.0000000E+00;  3.8048496E+04; -1.9632356E-01;  0.0000000E+00;  6.7351408E-02;  1.5629438E+03;
  1.6831316E+00;  9.9999998E-03; -5.0994758E-02;9790;  1.2539866E+00;  0.0000000E+00; -3.4421997E-03;  9.9658453E+02;  1.1893786E-01; -2.4759680E+03;3;  4.0211445E+01;  0.0000000E+00;  1.3649940E-01;0; -1.3044466E-01;  2.9519701E+04;  0.0000000E+00;  4.0440884E+00;  4.0000000E+04;  0.0000000E+00;  3.8042379E+04; -1.9952701E-01;  0.0000000E+00;  6.9082350E-02;  3.5031904E+03;
  1.6831316E+00;  9.9999998E-03;  5.0994929E-02;9800;  1.2539866E+00;  0.0000000E+00;  3.4436195E-03;  9.9658459E+02;  1.1893786E-01; -2.4759248E+03;3;  4.0214191E+01;  0.0000000E+00; -1.3674346E-01;0; -1.3044497E-01;  2.9519693E+04;  0.0000000E+00;  4.0439501E+00;  4.0000000E+04;  0.0000000E+00;  3.8042387E+04; -1.9952728E-01;  0.0000000E+00;  6.9082312E-02;  3.5031243E+03;
  1.6832088E+00;  9.9999998E-03; -3.0656027E-02;9792;  1.2506360E+00;  0.0000000E+00; -2.4563756E-03;  9.9651324E+02;  1.1893741E-01; -2.5273328E+03;3;  4.0615154E+01;  0.0000000E+00; -1.8378105E-02;0; -1.2942854E-01;  2.9511518E+04;  0.0000000E+00;  6.8461329E-01;  4.0000000E+04;  0.0000000E+00;  3.8045043E+04; -1.9683005E-01;  0.0000000E+00;  6.7401521E-02;  1.7970416E+03;
  1.6832088E+00;  9.9999998E-03;  3.0656192E-02;9798;  1.2506359E+00;  0.0000000E+00;  2.4578050E-03;  9.9651318E+02;  1.1893741E-01; -2.5273760E+03;3;  4.0615276E+01;  0.0000000E+00;  1.8400967E-02;0; -1.2942868E-01;  2.9511525E+04;  0.0000000E+00;  6.8454635E-01;  4.0000000E+04;  0.0000000E+00;  3.8045039E+04; -1.9683036E-01;  0.0000000E+00;  6.7401670E-02;  1.7970417E+03;
  1.6832132E+00;  9.9999998E-03; -4.0825151E-02;9791;  1.2520885E+00;  0.0000000E+00; -3.0096469E-03;  9.9651801E+02;  1.1893693E-01; -2.5238586E+03;3;  4.0434738E+01;  0.0000000E+00;  3.7197128E-02;0; -1.2994006E-01;  2.9515049E+04;  0.0000000E+00;  1.8439848E+00;  4.0000000E+04;  0.0000000E+00;  3.8042418E+04; -1.9780721E-01;  0.0000000E+00;  6.7867145E-02;  2.3388601E+03;
  1.6832132E+00;  9.9999998E-03;  4.0825319E-02;9799;  1.2520885E+00;  0.0000000E+00;  3.0110665E-03;  9.9651788E+02;  1.1893693E-01; -2.5239451E+03;3;  4.0434982E+01;  0.0000000E+00; -3.7166432E-02;0; -1.2993999E-01;  2.9515059E+04;  0.0000000E+00;  1.8439028E+00;  4.0000000E+04;  0.0000000E+00;  3.8042418E+04; -1.9780718E-01;  0.0000000E+00;  6.7867190E-02;  2.3388391E+03;
  1.6929781E+00;  9.9999998E-03; -9.2614546E-02;9828;  1.2646741E+00;  0.0000000E+00; -2.5771251E-03;  9.9717999E+02;  1.1842170E-01; -2.0108894E+03;3;  3.9408577E+01;  0.0000000E+00;  2.4407731E-01;0; -1.6243023E-01;  2.9914918E+04;  0.0000000E+00;  3.7697266E+01;  4.0000000E+04;  0.0000000E+00;  3.7915660E+04; -2.3105557E-01;  0.0000000E+00;  6.8625338E-02;  2.0546895E+04;
  1.6933296E+00;  9.9999998E-03; -8.2190253E-02;9829;  1.2608553E+00;  0.0000000E+00; -2.2158613E-03;  9.9718030E+02;  1.1841249E-01; -2.0094424E+03;3;  3.9742985E+01;  0.0000000E+00;  1.6872607E-01;0; -1.6035798E-01;  2.9924615E+04;  0.0000000E+00;  2.8856127E+01;  4.0000000E+04;  0.0000000E+00;  3.7909422E+04; -2.2052254E-01;  0.0000000E+00;  6.0164560E-02;  1.5736419E+04;
  1.6936665E+00;  9.9999998E-03; -7.1761146E-02;9830;  1.2574832E+00;  0.0000000E+00; -1.9259322E-03;  9.9706281E+02;  1.1840903E-01; -2.0919280E+03;3;  4.0072521E+01;  0.0000000E+00;  5.9239376E-02;0; -1.5856901E-01;  2.9923332E+04;  0.0000000E+00;  2.1087570E+01;  4.0000000E+04;  0.0000000E+00;  3.7904320E+04; -2.1215551E-01;  0.0000000E+00;  5.3586502E-02;  1.1538903E+04;
  1.6939611E+00;  9.9999998E-03; -6.1369456E-02;9831;  1.2545651E+00;  0.0000000E+00; -1.6770003E-03;  9.9681366E+02;  1.1840298E-01; -2.2682002E+03;3;  4.0356800E+01;  0.0000000E+00; -6.4652069E-03;0; -1.5704580E-01;  2.9916674E+04;  0.0000000E+00;  1.4512502E+01;  4.0000000E+04;  0.0000000E+00;  3.7898707E+04; -2.0575669E-01;  0.0000000E+00;  4.8710901E-02;  8.0326763E+03;
  1.6939611E+00;  9.9999998E-03;  6.1369617E-02;9843;  1.2545651E+00;  0.0000000E+00;  1.6784202E-03;  9.9681366E+02;  1.1840298E-01; -2.2682004E+03;3;  4.0357132E+01;  0.0000000E+00;  6.4146817E-03;0; -1.5704620E-01;  2.9916676E+04;  0.0000000E+00;  1.4512446E+01;  4.0000000E+04;  0.0000000E+00;  3.7898707E+04; -2.0575714E-01;  0.0000000E+00;  4.8710939E-02;  8.0326553E+03;
  1.6942012E+00;  9.9999998E-03; -5.1046498E-02;9832;  1.2521178E+00;  0.0000000E+00; -1.4563019E-03;  9.9655835E+02;  1.1840114E-01; -2.4488904E+03;3;  4.0608231E+01;  0.0000000E+00; -6.4672686E-02;0; -1.5571228E-01;  2.9907070E+04;  0.0000000E+00;  9.2008095E+00;  4.0000000E+04;  0.0000000E+00;  3.7892625E+04; -2.0098317E-01;  0.0000000E+00;  4.5270897E-02;  5.2582959E+03;
  1.6942012E+00;  9.9999998E-03;  5.1046666E-02;9842;  1.2521176E+00;  0.0000000E+00;  1.4577360E-03;  9.9655841E+02;  1.1840109E-01; -2.4488479E+03;3;  4.0606182E+01;  0.0000000E+00;  6.4771339E-02;0; -1.5571192E-01;  2.9907068E+04;  0.0000000E+00;  9.2006779E+00;  4.0000000E+04;  0.0000000E+00;  3.7892629E+04; -2.0098275E-01;  0.0000000E+00;  4.5270830E-02;  5.2582578E+03;
  1.6943718E+00;  9.9999998E-03; -4.0788244E-02;9833;  1.2501334E+00;  0.0000000E+00; -1.2503156E-03;  9.9634290E+02;  1.1839890E-01; -2.6014253E+03;3;  4.0812744E+01;  0.0000000E+00; -9.2055500E-02;0; -1.5454409E-01;  2.9898459E+04;  0.0000000E+00;  5.2687230E+00;  4.0000000E+04;  0.0000000E+00;  3.7888383E+04; -1.9752522E-01;  0.0000000E+00;  4.2981129E-02;  3.2697124E+03;
  1.6943718E+00;  9.9999998E-03;  4.0788412E-02;9841;  1.2501334E+00;  0.0000000E+00;  1.2517381E-03;  9.9634290E+02;  1.1839890E-01; -2.6014253E+03;3;  4.0812916E+01;  0.0000000E+00;  9.2110559E-02;0; -1.5454403E-01;  2.9898467E+04;  0.0000000E+00;  5.2686224E+00;  4.0000000E+04;  0.0000000E+00;  3.7888379E+04; -1.9752517E-01;  0.0000000E+00;  4.2981148E-02;  3.2696719E+03;
  1.6944766E+00;  9.9999998E-03; -3.0579390E-02;9834;  1.2486018E+00;  0.0000000E+00; -1.0301565E-03;  9.9620630E+02;  1.1839890E-01; -2.6981042E+03;3;  4.0973263E+01;  0.0000000E+00; -1.1001062E-01;0; -1.5357037E-01;  2.9891586E+04;  0.0000000E+00;  2.6136773E+00;  4.0000000E+04;  0.0000000E+00;  3.7886312E+04; -1.9512148E-01;  0.0000000E+00;  4.1551117E-02;  2.0447468E+03;
  1.6944766E+00;  9.9999998E-03;  3.0579558E-02;9840;  1.2486019E+00;  0.0000000E+00;  1.0315751E-03;  9.9620630E+02;  1.1839890E-01; -2.6981045E+03;3;  4.0973427E+01;  0.0000000E+00;  1.0997593E-01;0; -1.5357046E-01;  2.9891590E+04;  0.0000000E+00;  2.6135929E+00;  4.0000000E+04;  0.0000000E+00;  3.7886316E+04; -1.9512160E-01;  0.0000000E+00;  4.1551147E-02;  2.0447325E+03;
  1.6945287E+00;  9.9999998E-03; -2.0396806E-02;9835;  1.2475133E+00;  0.0000000E+00; -7.6276436E-04;  9.9613776E+02;  1.1839835E-01; -2.7466011E+03;3;  4.1093384E+01;  0.0000000E+00; -1.0301536E-01;0; -1.5283446E-01;  2.9887045E+04;  0.0000000E+00;  1.0184743E+00;  4.0000000E+04;  0.0000000E+00;  3.7885918E+04; -1.9356149E-01;  0.0000000E+00;  4.0727038E-02;  1.4871387E+03;
  1.6945287E+00;  9.9999998E-03;  2.0396974E-02;9839;  1.2475133E+00;  0.0000000E+00;  7.6418859E-04;  9.9613776E+02;  1.1839835E-01; -2.7466011E+03;3;  4.1093418E+01;  0.0000000E+00;  1.0302572E-01;0; -1.5283458E-01;  2.9887051E+04;  0.0000000E+00;  1.0184144E+00;  4.0000000E+04;  0.0000000E+00;  3.7885922E+04; -1.9356161E-01;  0.0000000E+00;  4.0727038E-02;  1.4871407E+03;
  1.6945508E+00;  9.9999998E-03;  8.3805581E-08;9837;  1.2466451E+00;  0.0000000E+00;  7.1425092E-07;  9.9610675E+02;  1.1839741E-01; -2.7685342E+03;3;  4.1194290E+01;  0.0000000E+00;  9.8794699E-06;0; -1.5221652E-01;  2.9884225E+04;  0.0000000E+00; -4.9721794E-12;  4.0000000E+04;  0.0000000E+00;  3.7886906E+04; -1.9240126E-01;  0.0000000E+00;  4.0184740E-02;  1.3100764E+03;
  1.6945472E+00;  9.9999998E-03; -1.0207921E-02;9836;  1.2468606E+00;  0.0000000E+00; -4.2019060E-04;  9.9611035E+02;  1.1839815E-01; -2.7659663E+03;3;  4.1167618E+01;  0.0000000E+00; -7.5243145E-02;0; -1.5237641E-01;  2.9884871E+04;  0.0000000E+00;  2.2807138E-01;  4.0000000E+04;  0.0000000E+00;  3.7886301E+04; -1.9268833E-01;  0.0000000E+00;  4.0311914E-02;  1.3331439E+03;
  1.6945472E+00;  9.9999998E-03;  1.0208091E-02;9838;  1.2468606E+00;  0.0000000E+00;  4.2161663E-04;  9.9611035E+02;  1.1839815E-01; -2.7659663E+03;3;  4.1167553E+01;  0.0000000E+00;  7.5279802E-02;0; -1.5237649E-01;  2.9884859E+04;  0.0000000E+00;  2.2803937E-01;  4.0000000E+04;  0.0000000E+00;  3.7886297E+04; -1.9268839E-01;  0.0000000E+00;  4.0311903E-02;  1.3331179E+03;
  1.7041526E+00;  9.9999998E-03; -9.3156017E-02;9867;  1.2631954E+00;  0.0000000E+00;  6.5213977E-04;  9.9682080E+02;  1.1796844E-01; -2.2212202E+03;3;  3.9869305E+01;  0.0000000E+00; -3.1132609E-01;0; -1.9350246E-01;  3.0267195E+04;  0.0000000E+00;  3.7941608E+01;  4.0000000E+04;  0.0000000E+00;  3.7738105E+04; -2.4086241E-01;  0.0000000E+00;  4.7359966E-02;  1.8594260E+04;
  1.7044683E+00;  9.9999998E-03; -8.2702078E-02;9868;  1.2593226E+00;  0.0000000E+00;  6.5511779E-04;  9.9694989E+02;  1.1796182E-01; -2.1297351E+03;3;  4.0178562E+01;  0.0000000E+00; -3.2089096E-01;0; -1.9038226E-01;  3.0277943E+04;  0.0000000E+00;  3.2027885E+01;  4.0000000E+04;  0.0000000E+00;  3.7737871E+04; -2.2936219E-01;  0.0000000E+00;  3.8979929E-02;  1.5455863E+04;
  1.7047591E+00;  9.9999998E-03; -7.2210096E-02;9869;  1.2558937E+00;  0.0000000E+00;  6.3539698E-04;  9.9703046E+02;  1.1795726E-01; -2.0723545E+03;3;  4.0467274E+01;  0.0000000E+00; -3.1001046E-01;0; -1.8742996E-01;  3.0283498E+04;  0.0000000E+00;  2.6068968E+01;  4.0000000E+04;  0.0000000E+00;  3.7739859E+04; -2.1950625E-01;  0.0000000E+00;  3.2076277E-02;  1.2363022E+04;
  1.7050183E+00;  9.9999998E-03; -6.1716359E-02;9870;  1.2529174E+00;  0.0000000E+00;  5.9500616E-04;  9.9700165E+02;  1.1795434E-01; -2.0914065E+03;3;  4.0724998E+01;  0.0000000E+00; -2.8921193E-01;0; -1.8475133E-01;  3.0282906E+04;  0.0000000E+00;  2.0200634E+01;  4.0000000E+04;  0.0000000E+00;  3.7740656E+04; -2.1139717E-01;  0.0000000E+00;  2.6645839E-02;  9.4216406E+03;
  1.7050183E+00;  9.9999998E-03;  6.1716527E-02;9882;  1.2529175E+00;  0.0000000E+00; -5.9359666E-04;  9.9700159E+02;  1.1795415E-01; -2.0914482E+03;3;  4.0725132E+01;  0.0000000E+00;  2.8915447E-01;0; -1.8475160E-01;  3.0282902E+04;  0.0000000E+00;  2.0200499E+01;  4.0000000E+04;  0.0000000E+00;  3.7740652E+04; -2.1139742E-01;  0.0000000E+00;  2.6645822E-02;  9.4216182E+03;
  1.7052381E+00;  9.9999998E-03; -5.1262263E-02;9871;  1.2504071E+00;  0.0000000E+00;  5.3344521E-04;  9.9686133E+02;  1.1795080E-01; -2.1883511E+03;3;  4.0949623E+01;  0.0000000E+00; -2.5367963E-01;0; -1.8238692E-01;  3.0278170E+04;  0.0000000E+00;  1.4584263E+01;  4.0000000E+04;  0.0000000E+00;  3.7738316E+04; -2.0494416E-01;  0.0000000E+00;  2.2557249E-02;  6.7241079E+03;
  1.7052381E+00;  9.9999998E-03;  5.1262427E-02;9881;  1.2504072E+00;  0.0000000E+00; -5.3202611E-04;  9.9686133E+02;  1.1795080E-01; -2.1883511E+03;3;  4.0949825E+01;  0.0000000E+00;  2.5365949E-01;0; -1.8238701E-01;  3.0278170E+04;  0.0000000E+00;  1.4584146E+01;  4.0000000E+04;  0.0000000E+00;  3.7738316E+04; -2.0494421E-01;  0.0000000E+00;  2.2557197E-02;  6.7240679E+03;
  1.7054132E+00;  9.9999998E-03; -4.0871859E-02;9872;  1.2483666E+00;  0.0000000E+00;  4.5229952E-04;  9.9667590E+02;  1.1794841E-01; -2.3168572E+03;3;  4.1137196E+01;  0.0000000E+00; -2.1544325E-01;0; -1.8037276E-01;  3.0271301E+04;  0.0000000E+00;  9.5655622E+00;  4.0000000E+04;  0.0000000E+00;  3.7734188E+04; -1.9997825E-01;  0.0000000E+00;  1.9605493E-02;  4.4106118E+03;
  1.7054132E+00;  9.9999998E-03;  4.0872030E-02;9880;  1.2483666E+00;  0.0000000E+00; -4.5088021E-04;  9.9667590E+02;  1.1794841E-01; -2.3168572E+03;3;  4.1137352E+01;  0.0000000E+00;  2.1542296E-01;0; -1.8037274E-01;  3.0271291E+04;  0.0000000E+00;  9.5654297E+00;  4.0000000E+04;  0.0000000E+00;  3.7734191E+04; -1.9997820E-01;  0.0000000E+00;  1.9605452E-02;  4.4105708E+03;
  1.7055421E+00;  9.9999998E-03; -3.0567413E-02;9873;  1.2467904E+00;  0.0000000E+00;  3.5819394E-04;  9.9647711E+02;  1.1794782E-01; -2.4547966E+03;3;  4.1283733E+01;  0.0000000E+00; -1.7402892E-01;0; -1.7876850E-01;  3.0264064E+04;  0.0000000E+00;  5.4119473E+00;  4.0000000E+04;  0.0000000E+00;  3.7728723E+04; -1.9634585E-01;  0.0000000E+00;  1.7577354E-02;  2.6072397E+03;
  1.7055421E+00;  9.9999998E-03;  3.0567594E-02;9879;  1.2467904E+00;  0.0000000E+00; -3.5677748E-04;  9.9647717E+02;  1.1794782E-01; -2.4547551E+03;3;  4.1283646E+01;  0.0000000E+00;  1.7401060E-01;0; -1.7876874E-01;  3.0264051E+04;  0.0000000E+00;  5.4117818E+00;  4.0000000E+04;  0.0000000E+00;  3.7728723E+04; -1.9634600E-01;  0.0000000E+00;  1.7577257E-02;  2.6071499E+03;
  1.7056273E+00;  9.9999998E-03; -2.0345282E-02;9874;  1.2456692E+00;  0.0000000E+00;  2.5665620E-04;  9.9630920E+02;  1.1794699E-01; -2.5713745E+03;3;  4.1385239E+01;  0.0000000E+00; -1.1761414E-01;0; -1.7761299E-01;  3.0258166E+04;  0.0000000E+00;  2.3688550E+00;  4.0000000E+04;  0.0000000E+00;  3.7723797E+04; -1.9389234E-01;  0.0000000E+00;  1.6279347E-02;  1.4858824E+03;
  1.7056273E+00;  9.9999998E-03;  2.0345455E-02;9878;  1.2456692E+00;  0.0000000E+00; -2.5523582E-04;  9.9630920E+02;  1.1794699E-01; -2.5713745E+03;3;  4.1385151E+01;  0.0000000E+00;  1.1763141E-01;0; -1.7761308E-01;  3.0258156E+04;  0.0000000E+00;  2.3687708E+00;  4.0000000E+04;  0.0000000E+00;  3.7723793E+04; -1.9389240E-01;  0.0000000E+00;  1.6279323E-02;  1.4858318E+03;
  1.7056892E+00;  9.9999998E-03;  8.3726491E-08;9876;  1.2447765E+00;  0.0000000E+00;  7.1156404E-07;  9.9617462E+02;  1.1794715E-01; -2.6648242E+03;3;  4.1459904E+01;  0.0000000E+00;  4.2319298E-06;0; -1.7665844E-01;  3.0252973E+04;  0.0000000E+00; -3.3130471E-12;  4.0000000E+04;  0.0000000E+00;  3.7720086E+04; -1.9199692E-01;  0.0000000E+00;  1.5338480E-02;  1.1208533E+03;
  1.7056746E+00;  9.9999998E-03; -1.0170895E-02;9875;  1.2449979E+00;  0.0000000E+00;  1.4058455E-04;  9.9620721E+02;  1.1794729E-01; -2.6421860E+03;3;  4.1440395E+01;  0.0000000E+00; -5.0065398E-02;0; -1.7690796E-01;  3.0254102E+04;  0.0000000E+00;  5.7392973E-01;  4.0000000E+04;  0.0000000E+00;  3.7721059E+04; -1.9247283E-01;  0.0000000E+00;  1.5564870E-02;  1.1321198E+03;
  1.7056745E+00;  9.9999998E-03;  1.0171062E-02;9877;  1.2449979E+00;  0.0000000E+00; -1.3916375E-04;  9.9620721E+02;  1.1794764E-01; -2.6421860E+03;3;  4.1440498E+01;  0.0000000E+00;  5.0069153E-02;0; -1.7690790E-01;  3.0254102E+04;  0.0000000E+00;  5.7389641E-01;  4.0000000E+04;  0.0000000E+00;  3.7721059E+04; -1.9247277E-01;  0.0000000E+00;  1.5564878E-02;  1.1321163E+03;
  1.7153231E+00;  9.9999998E-03; -9.3579195E-02;9903;  1.2618684E+00;  0.0000000E+00;  4.0053888E-03;  9.9698407E+02;  1.1759022E-01; -2.0609761E+03;3;  4.0246761E+01;  0.0000000E+00; -6.5423632E-01;0; -2.2175145E-01;  3.0612768E+04;  0.0000000E+00;  2.9147341E+01;  4.0000000E+04;  0.0000000E+00;  3.7564922E+04; -2.4579194E-01;  0.0000000E+00;  2.4040494E-02;  1.3306336E+04;
  1.7156128E+00;  9.9999998E-03; -8.3136380E-02;9904;  1.2579361E+00;  0.0000000E+00;  3.5916648E-03;  9.9702594E+02;  1.1758484E-01; -2.0311282E+03;3;  4.0533852E+01;  0.0000000E+00; -6.0522938E-01;0; -2.1886583E-01;  3.0618135E+04;  0.0000000E+00;  2.7409912E+01;  4.0000000E+04;  0.0000000E+00;  3.7564652E+04; -2.3574723E-01;  0.0000000E+00;  1.6881406E-02;  1.2092061E+04;
  1.7158779E+00;  9.9999998E-03; -7.2650343E-02;9905;  1.2544689E+00;  0.0000000E+00;  3.1876799E-03;  9.9711035E+02;  1.1758043E-01; -1.9724061E+03;3;  4.0796387E+01;  0.0000000E+00; -5.4120481E-01;0; -2.1566336E-01;  3.0622941E+04;  0.0000000E+00;  2.4504799E+01;  4.0000000E+04;  0.0000000E+00;  3.7567805E+04; -2.2618252E-01;  0.0000000E+00;  1.0519159E-02;  1.0456569E+04;
  1.7161133E+00;  9.9999998E-03; -6.2132735E-02;9906;  1.2514625E+00;  0.0000000E+00;  2.7797783E-03;  9.9718921E+02;  1.1757676E-01; -1.9176458E+03;3;  4.1035080E+01;  0.0000000E+00; -4.7005740E-01;0; -2.1241933E-01;  3.0625646E+04;  0.0000000E+00;  2.0885881E+01;  4.0000000E+04;  0.0000000E+00;  3.7572352E+04; -2.1760337E-01;  0.0000000E+00;  5.1840367E-03;  8.6149180E+03;
  1.7161133E+00;  9.9999998E-03;  6.2132891E-02;9918;  1.2514625E+00;  0.0000000E+00; -2.7783634E-03;  9.9718915E+02;  1.1757675E-01; -1.9176864E+03;3;  4.1035152E+01;  0.0000000E+00;  4.7001439E-01;0; -2.1241948E-01;  3.0625660E+04;  0.0000000E+00;  2.0885981E+01;  4.0000000E+04;  0.0000000E+00;  3.7572352E+04; -2.1760350E-01;  0.0000000E+00;  5.1840185E-03;  8.6149648E+03;
  1.7163130E+00;  9.9999998E-03; -5.1606748E-02;9907;  1.2489233E+00;  0.0000000E+00;  2.3597823E-03;  9.9721655E+02;  1.1757407E-01; -1.8981953E+03;3;  4.1245102E+01;  0.0000000E+00; -3.9606446E-01;0; -2.0933388E-01;  3.0625975E+04;  0.0000000E+00;  1.6799892E+01;  4.0000000E+04;  0.0000000E+00;  3.7575484E+04; -2.1025319E-01;  0.0000000E+00;  9.1930933E-04;  6.6999902E+03;
  1.7163130E+00;  9.9999998E-03;  5.1606916E-02;9917;  1.2489233E+00;  0.0000000E+00; -2.3583651E-03;  9.9721649E+02;  1.1757407E-01; -1.8982766E+03;3;  4.1242889E+01;  0.0000000E+00;  3.9613101E-01;0; -2.0933340E-01;  3.0625984E+04;  0.0000000E+00;  1.6799833E+01;  4.0000000E+04;  0.0000000E+00;  3.7575488E+04; -2.1025267E-01;  0.0000000E+00;  9.1926724E-04;  6.6999722E+03;
  1.7164772E+00;  9.9999998E-03; -4.1112114E-02;9908;  1.2468579E+00;  0.0000000E+00;  1.9224795E-03;  9.9715381E+02;  1.1757267E-01; -1.9403370E+03;3;  4.1418049E+01;  0.0000000E+00; -3.1811073E-01;0; -2.0659700E-01;  3.0623410E+04;  0.0000000E+00;  1.2328146E+01;  4.0000000E+04;  0.0000000E+00;  3.7575133E+04; -2.0425849E-01;  0.0000000E+00; -2.3385109E-03;  4.7739395E+03;
  1.7164772E+00;  9.9999998E-03;  4.1112281E-02;9916;  1.2468579E+00;  0.0000000E+00; -1.9210593E-03;  9.9715381E+02;  1.1757267E-01; -1.9403370E+03;3;  4.1418148E+01;  0.0000000E+00;  3.1808427E-01;0; -2.0659707E-01;  3.0623430E+04;  0.0000000E+00;  1.2328051E+01;  4.0000000E+04;  0.0000000E+00;  3.7575133E+04; -2.0425855E-01;  0.0000000E+00; -2.3385347E-03;  4.7739048E+03;
  1.7166049E+00;  9.9999998E-03; -3.0691322E-02;9909;  1.2452682E+00;  0.0000000E+00;  1.4659130E-03;  9.9700189E+02;  1.1757190E-01; -2.0433724E+03;3;  4.1556709E+01;  0.0000000E+00; -2.4042654E-01;0; -2.0435843E-01;  3.0618584E+04;  0.0000000E+00;  7.7863569E+00;  4.0000000E+04;  0.0000000E+00;  3.7570199E+04; -1.9966176E-01;  0.0000000E+00; -4.6966737E-03;  2.9624524E+03;
  1.7166049E+00;  9.9999998E-03;  3.0691486E-02;9915;  1.2452682E+00;  0.0000000E+00; -1.4644900E-03;  9.9700189E+02;  1.1757190E-01; -2.0433724E+03;3;  4.1556801E+01;  0.0000000E+00;  2.4041605E-01;0; -2.0435841E-01;  3.0618590E+04;  0.0000000E+00;  7.7862968E+00;  4.0000000E+04;  0.0000000E+00;  3.7570203E+04; -1.9966173E-01;  0.0000000E+00; -4.6966798E-03;  2.9624365E+03;
  1.7166965E+00;  9.9999998E-03; -2.0384761E-02;9910;  1.2441485E+00;  0.0000000E+00;  9.9148985E-04;  9.9680243E+02;  1.1757163E-01; -2.1788845E+03;3;  4.1653461E+01;  0.0000000E+00; -1.6125730E-01;0; -2.0271878E-01;  3.0612988E+04;  0.0000000E+00;  3.7316852E+00;  4.0000000E+04;  0.0000000E+00;  3.7562293E+04; -1.9644485E-01;  0.0000000E+00; -6.2739216E-03;  1.4972415E+03;
  1.7166965E+00;  9.9999998E-03;  2.0384928E-02;9914;  1.2441485E+00;  0.0000000E+00; -9.9006831E-04;  9.9680243E+02;  1.1757163E-01; -2.1788845E+03;3;  4.1653591E+01;  0.0000000E+00;  1.6124085E-01;0; -2.0271891E-01;  3.0612998E+04;  0.0000000E+00;  3.7316232E+00;  4.0000000E+04;  0.0000000E+00;  3.7562293E+04; -1.9644500E-01;  0.0000000E+00; -6.2739141E-03;  1.4972371E+03;
  1.7167523E+00;  9.9999998E-03; -1.0175382E-02;9911;  1.2434835E+00;  0.0000000E+00;  5.0113205E-04;  9.9664142E+02;  1.1757309E-01; -2.2883638E+03;3;  4.1711823E+01;  0.0000000E+00; -8.1038326E-02;0; -2.0173194E-01;  3.0608322E+04;  0.0000000E+00;  9.5751673E-01;  4.0000000E+04;  0.0000000E+00;  3.7555570E+04; -1.9455630E-01;  0.0000000E+00; -7.1756435E-03;  8.0629700E+02;
  1.7167523E+00;  9.9999998E-03;  1.0175550E-02;9913;  1.2434835E+00;  0.0000000E+00; -4.9971091E-04;  9.9664142E+02;  1.1757237E-01; -2.2883638E+03;3;  4.1711880E+01;  0.0000000E+00;  8.1034511E-02;0; -2.0173210E-01;  3.0608322E+04;  0.0000000E+00;  9.5748401E-01;  4.0000000E+04;  0.0000000E+00;  3.7555566E+04; -1.9455644E-01;  0.0000000E+00; -7.1756500E-03;  8.0629285E+02;
  1.7167706E+00;  9.9999998E-03;  8.3729759E-08;9912;  1.2432628E+00;  0.0000000E+00;  7.1023368E-07;  9.9658453E+02;  1.1757249E-01; -2.3270186E+03;3;  4.1731953E+01;  0.0000000E+00; -4.0233135E-06;0; -2.0140080E-01;  3.0606885E+04;  0.0000000E+00; -2.4125140E-12;  4.0000000E+04;  0.0000000E+00;  3.7553293E+04; -1.9393188E-01;  0.0000000E+00; -7.4689258E-03;  7.8284998E+02;
  1.7264889E+00;  9.9999998E-03; -9.3855821E-02;9937;  1.2607833E+00;  0.0000000E+00;  7.2230338E-03;  9.9789642E+02;  1.1727262E-01; -1.4036833E+03;3;  4.0594788E+01;  0.0000000E+00; -9.0906000E-01;0; -2.4171332E-01;  3.0956389E+04;  0.0000000E+00;  1.4334157E+01;  4.0000000E+04;  0.0000000E+00;  3.7415797E+04; -2.4056356E-01;  0.0000000E+00; -1.1497581E-03;  6.6978066E+03;
  1.7267572E+00;  9.9999998E-03; -8.3436213E-02;9938;  1.2567699E+00;  0.0000000E+00;  6.4132670E-03;  9.9772101E+02;  1.1726957E-01; -1.5198383E+03;3;  4.0863407E+01;  0.0000000E+00; -8.3862787E-01;0; -2.4110824E-01;  3.0952650E+04;  0.0000000E+00;  1.6276123E+01;  4.0000000E+04;  0.0000000E+00;  3.7408562E+04; -2.3494595E-01;  0.0000000E+00; -6.1622900E-03;  6.9691089E+03;
  1.7270030E+00;  9.9999998E-03; -7.2978623E-02;9939;  1.2532492E+00;  0.0000000E+00;  5.6259511E-03;  9.9765033E+02;  1.1726695E-01; -1.5661321E+03;3;  4.1110340E+01;  0.0000000E+00; -7.5043106E-01;0; -2.3937607E-01;  3.0951961E+04;  0.0000000E+00;  1.6528013E+01;  4.0000000E+04;  0.0000000E+00;  3.7406219E+04; -2.2820178E-01;  0.0000000E+00; -1.1174299E-02;  6.6463389E+03;
  1.7272216E+00;  9.9999998E-03; -6.2489912E-02;9940;  1.2502154E+00;  0.0000000E+00;  4.8502935E-03;  9.9764600E+02;  1.1726421E-01; -1.5682745E+03;3;  4.1336193E+01;  0.0000000E+00; -6.5463877E-01;0; -2.3689213E-01;  3.0952260E+04;  0.0000000E+00;  1.5426994E+01;  4.0000000E+04;  0.0000000E+00;  3.7406621E+04; -2.2114031E-01;  0.0000000E+00; -1.5751818E-02;  5.8901792E+03;
  1.7272216E+00;  9.9999998E-03;  6.2490080E-02;9952;  1.2502154E+00;  0.0000000E+00; -4.8488765E-03;  9.9764600E+02;  1.1726421E-01; -1.5682745E+03;3;  4.1334316E+01;  0.0000000E+00;  6.5469187E-01;0; -2.3689106E-01;  3.0952258E+04;  0.0000000E+00;  1.5426913E+01;  4.0000000E+04;  0.0000000E+00;  3.7406617E+04; -2.2113921E-01;  0.0000000E+00; -1.5751859E-02;  5.8901567E+03;
  1.7274079E+00;  9.9999998E-03; -5.1971395E-02;9941;  1.2476608E+00;  0.0000000E+00;  4.0699011E-03;  9.9767987E+02;  1.1726181E-01; -1.5450433E+03;3;  4.1532803E+01;  0.0000000E+00; -5.5331999E-01;0; -2.3404546E-01;  3.0953475E+04;  0.0000000E+00;  1.3509399E+01;  4.0000000E+04;  0.0000000E+00;  3.7409219E+04; -2.1437709E-01;  0.0000000E+00; -1.9668376E-02;  4.9058311E+03;
  1.7274079E+00;  9.9999998E-03;  5.1971555E-02;9951;  1.2476608E+00;  0.0000000E+00; -4.0684822E-03;  9.9767987E+02;  1.1726205E-01; -1.5450433E+03;3;  4.1532963E+01;  0.0000000E+00;  5.5330503E-01;0; -2.3404571E-01;  3.0953465E+04;  0.0000000E+00;  1.3509416E+01;  4.0000000E+04;  0.0000000E+00;  3.7409215E+04; -2.1437734E-01;  0.0000000E+00; -1.9668378E-02;  4.9058291E+03;
  1.7275622E+00;  9.9999998E-03; -4.1441716E-02;9942;  1.2455764E+00;  0.0000000E+00;  3.2785672E-03;  9.9768622E+02;  1.1726055E-01; -1.5403101E+03;3;  4.1697342E+01;  0.0000000E+00; -4.4692242E-01;0; -2.3129307E-01;  3.0953098E+04;  0.0000000E+00;  1.0924787E+01;  4.0000000E+04;  0.0000000E+00;  3.7411020E+04; -2.0844913E-01;  0.0000000E+00; -2.2843936E-02;  3.7818398E+03;
  1.7275622E+00;  9.9999998E-03;  4.1441880E-02;9950;  1.2455763E+00;  0.0000000E+00; -3.2771449E-03;  9.9768616E+02;  1.1726055E-01; -1.5403497E+03;3;  4.1696999E+01;  0.0000000E+00;  4.4690168E-01;0; -2.3129345E-01;  3.0953117E+04;  0.0000000E+00;  1.0924760E+01;  4.0000000E+04;  0.0000000E+00;  3.7411020E+04; -2.0844950E-01;  0.0000000E+00; -2.2843959E-02;  3.7818242E+03;
  1.7276841E+00;  9.9999998E-03; -3.0944390E-02;9943;  1.2439660E+00;  0.0000000E+00;  2.4762417E-03;  9.9760577E+02;  1.1726080E-01; -1.5934069E+03;3;  4.1826973E+01;  0.0000000E+00; -3.3718085E-01;0; -2.2893354E-01;  3.0950629E+04;  0.0000000E+00;  7.6591444E+00;  4.0000000E+04;  0.0000000E+00;  3.7408305E+04; -2.0367008E-01;  0.0000000E+00; -2.5263455E-02;  2.5438018E+03;
  1.7276841E+00;  9.9999998E-03;  3.0944560E-02;9949;  1.2439660E+00;  0.0000000E+00; -2.4748223E-03;  9.9760577E+02;  1.1726060E-01; -1.5934069E+03;3;  4.1827076E+01;  0.0000000E+00;  3.3712777E-01;0; -2.2893366E-01;  3.0950627E+04;  0.0000000E+00;  7.6590476E+00;  4.0000000E+04;  0.0000000E+00;  3.7408305E+04; -2.0367017E-01;  0.0000000E+00; -2.5263494E-02;  2.5437737E+03;
  1.7277732E+00;  9.9999998E-03; -2.0535180E-02;9944;  1.2428306E+00;  0.0000000E+00;  1.6629995E-03;  9.9743066E+02;  1.1725990E-01; -1.7096158E+03;3;  4.1920567E+01;  0.0000000E+00; -2.2544710E-01;0; -2.2715452E-01;  3.0946736E+04;  0.0000000E+00;  4.0473723E+00;  4.0000000E+04;  0.0000000E+00;  3.7400500E+04; -2.0021297E-01;  0.0000000E+00; -2.6941555E-02;  1.3009635E+03;
  1.7277732E+00;  9.9999998E-03;  2.0535350E-02;9948;  1.2428306E+00;  0.0000000E+00; -1.6615794E-03;  9.9743066E+02;  1.1725990E-01; -1.7096158E+03;3;  4.1920391E+01;  0.0000000E+00;  2.2541320E-01;0; -2.2715463E-01;  3.0946734E+04;  0.0000000E+00;  4.0473051E+00;  4.0000000E+04;  0.0000000E+00;  3.7400500E+04; -2.0021304E-01;  0.0000000E+00; -2.6941583E-02;  1.3009451E+03;
  1.7278284E+00;  9.9999998E-03; -1.0237574E-02;9945;  1.2421600E+00;  0.0000000E+00;  8.3715178E-04;  9.9724890E+02;  1.1726058E-01; -1.8303573E+03;3;  4.1975449E+01;  0.0000000E+00; -1.1291552E-01;0; -2.2605687E-01;  3.0942500E+04;  0.0000000E+00;  1.1107165E+00;  4.0000000E+04;  0.0000000E+00;  3.7392109E+04; -1.9813883E-01;  0.0000000E+00; -2.7918039E-02;  3.9346783E+02;
  1.7278284E+00;  9.9999998E-03;  1.0237745E-02;9947;  1.2421600E+00;  0.0000000E+00; -8.3573139E-04;  9.9724896E+02;  1.1726058E-01; -1.8303176E+03;3;  4.1975712E+01;  0.0000000E+00;  1.1289263E-01;0; -2.2605687E-01;  3.0942496E+04;  0.0000000E+00;  1.1106750E+00;  4.0000000E+04;  0.0000000E+00;  3.7392109E+04; -1.9813880E-01;  0.0000000E+00; -2.7918067E-02;  3.9344730E+02;
  1.7278467E+00;  9.9999998E-03;  8.3153161E-08;9946;  1.2419382E+00;  0.0000000E+00;  7.0992354E-07;  9.9717395E+02;  1.1726118E-01; -1.8801281E+03;3;  4.1994717E+01;  0.0000000E+00; -1.1444092E-05;0; -2.2568750E-01;  3.0941088E+04;  0.0000000E+00;  6.7950389E-12;  4.0000000E+04;  0.0000000E+00;  3.7388445E+04; -1.9745007E-01;  0.0000000E+00; -2.8237430E-02;  2.6148453E+02;
  1.7376491E+00;  9.9999998E-03; -9.4072796E-02;9968;  1.2600167E+00;  0.0000000E+00;  1.0274822E-02;  9.9909430E+02;  1.1700476E-01; -5.8927307E+02;3;  4.0912109E+01;  0.0000000E+00; -1.1769842E+00;0; -2.4936590E-01;  3.1284326E+04;  0.0000000E+00; -8.4766507E-01;  4.0000000E+04;  0.0000000E+00;  3.7278461E+04; -2.2121052E-01;  0.0000000E+00; -2.8155368E-02;  1.6345613E+03;
  1.7378972E+00;  9.9999998E-03; -8.3670534E-02;9969;  1.2559083E+00;  0.0000000E+00;  9.1314958E-03;  9.9876166E+02;  1.1700376E-01; -8.0524353E+02;3;  4.1157539E+01;  0.0000000E+00; -1.0740616E+00;0; -2.5260633E-01;  3.1275607E+04;  0.0000000E+00;  2.2719314E+00;  4.0000000E+04;  0.0000000E+00;  3.7265086E+04; -2.2228016E-01;  0.0000000E+00; -3.0326169E-02;  2.1293779E+03;
  1.7381259E+00;  9.9999998E-03; -7.3237509E-02;9970;  1.2523032E+00;  0.0000000E+00;  7.9943901E-03;  9.9852728E+02;  1.1700370E-01; -9.5713147E+02;3;  4.1401962E+01;  0.0000000E+00; -9.6389264E-01;0; -2.5415474E-01;  3.1269350E+04;  0.0000000E+00;  4.4506354E+00;  4.0000000E+04;  0.0000000E+00;  3.7255426E+04; -2.2090198E-01;  0.0000000E+00; -3.3252757E-02;  2.4659263E+03;
  1.7383299E+00;  9.9999998E-03; -6.2774777E-02;9971;  1.2492095E+00;  0.0000000E+00;  6.8705631E-03;  9.9839142E+02;  1.1700312E-01; -1.0449567E+03;3;  4.1615849E+01;  0.0000000E+00; -8.4018970E-01;0; -2.5412592E-01;  3.1265695E+04;  0.0000000E+00;  5.5436535E+00;  4.0000000E+04;  0.0000000E+00;  3.7249816E+04; -2.1772228E-01;  0.0000000E+00; -3.6403645E-02;  2.5105581E+03;
  1.7383299E+00;  9.9999998E-03;  6.2774934E-02;9983;  1.2492095E+00;  0.0000000E+00; -6.8691485E-03;  9.9839142E+02;  1.1700312E-01; -1.0449567E+03;3;  4.1615902E+01;  0.0000000E+00;  8.4018648E-01;0; -2.5412610E-01;  3.1265686E+04;  0.0000000E+00;  5.5438514E+00;  4.0000000E+04;  0.0000000E+00;  3.7249816E+04; -2.1772243E-01;  0.0000000E+00; -3.6403671E-02;  2.5106055E+03;
  1.7385051E+00;  9.9999998E-03; -5.2283116E-02;9972;  1.2466259E+00;  0.0000000E+00;  5.7449075E-03;  9.9833453E+02;  1.1700276E-01; -1.0814528E+03;3;  4.1803642E+01;  0.0000000E+00; -7.0964432E-01;0; -2.5283724E-01;  3.1264455E+04;  0.0000000E+00;  5.7432356E+00;  4.0000000E+04;  0.0000000E+00;  3.7247500E+04; -2.1343756E-01;  0.0000000E+00; -3.9399698E-02;  2.3192107E+03;
  1.7385051E+00;  9.9999998E-03;  5.2283313E-02;9982;  1.2466259E+00;  0.0000000E+00; -5.7434863E-03;  9.9833466E+02;  1.1700273E-01; -1.0813752E+03;3;  4.1803936E+01;  0.0000000E+00;  7.0951205E-01;0; -2.5283748E-01;  3.1264418E+04;  0.0000000E+00;  5.7423773E+00;  4.0000000E+04;  0.0000000E+00;  3.7247504E+04; -2.1343774E-01;  0.0000000E+00; -3.9399743E-02;  2.3190483E+03;
  1.7386495E+00;  9.9999998E-03; -4.1769646E-02;9973;  1.2445345E+00;  0.0000000E+00;  4.6064388E-03;  9.9831604E+02;  1.1700203E-01; -1.0930823E+03;3;  4.1959911E+01;  0.0000000E+00; -5.7304645E-01;0; -2.5093442E-01;  3.1264146E+04;  0.0000000E+00;  5.2424955E+00;  4.0000000E+04;  0.0000000E+00;  3.7246656E+04; -2.0891498E-01;  0.0000000E+00; -4.2019427E-02;  1.9691490E+03;
  1.7386496E+00;  9.9999998E-03;  4.1769821E-02;9981;  1.2445345E+00;  0.0000000E+00; -4.6050185E-03;  9.9831610E+02;  1.1700214E-01; -1.0930436E+03;3;  4.1960018E+01;  0.0000000E+00;  5.7299906E-01;0; -2.5093472E-01;  3.1264154E+04;  0.0000000E+00;  5.2422514E+00;  4.0000000E+04;  0.0000000E+00;  3.7246652E+04; -2.0891525E-01;  0.0000000E+00; -4.2019475E-02;  1.9691187E+03;
  1.7387627E+00;  9.9999998E-03; -3.1253625E-02;9974;  1.2429134E+00;  0.0000000E+00;  3.4592971E-03;  9.9827466E+02;  1.1700186E-01; -1.1196373E+03;3;  4.2083752E+01;  0.0000000E+00; -4.3225783E-01;0; -2.4911723E-01;  3.1263775E+04;  0.0000000E+00;  4.1261816E+00;  4.0000000E+04;  0.0000000E+00;  3.7244656E+04; -2.0497277E-01;  0.0000000E+00; -4.4144444E-02;  1.5071508E+03;
  1.7387627E+00;  9.9999998E-03;  3.1253792E-02;9980;  1.2429134E+00;  0.0000000E+00; -3.4578803E-03;  9.9827466E+02;  1.1700146E-01; -1.1196373E+03;3;  4.2081909E+01;  0.0000000E+00;  4.3216097E-01;0; -2.4911600E-01;  3.1263760E+04;  0.0000000E+00;  4.1261315E+00;  4.0000000E+04;  0.0000000E+00;  3.7244656E+04; -2.0497154E-01;  0.0000000E+00; -4.4144470E-02;  1.5071360E+03;
  1.7388450E+00;  9.9999998E-03; -2.0775490E-02;9975;  1.2417608E+00;  0.0000000E+00;  2.3105904E-03;  9.9816547E+02;  1.1700138E-01; -1.1902706E+03;3;  4.2171764E+01;  0.0000000E+00; -2.8902039E-01;0; -2.4771234E-01;  3.1261975E+04;  0.0000000E+00;  2.4237165E+00;  4.0000000E+04;  0.0000000E+00;  3.7238957E+04; -2.0201932E-01;  0.0000000E+00; -4.5693032E-02;  9.5799548E+02;
  1.7388450E+00;  9.9999998E-03;  2.0775666E-02;9979;  1.2417610E+00;  0.0000000E+00; -2.3091694E-03;  9.9816559E+02;  1.1700160E-01; -1.1901932E+03;3;  4.2172310E+01;  0.0000000E+00;  2.8891265E-01;0; -2.4771227E-01;  3.1261963E+04;  0.0000000E+00;  2.4235892E+00;  4.0000000E+04;  0.0000000E+00;  3.7238957E+04; -2.0201924E-01;  0.0000000E+00; -4.5693025E-02;  9.5800800E+02;
  1.7388955E+00;  9.9999998E-03; -1.0366792E-02;9976;  1.2410768E+00;  0.0000000E+00;  1.1587543E-03;  9.9803094E+02;  1.1700154E-01; -1.2774043E+03;3;  4.2225449E+01;  0.0000000E+00; -1.4466697E-01;0; -2.4681543E-01;  3.1259900E+04;  0.0000000E+00;  7.0929438E-01;  4.0000000E+04;  0.0000000E+00;  3.7231523E+04; -2.0019355E-01;  0.0000000E+00; -4.6621878E-02;  5.1121890E+02;
  1.7388955E+00;  9.9999998E-03;  1.0366964E-02;9978;  1.2410768E+00;  0.0000000E+00; -1.1573335E-03;  9.9803094E+02;  1.1700115E-01; -1.2774043E+03;3;  4.2223598E+01;  0.0000000E+00;  1.4464360E-01;0; -2.4681406E-01;  3.1259885E+04;  0.0000000E+00;  7.0925522E-01;  4.0000000E+04;  0.0000000E+00;  3.7231520E+04; -2.0019215E-01;  0.0000000E+00; -4.6621900E-02;  5.1121506E+02;
  1.7389127E+00;  9.9999998E-03;  8.4359591E-08;9977;  1.2408512E+00;  0.0000000E+00;  7.0988563E-07;  9.9797437E+02;  1.1700147E-01; -1.3140865E+03;3;  4.2244167E+01;  0.0000000E+00; -3.2901764E-05;0; -2.4649847E-01;  3.1259023E+04;  0.0000000E+00;  8.6880139E-12;  4.0000000E+04;  0.0000000E+00;  3.7228555E+04; -1.9956835E-01;  0.0000000E+00; -4.6930116E-02;  3.9741418E+02;
  1.7487882E+00;  9.9999998E-03; -9.4291478E-02;9995;  1.2596271E+00;  0.0000000E+00;  1.3097194E-02;  9.9999805E+02;  1.1678784E-01; -1.2463273E+00;3;  4.1171532E+01;  0.0000000E+00; -1.4617101E+00;0; -2.4391440E-01;  3.1581928E+04;  0.0000000E+00; -2.8998277E+00;  4.0000000E+04;  0.0000000E+00;  3.7128828E+04; -1.8715496E-01;  0.0000000E+00; -5.6759436E-02;  2.1229036E+03;
  1.7490234E+00;  9.9999998E-03; -8.3904557E-02;9996;  1.2554417E+00;  0.0000000E+00;  1.1654528E-02;  9.9964185E+02;  1.1678864E-01; -2.2681548E+02;3;  4.1413441E+01;  0.0000000E+00; -1.3272722E+00;0; -2.5056171E-01;  3.1572633E+04;  0.0000000E+00; -4.5380778E+00;  4.0000000E+04;  0.0000000E+00;  3.7113402E+04; -1.9513392E-01;  0.0000000E+00; -5.5427775E-02;  1.9291256E+03;
  1.7492368E+00;  9.9999998E-03; -7.3489815E-02;9997;  1.2517397E+00;  0.0000000E+00;  1.0214203E-02;  9.9935492E+02;  1.1678861E-01; -4.0831293E+02;3;  4.1643661E+01;  0.0000000E+00; -1.1825248E+00;0; -2.5600055E-01;  3.1565721E+04;  0.0000000E+00; -4.2751307E+00;  4.0000000E+04;  0.0000000E+00;  3.7100906E+04; -2.0033894E-01;  0.0000000E+00; -5.5661608E-02;  1.6877468E+03;
  1.7494272E+00;  9.9999998E-03; -6.3048981E-02;9998;  1.2485573E+00;  0.0000000E+00;  8.7875752E-03;  9.9913708E+02;  1.1678749E-01; -5.4591284E+02;3;  4.1853909E+01;  0.0000000E+00; -1.0291824E+00;0; -2.5958881E-01;  3.1560477E+04;  0.0000000E+00; -3.3685308E+00;  4.0000000E+04;  0.0000000E+00;  3.7091477E+04; -2.0277102E-01;  0.0000000E+00; -5.6817789E-02;  1.4933058E+03;
  1.7494272E+00;  9.9999998E-03;  6.3049175E-02;10010;  1.2485573E+00;  0.0000000E+00; -8.7861670E-03;  9.9913708E+02;  1.1678758E-01; -5.4591284E+02;3;  4.1853939E+01;  0.0000000E+00;  1.0291525E+00;0; -2.5958928E-01;  3.1560441E+04;  0.0000000E+00; -3.3690414E+00;  4.0000000E+04;  0.0000000E+00;  3.7091473E+04; -2.0277140E-01;  0.0000000E+00; -5.6817885E-02;  1.4933376E+03;
  1.7495925E+00;  9.9999998E-03; -5.2584261E-02;9999;  1.2459090E+00;  0.0000000E+00;  7.3522716E-03;  9.9897766E+02;  1.1678637E-01; -6.4652448E+02;3;  4.2034584E+01;  0.0000000E+00; -8.6795187E-01;0; -2.6115516E-01;  3.1556445E+04;  0.0000000E+00; -2.4481971E+00;  4.0000000E+04;  0.0000000E+00;  3.7084758E+04; -2.0279060E-01;  0.0000000E+00; -5.8364552E-02;  1.3747274E+03;
  1.7495925E+00;  9.9999998E-03;  5.2584399E-02;10009;  1.2459091E+00;  0.0000000E+00; -7.3508439E-03;  9.9897766E+02;  1.1678653E-01; -6.4652454E+02;3;  4.2033337E+01;  0.0000000E+00;  8.6802125E-01;0; -2.6115376E-01;  3.1556479E+04;  0.0000000E+00; -2.4476793E+00;  4.0000000E+04;  0.0000000E+00;  3.7084758E+04; -2.0278923E-01;  0.0000000E+00; -5.8364522E-02;  1.3746676E+03;
  1.7497301E+00;  9.9999998E-03; -4.2100310E-02;10000;  1.2437656E+00;  0.0000000E+00;  5.8900188E-03;  9.9887335E+02;  1.1678553E-01; -7.1225043E+02;3;  4.2186314E+01;  0.0000000E+00; -7.0041549E-01;0; -2.6146156E-01;  3.1553713E+04;  0.0000000E+00; -1.7021115E+00;  4.0000000E+04;  0.0000000E+00;  3.7080293E+04; -2.0150064E-01;  0.0000000E+00; -5.9960917E-02;  1.3068037E+03;
  1.7497301E+00;  9.9999998E-03;  4.2100489E-02;10008;  1.2437656E+00;  0.0000000E+00; -5.8886148E-03;  9.9887329E+02;  1.1678522E-01; -7.1228815E+02;3;  4.2186062E+01;  0.0000000E+00;  7.0035470E-01;0; -2.6146170E-01;  3.1553709E+04;  0.0000000E+00; -1.7022814E+00;  4.0000000E+04;  0.0000000E+00;  3.7080297E+04; -2.0150071E-01;  0.0000000E+00; -5.9960995E-02;  1.3067772E+03;
  1.7498375E+00;  9.9999998E-03; -3.1596821E-02;10001;  1.2420934E+00;  0.0000000E+00;  4.4146576E-03;  9.9882056E+02;  1.1678471E-01; -7.4544135E+02;3;  4.2306202E+01;  0.0000000E+00; -5.2861053E-01;0; -2.6142010E-01;  3.1552367E+04;  0.0000000E+00; -1.0478081E+00;  4.0000000E+04;  0.0000000E+00;  3.7078070E+04; -1.9999866E-01;  0.0000000E+00; -6.1421432E-02;  1.2763895E+03;
  1.7498375E+00;  9.9999998E-03;  3.1596977E-02;10007;  1.2420934E+00;  0.0000000E+00; -4.4132434E-03;  9.9882050E+02;  1.1678455E-01; -7.4547900E+02;3;  4.2305847E+01;  0.0000000E+00;  5.2860153E-01;0; -2.6142073E-01;  3.1552414E+04;  0.0000000E+00; -1.0477084E+00;  4.0000000E+04;  0.0000000E+00;  3.7078074E+04; -1.9999926E-01;  0.0000000E+00; -6.1421454E-02;  1.2763608E+03;
  1.7499139E+00;  9.9999998E-03; -2.1079443E-02;10002;  1.2408915E+00;  0.0000000E+00;  2.9408266E-03;  9.9879462E+02;  1.1678457E-01; -7.6168677E+02;3;  4.2395836E+01;  0.0000000E+00; -3.5392636E-01;0; -2.6135346E-01;  3.1551893E+04;  0.0000000E+00; -5.0987077E-01;  4.0000000E+04;  0.0000000E+00;  3.7076891E+04; -1.9876716E-01;  0.0000000E+00; -6.2586300E-02;  1.2613353E+03;
  1.7499139E+00;  9.9999998E-03;  2.1079607E-02;10006;  1.2408915E+00;  0.0000000E+00; -2.9394082E-03;  9.9879462E+02;  1.1678457E-01; -7.6168677E+02;3;  4.2395859E+01;  0.0000000E+00;  3.5387993E-01;0; -2.6135361E-01;  3.1551883E+04;  0.0000000E+00; -5.0985926E-01;  4.0000000E+04;  0.0000000E+00;  3.7076891E+04; -1.9876729E-01;  0.0000000E+00; -6.2586322E-02;  1.2613351E+03;
  1.7499597E+00;  9.9999998E-03; -1.0548323E-02;10003;  1.2401674E+00;  0.0000000E+00;  1.4703089E-03;  9.9878467E+02;  1.1678359E-01; -7.6789111E+02;3;  4.2449680E+01;  0.0000000E+00; -1.7752260E-01;0; -2.6129887E-01;  3.1551707E+04;  0.0000000E+00; -1.4614484E-01;  4.0000000E+04;  0.0000000E+00;  3.7076445E+04; -1.9796725E-01;  0.0000000E+00; -6.3331619E-02;  1.2545022E+03;
  1.7499597E+00;  9.9999998E-03;  1.0548489E-02;10005;  1.2401674E+00;  0.0000000E+00; -1.4688883E-03;  9.9878467E+02;  1.1678320E-01; -7.6789111E+02;3;  4.2449638E+01;  0.0000000E+00;  1.7745030E-01;0; -2.6129889E-01;  3.1551697E+04;  0.0000000E+00; -1.4614823E-01;  4.0000000E+04;  0.0000000E+00;  3.7076449E+04; -1.9796726E-01;  0.0000000E+00; -6.3331619E-02;  1.2545111E+03;
  1.7499750E+00;  9.9999998E-03;  8.7471179E-08;10004;  1.2399260E+00;  0.0000000E+00;  7.0973834E-07;  9.9878699E+02;  1.1678340E-01; -7.6639386E+02;3;  4.2466591E+01;  0.0000000E+00; -2.3841858E-05;0; -2.6126665E-01;  3.1551869E+04;  0.0000000E+00;  2.3269133E-11;  4.0000000E+04;  0.0000000E+00;  3.7076414E+04; -1.9767857E-01;  0.0000000E+00; -6.3588068E-02;  1.2563885E+03;
  1.7598708E+00;  9.9999998E-03; -9.4413966E-02;10017;  1.2591343E+00;  0.0000000E+00;  1.5556836E-02;  1.0010937E+03;  1.1660630E-01;  6.7437671E+02;3;  4.1383766E+01;  0.0000000E+00; -1.7874534E+00;0; -2.3639871E-01;  3.1857963E+04;  0.0000000E+00;  2.4527771E+01;  4.0000000E+04;  0.0000000E+00;  3.6996074E+04; -1.5003499E-01;  0.0000000E+00; -8.6363718E-02;  5.1312114E+03;
  1.7601085E+00;  9.9999998E-03; -8.4071979E-02;10018;  1.2550442E+00;  0.0000000E+00;  1.3877026E-02;  1.0004910E+03;  1.1660926E-01;  3.0257333E+02;3;  4.1602757E+01;  0.0000000E+00; -1.6011786E+00;0; -2.4221891E-01;  3.1845145E+04;  0.0000000E+00;  1.1983502E+01;  4.0000000E+04;  0.0000000E+00;  3.6966961E+04; -1.6105597E-01;  0.0000000E+00; -8.1162937E-02;  3.2913066E+03;
  1.7603184E+00;  9.9999998E-03; -7.3692501E-02;10019;  1.2513758E+00;  0.0000000E+00;  1.2185085E-02;  1.0000726E+03;  1.1661140E-01;  4.4712440E+01;3;  4.1823483E+01;  0.0000000E+00; -1.4168384E+00;0; -2.4843067E-01;  3.1836289E+04;  0.0000000E+00;  4.4717307E+00;  4.0000000E+04;  0.0000000E+00;  3.6946270E+04; -1.7018338E-01;  0.0000000E+00; -7.8247286E-02;  2.4200134E+03;
  1.7605026E+00;  9.9999998E-03; -6.3286528E-02;10020;  1.2481756E+00;  0.0000000E+00;  1.0504511E-02;  9.9974915E+02;  1.1661107E-01; -1.5444019E+02;3;  4.2026764E+01;  0.0000000E+00; -1.2291157E+00;0; -2.5399226E-01;  3.1829432E+04;  0.0000000E+00;  3.6630651E-01;  4.0000000E+04;  0.0000000E+00;  3.6930422E+04; -1.7704347E-01;  0.0000000E+00; -7.6948792E-02;  2.0503921E+03;
  1.7605026E+00;  9.9999998E-03;  6.3286699E-02;10032;  1.2481757E+00;  0.0000000E+00; -1.0503093E-02;  9.9974915E+02;  1.1661107E-01; -1.5444019E+02;3;  4.2027805E+01;  0.0000000E+00;  1.2290919E+00;0; -2.5399446E-01;  3.1829434E+04;  0.0000000E+00;  3.6632496E-01;  4.0000000E+04;  0.0000000E+00;  3.6930414E+04; -1.7704561E-01;  0.0000000E+00; -7.6948836E-02;  2.0504441E+03;
  1.7606597E+00;  9.9999998E-03; -5.2850753E-02;10021;  1.2455109E+00;  0.0000000E+00;  8.7964060E-03;  9.9954315E+02;  1.1661058E-01; -2.8114026E+02;3;  4.2203899E+01;  0.0000000E+00; -1.0337366E+00;0; -2.5746089E-01;  3.1825299E+04;  0.0000000E+00; -1.5794933E+00;  4.0000000E+04;  0.0000000E+00;  3.6920129E+04; -1.8089879E-01;  0.0000000E+00; -7.6562099E-02;  1.8981860E+03;
  1.7606597E+00;  9.9999998E-03;  5.2850902E-02;10031;  1.2455108E+00;  0.0000000E+00; -8.7949876E-03;  9.9954309E+02;  1.1661059E-01; -2.8117694E+02;3;  4.2204212E+01;  0.0000000E+00;  1.0336819E+00;0; -2.5746331E-01;  3.1825285E+04;  0.0000000E+00; -1.5794394E+00;  4.0000000E+04;  0.0000000E+00;  3.6920145E+04; -1.8090105E-01;  0.0000000E+00; -7.6562256E-02;  1.8982441E+03;
  1.7607899E+00;  9.9999998E-03; -4.2392302E-02;10022;  1.2433230E+00;  0.0000000E+00;  7.0450711E-03;  9.9941473E+02;  1.1660989E-01; -3.6002841E+02;3;  4.2352921E+01;  0.0000000E+00; -8.3227384E-01;0; -2.5995651E-01;  3.1822605E+04;  0.0000000E+00; -2.2110240E+00;  4.0000000E+04;  0.0000000E+00;  3.6913777E+04; -1.8325722E-01;  0.0000000E+00; -7.6699287E-02;  1.8198795E+03;
  1.7607899E+00;  9.9999998E-03;  4.2392451E-02;10030;  1.2433230E+00;  0.0000000E+00; -7.0436564E-03;  9.9941467E+02;  1.1660986E-01; -3.6006509E+02;3;  4.2353935E+01;  0.0000000E+00;  8.3221853E-01;0; -2.5995865E-01;  3.1822621E+04;  0.0000000E+00; -2.2109346E+00;  4.0000000E+04;  0.0000000E+00;  3.6913781E+04; -1.8325931E-01;  0.0000000E+00; -7.6699354E-02;  1.8198572E+03;
  1.7608911E+00;  9.9999998E-03; -3.1908851E-02;10023;  1.2415994E+00;  0.0000000E+00;  5.2857907E-03;  9.9938354E+02;  1.1660866E-01; -3.7910910E+02;3;  4.2475384E+01;  0.0000000E+00; -6.2836826E-01;0; -2.6200756E-01;  3.1821504E+04;  0.0000000E+00; -2.0551248E+00;  4.0000000E+04;  0.0000000E+00;  3.6912703E+04; -1.8484798E-01;  0.0000000E+00; -7.7159584E-02;  1.8067649E+03;
  1.7608911E+00;  9.9999998E-03;  3.1909015E-02;10029;  1.2415996E+00;  0.0000000E+00; -5.2843736E-03;  9.9938354E+02;  1.1660867E-01; -3.7910910E+02;3;  4.2475758E+01;  0.0000000E+00;  6.2832296E-01;0; -2.6200786E-01;  3.1821510E+04;  0.0000000E+00; -2.0551023E+00;  4.0000000E+04;  0.0000000E+00;  3.6912711E+04; -1.8484816E-01;  0.0000000E+00; -7.7159695E-02;  1.8067242E+03;
  1.7609620E+00;  9.9999998E-03; -2.1371394E-02;10024;  1.2403482E+00;  0.0000000E+00;  3.5212890E-03;  9.9948395E+02;  1.1660830E-01; -3.1732196E+02;3;  4.2565872E+01;  0.0000000E+00; -4.2182568E-01;0; -2.6360446E-01;  3.1822740E+04;  0.0000000E+00; -1.3574685E+00;  4.0000000E+04;  0.0000000E+00;  3.6918363E+04; -1.8591708E-01;  0.0000000E+00; -7.7687398E-02;  1.9133209E+03;
  1.7609620E+00;  9.9999998E-03;  2.1371525E-02;10028;  1.2403482E+00;  0.0000000E+00; -3.5198687E-03;  9.9948389E+02;  1.1660831E-01; -3.1735864E+02;3;  4.2566494E+01;  0.0000000E+00;  4.2179537E-01;0; -2.6360482E-01;  3.1822770E+04;  0.0000000E+00; -1.3573387E+00;  4.0000000E+04;  0.0000000E+00;  3.6918367E+04; -1.8591741E-01;  0.0000000E+00; -7.7687427E-02;  1.9131893E+03;
  1.7610030E+00;  9.9999998E-03; -1.0739631E-02;10025;  1.2395818E+00;  0.0000000E+00;  1.7582873E-03;  9.9967017E+02;  1.1660657E-01; -2.0280431E+02;3;  4.2620052E+01;  0.0000000E+00; -2.1226966E-01;0; -2.6467448E-01;  3.1825094E+04;  0.0000000E+00; -4.5630357E-01;  4.0000000E+04;  0.0000000E+00;  3.6929207E+04; -1.8657540E-01;  0.0000000E+00; -7.8099079E-02;  2.1145364E+03;
  1.7610161E+00;  9.9999998E-03;  8.7137728E-08;10026;  1.2393209E+00;  0.0000000E+00;  7.1207774E-07;  9.9977679E+02;  1.1660509E-01; -1.3723839E+02;3;  4.2640591E+01;  0.0000000E+00; -1.8954277E-05;0; -2.6508090E-01;  3.1826752E+04;  0.0000000E+00;  6.5724558E-11;  4.0000000E+04;  0.0000000E+00;  3.6935281E+04; -1.8682303E-01;  0.0000000E+00; -7.8257866E-02;  2.2340422E+03;
  1.7610030E+00;  9.9999998E-03;  1.0739807E-02;10027;  1.2395818E+00;  0.0000000E+00; -1.7568655E-03;  9.9967017E+02;  1.1660624E-01; -2.0280431E+02;3;  4.2620026E+01;  0.0000000E+00;  2.1222460E-01;0; -2.6467463E-01;  3.1825090E+04;  0.0000000E+00; -4.5632035E-01;  4.0000000E+04;  0.0000000E+00;  3.6929207E+04; -1.8657549E-01;  0.0000000E+00; -7.8099154E-02;  2.1145413E+03;
  1.7716966E+00;  9.9999998E-03; -5.2975781E-02;10036;  1.2448297E+00;  0.0000000E+00;  9.9874092E-03;  1.0001688E+03;  1.1645792E-01;  1.0102345E+02;3;  4.2333633E+01;  0.0000000E+00; -1.2228919E+00;0; -2.5406647E-01;  3.2067607E+04;  0.0000000E+00;  1.6238115E+01;  4.0000000E+04;  0.0000000E+00;  3.6776164E+04; -1.6009806E-01;  0.0000000E+00; -9.3968414E-02;  3.7467458E+03;
  1.7716966E+00;  9.9999998E-03;  5.2975941E-02;10046;  1.2448297E+00;  0.0000000E+00; -9.9859964E-03;  1.0001688E+03;  1.1645793E-01;  1.0102345E+02;3;  4.2334141E+01;  0.0000000E+00;  1.2229549E+00;0; -2.5406682E-01;  3.2067617E+04;  0.0000000E+00;  1.6237925E+01;  4.0000000E+04;  0.0000000E+00;  3.6776156E+04; -1.6009830E-01;  0.0000000E+00; -9.3968533E-02;  3.7466895E+03;
  1.7718261E+00;  9.9999998E-03; -4.2545915E-02;10037;  1.2426182E+00;  0.0000000E+00;  8.0062179E-03;  9.9992957E+02;  1.1645666E-01; -4.2150589E+01;3;  4.2480869E+01;  0.0000000E+00; -9.8002291E-01;0; -2.5773612E-01;  3.2062215E+04;  0.0000000E+00;  1.0411016E+01;  4.0000000E+04;  0.0000000E+00;  3.6764906E+04; -1.6541567E-01;  0.0000000E+00; -9.2320435E-02;  3.0755098E+03;
  1.7718261E+00;  9.9999998E-03;  4.2546090E-02;10045;  1.2426181E+00;  0.0000000E+00; -8.0047995E-03;  9.9992950E+02;  1.1645665E-01; -4.2186249E+01;3;  4.2481434E+01;  0.0000000E+00;  9.8003376E-01;0; -2.5773817E-01;  3.2062221E+04;  0.0000000E+00;  1.0411155E+01;  4.0000000E+04;  0.0000000E+00;  3.6764902E+04; -1.6541766E-01;  0.0000000E+00; -9.2320517E-02;  3.0755425E+03;
  1.7719265E+00;  9.9999998E-03; -3.2087903E-02;10038;  1.2408605E+00;  0.0000000E+00;  6.0216873E-03;  9.9984283E+02;  1.1645585E-01; -9.4012527E+01;3;  4.2600361E+01;  0.0000000E+00; -7.3872352E-01;0; -2.6119265E-01;  3.2059221E+04;  0.0000000E+00;  6.3727665E+00;  4.0000000E+04;  0.0000000E+00;  3.6762059E+04; -1.6969824E-01;  0.0000000E+00; -9.1494404E-02;  2.7849146E+03;
  1.7719265E+00;  9.9999998E-03;  3.2088079E-02;10044;  1.2408605E+00;  0.0000000E+00; -6.0202638E-03;  9.9984283E+02;  1.1645585E-01; -9.4012527E+01;3;  4.2600494E+01;  0.0000000E+00;  7.3870182E-01;0; -2.6119283E-01;  3.2059219E+04;  0.0000000E+00;  6.3728967E+00;  4.0000000E+04;  0.0000000E+00;  3.6762055E+04; -1.6969842E-01;  0.0000000E+00; -9.1494419E-02;  2.7849138E+03;
  1.7719960E+00;  9.9999998E-03; -2.1561271E-02;10039;  1.2395802E+00;  0.0000000E+00;  4.0115826E-03;  9.9999237E+02;  1.1645437E-01; -4.5625644E+00;3;  4.2686783E+01;  0.0000000E+00; -4.9636817E-01;0; -2.6391503E-01;  3.2059875E+04;  0.0000000E+00;  3.3354635E+00;  4.0000000E+04;  0.0000000E+00;  3.6772215E+04; -1.7277960E-01;  0.0000000E+00; -9.1135435E-02;  2.8585212E+03;
  1.7719960E+00;  9.9999998E-03;  2.1561442E-02;10043;  1.2395802E+00;  0.0000000E+00; -4.0101595E-03;  9.9999237E+02;  1.1645373E-01; -4.5625644E+00;3;  4.2687138E+01;  0.0000000E+00;  4.9634016E-01;0; -2.6391503E-01;  3.2059869E+04;  0.0000000E+00;  3.3355274E+00;  4.0000000E+04;  0.0000000E+00;  3.6772211E+04; -1.7277959E-01;  0.0000000E+00; -9.1135442E-02;  2.8584917E+03;
  1.7720345E+00;  9.9999998E-03; -1.0868637E-02;10040;  1.2387868E+00;  0.0000000E+00;  1.9927716E-03;  1.0003600E+03;  1.1645162E-01;  2.1527499E+02;3;  4.2741806E+01;  0.0000000E+00; -2.5012416E-01;0; -2.6579839E-01;  3.2063799E+04;  0.0000000E+00;  9.7857118E-01;  4.0000000E+04;  0.0000000E+00;  3.6794680E+04; -1.7473948E-01;  0.0000000E+00; -9.1058910E-02;  3.2324629E+03;
  1.7720463E+00;  9.9999998E-03;  8.7874504E-08;10041;  1.2385143E+00;  0.0000000E+00;  7.1304714E-07;  1.0005768E+03;  1.1645083E-01;  3.4492865E+02;3;  4.2760468E+01;  0.0000000E+00; -1.6570091E-05;0; -2.6651454E-01;  3.2066221E+04;  0.0000000E+00;  1.4956293E-10;  4.0000000E+04;  0.0000000E+00;  3.6807547E+04; -1.7543684E-01;  0.0000000E+00; -9.1077693E-02;  3.4682156E+03;
  1.7720345E+00;  9.9999998E-03;  1.0868817E-02;10042;  1.2387867E+00;  0.0000000E+00; -1.9913502E-03;  1.0003599E+03;  1.1645163E-01;  2.1520370E+02;3;  4.2742523E+01;  0.0000000E+00;  2.5016415E-01;0; -2.6579845E-01;  3.2063791E+04;  0.0000000E+00;  9.7862053E-01;  4.0000000E+04;  0.0000000E+00;  3.6794684E+04; -1.7473951E-01;  0.0000000E+00; -9.1058955E-02;  3.2324009E+03;
  3.5372898E-03;  9.9999998E-03;  6.9972061E-02;2484;  9.7380870E-04;  0.0000000E+00;  4.5486460E-05;  9.8618689E+02;  1.0000000E-01; -1.1443923E+04;3;  6.6146019E+01;  0.0000000E+00; -2.2295155E-01;0; -1.7179796E-02;  3.8921645E+04;  0.0000000E+00; -3.6739269E-03;  4.0000000E+04;  0.0000000E+00;  3.9995000E+04; -1.7406147E-02;  0.0000000E+00;  2.2635136E-04;  5.0238199E+02;
  3.5491360E-03;  9.9999998E-03;  7.9973318E-02;2485;  9.8547759E-04;  0.0000000E+00;  2.5047186E-05;  9.8617792E+02;  1.0000000E-01; -1.1451330E+04;3;  6.5856621E+01;  0.0000000E+00; -4.1971916E-01;0; -1.7318157E-02;  3.8921363E+04;  0.0000000E+00; -5.5321818E-03;  4.0000000E+04;  0.0000000E+00;  3.9994680E+04; -1.7548546E-02;  0.0000000E+00;  2.3038848E-04;  4.4618674E+02;
  3.5591708E-03;  9.9999998E-03;  8.9977421E-02;2486;  9.8299247E-04;  0.0000000E+00;  5.5661562E-06;  9.8616779E+02;  1.0000000E-01; -1.1459726E+04;3;  6.5837242E+01;  0.0000000E+00; -7.0240343E-01;0; -1.7489506E-02;  3.8920758E+04;  0.0000000E+00; -9.3794232E-03;  4.0000000E+04;  0.0000000E+00;  3.9994293E+04; -1.7737072E-02;  0.0000000E+00;  2.4756539E-04;  4.2243835E+02;
  3.5667152E-03;  9.9999998E-03;  9.9983804E-02;2487;  9.6230704E-04;  0.0000000E+00; -1.0103893E-05;  9.8615704E+02;  1.0000000E-01; -1.1468614E+04;3;  6.6102974E+01;  0.0000000E+00; -1.0861995E+00;0; -1.7691812E-02;  3.8919855E+04;  0.0000000E+00; -1.6998522E-02;  4.0000000E+04;  0.0000000E+00;  3.9994320E+04; -1.7964520E-02;  0.0000000E+00;  2.7270781E-04;  4.2943799E+02;
  3.5708826E-03;  9.9999998E-03;  1.0999092E-01;2488;  9.2164072E-04;  0.0000000E+00; -1.9460307E-05;  9.8614716E+02;  1.0000000E-01; -1.1476812E+04;3;  6.6646713E+01;  0.0000000E+00; -1.5845423E+00;0; -1.7916836E-02;  3.8918945E+04;  0.0000000E+00; -3.0873874E-02;  4.0000000E+04;  0.0000000E+00;  3.9994242E+04; -1.8216673E-02;  0.0000000E+00;  2.9983706E-04;  4.6305707E+02;
  3.5706982E-03;  9.9999998E-03;  1.1999703E-01;2489;  8.6258049E-04;  0.0000000E+00; -1.9931265E-05;  9.8613818E+02;  1.0000000E-01; -1.1484268E+04;3;  6.7466080E+01;  0.0000000E+00; -2.2080555E+00;0; -1.8149324E-02;  3.8918055E+04;  0.0000000E+00; -5.3973984E-02;  4.0000000E+04;  0.0000000E+00;  3.9995156E+04; -1.8473072E-02;  0.0000000E+00;  3.2374862E-04;  5.2000323E+02;
  3.5652106E-03;  9.9999998E-03;  1.3000102E-01;2490;  7.9030322E-04;  0.0000000E+00; -8.9093364E-06;  9.8613605E+02;  1.0000000E-01; -1.1486046E+04;3;  6.8525352E+01;  0.0000000E+00; -2.9652798E+00;0; -1.8367376E-02;  3.8917156E+04;  0.0000000E+00; -8.9233063E-02;  4.0000000E+04;  0.0000000E+00;  3.9996168E+04; -1.8708585E-02;  0.0000000E+00;  3.4120935E-04;  6.0106787E+02;
  3.5531765E-03;  9.9999998E-03;  1.4000268E-01;2491;  7.1348035E-04;  0.0000000E+00;  1.6494612E-05;  9.8614874E+02;  1.0000000E-01; -1.1475527E+04;3;  6.9794388E+01;  0.0000000E+00; -3.8630629E+00;0; -1.8544124E-02;  3.8917684E+04;  0.0000000E+00; -1.3874145E-01;  4.0000000E+04;  0.0000000E+00;  3.9996547E+04; -1.8895559E-02;  0.0000000E+00;  3.5143510E-04;  7.1332080E+02;
  3.5330418E-03;  9.9999998E-03;  1.5000379E-01;2492;  6.4299529E-04;  0.0000000E+00;  5.7877995E-05;  9.8619055E+02;  1.0000000E-01; -1.1440861E+04;3;  7.1222069E+01;  0.0000000E+00; -4.9151392E+00;0; -1.8650917E-02;  3.8920078E+04;  0.0000000E+00; -2.0301571E-01;  4.0000000E+04;  0.0000000E+00;  3.9997910E+04; -1.9006437E-02;  0.0000000E+00;  3.5552023E-04;  8.6904877E+02;
  3.5023729E-03;  9.9999998E-03;  1.6000475E-01;2493;  5.9020385E-04;  0.0000000E+00;  1.1477466E-04;  9.8628296E+02;  1.0000000E-01; -1.1364320E+04;3;  7.2706429E+01;  0.0000000E+00; -6.1481280E+00;0; -1.8660612E-02;  3.8925992E+04;  0.0000000E+00; -2.8086650E-01;  4.0000000E+04;  0.0000000E+00;  3.9998473E+04; -1.9015735E-02;  0.0000000E+00;  3.5512267E-04;  1.0809596E+03;
  3.4566212E-03;  9.9999998E-03;  1.7000435E-01;2494;  5.6498498E-04;  0.0000000E+00;  1.8348361E-04;  9.8644019E+02;  1.0000000E-01; -1.1234053E+04;3;  7.4169617E+01;  0.0000000E+00; -7.5858884E+00;0; -1.8549675E-02;  3.8936359E+04;  0.0000000E+00; -3.6886802E-01;  4.0000000E+04;  0.0000000E+00;  4.0000867E+04; -1.8901238E-02;  0.0000000E+00;  3.5156307E-04;  1.3582710E+03;
  3.3891248E-03;  9.9999998E-03;  1.8000177E-01;2495;  5.7353725E-04;  0.0000000E+00;  2.5507269E-04;  9.8668854E+02;  1.0000000E-01; -1.1028280E+04;3;  7.5403252E+01;  0.0000000E+00; -9.2846937E+00;0; -1.8299907E-02;  3.8953238E+04;  0.0000000E+00; -4.6111408E-01;  4.0000000E+04;  0.0000000E+00;  4.0003371E+04; -1.8645085E-02;  0.0000000E+00;  3.4517702E-04;  1.7034396E+03;
  3.2925266E-03;  9.9999998E-03;  1.8999676E-01;2496;  6.1478885E-04;  0.0000000E+00;  3.2619206E-04;  9.8704620E+02;  1.0000000E-01; -1.0731993E+04;3;  7.6191689E+01;  0.0000000E+00; -1.1292123E+01;0; -1.7900346E-02;  3.8977719E+04;  0.0000000E+00; -5.4951233E-01;  4.0000000E+04;  0.0000000E+00;  4.0006902E+04; -1.8234657E-02;  0.0000000E+00;  3.3431084E-04;  2.1076641E+03;
  3.1581128E-03;  9.9999998E-03;  1.9998950E-01;2497;  6.8029790E-04;  0.0000000E+00;  3.9524946E-04;  9.8752539E+02;  1.0000000E-01; -1.0334967E+04;3;  7.6273605E+01;  0.0000000E+00; -1.3584505E+01;0; -1.7348746E-02;  3.9011254E+04;  0.0000000E+00; -6.2483323E-01;  4.0000000E+04;  0.0000000E+00;  4.0010777E+04; -1.7663753E-02;  0.0000000E+00;  3.1500601E-04;  2.5458350E+03;
  2.9792388E-03;  9.9999998E-03;  2.0997919E-01;2498;  7.5521134E-04;  0.0000000E+00;  4.5914360E-04;  9.8814246E+02;  1.0000000E-01; -9.8237715E+03;3;  7.5237671E+01;  0.0000000E+00; -1.6012650E+01;0; -1.6652605E-02;  3.9054906E+04;  0.0000000E+00; -6.7845988E-01;  4.0000000E+04;  0.0000000E+00;  4.0014777E+04; -1.6934205E-02;  0.0000000E+00;  2.8160028E-04;  2.9719082E+03;
  2.7497087E-03;  9.9999998E-03;  2.1996488E-01;2499;  8.1980880E-04;  0.0000000E+00;  5.1521382E-04;  9.8889111E+02;  1.0000000E-01; -9.2034932E+03;3;  7.2760025E+01;  0.0000000E+00; -1.8341410E+01;0; -1.5827520E-02;  3.9109289E+04;  0.0000000E+00; -7.0442557E-01;  4.0000000E+04;  0.0000000E+00;  4.0018746E+04; -1.6055457E-02;  0.0000000E+00;  2.2793736E-04;  3.3199517E+03;
  2.4687343E-03;  9.9999998E-03;  2.2994615E-01;2500;  8.5201307E-04;  0.0000000E+00;  5.6041474E-04;  9.8976691E+02;  1.0000000E-01; -8.4779326E+03;3;  6.8498940E+01;  0.0000000E+00; -2.0299534E+01;0; -1.4895738E-02;  3.9174402E+04;  0.0000000E+00; -7.0114970E-01;  4.0000000E+04;  0.0000000E+00;  4.0020973E+04; -1.5044839E-02;  0.0000000E+00;  1.4910108E-04;  3.5122505E+03;
  1.3109068E-02;  9.9999998E-03;  6.9982462E-02;2544; -2.8285762E-05;  0.0000000E+00;  3.1049763E-05;  9.8944659E+02;  1.0000000E-01; -8.7433086E+03;3;  3.1812634E+01;  0.0000000E+00; -1.6003663E-02;0; -1.8478613E-02;  3.9173250E+04;  0.0000000E+00; -6.2300591E-03;  4.0000000E+04;  0.0000000E+00;  3.9993672E+04; -1.8771324E-02;  0.0000000E+00;  2.9271049E-04;  1.5126311E+02;
  1.3116990E-02;  9.9999998E-03;  7.9984218E-02;2545; -2.1177088E-05;  0.0000000E+00;  1.7057891E-05;  9.8944849E+02;  1.0000000E-01; -8.7417285E+03;3;  3.1664408E+01;  0.0000000E+00; -2.4663393E-01;0; -1.8626165E-02;  3.9173629E+04;  0.0000000E+00; -8.6566666E-03;  4.0000000E+04;  0.0000000E+00;  3.9993613E+04; -1.8925363E-02;  0.0000000E+00;  2.9919916E-04;  1.1908128E+02;
  1.3123477E-02;  9.9999998E-03;  8.9988314E-02;2546; -2.3470495E-05;  0.0000000E+00;  3.9605438E-06;  9.8944220E+02;  1.0000000E-01; -8.7469131E+03;3;  3.1756290E+01;  0.0000000E+00; -5.5322343E-01;0; -1.8811945E-02;  3.9173297E+04;  0.0000000E+00; -1.3427831E-02;  4.0000000E+04;  0.0000000E+00;  3.9994242E+04; -1.9128036E-02;  0.0000000E+00;  3.1609053E-04;  1.2442191E+02;
  1.3128188E-02;  9.9999998E-03;  9.9994220E-02;2547; -3.8091661E-05;  0.0000000E+00; -6.4853734E-06;  9.8943530E+02;  1.0000000E-01; -8.7526416E+03;3;  3.2007793E+01;  0.0000000E+00; -9.3672669E-01;0; -1.9035697E-02;  3.9172637E+04;  0.0000000E+00; -2.2802604E-02;  4.0000000E+04;  0.0000000E+00;  3.9994598E+04; -1.9372312E-02;  0.0000000E+00;  3.3661476E-04;  1.6085574E+02;
  1.3131018E-02;  9.9999998E-03;  1.1000079E-01;2548; -6.6281456E-05;  0.0000000E+00; -1.3206830E-05;  9.8942230E+02;  1.0000000E-01; -8.7634062E+03;3;  3.2425228E+01;  0.0000000E+00; -1.3955429E+00;0; -1.9290574E-02;  3.9171219E+04;  0.0000000E+00; -4.0014278E-02;  4.0000000E+04;  0.0000000E+00;  3.9995211E+04; -1.9644314E-02;  0.0000000E+00;  3.5374053E-04;  2.1917274E+02;
  1.3131873E-02;  9.9999998E-03;  1.2000686E-01;2549; -1.0705616E-04;  0.0000000E+00; -1.5375508E-05;  9.8940540E+02;  1.0000000E-01; -8.7774307E+03;3;  3.2975842E+01;  0.0000000E+00; -1.9343338E+00;0; -1.9561412E-02;  3.9169461E+04;  0.0000000E+00; -6.9024280E-02;  4.0000000E+04;  0.0000000E+00;  3.9995305E+04; -1.9923527E-02;  0.0000000E+00;  3.6211553E-04;  2.9236435E+02;
  1.3130383E-02;  9.9999998E-03;  1.3001150E-01;2550; -1.5684556E-04;  0.0000000E+00; -1.1932353E-05;  9.8938043E+02;  1.0000000E-01; -8.7981211E+03;3;  3.3715332E+01;  0.0000000E+00; -2.5542133E+00;0; -1.9824998E-02;  3.9167270E+04;  0.0000000E+00; -1.1388136E-01;  4.0000000E+04;  0.0000000E+00;  3.9996129E+04; -2.0184413E-02;  0.0000000E+00;  3.5941432E-04;  3.8040503E+02;
  1.3125641E-02;  9.9999998E-03;  1.4001471E-01;2551; -2.0986691E-04;  0.0000000E+00; -2.4676954E-06;  9.8936212E+02;  1.0000000E-01; -8.8132812E+03;3;  3.4626148E+01;  0.0000000E+00; -3.2592349E+00;0; -2.0051420E-02;  3.9165516E+04;  0.0000000E+00; -1.7764640E-01;  4.0000000E+04;  0.0000000E+00;  3.9995895E+04; -2.0398214E-02;  0.0000000E+00;  3.4679566E-04;  4.9235596E+02;
  1.3116103E-02;  9.9999998E-03;  1.5001695E-01;2552; -2.5846800E-04;  0.0000000E+00;  1.3721188E-05;  9.8935553E+02;  1.0000000E-01; -8.8187627E+03;3;  3.5810944E+01;  0.0000000E+00; -4.0553646E+00;0; -2.0208007E-02;  3.9164250E+04;  0.0000000E+00; -2.6127279E-01;  4.0000000E+04;  0.0000000E+00;  3.9996516E+04; -2.0536097E-02;  0.0000000E+00;  3.2808972E-04;  6.4299945E+02;
  1.3099542E-02;  9.9999998E-03;  1.6001898E-01;2553; -2.9448760E-04;  0.0000000E+00;  3.5737663E-05;  9.8937677E+02;  1.0000000E-01; -8.8011338E+03;3;  3.7318268E+01;  0.0000000E+00; -4.9728594E+00;0; -2.0262742E-02;  3.9165055E+04;  0.0000000E+00; -3.6312550E-01;  4.0000000E+04;  0.0000000E+00;  3.9998258E+04; -2.0570805E-02;  0.0000000E+00;  3.0806259E-04;  8.4660309E+02;
  1.3072659E-02;  9.9999998E-03;  1.7002138E-01;2554; -3.1079521E-04;  0.0000000E+00;  6.1968887E-05;  9.8944745E+02;  1.0000000E-01; -8.7425674E+03;3;  3.9153210E+01;  0.0000000E+00; -6.0624042E+00;0; -2.0187257E-02;  3.9168996E+04;  0.0000000E+00; -4.7827291E-01;  4.0000000E+04;  0.0000000E+00;  3.9999211E+04; -2.0478215E-02;  0.0000000E+00;  2.9095775E-04;  1.1151654E+03;
  1.3029050E-02;  9.9999998E-03;  1.8002264E-01;2555; -3.0264762E-04;  0.0000000E+00;  9.0934089E-05;  9.8958380E+02;  1.0000000E-01; -8.6296328E+03;3;  4.1302498E+01;  0.0000000E+00; -7.3781557E+00;0; -1.9959280E-02;  3.9177359E+04;  0.0000000E+00; -5.9820515E-01;  4.0000000E+04;  0.0000000E+00;  4.0002121E+04; -2.0238340E-02;  0.0000000E+00;  2.7906022E-04;  1.4567437E+03;
  1.2961309E-02;  9.9999998E-03;  1.9002128E-01;2556; -2.6891800E-04;  0.0000000E+00;  1.2085112E-04;  9.8980328E+02;  1.0000000E-01; -8.4478105E+03;3;  4.3634140E+01;  0.0000000E+00; -8.9547653E+00;0; -1.9565422E-02;  3.9191535E+04;  0.0000000E+00; -7.1145952E-01;  4.0000000E+04;  0.0000000E+00;  4.0005477E+04; -1.9836908E-02;  0.0000000E+00;  2.7148559E-04;  1.8708824E+03;
  1.2861286E-02;  9.9999998E-03;  2.0001656E-01;2557; -2.1248678E-04;  0.0000000E+00;  1.5253446E-04;  9.9012225E+02;  1.0000000E-01; -8.1835215E+03;3;  4.5860836E+01;  0.0000000E+00; -1.0761932E+01;0; -1.9002873E-02;  3.9212523E+04;  0.0000000E+00; -8.0526358E-01;  4.0000000E+04;  0.0000000E+00;  4.0009430E+04; -1.9266488E-02;  0.0000000E+00;  2.6361382E-04;  2.3411211E+03;
  1.2721977E-02;  9.9999998E-03;  2.1000741E-01;2558; -1.3928047E-04;  0.0000000E+00;  1.8756995E-04;  9.9055066E+02;  1.0000000E-01; -7.8286182E+03;3;  4.7546875E+01;  0.0000000E+00; -1.2700495E+01;0; -1.8280091E-02;  3.9241781E+04;  0.0000000E+00; -8.6813903E-01;  4.0000000E+04;  0.0000000E+00;  4.0014023E+04; -1.8527711E-02;  0.0000000E+00;  2.4761981E-04;  2.8274106E+03;
  1.2536461E-02;  9.9999998E-03;  2.1999203E-01;2559; -5.5934885E-05;  0.0000000E+00;  2.2822976E-04;  9.9109912E+02;  1.0000000E-01; -7.3742114E+03;3;  4.8066795E+01;  0.0000000E+00; -1.4579073E+01;0; -1.7415084E-02;  3.9280059E+04;  0.0000000E+00; -8.9285576E-01;  4.0000000E+04;  0.0000000E+00;  4.0018805E+04; -1.7629113E-02;  0.0000000E+00;  2.1403001E-04;  3.2630610E+03;
  1.2300496E-02;  9.9999998E-03;  2.2996917E-01;2560;  2.5636133E-05;  0.0000000E+00;  2.6982740E-04;  9.9174664E+02;  1.0000000E-01; -6.8377324E+03;3;  4.6990223E+01;  0.0000000E+00; -1.6138968E+01;0; -1.6430460E-02;  3.9327016E+04;  0.0000000E+00; -8.7876952E-01;  4.0000000E+04;  0.0000000E+00;  4.0021953E+04; -1.6584983E-02;  0.0000000E+00;  1.5452335E-04;  3.5615027E+03;
  2.2661844E-02;  9.9999998E-03;  6.9991082E-02;2605; -6.5871089E-04;  0.0000000E+00;  3.3096807E-05;  9.9314038E+02;  1.0000000E-01; -5.6830493E+03;3; -5.4496741E+00;  0.0000000E+00; -3.6625538E-03;0; -1.8950436E-02;  3.9463402E+04;  0.0000000E+00; -9.1265785E-03;  4.0000000E+04;  0.0000000E+00;  3.9994055E+04; -1.9315667E-02;  0.0000000E+00;  3.6523139E-04;  2.0825793E+02;
  2.2666318E-02;  9.9999998E-03;  7.9992063E-02;2606; -6.4988411E-04;  0.0000000E+00;  2.0509910E-05;  9.9315131E+02;  1.0000000E-01; -5.6740122E+03;3; -5.4906001E+00;  0.0000000E+00; -1.8721512E-01;0; -1.9105144E-02;  3.9463910E+04;  0.0000000E+00; -1.2182143E-02;  4.0000000E+04;  0.0000000E+00;  3.9994422E+04; -1.9481637E-02;  0.0000000E+00;  3.7649367E-04;  2.0855025E+02;
  2.2669427E-02;  9.9999998E-03;  8.9993931E-02;2607; -6.5320981E-04;  0.0000000E+00;  8.6998025E-06;  9.9315894E+02;  1.0000000E-01; -5.6676914E+03;3; -5.3279686E+00;  0.0000000E+00; -4.2695454E-01;0; -1.9300507E-02;  3.9464316E+04;  0.0000000E+00; -1.7656369E-02;  4.0000000E+04;  0.0000000E+00;  3.9994082E+04; -1.9694552E-02;  0.0000000E+00;  3.9404439E-04;  1.6791170E+02;
  2.2671195E-02;  9.9999998E-03;  9.9996589E-02;2608; -6.7194359E-04;  0.0000000E+00; -6.2569694E-07;  9.9315729E+02;  1.0000000E-01; -5.6690742E+03;3; -4.9822240E+00;  0.0000000E+00; -7.2664922E-01;0; -1.9538376E-02;  3.9463789E+04;  0.0000000E+00; -2.8018204E-02;  4.0000000E+04;  0.0000000E+00;  3.9994531E+04; -1.9947574E-02;  0.0000000E+00;  4.0919756E-04;  1.0443353E+02;
  2.2672186E-02;  9.9999998E-03;  1.1000005E-01;2609; -7.0763414E-04;  0.0000000E+00; -6.1712212E-06;  9.9314941E+02;  1.0000000E-01; -5.6755928E+03;3; -4.5373082E+00;  0.0000000E+00; -1.0902187E+00;0; -1.9813417E-02;  3.9462574E+04;  0.0000000E+00; -4.6908908E-02;  4.0000000E+04;  0.0000000E+00;  3.9995215E+04; -2.0227179E-02;  0.0000000E+00;  4.1376252E-04;  7.0082413E+01;
  2.2672752E-02;  9.9999998E-03;  1.2000416E-01;2610; -7.5883849E-04;  0.0000000E+00; -7.3675560E-06;  9.9312469E+02;  1.0000000E-01; -5.6960366E+03;3; -3.9665065E+00;  0.0000000E+00; -1.5231229E+00;0; -2.0111691E-02;  3.9459961E+04;  0.0000000E+00; -7.8927733E-02;  4.0000000E+04;  0.0000000E+00;  3.9996035E+04; -2.0514056E-02;  0.0000000E+00;  4.0236447E-04;  1.2638821E+02;
  2.2673583E-02;  9.9999998E-03;  1.3000825E-01;2611; -8.2125311E-04;  0.0000000E+00; -3.9048750E-06;  9.9308594E+02;  1.0000000E-01; -5.7281836E+03;3; -3.2764783E+00;  0.0000000E+00; -2.0303190E+00;0; -2.0409985E-02;  3.9456445E+04;  0.0000000E+00; -1.2893647E-01;  4.0000000E+04;  0.0000000E+00;  3.9996609E+04; -2.0783933E-02;  0.0000000E+00;  3.7394793E-04;  2.1569995E+02;
  2.2674292E-02;  9.9999998E-03;  1.4001198E-01;2612; -8.8740780E-04;  0.0000000E+00;  3.9439178E-06;  9.9303510E+02;  1.0000000E-01; -5.7703062E+03;3; -2.3968780E+00;  0.0000000E+00; -2.6180565E+00;0; -2.0677771E-02;  3.9452273E+04;  0.0000000E+00; -2.0083117E-01;  4.0000000E+04;  0.0000000E+00;  3.9996238E+04; -2.1009903E-02;  0.0000000E+00;  3.3213207E-04;  3.2643533E+02;
  2.2673916E-02;  9.9999998E-03;  1.5001564E-01;2613; -9.4766059E-04;  0.0000000E+00;  1.5744152E-05;  9.9298071E+02;  1.0000000E-01; -5.8153418E+03;3; -1.2292513E+00;  0.0000000E+00; -3.2934041E+00;0; -2.0880435E-02;  3.9447766E+04;  0.0000000E+00; -2.9607791E-01;  4.0000000E+04;  0.0000000E+00;  3.9997223E+04; -2.1164525E-02;  0.0000000E+00;  2.8409067E-04;  4.6985379E+02;
  2.2670828E-02;  9.9999998E-03;  1.6001961E-01;2614; -9.9156622E-04;  0.0000000E+00;  3.0320554E-05;  9.9293335E+02;  1.0000000E-01; -5.8545996E+03;3;  3.5255787E-01;  0.0000000E+00; -4.0695662E+00;0; -2.0983499E-02;  3.9443578E+04;  0.0000000E+00; -4.1293120E-01;  4.0000000E+04;  0.0000000E+00;  3.9997766E+04; -2.1221746E-02;  0.0000000E+00;  2.3824746E-04;  6.5536249E+02;
  2.2662066E-02;  9.9999998E-03;  1.7002460E-01;2615; -1.0097782E-03;  0.0000000E+00;  4.5945260E-05;  9.9291217E+02;  1.0000000E-01; -5.8721304E+03;3;  2.4328947E+00;  0.0000000E+00; -4.9669542E+00;0; -2.0955438E-02;  3.9440992E+04;  0.0000000E+00; -5.4560161E-01;  4.0000000E+04;  0.0000000E+00;  3.9999434E+04; -2.1157587E-02;  0.0000000E+00;  2.0214837E-04;  8.9131152E+02;
  2.2642229E-02;  9.9999998E-03;  1.8003094E-01;2616; -9.9564448E-04;  0.0000000E+00;  6.1321938E-05;  9.9293042E+02;  1.0000000E-01; -5.8570195E+03;3;  5.1007805E+00;  0.0000000E+00; -6.0028200E+00;0; -2.0770865E-02;  3.9440637E+04;  0.0000000E+00; -6.8402410E-01;  4.0000000E+04;  0.0000000E+00;  4.0000559E+04; -2.0951245E-02;  0.0000000E+00;  1.8038067E-04;  1.1902843E+03;
  2.2603713E-02;  9.9999998E-03;  1.9003758E-01;2617; -9.4684924E-04;  0.0000000E+00;  7.5165161E-05;  9.9300397E+02;  1.0000000E-01; -5.7960830E+03;3;  8.3316803E+00;  0.0000000E+00; -7.1719041E+00;0; -2.0413296E-02;  3.9443766E+04;  0.0000000E+00; -8.1469208E-01;  4.0000000E+04;  0.0000000E+00;  4.0003367E+04; -2.0586304E-02;  0.0000000E+00;  1.7300849E-04;  1.5670077E+03;
  2.2537328E-02;  9.9999998E-03;  2.0004243E-01;2618; -8.6650311E-04;  0.0000000E+00;  8.7353481E-05;  9.9315350E+02;  1.0000000E-01; -5.6721851E+03;3;  1.1912057E+01;  0.0000000E+00; -8.4075966E+00;0; -1.9877004E-02;  3.9451379E+04;  0.0000000E+00; -9.2266744E-01;  4.0000000E+04;  0.0000000E+00;  4.0007766E+04; -2.0051979E-02;  0.0000000E+00;  1.7497576E-04;  2.0245344E+03;
  2.2434739E-02;  9.9999998E-03;  2.1004352E-01;2619; -7.6297048E-04;  0.0000000E+00;  9.8540208E-05;  9.9338239E+02;  1.0000000E-01; -5.4825610E+03;3;  1.5544685E+01;  0.0000000E+00; -9.5716772E+00;0; -1.9167256E-02;  3.9464895E+04;  0.0000000E+00; -9.9469727E-01;  4.0000000E+04;  0.0000000E+00;  4.0012227E+04; -1.9343954E-02;  0.0000000E+00;  1.7669768E-04;  2.5376509E+03;
  2.2288620E-02;  9.9999998E-03;  2.2003818E-01;2620; -6.4914767E-04;  0.0000000E+00;  1.0911694E-04;  9.9370123E+02;  1.0000000E-01; -5.2184204E+03;3;  1.8700521E+01;  0.0000000E+00; -1.0472530E+01;0; -1.8299021E-02;  3.9484590E+04;  0.0000000E+00; -1.0227145E+00;  4.0000000E+04;  0.0000000E+00;  4.0017156E+04; -1.8464994E-02;  0.0000000E+00;  1.6597318E-04;  3.0439243E+03;
  2.2092141E-02;  9.9999998E-03;  2.3002353E-01;2621; -5.4034963E-04;  0.0000000E+00;  1.2085392E-04;  9.9409973E+02;  1.0000000E-01; -4.8882568E+03;3;  2.0865643E+01;  0.0000000E+00; -1.0952799E+01;0; -1.7294146E-02;  3.9511352E+04;  0.0000000E+00; -1.0066457E+00;  4.0000000E+04;  0.0000000E+00;  4.0021387E+04; -1.7424911E-02;  0.0000000E+00;  1.3076555E-04;  3.4492708E+03;
  3.2232985E-02;  9.9999998E-03;  6.9999367E-02;2666; -1.2660364E-03;  0.0000000E+00;  3.6762220E-05;  9.9680176E+02;  1.0000000E-01; -2.6497029E+03;3; -3.2731583E+01;  0.0000000E+00;  3.3243775E-04;0; -1.8386105E-02;  3.9754738E+04;  0.0000000E+00; -1.1158848E-02;  4.0000000E+04;  0.0000000E+00;  3.9993582E+04; -1.8826138E-02;  0.0000000E+00;  4.4003272E-04;  5.2568781E+02;
  3.2234315E-02;  9.9999998E-03;  7.9999581E-02;2667; -1.2561214E-03;  0.0000000E+00;  2.5669749E-05;  9.9681891E+02;  1.0000000E-01; -2.6354810E+03;3; -3.2655598E+01;  0.0000000E+00; -1.3323252E-01;0; -1.8541351E-02;  3.9755945E+04;  0.0000000E+00; -1.4820721E-02;  4.0000000E+04;  0.0000000E+00;  3.9994129E+04; -1.9000567E-02;  0.0000000E+00;  4.5921720E-04;  4.8757056E+02;
  3.2234360E-02;  9.9999998E-03;  8.9999706E-02;2668; -1.2606384E-03;  0.0000000E+00;  1.5825997E-05;  9.9683026E+02;  1.0000000E-01; -2.6260491E+03;3; -3.2374157E+01;  0.0000000E+00; -3.1002069E-01;0; -1.8739518E-02;  3.9756578E+04;  0.0000000E+00; -2.0773284E-02;  4.0000000E+04;  0.0000000E+00;  3.9994898E+04; -1.9218985E-02;  0.0000000E+00;  4.7946698E-04;  4.0260074E+02;
  3.2233480E-02;  9.9999998E-03;  9.9999808E-02;2669; -1.2836312E-03;  0.0000000E+00;  8.8796342E-06;  9.9684375E+02;  1.0000000E-01; -2.6148889E+03;3; -3.2008987E+01;  0.0000000E+00; -5.3380561E-01;0; -1.8985076E-02;  3.9756332E+04;  0.0000000E+00; -3.1347085E-02;  4.0000000E+04;  0.0000000E+00;  3.9995387E+04; -1.9474868E-02;  0.0000000E+00;  4.8979110E-04;  2.9415460E+02;
  3.2232780E-02;  9.9999998E-03;  1.1000034E-01;2670; -1.3271028E-03;  0.0000000E+00;  6.1796259E-06;  9.9683972E+02;  1.0000000E-01; -2.6182468E+03;3; -3.1550028E+01;  0.0000000E+00; -8.0597198E-01;0; -1.9275244E-02;  3.9755082E+04;  0.0000000E+00; -5.0094705E-02;  4.0000000E+04;  0.0000000E+00;  3.9996668E+04; -1.9755904E-02;  0.0000000E+00;  4.8065858E-04;  1.9651350E+02;
  3.2233234E-02;  9.9999998E-03;  1.2000142E-01;2671; -1.3894046E-03;  0.0000000E+00;  8.1089374E-06;  9.9681354E+02;  1.0000000E-01; -2.6399253E+03;3; -3.1031248E+01;  0.0000000E+00; -1.1350377E+00;0; -1.9597691E-02;  3.9752070E+04;  0.0000000E+00; -8.1617787E-02;  4.0000000E+04;  0.0000000E+00;  3.9997465E+04; -2.0044470E-02;  0.0000000E+00;  4.4678006E-04;  1.5675085E+02;
  3.2236241E-02;  9.9999998E-03;  1.3000309E-01;2672; -1.4648809E-03;  0.0000000E+00;  1.3756331E-05;  9.9676349E+02;  1.0000000E-01; -2.6814058E+03;3; -3.0446512E+01;  0.0000000E+00; -1.5282151E+00;0; -1.9930184E-02;  3.9748035E+04;  0.0000000E+00; -1.3090304E-01;  4.0000000E+04;  0.0000000E+00;  3.9997762E+04; -2.0318920E-02;  0.0000000E+00;  3.8873497E-04;  2.0050893E+02;
  3.2242354E-02;  9.9999998E-03;  1.4000510E-01;2673; -1.5446370E-03;  0.0000000E+00;  2.1780190E-05;  9.9669116E+02;  1.0000000E-01; -2.7413052E+03;3; -2.9731676E+01;  0.0000000E+00; -1.9906271E+00;0; -2.0241803E-02;  3.9742211E+04;  0.0000000E+00; -2.0211782E-01;  4.0000000E+04;  0.0000000E+00;  3.9997262E+04; -2.0554963E-02;  0.0000000E+00;  3.1316097E-04;  2.9996213E+02;
  3.2250956E-02;  9.9999998E-03;  1.5000759E-01;2674; -1.6169182E-03;  0.0000000E+00;  3.0836087E-05;  9.9659631E+02;  1.0000000E-01; -2.8198708E+03;3; -2.8729525E+01;  0.0000000E+00; -2.5291393E+00;0; -2.0496424E-02;  3.9735262E+04;  0.0000000E+00; -2.9695272E-01;  4.0000000E+04;  0.0000000E+00;  3.9997211E+04; -2.0727688E-02;  0.0000000E+00;  2.3126480E-04;  4.3773456E+02;
  3.2260347E-02;  9.9999998E-03;  1.6001113E-01;2675; -1.6689809E-03;  0.0000000E+00;  3.8758630E-05;  9.9649554E+02;  1.0000000E-01; -2.9033748E+03;3; -2.7319557E+01;  0.0000000E+00; -3.1370988E+00;0; -2.0657098E-02;  3.9726914E+04;  0.0000000E+00; -4.1365704E-01;  4.0000000E+04;  0.0000000E+00;  3.9996777E+04; -2.0812904E-02;  0.0000000E+00;  1.5580727E-04;  6.0258185E+02;
  3.2267865E-02;  9.9999998E-03;  1.7001644E-01;2676; -1.6895841E-03;  0.0000000E+00;  4.3554766E-05;  9.9639050E+02;  1.0000000E-01; -2.9903845E+03;3; -2.5280710E+01;  0.0000000E+00; -3.7974157E+00;0; -2.0689452E-02;  3.9718328E+04;  0.0000000E+00; -5.4634988E-01;  4.0000000E+04;  0.0000000E+00;  3.9996965E+04; -2.0787593E-02;  0.0000000E+00;  9.8140241E-05;  7.8417346E+02;
  3.2268837E-02;  9.9999998E-03;  1.8002419E-01;2677; -1.6709808E-03;  0.0000000E+00;  4.5037134E-05;  9.9630292E+02;  1.0000000E-01; -3.0629751E+03;3; -2.2518562E+01;  0.0000000E+00; -4.4833608E+00;0; -2.0565066E-02;  3.9709879E+04;  0.0000000E+00; -6.8491811E-01;  4.0000000E+04;  0.0000000E+00;  3.9998918E+04; -2.0630540E-02;  0.0000000E+00;  6.5474225E-05;  9.8887805E+02;
  3.2256018E-02;  9.9999998E-03;  1.9003437E-01;2678; -1.6098863E-03;  0.0000000E+00;  4.4084263E-05;  9.9624304E+02;  1.0000000E-01; -3.1125540E+03;3; -1.8955864E+01;  0.0000000E+00; -5.1477184E+00;0; -2.0265009E-02;  3.9702652E+04;  0.0000000E+00; -8.1599152E-01;  4.0000000E+04;  0.0000000E+00;  4.0001391E+04; -2.0323947E-02;  0.0000000E+00;  5.8938705E-05;  1.2518241E+03;
  3.2221325E-02;  9.9999998E-03;  2.0004576E-01;2679; -1.5086655E-03;  0.0000000E+00;  4.2295709E-05;  9.9622711E+02;  1.0000000E-01; -3.1257881E+03;3; -1.4689697E+01;  0.0000000E+00; -5.6992173E+00;0; -1.9781666E-02;  3.9697379E+04;  0.0000000E+00; -9.2506790E-01;  4.0000000E+04;  0.0000000E+00;  4.0005203E+04; -1.9854438E-02;  0.0000000E+00;  7.2771007E-05;  1.6184355E+03;
  3.2154392E-02;  9.9999998E-03;  2.1005552E-01;2680; -1.3754939E-03;  0.0000000E+00;  4.0803567E-05;  9.9626788E+02;  1.0000000E-01; -3.0920112E+03;3; -9.9801455E+00;  0.0000000E+00; -5.9876170E+00;0; -1.9119132E-02;  3.9695242E+04;  0.0000000E+00; -9.9952614E-01;  4.0000000E+04;  0.0000000E+00;  4.0009539E+04; -1.9214131E-02;  0.0000000E+00;  9.4999501E-05;  2.0984602E+03;
  3.2046437E-02;  9.9999998E-03;  2.2006048E-01;2681; -1.2243934E-03;  0.0000000E+00;  4.0008326E-05;  9.9636224E+02;  1.0000000E-01; -3.0137913E+03;3; -5.2007074E+00;  0.0000000E+00; -5.8480439E+00;0; -1.8291341E-02;  3.9697129E+04;  0.0000000E+00; -1.0319983E+00;  4.0000000E+04;  0.0000000E+00;  4.0015324E+04; -1.8401073E-02;  0.0000000E+00;  1.0973276E-04;  2.6398857E+03;
  3.1888969E-02;  9.9999998E-03;  2.3005654E-01;2682; -1.0729982E-03;  0.0000000E+00;  4.0503972E-05;  9.9651526E+02;  1.0000000E-01; -2.8870295E+03;3; -9.1278100E-01;  0.0000000E+00; -5.1722932E+00;0; -1.7319594E-02;  3.9703480E+04;  0.0000000E+00; -1.0230929E+00;  4.0000000E+04;  0.0000000E+00;  4.0019953E+04; -1.7420428E-02;  0.0000000E+00;  1.0083513E-04;  3.1387573E+03;
  4.1846618E-02;  9.9999998E-03;  7.0006564E-02;2727; -1.8038114E-03;  0.0000000E+00;  4.7252193E-05;  1.0000169E+03;  1.0000000E-01;  1.4024295E+01;3; -4.7180172E+01;  0.0000000E+00;  1.9778615E-02;0; -1.6838808E-02;  4.0014715E+04;  0.0000000E+00; -1.0960815E-02;  4.0000000E+04;  0.0000000E+00;  3.9994234E+04; -1.7350499E-02;  0.0000000E+00;  5.1169051E-04;  7.6114020E+02;
  4.1845158E-02;  9.9999998E-03;  8.0007285E-02;2728; -1.7891754E-03;  0.0000000E+00;  3.9516293E-05;  1.0000402E+03;  1.0000000E-01;  3.3283009E+01;3; -4.7005852E+01;  0.0000000E+00; -6.9367290E-02;0; -1.6987385E-02;  4.0016129E+04;  0.0000000E+00; -1.5017316E-02;  4.0000000E+04;  0.0000000E+00;  3.9994754E+04; -1.7529935E-02;  0.0000000E+00;  5.4254982E-04;  6.8325507E+02;
  4.1842286E-02;  9.9999998E-03;  9.0007320E-02;2729; -1.7928554E-03;  0.0000000E+00;  3.4024437E-05;  1.0000707E+03;  1.0000000E-01;  5.8566246E+01;3; -4.6706600E+01;  0.0000000E+00; -1.9010086E-01;0; -1.7179525E-02;  4.0016977E+04;  0.0000000E+00; -2.1187872E-02;  4.0000000E+04;  0.0000000E+00;  3.9995648E+04; -1.7748103E-02;  0.0000000E+00;  5.6857790E-04;  5.5149011E+02;
  4.1839376E-02;  9.9999998E-03;  1.0000655E-01;2730; -1.8194197E-03;  0.0000000E+00;  3.2498323E-05;  1.0000886E+03;  1.0000000E-01;  7.3380638E+01;3; -4.6288559E+01;  0.0000000E+00; -3.4631181E-01;0; -1.7423289E-02;  4.0017383E+04;  0.0000000E+00; -3.1369600E-02;  4.0000000E+04;  0.0000000E+00;  3.9996707E+04; -1.7999325E-02;  0.0000000E+00;  5.7603617E-04;  3.9753473E+02;
  4.1837625E-02;  9.9999998E-03;  1.1000507E-01;2731; -1.8706685E-03;  0.0000000E+00;  3.5833156E-05;  1.0000912E+03;  1.0000000E-01;  7.5553421E+01;3; -4.5843575E+01;  0.0000000E+00; -5.4152852E-01;0; -1.7719518E-02;  4.0016172E+04;  0.0000000E+00; -4.8500799E-02;  4.0000000E+04;  0.0000000E+00;  3.9998223E+04; -1.8273324E-02;  0.0000000E+00;  5.5380561E-04;  2.6386856E+02;
  4.1838460E-02;  9.9999998E-03;  1.2000296E-01;2732; -1.9440671E-03;  0.0000000E+00;  4.3343691E-05;  1.0000700E+03;  1.0000000E-01;  5.7973667E+01;3; -4.5409622E+01;  0.0000000E+00; -7.8166401E-01;0; -1.8058823E-02;  4.0013695E+04;  0.0000000E+00; -7.6433301E-02;  4.0000000E+04;  0.0000000E+00;  3.9999426E+04; -1.8555567E-02;  0.0000000E+00;  4.9674266E-04;  1.9841910E+02;
  4.1843820E-02;  9.9999998E-03;  1.3000078E-01;2733; -2.0333275E-03;  0.0000000E+00;  5.3345986E-05;  1.0000176E+03;  1.0000000E-01;  1.4518108E+01;3; -4.4978271E+01;  0.0000000E+00; -1.0712596E+00;0; -1.8420320E-02;  4.0009617E+04;  0.0000000E+00; -1.1935699E-01;  4.0000000E+04;  0.0000000E+00;  3.9998934E+04; -1.8827721E-02;  0.0000000E+00;  4.0740095E-04;  2.2739369E+02;
  4.1855011E-02;  9.9999998E-03;  1.3999927E-01;2734; -2.1273454E-03;  0.0000000E+00;  6.1767270E-05;  9.9993268E+02;  1.0000000E-01; -5.5751511E+01;3; -4.4473221E+01;  0.0000000E+00; -1.4241911E+00;0; -1.8773325E-02;  4.0003059E+04;  0.0000000E+00; -1.8074049E-01;  4.0000000E+04;  0.0000000E+00;  3.9999340E+04; -1.9069238E-02;  0.0000000E+00;  2.9591299E-04;  3.3138651E+02;
  4.1871894E-02;  9.9999998E-03;  1.4999892E-01;2735; -2.2122210E-03;  0.0000000E+00;  6.6085762E-05;  9.9981317E+02;  1.0000000E-01; -1.5476106E+02;3; -4.3738213E+01;  0.0000000E+00; -1.8382803E+00;0; -1.9080805E-02;  3.9994418E+04;  0.0000000E+00; -2.6174590E-01;  4.0000000E+04;  0.0000000E+00;  3.9997562E+04; -1.9258881E-02;  0.0000000E+00;  1.7807636E-04;  4.8651346E+02;
  4.1892737E-02;  9.9999998E-03;  1.5999992E-01;2736; -2.2727975E-03;  0.0000000E+00;  6.3889645E-05;  9.9966772E+02;  1.0000000E-01; -2.7530084E+02;3; -4.2601013E+01;  0.0000000E+00; -2.2849739E+00;0; -1.9303782E-02;  3.9983359E+04;  0.0000000E+00; -3.6026073E-01;  4.0000000E+04;  0.0000000E+00;  3.9997078E+04; -1.9375317E-02;  0.0000000E+00;  7.1534305E-05;  6.6050916E+02;
  4.1914742E-02;  9.9999998E-03;  1.7000389E-01;2737; -2.2961630E-03;  0.0000000E+00;  5.4348140E-05;  9.9950549E+02;  1.0000000E-01; -4.0966742E+02;3; -4.0866299E+01;  0.0000000E+00; -2.7077277E+00;0; -1.9405348E-02;  3.9970223E+04;  0.0000000E+00; -4.7074729E-01;  4.0000000E+04;  0.0000000E+00;  3.9996172E+04; -1.9397181E-02;  0.0000000E+00; -8.1676853E-06;  8.1145197E+02;
  4.1933134E-02;  9.9999998E-03;  1.8001115E-01;2738; -2.2726974E-03;  0.0000000E+00;  3.9099163E-05;  9.9933411E+02;  1.0000000E-01; -5.5168811E+02;3; -3.8341511E+01;  0.0000000E+00; -3.0338366E+00;0; -1.9354874E-02;  3.9955801E+04;  0.0000000E+00; -5.8459139E-01;  4.0000000E+04;  0.0000000E+00;  3.9996816E+04; -1.9303974E-02;  0.0000000E+00; -5.0900970E-05;  9.1213062E+02;
  4.1941259E-02;  9.9999998E-03;  1.9002168E-01;2739; -2.1975767E-03;  0.0000000E+00;  2.0544428E-05;  9.9916418E+02;  1.0000000E-01; -6.9247424E+02;3; -3.4908886E+01;  0.0000000E+00; -3.1814759E+00;0; -1.9131461E-02;  3.9939867E+04;  0.0000000E+00; -6.9118941E-01;  4.0000000E+04;  0.0000000E+00;  3.9998766E+04; -1.9077046E-02;  0.0000000E+00; -5.4414551E-05;  9.9037097E+02;
  4.1931555E-02;  9.9999998E-03;  2.0003508E-01;2740; -2.0745036E-03;  0.0000000E+00;  2.2092413E-06;  9.9901099E+02;  1.0000000E-01; -8.1938422E+02;3; -3.0597984E+01;  0.0000000E+00; -3.0361886E+00;0; -1.8725524E-02;  3.9923512E+04;  0.0000000E+00; -7.7982074E-01;  4.0000000E+04;  0.0000000E+00;  4.0002711E+04; -1.8700045E-02;  0.0000000E+00; -2.5478761E-05;  1.1575212E+03;
  4.1895464E-02;  9.9999998E-03;  2.1004966E-01;2741; -1.9139631E-03;  0.0000000E+00; -1.0749592E-05;  9.9888263E+02;  1.0000000E-01; -9.2570221E+02;3; -2.5578676E+01;  0.0000000E+00; -2.4408593E+00;0; -1.8139850E-02;  3.9907656E+04;  0.0000000E+00; -8.4184712E-01;  4.0000000E+04;  0.0000000E+00;  4.0006691E+04; -1.8160695E-02;  0.0000000E+00;  2.0844771E-05;  1.5247638E+03;
  4.1822210E-02;  9.9999998E-03;  2.2006129E-01;2742; -1.7328784E-03;  0.0000000E+00; -1.7010241E-05;  9.9878314E+02;  1.0000000E-01; -1.0081196E+03;3; -2.0188601E+01;  0.0000000E+00; -1.2401150E+00;0; -1.7388649E-02;  3.9893242E+04;  0.0000000E+00; -8.7335598E-01;  4.0000000E+04;  0.0000000E+00;  4.0012777E+04; -1.7452784E-02;  0.0000000E+00;  6.4133928E-05;  2.0658501E+03;
  4.1701626E-02;  9.9999998E-03;  2.3006560E-01;2743; -1.5462406E-03;  0.0000000E+00; -1.9660298E-05;  9.9871295E+02;  1.0000000E-01; -1.0662908E+03;3; -1.4855351E+01;  0.0000000E+00;  6.1444163E-01;0; -1.6494768E-02;  3.9881387E+04;  0.0000000E+00; -8.7686533E-01;  4.0000000E+04;  0.0000000E+00;  4.0018105E+04; -1.6578102E-02;  0.0000000E+00;  8.3334206E-05;  2.6471768E+03;
  5.1517285E-02;  9.9999998E-03;  7.0014149E-02;2788; -2.2392753E-03;  0.0000000E+00;  4.9605413E-05;  1.0025184E+03;  1.0000000E-01;  2.0864595E+03;3; -4.9764988E+01;  0.0000000E+00;  1.5627438E-02;0; -1.4487073E-02;  4.0219078E+04;  0.0000000E+00; -7.8676790E-03;  4.0000000E+04;  0.0000000E+00;  3.9995012E+04; -1.5060589E-02;  0.0000000E+00;  5.7351612E-04;  8.8478845E+02;
  5.1514305E-02;  9.9999998E-03;  8.0016695E-02;2789; -2.2211690E-03;  0.0000000E+00;  4.8667502E-05;  1.0025451E+03;  1.0000000E-01;  2.1085823E+03;3; -4.9550346E+01;  0.0000000E+00; -3.8966596E-02;0; -1.4617895E-02;  4.0220309E+04;  0.0000000E+00; -1.1865310E-02;  4.0000000E+04;  0.0000000E+00;  3.9995492E+04; -1.5237863E-02;  0.0000000E+00;  6.1996869E-04;  7.6978857E+02;
  5.1509954E-02;  9.9999998E-03;  9.0018198E-02;2790; -2.2237261E-03;  0.0000000E+00;  5.2852429E-05;  1.0025797E+03;  1.0000000E-01;  2.1372234E+03;3; -4.9219776E+01;  0.0000000E+00; -1.1422516E-01;0; -1.4791446E-02;  4.0221516E+04;  0.0000000E+00; -1.7888570E-02;  4.0000000E+04;  0.0000000E+00;  3.9996801E+04; -1.5447023E-02;  0.0000000E+00;  6.5557752E-04;  5.9213574E+02;
  5.1505562E-02;  9.9999998E-03;  1.0001810E-01;2791; -2.2531010E-03;  0.0000000E+00;  6.2715058E-05;  1.0026054E+03;  1.0000000E-01;  2.1585562E+03;3; -4.8810921E+01;  0.0000000E+00; -2.1361640E-01;0; -1.5020099E-02;  4.0222098E+04;  0.0000000E+00; -2.7238863E-02;  4.0000000E+04;  0.0000000E+00;  3.9998809E+04; -1.5683498E-02;  0.0000000E+00;  6.6339917E-04;  3.9195447E+02;
  5.1503617E-02;  9.9999998E-03;  1.1001575E-01;2792; -2.3119482E-03;  0.0000000E+00;  7.7187717E-05;  1.0026171E+03;  1.0000000E-01;  2.1682349E+03;3; -4.8412510E+01;  0.0000000E+00; -3.4162113E-01;0; -1.5308852E-02;  4.0221656E+04;  0.0000000E+00; -4.1856885E-02;  4.0000000E+04;  0.0000000E+00;  4.0000059E+04; -1.5939295E-02;  0.0000000E+00;  6.3044281E-04;  2.2283405E+02;
  5.1505938E-02;  9.9999998E-03;  1.2001091E-01;2793; -2.3982998E-03;  0.0000000E+00;  9.6838688E-05;  1.0026083E+03;  1.0000000E-01;  2.1609265E+03;3; -4.8095615E+01;  0.0000000E+00; -5.0155121E-01;0; -1.5651813E-02;  4.0220051E+04;  0.0000000E+00; -6.4207353E-02;  4.0000000E+04;  0.0000000E+00;  4.0000945E+04; -1.6203547E-02;  0.0000000E+00;  5.5173441E-04;  1.4538310E+02;
  5.1514216E-02;  9.9999998E-03;  1.3000478E-01;2794; -2.5033792E-03;  0.0000000E+00;  1.1688018E-04;  1.0025663E+03;  1.0000000E-01;  2.1261621E+03;3; -4.7837570E+01;  0.0000000E+00; -7.0249647E-01;0; -1.6030831E-02;  4.0216195E+04;  0.0000000E+00; -9.6784174E-02;  4.0000000E+04;  0.0000000E+00;  4.0001359E+04; -1.6462930E-02;  0.0000000E+00;  4.3209881E-04;  1.7968709E+02;
  5.1530160E-02;  9.9999998E-03;  1.3999869E-01;2795; -2.6117314E-03;  0.0000000E+00;  1.2756787E-04;  1.0024807E+03;  1.0000000E-01;  2.0552505E+03;3; -4.7539448E+01;  0.0000000E+00; -9.5621854E-01;0; -1.6416809E-02;  4.0210297E+04;  0.0000000E+00; -1.4125267E-01;  4.0000000E+04;  0.0000000E+00;  4.0000000E+04; -1.6702330E-02;  0.0000000E+00;  2.8552156E-04;  3.0027872E+02;
  5.1554143E-02;  9.9999998E-03;  1.4999400E-01;2796; -2.7077470E-03;  0.0000000E+00;  1.2492530E-04;  1.0023588E+03;  1.0000000E-01;  1.9542163E+03;3; -4.7097591E+01;  0.0000000E+00; -1.2602010E+00;0; -1.6772199E-02;  4.0201406E+04;  0.0000000E+00; -1.9719648E-01;  4.0000000E+04;  0.0000000E+00;  3.9999504E+04; -1.6904915E-02;  0.0000000E+00;  1.3271588E-04;  4.9416833E+02;
  5.1584352E-02;  9.9999998E-03;  1.5999129E-01;2797; -2.7757811E-03;  0.0000000E+00;  1.0891278E-04;  1.0021924E+03;  1.0000000E-01;  1.8164425E+03;3; -4.6295944E+01;  0.0000000E+00; -1.5641059E+00;0; -1.7056314E-02;  4.0189496E+04;  0.0000000E+00; -2.6132289E-01;  4.0000000E+04;  0.0000000E+00;  3.9996727E+04; -1.7052848E-02;  0.0000000E+00; -3.4662767E-06;  7.1336664E+02;
  5.1617790E-02;  9.9999998E-03;  1.6999157E-01;2798; -2.8029722E-03;  0.0000000E+00;  8.0762868E-05;  1.0019948E+03;  1.0000000E-01;  1.6526940E+03;3; -4.4967140E+01;  0.0000000E+00; -1.7739966E+00;0; -1.7230019E-02;  4.0174164E+04;  0.0000000E+00; -3.2828584E-01;  4.0000000E+04;  0.0000000E+00;  3.9994535E+04; -1.7127000E-02;  0.0000000E+00; -1.0301995E-04;  8.8691345E+02;
  5.1649552E-02;  9.9999998E-03;  1.7999667E-01;2799; -2.7786251E-03;  0.0000000E+00;  4.4205703E-05;  1.0017651E+03;  1.0000000E-01;  1.4623784E+03;3; -4.2897537E+01;  0.0000000E+00; -1.7798681E+00;0; -1.7260829E-02;  4.0155258E+04;  0.0000000E+00; -3.9193618E-01;  4.0000000E+04;  0.0000000E+00;  3.9994914E+04; -1.7108019E-02;  0.0000000E+00; -1.5281011E-04;  9.4740979E+02;
  5.1672898E-02;  9.9999998E-03;  1.9000608E-01;2800; -2.6958804E-03;  0.0000000E+00;  3.1833274E-06;  1.0015222E+03;  1.0000000E-01;  1.2611001E+03;3; -3.9981537E+01;  0.0000000E+00; -1.4648672E+00;0; -1.7126657E-02;  4.0133633E+04;  0.0000000E+00; -4.4676289E-01;  4.0000000E+04;  0.0000000E+00;  3.9996551E+04; -1.6976964E-02;  0.0000000E+00; -1.4969261E-04;  8.6325323E+02;
  5.1680431E-02;  9.9999998E-03;  2.0001943E-01;2801; -2.5569189E-03;  0.0000000E+00; -3.6770776E-05;  1.0012673E+03;  1.0000000E-01;  1.0499456E+03;3; -3.6152172E+01;  0.0000000E+00; -7.0035017E-01;0; -1.6817465E-02;  4.0109258E+04;  0.0000000E+00; -4.8907039E-01;  4.0000000E+04;  0.0000000E+00;  3.9999113E+04; -1.6715420E-02;  0.0000000E+00; -1.0204539E-04;  7.1622406E+02;
  5.1665500E-02;  9.9999998E-03;  2.1003570E-01;2802; -2.3717720E-03;  0.0000000E+00; -6.7211186E-05;  1.0010107E+03;  1.0000000E-01;  8.3730963E+02;3; -3.1511534E+01;  0.0000000E+00;  6.7904252E-01;0; -1.6335998E-02;  4.0082926E+04;  0.0000000E+00; -5.1783460E-01;  4.0000000E+04;  0.0000000E+00;  4.0004047E+04; -1.6307296E-02;  0.0000000E+00; -2.8701535E-05;  8.3871387E+02;
  5.1619299E-02;  9.9999998E-03;  2.2005183E-01;2803; -2.1568441E-03;  0.0000000E+00; -8.4463041E-05;  1.0007565E+03;  1.0000000E-01;  6.2674768E+02;3; -2.6282393E+01;  0.0000000E+00;  2.8059609E+00;0; -1.5696980E-02;  4.0055758E+04;  0.0000000E+00; -5.3591955E-01;  4.0000000E+04;  0.0000000E+00;  4.0010027E+04; -1.5741816E-02;  0.0000000E+00;  4.4836605E-05;  1.3733073E+03;
  5.1530104E-02;  9.9999998E-03;  2.3006195E-01;2804; -1.9364371E-03;  0.0000000E+00; -8.6805383E-05;  1.0005135E+03;  1.0000000E-01;  4.2537070E+02;3; -2.0860882E+01;  0.0000000E+00;  5.7078490E+00;0; -1.4922738E-02;  4.0028914E+04;  0.0000000E+00; -5.5026329E-01;  4.0000000E+04;  0.0000000E+00;  4.0015375E+04; -1.5014921E-02;  0.0000000E+00;  9.2182985E-05;  2.0512822E+03;
  6.1253410E-02;  9.9999998E-03;  7.0023239E-02;2849; -2.5245214E-03;  0.0000000E+00;  3.2480246E-05;  1.0041559E+03;  1.0000000E-01;  3.4430632E+03;3; -4.3814198E+01;  0.0000000E+00;  4.2089531E-03;0; -1.1630873E-02;  4.0354094E+04;  0.0000000E+00; -2.5932440E-03;  4.0000000E+04;  0.0000000E+00;  3.9995910E+04; -1.2249047E-02;  0.0000000E+00;  6.1817409E-04;  8.7978375E+02;
  6.1250262E-02;  9.9999998E-03;  8.0028668E-02;2850; -2.5079953E-03;  0.0000000E+00;  3.7610680E-05;  1.0041843E+03;  1.0000000E-01;  3.4665686E+03;3; -4.3617214E+01;  0.0000000E+00; -2.8084759E-02;0; -1.1731508E-02;  4.0355184E+04;  0.0000000E+00; -5.9698243E-03;  4.0000000E+04;  0.0000000E+00;  3.9997543E+04; -1.2415087E-02;  0.0000000E+00;  6.8357878E-04;  7.3363971E+02;
  6.1246250E-02;  9.9999998E-03;  9.0032481E-02;2851; -2.5140233E-03;  0.0000000E+00;  5.7944686E-05;  1.0042184E+03;  1.0000000E-01;  3.4948147E+03;3; -4.3307358E+01;  0.0000000E+00; -6.8422645E-02;0; -1.1870856E-02;  4.0356488E+04;  0.0000000E+00; -1.1363112E-02;  4.0000000E+04;  0.0000000E+00;  3.9998711E+04; -1.2603479E-02;  0.0000000E+00;  7.3262199E-04;  5.1438715E+02;
  6.1242480E-02;  9.9999998E-03;  1.0003376E-01;2852; -2.5497931E-03;  0.0000000E+00;  9.8058379E-05;  1.0042552E+03;  1.0000000E-01;  3.5254312E+03;3; -4.2963936E+01;  0.0000000E+00; -1.1756194E-01;0; -1.2066732E-02;  4.0357094E+04;  0.0000000E+00; -1.9483155E-02;  4.0000000E+04;  0.0000000E+00;  4.0000988E+04; -1.2811547E-02;  0.0000000E+00;  7.4481504E-04;  2.7028815E+02;
  6.1240900E-02;  9.9999998E-03;  1.1003163E-01;2853; -2.6172772E-03;  0.0000000E+00;  1.4528977E-04;  1.0042803E+03;  1.0000000E-01;  3.5461714E+03;3; -4.2646843E+01;  0.0000000E+00; -1.8742433E-01;0; -1.2330054E-02;  4.0357598E+04;  0.0000000E+00; -3.1150661E-02;  4.0000000E+04;  0.0000000E+00;  4.0002430E+04; -1.3035115E-02;  0.0000000E+00;  7.0506096E-04;  7.3418152E+01;
  6.1244506E-02;  9.9999998E-03;  1.2002514E-01;2854; -2.7132384E-03;  0.0000000E+00;  1.8161414E-04;  1.0042842E+03;  1.0000000E-01;  3.5493318E+03;3; -4.2413376E+01;  0.0000000E+00; -2.8932506E-01;0; -1.2659334E-02;  4.0356957E+04;  0.0000000E+00; -4.7119729E-02;  4.0000000E+04;  0.0000000E+00;  4.0003301E+04; -1.3267934E-02;  0.0000000E+00;  6.0860044E-04;  8.9038834E+01;
  6.1255749E-02;  9.9999998E-03;  1.3001505E-01;2855; -2.8266227E-03;  0.0000000E+00;  2.0612158E-04;  1.0042565E+03;  1.0000000E-01;  3.5264187E+03;3; -4.2262115E+01;  0.0000000E+00; -4.2696950E-01;0; -1.3039679E-02;  4.0354617E+04;  0.0000000E+00; -6.7605495E-02;  4.0000000E+04;  0.0000000E+00;  4.0003363E+04; -1.3502298E-02;  0.0000000E+00;  4.6261834E-04;  1.0547543E+02;
  6.1275784E-02;  9.9999998E-03;  1.4000411E-01;2856; -2.9430639E-03;  0.0000000E+00;  2.1294384E-04;  1.0041863E+03;  1.0000000E-01;  3.4682476E+03;3; -4.2128654E+01;  0.0000000E+00; -6.0465455E-01;0; -1.3443798E-02;  4.0349914E+04;  0.0000000E+00; -9.1598630E-02;  4.0000000E+04;  0.0000000E+00;  4.0002684E+04; -1.3728866E-02;  0.0000000E+00;  2.8506806E-04;  1.7171751E+02;
  6.1305001E-02;  9.9999998E-03;  1.4999449E-01;2857; -3.0467317E-03;  0.0000000E+00;  2.0016830E-04;  1.0040735E+03;  1.0000000E-01;  3.3748181E+03;3; -4.1909489E+01;  0.0000000E+00; -8.1735593E-01;0; -1.3834611E-02;  4.0342453E+04;  0.0000000E+00; -1.1611962E-01;  4.0000000E+04;  0.0000000E+00;  3.9999863E+04; -1.3936264E-02;  0.0000000E+00;  1.0165309E-04;  4.0533170E+02;
  6.1341710E-02;  9.9999998E-03;  1.5998714E-01;2858; -3.1220091E-03;  0.0000000E+00;  1.6725653E-04;  1.0039109E+03;  1.0000000E-01;  3.2401060E+03;3; -4.1428413E+01;  0.0000000E+00; -1.0024347E+00;0; -1.4170705E-02;  4.0331273E+04;  0.0000000E+00; -1.3573560E-01;  4.0000000E+04;  0.0000000E+00;  3.9997926E+04; -1.4111211E-02;  0.0000000E+00; -5.9494643E-05;  6.9239349E+02;
  6.1382648E-02;  9.9999998E-03;  1.6998310E-01;2859; -3.1536261E-03;  0.0000000E+00;  1.2068300E-04;  1.0037080E+03;  1.0000000E-01;  3.0720120E+03;3; -4.0527363E+01;  0.0000000E+00; -1.0366076E+00;0; -1.4412045E-02;  4.0315980E+04;  0.0000000E+00; -1.4461091E-01;  4.0000000E+04;  0.0000000E+00;  3.9994734E+04; -1.4238197E-02;  0.0000000E+00; -1.7384728E-04;  9.3171930E+02;
  6.1423302E-02;  9.9999998E-03;  1.7998420E-01;2860; -3.1293002E-03;  0.0000000E+00;  6.1779887E-05;  1.0034603E+03;  1.0000000E-01;  2.8667832E+03;3; -3.9012653E+01;  0.0000000E+00; -7.8209376E-01;0; -1.4524868E-02;  4.0296102E+04;  0.0000000E+00; -1.3918470E-01;  4.0000000E+04;  0.0000000E+00;  3.9994445E+04; -1.4299314E-02;  0.0000000E+00; -2.2555354E-04;  1.0336885E+03;
  6.1456591E-02;  9.9999998E-03;  1.8999183E-01;2861; -3.0450369E-03;  0.0000000E+00; -7.9615046E-07;  1.0031796E+03;  1.0000000E-01;  2.6342959E+03;3; -3.6773529E+01;  0.0000000E+00; -9.6407011E-02;0; -1.4486047E-02;  4.0271566E+04;  0.0000000E+00; -1.2009196E-01;  4.0000000E+04;  0.0000000E+00;  3.9994621E+04; -1.4274910E-02;  0.0000000E+00; -2.1113723E-04;  9.2891766E+02;
  6.1475169E-02;  9.9999998E-03;  2.0000486E-01;2862; -2.8999508E-03;  0.0000000E+00; -5.9948550E-05;  1.0028676E+03;  1.0000000E-01;  2.3757354E+03;3; -3.3728142E+01;  0.0000000E+00;  1.1704211E+00;0; -1.4286018E-02;  4.0242547E+04;  0.0000000E+00; -9.2624672E-02;  4.0000000E+04;  0.0000000E+00;  3.9997770E+04; -1.4144780E-02;  0.0000000E+00; -1.4123830E-04;  5.8277051E+02;
  6.1473057E-02;  9.9999998E-03;  2.1002229E-01;2863; -2.7023428E-03;  0.0000000E+00; -1.0524977E-04;  1.0025308E+03;  1.0000000E-01;  2.0967307E+03;3; -2.9899607E+01;  0.0000000E+00;  3.1757207E+00;0; -1.3928294E-02;  4.0209496E+04;  0.0000000E+00; -6.6257834E-02;  4.0000000E+04;  0.0000000E+00;  4.0002156E+04; -1.3889437E-02;  0.0000000E+00; -3.8857906E-05;  8.7495178E+01;
  6.1444350E-02;  9.9999998E-03;  2.2004206E-01;2864; -2.4692228E-03;  0.0000000E+00; -1.3267508E-04;  1.0021747E+03;  1.0000000E-01;  1.8017268E+03;3; -2.5435198E+01;  0.0000000E+00;  6.0484691E+00;0; -1.3427497E-02;  4.0173707E+04;  0.0000000E+00; -5.3838838E-02;  4.0000000E+04;  0.0000000E+00;  4.0007273E+04; -1.3492566E-02;  0.0000000E+00;  6.5068947E-05;  7.5850122E+02;
  6.1378427E-02;  9.9999998E-03;  2.3005813E-01;2865; -2.2263676E-03;  0.0000000E+00; -1.4025714E-04;  1.0018043E+03;  1.0000000E-01;  1.4947726E+03;3; -2.0614582E+01;  0.0000000E+00;  9.7669363E+00;0; -1.2806033E-02;  4.0136191E+04;  0.0000000E+00; -7.0336372E-02;  4.0000000E+04;  0.0000000E+00;  4.0013340E+04; -1.2944512E-02;  0.0000000E+00;  1.3847905E-04;  1.5546851E+03;
  7.1062662E-02;  9.9999998E-03;  7.0031554E-02;2910; -2.5902886E-03;  0.0000000E+00;  2.0209192E-05;  1.0049388E+03;  1.0000000E-01;  4.0917361E+03;3; -3.3517883E+01;  0.0000000E+00;  4.1369274E-03;0; -8.6463178E-03;  4.0418461E+04;  0.0000000E+00;  2.7602345E-03;  4.0000000E+04;  0.0000000E+00;  3.9997750E+04; -9.2851482E-03;  0.0000000E+00;  6.3883013E-04;  7.4336542E+02;
  7.1060225E-02;  9.9999998E-03;  8.0040418E-02;2911; -2.5785742E-03;  0.0000000E+00;  2.7059008E-05;  1.0049598E+03;  1.0000000E-01;  4.1091182E+03;3; -3.3352543E+01;  0.0000000E+00; -1.5138255E-02;0; -8.7060984E-03;  4.0418797E+04;  0.0000000E+00;  3.9248588E-04;  4.0000000E+04;  0.0000000E+00;  3.9999180E+04; -9.4311386E-03;  0.0000000E+00;  7.2504056E-04;  5.7433258E+02;
  7.1057484E-02;  9.9999998E-03;  9.0047382E-02;2912; -2.5927650E-03;  0.0000000E+00;  6.0448678E-05;  1.0049946E+03;  1.0000000E-01;  4.1378584E+03;3; -3.3108608E+01;  0.0000000E+00; -3.6225319E-02;0; -8.7966816E-03;  4.0419844E+04;  0.0000000E+00; -3.9271186E-03;  4.0000000E+04;  0.0000000E+00;  4.0000961E+04; -9.5871724E-03;  0.0000000E+00;  7.9049089E-04;  3.2070117E+02;
  7.1055681E-02;  9.9999998E-03;  1.0005089E-01;2913; -2.6371332E-03;  0.0000000E+00;  1.2592372E-04;  1.0050334E+03;  1.0000000E-01;  4.1700547E+03;3; -3.2833187E+01;  0.0000000E+00; -6.0127772E-02;0; -8.9416066E-03;  4.0420824E+04;  0.0000000E+00; -1.0425887E-02;  4.0000000E+04;  0.0000000E+00;  4.0003395E+04; -9.7528184E-03;  0.0000000E+00;  8.1121211E-04;  3.9858654E+01;
  7.1056195E-02;  9.9999998E-03;  1.1004910E-01;2914; -2.7113496E-03;  0.0000000E+00;  1.9623101E-04;  1.0050722E+03;  1.0000000E-01;  4.2022515E+03;3; -3.2597298E+01;  0.0000000E+00; -9.9321611E-02;0; -9.1582462E-03;  4.0421793E+04;  0.0000000E+00; -1.8924251E-02;  4.0000000E+04;  0.0000000E+00;  4.0005141E+04; -9.9281240E-03;  0.0000000E+00;  7.6987781E-04;  2.0694315E+02;
  7.1061343E-02;  9.9999998E-03;  1.2004110E-01;2915; -2.8131099E-03;  0.0000000E+00;  2.5229284E-04;  1.0050898E+03;  1.0000000E-01;  4.2167695E+03;3; -3.2431622E+01;  0.0000000E+00; -1.6189978E-01;0; -9.4510708E-03;  4.0422504E+04;  0.0000000E+00; -2.8520247E-02;  4.0000000E+04;  0.0000000E+00;  4.0005957E+04; -1.0112751E-02;  0.0000000E+00;  6.6168007E-04;  3.3908145E+02;
  7.1074151E-02;  9.9999998E-03;  1.3002770E-01;2916; -2.9335322E-03;  0.0000000E+00;  2.8319404E-04;  1.0050865E+03;  1.0000000E-01;  4.2141030E+03;3; -3.2372299E+01;  0.0000000E+00; -2.5111112E-01;0; -9.8093040E-03;  4.0421980E+04;  0.0000000E+00; -3.7076253E-02;  4.0000000E+04;  0.0000000E+00;  4.0005293E+04; -1.0305366E-02;  0.0000000E+00;  4.9606245E-04;  3.1419470E+02;
  7.1096107E-02;  9.9999998E-03;  1.4001191E-01;2917; -3.0589208E-03;  0.0000000E+00;  2.8848893E-04;  1.0050402E+03;  1.0000000E-01;  4.1756846E+03;3; -3.2355106E+01;  0.0000000E+00; -3.6804432E-01;0; -1.0208684E-02;  4.0419570E+04;  0.0000000E+00; -4.0602088E-02;  4.0000000E+04;  0.0000000E+00;  4.0004578E+04; -1.0503491E-02;  0.0000000E+00;  2.9480743E-04;  1.2939038E+02;
  7.1127392E-02;  9.9999998E-03;  1.4999755E-01;2918; -3.1720810E-03;  0.0000000E+00;  2.7022650E-04;  1.0049545E+03;  1.0000000E-01;  4.1046738E+03;3; -3.2307053E+01;  0.0000000E+00; -5.0463063E-01;0; -1.0614225E-02;  4.0414562E+04;  0.0000000E+00; -3.2953400E-02;  4.0000000E+04;  0.0000000E+00;  4.0001812E+04; -1.0702588E-02;  0.0000000E+00;  8.8363275E-05;  2.1292847E+02;
  7.1166627E-02;  9.9999998E-03;  1.5998605E-01;2919; -3.2556071E-03;  0.0000000E+00;  2.2826101E-04;  1.0048167E+03;  1.0000000E-01;  3.9906033E+03;3; -3.2079350E+01;  0.0000000E+00; -5.9332973E-01;0; -1.0984939E-02;  4.0405941E+04;  0.0000000E+00; -6.0048960E-03;  4.0000000E+04;  0.0000000E+00;  3.9998648E+04; -1.0894869E-02;  0.0000000E+00; -9.0069705E-05;  5.8350739E+02;
  7.1210667E-02;  9.9999998E-03;  1.6997805E-01;2920; -3.2948598E-03;  0.0000000E+00;  1.6677735E-04;  1.0046275E+03;  1.0000000E-01;  3.8337681E+03;3; -3.1532587E+01;  0.0000000E+00; -4.9740893E-01;0; -1.1280458E-02;  4.0392844E+04;  0.0000000E+00;  4.7350649E-02;  4.0000000E+04;  0.0000000E+00;  3.9995352E+04; -1.1068637E-02;  0.0000000E+00; -2.1182156E-04;  9.1568384E+02;
  7.1254775E-02;  9.9999998E-03;  1.7997548E-01;2921; -3.2762138E-03;  0.0000000E+00;  9.3476629E-05;  1.0043950E+03;  1.0000000E-01;  3.6411809E+03;3; -3.0539156E+01;  0.0000000E+00; -5.5033449E-02;0; -1.1466845E-02;  4.0374328E+04;  0.0000000E+00;  1.2881489E-01;  4.0000000E+04;  0.0000000E+00;  3.9994652E+04; -1.1207972E-02;  0.0000000E+00; -2.5887284E-04;  1.1162600E+03;
  7.1293205E-02;  9.9999998E-03;  1.8998107E-01;2922; -3.1957761E-03;  0.0000000E+00;  1.5234444E-05;  1.0041138E+03;  1.0000000E-01;  3.4082000E+03;3; -2.8974367E+01;  0.0000000E+00;  8.9379907E-01;0; -1.1521136E-02;  4.0350234E+04;  0.0000000E+00;  2.3226331E-01;  4.0000000E+04;  0.0000000E+00;  3.9994332E+04; -1.1292973E-02;  0.0000000E+00; -2.2816424E-04;  1.1195551E+03;
  7.1317852E-02;  9.9999998E-03;  1.9999433E-01;2923; -3.0510689E-03;  0.0000000E+00; -5.5713881E-05;  1.0037874E+03;  1.0000000E-01;  3.1377878E+03;3; -2.6758986E+01;  0.0000000E+00;  2.5138729E+00;0; -1.1434669E-02;  4.0320172E+04;  0.0000000E+00;  3.4363174E-01;  4.0000000E+04;  0.0000000E+00;  3.9996699E+04; -1.1301937E-02;  0.0000000E+00; -1.3273227E-04;  9.1652954E+02;
  7.1323194E-02;  9.9999998E-03;  2.1001445E-01;2924; -2.8512275E-03;  0.0000000E+00; -1.1010832E-04;  1.0034189E+03;  1.0000000E-01;  2.8325125E+03;3; -2.3878744E+01;  0.0000000E+00;  4.9687042E+00;0; -1.1211248E-02;  4.0284535E+04;  0.0000000E+00;  4.4201341E-01;  4.0000000E+04;  0.0000000E+00;  4.0000652E+04; -1.1211332E-02;  0.0000000E+00;  8.4102794E-08;  6.7044769E+02;
  7.1304440E-02;  9.9999998E-03;  2.2003865E-01;2925; -2.6144565E-03;  0.0000000E+00; -1.4233240E-04;  1.0030112E+03;  1.0000000E-01;  2.4947441E+03;3; -2.0409966E+01;  0.0000000E+00;  8.3774109E+00;0; -1.0865219E-02;  4.0244164E+04;  0.0000000E+00;  5.0132990E-01;  4.0000000E+04;  0.0000000E+00;  4.0006824E+04; -1.0998949E-02;  0.0000000E+00;  1.3373019E-04;  8.9600519E+02;
  7.1253411E-02;  9.9999998E-03;  2.3006135E-01;2926; -2.3678176E-03;  0.0000000E+00; -1.4829918E-04;  1.0025698E+03;  1.0000000E-01;  2.1290261E+03;3; -1.6544033E+01;  0.0000000E+00;  1.2695265E+01;0; -1.0418086E-02;  4.0200488E+04;  0.0000000E+00;  4.9671012E-01;  4.0000000E+04;  0.0000000E+00;  4.0012449E+04; -1.0648358E-02;  0.0000000E+00;  2.3027166E-04;  1.5341091E+03;
  8.0956973E-02;  9.9999998E-03;  7.0034839E-02;2971; -2.4197202E-03;  0.0000000E+00;  7.5161179E-06;  1.0049811E+03;  1.0000000E-01;  4.1266982E+03;3; -2.2586456E+01;  0.0000000E+00;  4.5766118E-03;0; -5.9268596E-03;  4.0420641E+04;  0.0000000E+00;  5.4106121E-03;  4.0000000E+04;  0.0000000E+00;  3.9999355E+04; -6.5578455E-03;  0.0000000E+00;  6.3098589E-04;  4.8742575E+02;
  8.0954939E-02;  9.9999998E-03;  8.0047116E-02;2972; -2.4116270E-03;  0.0000000E+00;  5.9404515E-06;  1.0049869E+03;  1.0000000E-01;  4.1315376E+03;3; -2.2456165E+01;  0.0000000E+00; -8.2746884E-03;0; -5.9377672E-03;  4.0420043E+04;  0.0000000E+00;  3.9825886E-03;  4.0000000E+04;  0.0000000E+00;  4.0001285E+04; -6.6754008E-03;  0.0000000E+00;  7.3763338E-04;  3.0449500E+02;
  8.0953144E-02;  9.9999998E-03;  9.0057373E-02;2973; -2.4304367E-03;  0.0000000E+00;  4.1298197E-05;  1.0050120E+03;  1.0000000E-01;  4.1522778E+03;3; -2.2271719E+01;  0.0000000E+00; -2.1106262E-02;0; -5.9675691E-03;  4.0420141E+04;  0.0000000E+00;  8.9558575E-04;  4.0000000E+04;  0.0000000E+00;  4.0003582E+04; -6.7881988E-03;  0.0000000E+00;  8.2062994E-04;  2.5928574E+01;
  8.0952488E-02;  9.9999998E-03;  1.0006355E-01;2974; -2.4824452E-03;  0.0000000E+00;  1.2995278E-04;  1.0050544E+03;  1.0000000E-01;  4.1875356E+03;3; -2.2080229E+01;  0.0000000E+00; -2.8065005E-02;0; -6.0448698E-03;  4.0421227E+04;  0.0000000E+00; -3.7140385E-03;  4.0000000E+04;  0.0000000E+00;  4.0006227E+04; -6.8980120E-03;  0.0000000E+00;  8.5314235E-04;  2.8755301E+02;
  8.0954008E-02;  9.9999998E-03;  1.1006265E-01;2975; -2.5663923E-03;  0.0000000E+00;  2.3429753E-04;  1.0050994E+03;  1.0000000E-01;  4.2247695E+03;3; -2.1917461E+01;  0.0000000E+00; -4.1270427E-02;0; -6.1934316E-03;  4.0422570E+04;  0.0000000E+00; -8.9109065E-03;  4.0000000E+04;  0.0000000E+00;  4.0008004E+04; -7.0091453E-03;  0.0000000E+00;  8.1571360E-04;  5.5556689E+02;
  8.0958888E-02;  9.9999998E-03;  1.2005349E-01;2976; -2.6765752E-03;  0.0000000E+00;  3.0988830E-04;  1.0051351E+03;  1.0000000E-01;  4.2543984E+03;3; -2.1828863E+01;  0.0000000E+00; -7.7456415E-02;0; -6.4244554E-03;  4.0424320E+04;  0.0000000E+00; -1.2496415E-02;  4.0000000E+04;  0.0000000E+00;  4.0008988E+04; -7.1277563E-03;  0.0000000E+00;  7.0330064E-04;  6.9851575E+02;
  8.0969587E-02;  9.9999998E-03;  1.3003756E-01;2977; -2.8069387E-03;  0.0000000E+00;  3.5009370E-04;  1.0051510E+03;  1.0000000E-01;  4.2675337E+03;3; -2.1828938E+01;  0.0000000E+00; -1.3470936E-01;0; -6.7334203E-03;  4.0425715E+04;  0.0000000E+00; -1.0383784E-02;  4.0000000E+04;  0.0000000E+00;  4.0009203E+04; -7.2604176E-03;  0.0000000E+00;  5.2699714E-04;  6.6140472E+02;
  8.0988891E-02;  9.9999998E-03;  1.4001803E-01;2978; -2.9433735E-03;  0.0000000E+00;  3.5533591E-04;  1.0051392E+03;  1.0000000E-01;  4.2577563E+03;3; -2.1894333E+01;  0.0000000E+00; -2.0869000E-01;0; -7.1004424E-03;  4.0426309E+04;  0.0000000E+00;  4.0532439E-03;  4.0000000E+04;  0.0000000E+00;  4.0008359E+04; -7.4122837E-03;  0.0000000E+00;  3.1184102E-04;  4.3351428E+02;
  8.1017122E-02;  9.9999998E-03;  1.4999950E-01;2979; -3.0666138E-03;  0.0000000E+00;  3.3102743E-04;  1.0050880E+03;  1.0000000E-01;  4.2152881E+03;3; -2.1944969E+01;  0.0000000E+00; -2.9079184E-01;0; -7.4937665E-03;  4.0424910E+04;  0.0000000E+00;  4.0069435E-02;  4.0000000E+04;  0.0000000E+00;  4.0004246E+04; -7.5862226E-03;  0.0000000E+00;  9.2456154E-05;  8.0268181E+01;
  8.1054330E-02;  9.9999998E-03;  1.5998515E-01;2980; -3.1608283E-03;  0.0000000E+00;  2.8192354E-04;  1.0049930E+03;  1.0000000E-01;  4.1365742E+03;3; -2.1886505E+01;  0.0000000E+00; -3.1131101E-01;0; -7.8738909E-03;  4.0420035E+04;  0.0000000E+00;  1.0839777E-01;  4.0000000E+04;  0.0000000E+00;  4.0000422E+04; -7.7803181E-03;  0.0000000E+00; -9.3572948E-05;  4.1594986E+02;
  8.1097044E-02;  9.9999998E-03;  1.6997489E-01;2981; -3.2090542E-03;  0.0000000E+00;  2.1265523E-04;  1.0048461E+03;  1.0000000E-01;  4.0148987E+03;3; -2.1606865E+01;  0.0000000E+00; -1.3035592E-01;0; -8.2014920E-03;  4.0410637E+04;  0.0000000E+00;  2.1769804E-01;  4.0000000E+04;  0.0000000E+00;  3.9996770E+04; -7.9873567E-03;  0.0000000E+00; -2.1413538E-04;  8.4392303E+02;
  8.1141047E-02;  9.9999998E-03;  1.7997029E-01;2982; -3.2019273E-03;  0.0000000E+00;  1.3187098E-04;  1.0046522E+03;  1.0000000E-01;  3.8543108E+03;3; -2.1014446E+01;  0.0000000E+00;  4.2469120E-01;0; -8.4437663E-03;  4.0395703E+04;  0.0000000E+00;  3.6899170E-01;  4.0000000E+04;  0.0000000E+00;  3.9994980E+04; -8.1938915E-03;  0.0000000E+00; -2.4987489E-04;  1.1615907E+03;
  8.1180118E-02;  9.9999998E-03;  1.8997455E-01;2983; -3.1318036E-03;  0.0000000E+00;  4.6801691E-05;  1.0044023E+03;  1.0000000E-01;  3.6472056E+03;3; -2.0005745E+01;  0.0000000E+00;  1.5297439E+00;0; -8.5793640E-03;  4.0374570E+04;  0.0000000E+00;  5.5288392E-01;  4.0000000E+04;  0.0000000E+00;  3.9994914E+04; -8.3810994E-03;  0.0000000E+00; -1.9826416E-04;  1.3157004E+03;
  8.1206404E-02;  9.9999998E-03;  1.9998889E-01;2984; -2.9965439E-03;  0.0000000E+00; -2.9674580E-05;  1.0040975E+03;  1.0000000E-01;  3.3947681E+03;3; -1.8508465E+01;  0.0000000E+00;  3.3596179E+00;0; -8.6001903E-03;  4.0346473E+04;  0.0000000E+00;  7.4878204E-01;  4.0000000E+04;  0.0000000E+00;  3.9996586E+04; -8.5254833E-03;  0.0000000E+00; -7.4706957E-05;  1.3273170E+03;
  8.1215277E-02;  9.9999998E-03;  2.1001327E-01;2985; -2.8067140E-03;  0.0000000E+00; -8.3943254E-05;  1.0037350E+03;  1.0000000E-01;  3.0943323E+03;3; -1.6490120E+01;  0.0000000E+00;  6.0930729E+00;0; -8.5098995E-03;  4.0311664E+04;  0.0000000E+00;  9.2483902E-01;  4.0000000E+04;  0.0000000E+00;  4.0000598E+04; -8.5992143E-03;  0.0000000E+00;  8.9314359E-05;  1.3412648E+03;
  8.1201069E-02;  9.9999998E-03;  2.2004530E-01;2986; -2.5814630E-03;  0.0000000E+00; -1.1240018E-04;  1.0033252E+03;  1.0000000E-01;  2.7548850E+03;3; -1.3991406E+01;  0.0000000E+00;  9.8518219E+00;0; -8.3230147E-03;  4.0270727E+04;  0.0000000E+00;  1.0453026E+00;  4.0000000E+04;  0.0000000E+00;  4.0006496E+04; -8.5745286E-03;  0.0000000E+00;  2.5151385E-04;  1.5766631E+03;
  8.1158474E-02;  9.9999998E-03;  2.3007581E-01;2987; -2.3451557E-03;  0.0000000E+00; -1.0185775E-04;  1.0028604E+03;  1.0000000E-01;  2.3697107E+03;3; -1.1122754E+01;  0.0000000E+00;  1.4580811E+01;0; -8.0590434E-03;  4.0224668E+04;  0.0000000E+00;  1.0811802E+00;  4.0000000E+04;  0.0000000E+00;  4.0013367E+04; -8.4273284E-03;  0.0000000E+00;  3.6828546E-04;  2.0531091E+03;
  9.0947092E-02;  9.9999998E-03;  7.0026547E-02;3032; -2.0217497E-03;  0.0000000E+00; -2.8905446E-05;  1.0044695E+03;  1.0000000E-01;  3.7029077E+03;3; -1.3316313E+01;  0.0000000E+00; -1.6778683E-02;0; -3.8368721E-03;  4.0376453E+04;  0.0000000E+00;  3.0452262E-03;  4.0000000E+04;  0.0000000E+00;  4.0002262E+04; -4.4306600E-03;  0.0000000E+00;  5.9378793E-04;  1.3867598E+02;
  9.0942636E-02;  9.9999998E-03;  8.0042765E-02;3033; -2.0196354E-03;  0.0000000E+00; -5.0766033E-05;  1.0044632E+03;  1.0000000E-01;  3.6976731E+03;3; -1.3234212E+01;  0.0000000E+00; -3.1602908E-02;0; -3.7944634E-03;  4.0374379E+04;  0.0000000E+00;  1.8723878E-03;  4.0000000E+04;  0.0000000E+00;  4.0003594E+04; -4.5124469E-03;  0.0000000E+00;  7.1798352E-04;  5.0482506E+01;
  9.0937592E-02;  9.9999998E-03;  9.0057112E-02;3034; -2.0436887E-03;  0.0000000E+00; -2.9533972E-05;  1.0044767E+03;  1.0000000E-01;  3.7088335E+03;3; -1.3116074E+01;  0.0000000E+00; -3.7566882E-02;0; -3.7554568E-03;  4.0373441E+04;  0.0000000E+00; -3.3397056E-04;  4.0000000E+04;  0.0000000E+00;  4.0005871E+04; -4.5725950E-03;  0.0000000E+00;  8.1713829E-04;  3.4399683E+02;
  9.0932749E-02;  9.9999998E-03;  1.0006669E-01;3035; -2.1024665E-03;  0.0000000E+00;  6.4865075E-05;  1.0045101E+03;  1.0000000E-01;  3.7365857E+03;3; -1.2998648E+01;  0.0000000E+00; -2.4940871E-02;0; -3.7519769E-03;  4.0373715E+04;  0.0000000E+00; -3.1227323E-03;  4.0000000E+04;  0.0000000E+00;  4.0008945E+04; -4.6148514E-03;  0.0000000E+00;  8.6287450E-04;  6.7683484E+02;
  9.0929061E-02;  9.9999998E-03;  1.1006828E-01;3036; -2.1978077E-03;  0.0000000E+00;  2.0616109E-04;  1.0045549E+03;  1.0000000E-01;  3.7737205E+03;3; -1.2917842E+01;  0.0000000E+00; -1.0320399E-02;0; -3.8139052E-03;  4.0375289E+04;  0.0000000E+00; -5.0484804E-03;  4.0000000E+04;  0.0000000E+00;  4.0010578E+04; -4.6479683E-03;  0.0000000E+00;  8.3406316E-04;  9.6107654E+02;
  9.0927497E-02;  9.9999998E-03;  1.2005930E-01;3037; -2.3223285E-03;  0.0000000E+00;  3.1583503E-04;  1.0046027E+03;  1.0000000E-01;  3.8132256E+03;3; -1.2890361E+01;  0.0000000E+00; -2.1550715E-02;0; -3.9593545E-03;  4.0378016E+04;  0.0000000E+00; -3.0855658E-03;  4.0000000E+04;  0.0000000E+00;  4.0012238E+04; -4.6844380E-03;  0.0000000E+00;  7.2508352E-04;  1.1090386E+03;
  9.0930209E-02;  9.9999998E-03;  1.3004149E-01;3038; -2.4640691E-03;  0.0000000E+00;  3.8131018E-04;  1.0046423E+03;  1.0000000E-01;  3.8461135E+03;3; -1.2941877E+01;  0.0000000E+00; -4.8373397E-02;0; -4.1905870E-03;  4.0381359E+04;  0.0000000E+00;  8.1040030E-03;  4.0000000E+04;  0.0000000E+00;  4.0011773E+04; -4.7384752E-03;  0.0000000E+00;  5.4788811E-04;  1.0601346E+03;
  9.0940379E-02;  9.9999998E-03;  1.4001922E-01;3039; -2.6068965E-03;  0.0000000E+00;  4.0540425E-04;  1.0046628E+03;  1.0000000E-01;  3.8631006E+03;3; -1.3044452E+01;  0.0000000E+00; -8.8280626E-02;0; -4.4938922E-03;  4.0384648E+04;  0.0000000E+00;  3.6916509E-02;  4.0000000E+04;  0.0000000E+00;  4.0010348E+04; -4.8237136E-03;  0.0000000E+00;  3.2982120E-04;  8.0413373E+02;
  9.0960748E-02;  9.9999998E-03;  1.4999762E-01;3040; -2.7376392E-03;  0.0000000E+00;  3.8885561E-04;  1.0046517E+03;  1.0000000E-01;  3.8538169E+03;3; -1.3149127E+01;  0.0000000E+00; -1.3653675E-01;0; -4.8419875E-03;  4.0386922E+04;  0.0000000E+00;  9.4896227E-02;  4.0000000E+04;  0.0000000E+00;  4.0006949E+04; -4.9508247E-03;  0.0000000E+00;  1.0883701E-04;  4.0439966E+02;
  9.0991311E-02;  9.9999998E-03;  1.5998174E-01;3041; -2.8494054E-03;  0.0000000E+00;  3.3437638E-04;  1.0046034E+03;  1.0000000E-01;  3.8138181E+03;3; -1.3193570E+01;  0.0000000E+00; -1.1922181E-01;0; -5.1996708E-03;  4.0386645E+04;  0.0000000E+00;  1.9477692E-01;  4.0000000E+04;  0.0000000E+00;  4.0002434E+04; -5.1253764E-03;  0.0000000E+00; -7.4294287E-05;  2.9975427E+02;
  9.1029815E-02;  9.9999998E-03;  1.6997151E-01;3042; -2.9178273E-03;  0.0000000E+00;  2.6084678E-04;  1.0045150E+03;  1.0000000E-01;  3.7406350E+03;3; -1.3091547E+01;  0.0000000E+00;  1.0561020E-01;0; -5.5294838E-03;  4.0382125E+04;  0.0000000E+00;  3.4626928E-01;  4.0000000E+04;  0.0000000E+00;  3.9998645E+04; -5.3442242E-03;  0.0000000E+00; -1.8525985E-04;  7.4730701E+02;
  9.1071367E-02;  9.9999998E-03;  1.7996688E-01;3043; -2.9267571E-03;  0.0000000E+00;  1.7389243E-04;  1.0043754E+03;  1.0000000E-01;  3.6248853E+03;3; -1.2764135E+01;  0.0000000E+00;  7.1019620E-01;0; -5.8012349E-03;  4.0372457E+04;  0.0000000E+00;  5.5095804E-01;  4.0000000E+04;  0.0000000E+00;  3.9996750E+04; -5.5974498E-03;  0.0000000E+00; -2.0378483E-04;  1.1580961E+03;
  9.1109559E-02;  9.9999998E-03;  1.8997161E-01;3044; -2.8734496E-03;  0.0000000E+00;  9.0387322E-05;  1.0041804E+03;  1.0000000E-01;  3.4633096E+03;3; -1.2148685E+01;  0.0000000E+00;  1.8818909E+00;0; -5.9957006E-03;  4.0355852E+04;  0.0000000E+00;  7.9891545E-01;  4.0000000E+04;  0.0000000E+00;  3.9996172E+04; -5.8680652E-03;  0.0000000E+00; -1.2763540E-04;  1.4457013E+03;
  9.1136150E-02;  9.9999998E-03;  1.9998860E-01;3045; -2.7572464E-03;  0.0000000E+00;  2.0019823E-05;  1.0039292E+03;  1.0000000E-01;  3.2553154E+03;3; -1.1188843E+01;  0.0000000E+00;  3.8164756E+00;0; -6.1056009E-03;  4.0332234E+04;  0.0000000E+00;  1.0657358E+00;  4.0000000E+04;  0.0000000E+00;  3.9997848E+04; -6.1312956E-03;  0.0000000E+00;  2.5694779E-05;  1.6437169E+03;
  9.1144748E-02;  9.9999998E-03;  2.1001993E-01;3046; -2.5877531E-03;  0.0000000E+00; -2.6527759E-05;  1.0036088E+03;  1.0000000E-01;  2.9898413E+03;3; -9.8383837E+00;  0.0000000E+00;  6.6993647E+00;0; -6.1354041E-03;  4.0300480E+04;  0.0000000E+00;  1.3168621E+00;  4.0000000E+04;  0.0000000E+00;  4.0001516E+04; -6.3561788E-03;  0.0000000E+00;  2.2077448E-04;  1.8766484E+03;
  9.1132849E-02;  9.9999998E-03;  2.2005740E-01;3047; -2.3869600E-03;  0.0000000E+00; -3.0916381E-05;  1.0032249E+03;  1.0000000E-01;  2.6717268E+03;3; -8.1334534E+00;  0.0000000E+00;  1.0673012E+01;0; -6.0980371E-03;  4.0261871E+04;  0.0000000E+00;  1.5179571E+00;  4.0000000E+04;  0.0000000E+00;  4.0008117E+04; -6.5083960E-03;  0.0000000E+00;  4.1035874E-04;  2.2719690E+03;
  9.1093116E-02;  9.9999998E-03;  2.3009259E-01;3048; -2.1751956E-03;  0.0000000E+00;  8.6629998E-06;  1.0027715E+03;  1.0000000E-01;  2.2961326E+03;3; -6.1263413E+00;  0.0000000E+00;  1.5675496E+01;0; -6.0112402E-03;  4.0216883E+04;  0.0000000E+00;  1.6435710E+00;  4.0000000E+04;  0.0000000E+00;  4.0015004E+04; -6.5564313E-03;  0.0000000E+00;  5.4519094E-04;  2.8119233E+03;
  1.0100849E-01;  9.9999998E-03;  6.9986954E-02;3093; -1.5713047E-03;  0.0000000E+00; -8.1316932E-05;  1.0036495E+03;  1.0000000E-01;  3.0235195E+03;3; -6.7569418E+00;  0.0000000E+00; -4.5744598E-02;0; -2.6606324E-03;  4.0305090E+04;  0.0000000E+00; -4.8669111E-03;  4.0000000E+04;  0.0000000E+00;  4.0005082E+04; -3.1909838E-03;  0.0000000E+00;  5.3035148E-04;  2.6071722E+02;
  1.0099364E-01;  9.9999998E-03;  8.0012262E-02;3094; -1.5765585E-03;  0.0000000E+00; -1.0759893E-04;  1.0036204E+03;  1.0000000E-01;  2.9994214E+03;3; -6.7190537E+00;  0.0000000E+00; -5.6957949E-02;0; -2.5645229E-03;  4.0301484E+04;  0.0000000E+00; -7.0265718E-03;  4.0000000E+04;  0.0000000E+00;  4.0006297E+04; -3.2317694E-03;  0.0000000E+00;  6.6724652E-04;  4.5138693E+02;
  1.0097802E-01;  9.9999998E-03;  9.0035729E-02;3095; -1.6023514E-03;  0.0000000E+00; -1.0805142E-04;  1.0036170E+03;  1.0000000E-01;  2.9966560E+03;3; -6.6588960E+00;  0.0000000E+00; -6.5706924E-02;0; -2.4531300E-03;  4.0299113E+04;  0.0000000E+00; -9.3363011E-03;  4.0000000E+04;  0.0000000E+00;  4.0008496E+04; -3.2318612E-03;  0.0000000E+00;  7.7873113E-04;  7.5214288E+02;
  1.0096293E-01;  9.9999998E-03;  1.0005237E-01;3096; -1.6552730E-03;  0.0000000E+00; -6.3964784E-05;  1.0036359E+03;  1.0000000E-01;  3.0122605E+03;3; -6.5913558E+00;  0.0000000E+00; -6.9670558E-02;0; -2.3593402E-03;  4.0298309E+04;  0.0000000E+00; -1.0963335E-02;  4.0000000E+04;  0.0000000E+00;  4.0011340E+04; -3.1960220E-03;  0.0000000E+00;  8.3668181E-04;  1.0942069E+03;
  1.0094900E-01;  9.9999998E-03;  1.1005932E-01;3097; -1.7418029E-03;  0.0000000E+00;  4.6573394E-05;  1.0036785E+03;  1.0000000E-01;  3.0476174E+03;3; -6.5510626E+00;  0.0000000E+00; -6.3323200E-02;0; -2.3176149E-03;  4.0299414E+04;  0.0000000E+00; -1.0072128E-02;  4.0000000E+04;  0.0000000E+00;  4.0013867E+04; -3.1371380E-03;  0.0000000E+00;  8.1952306E-04;  1.3842866E+03;
  1.0093766E-01;  9.9999998E-03;  1.2005387E-01;3098; -1.8642874E-03;  0.0000000E+00;  1.8425375E-04;  1.0037332E+03;  1.0000000E-01;  3.0928508E+03;3; -6.5614443E+00;  0.0000000E+00; -4.9062010E-02;0; -2.3541553E-03;  4.0302383E+04;  0.0000000E+00; -3.2029585E-03;  4.0000000E+04;  0.0000000E+00;  4.0014844E+04; -3.0745454E-03;  0.0000000E+00;  7.2039012E-04;  1.5290432E+03;
  1.0093047E-01;  9.9999998E-03;  1.3003668E-01;3099; -2.0063689E-03;  0.0000000E+00;  2.8305248E-04;  1.0037859E+03;  1.0000000E-01;  3.1365039E+03;3; -6.6214004E+00;  0.0000000E+00; -4.0398631E-02;0; -2.4787888E-03;  4.0307277E+04;  0.0000000E+00;  1.5507302E-02;  4.0000000E+04;  0.0000000E+00;  4.0014250E+04; -3.0300538E-03;  0.0000000E+00;  5.5126491E-04;  1.4642739E+03;
  1.0093042E-01;  9.9999998E-03;  1.4001305E-01;3100; -2.1496254E-03;  0.0000000E+00;  3.3861591E-04;  1.0038302E+03;  1.0000000E-01;  3.1732437E+03;3; -6.7202449E+00;  0.0000000E+00; -4.1009646E-02;0; -2.6850228E-03;  4.0313102E+04;  0.0000000E+00;  5.5134241E-02;  4.0000000E+04;  0.0000000E+00;  4.0012906E+04; -3.0257208E-03;  0.0000000E+00;  3.4069814E-04;  1.1805953E+03;
  1.0094115E-01;  9.9999998E-03;  1.4998984E-01;3101; -2.2793182E-03;  0.0000000E+00;  3.5342391E-04;  1.0038596E+03;  1.0000000E-01;  3.1975393E+03;3; -6.8157787E+00;  0.0000000E+00; -5.0403580E-02;0; -2.9515263E-03;  4.0318941E+04;  0.0000000E+00;  1.2814669E-01;  4.0000000E+04;  0.0000000E+00;  4.0009160E+04; -3.0802712E-03;  0.0000000E+00;  1.2874477E-04;  7.4296283E+02;
  1.0096444E-01;  9.9999998E-03;  1.5997356E-01;3102; -2.3851576E-03;  0.0000000E+00;  3.3585122E-04;  1.0038653E+03;  1.0000000E-01;  3.2022798E+03;3; -6.8789716E+00;  0.0000000E+00;  3.6456587E-03;0; -3.2479698E-03;  4.0323125E+04;  0.0000000E+00;  2.4813744E-01;  4.0000000E+04;  0.0000000E+00;  4.0004473E+04; -3.2059015E-03;  0.0000000E+00; -4.2068401E-05;  4.0100375E+02;
  1.0099834E-01;  9.9999998E-03;  1.6996615E-01;3103; -2.4542599E-03;  0.0000000E+00;  2.9445000E-04;  1.0038315E+03;  1.0000000E-01;  3.1743301E+03;3; -6.8521781E+00;  0.0000000E+00;  2.5596088E-01;0; -3.5428882E-03;  4.0324074E+04;  0.0000000E+00;  4.2499125E-01;  4.0000000E+04;  0.0000000E+00;  4.0000254E+04; -3.4065195E-03;  0.0000000E+00; -1.3636862E-04;  6.7262195E+02;
  1.0103684E-01;  9.9999998E-03;  1.7996424E-01;3104; -2.4847118E-03;  0.0000000E+00;  2.2276393E-04;  1.0037568E+03;  1.0000000E-01;  3.1124058E+03;3; -6.6943359E+00;  0.0000000E+00;  8.7413949E-01;0; -3.8107925E-03;  4.0319723E+04;  0.0000000E+00;  6.6159278E-01;  4.0000000E+04;  0.0000000E+00;  3.9998008E+04; -3.6777873E-03;  0.0000000E+00; -1.3300513E-04;  1.1159104E+03;
  1.0107327E-01;  9.9999998E-03;  1.8997076E-01;3105; -2.4639056E-03;  0.0000000E+00;  1.4555061E-04;  1.0036328E+03;  1.0000000E-01;  3.0096926E+03;3; -6.3405180E+00;  0.0000000E+00;  2.0534439E+00;0; -4.0338682E-03;  4.0308914E+04;  0.0000000E+00;  9.4912779E-01;  4.0000000E+04;  0.0000000E+00;  3.9997008E+04; -4.0037278E-03;  0.0000000E+00; -3.0140258E-05;  1.4911125E+03;
  1.0109998E-01;  9.9999998E-03;  1.9999158E-01;3106; -2.3922056E-03;  0.0000000E+00;  8.5471664E-05;  1.0034443E+03;  1.0000000E-01;  2.8535488E+03;3; -5.7582822E+00;  0.0000000E+00;  4.0126252E+00;0; -4.2058360E-03;  4.0290496E+04;  0.0000000E+00;  1.2670912E+00;  4.0000000E+04;  0.0000000E+00;  3.9999707E+04; -4.3589203E-03;  0.0000000E+00;  1.5308426E-04;  1.8360231E+03;
  1.0110921E-01;  9.9999998E-03;  2.1002355E-01;3107; -2.2728997E-03;  0.0000000E+00;  6.0325787E-05;  1.0031843E+03;  1.0000000E-01;  2.6381477E+03;3; -4.9141641E+00;  0.0000000E+00;  6.9689293E+00;0; -4.3309294E-03;  4.0263977E+04;  0.0000000E+00;  1.5908717E+00;  4.0000000E+04;  0.0000000E+00;  4.0004730E+04; -4.7090398E-03;  0.0000000E+00;  3.7811036E-04;  2.2792380E+03;
  1.0109393E-01;  9.9999998E-03;  2.2005880E-01;3108; -2.1183221E-03;  0.0000000E+00;  8.4787032E-05;  1.0028508E+03;  1.0000000E-01;  2.3618098E+03;3; -3.8135381E+00;  0.0000000E+00;  1.1094356E+01;0; -4.4211638E-03;  4.0229160E+04;  0.0000000E+00;  1.9002949E+00;  4.0000000E+04;  0.0000000E+00;  4.0010102E+04; -5.0146496E-03;  0.0000000E+00;  5.9348566E-04;  2.9103604E+03;
  1.0106164E-01;  9.9999998E-03;  2.3009126E-01;3109; -1.9395867E-03;  0.0000000E+00;  1.6692816E-04;  1.0024379E+03;  1.0000000E-01;  2.0197947E+03;3; -2.4811358E+00;  0.0000000E+00;  1.6325596E+01;0; -4.4876877E-03;  4.0187633E+04;  0.0000000E+00;  2.1826005E+00;  4.0000000E+04;  0.0000000E+00;  4.0016852E+04; -5.2343663E-03;  0.0000000E+00;  7.4667856E-04;  3.6721826E+03;
  1.1154269E-01;  9.9999998E-03;  6.9949195E-02;3154; -1.3063428E-03;  0.0000000E+00; -9.6623728E-05;  1.0027067E+03;  1.0000000E-01;  2.2425044E+03;3; -2.7171025E+00;  0.0000000E+00; -5.8826972E-02;0; -2.5294912E-03;  4.0223137E+04;  0.0000000E+00; -1.6409613E-02;  4.0000000E+04;  0.0000000E+00;  4.0007266E+04; -2.9736757E-03;  0.0000000E+00;  4.4418461E-04;  6.5524738E+02;
  1.1149301E-01;  9.9999998E-03;  7.9956748E-02;3155; -1.3135278E-03;  0.0000000E+00; -1.2010231E-04;  1.0026581E+03;  1.0000000E-01;  2.2022092E+03;3; -2.7115333E+00;  0.0000000E+00; -6.4142026E-02;0; -2.3789364E-03;  4.0217910E+04;  0.0000000E+00; -2.1005884E-02;  4.0000000E+04;  0.0000000E+00;  4.0008906E+04; -2.9671260E-03;  0.0000000E+00;  5.8818946E-04;  8.4895142E+02;
  1.1140109E-01;  9.9999998E-03;  8.9978710E-02;3156; -1.3343726E-03;  0.0000000E+00; -1.2864594E-04;  1.0026400E+03;  1.0000000E-01;  2.1871975E+03;3; -2.7030602E+00;  0.0000000E+00; -7.0685111E-02;0; -2.1917629E-03;  4.0214367E+04;  0.0000000E+00; -2.4874872E-02;  4.0000000E+04;  0.0000000E+00;  4.0011371E+04; -2.8993734E-03;  0.0000000E+00;  7.0761045E-04;  1.1533169E+03;
  1.1128509E-01;  9.9999998E-03;  1.0000125E-01;3157; -1.3735676E-03;  0.0000000E+00; -1.1318106E-04;  1.0026465E+03;  1.0000000E-01;  2.1926294E+03;3; -2.6968725E+00;  0.0000000E+00; -7.6487310E-02;0; -2.0012851E-03;  4.0212680E+04;  0.0000000E+00; -2.6660522E-02;  4.0000000E+04;  0.0000000E+00;  4.0013773E+04; -2.7765592E-03;  0.0000000E+00;  7.7527406E-04;  1.4976620E+03;
  1.1111844E-01;  9.9999998E-03;  1.1002158E-01;3158; -1.4380425E-03;  0.0000000E+00; -6.6400855E-05;  1.0026897E+03;  1.0000000E-01;  2.2283813E+03;3; -2.7136950E+00;  0.0000000E+00; -8.6712398E-02;0; -1.8446075E-03;  4.0213699E+04;  0.0000000E+00; -2.4113763E-02;  4.0000000E+04;  0.0000000E+00;  4.0016363E+04; -2.6152371E-03;  0.0000000E+00;  7.7062956E-04;  1.7846393E+03;
  1.1102448E-01;  9.9999998E-03;  1.2002867E-01;3159; -1.5298359E-03;  0.0000000E+00;  1.9971305E-05;  1.0027422E+03;  1.0000000E-01;  2.2718369E+03;3; -2.7353065E+00;  0.0000000E+00; -9.2582382E-02;0; -1.7550723E-03;  4.0217086E+04;  0.0000000E+00; -1.3564643E-02;  4.0000000E+04;  0.0000000E+00;  4.0016836E+04; -2.4405820E-03;  0.0000000E+00;  6.8550976E-04;  1.9181158E+03;
  1.1098457E-01;  9.9999998E-03;  1.3001753E-01;3160; -1.6459379E-03;  0.0000000E+00;  1.1356457E-04;  1.0028050E+03;  1.0000000E-01;  2.3238850E+03;3; -2.7802103E+00;  0.0000000E+00; -8.0331609E-02;0; -1.7498622E-03;  4.0222695E+04;  0.0000000E+00;  1.0871794E-02;  4.0000000E+04;  0.0000000E+00;  4.0016578E+04; -2.2810479E-03;  0.0000000E+00;  5.3118565E-04;  1.8321515E+03;
  1.1096366E-01;  9.9999998E-03;  1.3999686E-01;3161; -1.7722321E-03;  0.0000000E+00;  1.8099825E-04;  1.0028671E+03;  1.0000000E-01;  2.3753403E+03;3; -2.8426135E+00;  0.0000000E+00; -6.8467118E-02;0; -1.8302674E-03;  4.0230484E+04;  0.0000000E+00;  5.8005743E-02;  4.0000000E+04;  0.0000000E+00;  4.0014953E+04; -2.1667744E-03;  0.0000000E+00;  3.3650699E-04;  1.5189135E+03;
  1.1095849E-01;  9.9999998E-03;  1.4997417E-01;3162; -1.8967502E-03;  0.0000000E+00;  2.1291067E-04;  1.0029266E+03;  1.0000000E-01;  2.4246228E+03;3; -2.9154260E+00;  0.0000000E+00; -5.4283656E-02;0; -1.9822463E-03;  4.0239250E+04;  0.0000000E+00;  1.3979444E-01;  4.0000000E+04;  0.0000000E+00;  4.0010258E+04; -2.1245396E-03;  0.0000000E+00;  1.4229324E-04;  1.0453094E+03;
  1.1097113E-01;  9.9999998E-03;  1.5995899E-01;3163; -2.0055927E-03;  0.0000000E+00;  2.1660276E-04;  1.0029755E+03;  1.0000000E-01;  2.4652141E+03;3; -2.9756987E+00;  0.0000000E+00;  1.7465217E-02;0; -2.1823705E-03;  4.0247402E+04;  0.0000000E+00;  2.6904035E-01;  4.0000000E+04;  0.0000000E+00;  4.0005910E+04; -2.1735949E-03;  0.0000000E+00; -8.7755870E-06;  6.0270850E+02;
  1.1099940E-01;  9.9999998E-03;  1.6995575E-01;3164; -2.0876201E-03;  0.0000000E+00;  1.9962252E-04;  1.0030016E+03;  1.0000000E-01;  2.4868433E+03;3; -2.9881372E+00;  0.0000000E+00;  2.8012130E-01;0; -2.4061464E-03;  4.0253211E+04;  0.0000000E+00;  4.5527464E-01;  4.0000000E+04;  0.0000000E+00;  4.0002105E+04; -2.3249239E-03;  0.0000000E+00; -8.1222388E-05;  6.4978583E+02;
  1.1103553E-01;  9.9999998E-03;  1.7995720E-01;3165; -2.1320980E-03;  0.0000000E+00;  1.6837564E-04;  1.0029926E+03;  1.0000000E-01;  2.4792385E+03;3; -2.9111049E+00;  0.0000000E+00;  8.9705747E-01;0; -2.6320245E-03;  4.0254492E+04;  0.0000000E+00;  7.0194888E-01;  4.0000000E+04;  0.0000000E+00;  3.9999543E+04; -2.5784685E-03;  0.0000000E+00; -5.3555894E-05;  1.0538342E+03;
  1.1107215E-01;  9.9999998E-03;  1.8996543E-01;3166; -2.1366235E-03;  0.0000000E+00;  1.3001458E-04;  1.0029362E+03;  1.0000000E-01;  2.4325237E+03;3; -2.7143695E+00;  0.0000000E+00;  2.0791955E+00;0; -2.8458769E-03;  4.0249414E+04;  0.0000000E+00;  1.0050921E+00;  4.0000000E+04;  0.0000000E+00;  3.9999262E+04; -2.9218802E-03;  0.0000000E+00;  7.6003416E-05;  1.4690094E+03;
  1.1109920E-01;  9.9999998E-03;  1.9998239E-01;3167; -2.1041704E-03;  0.0000000E+00;  9.4382201E-05;  1.0028198E+03;  1.0000000E-01;  2.3361313E+03;3; -2.3755076E+00;  0.0000000E+00;  4.0372772E+00;0; -3.0434001E-03;  4.0236605E+04;  0.0000000E+00;  1.3574014E+00;  4.0000000E+04;  0.0000000E+00;  4.0001895E+04; -3.3305243E-03;  0.0000000E+00;  2.8712422E-04;  1.9334474E+03;
  1.1111458E-01;  9.9999998E-03;  2.1000239E-01;3168; -2.0318704E-03;  0.0000000E+00;  8.9048262E-05;  1.0026265E+03;  1.0000000E-01;  2.1760371E+03;3; -1.8661509E+00;  0.0000000E+00;  7.0269079E+00;0; -3.2283303E-03;  4.0215375E+04;  0.0000000E+00;  1.7561036E+00;  4.0000000E+04;  0.0000000E+00;  4.0007277E+04; -3.7674990E-03;  0.0000000E+00;  5.3916872E-04;  2.5948506E+03;
  1.1111125E-01;  9.9999998E-03;  2.2002627E-01;3169; -1.9220032E-03;  0.0000000E+00;  1.4221700E-04;  1.0023559E+03;  1.0000000E-01;  1.9518461E+03;3; -1.1904222E+00;  0.0000000E+00;  1.1262067E+01;0; -3.4103817E-03;  4.0185070E+04;  0.0000000E+00;  2.2072864E+00;  4.0000000E+04;  0.0000000E+00;  4.0014098E+04; -4.1892971E-03;  0.0000000E+00;  7.7891548E-04;  3.5184875E+03;
  1.1108351E-01;  9.9999998E-03;  2.3005289E-01;3170; -1.7757989E-03;  0.0000000E+00;  2.6929931E-04;  1.0019887E+03;  1.0000000E-01;  1.6475583E+03;3; -3.2673410E-01;  0.0000000E+00;  1.6722216E+01;0; -3.5967382E-03;  4.0147000E+04;  0.0000000E+00;  2.7195864E+00;  4.0000000E+04;  0.0000000E+00;  4.0021176E+04; -4.5493492E-03;  0.0000000E+00;  9.5261104E-04;  4.6176113E+03;
  1.2153448E-01;  9.9999998E-03;  6.9952130E-02;3215; -1.2363857E-03;  0.0000000E+00; -1.0418386E-04;  1.0018828E+03;  1.0000000E-01;  1.5598572E+03;3; -6.9875240E-01;  0.0000000E+00; -5.1502388E-02;0; -3.3172793E-03;  4.0151387E+04;  0.0000000E+00; -2.6796173E-02;  4.0000000E+04;  0.0000000E+00;  4.0009090E+04; -3.6701476E-03;  0.0000000E+00;  3.5286823E-04;  9.7793530E+02;
  1.2155326E-01;  9.9999998E-03;  7.9954661E-02;3216; -1.2446190E-03;  0.0000000E+00; -1.2605735E-04;  1.0018188E+03;  1.0000000E-01;  1.5069203E+03;3; -7.0190728E-01;  0.0000000E+00; -5.6786548E-02;0; -3.1291130E-03;  4.0144918E+04;  0.0000000E+00; -3.4735374E-02;  4.0000000E+04;  0.0000000E+00;  4.0011031E+04; -3.6269238E-03;  0.0000000E+00;  4.9781089E-04;  1.1807123E+03;
  1.2157412E-01;  9.9999998E-03;  8.9958459E-02;3217; -1.2617836E-03;  0.0000000E+00; -1.3365204E-04;  1.0017753E+03;  1.0000000E-01;  1.4707732E+03;3; -6.9257843E-01;  0.0000000E+00; -6.1085410E-02;0; -2.8870665E-03;  4.0139098E+04;  0.0000000E+00; -4.1754305E-02;  4.0000000E+04;  0.0000000E+00;  4.0012688E+04; -3.5053818E-03;  0.0000000E+00;  6.1831524E-04;  1.4904088E+03;
  1.2159209E-01;  9.9999998E-03;  9.9959545E-02;3218; -1.2919563E-03;  0.0000000E+00; -1.2352833E-04;  1.0017570E+03;  1.0000000E-01;  1.4555637E+03;3; -6.8071061E-01;  0.0000000E+00; -6.5609194E-02;0; -2.6195785E-03;  4.0135727E+04;  0.0000000E+00; -4.5794398E-02;  4.0000000E+04;  0.0000000E+00;  4.0015816E+04; -3.3090012E-03;  0.0000000E+00;  6.8942277E-04;  1.8344591E+03;
  1.2159204E-01;  9.9999998E-03;  1.0995539E-01;3219; -1.3382761E-03;  0.0000000E+00; -9.4203824E-05;  1.0017706E+03;  1.0000000E-01;  1.4669215E+03;3; -6.7478776E-01;  0.0000000E+00; -7.1552545E-02;0; -2.3601754E-03;  4.0134254E+04;  0.0000000E+00; -4.3930266E-02;  4.0000000E+04;  0.0000000E+00;  4.0017941E+04; -3.0525655E-03;  0.0000000E+00;  6.9239014E-04;  2.1142439E+03;
  1.2151148E-01;  9.9999998E-03;  1.1995960E-01;3220; -1.4040720E-03;  0.0000000E+00; -4.9906175E-05;  1.0018121E+03;  1.0000000E-01;  1.5012909E+03;3; -6.8798107E-01;  0.0000000E+00; -8.0017813E-02;0; -2.1378053E-03;  4.0136754E+04;  0.0000000E+00; -3.2058805E-02;  4.0000000E+04;  0.0000000E+00;  4.0018887E+04; -2.7588699E-03;  0.0000000E+00;  6.2106468E-04;  2.2334543E+03;
  1.2137879E-01;  9.9999998E-03;  1.2995887E-01;3221; -1.4897024E-03;  0.0000000E+00;  5.1170496E-06;  1.0018741E+03;  1.0000000E-01;  1.5526475E+03;3; -7.2046667E-01;  0.0000000E+00; -8.8586710E-02;0; -1.9828144E-03;  4.0142809E+04;  0.0000000E+00; -4.6304725E-03;  4.0000000E+04;  0.0000000E+00;  4.0018387E+04; -2.4679787E-03;  0.0000000E+00;  4.8516443E-04;  2.1247903E+03;
  1.2123880E-01;  9.9999998E-03;  1.3994797E-01;3222; -1.5891128E-03;  0.0000000E+00;  4.8697158E-05;  1.0019538E+03;  1.0000000E-01;  1.6187196E+03;3; -7.7061367E-01;  0.0000000E+00; -8.9605942E-02;0; -1.9102310E-03;  4.0152203E+04;  0.0000000E+00;  4.6287354E-02;  4.0000000E+04;  0.0000000E+00;  4.0015250E+04; -2.2221673E-03;  0.0000000E+00;  3.1193637E-04;  1.7810360E+03;
  1.2114143E-01;  9.9999998E-03;  1.4993162E-01;3223; -1.6930854E-03;  0.0000000E+00;  7.0373615E-05;  1.0020428E+03;  1.0000000E-01;  1.6924954E+03;3; -8.2670379E-01;  0.0000000E+00; -8.1346050E-02;0; -1.9170247E-03;  4.0163293E+04;  0.0000000E+00;  1.3109936E-01;  4.0000000E+04;  0.0000000E+00;  4.0012434E+04; -2.0581447E-03;  0.0000000E+00;  1.4111993E-04;  1.2717291E+03;
  1.2109406E-01;  9.9999998E-03;  1.5992166E-01;3224; -1.7922778E-03;  0.0000000E+00;  7.3326628E-05;  1.0021284E+03;  1.0000000E-01;  1.7633081E+03;3; -8.6931926E-01;  0.0000000E+00; -1.0946527E-02;0; -1.9881392E-03;  4.0174750E+04;  0.0000000E+00;  2.6043418E-01;  4.0000000E+04;  0.0000000E+00;  4.0007523E+04; -2.0025403E-03;  0.0000000E+00;  1.4401135E-05;  7.6747681E+02;
  1.2109356E-01;  9.9999998E-03;  1.6992570E-01;3225; -1.8768491E-03;  0.0000000E+00;  6.0708244E-05;  1.0022001E+03;  1.0000000E-01;  1.8227633E+03;3; -8.8671583E-01;  0.0000000E+00;  2.4270475E-01;0; -2.1058621E-03;  4.0185012E+04;  0.0000000E+00;  4.4257599E-01;  4.0000000E+04;  0.0000000E+00;  4.0003250E+04; -2.0726826E-03;  0.0000000E+00; -3.3179571E-05;  6.5209155E+02;
  1.2111893E-01;  9.9999998E-03;  1.7993277E-01;3226; -1.9381690E-03;  0.0000000E+00;  3.8732163E-05;  1.0022468E+03;  1.0000000E-01;  1.8614783E+03;3; -8.5543430E-01;  0.0000000E+00;  8.4385151E-01;0; -2.2538041E-03;  4.0190891E+04;  0.0000000E+00;  6.8222690E-01;  4.0000000E+04;  0.0000000E+00;  4.0000469E+04; -2.2733815E-03;  0.0000000E+00;  1.9577305E-05;  9.7930237E+02;
  1.2115253E-01;  9.9999998E-03;  1.8994011E-01;3227; -1.9700464E-03;  0.0000000E+00;  1.4299222E-05;  1.0022546E+03;  1.0000000E-01;  1.8678978E+03;3; -7.5710410E-01;  0.0000000E+00;  1.9920524E+00;0; -2.4214257E-03;  4.0191000E+04;  0.0000000E+00;  9.8431998E-01;  4.0000000E+04;  0.0000000E+00;  4.0000738E+04; -2.5954235E-03;  0.0000000E+00;  1.7399777E-04;  1.4040620E+03;
  1.2117556E-01;  9.9999998E-03;  1.9994925E-01;3228; -1.9683316E-03;  0.0000000E+00; -4.0816698E-07;  1.0022067E+03;  1.0000000E-01;  1.8281952E+03;3; -5.7611191E-01;  0.0000000E+00;  3.9322534E+00;0; -2.6065391E-03;  4.0183277E+04;  0.0000000E+00;  1.3618692E+00;  4.0000000E+04;  0.0000000E+00;  4.0004578E+04; -3.0156521E-03;  0.0000000E+00;  4.0911295E-04;  1.9762382E+03;
  1.2117890E-01;  9.9999998E-03;  2.0996040E-01;3229; -1.9322777E-03;  0.0000000E+00;  1.2932520E-05;  1.0020828E+03;  1.0000000E-01;  1.7254821E+03;3; -2.9698068E-01;  0.0000000E+00;  6.9534631E+00;0; -2.8146959E-03;  4.0166746E+04;  0.0000000E+00;  1.8423167E+00;  4.0000000E+04;  0.0000000E+00;  4.0010309E+04; -3.4985330E-03;  0.0000000E+00;  6.8383716E-04;  2.8648997E+03;
  1.2116818E-01;  9.9999998E-03;  2.1997592E-01;3230; -1.8568798E-03;  0.0000000E+00;  7.8842648E-05;  1.0018616E+03;  1.0000000E-01;  1.5422773E+03;3;  1.0983732E-01;  0.0000000E+00;  1.1289472E+01;0; -3.0539818E-03;  4.0140598E+04;  0.0000000E+00;  2.4661055E+00;  4.0000000E+04;  0.0000000E+00;  4.0018480E+04; -3.9988752E-03;  0.0000000E+00;  9.4489323E-04;  4.1148818E+03;
  1.2113327E-01;  9.9999998E-03;  2.2999379E-01;3231; -1.7413408E-03;  0.0000000E+00;  2.1527549E-04;  1.0015334E+03;  1.0000000E-01;  1.2703838E+03;3;  6.8149793E-01;  0.0000000E+00;  1.6912235E+01;0; -3.3270046E-03;  4.0105402E+04;  0.0000000E+00;  3.2712426E+00;  4.0000000E+04;  0.0000000E+00;  4.0026070E+04; -4.4659651E-03;  0.0000000E+00;  1.1389604E-03;  5.6334312E+03;
  1.3142167E-01;  9.9999998E-03;  6.9943011E-02;3276; -1.3220382E-03;  0.0000000E+00; -1.0234939E-04;  1.0012048E+03;  1.0000000E-01;  9.9819397E+02;3;  2.2390966E-01;  0.0000000E+00; -4.4753704E-02;0; -4.7128382E-03;  4.0092492E+04;  0.0000000E+00; -3.1719860E-02;  4.0000000E+04;  0.0000000E+00;  4.0010449E+04; -4.9737925E-03;  0.0000000E+00;  2.6095434E-04;  1.1786140E+03;
  1.3144909E-01;  9.9999998E-03;  7.9947129E-02;3277; -1.3327445E-03;  0.0000000E+00; -1.2083037E-04;  1.0011426E+03;  1.0000000E-01;  9.4663989E+02;3;  2.1649329E-01;  0.0000000E+00; -4.8583128E-02;0; -4.4957334E-03;  4.0085863E+04;  0.0000000E+00; -4.2257968E-02;  4.0000000E+04;  0.0000000E+00;  4.0012133E+04; -4.8992829E-03;  0.0000000E+00;  4.0354955E-04;  1.3936570E+03;
  1.3148239E-01;  9.9999998E-03;  8.9952044E-02;3278; -1.3486631E-03;  0.0000000E+00; -1.2651770E-04;  1.0010984E+03;  1.0000000E-01;  9.0999896E+02;3;  2.1253392E-01;  0.0000000E+00; -5.1940963E-02;0; -4.2091617E-03;  4.0080324E+04;  0.0000000E+00; -5.2502770E-02;  4.0000000E+04;  0.0000000E+00;  4.0014703E+04; -4.7318675E-03;  0.0000000E+00;  5.2270590E-04;  1.7102520E+03;
  1.3151717E-01;  9.9999998E-03;  9.9953994E-02;3279; -1.3733190E-03;  0.0000000E+00; -1.1635658E-04;  1.0010814E+03;  1.0000000E-01;  8.9597467E+02;3;  2.0917523E-01;  0.0000000E+00; -5.4687552E-02;0; -3.8785650E-03;  4.0076363E+04;  0.0000000E+00; -6.0077932E-02;  4.0000000E+04;  0.0000000E+00;  4.0017059E+04; -4.4735959E-03;  0.0000000E+00;  5.9503096E-04;  2.0544753E+03;
  1.3154897E-01;  9.9999998E-03;  1.0994782E-01;3280; -1.4087623E-03;  0.0000000E+00; -9.2659779E-05;  1.0010903E+03;  1.0000000E-01;  9.0328308E+02;3;  2.0576228E-01;  0.0000000E+00; -5.8672689E-02;0; -3.5367887E-03;  4.0075176E+04;  0.0000000E+00; -6.1606336E-02;  4.0000000E+04;  0.0000000E+00;  4.0019246E+04; -4.1399230E-03;  0.0000000E+00;  6.0313439E-04;  2.3269751E+03;
  1.3157406E-01;  9.9999998E-03;  1.1993116E-01;3281; -1.4571843E-03;  0.0000000E+00; -6.0872997E-05;  1.0011235E+03;  1.0000000E-01;  9.3083789E+02;3;  1.9758421E-01;  0.0000000E+00; -6.3044690E-02;0; -3.2172515E-03;  4.0077293E+04;  0.0000000E+00; -5.2590616E-02;  4.0000000E+04;  0.0000000E+00;  4.0019652E+04; -3.7589238E-03;  0.0000000E+00;  5.4167240E-04;  2.4297585E+03;
  1.3158548E-01;  9.9999998E-03;  1.2990421E-01;3282; -1.5186057E-03;  0.0000000E+00; -2.7625008E-05;  1.0011785E+03;  1.0000000E-01;  9.7636743E+02;3;  1.8452282E-01;  0.0000000E+00; -6.8143405E-02;0; -2.9462492E-03;  4.0082727E+04;  0.0000000E+00; -2.7191699E-02;  4.0000000E+04;  0.0000000E+00;  4.0018871E+04; -3.3675635E-03;  0.0000000E+00;  4.2131438E-04;  2.2975430E+03;
  1.3156036E-01;  9.9999998E-03;  1.3987434E-01;3283; -1.5910815E-03;  0.0000000E+00; -6.1295327E-06;  1.0012538E+03;  1.0000000E-01;  1.0387854E+03;3;  1.6343965E-01;  0.0000000E+00; -7.3122688E-02;0; -2.7365466E-03;  4.0092062E+04;  0.0000000E+00;  2.1992084E-02;  4.0000000E+04;  0.0000000E+00;  4.0016754E+04; -3.0054459E-03;  0.0000000E+00;  2.6889928E-04;  1.9258579E+03;
  1.3146137E-01;  9.9999998E-03;  1.4986418E-01;3284; -1.6703816E-03;  0.0000000E+00; -1.1377919E-06;  1.0013506E+03;  1.0000000E-01;  1.1189807E+03;3;  1.3376702E-01;  0.0000000E+00; -6.9621734E-02;0; -2.5885697E-03;  4.0104277E+04;  0.0000000E+00;  1.0342604E-01;  4.0000000E+04;  0.0000000E+00;  4.0012391E+04; -2.7106635E-03;  0.0000000E+00;  1.2209392E-04;  1.3866682E+03;
  1.3134006E-01;  9.9999998E-03;  1.5986942E-01;3285; -1.7508115E-03;  0.0000000E+00; -9.3968792E-06;  1.0014587E+03;  1.0000000E-01;  1.2085585E+03;3;  1.0277785E-01;  0.0000000E+00; -6.3767624E-03;0; -2.5061911E-03;  4.0117902E+04;  0.0000000E+00;  2.2476752E-01;  4.0000000E+04;  0.0000000E+00;  4.0007578E+04; -2.5265145E-03;  0.0000000E+00;  2.0323241E-05;  8.3725598E+02;
  1.3127282E-01;  9.9999998E-03;  1.6988695E-01;3286; -1.8273962E-03;  0.0000000E+00; -2.7868740E-05;  1.0015665E+03;  1.0000000E-01;  1.2978398E+03;3;  8.5271038E-02;  0.0000000E+00;  2.3864536E-01;0; -2.4888504E-03;  4.0130777E+04;  0.0000000E+00;  3.9251742E-01;  4.0000000E+04;  0.0000000E+00;  4.0003246E+04; -2.4861069E-03;  0.0000000E+00; -2.7434116E-06;  6.1745435E+02;
  1.3125105E-01;  9.9999998E-03;  1.7990440E-01;3287; -1.8925811E-03;  0.0000000E+00; -5.1924209E-05;  1.0016595E+03;  1.0000000E-01;  1.3748748E+03;3;  8.8874526E-02;  0.0000000E+00;  8.2176143E-01;0; -2.5272244E-03;  4.0140410E+04;  0.0000000E+00;  6.1478716E-01;  4.0000000E+04;  0.0000000E+00;  4.0001285E+04; -2.6004831E-03;  0.0000000E+00;  7.3258721E-05;  8.7680304E+02;
  1.3125101E-01;  9.9999998E-03;  1.8991731E-01;3288; -1.9389645E-03;  0.0000000E+00; -7.4264637E-05;  1.0017191E+03;  1.0000000E-01;  1.4241572E+03;3;  1.2096017E-01;  0.0000000E+00;  1.9451649E+00;0; -2.6152278E-03;  4.0144770E+04;  0.0000000E+00;  9.0870607E-01;  4.0000000E+04;  0.0000000E+00;  4.0002078E+04; -2.8643049E-03;  0.0000000E+00;  2.4907710E-04;  1.3003813E+03;
  1.3125290E-01;  9.9999998E-03;  1.9992639E-01;3289; -1.9598755E-03;  0.0000000E+00; -8.7346423E-05;  1.0017224E+03;  1.0000000E-01;  1.4270214E+03;3;  1.8988140E-01;  0.0000000E+00;  3.8678520E+00;0; -2.7538287E-03;  4.0140871E+04;  0.0000000E+00;  1.3100214E+00;  4.0000000E+04;  0.0000000E+00;  4.0006691E+04; -3.2576201E-03;  0.0000000E+00;  5.0379150E-04;  1.9722036E+03;
  1.3124046E-01;  9.9999998E-03;  2.0993119E-01;3290; -1.9504145E-03;  0.0000000E+00; -8.0356018E-05;  1.0016479E+03;  1.0000000E-01;  1.3651959E+03;3;  3.1578377E-01;  0.0000000E+00;  6.9073901E+00;0; -2.9506141E-03;  4.0127785E+04;  0.0000000E+00;  1.8786294E+00;  4.0000000E+04;  0.0000000E+00;  4.0013043E+04; -3.7473040E-03;  0.0000000E+00;  7.9668988E-04;  3.0823486E+03;
  1.3120641E-01;  9.9999998E-03;  2.1993500E-01;3291; -1.9074220E-03;  0.0000000E+00; -3.8212191E-05;  1.0014678E+03;  1.0000000E-01;  1.2160643E+03;3;  5.4541481E-01;  0.0000000E+00;  1.1322387E+01;0; -3.2155197E-03;  4.0104074E+04;  0.0000000E+00;  2.6919394E+00;  4.0000000E+04;  0.0000000E+00;  4.0022070E+04; -4.2901929E-03;  0.0000000E+00;  1.0746731E-03;  4.6671069E+03;
  1.3114394E-01;  9.9999998E-03;  2.2993694E-01;3292; -1.8235965E-03;  0.0000000E+00;  6.1590050E-05;  1.0011689E+03;  1.0000000E-01;  9.6846643E+02;3;  9.5540446E-01;  0.0000000E+00;  1.7110250E+01;0; -3.5498226E-03;  4.0071035E+04;  0.0000000E+00;  3.8235087E+00;  4.0000000E+04;  0.0000000E+00;  4.0030703E+04; -4.8349542E-03;  0.0000000E+00;  1.2851316E-03;  6.6582207E+03;
  1.4128739E-01;  9.9999998E-03;  6.9926858E-02;3337; -1.5208976E-03;  0.0000000E+00; -9.4904215E-05;  1.0006964E+03;  1.0000000E-01;  5.7687256E+02;3;  5.7981825E-01;  0.0000000E+00; -3.8181197E-02;0; -6.4008590E-03;  4.0048086E+04;  0.0000000E+00; -2.9927576E-02;  4.0000000E+04;  0.0000000E+00;  4.0010312E+04; -6.5755420E-03;  0.0000000E+00;  1.7468326E-04;  1.2221990E+03;
  1.4132100E-01;  9.9999998E-03;  7.9932675E-02;3338; -1.5351505E-03;  0.0000000E+00; -1.0672225E-04;  1.0006454E+03;  1.0000000E-01;  5.3470093E+02;3;  5.6660473E-01;  0.0000000E+00; -4.0561929E-02;0; -6.1652102E-03;  4.0042445E+04;  0.0000000E+00; -4.1058164E-02;  4.0000000E+04;  0.0000000E+00;  4.0011984E+04; -6.4772652E-03;  0.0000000E+00;  3.1205505E-04;  1.4506179E+03;
  1.4136113E-01;  9.9999998E-03;  8.9940250E-02;3339; -1.5517190E-03;  0.0000000E+00; -1.0675892E-04;  1.0006154E+03;  1.0000000E-01;  5.0981274E+02;3;  5.5464023E-01;  0.0000000E+00; -4.2869251E-02;0; -5.8458867E-03;  4.0037812E+04;  0.0000000E+00; -5.3162780E-02;  4.0000000E+04;  0.0000000E+00;  4.0014422E+04; -6.2736007E-03;  0.0000000E+00;  4.2771388E-04;  1.7739556E+03;
  1.4140475E-01;  9.9999998E-03;  9.9944778E-02;3340; -1.5725922E-03;  0.0000000E+00; -9.2845985E-05;  1.0006102E+03;  1.0000000E-01;  5.0556595E+02;3;  5.4474592E-01;  0.0000000E+00; -4.4843432E-02;0; -5.4655718E-03;  4.0034934E+04;  0.0000000E+00; -6.4163879E-02;  4.0000000E+04;  0.0000000E+00;  4.0017250E+04; -5.9651327E-03;  0.0000000E+00;  4.9956114E-04;  2.1178044E+03;
  1.4144716E-01;  9.9999998E-03;  1.0994148E-01;3341; -1.5992286E-03;  0.0000000E+00; -6.8629124E-05;  1.0006307E+03;  1.0000000E-01;  5.2245435E+02;3;  5.3428787E-01;  0.0000000E+00; -4.6149302E-02;0; -5.0550029E-03;  4.0034844E+04;  0.0000000E+00; -7.0739992E-02;  4.0000000E+04;  0.0000000E+00;  4.0019156E+04; -5.5663274E-03;  0.0000000E+00;  5.1132473E-04;  2.3842090E+03;
  1.4148434E-01;  9.9999998E-03;  1.1992712E-01;3342; -1.6326748E-03;  0.0000000E+00; -4.0904069E-05;  1.0006790E+03;  1.0000000E-01;  5.6255200E+02;3;  5.2482611E-01;  0.0000000E+00; -4.8416633E-02;0; -4.6467525E-03;  4.0038121E+04;  0.0000000E+00; -6.8221882E-02;  4.0000000E+04;  0.0000000E+00;  4.0019609E+04; -5.1051877E-03;  0.0000000E+00;  4.5843533E-04;  2.4762932E+03;
  1.4151366E-01;  9.9999998E-03;  1.2990168E-01;3343; -1.6738066E-03;  0.0000000E+00; -1.7058195E-05;  1.0007458E+03;  1.0000000E-01;  6.1785907E+02;3;  5.1096296E-01;  0.0000000E+00; -5.0653297E-02;0; -4.2682453E-03;  4.0044918E+04;  0.0000000E+00; -5.0593838E-02;  4.0000000E+04;  0.0000000E+00;  4.0019234E+04; -4.6200263E-03;  0.0000000E+00;  3.5178111E-04;  2.3289893E+03;
  1.4153226E-01;  9.9999998E-03;  1.3986810E-01;3344; -1.7223121E-03;  0.0000000E+00; -6.7917167E-06;  1.0008309E+03;  1.0000000E-01;  6.8837561E+02;3;  4.9615234E-01;  0.0000000E+00; -5.4754641E-02;0; -3.9370880E-03;  4.0055254E+04;  0.0000000E+00; -1.0756389E-02;  4.0000000E+04;  0.0000000E+00;  4.0016469E+04; -4.1544684E-03;  0.0000000E+00;  2.1738035E-04;  1.9371766E+03;
  1.4153560E-01;  9.9999998E-03;  1.4983341E-01;3345; -1.7771050E-03;  0.0000000E+00; -1.1580917E-05;  1.0009366E+03;  1.0000000E-01;  7.7597803E+02;3;  4.7796488E-01;  0.0000000E+00; -5.1563364E-02;0; -3.6616456E-03;  4.0068371E+04;  0.0000000E+00;  5.8439914E-02;  4.0000000E+04;  0.0000000E+00;  4.0011266E+04; -3.7528533E-03;  0.0000000E+00;  9.1207643E-05;  1.3707357E+03;
  1.4151217E-01;  9.9999998E-03;  1.5981230E-01;3346; -1.8385554E-03;  0.0000000E+00; -2.8314431E-05;  1.0010534E+03;  1.0000000E-01;  8.7276544E+02;3;  4.5878223E-01;  0.0000000E+00;  1.4125697E-02;0; -3.4452723E-03;  4.0083125E+04;  0.0000000E+00;  1.6272745E-01;  4.0000000E+04;  0.0000000E+00;  4.0006980E+04; -3.4560217E-03;  0.0000000E+00;  1.0749235E-05;  7.8032678E+02;
  1.4145295E-01;  9.9999998E-03;  1.6982888E-01;3347; -1.9028445E-03;  0.0000000E+00; -5.4316068E-05;  1.0011801E+03;  1.0000000E-01;  9.7765137E+02;3;  4.4093621E-01;  0.0000000E+00;  2.5743726E-01;0; -3.2900395E-03;  4.0097488E+04;  0.0000000E+00;  3.0819988E-01;  4.0000000E+04;  0.0000000E+00;  4.0002203E+04; -3.2979355E-03;  0.0000000E+00;  7.8959338E-06;  4.9519736E+02;
  1.4137177E-01;  9.9999998E-03;  1.7987245E-01;3348; -1.9636350E-03;  0.0000000E+00; -8.5289103E-05;  1.0013024E+03;  1.0000000E-01;  1.0789818E+03;3;  4.2284024E-01;  0.0000000E+00;  8.3238196E-01;0; -3.2008491E-03;  4.0109480E+04;  0.0000000E+00;  5.0819129E-01;  4.0000000E+04;  0.0000000E+00;  4.0000238E+04; -3.3030475E-03;  0.0000000E+00;  1.0219844E-04;  7.2566510E+02;
  1.4131323E-01;  9.9999998E-03;  1.8990453E-01;3349; -2.0144766E-03;  0.0000000E+00; -1.1624457E-04;  1.0013942E+03;  1.0000000E-01;  1.1550291E+03;3;  4.0345344E-01;  0.0000000E+00;  1.9399785E+00;0; -3.1860115E-03;  4.0116133E+04;  0.0000000E+00;  7.9334098E-01;  4.0000000E+04;  0.0000000E+00;  4.0001918E+04; -3.4800512E-03;  0.0000000E+00;  2.9403978E-04;  1.1400582E+03;
  1.4128220E-01;  9.9999998E-03;  1.9991884E-01;3350; -2.0476994E-03;  0.0000000E+00; -1.3988928E-04;  1.0014316E+03;  1.0000000E-01;  1.1860405E+03;3;  3.7806532E-01;  0.0000000E+00;  3.8518755E+00;0; -3.2534706E-03;  4.0114883E+04;  0.0000000E+00;  1.2208165E+00;  4.0000000E+04;  0.0000000E+00;  4.0006961E+04; -3.8161252E-03;  0.0000000E+00;  5.6265446E-04;  1.8903456E+03;
  1.4125364E-01;  9.9999998E-03;  2.0991935E-01;3351; -2.0563721E-03;  0.0000000E+00; -1.4611156E-04;  1.0013863E+03;  1.0000000E-01;  1.1485107E+03;3;  3.7234390E-01;  0.0000000E+00;  6.9149480E+00;0; -3.4141908E-03;  4.0103656E+04;  0.0000000E+00;  1.8775982E+00;  4.0000000E+04;  0.0000000E+00;  4.0014918E+04; -4.2827679E-03;  0.0000000E+00;  8.6857704E-04;  3.1950100E+03;
  1.4120495E-01;  9.9999998E-03;  2.1991315E-01;3352; -2.0343089E-03;  0.0000000E+00; -1.2565675E-04;  1.0012332E+03;  1.0000000E-01;  1.0216995E+03;3;  4.6972641E-01;  0.0000000E+00;  1.1423851E+01;0; -3.6808769E-03;  4.0081402E+04;  0.0000000E+00;  2.8732300E+00;  4.0000000E+04;  0.0000000E+00;  4.0024684E+04; -4.8411195E-03;  0.0000000E+00;  1.1602427E-03;  5.0939019E+03;
  1.4112949E-01;  9.9999998E-03;  2.2990136E-01;3353; -1.9813359E-03;  0.0000000E+00; -7.3374882E-05;  1.0009479E+03;  1.0000000E-01;  7.8536053E+02;3;  8.0700725E-01;  0.0000000E+00;  1.7403105E+01;0; -4.0612053E-03;  4.0048504E+04;  0.0000000E+00;  4.3177996E+00;  4.0000000E+04;  0.0000000E+00;  4.0034348E+04; -5.4449476E-03;  0.0000000E+00;  1.3837422E-03;  7.5620581E+03;
  1.5116055E-01;  9.9999998E-03;  6.9924116E-02;3398; -1.7789582E-03;  0.0000000E+00; -8.3692154E-05;  1.0003569E+03;  1.0000000E-01;  2.9569534E+02;3;  6.6743857E-01;  0.0000000E+00; -2.9647002E-02;0; -8.0651287E-03;  4.0019082E+04;  0.0000000E+00; -2.4278576E-02;  4.0000000E+04;  0.0000000E+00;  4.0008906E+04; -8.1641674E-03;  0.0000000E+00;  9.9039105E-05;  1.0970498E+03;
  1.5120220E-01;  9.9999998E-03;  7.9924472E-02;3399; -1.7976109E-03;  0.0000000E+00; -8.9150730E-05;  1.0003258E+03;  1.0000000E-01;  2.6991830E+02;3;  6.5195847E-01;  0.0000000E+00; -3.1261478E-02;0; -7.8223525E-03;  4.0014973E+04;  0.0000000E+00; -3.3554133E-02;  4.0000000E+04;  0.0000000E+00;  4.0011242E+04; -8.0513554E-03;  0.0000000E+00;  2.2900298E-04;  1.3369167E+03;
  1.5124799E-01;  9.9999998E-03;  8.9926779E-02;3400; -1.8153677E-03;  0.0000000E+00; -8.2675222E-05;  1.0003176E+03;  1.0000000E-01;  2.6310367E+02;3;  6.3731992E-01;  0.0000000E+00; -3.2215226E-02;0; -7.4833767E-03;  4.0011727E+04;  0.0000000E+00; -4.5165632E-02;  4.0000000E+04;  0.0000000E+00;  4.0013547E+04; -7.8232856E-03;  0.0000000E+00;  3.3990885E-04;  1.6631840E+03;
  1.5129718E-01;  9.9999998E-03;  9.9929661E-02;3401; -1.8323739E-03;  0.0000000E+00; -6.3982530E-05;  1.0003340E+03;  1.0000000E-01;  2.7673291E+02;3;  6.2525064E-01;  0.0000000E+00; -3.2932986E-02;0; -7.0680212E-03;  4.0010859E+04;  0.0000000E+00; -5.8038961E-02;  4.0000000E+04;  0.0000000E+00;  4.0016434E+04; -7.4787582E-03;  0.0000000E+00;  4.1073700E-04;  2.0036222E+03;
  1.5134424E-01;  9.9999998E-03;  1.0992933E-01;3402; -1.8498198E-03;  0.0000000E+00; -3.8330076E-05;  1.0003772E+03;  1.0000000E-01;  3.1248499E+02;3;  6.1437869E-01;  0.0000000E+00; -3.3536192E-02;0; -6.6044484E-03;  4.0012656E+04;  0.0000000E+00; -6.9683984E-02;  4.0000000E+04;  0.0000000E+00;  4.0017844E+04; -7.0303674E-03;  0.0000000E+00;  4.2591913E-04;  2.2640649E+03;
  1.5138505E-01;  9.9999998E-03;  1.1991967E-01;3403; -1.8683249E-03;  0.0000000E+00; -1.3375174E-05;  1.0004454E+03;  1.0000000E-01;  3.6907599E+02;3;  6.0128152E-01;  0.0000000E+00; -3.3899046E-02;0; -6.1237984E-03;  4.0017805E+04;  0.0000000E+00; -7.5992867E-02;  4.0000000E+04;  0.0000000E+00;  4.0018848E+04; -6.5050116E-03;  0.0000000E+00;  3.8121294E-04;  2.3506460E+03;
  1.5141889E-01;  9.9999998E-03;  1.2989876E-01;3404; -1.8890486E-03;  0.0000000E+00;  4.3809291E-06;  1.0005372E+03;  1.0000000E-01;  4.4512320E+02;3;  5.9091598E-01;  0.0000000E+00; -3.4774657E-02;0; -5.6535322E-03;  4.0026402E+04;  0.0000000E+00; -7.1248107E-02;  4.0000000E+04;  0.0000000E+00;  4.0018531E+04; -5.9407959E-03;  0.0000000E+00;  2.8726342E-04;  2.1988521E+03;
  1.5144412E-01;  9.9999998E-03;  1.3987015E-01;3405; -1.9155260E-03;  0.0000000E+00;  8.0748823E-06;  1.0006399E+03;  1.0000000E-01;  5.3015784E+02;3;  5.7961696E-01;  0.0000000E+00; -3.5599049E-02;0; -5.2135289E-03;  4.0038324E+04;  0.0000000E+00; -4.8612230E-02;  4.0000000E+04;  0.0000000E+00;  4.0014707E+04; -5.3822123E-03;  0.0000000E+00;  1.6868334E-04;  1.8017821E+03;
  1.5146150E-01;  9.9999998E-03;  1.4983936E-01;3406; -1.9490755E-03;  0.0000000E+00; -2.7031106E-06;  1.0007595E+03;  1.0000000E-01;  6.2921680E+02;3;  5.6340307E-01;  0.0000000E+00; -2.9992539E-02;0; -4.8177484E-03;  4.0052938E+04;  0.0000000E+00; -1.4251661E-03;  4.0000000E+04;  0.0000000E+00;  4.0010453E+04; -4.8770383E-03;  0.0000000E+00;  5.9290018E-05;  1.2244698E+03;
  1.5147156E-01;  9.9999998E-03;  1.5981737E-01;3407; -1.9918829E-03;  0.0000000E+00; -2.5674459E-05;  1.0008943E+03;  1.0000000E-01;  7.4091730E+02;3;  5.4596138E-01;  0.0000000E+00;  3.9958905E-02;0; -4.4766152E-03;  4.0069227E+04;  0.0000000E+00;  7.5735681E-02;  4.0000000E+04;  0.0000000E+00;  4.0005398E+04; -4.4714166E-03;  0.0000000E+00; -5.1985380E-06;  6.0209473E+02;
  1.5146829E-01;  9.9999998E-03;  1.6982336E-01;3408; -2.0410928E-03;  0.0000000E+00; -5.8037538E-05;  1.0010357E+03;  1.0000000E-01;  8.5804980E+02;3;  5.2070779E-01;  0.0000000E+00;  2.8481367E-01;0; -4.1984320E-03;  4.0084957E+04;  0.0000000E+00;  1.9128898E-01;  4.0000000E+04;  0.0000000E+00;  4.0001609E+04; -4.2041019E-03;  0.0000000E+00;  5.6697818E-06;  2.8214899E+02;
  1.5143277E-01;  9.9999998E-03;  1.7985585E-01;3409; -2.0943237E-03;  0.0000000E+00; -9.6694166E-05;  1.0011677E+03;  1.0000000E-01;  9.6747882E+02;3;  4.7708499E-01;  0.0000000E+00;  8.5567194E-01;0; -3.9921785E-03;  4.0098355E+04;  0.0000000E+00;  3.6619377E-01;  4.0000000E+04;  0.0000000E+00;  3.9999570E+04; -4.1027204E-03;  0.0000000E+00;  1.1054173E-04;  5.5330463E+02;
  1.5136397E-01;  9.9999998E-03;  1.8989582E-01;3410; -2.1450743E-03;  0.0000000E+00; -1.3751403E-04;  1.0012764E+03;  1.0000000E-01;  1.0574515E+03;3;  3.9608160E-01;  0.0000000E+00;  1.9488552E+00;0; -3.8718025E-03;  4.0106219E+04;  0.0000000E+00;  6.4421767E-01;  4.0000000E+04;  0.0000000E+00;  4.0000668E+04; -4.1820160E-03;  0.0000000E+00;  3.1021357E-04;  9.2139990E+02;
  1.5129378E-01;  9.9999998E-03;  1.9992621E-01;3411; -2.1833286E-03;  0.0000000E+00; -1.7353892E-04;  1.0013303E+03;  1.0000000E-01;  1.1020923E+03;3;  2.7831638E-01;  0.0000000E+00;  3.8414431E+00;0; -3.8567465E-03;  4.0106039E+04;  0.0000000E+00;  1.0985895E+00;  4.0000000E+04;  0.0000000E+00;  4.0005758E+04; -4.4417484E-03;  0.0000000E+00;  5.8500195E-04;  1.6948248E+03;
  1.5122893E-01;  9.9999998E-03;  2.0993188E-01;3412; -2.2039742E-03;  0.0000000E+00; -1.9480288E-04;  1.0013015E+03;  1.0000000E-01;  1.0782905E+03;3;  1.6142309E-01;  0.0000000E+00;  6.8834023E+00;0; -3.9673117E-03;  4.0095734E+04;  0.0000000E+00;  1.8336141E+00;  4.0000000E+04;  0.0000000E+00;  4.0014309E+04; -4.8640105E-03;  0.0000000E+00;  8.9669897E-04;  3.1351875E+03;
  1.5117238E-01;  9.9999998E-03;  2.1992396E-01;3413; -2.2019048E-03;  0.0000000E+00; -1.9154565E-04;  1.0011549E+03;  1.0000000E-01;  9.5681244E+02;3;  1.4800140E-01;  0.0000000E+00;  1.1416158E+01;0; -4.2238077E-03;  4.0073598E+04;  0.0000000E+00;  2.9763539E+00;  4.0000000E+04;  0.0000000E+00;  4.0025199E+04; -5.4200464E-03;  0.0000000E+00;  1.1962389E-03;  5.2815229E+03;
  1.5111309E-01;  9.9999998E-03;  2.2990210E-01;3414; -2.1733169E-03;  0.0000000E+00; -1.6116750E-04;  1.0008734E+03;  1.0000000E-01;  7.2353510E+02;3;  4.3978080E-01;  0.0000000E+00;  1.7554918E+01;0; -4.6406006E-03;  4.0039500E+04;  0.0000000E+00;  4.6645203E+00;  4.0000000E+04;  0.0000000E+00;  4.0036562E+04; -6.0718176E-03;  0.0000000E+00;  1.4312171E-03;  8.1566260E+03;
  1.6111718E-01;  9.9999998E-03;  6.9957592E-02;3459; -2.0687245E-03;  0.0000000E+00; -7.4271717E-05;  1.0001750E+03;  1.0000000E-01;  1.4498355E+02;3;  6.7326313E-01;  0.0000000E+00; -2.3732429E-02;0; -9.4312346E-03;  4.0004578E+04;  0.0000000E+00; -2.0212498E-02;  4.0000000E+04;  0.0000000E+00;  4.0006691E+04; -9.4679454E-03;  0.0000000E+00;  3.6711022E-05;  8.1697144E+02;
  1.6116203E-01;  9.9999998E-03;  7.9956889E-02;3460; -2.0898760E-03;  0.0000000E+00; -7.5354968E-05;  1.0001650E+03;  1.0000000E-01;  1.3668748E+02;3;  6.5867174E-01;  0.0000000E+00; -2.4185527E-02;0; -9.1913389E-03;  4.0001996E+04;  0.0000000E+00; -2.5659557E-02;  4.0000000E+04;  0.0000000E+00;  4.0008797E+04; -9.3493937E-03;  0.0000000E+00;  1.5805507E-04;  1.0669688E+03;
  1.6121042E-01;  9.9999998E-03;  8.9956813E-02;3461; -2.1063844E-03;  0.0000000E+00; -6.5323351E-05;  1.0001807E+03;  1.0000000E-01;  1.4972417E+02;3;  6.4460814E-01;  0.0000000E+00; -2.4004037E-02;0; -8.8454746E-03;  4.0000730E+04;  0.0000000E+00; -3.4248184E-02;  4.0000000E+04;  0.0000000E+00;  4.0011422E+04; -9.1094906E-03;  0.0000000E+00;  2.6401633E-04;  1.3941970E+03;
  1.6125861E-01;  9.9999998E-03;  9.9955782E-02;3462; -2.1174781E-03;  0.0000000E+00; -4.4735534E-05;  1.0002219E+03;  1.0000000E-01;  1.8379727E+02;3;  6.3215125E-01;  0.0000000E+00; -2.2613771E-02;0; -8.4101679E-03;  4.0001465E+04;  0.0000000E+00; -4.6501499E-02;  4.0000000E+04;  0.0000000E+00;  4.0014023E+04; -8.7445881E-03;  0.0000000E+00;  3.3442024E-04;  1.7283113E+03;
  1.6130228E-01;  9.9999998E-03;  1.0995089E-01;3463; -2.1230185E-03;  0.0000000E+00; -2.0039279E-05;  1.0002900E+03;  1.0000000E-01;  2.4028951E+02;3;  6.1902690E-01;  0.0000000E+00; -2.0408345E-02;0; -7.9111308E-03;  4.0005359E+04;  0.0000000E+00; -6.1616048E-02;  4.0000000E+04;  0.0000000E+00;  4.0016125E+04; -8.2651973E-03;  0.0000000E+00;  3.5406661E-04;  1.9803129E+03;
  1.6133758E-01;  9.9999998E-03;  1.1993793E-01;3464; -2.1245880E-03;  0.0000000E+00;  3.8381063E-06;  1.0003798E+03;  1.0000000E-01;  3.1465778E+02;3;  6.0836446E-01;  0.0000000E+00; -1.8703761E-02;0; -7.3772562E-03;  4.0012586E+04;  0.0000000E+00; -7.7012077E-02;  4.0000000E+04;  0.0000000E+00;  4.0017195E+04; -7.6958230E-03;  0.0000000E+00;  3.1856674E-04;  2.0626467E+03;
  1.6136332E-01;  9.9999998E-03;  1.2991507E-01;3465; -2.1251906E-03;  0.0000000E+00;  1.9335721E-05;  1.0004926E+03;  1.0000000E-01;  4.0808722E+02;3;  5.9646922E-01;  0.0000000E+00; -1.6477218E-02;0; -6.8350020E-03;  4.0022879E+04;  0.0000000E+00; -8.8170439E-02;  4.0000000E+04;  0.0000000E+00;  4.0016141E+04; -7.0725237E-03;  0.0000000E+00;  2.3752163E-04;  1.9142533E+03;
  1.6138025E-01;  9.9999998E-03;  1.3988589E-01;3466; -2.1288630E-03;  0.0000000E+00;  2.0277346E-05;  1.0006211E+03;  1.0000000E-01;  5.1455334E+02;3;  5.8374429E-01;  0.0000000E+00; -1.5389377E-02;0; -6.3060690E-03;  4.0036770E+04;  0.0000000E+00; -8.8985756E-02;  4.0000000E+04;  0.0000000E+00;  4.0012379E+04; -6.4394255E-03;  0.0000000E+00;  1.3335675E-04;  1.5268210E+03;
  1.6139445E-01;  9.9999998E-03;  1.4985693E-01;3467; -2.1400794E-03;  0.0000000E+00;  6.8224131E-06;  1.0007624E+03;  1.0000000E-01;  6.3158710E+02;3;  5.6850368E-01;  0.0000000E+00; -7.5519788E-03;0; -5.8085332E-03;  4.0053188E+04;  0.0000000E+00; -7.2822340E-02;  4.0000000E+04;  0.0000000E+00;  4.0007984E+04; -5.8459081E-03;  0.0000000E+00;  3.7374914E-05;  9.5978320E+02;
  1.6140902E-01;  9.9999998E-03;  1.5983845E-01;3468; -2.1624267E-03;  0.0000000E+00; -1.9234552E-05;  1.0009105E+03;  1.0000000E-01;  7.5434906E+02;3;  5.4746705E-01;  0.0000000E+00;  6.5546289E-02;0; -5.3576450E-03;  4.0070578E+04;  0.0000000E+00; -3.2640085E-02;  4.0000000E+04;  0.0000000E+00;  4.0003531E+04; -5.3410586E-03;  0.0000000E+00; -1.6586480E-05;  3.3039401E+02;
  1.6141951E-01;  9.9999998E-03;  1.6984791E-01;3469; -2.1968046E-03;  0.0000000E+00; -5.5828274E-05;  1.0010643E+03;  1.0000000E-01;  8.8175287E+02;3;  5.0911170E-01;  0.0000000E+00;  3.1384510E-01;0; -4.9672364E-03;  4.0087664E+04;  0.0000000E+00;  4.5370832E-02;  4.0000000E+04;  0.0000000E+00;  3.9999215E+04; -4.9678879E-03;  0.0000000E+00;  6.5167853E-07;  2.1054088E+02;
  1.6141078E-01;  9.9999998E-03;  1.7988062E-01;3470; -2.2405311E-03;  0.0000000E+00; -1.0047272E-04;  1.0012046E+03;  1.0000000E-01;  9.9799646E+02;3;  4.3510979E-01;  0.0000000E+00;  8.7842000E-01;0; -4.6532336E-03;  4.0101973E+04;  0.0000000E+00;  1.9214809E-01;  4.0000000E+04;  0.0000000E+00;  3.9996848E+04; -4.7604307E-03;  0.0000000E+00;  1.0719727E-04;  5.3369550E+02;
  1.6137257E-01;  9.9999998E-03;  1.8991601E-01;3471; -2.2884065E-03;  0.0000000E+00; -1.4880598E-04;  1.0013157E+03;  1.0000000E-01;  1.0900432E+03;3;  3.0036733E-01;  0.0000000E+00;  1.9459590E+00;0; -4.4362196E-03;  4.0110422E+04;  0.0000000E+00;  4.6352240E-01;  4.0000000E+04;  0.0000000E+00;  3.9998676E+04; -4.7405767E-03;  0.0000000E+00;  3.0435721E-04;  7.3136908E+02;
  1.6127244E-01;  9.9999998E-03;  1.9994678E-01;3472; -2.3328392E-03;  0.0000000E+00; -1.9426225E-04;  1.0013746E+03;  1.0000000E-01;  1.1388320E+03;3;  8.9865327E-02;  0.0000000E+00;  3.7802207E+00;0; -4.3405602E-03;  4.0110672E+04;  0.0000000E+00;  9.4238716E-01;  4.0000000E+04;  0.0000000E+00;  4.0003402E+04; -4.9150363E-03;  0.0000000E+00;  5.7447620E-04;  1.3957155E+03;
  1.6117193E-01;  9.9999998E-03;  2.0996755E-01;3473; -2.3664907E-03;  0.0000000E+00; -2.2721334E-04;  1.0013484E+03;  1.0000000E-01;  1.1172030E+03;3; -1.5552460E-01;  0.0000000E+00;  6.7269897E+00;0; -4.3984493E-03;  4.0100684E+04;  0.0000000E+00;  1.7362024E+00;  4.0000000E+04;  0.0000000E+00;  4.0012195E+04; -5.2806451E-03;  0.0000000E+00;  8.8219601E-04;  2.8690815E+03;
  1.6111664E-01;  9.9999998E-03;  2.1996613E-01;3474; -2.3854575E-03;  0.0000000E+00; -2.3768182E-04;  1.0012014E+03;  1.0000000E-01;  9.9532990E+02;3; -2.9817903E-01;  0.0000000E+00;  1.1134153E+01;0; -4.6406020E-03;  4.0078586E+04;  0.0000000E+00;  2.9700418E+00;  4.0000000E+04;  0.0000000E+00;  4.0023652E+04; -5.8209845E-03;  0.0000000E+00;  1.1803824E-03;  5.1427979E+03;
  1.6109230E-01;  9.9999998E-03;  2.2994305E-01;3475; -2.3862622E-03;  0.0000000E+00; -2.1759304E-04;  1.0009145E+03;  1.0000000E-01;  7.5760822E+02;3; -7.7146195E-02;  0.0000000E+00;  1.7199005E+01;0; -5.0904667E-03;  4.0043461E+04;  0.0000000E+00;  4.7836099E+00;  4.0000000E+04;  0.0000000E+00;  4.0035578E+04; -6.5115197E-03;  0.0000000E+00;  1.4210528E-03;  8.2563096E+03;
  1.7108110E-01;  9.9999998E-03;  7.0020296E-02;3520; -2.3538833E-03;  0.0000000E+00; -6.7881818E-05;  1.0001346E+03;  1.0000000E-01;  1.1150302E+02;3;  6.8573558E-01;  0.0000000E+00; -1.5450694E-02;0; -1.0267652E-02;  4.0002777E+04;  0.0000000E+00; -2.2336029E-02;  4.0000000E+04;  0.0000000E+00;  4.0003270E+04; -1.0256759E-02;  0.0000000E+00; -1.0892570E-05;  4.0598120E+02;
  1.7112531E-01;  9.9999998E-03;  8.0022864E-02;3521; -2.3783220E-03;  0.0000000E+00; -6.7846093E-05;  1.0001385E+03;  1.0000000E-01;  1.1476218E+02;3;  6.6857350E-01;  0.0000000E+00; -1.5030897E-02;0; -1.0040830E-02;  4.0001137E+04;  0.0000000E+00; -2.3201484E-02;  4.0000000E+04;  0.0000000E+00;  4.0005301E+04; -1.0142367E-02;  0.0000000E+00;  1.0153712E-04;  6.6200909E+02;
  1.7117703E-01;  9.9999998E-03;  9.0023383E-02;3522; -2.3939677E-03;  0.0000000E+00; -5.6782887E-05;  1.0001644E+03;  1.0000000E-01;  1.3619368E+02;3;  6.5106636E-01;  0.0000000E+00; -1.3862529E-02;0; -9.7015807E-03;  4.0001160E+04;  0.0000000E+00; -2.6960671E-02;  4.0000000E+04;  0.0000000E+00;  4.0007812E+04; -9.9050160E-03;  0.0000000E+00;  2.0343497E-04;  9.8674939E+02;
  1.7123288E-01;  9.9999998E-03;  1.0002138E-01;3523; -2.3989202E-03;  0.0000000E+00; -3.6268753E-05;  1.0002236E+03;  1.0000000E-01;  1.8527872E+02;3;  6.3400978E-01;  0.0000000E+00; -1.0194735E-02;0; -9.2636598E-03;  4.0003543E+04;  0.0000000E+00; -3.5955209E-02;  4.0000000E+04;  0.0000000E+00;  4.0010727E+04; -9.5388880E-03;  0.0000000E+00;  2.7522829E-04;  1.3128115E+03;
  1.7128751E-01;  9.9999998E-03;  1.1001533E-01;3524; -2.3926999E-03;  0.0000000E+00; -1.1025227E-05;  1.0003130E+03;  1.0000000E-01;  2.5935068E+02;3;  6.2147927E-01;  0.0000000E+00; -6.4692292E-03;0; -8.7498836E-03;  4.0008770E+04;  0.0000000E+00; -5.1670991E-02;  4.0000000E+04;  0.0000000E+00;  4.0012531E+04; -9.0515623E-03;  0.0000000E+00;  3.0167904E-04;  1.5577426E+03;
  1.7133306E-01;  9.9999998E-03;  1.2000208E-01;3525; -2.3776474E-03;  0.0000000E+00;  1.2971155E-05;  1.0004215E+03;  1.0000000E-01;  3.4922470E+02;3;  6.1041504E-01;  0.0000000E+00; -2.1707274E-03;0; -8.1862435E-03;  4.0017441E+04;  0.0000000E+00; -7.4033841E-02;  4.0000000E+04;  0.0000000E+00;  4.0013109E+04; -8.4638679E-03;  0.0000000E+00;  2.7762479E-04;  1.6414084E+03;
  1.7136231E-01;  9.9999998E-03;  1.2998019E-01;3526; -2.3574168E-03;  0.0000000E+00;  2.8012966E-05;  1.0005536E+03;  1.0000000E-01;  4.5865369E+02;3;  5.9689569E-01;  0.0000000E+00;  1.0406775E-03;0; -7.5975298E-03;  4.0029602E+04;  0.0000000E+00; -1.0088926E-01;  4.0000000E+04;  0.0000000E+00;  4.0012965E+04; -7.8082350E-03;  0.0000000E+00;  2.1070529E-04;  1.5079425E+03;
  1.7137751E-01;  9.9999998E-03;  1.3995171E-01;3527; -2.3379191E-03;  0.0000000E+00;  2.8637845E-05;  1.0006982E+03;  1.0000000E-01;  5.7845276E+02;3;  5.8321130E-01;  0.0000000E+00;  3.9283466E-03;0; -7.0063858E-03;  4.0044512E+04;  0.0000000E+00; -1.2781328E-01;  4.0000000E+04;  0.0000000E+00;  4.0009617E+04; -7.1268063E-03;  0.0000000E+00;  1.2042031E-04;  1.1500321E+03;
  1.7138530E-01;  9.9999998E-03;  1.4992124E-01;3528; -2.3261602E-03;  0.0000000E+00;  1.4416133E-05;  1.0008580E+03;  1.0000000E-01;  7.1089349E+02;3;  5.6866562E-01;  0.0000000E+00;  1.3499836E-02;0; -6.4331559E-03;  4.0062090E+04;  0.0000000E+00; -1.4838222E-01;  4.0000000E+04;  0.0000000E+00;  4.0005195E+04; -6.4683785E-03;  0.0000000E+00;  3.5222794E-05;  6.3021301E+02;
  1.7139168E-01;  9.9999998E-03;  1.5989846E-01;3529; -2.3275947E-03;  0.0000000E+00; -1.2867403E-05;  1.0010206E+03;  1.0000000E-01;  8.4550696E+02;3;  5.4475123E-01;  0.0000000E+00;  8.6767808E-02;0; -5.8963913E-03;  4.0080414E+04;  0.0000000E+00; -1.5260385E-01;  4.0000000E+04;  0.0000000E+00;  4.0001078E+04; -5.8831475E-03;  0.0000000E+00; -1.3243721E-05;  2.1585162E+02;
  1.7139737E-01;  9.9999998E-03;  1.6989636E-01;3530; -2.3452733E-03;  0.0000000E+00; -5.1091240E-05;  1.0011794E+03;  1.0000000E-01;  9.7705878E+02;3;  4.9735373E-01;  0.0000000E+00;  3.2978347E-01;0; -5.4144966E-03;  4.0098266E+04;  0.0000000E+00; -1.1878870E-01;  4.0000000E+04;  0.0000000E+00;  3.9996422E+04; -5.4172697E-03;  0.0000000E+00;  2.7732221E-06;  5.6187366E+02;
  1.7138377E-01;  9.9999998E-03;  1.7991996E-01;3531; -2.3790717E-03;  0.0000000E+00; -9.8242024E-05;  1.0013242E+03;  1.0000000E-01;  1.0970554E+03;3;  3.9527813E-01;  0.0000000E+00;  8.7650579E-01;0; -5.0084330E-03;  4.0112871E+04;  0.0000000E+00; -3.7818269E-03;  4.0000000E+04;  0.0000000E+00;  3.9994531E+04; -5.1095490E-03;  0.0000000E+00;  1.0111591E-04;  8.1358429E+02;
  1.7132178E-01;  9.9999998E-03;  1.8994594E-01;3532; -2.4248373E-03;  0.0000000E+00; -1.5055152E-04;  1.0014346E+03;  1.0000000E-01;  1.1886084E+03;3;  1.9739303E-01;  0.0000000E+00;  1.8969220E+00;0; -4.7054747E-03;  4.0121883E+04;  0.0000000E+00;  2.5963846E-01;  4.0000000E+04;  0.0000000E+00;  3.9995680E+04; -4.9898163E-03;  0.0000000E+00;  2.8434151E-04;  8.0114673E+02;
  1.7121398E-01;  9.9999998E-03;  1.9997941E-01;3533; -2.4755667E-03;  0.0000000E+00; -2.0099251E-04;  1.0014904E+03;  1.0000000E-01;  1.2348292E+03;3; -1.1430299E-01;  0.0000000E+00;  3.6306326E+00;0; -4.5389519E-03;  4.0122418E+04;  0.0000000E+00;  7.5771505E-01;  4.0000000E+04;  0.0000000E+00;  3.9999492E+04; -5.0766096E-03;  0.0000000E+00;  5.3765764E-04;  1.1124502E+03;
  1.7109832E-01;  9.9999998E-03;  2.1001711E-01;3534; -2.5258013E-03;  0.0000000E+00; -2.3925703E-04;  1.0014567E+03;  1.0000000E-01;  1.2068794E+03;3; -5.0256169E-01;  0.0000000E+00;  6.3798823E+00;0; -4.5481836E-03;  4.0113254E+04;  0.0000000E+00;  1.5888315E+00;  4.0000000E+04;  0.0000000E+00;  4.0007281E+04; -5.3777336E-03;  0.0000000E+00;  8.2954991E-04;  2.4552961E+03;
  1.7104228E-01;  9.9999998E-03;  2.2003244E-01;3535; -2.5700945E-03;  0.0000000E+00; -2.5258985E-04;  1.0013085E+03;  1.0000000E-01;  1.0840187E+03;3; -8.2318103E-01;  0.0000000E+00;  1.0458016E+01;0; -4.7724256E-03;  4.0091742E+04;  0.0000000E+00;  2.8551254E+00;  4.0000000E+04;  0.0000000E+00;  4.0017539E+04; -5.8898223E-03;  0.0000000E+00;  1.1173964E-03;  4.6867256E+03;
  1.7104848E-01;  9.9999998E-03;  2.3002161E-01;3536; -2.6027453E-03;  0.0000000E+00; -2.2894613E-04;  1.0010045E+03;  1.0000000E-01;  8.3217401E+02;3; -7.6773930E-01;  0.0000000E+00;  1.6040146E+01;0; -5.2438350E-03;  4.0056371E+04;  0.0000000E+00;  4.6587481E+00;  4.0000000E+04;  0.0000000E+00;  4.0028891E+04; -6.6052875E-03;  0.0000000E+00;  1.3614525E-03;  7.7762173E+03;
  1.8112490E-01;  9.9999998E-03;  7.0067160E-02;3581; -2.6154553E-03;  0.0000000E+00; -6.3415580E-05;  1.0002034E+03;  1.0000000E-01;  1.6848906E+02;3;  6.8483686E-01;  0.0000000E+00; -3.1832180E-03;0; -1.0450501E-02;  4.0011039E+04;  0.0000000E+00; -2.9592806E-02;  4.0000000E+04;  0.0000000E+00;  3.9999055E+04; -1.0405184E-02;  0.0000000E+00; -4.5317640E-05;  1.1500105E+02;
  1.8112575E-01;  9.9999998E-03;  8.0072887E-02;3582; -2.6425091E-03;  0.0000000E+00; -6.5106578E-05;  1.0001976E+03;  1.0000000E-01;  1.6374846E+02;3;  6.6641122E-01;  0.0000000E+00; -2.0795015E-03;0; -1.0247151E-02;  4.0009301E+04;  0.0000000E+00; -2.6147395E-02;  4.0000000E+04;  0.0000000E+00;  4.0001012E+04; -1.0305896E-02;  0.0000000E+00;  5.8745347E-05;  1.5125548E+02;
  1.8114531E-01;  9.9999998E-03;  9.0074763E-02;3583; -2.6572114E-03;  0.0000000E+00; -5.6537127E-05;  1.0002291E+03;  1.0000000E-01;  1.8982179E+02;3;  6.4972013E-01;  0.0000000E+00; -8.2706905E-04;0; -9.9274684E-03;  4.0009379E+04;  0.0000000E+00; -2.4251455E-02;  4.0000000E+04;  0.0000000E+00;  4.0003766E+04; -1.0085977E-02;  0.0000000E+00;  1.5850831E-04;  4.6263461E+02;
  1.8118253E-01;  9.9999998E-03;  1.0007347E-01;3584; -2.6568128E-03;  0.0000000E+00; -3.7998372E-05;  1.0002937E+03;  1.0000000E-01;  2.4335114E+02;3;  6.3493657E-01;  0.0000000E+00;  2.0999846E-03;0; -9.5025357E-03;  4.0011953E+04;  0.0000000E+00; -2.7880229E-02;  4.0000000E+04;  0.0000000E+00;  4.0006047E+04; -9.7373137E-03;  0.0000000E+00;  2.3477766E-04;  7.7577258E+02;
  1.8122831E-01;  9.9999998E-03;  1.1006832E-01;3585; -2.6400243E-03;  0.0000000E+00; -1.2758188E-05;  1.0003864E+03;  1.0000000E-01;  3.2008972E+02;3;  6.2177253E-01;  0.0000000E+00;  4.1538365E-03;0; -8.9924466E-03;  4.0017727E+04;  0.0000000E+00; -4.0922087E-02;  4.0000000E+04;  0.0000000E+00;  4.0008164E+04; -9.2642754E-03;  0.0000000E+00;  2.7182925E-04;  1.0138746E+03;
  1.8127252E-01;  9.9999998E-03;  1.2005769E-01;3586; -2.6088920E-03;  0.0000000E+00;  1.3102783E-05;  1.0005055E+03;  1.0000000E-01;  4.1875360E+02;3;  6.1009598E-01;  0.0000000E+00;  8.8883210E-03;0; -8.4207999E-03;  4.0027141E+04;  0.0000000E+00; -6.6378489E-02;  4.0000000E+04;  0.0000000E+00;  4.0008977E+04; -8.6836778E-03;  0.0000000E+00;  2.6287776E-04;  1.1056116E+03;
  1.8130869E-01;  9.9999998E-03;  1.3003972E-01;3587; -2.5689020E-03;  0.0000000E+00;  3.0113040E-05;  1.0006434E+03;  1.0000000E-01;  5.3302197E+02;3;  5.9912866E-01;  0.0000000E+00;  1.2879679E-02;0; -7.8113410E-03;  4.0039598E+04;  0.0000000E+00; -1.0544955E-01;  4.0000000E+04;  0.0000000E+00;  4.0008621E+04; -8.0239084E-03;  0.0000000E+00;  2.1256739E-04;  1.0019708E+03;
  1.8133461E-01;  9.9999998E-03;  1.4001414E-01;3588; -2.5272986E-03;  0.0000000E+00;  3.3102970E-05;  1.0007966E+03;  1.0000000E-01;  6.5993195E+02;3;  5.8574998E-01;  0.0000000E+00;  1.5322127E-02;0; -7.1867094E-03;  4.0054914E+04;  0.0000000E+00; -1.5651287E-01;  4.0000000E+04;  0.0000000E+00;  4.0005723E+04; -7.3234206E-03;  0.0000000E+00;  1.3671114E-04;  7.0339307E+02;
  1.8134773E-01;  9.9999998E-03;  1.4998432E-01;3589; -2.4925754E-03;  0.0000000E+00;  2.1544985E-05;  1.0009615E+03;  1.0000000E-01;  7.9661945E+02;3;  5.7254720E-01;  0.0000000E+00;  2.5260961E-02;0; -6.5680216E-03;  4.0072574E+04;  0.0000000E+00; -2.1423228E-01;  4.0000000E+04;  0.0000000E+00;  4.0001574E+04; -6.6283694E-03;  0.0000000E+00;  6.0347993E-05;  3.5040244E+02;
  1.8134862E-01;  9.9999998E-03;  1.5995777E-01;3590; -2.4728957E-03;  0.0000000E+00; -3.2086443E-06;  1.0011292E+03;  1.0000000E-01;  9.3557849E+02;3;  5.4698235E-01;  0.0000000E+00;  9.6153431E-02;0; -5.9753829E-03;  4.0091125E+04;  0.0000000E+00; -2.6547068E-01;  4.0000000E+04;  0.0000000E+00;  3.9997707E+04; -5.9879869E-03;  0.0000000E+00;  1.2604254E-05;  5.4329871E+02;
  1.8133774E-01;  9.9999998E-03;  1.6994490E-01;3591; -2.4734698E-03;  0.0000000E+00; -3.9219805E-05;  1.0012903E+03;  1.0000000E-01;  1.0690068E+03;3;  4.8822212E-01;  0.0000000E+00;  3.2615867E-01;0; -5.4297470E-03;  4.0109062E+04;  0.0000000E+00; -2.7932259E-01;  4.0000000E+04;  0.0000000E+00;  3.9993836E+04; -5.4496704E-03;  0.0000000E+00;  1.9923496E-05;  9.8176575E+02;
  1.8130143E-01;  9.9999998E-03;  1.7995140E-01;3592; -2.4963033E-03;  0.0000000E+00; -8.4296466E-05;  1.0014334E+03;  1.0000000E-01;  1.1875220E+03;3;  3.5813701E-01;  0.0000000E+00;  8.4031057E-01;0; -4.9560629E-03;  4.0123527E+04;  0.0000000E+00; -1.9929485E-01;  4.0000000E+04;  0.0000000E+00;  3.9991465E+04; -5.0564101E-03;  0.0000000E+00;  1.0034718E-04;  1.2276195E+03;
  1.8122484E-01;  9.9999998E-03;  1.8997733E-01;3593; -2.5396084E-03;  0.0000000E+00; -1.3482115E-04;  1.0015382E+03;  1.0000000E-01;  1.2743344E+03;3;  1.0522174E-01;  0.0000000E+00;  1.7909831E+00;0; -4.5860792E-03;  4.0132629E+04;  0.0000000E+00;  5.2956715E-02;  4.0000000E+04;  0.0000000E+00;  3.9991699E+04; -4.8448280E-03;  0.0000000E+00;  2.5874903E-04;  1.1607833E+03;
  1.8112527E-01;  9.9999998E-03;  2.0001727E-01;3594; -2.5994244E-03;  0.0000000E+00; -1.8497769E-04;  1.0015836E+03;  1.0000000E-01;  1.3119629E+03;3; -3.1032309E-01;  0.0000000E+00;  3.3793468E+00;0; -4.3593752E-03;  4.0133945E+04;  0.0000000E+00;  5.6385744E-01;  4.0000000E+04;  0.0000000E+00;  3.9995309E+04; -4.8429505E-03;  0.0000000E+00;  4.8357534E-04;  1.1085082E+03;
  1.8101341E-01;  9.9999998E-03;  2.1006939E-01;3595; -2.6679311E-03;  0.0000000E+00; -2.2384984E-04;  1.0015465E+03;  1.0000000E-01;  1.2812477E+03;3; -8.5912216E-01;  0.0000000E+00;  5.8410912E+00;0; -4.3232949E-03;  4.0125848E+04;  0.0000000E+00;  1.4160212E+00;  4.0000000E+04;  0.0000000E+00;  4.0001117E+04; -5.0712894E-03;  0.0000000E+00;  7.4799452E-04;  2.0908298E+03;
  1.8094705E-01;  9.9999998E-03;  2.2011214E-01;3596; -2.7379261E-03;  0.0000000E+00; -2.3690147E-04;  1.0013908E+03;  1.0000000E-01;  1.1522637E+03;3; -1.4109570E+00;  0.0000000E+00;  9.3548641E+00;0; -4.5251222E-03;  4.0106617E+04;  0.0000000E+00;  2.6760454E+00;  4.0000000E+04;  0.0000000E+00;  4.0008887E+04; -5.5414084E-03;  0.0000000E+00;  1.0162862E-03;  4.0972197E+03;
  1.8096419E-01;  9.9999998E-03;  2.3012571E-01;3597; -2.8001138E-03;  0.0000000E+00; -2.1053542E-04;  1.0010760E+03;  1.0000000E-01;  8.9153033E+02;3; -1.6694727E+00;  0.0000000E+00;  1.3960487E+01;0; -5.0038216E-03;  4.0073422E+04;  0.0000000E+00;  4.3749423E+00;  4.0000000E+04;  0.0000000E+00;  4.0017832E+04; -6.2614749E-03;  0.0000000E+00;  1.2576535E-03;  6.8924141E+03;
  1.9122501E-01;  9.9999998E-03;  7.0085205E-02;3642; -2.8465569E-03;  0.0000000E+00; -5.1113791E-05;  1.0003497E+03;  1.0000000E-01;  2.8976959E+02;3;  6.7493945E-01;  0.0000000E+00;  1.6686473E-02;0; -9.9500977E-03;  4.0026980E+04;  0.0000000E+00; -3.4424394E-02;  4.0000000E+04;  0.0000000E+00;  3.9994707E+04; -9.8814601E-03;  0.0000000E+00; -6.8637826E-05;  6.6139331E+02;
  1.9119859E-01;  9.9999998E-03;  8.0092385E-02;3643; -2.8773427E-03;  0.0000000E+00; -5.7121302E-05;  1.0003314E+03;  1.0000000E-01;  2.7456015E+02;3;  6.5947324E-01;  0.0000000E+00;  1.8091854E-02;0; -9.7813522E-03;  4.0023855E+04;  0.0000000E+00; -2.7647257E-02;  4.0000000E+04;  0.0000000E+00;  3.9996531E+04; -9.8093487E-03;  0.0000000E+00;  2.7996042E-05;  4.2661359E+02;
  1.9117820E-01;  9.9999998E-03;  9.0096667E-02;3644; -2.8917152E-03;  0.0000000E+00; -5.5330918E-05;  1.0003458E+03;  1.0000000E-01;  2.8651041E+02;3;  6.4413226E-01;  0.0000000E+00;  1.8592091E-02;0; -9.4966209E-03;  4.0022676E+04;  0.0000000E+00; -2.0230165E-02;  4.0000000E+04;  0.0000000E+00;  3.9998891E+04; -9.6244439E-03;  0.0000000E+00;  1.2782332E-04;  1.3370204E+02;
  1.9117098E-01;  9.9999998E-03;  1.0009844E-01;3645; -2.8863307E-03;  0.0000000E+00; -4.4201308E-05;  1.0003944E+03;  1.0000000E-01;  3.2680557E+02;3;  6.3081914E-01;  0.0000000E+00;  1.9656250E-02;0; -9.1034435E-03;  4.0024281E+04;  0.0000000E+00; -1.7034372E-02;  4.0000000E+04;  0.0000000E+00;  4.0001090E+04; -9.3154293E-03;  0.0000000E+00;  2.1198591E-04;  1.6670734E+02;
  1.9118026E-01;  9.9999998E-03;  1.1009713E-01;3646; -2.8599012E-03;  0.0000000E+00; -2.4689172E-05;  1.0004711E+03;  1.0000000E-01;  3.9030994E+02;3;  6.1866748E-01;  0.0000000E+00;  2.1012668E-02;0; -8.6183352E-03;  4.0028832E+04;  0.0000000E+00; -2.4006562E-02;  4.0000000E+04;  0.0000000E+00;  4.0003227E+04; -8.8821752E-03;  0.0000000E+00;  2.6383979E-04;  3.9597415E+02;
  1.9120266E-01;  9.9999998E-03;  1.2009127E-01;3647; -2.8139828E-03;  0.0000000E+00; -1.0508820E-06;  1.0005797E+03;  1.0000000E-01;  4.8028271E+02;3;  6.0757595E-01;  0.0000000E+00;  2.3524351E-02;0; -8.0623953E-03;  4.0037230E+04;  0.0000000E+00; -4.7320154E-02;  4.0000000E+04;  0.0000000E+00;  4.0004266E+04; -8.3365673E-03;  0.0000000E+00;  2.7417249E-04;  4.9967169E+02;
  1.9122848E-01;  9.9999998E-03;  1.3007927E-01;3648; -2.7535011E-03;  0.0000000E+00;  2.0708016E-05;  1.0007112E+03;  1.0000000E-01;  5.8921790E+02;3;  5.9995693E-01;  0.0000000E+00;  2.6391415E-02;0; -7.4585797E-03;  4.0048434E+04;  0.0000000E+00; -9.2050135E-02;  4.0000000E+04;  0.0000000E+00;  4.0004066E+04; -7.7022305E-03;  0.0000000E+00;  2.4365085E-04;  4.4052463E+02;
  1.9124880E-01;  9.9999998E-03;  1.4006005E-01;3649; -2.6884859E-03;  0.0000000E+00;  3.1136213E-05;  1.0008577E+03;  1.0000000E-01;  7.1059717E+02;3;  5.8945316E-01;  0.0000000E+00;  2.8522305E-02;0; -6.8295128E-03;  4.0062938E+04;  0.0000000E+00; -1.6037321E-01;  4.0000000E+04;  0.0000000E+00;  4.0001797E+04; -7.0130895E-03;  0.0000000E+00;  1.8357689E-04;  2.7656393E+02;
  1.9125746E-01;  9.9999998E-03;  1.5003493E-01;3650; -2.6302349E-03;  0.0000000E+00;  2.7095084E-05;  1.0010192E+03;  1.0000000E-01;  8.4442053E+02;3;  5.7756925E-01;  0.0000000E+00;  3.7168335E-02;0; -6.1964244E-03;  4.0079801E+04;  0.0000000E+00; -2.4936658E-01;  4.0000000E+04;  0.0000000E+00;  3.9998562E+04; -6.3114013E-03;  0.0000000E+00;  1.1497709E-04;  4.4105234E+02;
  1.9125223E-01;  9.9999998E-03;  1.6000877E-01;3651; -2.5885608E-03;  0.0000000E+00;  9.5530495E-06;  1.0011801E+03;  1.0000000E-01;  9.7765137E+02;3;  5.5106723E-01;  0.0000000E+00;  1.0098621E-01;0; -5.5797342E-03;  4.0097133E+04;  0.0000000E+00; -3.4386799E-01;  4.0000000E+04;  0.0000000E+00;  3.9994926E+04; -5.6438767E-03;  0.0000000E+00;  6.4142645E-05;  9.0822241E+02;
  1.9122951E-01;  9.9999998E-03;  1.6998877E-01;3652; -2.5715302E-03;  0.0000000E+00; -1.9990057E-05;  1.0013322E+03;  1.0000000E-01;  1.1036725E+03;3;  4.8828682E-01;  0.0000000E+00;  3.0949134E-01;0; -5.0011496E-03;  4.0113840E+04;  0.0000000E+00; -4.0437847E-01;  4.0000000E+04;  0.0000000E+00;  3.9990848E+04; -5.0575864E-03;  0.0000000E+00;  5.6436827E-05;  1.3642747E+03;
  1.9118440E-01;  9.9999998E-03;  1.7998432E-01;3653; -2.5834413E-03;  0.0000000E+00; -5.8659592E-05;  1.0014670E+03;  1.0000000E-01;  1.2153730E+03;3;  3.3673242E-01;  0.0000000E+00;  7.7577460E-01;0; -4.4863750E-03;  4.0128109E+04;  0.0000000E+00; -3.6160672E-01;  4.0000000E+04;  0.0000000E+00;  3.9988695E+04; -4.5971647E-03;  0.0000000E+00;  1.1078986E-04;  1.6286873E+03;
  1.9111063E-01;  9.9999998E-03;  1.9000600E-01;3654; -2.6245585E-03;  0.0000000E+00; -1.0319864E-04;  1.0015646E+03;  1.0000000E-01;  1.2962596E+03;3;  3.3738773E-02;  0.0000000E+00;  1.6348921E+00;0; -4.0688748E-03;  4.0137246E+04;  0.0000000E+00; -1.2604867E-01;  4.0000000E+04;  0.0000000E+00;  3.9988617E+04; -4.3037473E-03;  0.0000000E+00;  2.3487268E-04;  1.5916102E+03;
  1.9101968E-01;  9.9999998E-03;  2.0005140E-01;3655; -2.6915553E-03;  0.0000000E+00; -1.4829186E-04;  1.0016053E+03;  1.0000000E-01;  1.3300365E+03;3; -4.7011483E-01;  0.0000000E+00;  3.0459366E+00;0; -3.7922154E-03;  4.0139594E+04;  0.0000000E+00;  3.8964576E-01;  4.0000000E+04;  0.0000000E+00;  3.9990590E+04; -4.2136973E-03;  0.0000000E+00;  4.2148182E-04;  1.4428777E+03;
  1.9092502E-01;  9.9999998E-03;  2.1011050E-01;3656; -2.7780796E-03;  0.0000000E+00; -1.8354508E-04;  1.0015654E+03;  1.0000000E-01;  1.2969509E+03;3; -1.1725308E+00;  0.0000000E+00;  5.1664152E+00;0; -3.7102406E-03;  4.0133551E+04;  0.0000000E+00;  1.2529640E+00;  4.0000000E+04;  0.0000000E+00;  3.9994445E+04; -4.3594125E-03;  0.0000000E+00;  6.4917176E-04;  2.0424658E+03;
  1.9084366E-01;  9.9999998E-03;  2.2018148E-01;3657; -2.8724808E-03;  0.0000000E+00; -1.9934449E-04;  1.0014032E+03;  1.0000000E-01;  1.1625350E+03;3; -1.9952468E+00;  0.0000000E+00;  7.9844089E+00;0; -3.8830291E-03;  4.0117809E+04;  0.0000000E+00;  2.5001411E+00;  4.0000000E+04;  0.0000000E+00;  3.9998570E+04; -4.7708303E-03;  0.0000000E+00;  8.8780111E-04;  3.7642512E+03;
  1.9084410E-01;  9.9999998E-03;  2.3022333E-01;3658; -2.9581233E-03;  0.0000000E+00; -1.9168972E-04;  1.0010840E+03;  1.0000000E-01;  8.9814746E+02;3; -2.7098353E+00;  0.0000000E+00;  1.1267390E+01;0; -4.3666237E-03;  4.0089770E+04;  0.0000000E+00;  4.0935974E+00;  4.0000000E+04;  0.0000000E+00;  4.0001441E+04; -5.4682326E-03;  0.0000000E+00;  1.1016090E-03;  6.2099429E+03;
  2.0134354E-01;  9.9999998E-03;  7.0070215E-02;3703; -3.0413610E-03;  0.0000000E+00; -2.8085438E-05;  1.0005656E+03;  1.0000000E-01;  4.6852997E+02;3;  6.7621291E-01;  0.0000000E+00;  3.4269791E-02;0; -8.8438783E-03;  4.0048125E+04;  0.0000000E+00; -2.7896583E-02;  4.0000000E+04;  0.0000000E+00;  3.9990820E+04; -8.7597165E-03;  0.0000000E+00; -8.4161962E-05;  1.1836166E+03;
  2.0129883E-01;  9.9999998E-03;  8.0084316E-02;3704; -3.0761242E-03;  0.0000000E+00; -4.1101262E-05;  1.0005190E+03;  1.0000000E-01;  4.3001254E+02;3;  6.6112715E-01;  0.0000000E+00;  3.4454346E-02;0; -8.7130172E-03;  4.0043039E+04;  0.0000000E+00; -1.8286940E-02;  4.0000000E+04;  0.0000000E+00;  3.9992512E+04; -8.7197367E-03;  0.0000000E+00;  6.7193241E-06;  9.7998053E+02;
  2.0125355E-01;  9.9999998E-03;  9.0094626E-02;3705; -3.0910620E-03;  0.0000000E+00; -4.8682334E-05;  1.0005004E+03;  1.0000000E-01;  4.1450681E+02;3;  6.4622355E-01;  0.0000000E+00;  3.4514420E-02;0; -8.4718792E-03;  4.0039605E+04;  0.0000000E+00; -5.8710822E-03;  4.0000000E+04;  0.0000000E+00;  3.9994387E+04; -8.5807946E-03;  0.0000000E+00;  1.0891564E-04;  7.1750116E+02;
  2.0121345E-01;  9.9999998E-03;  1.0010201E-01;3706; -3.0820782E-03;  0.0000000E+00; -4.8018577E-05;  1.0005119E+03;  1.0000000E-01;  4.2408676E+02;3;  6.3184404E-01;  0.0000000E+00;  3.4664460E-02;0; -8.1249634E-03;  4.0038602E+04;  0.0000000E+00;  4.7424310E-03;  4.0000000E+04;  0.0000000E+00;  3.9996641E+04; -8.3290013E-03;  0.0000000E+00;  2.0403757E-04;  4.4887381E+02;
  2.0118456E-01;  9.9999998E-03;  1.1010645E-01;3707; -3.0473107E-03;  0.0000000E+00; -3.8164424E-05;  1.0005570E+03;  1.0000000E-01;  4.6151782E+02;3;  6.1806542E-01;  0.0000000E+00;  3.5177920E-02;0; -7.6849433E-03;  4.0040629E+04;  0.0000000E+00;  6.7094062E-03;  4.0000000E+04;  0.0000000E+00;  3.9998484E+04; -7.9593230E-03;  0.0000000E+00;  2.7437965E-04;  2.3182947E+02;
  2.0116851E-01;  9.9999998E-03;  1.2010764E-01;3708; -2.9877354E-03;  0.0000000E+00; -2.0222129E-05;  1.0006332E+03;  1.0000000E-01;  5.2452838E+02;3;  6.0465664E-01;  0.0000000E+00;  3.6098186E-02;0; -7.1697230E-03;  4.0045930E+04;  0.0000000E+00; -8.5344687E-03;  4.0000000E+04;  0.0000000E+00;  3.9999711E+04; -7.4774567E-03;  0.0000000E+00;  3.0773348E-04;  1.1992057E+02;
  2.0116374E-01;  9.9999998E-03;  1.3010330E-01;3709; -2.9073537E-03;  0.0000000E+00;  2.3899804E-06;  1.0007340E+03;  1.0000000E-01;  6.0808154E+02;3;  5.9579295E-01;  0.0000000E+00;  3.8487557E-02;0; -6.6000959E-03;  4.0054711E+04;  0.0000000E+00; -4.9875736E-02;  4.0000000E+04;  0.0000000E+00;  3.9999652E+04; -6.9001862E-03;  0.0000000E+00;  3.0009021E-04;  1.6754997E+02;
  2.0116571E-01;  9.9999998E-03;  1.4009209E-01;3710; -2.8191172E-03;  0.0000000E+00;  2.0861489E-05;  1.0008583E+03;  1.0000000E-01;  7.1109100E+02;3;  5.9079862E-01;  0.0000000E+00;  4.2409312E-02;0; -5.9974156E-03;  4.0066379E+04;  0.0000000E+00; -1.2398802E-01;  4.0000000E+04;  0.0000000E+00;  3.9997629E+04; -6.2549189E-03;  0.0000000E+00;  2.5750342E-04;  3.8677115E+02;
  2.0116374E-01;  9.9999998E-03;  1.5007369E-01;3711; -2.7363033E-03;  0.0000000E+00;  2.9047620E-05;  1.0009955E+03;  1.0000000E-01;  8.2476678E+02;3;  5.8185744E-01;  0.0000000E+00;  4.9948771E-02;0; -5.3823264E-03;  4.0080496E+04;  0.0000000E+00; -2.3191160E-01;  4.0000000E+04;  0.0000000E+00;  3.9995133E+04; -5.5786544E-03;  0.0000000E+00;  1.9632794E-04;  7.5278339E+02;
  2.0114915E-01;  9.9999998E-03;  1.6005099E-01;3712; -2.6715288E-03;  0.0000000E+00;  2.3718363E-05;  1.0011341E+03;  1.0000000E-01;  9.3952899E+02;3;  5.6135201E-01;  0.0000000E+00;  1.0298867E-01;0; -4.7743735E-03;  4.0095898E+04;  0.0000000E+00; -3.5888246E-01;  4.0000000E+04;  0.0000000E+00;  3.9992105E+04; -4.9140775E-03;  0.0000000E+00;  1.3970412E-04;  1.2075746E+03;
  2.0111594E-01;  9.9999998E-03;  1.7002949E-01;3713; -2.6354650E-03;  0.0000000E+00;  4.7181643E-06;  1.0012701E+03;  1.0000000E-01;  1.0522172E+03;3;  4.9331179E-01;  0.0000000E+00;  2.8215247E-01;0; -4.1938596E-03;  4.0110820E+04;  0.0000000E+00; -4.5972821E-01;  4.0000000E+04;  0.0000000E+00;  3.9988969E+04; -4.3060891E-03;  0.0000000E+00;  1.1222950E-04;  1.6464421E+03;
  2.0106450E-01;  9.9999998E-03;  1.8001753E-01;3714; -2.6343139E-03;  0.0000000E+00; -2.4675523E-05;  1.0013907E+03;  1.0000000E-01;  1.1521649E+03;3;  3.3047903E-01;  0.0000000E+00;  6.8997222E-01;0; -3.6647248E-03;  4.0123426E+04;  0.0000000E+00; -4.5489269E-01;  4.0000000E+04;  0.0000000E+00;  3.9986656E+04; -3.7991477E-03;  0.0000000E+00;  1.3442285E-04;  1.9276219E+03;
  2.0099320E-01;  9.9999998E-03;  1.9002892E-01;3715; -2.6702557E-03;  0.0000000E+00; -6.0425904E-05;  1.0014806E+03;  1.0000000E-01;  1.2266320E+03;3;  4.5351826E-05;  0.0000000E+00;  1.4414761E+00;0; -3.2194275E-03;  4.0132227E+04;  0.0000000E+00; -2.4433060E-01;  4.0000000E+04;  0.0000000E+00;  3.9986176E+04; -3.4368499E-03;  0.0000000E+00;  2.1742241E-04;  1.9432532E+03;
  2.0090602E-01;  9.9999998E-03;  2.0007262E-01;3716; -2.7417734E-03;  0.0000000E+00; -9.7690558E-05;  1.0015132E+03;  1.0000000E-01;  1.2536930E+03;3; -5.6568539E-01;  0.0000000E+00;  2.6609752E+00;0; -2.9028950E-03;  4.0135887E+04;  0.0000000E+00;  2.6374212E-01;  4.0000000E+04;  0.0000000E+00;  3.9986477E+04; -3.2621524E-03;  0.0000000E+00;  3.5925751E-04;  1.8477654E+03;
  2.0082909E-01;  9.9999998E-03;  2.1012805E-01;3717; -2.8418787E-03;  0.0000000E+00; -1.2925848E-04;  1.0014817E+03;  1.0000000E-01;  1.2275209E+03;3; -1.3915427E+00;  0.0000000E+00;  4.4479842E+00;0; -2.7725538E-03;  4.0132172E+04;  0.0000000E+00;  1.1289982E+00;  4.0000000E+04;  0.0000000E+00;  3.9988730E+04; -3.3161601E-03;  0.0000000E+00;  5.4360629E-04;  2.2986514E+03;
  2.0074888E-01;  9.9999998E-03;  2.2020766E-01;3718; -2.9557701E-03;  0.0000000E+00; -1.5436615E-04;  1.0013277E+03;  1.0000000E-01;  1.1000183E+03;3; -2.4510131E+00;  0.0000000E+00;  6.6421418E+00;0; -2.9051043E-03;  4.0120930E+04;  0.0000000E+00;  2.3714476E+00;  4.0000000E+04;  0.0000000E+00;  3.9988746E+04; -3.6453658E-03;  0.0000000E+00;  7.4026163E-04;  3.8763188E+03;
  2.0072159E-01;  9.9999998E-03;  2.3026754E-01;3719; -3.0531625E-03;  0.0000000E+00; -1.8721403E-04;  1.0010244E+03;  1.0000000E-01;  8.4866736E+02;3; -3.6277730E+00;  0.0000000E+00;  8.7449579E+00;0; -3.3952831E-03;  4.0099902E+04;  0.0000000E+00;  3.9373515E+00;  4.0000000E+04;  0.0000000E+00;  3.9986781E+04; -4.2812852E-03;  0.0000000E+00;  8.8600221E-04;  6.2446509E+03;
  2.1148591E-01;  9.9999998E-03;  7.0010334E-02;3764; -3.1887265E-03;  0.0000000E+00;  1.6190528E-06;  1.0008076E+03;  1.0000000E-01;  6.6911688E+02;3;  6.8215150E-01;  0.0000000E+00;  4.9189214E-02;0; -7.2876746E-03;  4.0071773E+04;  0.0000000E+00; -6.2945159E-03;  4.0000000E+04;  0.0000000E+00;  3.9987664E+04; -7.1911826E-03;  0.0000000E+00; -9.6491902E-05;  1.6191080E+03;
  2.1147932E-01;  9.9999998E-03;  8.0021381E-02;3765; -3.2290146E-03;  0.0000000E+00; -1.9483354E-05;  1.0007410E+03;  1.0000000E-01;  6.1390857E+02;3;  6.6701484E-01;  0.0000000E+00;  4.9327627E-02;0; -7.1824351E-03;  4.0064934E+04;  0.0000000E+00;  6.6626440E-03;  4.0000000E+04;  0.0000000E+00;  3.9988645E+04; -7.1729021E-03;  0.0000000E+00; -9.5328242E-06;  1.4627991E+03;
  2.1144469E-01;  9.9999998E-03;  9.0033829E-02;3766; -3.2463407E-03;  0.0000000E+00; -3.7003068E-05;  1.0006861E+03;  1.0000000E-01;  5.6837897E+02;3;  6.5243584E-01;  0.0000000E+00;  4.9514391E-02;0; -6.9820364E-03;  4.0058930E+04;  0.0000000E+00;  2.3929840E-02;  4.0000000E+04;  0.0000000E+00;  3.9990344E+04; -7.0791021E-03;  0.0000000E+00;  9.7065560E-05;  1.2448464E+03;
  2.1137957E-01;  9.9999998E-03;  1.0005129E-01;3767; -3.2357008E-03;  0.0000000E+00; -4.7171554E-05;  1.0006546E+03;  1.0000000E-01;  5.4230566E+02;3;  6.3804555E-01;  0.0000000E+00;  4.9074732E-02;0; -6.6893362E-03;  4.0054699E+04;  0.0000000E+00;  4.2205133E-02;  4.0000000E+04;  0.0000000E+00;  3.9991730E+04; -6.8949927E-03;  0.0000000E+00;  2.0565647E-04;  1.0107571E+03;
  2.1129057E-01;  9.9999998E-03;  1.1007579E-01;3768; -3.1935528E-03;  0.0000000E+00; -4.6984998E-05;  1.0006510E+03;  1.0000000E-01;  5.3934277E+02;3;  6.2361979E-01;  0.0000000E+00;  4.9388032E-02;0; -6.3129142E-03;  4.0052730E+04;  0.0000000E+00;  5.5257257E-02;  4.0000000E+04;  0.0000000E+00;  3.9994461E+04; -6.6102347E-03;  0.0000000E+00;  2.9732037E-04;  8.0895587E+02;
  2.1120690E-01;  9.9999998E-03;  1.2009928E-01;3769; -3.1212792E-03;  0.0000000E+00; -3.5907444E-05;  1.0006733E+03;  1.0000000E-01;  5.5781140E+02;3;  6.0950136E-01;  0.0000000E+00;  4.9975932E-02;0; -5.8633033E-03;  4.0053684E+04;  0.0000000E+00;  5.3651758E-02;  4.0000000E+04;  0.0000000E+00;  3.9995117E+04; -6.2196748E-03;  0.0000000E+00;  3.5637172E-04;  6.8461957E+02;
  2.1115077E-01;  9.9999998E-03;  1.3011254E-01;3770; -3.0241217E-03;  0.0000000E+00; -1.5174128E-05;  1.0007247E+03;  1.0000000E-01;  6.0037805E+02;3;  5.9679192E-01;  0.0000000E+00;  5.1680025E-02;0; -5.3560114E-03;  4.0057949E+04;  0.0000000E+00;  2.5776511E-02;  4.0000000E+04;  0.0000000E+00;  3.9995148E+04; -5.7298224E-03;  0.0000000E+00;  3.7381097E-04;  6.7104926E+02;
  2.1111336E-01;  9.9999998E-03;  1.4011586E-01;3771; -2.9109458E-03;  0.0000000E+00;  1.1164901E-05;  1.0008008E+03;  1.0000000E-01;  6.6338867E+02;3;  5.8747780E-01;  0.0000000E+00;  5.5471506E-02;0; -4.8113242E-03;  4.0065207E+04;  0.0000000E+00; -3.9528456E-02;  4.0000000E+04;  0.0000000E+00;  3.9994410E+04; -5.1613003E-03;  0.0000000E+00;  3.4997604E-04;  7.8966791E+02;
  2.1108402E-01;  9.9999998E-03;  1.5010695E-01;3772; -2.8002865E-03;  0.0000000E+00;  3.4839966E-05;  1.0008966E+03;  1.0000000E-01;  7.4279382E+02;3;  5.8995378E-01;  0.0000000E+00;  6.3625500E-02;0; -4.2476971E-03;  4.0075250E+04;  0.0000000E+00; -1.4857323E-01;  4.0000000E+04;  0.0000000E+00;  3.9992621E+04; -4.5438190E-03;  0.0000000E+00;  2.9612202E-04;  1.0448397E+03;
  2.1105394E-01;  9.9999998E-03;  1.6008829E-01;3773; -2.7113184E-03;  0.0000000E+00;  4.6548506E-05;  1.0010005E+03;  1.0000000E-01;  8.2891486E+02;3;  5.7261437E-01;  0.0000000E+00;  1.0470615E-01;0; -3.6815135E-03;  4.0086766E+04;  0.0000000E+00; -2.9041830E-01;  4.0000000E+04;  0.0000000E+00;  3.9989914E+04; -3.9137034E-03;  0.0000000E+00;  2.3218982E-04;  1.4053544E+03;
  2.1101430E-01;  9.9999998E-03;  1.7006545E-01;3774; -2.6559171E-03;  0.0000000E+00;  4.1699906E-05;  1.0011090E+03;  1.0000000E-01;  9.1878882E+02;3;  5.0881648E-01;  0.0000000E+00;  2.4987791E-01;0; -3.1293570E-03;  4.0098488E+04;  0.0000000E+00; -4.1935575E-01;  4.0000000E+04;  0.0000000E+00;  3.9987289E+04; -3.3117814E-03;  0.0000000E+00;  1.8242451E-04;  1.7903444E+03;
  2.1095994E-01;  9.9999998E-03;  1.8004668E-01;3775; -2.6409731E-03;  0.0000000E+00;  2.0985803E-05;  1.0012037E+03;  1.0000000E-01;  9.9720636E+02;3;  3.4654936E-01;  0.0000000E+00;  5.9054446E-01;0; -2.6116269E-03;  4.0109312E+04;  0.0000000E+00; -4.5066923E-01;  4.0000000E+04;  0.0000000E+00;  3.9985141E+04; -2.7810833E-03;  0.0000000E+00;  1.6945643E-04;  2.0722029E+03;
  2.1089284E-01;  9.9999998E-03;  1.9004306E-01;3776; -2.6688350E-03;  0.0000000E+00; -9.1943366E-06;  1.0012796E+03;  1.0000000E-01;  1.0601182E+03;3;  1.1135806E-02;  0.0000000E+00;  1.2276886E+00;0; -2.1574516E-03;  4.0117480E+04;  0.0000000E+00; -2.7663422E-01;  4.0000000E+04;  0.0000000E+00;  3.9984059E+04; -2.3655950E-03;  0.0000000E+00;  2.0814339E-04;  2.1374197E+03;
  2.1081029E-01;  9.9999998E-03;  2.0007041E-01;3777; -2.7378972E-03;  0.0000000E+00; -4.1632837E-05;  1.0013220E+03;  1.0000000E-01;  1.0951790E+03;3; -5.7534242E-01;  0.0000000E+00;  2.2634385E+00;0; -1.8104012E-03;  4.0121703E+04;  0.0000000E+00;  2.0216580E-01;  4.0000000E+04;  0.0000000E+00;  3.9984047E+04; -2.1121579E-03;  0.0000000E+00;  3.0175672E-04;  2.1053579E+03;
  2.1074148E-01;  9.9999998E-03;  2.1011485E-01;3778; -2.8441022E-03;  0.0000000E+00; -7.1515584E-05;  1.0012988E+03;  1.0000000E-01;  1.0760189E+03;3; -1.4615488E+00;  0.0000000E+00;  3.7610705E+00;0; -1.6290507E-03;  4.0120656E+04;  0.0000000E+00;  1.0476182E+00;  4.0000000E+04;  0.0000000E+00;  3.9985086E+04; -2.0684644E-03;  0.0000000E+00;  4.3941368E-04;  2.5388555E+03;
  2.1067923E-01;  9.9999998E-03;  2.2017743E-01;3779; -2.9686813E-03;  0.0000000E+00; -1.0441871E-04;  1.0011809E+03;  1.0000000E-01;  9.7834271E+02;3; -2.6572669E+00;  0.0000000E+00;  5.5736160E+00;0; -1.6999177E-03;  4.0113832E+04;  0.0000000E+00;  2.2743952E+00;  4.0000000E+04;  0.0000000E+00;  3.9984102E+04; -2.2889583E-03;  0.0000000E+00;  5.8904052E-04;  4.0217788E+03;
  2.1062976E-01;  9.9999998E-03;  2.3024206E-01;3780; -3.0690115E-03;  0.0000000E+00; -1.7857082E-04;  1.0009304E+03;  1.0000000E-01;  7.7074365E+02;3; -4.1405115E+00;  0.0000000E+00;  7.0353498E+00;0; -2.1749223E-03;  4.0100047E+04;  0.0000000E+00;  3.8696020E+00;  4.0000000E+04;  0.0000000E+00;  3.9978570E+04; -2.8183055E-03;  0.0000000E+00;  6.4338325E-04;  6.4850405E+03;
  2.2145680E-01;  9.9999998E-03;  6.9986790E-02;3825; -3.2754324E-03;  0.0000000E+00;  3.1649113E-05;  1.0010338E+03;  1.0000000E-01;  8.5646960E+02;3;  6.8787932E-01;  0.0000000E+00;  6.1847657E-02;0; -5.5218842E-03;  4.0092949E+04;  0.0000000E+00;  2.5644012E-02;  4.0000000E+04;  0.0000000E+00;  3.9985324E+04; -5.4115257E-03;  0.0000000E+00; -1.1035828E-04;  1.9111915E+03;
  2.2149329E-01;  9.9999998E-03;  7.9990558E-02;3826; -3.3241406E-03;  0.0000000E+00;  4.3366317E-06;  1.0009512E+03;  1.0000000E-01;  7.8802710E+02;3;  6.7274982E-01;  0.0000000E+00;  6.2382672E-02;0; -5.4284791E-03;  4.0085645E+04;  0.0000000E+00;  4.2716611E-02;  4.0000000E+04;  0.0000000E+00;  3.9986207E+04; -5.4034539E-03;  0.0000000E+00; -2.5025261E-05;  1.8032488E+03;
  2.2151156E-01;  9.9999998E-03;  8.9992911E-02;3827; -3.3467717E-03;  0.0000000E+00; -2.2273804E-05;  1.0008744E+03;  1.0000000E-01;  7.2442395E+02;3;  6.5784144E-01;  0.0000000E+00;  6.3117258E-02;0; -5.2540526E-03;  4.0078000E+04;  0.0000000E+00;  6.5009914E-02;  4.0000000E+04;  0.0000000E+00;  3.9987289E+04; -5.3413147E-03;  0.0000000E+00;  8.7261935E-05;  1.6346050E+03;
  2.2150464E-01;  9.9999998E-03;  9.9998400E-02;3828; -3.3379928E-03;  0.0000000E+00; -4.1472962E-05;  1.0008091E+03;  1.0000000E-01;  6.7040082E+02;3;  6.4341670E-01;  0.0000000E+00;  6.2589355E-02;0; -5.0015184E-03;  4.0071305E+04;  0.0000000E+00;  9.1094159E-02;  4.0000000E+04;  0.0000000E+00;  3.9988957E+04; -5.2114506E-03;  0.0000000E+00;  2.0993224E-04;  1.4449623E+03;
  2.2146325E-01;  9.9999998E-03;  1.1001163E-01;3829; -3.2917985E-03;  0.0000000E+00; -4.9984341E-05;  1.0007540E+03;  1.0000000E-01;  6.2467371E+02;3;  6.2939876E-01;  0.0000000E+00;  6.3060097E-02;0; -4.6800002E-03;  4.0065090E+04;  0.0000000E+00;  1.1663033E-01;  4.0000000E+04;  0.0000000E+00;  3.9990535E+04; -5.0035301E-03;  0.0000000E+00;  3.2353000E-04;  1.2737507E+03;
  2.2138114E-01;  9.9999998E-03;  1.2003686E-01;3830; -3.2095171E-03;  0.0000000E+00; -4.5292716E-05;  1.0007158E+03;  1.0000000E-01;  5.9306964E+02;3;  6.1499780E-01;  0.0000000E+00;  6.3838653E-02;0; -4.3018875E-03;  4.0061430E+04;  0.0000000E+00;  1.3312663E-01;  4.0000000E+04;  0.0000000E+00;  3.9991250E+04; -4.7112927E-03;  0.0000000E+00;  4.0940504E-04;  1.1527679E+03;
  2.2125939E-01;  9.9999998E-03;  1.3007557E-01;3831; -3.0952648E-03;  0.0000000E+00; -2.5580353E-05;  1.0007064E+03;  1.0000000E-01;  5.8526740E+02;3;  6.0263175E-01;  0.0000000E+00;  6.5083794E-02;0; -3.8810687E-03;  4.0059961E+04;  0.0000000E+00;  1.2788911E-01;  4.0000000E+04;  0.0000000E+00;  3.9991832E+04; -4.3340330E-03;  0.0000000E+00;  4.5296442E-04;  1.1026173E+03;
  2.2114234E-01;  9.9999998E-03;  1.4011203E-01;3832; -2.9585736E-03;  0.0000000E+00;  9.4960678E-06;  1.0007171E+03;  1.0000000E-01;  5.9405725E+02;3;  5.9184647E-01;  0.0000000E+00;  6.8069175E-02;0; -3.4261229E-03;  4.0061590E+04;  0.0000000E+00;  8.6352758E-02;  4.0000000E+04;  0.0000000E+00;  3.9991234E+04; -3.8743978E-03;  0.0000000E+00;  4.4827478E-04;  1.1384460E+03;
  2.2105905E-01;  9.9999998E-03;  1.5012275E-01;3833; -2.8187032E-03;  0.0000000E+00;  5.2161755E-05;  1.0007516E+03;  1.0000000E-01;  6.2269843E+02;3;  6.0110193E-01;  0.0000000E+00;  7.7461131E-02;0; -2.9466632E-03;  4.0065789E+04;  0.0000000E+00; -3.2985620E-03;  4.0000000E+04;  0.0000000E+00;  3.9990535E+04; -3.3482623E-03;  0.0000000E+00;  4.0159907E-04;  1.2709197E+03;
  2.2100346E-01;  9.9999998E-03;  1.6011156E-01;3834; -2.7022322E-03;  0.0000000E+00;  8.8146197E-05;  1.0008062E+03;  1.0000000E-01;  6.6783295E+02;3;  5.9689653E-01;  0.0000000E+00;  1.0951956E-01;0; -2.4537619E-03;  4.0072109E+04;  0.0000000E+00; -1.3746893E-01;  4.0000000E+04;  0.0000000E+00;  3.9988648E+04; -2.7837662E-03;  0.0000000E+00;  3.3000443E-04;  1.5022611E+03;
  2.2095872E-01;  9.9999998E-03;  1.7008771E-01;3835; -2.6226500E-03;  0.0000000E+00;  1.0516583E-04;  1.0008657E+03;  1.0000000E-01;  7.1721429E+02;3;  5.4445845E-01;  0.0000000E+00;  2.2143213E-01;0; -1.9581323E-03;  4.0079812E+04;  0.0000000E+00; -2.7649853E-01;  4.0000000E+04;  0.0000000E+00;  3.9986375E+04; -2.2163009E-03;  0.0000000E+00;  2.5816855E-04;  1.7953750E+03;
  2.2090395E-01;  9.9999998E-03;  1.8006192E-01;3836; -2.5889117E-03;  0.0000000E+00;  9.7984957E-05;  1.0009294E+03;  1.0000000E-01;  7.6995355E+02;3;  3.9662209E-01;  0.0000000E+00;  4.9091527E-01;0; -1.4743961E-03;  4.0087637E+04;  0.0000000E+00; -3.3809713E-01;  4.0000000E+04;  0.0000000E+00;  3.9984445E+04; -1.6862291E-03;  0.0000000E+00;  2.1183306E-04;  2.0487327E+03;
  2.2083381E-01;  9.9999998E-03;  1.9004568E-01;3837; -2.6064189E-03;  0.0000000E+00;  6.6573375E-05;  1.0009871E+03;  1.0000000E-01;  8.1775464E+02;3;  8.0940790E-02;  0.0000000E+00;  1.0013009E+00;0; -1.0275624E-03;  4.0094004E+04;  0.0000000E+00; -2.1265014E-01;  4.0000000E+04;  0.0000000E+00;  3.9983738E+04; -1.2366101E-03;  0.0000000E+00;  2.0904766E-04;  2.1473501E+03;
  2.2075079E-01;  9.9999998E-03;  2.0005262E-01;3838; -2.6715812E-03;  0.0000000E+00;  1.9939764E-05;  1.0010297E+03;  1.0000000E-01;  8.5311169E+02;3; -4.8461419E-01;  0.0000000E+00;  1.8536662E+00;0; -6.6122587E-04;  4.0098758E+04;  0.0000000E+00;  2.0623372E-01;  4.0000000E+04;  0.0000000E+00;  3.9983496E+04; -9.1470219E-04;  0.0000000E+00;  2.5347635E-04;  2.1558367E+03;
  2.2067921E-01;  9.9999998E-03;  2.1008027E-01;3839; -2.7770358E-03;  0.0000000E+00; -1.6422860E-05;  1.0010316E+03;  1.0000000E-01;  8.5469189E+02;3; -1.3681929E+00;  0.0000000E+00;  3.1129973E+00;0; -4.2959212E-04;  4.0099859E+04;  0.0000000E+00;  9.9045044E-01;  4.0000000E+04;  0.0000000E+00;  3.9984273E+04; -7.7197433E-04;  0.0000000E+00;  3.4238221E-04;  2.5598450E+03;
  2.2063428E-01;  9.9999998E-03;  2.2011834E-01;3840; -2.9071441E-03;  0.0000000E+00; -5.1790896E-05;  1.0009702E+03;  1.0000000E-01;  8.0382910E+02;3; -2.5842102E+00;  0.0000000E+00;  4.6978173E+00;0; -4.1666423E-04;  4.0096988E+04;  0.0000000E+00;  2.1570539E+00;  4.0000000E+04;  0.0000000E+00;  3.9983996E+04; -8.6580333E-04;  0.0000000E+00;  4.4913910E-04;  3.8795400E+03;
  2.2060013E-01;  9.9999998E-03;  2.3016639E-01;3841; -3.0151415E-03;  0.0000000E+00; -1.3092805E-04;  1.0008064E+03;  1.0000000E-01;  6.6812927E+02;3; -4.1403928E+00;  0.0000000E+00;  6.1095319E+00;0; -7.9423806E-04;  4.0088953E+04;  0.0000000E+00;  3.6930616E+00;  4.0000000E+04;  0.0000000E+00;  3.9980109E+04; -1.2487529E-03;  0.0000000E+00;  4.5451484E-04;  6.1748711E+03;
  2.3133975E-01;  9.9999998E-03;  6.9991969E-02;3886; -3.2909254E-03;  0.0000000E+00;  5.5892076E-05;  1.0011974E+03;  1.0000000E-01;  9.9207068E+02;3;  6.9324100E-01;  0.0000000E+00;  7.4002802E-02;0; -3.7493764E-03;  4.0108273E+04;  0.0000000E+00;  5.8624387E-02;  4.0000000E+04;  0.0000000E+00;  3.9984430E+04; -3.6173149E-03;  0.0000000E+00; -1.3206161E-04;  2.0673276E+03;
  2.3140047E-01;  9.9999998E-03;  7.9992309E-02;3887; -3.3510637E-03;  0.0000000E+00;  2.3926357E-05;  1.0011220E+03;  1.0000000E-01;  9.2955396E+02;3;  6.7833161E-01;  0.0000000E+00;  7.5156756E-02;0; -3.6565366E-03;  4.0101566E+04;  0.0000000E+00;  7.9453476E-02;  4.0000000E+04;  0.0000000E+00;  3.9984949E+04; -3.6102056E-03;  0.0000000E+00; -4.6330959E-05;  2.0010107E+03;
  2.3145077E-01;  9.9999998E-03;  8.9988634E-02;3888; -3.3836975E-03;  0.0000000E+00; -7.0578790E-06;  1.0010420E+03;  1.0000000E-01;  8.6328424E+02;3;  6.6374284E-01;  0.0000000E+00;  7.4724458E-02;0; -3.5002681E-03;  4.0094035E+04;  0.0000000E+00;  1.0585173E-01;  4.0000000E+04;  0.0000000E+00;  3.9985613E+04; -3.5725662E-03;  0.0000000E+00;  7.2298099E-05;  1.8734423E+03;
  2.3148757E-01;  9.9999998E-03;  9.9985041E-02;3889; -3.3801894E-03;  0.0000000E+00; -3.2460302E-05;  1.0009548E+03;  1.0000000E-01;  7.9108875E+02;3;  6.4903128E-01;  0.0000000E+00;  7.5605839E-02;0; -3.2832385E-03;  4.0085918E+04;  0.0000000E+00;  1.3851272E-01;  4.0000000E+04;  0.0000000E+00;  3.9986703E+04; -3.4915123E-03;  0.0000000E+00;  2.0827372E-04;  1.7199675E+03;
  2.3150119E-01;  9.9999998E-03;  1.0998694E-01;3890; -3.3341087E-03;  0.0000000E+00; -4.8386810E-05;  1.0008654E+03;  1.0000000E-01;  7.1691797E+02;3;  6.3474554E-01;  0.0000000E+00;  7.6043256E-02;0; -3.0136702E-03;  4.0077578E+04;  0.0000000E+00;  1.7579296E-01;  4.0000000E+04;  0.0000000E+00;  3.9988137E+04; -3.3555692E-03;  0.0000000E+00;  3.4189902E-04;  1.5748634E+03;
  2.3147914E-01;  9.9999998E-03;  1.1999855E-01;3891; -3.2471993E-03;  0.0000000E+00; -4.7926358E-05;  1.0007784E+03;  1.0000000E-01;  6.4492004E+02;3;  6.2093657E-01;  0.0000000E+00;  7.5526662E-02;0; -2.7032166E-03;  4.0069363E+04;  0.0000000E+00;  2.1186794E-01;  4.0000000E+04;  0.0000000E+00;  3.9988906E+04; -3.1556028E-03;  0.0000000E+00;  4.5238616E-04;  1.4641216E+03;
  2.3140959E-01;  9.9999998E-03;  1.3002214E-01;3892; -3.1210911E-03;  0.0000000E+00; -2.7932232E-05;  1.0007030E+03;  1.0000000E-01;  5.8240326E+02;3;  6.0820776E-01;  0.0000000E+00;  7.7024333E-02;0; -2.3651798E-03;  4.0062750E+04;  0.0000000E+00;  2.3550417E-01;  4.0000000E+04;  0.0000000E+00;  3.9989492E+04; -2.8861095E-03;  0.0000000E+00;  5.2092975E-04;  1.4013208E+03;
  2.3128499E-01;  9.9999998E-03;  1.4005892E-01;3893; -2.9617378E-03;  0.0000000E+00;  1.9280522E-05;  1.0006440E+03;  1.0000000E-01;  5.3361456E+02;3;  5.9982044E-01;  0.0000000E+00;  8.0864877E-02;0; -2.0106309E-03;  4.0057875E+04;  0.0000000E+00;  2.3051956E-01;  4.0000000E+04;  0.0000000E+00;  3.9989543E+04; -2.5460848E-03;  0.0000000E+00;  5.3545390E-04;  1.3879795E+03;
  2.3114575E-01;  9.9999998E-03;  1.5009536E-01;3894; -2.7909072E-03;  0.0000000E+00;  8.8008455E-05;  1.0006097E+03;  1.0000000E-01;  5.0507214E+02;3;  6.3203484E-01;  0.0000000E+00;  9.8691046E-02;0; -1.6395468E-03;  4.0055562E+04;  0.0000000E+00;  1.7963368E-01;  4.0000000E+04;  0.0000000E+00;  3.9989219E+04; -2.1357643E-03;  0.0000000E+00;  4.9621746E-04;  1.4254508E+03;
  2.3104368E-01;  9.9999998E-03;  1.6010591E-01;3895; -2.6461128E-03;  0.0000000E+00;  1.5849085E-04;  1.0005959E+03;  1.0000000E-01;  4.9371442E+02;3;  6.4546555E-01;  0.0000000E+00;  1.3084655E-01;0; -1.2477620E-03;  4.0055926E+04;  0.0000000E+00;  7.7075824E-02;  4.0000000E+04;  0.0000000E+00;  3.9988145E+04; -1.6656774E-03;  0.0000000E+00;  4.1791546E-04;  1.5278461E+03;
  2.3096439E-01;  9.9999998E-03;  1.7009102E-01;3896; -2.5361949E-03;  0.0000000E+00;  2.0612367E-04;  1.0006005E+03;  1.0000000E-01;  4.9756616E+02;3;  6.2431389E-01;  0.0000000E+00;  2.1895264E-01;0; -8.3551509E-04;  4.0058363E+04;  0.0000000E+00; -4.9894899E-02;  4.0000000E+04;  0.0000000E+00;  3.9986727E+04; -1.1626858E-03;  0.0000000E+00;  3.2717071E-04;  1.7013816E+03;
  2.3089242E-01;  9.9999998E-03;  1.8006454E-01;3897; -2.4685983E-03;  0.0000000E+00;  2.1892793E-04;  1.0006192E+03;  1.0000000E-01;  5.1297314E+02;3;  5.1749384E-01;  0.0000000E+00;  4.2499307E-01;0; -4.0507139E-04;  4.0061777E+04;  0.0000000E+00; -1.3013119E-01;  4.0000000E+04;  0.0000000E+00;  3.9985277E+04; -6.5977022E-04;  0.0000000E+00;  2.5469883E-04;  1.8927982E+03;
  2.3081823E-01;  9.9999998E-03;  1.9003932E-01;3898; -2.4467595E-03;  0.0000000E+00;  1.8952841E-04;  1.0006489E+03;  1.0000000E-01;  5.3756506E+02;3;  2.6616502E-01;  0.0000000E+00;  8.0533487E-01;0;  2.7004353E-05;  4.0066055E+04;  0.0000000E+00; -6.0659841E-02;  4.0000000E+04;  0.0000000E+00;  3.9984172E+04; -1.9548280E-04;  0.0000000E+00;  2.2248716E-04;  1.9986381E+03;
  2.3073994E-01;  9.9999998E-03;  2.0002668E-01;3899; -2.4899391E-03;  0.0000000E+00;  1.2914390E-04;  1.0006849E+03;  1.0000000E-01;  5.6749011E+02;3; -2.5588715E-01;  0.0000000E+00;  1.4712182E+00;0;  4.1800708E-04;  4.0069582E+04;  0.0000000E+00;  2.6525277E-01;  4.0000000E+04;  0.0000000E+00;  3.9984660E+04;  1.8414478E-04;  0.0000000E+00;  2.3386229E-04;  2.0155536E+03;
  2.3066004E-01;  9.9999998E-03;  2.1003585E-01;3900; -2.6133570E-03;  0.0000000E+00;  5.7016201E-05;  1.0007118E+03;  1.0000000E-01;  5.8971173E+02;3; -1.1054703E+00;  0.0000000E+00;  2.4977124E+00;0;  6.9515698E-04;  4.0072383E+04;  0.0000000E+00;  9.3168896E-01;  4.0000000E+04;  0.0000000E+00;  3.9985652E+04;  4.2135685E-04;  0.0000000E+00;  2.7380013E-04;  2.3318721E+03;
  2.3060820E-01;  9.9999998E-03;  2.2005865E-01;3901; -2.7672173E-03;  0.0000000E+00;  7.0486467E-06;  1.0007118E+03;  1.0000000E-01;  5.8971173E+02;3; -2.2768471E+00;  0.0000000E+00;  3.8851061E+00;0;  7.9475617E-04;  4.0073195E+04;  0.0000000E+00;  1.9761395E+00;  4.0000000E+04;  0.0000000E+00;  3.9986695E+04;  4.5737263E-04;  0.0000000E+00;  3.3738354E-04;  3.4656262E+03;
  2.3059659E-01;  9.9999998E-03;  2.3008640E-01;3902; -2.8965042E-03;  0.0000000E+00; -4.3796750E-05;  1.0006442E+03;  1.0000000E-01;  5.3371332E+02;3; -3.7600629E+00;  0.0000000E+00;  5.3821940E+00;0;  6.0731388E-04;  4.0070355E+04;  0.0000000E+00;  3.3488526E+00;  4.0000000E+04;  0.0000000E+00;  3.9986047E+04;  2.4038437E-04;  0.0000000E+00;  3.6692951E-04;  5.4062100E+03;
  2.4120055E-01;  9.9999998E-03;  7.0003808E-02;3947; -3.2368621E-03;  0.0000000E+00;  6.9610665E-05;  1.0012618E+03;  1.0000000E-01;  1.0454026E+03;3;  6.9901401E-01;  0.0000000E+00;  8.5803702E-02;0; -2.1460515E-03;  4.0115160E+04;  0.0000000E+00;  8.2579404E-02;  4.0000000E+04;  0.0000000E+00;  3.9984105E+04; -1.9778206E-03;  0.0000000E+00; -1.6823085E-04;  2.1095640E+03;
  2.4127185E-01;  9.9999998E-03;  8.0003925E-02;3948; -3.3118767E-03;  0.0000000E+00;  3.7785154E-05;  1.0012136E+03;  1.0000000E-01;  1.0055024E+03;3;  6.8396294E-01;  0.0000000E+00;  8.6240880E-02;0; -2.0400244E-03;  4.0110922E+04;  0.0000000E+00;  1.0551618E-01;  4.0000000E+04;  0.0000000E+00;  3.9984062E+04; -1.9591965E-03;  0.0000000E+00; -8.0827871E-05;  2.0784702E+03;
  2.4133836E-01;  9.9999998E-03;  8.9999110E-02;3949; -3.3567110E-03;  0.0000000E+00;  3.2898640E-06;  1.0011503E+03;  1.0000000E-01;  9.5296069E+02;3;  6.6866803E-01;  0.0000000E+00;  8.7253347E-02;0; -1.8913988E-03;  4.0104785E+04;  0.0000000E+00;  1.3394536E-01;  4.0000000E+04;  0.0000000E+00;  3.9984684E+04; -1.9350676E-03;  0.0000000E+00;  4.3668762E-05;  1.9839585E+03;
  2.4139786E-01;  9.9999998E-03;  9.9992767E-02;3950; -3.3631772E-03;  0.0000000E+00; -2.7425451E-05;  1.0010709E+03;  1.0000000E-01;  8.8718481E+02;3;  6.5485209E-01;  0.0000000E+00;  8.4995590E-02;0; -1.7039985E-03;  4.0097211E+04;  0.0000000E+00;  1.7043695E-01;  4.0000000E+04;  0.0000000E+00;  3.9986008E+04; -1.8947202E-03;  0.0000000E+00;  1.9072174E-04;  1.8562738E+03;
  2.4144645E-01;  9.9999998E-03;  1.0998879E-01;3951; -3.3252207E-03;  0.0000000E+00; -4.5689525E-05;  1.0009701E+03;  1.0000000E-01;  8.0373035E+02;3;  6.4069295E-01;  0.0000000E+00;  8.5937828E-02;0; -1.4848042E-03;  4.0088016E+04;  0.0000000E+00;  2.1622990E-01;  4.0000000E+04;  0.0000000E+00;  3.9987113E+04; -1.8254051E-03;  0.0000000E+00;  3.4060082E-04;  1.7265204E+03;
  2.4147479E-01;  9.9999998E-03;  1.1998932E-01;3952; -3.2390356E-03;  0.0000000E+00; -4.9258455E-05;  1.0008544E+03;  1.0000000E-01;  7.0783185E+02;3;  6.2660187E-01;  0.0000000E+00;  8.7542884E-02;0; -1.2437857E-03;  4.0077641E+04;  0.0000000E+00;  2.6906037E-01;  4.0000000E+04;  0.0000000E+00;  3.9987938E+04; -1.7147124E-03;  0.0000000E+00;  4.7092661E-04;  1.6194316E+03;
  2.4146724E-01;  9.9999998E-03;  1.2999807E-01;3953; -3.1047745E-03;  0.0000000E+00; -2.6061280E-05;  1.0007321E+03;  1.0000000E-01;  6.0650134E+02;3;  6.1576837E-01;  0.0000000E+00;  8.8044979E-02;0; -9.9232106E-04;  4.0066891E+04;  0.0000000E+00;  3.2108027E-01;  4.0000000E+04;  0.0000000E+00;  3.9988617E+04; -1.5522261E-03;  0.0000000E+00;  5.5990508E-04;  1.5482925E+03;
  2.4141940E-01;  9.9999998E-03;  1.4001305E-01;3954; -2.9213331E-03;  0.0000000E+00;  4.3385531E-05;  1.0006129E+03;  1.0000000E-01;  5.0783749E+02;3;  6.1425346E-01;  0.0000000E+00;  9.8326795E-02;0; -7.3741848E-04;  4.0056762E+04;  0.0000000E+00;  3.5780370E-01;  4.0000000E+04;  0.0000000E+00;  3.9989238E+04; -1.3286229E-03;  0.0000000E+00;  5.9120444E-04;  1.5131001E+03;
  2.4131830E-01;  9.9999998E-03;  1.5003827E-01;3955; -2.7280918E-03;  0.0000000E+00;  1.5097730E-04;  1.0005064E+03;  1.0000000E-01;  4.1954370E+02;3;  6.8877548E-01;  0.0000000E+00;  1.4240040E-01;0; -4.7866814E-04;  4.0048160E+04;  0.0000000E+00;  3.5945475E-01;  4.0000000E+04;  0.0000000E+00;  3.9989105E+04; -1.0387740E-03;  0.0000000E+00;  5.6010589E-04;  1.5032493E+03;
  2.4118146E-01;  9.9999998E-03;  1.6006324E-01;3956; -2.5698142E-03;  0.0000000E+00;  2.4820751E-04;  1.0004208E+03;  1.0000000E-01;  3.4863211E+02;3;  7.1271741E-01;  0.0000000E+00;  1.7617193E-01;0; -2.0367312E-04;  4.0041688E+04;  0.0000000E+00;  3.0965880E-01;  4.0000000E+04;  0.0000000E+00;  3.9988938E+04; -6.8183627E-04;  0.0000000E+00;  4.7816316E-04;  1.5165128E+03;
  2.4104556E-01;  9.9999998E-03;  1.7006829E-01;3957; -2.4461274E-03;  0.0000000E+00;  3.0387589E-04;  1.0003593E+03;  1.0000000E-01;  2.9767059E+02;3;  7.1219695E-01;  0.0000000E+00;  2.2977223E-01;0;  1.0631909E-04;  4.0037992E+04;  0.0000000E+00;  2.1816181E-01;  4.0000000E+04;  0.0000000E+00;  3.9988008E+04; -2.6744950E-04;  0.0000000E+00;  3.7376859E-04;  1.5732509E+03;
  2.4092759E-01;  9.9999998E-03;  1.8005306E-01;3958; -2.3518745E-03;  0.0000000E+00;  3.1455612E-04;  1.0003237E+03;  1.0000000E-01;  2.6814056E+02;3;  6.6708922E-01;  0.0000000E+00;  3.5778376E-01;0;  4.6374003E-04;  4.0036637E+04;  0.0000000E+00;  1.3705136E-01;  4.0000000E+04;  0.0000000E+00;  3.9987363E+04;  1.8243909E-04;  0.0000000E+00;  2.8130095E-04;  1.6753818E+03;
  2.4082874E-01;  9.9999998E-03;  1.9002782E-01;3959; -2.2882947E-03;  0.0000000E+00;  2.9285214E-04;  1.0003101E+03;  1.0000000E-01;  2.5688162E+02;3;  4.8624754E-01;  0.0000000E+00;  6.4755797E-01;0;  8.6501072E-04;  4.0037129E+04;  0.0000000E+00;  1.5391876E-01;  4.0000000E+04;  0.0000000E+00;  3.9986332E+04;  6.3626969E-04;  0.0000000E+00;  2.2874103E-04;  1.7585432E+03;
  2.4074179E-01;  9.9999998E-03;  2.0000499E-01;3960; -2.2690194E-03;  0.0000000E+00;  2.5203871E-04;  1.0003318E+03;  1.0000000E-01;  2.7485641E+02;3;  1.0574251E-01;  0.0000000E+00;  1.1655204E+00;0;  1.2844309E-03;  4.0039242E+04;  0.0000000E+00;  3.6866206E-01;  4.0000000E+04;  0.0000000E+00;  3.9987004E+04;  1.0538972E-03;  0.0000000E+00;  2.3053361E-04;  1.7762170E+03;
  2.4066979E-01;  9.9999998E-03;  2.0999436E-01;3961; -2.3120530E-03;  0.0000000E+00;  1.9627385E-04;  1.0003738E+03;  1.0000000E-01;  3.0962088E+02;3; -5.7912159E-01;  0.0000000E+00;  1.9795101E+00;0;  1.6658448E-03;  4.0042176E+04;  0.0000000E+00;  8.6701894E-01;  4.0000000E+04;  0.0000000E+00;  3.9988902E+04;  1.3862045E-03;  0.0000000E+00;  2.7964037E-04;  1.9523831E+03;
  2.4061354E-01;  9.9999998E-03;  2.2000439E-01;3962; -2.4701548E-03;  0.0000000E+00;  1.2441193E-04;  1.0004231E+03;  1.0000000E-01;  3.5050861E+02;3; -1.7041031E+00;  0.0000000E+00;  3.1178503E+00;0;  1.8980561E-03;  4.0045391E+04;  0.0000000E+00;  1.7058089E+00;  4.0000000E+04;  0.0000000E+00;  3.9991359E+04;  1.5616843E-03;  0.0000000E+00;  3.3637189E-04;  2.8327097E+03;
  2.4059543E-01;  9.9999998E-03;  2.3002768E-01;3963; -2.6766972E-03;  0.0000000E+00;  7.4631615E-05;  1.0004397E+03;  1.0000000E-01;  3.6423660E+02;3; -3.1583064E+00;  0.0000000E+00;  4.5282774E+00;0;  1.9107516E-03;  4.0047504E+04;  0.0000000E+00;  2.8646693E+00;  4.0000000E+04;  0.0000000E+00;  3.9992277E+04;  1.5093199E-03;  0.0000000E+00;  4.0143172E-04;  4.4771216E+03;
  2.5107408E-01;  9.9999998E-03;  7.0013873E-02;4008; -3.1104155E-03;  0.0000000E+00;  6.1663908E-05;  1.0012267E+03;  1.0000000E-01;  1.0163663E+03;3;  7.1606237E-01;  0.0000000E+00;  9.3562499E-02;0; -8.5039664E-04;  4.0113031E+04;  0.0000000E+00;  8.9806691E-02;  4.0000000E+04;  0.0000000E+00;  3.9984438E+04; -6.2508334E-04;  0.0000000E+00; -2.2531331E-04;  2.0621216E+03;
  2.5114411E-01;  9.9999998E-03;  8.0014624E-02;4009; -3.2110538E-03;  0.0000000E+00;  3.7332280E-05;  1.0012216E+03;  1.0000000E-01;  1.0120208E+03;3;  6.9307011E-01;  0.0000000E+00;  9.4536006E-02;0; -7.1583572E-04;  4.0112504E+04;  0.0000000E+00;  1.1207471E-01;  4.0000000E+04;  0.0000000E+00;  3.9984309E+04; -5.7987531E-04;  0.0000000E+00; -1.3596041E-04;  2.0622380E+03;
  2.5121549E-01;  9.9999998E-03;  9.0010524E-02;4010; -3.2760494E-03;  0.0000000E+00;  6.3572670E-06;  1.0011937E+03;  1.0000000E-01;  9.8900909E+02;3;  6.7610145E-01;  0.0000000E+00;  9.5179088E-02;0; -5.6103180E-04;  4.0109586E+04;  0.0000000E+00;  1.3955262E-01;  4.0000000E+04;  0.0000000E+00;  3.9984785E+04; -5.5379001E-04;  0.0000000E+00; -7.2417638E-06;  1.9963458E+03;
  2.5128675E-01;  9.9999998E-03;  1.0000376E-01;4011; -3.2991644E-03;  0.0000000E+00; -2.4164103E-05;  1.0011414E+03;  1.0000000E-01;  9.4555353E+02;3;  6.6157693E-01;  0.0000000E+00;  9.6759185E-02;0; -3.9221236E-04;  4.0104242E+04;  0.0000000E+00;  1.7621203E-01;  4.0000000E+04;  0.0000000E+00;  3.9985801E+04; -5.3944171E-04;  0.0000000E+00;  1.4722937E-04;  1.8883307E+03;
  2.5135565E-01;  9.9999998E-03;  1.0999726E-01;4012; -3.2724771E-03;  0.0000000E+00; -4.6722234E-05;  1.0010535E+03;  1.0000000E-01;  8.7286420E+02;3;  6.4728016E-01;  0.0000000E+00;  9.6912816E-02;0; -2.1662470E-04;  4.0095828E+04;  0.0000000E+00;  2.2573543E-01;  4.0000000E+04;  0.0000000E+00;  3.9986844E+04; -5.2455289E-04;  0.0000000E+00;  3.0792819E-04;  1.7655476E+03;
  2.5142011E-01;  9.9999998E-03;  1.1999234E-01;4013; -3.1927279E-03;  0.0000000E+00; -5.0261395E-05;  1.0009358E+03;  1.0000000E-01;  7.7528674E+02;3;  6.3533044E-01;  0.0000000E+00;  9.1522329E-02;0; -4.2073545E-05;  4.0085387E+04;  0.0000000E+00;  2.8938732E-01;  4.0000000E+04;  0.0000000E+00;  3.9987754E+04; -4.9376127E-04;  0.0000000E+00;  4.5168772E-04;  1.6532563E+03;
  2.5147149E-01;  9.9999998E-03;  1.2999007E-01;4014; -3.0532381E-03;  0.0000000E+00; -1.7616516E-05;  1.0007924E+03;  1.0000000E-01;  6.5647528E+02;3;  6.2517732E-01;  0.0000000E+00;  9.6360028E-02;0;  1.2339349E-04;  4.0072680E+04;  0.0000000E+00;  3.6355704E-01;  4.0000000E+04;  0.0000000E+00;  3.9988828E+04; -4.3143431E-04;  0.0000000E+00;  5.5482780E-04;  1.5698424E+03;
  2.5148284E-01;  9.9999998E-03;  1.3999230E-01;4015; -2.8496229E-03;  0.0000000E+00;  8.1763108E-05;  1.0006338E+03;  1.0000000E-01;  5.2512097E+02;3;  6.8070787E-01;  0.0000000E+00;  1.5138032E-01;0;  2.7482299E-04;  4.0058824E+04;  0.0000000E+00;  4.3751806E-01;  4.0000000E+04;  0.0000000E+00;  3.9989480E+04; -3.2359827E-04;  0.0000000E+00;  5.9842126E-04;  1.5213466E+03;
  2.5144094E-01;  9.9999998E-03;  1.5000221E-01;4016; -2.6723591E-03;  0.0000000E+00;  2.0824003E-04;  1.0004726E+03;  1.0000000E-01;  3.9149509E+02;3;  7.3870176E-01;  0.0000000E+00;  1.8328002E-01;0;  4.1995605E-04;  4.0045215E+04;  0.0000000E+00;  4.9288747E-01;  4.0000000E+04;  0.0000000E+00;  3.9989801E+04; -1.5459491E-04;  0.0000000E+00;  5.7455094E-04;  1.4984846E+03;
  2.5133082E-01;  9.9999998E-03;  1.6001731E-01;4017; -2.5274546E-03;  0.0000000E+00;  2.8520220E-04;  1.0003165E+03;  1.0000000E-01;  2.6221481E+02;3;  7.5742018E-01;  0.0000000E+00;  1.8512423E-01;0;  5.7880959E-04;  4.0032824E+04;  0.0000000E+00;  5.0730467E-01;  4.0000000E+04;  0.0000000E+00;  3.9990336E+04;  8.6170745E-05;  0.0000000E+00;  4.9263885E-04;  1.4821320E+03;
  2.5117835E-01;  9.9999998E-03;  1.7002906E-01;4018; -2.4051771E-03;  0.0000000E+00;  3.1907155E-04;  1.0001885E+03;  1.0000000E-01;  1.5614374E+02;3;  7.7995956E-01;  0.0000000E+00;  1.9349450E-01;0;  7.8158750E-04;  4.0022867E+04;  0.0000000E+00;  4.7139955E-01;  4.0000000E+04;  0.0000000E+00;  3.9989840E+04;  4.0150815E-04;  0.0000000E+00;  3.8007935E-04;  1.4700260E+03;
  2.5102243E-01;  9.9999998E-03;  1.8002670E-01;4019; -2.2975598E-03;  0.0000000E+00;  3.1975404E-04;  1.0000891E+03;  1.0000000E-01;  7.3775688E+01;3;  7.5892729E-01;  0.0000000E+00;  2.7124810E-01;0;  1.0524546E-03;  4.0015688E+04;  0.0000000E+00;  4.1159037E-01;  4.0000000E+04;  0.0000000E+00;  3.9989234E+04;  7.8110030E-04;  0.0000000E+00;  2.7135431E-04;  1.4815377E+03;
  2.5088376E-01;  9.9999998E-03;  1.9001006E-01;4020; -2.2177096E-03;  0.0000000E+00;  3.0037231E-04;  1.0000280E+03;  1.0000000E-01;  2.3209221E+01;3;  6.3995004E-01;  0.0000000E+00;  4.7150764E-01;0;  1.3981152E-03;  4.0011801E+04;  0.0000000E+00;  3.9185092E-01;  4.0000000E+04;  0.0000000E+00;  3.9988852E+04;  1.2010719E-03;  0.0000000E+00;  1.9704334E-04;  1.5085256E+03;
  2.5076929E-01;  9.9999998E-03;  1.9998650E-01;4021; -2.1728892E-03;  0.0000000E+00;  2.6749025E-04;  1.0000144E+03;  1.0000000E-01;  1.1950279E+01;3;  3.4814024E-01;  0.0000000E+00;  8.5068655E-01;0;  1.8029279E-03;  4.0011156E+04;  0.0000000E+00;  4.9717137E-01;  4.0000000E+04;  0.0000000E+00;  3.9989523E+04;  1.6271877E-03;  0.0000000E+00;  1.7574018E-04;  1.5050209E+03;
  2.5068149E-01;  9.9999998E-03;  2.0996739E-01;4022; -2.1658300E-03;  0.0000000E+00;  2.3064797E-04;  1.0000558E+03;  1.0000000E-01;  4.6220917E+01;3; -1.6704945E-01;  0.0000000E+00;  1.4644880E+00;0;  2.2313474E-03;  4.0013266E+04;  0.0000000E+00;  8.1218708E-01;  4.0000000E+04;  0.0000000E+00;  3.9991906E+04;  2.0170864E-03;  0.0000000E+00;  2.1426106E-04;  1.5816211E+03;
  2.5062987E-01;  9.9999998E-03;  2.1996370E-01;4023; -2.2004284E-03;  0.0000000E+00;  2.2323000E-04;  1.0001420E+03;  1.0000000E-01;  1.1762630E+02;3; -9.7579545E-01;  0.0000000E+00;  2.4081075E+00;0;  2.6705361E-03;  4.0017500E+04;  0.0000000E+00;  1.3954480E+00;  4.0000000E+04;  0.0000000E+00;  3.9996367E+04;  2.3210505E-03;  0.0000000E+00;  3.4948555E-04;  2.1824646E+03;
  2.5060421E-01;  9.9999998E-03;  2.2998689E-01;4024; -2.2777077E-03;  0.0000000E+00;  2.4874468E-04;  1.0002162E+03;  1.0000000E-01;  1.7915543E+02;3; -2.1943905E+00;  0.0000000E+00;  3.6257174E+00;0;  3.1194314E-03;  4.0023363E+04;  0.0000000E+00;  2.2659509E+00;  4.0000000E+04;  0.0000000E+00;  3.9998637E+04;  2.4808389E-03;  0.0000000E+00;  6.3859258E-04;  3.4766870E+03;
  2.6101425E-01;  9.9999998E-03;  7.0015803E-02;4069; -2.8992307E-03;  0.0000000E+00;  6.2600834E-06;  1.0011086E+03;  1.0000000E-01;  9.1839380E+02;3;  8.5408413E-01;  0.0000000E+00;  4.7967192E-02;0;  5.5917335E-05;  4.0103598E+04;  0.0000000E+00;  7.7725224E-02;  4.0000000E+04;  0.0000000E+00;  3.9985242E+04;  3.6506864E-04;  0.0000000E+00; -3.0915131E-04;  1.9503829E+03;
  2.6106197E-01;  9.9999998E-03;  8.0018573E-02;4070; -3.0309621E-03;  0.0000000E+00;  9.4094003E-06;  1.0011508E+03;  1.0000000E-01;  9.5345453E+02;3;  7.4830693E-01;  0.0000000E+00;  8.4202647E-02;0;  2.3286477E-04;  4.0107281E+04;  0.0000000E+00;  9.5863245E-02;  4.0000000E+04;  0.0000000E+00;  3.9985305E+04;  4.5154474E-04;  0.0000000E+00; -2.1867997E-04;  1.9802871E+03;
  2.6112238E-01;  9.9999998E-03;  9.0016432E-02;4071; -3.1338320E-03;  0.0000000E+00; -6.5947065E-06;  1.0011707E+03;  1.0000000E-01;  9.6994788E+02;3;  6.9828939E-01;  0.0000000E+00;  9.2126660E-02;0;  4.0842927E-04;  4.0108352E+04;  0.0000000E+00;  1.1887685E-01;  4.0000000E+04;  0.0000000E+00;  3.9985457E+04;  4.9685064E-04;  0.0000000E+00; -8.8421373E-05;  1.9427699E+03;
  2.6119485E-01;  9.9999998E-03;  1.0001133E-01;4072; -3.1875910E-03;  0.0000000E+00; -3.0161780E-05;  1.0011531E+03;  1.0000000E-01;  9.5533099E+02;3;  6.7672807E-01;  0.0000000E+00;  9.7289540E-02;0;  5.7291851E-04;  4.0106422E+04;  0.0000000E+00;  1.5159762E-01;  4.0000000E+04;  0.0000000E+00;  3.9986176E+04;  5.0414185E-04;  0.0000000E+00;  6.8776681E-05;  1.8538439E+03;
  2.6127687E-01;  9.9999998E-03;  1.1000494E-01;4073; -3.1832687E-03;  0.0000000E+00; -4.9731840E-05;  1.0011031E+03;  1.0000000E-01;  9.1385071E+02;3;  6.6108483E-01;  0.0000000E+00;  9.9363595E-02;0;  7.1773247E-04;  4.0100922E+04;  0.0000000E+00;  1.9943297E-01;  4.0000000E+04;  0.0000000E+00;  3.9987281E+04;  4.8384522E-04;  0.0000000E+00;  2.3388729E-04;  1.7357493E+03;
  2.6136285E-01;  9.9999998E-03;  1.1999868E-01;4074; -3.1173541E-03;  0.0000000E+00; -5.1145704E-05;  1.0010072E+03;  1.0000000E-01;  8.3444556E+02;3;  6.4634514E-01;  0.0000000E+00;  9.9722050E-02;0;  8.3572289E-04;  4.0091828E+04;  0.0000000E+00;  2.6652277E-01;  4.0000000E+04;  0.0000000E+00;  3.9988086E+04;  4.5195650E-04;  0.0000000E+00;  3.8376640E-04;  1.6130295E+03;
  2.6143748E-01;  9.9999998E-03;  1.2999237E-01;4075; -2.9787994E-03;  0.0000000E+00; -8.5165339E-06;  1.0008710E+03;  1.0000000E-01;  7.2155981E+02;3;  6.4573616E-01;  0.0000000E+00;  1.0750525E-01;0;  9.2170155E-04;  4.0079324E+04;  0.0000000E+00;  3.5323554E-01;  4.0000000E+04;  0.0000000E+00;  3.9989312E+04;  4.2738044E-04;  0.0000000E+00;  4.9432111E-04;  1.5094950E+03;
  2.6148778E-01;  9.9999998E-03;  1.3998893E-01;4076; -2.8003706E-03;  0.0000000E+00;  1.0275331E-04;  1.0006965E+03;  1.0000000E-01;  5.7697131E+02;3;  7.3827720E-01;  0.0000000E+00;  1.8670730E-01;0;  9.7773655E-04;  4.0064266E+04;  0.0000000E+00;  4.5341161E-01;  4.0000000E+04;  0.0000000E+00;  3.9990191E+04;  4.3214828E-04;  0.0000000E+00;  5.4558826E-04;  1.4438289E+03;
  2.6148584E-01;  9.9999998E-03;  1.4998901E-01;4077; -2.6541215E-03;  0.0000000E+00;  2.0046889E-04;  1.0005027E+03;  1.0000000E-01;  4.1648206E+02;3;  7.6675248E-01;  0.0000000E+00;  1.8219084E-01;0;  1.0171829E-03;  4.0047492E+04;  0.0000000E+00;  5.5237001E-01;  4.0000000E+04;  0.0000000E+00;  3.9990816E+04;  4.8921205E-04;  0.0000000E+00;  5.2797090E-04;  1.4184922E+03;
  2.6141688E-01;  9.9999998E-03;  1.5999371E-01;4078; -2.5245748E-03;  0.0000000E+00;  2.5287326E-04;  1.0003022E+03;  1.0000000E-01;  2.5036330E+02;3;  7.8371209E-01;  0.0000000E+00;  1.6756399E-01;0;  1.0690117E-03;  4.0030461E+04;  0.0000000E+00;  6.2764651E-01;  4.0000000E+04;  0.0000000E+00;  3.9991297E+04;  6.1929360E-04;  0.0000000E+00;  4.4971818E-04;  1.4140770E+03;
  2.6129234E-01;  9.9999998E-03;  1.7000082E-01;4079; -2.3999566E-03;  0.0000000E+00;  2.7468835E-04;  1.0001075E+03;  1.0000000E-01;  8.9083900E+01;3;  8.2541901E-01;  0.0000000E+00;  1.5104444E-01;0;  1.1709719E-03;  4.0015020E+04;  0.0000000E+00;  6.5660363E-01;  4.0000000E+04;  0.0000000E+00;  3.9991668E+04;  8.3535281E-04;  0.0000000E+00;  3.3561906E-04;  1.4023601E+03;
  2.6113796E-01;  9.9999998E-03;  1.8000264E-01;4080; -2.2874970E-03;  0.0000000E+00;  2.7509907E-04;  9.9994397E+02;  1.0000000E-01; -4.6418442E+01;3;  8.2747096E-01;  0.0000000E+00;  1.8881837E-01;0;  1.3548476E-03;  4.0002098E+04;  0.0000000E+00;  6.3907146E-01;  4.0000000E+04;  0.0000000E+00;  3.9991777E+04;  1.1368719E-03;  0.0000000E+00;  2.1797570E-04;  1.3761074E+03;
  2.6097995E-01;  9.9999998E-03;  1.8999361E-01;4081; -2.1992568E-03;  0.0000000E+00;  2.5702099E-04;  9.9982538E+02;  1.0000000E-01; -1.4468727E+02;3;  7.5281835E-01;  0.0000000E+00;  3.0870211E-01;0;  1.6344804E-03;  3.9993141E+04;  0.0000000E+00;  6.0920942E-01;  4.0000000E+04;  0.0000000E+00;  3.9991773E+04;  1.5085860E-03;  0.0000000E+00;  1.2589448E-04;  1.3446713E+03;
  2.6083669E-01;  9.9999998E-03;  1.9997470E-01;4082; -2.1400035E-03;  0.0000000E+00;  2.1936290E-04;  9.9976733E+02;  1.0000000E-01; -1.9273529E+02;3;  5.5338216E-01;  0.0000000E+00;  5.6247461E-01;0;  1.9962597E-03;  3.9988371E+04;  0.0000000E+00;  6.2850553E-01;  4.0000000E+04;  0.0000000E+00;  3.9992586E+04;  1.9225429E-03;  0.0000000E+00;  7.3716757E-05;  1.2984255E+03;
  2.6072091E-01;  9.9999998E-03;  2.0995300E-01;4083; -2.1135707E-03;  0.0000000E+00;  1.8504387E-04;  9.9978680E+02;  1.0000000E-01; -1.7663698E+02;3;  1.7116515E-01;  0.0000000E+00;  1.0139927E+00;0;  2.4138698E-03;  3.9988426E+04;  0.0000000E+00;  7.7162027E-01;  4.0000000E+04;  0.0000000E+00;  3.9995363E+04;  2.3410455E-03;  0.0000000E+00;  7.2824194E-05;  1.2919937E+03;
  2.6064509E-01;  9.9999998E-03;  2.1994314E-01;4084; -2.1213235E-03;  0.0000000E+00;  1.8949207E-04;  9.9987695E+02;  1.0000000E-01; -1.0192304E+02;3; -4.4600412E-01;  0.0000000E+00;  1.7231244E+00;0;  2.8972956E-03;  3.9992809E+04;  0.0000000E+00;  1.1079735E+00;  4.0000000E+04;  0.0000000E+00;  4.0000406E+04;  2.7193755E-03;  0.0000000E+00;  1.7792008E-04;  1.6953180E+03;
  2.6061299E-01;  9.9999998E-03;  2.2996029E-01;4085; -2.1611091E-03;  0.0000000E+00;  2.5472572E-04;  9.9999414E+02;  1.0000000E-01; -4.8393693E+00;3; -1.3850892E+00;  0.0000000E+00;  2.6984534E+00;0;  3.5377149E-03;  4.0000457E+04;  0.0000000E+00;  1.6679245E+00;  4.0000000E+04;  0.0000000E+00;  4.0003668E+04;  3.0078813E-03;  0.0000000E+00;  5.2983366E-04;  2.6117227E+03;
  2.7101701E-01;  9.9999998E-03;  7.0010714E-02;4130; -2.7138619E-03;  0.0000000E+00; -5.1615476E-05;  1.0009327E+03;  1.0000000E-01;  7.7271887E+02;3;  1.1103872E+00;  0.0000000E+00; -2.1408951E-02;0;  5.4715760E-04;  4.0089199E+04;  0.0000000E+00;  4.9948573E-02;  4.0000000E+04;  0.0000000E+00;  3.9986375E+04;  9.7084692E-04;  0.0000000E+00; -4.2368929E-04;  1.7987086E+03;
  2.7104756E-01;  9.9999998E-03;  8.0015868E-02;4131; -2.8110461E-03;  0.0000000E+00; -5.7442783E-05;  1.0010251E+03;  1.0000000E-01;  8.4925995E+02;3;  9.8810738E-01;  0.0000000E+00; -9.6714944E-03;0;  7.7948917E-04;  4.0096957E+04;  0.0000000E+00;  6.0534399E-02;  4.0000000E+04;  0.0000000E+00;  3.9985773E+04;  1.1135746E-03;  0.0000000E+00; -3.3408546E-04;  1.8588530E+03;
  2.7108732E-01;  9.9999998E-03;  9.0017729E-02;4132; -2.9261701E-03;  0.0000000E+00; -5.0585168E-05;  1.0010960E+03;  1.0000000E-01;  9.0802368E+02;3;  8.4657389E-01;  0.0000000E+00;  3.8003720E-02;0;  9.8984991E-04;  4.0102562E+04;  0.0000000E+00;  7.5553417E-02;  4.0000000E+04;  0.0000000E+00;  3.9985934E+04;  1.1956942E-03;  0.0000000E+00; -2.0584426E-04;  1.8530770E+03;
  2.7114320E-01;  9.9999998E-03;  1.0001593E-01;4133; -3.0209115E-03;  0.0000000E+00; -5.0331124E-05;  1.0011321E+03;  1.0000000E-01;  9.3794879E+02;3;  7.4521244E-01;  0.0000000E+00;  7.0759386E-02;0;  1.1650228E-03;  4.0104637E+04;  0.0000000E+00;  1.0025374E-01;  4.0000000E+04;  0.0000000E+00;  3.9986465E+04;  1.2160495E-03;  0.0000000E+00; -5.1026727E-05;  1.7882124E+03;
  2.7121592E-01;  9.9999998E-03;  1.1001194E-01;4134; -3.0591639E-03;  0.0000000E+00; -6.0491802E-05;  1.0011234E+03;  1.0000000E-01;  9.3064032E+02;3;  6.9755888E-01;  0.0000000E+00;  8.2095370E-02;0;  1.2948883E-03;  4.0102953E+04;  0.0000000E+00;  1.4103389E-01;  4.0000000E+04;  0.0000000E+00;  3.9987434E+04;  1.1827920E-03;  0.0000000E+00;  1.1209636E-04;  1.6791428E+03;
  2.7129865E-01;  9.9999998E-03;  1.2000716E-01;4135; -3.0212165E-03;  0.0000000E+00; -5.7351663E-05;  1.0010647E+03;  1.0000000E-01;  8.8204913E+02;3;  6.7813534E-01;  0.0000000E+00;  8.6297274E-02;0;  1.3730936E-03;  4.0096852E+04;  0.0000000E+00;  2.0398761E-01;  4.0000000E+04;  0.0000000E+00;  3.9988691E+04;  1.1119125E-03;  0.0000000E+00;  2.6118106E-04;  1.5467941E+03;
  2.7138153E-01;  9.9999998E-03;  1.3000193E-01;4136; -2.9088727E-03;  0.0000000E+00; -1.2046576E-05;  1.0009485E+03;  1.0000000E-01;  7.8585431E+02;3;  7.0866650E-01;  0.0000000E+00;  1.3004123E-01;0;  1.3986344E-03;  4.0086266E+04;  0.0000000E+00;  2.9263896E-01;  4.0000000E+04;  0.0000000E+00;  3.9989875E+04;  1.0255950E-03;  0.0000000E+00;  3.7303945E-04;  1.4176796E+03;
  2.7144462E-01;  9.9999998E-03;  1.3999628E-01;4137; -2.7855551E-03;  0.0000000E+00;  6.7271234E-05;  1.0007867E+03;  1.0000000E-01;  6.5183344E+02;3;  7.6516956E-01;  0.0000000E+00;  1.7747918E-01;0;  1.3789886E-03;  4.0071707E+04;  0.0000000E+00;  4.0504178E-01;  4.0000000E+04;  0.0000000E+00;  3.9991020E+04;  9.5072511E-04;  0.0000000E+00;  4.2826353E-04;  1.3220204E+03;
  2.7146548E-01;  9.9999998E-03;  1.4999115E-01;4138; -2.6638790E-03;  0.0000000E+00;  1.3910317E-04;  1.0005841E+03;  1.0000000E-01;  4.8393692E+02;3;  7.8217405E-01;  0.0000000E+00;  1.6188306E-01;0;  1.3339135E-03;  4.0053645E+04;  0.0000000E+00;  5.3106850E-01;  4.0000000E+04;  0.0000000E+00;  3.9991938E+04;  9.1642950E-04;  0.0000000E+00;  4.1748409E-04;  1.2826133E+03;
  2.7143434E-01;  9.9999998E-03;  1.5998916E-01;4139; -2.5447628E-03;  0.0000000E+00;  1.7927504E-04;  1.0003535E+03;  1.0000000E-01;  2.9292999E+02;3;  8.1197816E-01;  0.0000000E+00;  1.3370430E-01;0;  1.2979127E-03;  4.0034055E+04;  0.0000000E+00;  6.5196818E-01;  4.0000000E+04;  0.0000000E+00;  3.9992703E+04;  9.5093821E-04;  0.0000000E+00;  3.4697450E-04;  1.2958893E+03;
  2.7135262E-01;  9.9999998E-03;  1.6999117E-01;4140; -2.4245249E-03;  0.0000000E+00;  1.9699825E-04;  1.0001188E+03;  1.0000000E-01;  9.8367592E+01;3;  8.5515499E-01;  0.0000000E+00;  1.1422874E-01;0;  1.3134325E-03;  4.0014438E+04;  0.0000000E+00;  7.4092573E-01;  4.0000000E+04;  0.0000000E+00;  3.9993660E+04;  1.0755520E-03;  0.0000000E+00;  2.3788046E-04;  1.3252795E+03;
  2.7123070E-01;  9.9999998E-03;  1.7999268E-01;4141; -2.3137559E-03;  0.0000000E+00;  1.9748435E-04;  9.9990320E+02;  1.0000000E-01; -8.0195259E+01;3;  8.6990058E-01;  0.0000000E+00;  1.2283710E-01;0;  1.4173459E-03;  3.9996941E+04;  0.0000000E+00;  7.7786827E-01;  4.0000000E+04;  0.0000000E+00;  3.9994004E+04;  1.2989361E-03;  0.0000000E+00;  1.1840992E-04;  1.3299739E+03;
  2.7108663E-01;  9.9999998E-03;  1.8998741E-01;4142; -2.2217464E-03;  0.0000000E+00;  1.8006354E-04;  9.9972498E+02;  1.0000000E-01; -2.2784541E+02;3;  8.3319420E-01;  0.0000000E+00;  1.9102043E-01;0;  1.6284828E-03;  3.9982773E+04;  0.0000000E+00;  7.6716834E-01;  4.0000000E+04;  0.0000000E+00;  3.9994273E+04;  1.6146438E-03;  0.0000000E+00;  1.3839026E-05;  1.2934890E+03;
  2.7093834E-01;  9.9999998E-03;  1.9997360E-01;4143; -2.1536758E-03;  0.0000000E+00;  1.4928319E-04;  9.9961206E+02;  1.0000000E-01; -3.2142300E+02;3;  7.0600891E-01;  0.0000000E+00;  3.5720560E-01;0;  1.9407696E-03;  3.9973660E+04;  0.0000000E+00;  7.4065274E-01;  4.0000000E+04;  0.0000000E+00;  3.9995090E+04;  2.0020206E-03;  0.0000000E+00; -6.1251048E-05;  1.2175358E+03;
  2.7080372E-01;  9.9999998E-03;  2.0995377E-01;4144; -2.1136592E-03;  0.0000000E+00;  1.2043163E-04;  9.9958484E+02;  1.0000000E-01; -3.4394089E+02;3;  4.4077146E-01;  0.0000000E+00;  6.5980518E-01;0;  2.3319710E-03;  3.9970473E+04;  0.0000000E+00;  7.5126392E-01;  4.0000000E+04;  0.0000000E+00;  3.9997867E+04;  2.4289154E-03;  0.0000000E+00; -9.6944423E-05;  1.1466240E+03;
  2.7069810E-01;  9.9999998E-03;  2.1993941E-01;4145; -2.1036447E-03;  0.0000000E+00;  1.2820134E-04;  9.9966022E+02;  1.0000000E-01; -2.8152289E+02;3; -6.9626924E-03;  0.0000000E+00;  1.1542405E+00;0;  2.8182433E-03;  3.9972832E+04;  0.0000000E+00;  8.6595416E-01;  4.0000000E+04;  0.0000000E+00;  4.0002570E+04;  2.8551975E-03;  0.0000000E+00; -3.6954079E-05;  1.3731755E+03;
  2.7063394E-01;  9.9999998E-03;  2.2994901E-01;4146; -2.1230471E-03;  0.0000000E+00;  1.9924002E-04;  9.9978461E+02;  1.0000000E-01; -1.7846408E+02;3; -7.0544696E-01;  0.0000000E+00;  1.8731357E+00;0;  3.5159374E-03;  3.9980730E+04;  0.0000000E+00;  1.1428142E+00;  4.0000000E+04;  0.0000000E+00;  4.0007160E+04;  3.2361383E-03;  0.0000000E+00;  2.7979910E-04;  1.9860066E+03;
  2.8098959E-01;  9.9999998E-03;  7.0009992E-02;4191; -2.6392287E-03;  0.0000000E+00; -6.7509864E-05;  1.0007393E+03;  1.0000000E-01;  6.1252588E+02;3;  1.1904664E+00;  0.0000000E+00; -2.2027610E-02;0;  6.6415232E-04;  4.0073254E+04;  0.0000000E+00;  1.5008354E-02;  4.0000000E+04;  0.0000000E+00;  3.9987324E+04;  1.2333202E-03;  0.0000000E+00; -5.6916790E-04;  1.6287788E+03;
  2.8102025E-01;  9.9999998E-03;  8.0012679E-02;4192; -2.6965903E-03;  0.0000000E+00; -8.3791871E-05;  1.0008721E+03;  1.0000000E-01;  7.2244873E+02;3;  1.1486913E+00;  0.0000000E+00; -3.2650597E-02;0;  9.5499388E-04;  4.0084578E+04;  0.0000000E+00;  1.5569218E-02;  4.0000000E+04;  0.0000000E+00;  3.9986785E+04;  1.4384551E-03;  0.0000000E+00; -4.8346119E-04;  1.7199171E+03;
  2.8105766E-01;  9.9999998E-03;  9.0015456E-02;4193; -2.7709801E-03;  0.0000000E+00; -9.3925446E-05;  1.0009873E+03;  1.0000000E-01;  8.1795215E+02;3;  1.0539855E+00;  0.0000000E+00; -3.1938396E-02;0;  1.2100078E-03;  4.0093785E+04;  0.0000000E+00;  1.9736355E-02;  4.0000000E+04;  0.0000000E+00;  3.9986566E+04;  1.5712262E-03;  0.0000000E+00; -3.6121838E-04;  1.7507589E+03;
  2.8110483E-01;  9.9999998E-03;  1.0001725E-01;4194; -2.8600064E-03;  0.0000000E+00; -9.0017580E-05;  1.0010695E+03;  1.0000000E-01;  8.8609839E+02;3;  9.2699617E-01;  0.0000000E+00;  1.5683763E-03;0;  1.4104765E-03;  4.0100004E+04;  0.0000000E+00;  3.2886893E-02;  4.0000000E+04;  0.0000000E+00;  3.9987234E+04;  1.6243571E-03;  0.0000000E+00; -2.1388059E-04;  1.7184741E+03;
  2.8116417E-01;  9.9999998E-03;  1.1001738E-01;4195; -2.9237045E-03;  0.0000000E+00; -8.0062717E-05;  1.0011111E+03;  1.0000000E-01;  9.2046777E+02;3;  8.2401502E-01;  0.0000000E+00;  4.5196828E-02;0;  1.5438857E-03;  4.0102340E+04;  0.0000000E+00;  6.1851084E-02;  4.0000000E+04;  0.0000000E+00;  3.9987629E+04;  1.6024173E-03;  0.0000000E+00; -5.8531696E-05;  1.6289786E+03;
  2.8123352E-01;  9.9999998E-03;  1.2001586E-01;4196; -2.9312023E-03;  0.0000000E+00; -7.0685885E-05;  1.0010955E+03;  1.0000000E-01;  9.0762866E+02;3;  7.6476485E-01;  0.0000000E+00;  7.5244121E-02;0;  1.6047459E-03;  4.0099969E+04;  0.0000000E+00;  1.1381660E-01;  4.0000000E+04;  0.0000000E+00;  3.9988879E+04;  1.5206080E-03;  0.0000000E+00;  8.4137857E-05;  1.4960764E+03;
  2.8130475E-01;  9.9999998E-03;  1.3001299E-01;4197; -2.8768149E-03;  0.0000000E+00; -4.8458009E-05;  1.0010194E+03;  1.0000000E-01;  8.4451935E+02;3;  7.6699752E-01;  0.0000000E+00;  1.0704452E-01;0;  1.5955180E-03;  4.0092383E+04;  0.0000000E+00;  1.9441544E-01;  4.0000000E+04;  0.0000000E+00;  3.9990285E+04;  1.4025937E-03;  0.0000000E+00;  1.9292427E-04;  1.3431334E+03;
  2.8136474E-01;  9.9999998E-03;  1.4000864E-01;4198; -2.7920702E-03;  0.0000000E+00; -3.0373456E-06;  1.0008831E+03;  1.0000000E-01;  7.3163361E+02;3;  7.8410178E-01;  0.0000000E+00;  1.3388422E-01;0;  1.5284803E-03;  4.0079859E+04;  0.0000000E+00;  3.0506018E-01;  4.0000000E+04;  0.0000000E+00;  3.9991770E+04;  1.2781415E-03;  0.0000000E+00;  2.5033878E-04;  1.2053550E+03;
  2.8139800E-01;  9.9999998E-03;  1.5000291E-01;4199; -2.6897837E-03;  0.0000000E+00;  5.0470157E-05;  1.0006879E+03;  1.0000000E-01;  5.6995917E+02;3;  8.0010056E-01;  0.0000000E+00;  1.2713164E-01;0;  1.4277629E-03;  4.0062535E+04;  0.0000000E+00;  4.4003040E-01;  4.0000000E+04;  0.0000000E+00;  3.9992906E+04;  1.1802240E-03;  0.0000000E+00;  2.4753896E-04;  1.1253171E+03;
  2.8139505E-01;  9.9999998E-03;  1.5999757E-01;4200; -2.5820753E-03;  0.0000000E+00;  8.3991850E-05;  1.0004537E+03;  1.0000000E-01;  3.7589059E+02;3;  8.3185476E-01;  0.0000000E+00;  1.0150582E-01;0;  1.3303719E-03;  4.0041992E+04;  0.0000000E+00;  5.8537179E-01;  4.0000000E+04;  0.0000000E+00;  3.9994016E+04;  1.1418067E-03;  0.0000000E+00;  1.8856529E-04;  1.1287258E+03;
  2.8135583E-01;  9.9999998E-03;  1.6999604E-01;4201; -2.4708805E-03;  0.0000000E+00;  1.0066450E-04;  1.0001981E+03;  1.0000000E-01;  1.6414351E+02;3;  8.6719781E-01;  0.0000000E+00;  8.2776189E-02;0;  1.2808659E-03;  4.0020289E+04;  0.0000000E+00;  7.1787542E-01;  4.0000000E+04;  0.0000000E+00;  3.9995285E+04;  1.1905952E-03;  0.0000000E+00;  9.0270689E-05;  1.1934042E+03;
  2.8128055E-01;  9.9999998E-03;  1.7999621E-01;4202; -2.3656997E-03;  0.0000000E+00;  1.0469330E-04;  9.9994617E+02;  1.0000000E-01; -4.4591331E+01;3;  8.8665646E-01;  0.0000000E+00;  8.4824018E-02;0;  1.3195019E-03;  3.9999195E+04;  0.0000000E+00;  8.0853397E-01;  4.0000000E+04;  0.0000000E+00;  3.9995805E+04;  1.3432796E-03;  0.0000000E+00; -2.3777746E-05;  1.2589834E+03;
  2.8116873E-01;  9.9999998E-03;  1.8999267E-01;4203; -2.2749417E-03;  0.0000000E+00;  9.5475654E-05;  9.9972345E+02;  1.0000000E-01; -2.2912932E+02;3;  8.7642705E-01;  0.0000000E+00;  1.1997449E-01;0;  1.4706372E-03;  3.9981191E+04;  0.0000000E+00;  8.3917713E-01;  4.0000000E+04;  0.0000000E+00;  3.9996438E+04;  1.6018869E-03;  0.0000000E+00; -1.3124976E-04;  1.2734043E+03;
  2.8103927E-01;  9.9999998E-03;  1.9998112E-01;4204; -2.2025206E-03;  0.0000000E+00;  7.4065021E-05;  9.9955615E+02;  1.0000000E-01; -3.6774268E+02;3;  8.0699164E-01;  0.0000000E+00;  2.1547008E-01;0;  1.7346152E-03;  3.9967859E+04;  0.0000000E+00;  8.1275797E-01;  4.0000000E+04;  0.0000000E+00;  3.9997113E+04;  1.9535325E-03;  0.0000000E+00; -2.1891724E-04;  1.2137766E+03;
  2.8090736E-01;  9.9999998E-03;  2.0996383E-01;4205; -2.1513766E-03;  0.0000000E+00;  4.9760634E-05;  9.9947827E+02;  1.0000000E-01; -4.3223468E+02;3;  6.4182609E-01;  0.0000000E+00;  3.9931744E-01;0;  2.0921587E-03;  3.9960434E+04;  0.0000000E+00;  7.5435239E-01;  4.0000000E+04;  0.0000000E+00;  3.9999285E+04;  2.3727745E-03;  0.0000000E+00; -2.8061596E-04;  1.1115950E+03;
  2.8079018E-01;  9.9999998E-03;  2.1994792E-01;4206; -2.1245147E-03;  0.0000000E+00;  5.2952353E-05;  9.9950476E+02;  1.0000000E-01; -4.1030939E+02;3;  3.3814213E-01;  0.0000000E+00;  7.1511889E-01;0;  2.5538148E-03;  3.9959695E+04;  0.0000000E+00;  7.0915282E-01;  4.0000000E+04;  0.0000000E+00;  4.0003777E+04;  2.8250478E-03;  0.0000000E+00; -2.7123297E-04;  1.1913925E+03;
  2.8070480E-01;  9.9999998E-03;  2.2994943E-01;4207; -2.1234830E-03;  0.0000000E+00;  1.1869645E-04;  9.9961511E+02;  1.0000000E-01; -3.1885519E+02;3; -1.5023121E-01;  0.0000000E+00;  1.2076118E+00;0;  3.2481293E-03;  3.9965773E+04;  0.0000000E+00;  7.3193604E-01;  4.0000000E+04;  0.0000000E+00;  4.0008535E+04;  3.2705762E-03;  0.0000000E+00; -2.2446857E-05;  1.5841974E+03;
  2.9100257E-01;  9.9999998E-03;  7.0010290E-02;4252; -2.6204041E-03;  0.0000000E+00; -7.0245507E-05;  1.0005676E+03;  1.0000000E-01;  4.7020892E+02;3;  1.2256503E+00;  0.0000000E+00; -1.1978927E-02;0;  5.0222786E-04;  4.0058430E+04;  0.0000000E+00; -1.7032092E-02;  4.0000000E+04;  0.0000000E+00;  3.9988844E+04;  1.2471611E-03;  0.0000000E+00; -7.4493320E-04;  1.4574032E+03;
  2.9100117E-01;  9.9999998E-03;  8.0014497E-02;4253; -2.6572156E-03;  0.0000000E+00; -8.8830791E-05;  1.0007228E+03;  1.0000000E-01;  5.9889667E+02;3;  1.2017639E+00;  0.0000000E+00; -2.0645957E-02;0;  8.4666110E-04;  4.0071992E+04;  0.0000000E+00; -2.7116103E-02;  4.0000000E+04;  0.0000000E+00;  3.9987770E+04;  1.5120169E-03;  0.0000000E+00; -6.6535576E-04;  1.5780853E+03;
  2.9101917E-01;  9.9999998E-03;  9.0017252E-02;4254; -2.7049594E-03;  0.0000000E+00; -1.0516559E-04;  1.0008656E+03;  1.0000000E-01;  7.1711554E+02;3;  1.1558387E+00;  0.0000000E+00; -3.2640498E-02;0;  1.1470716E-03;  4.0084270E+04;  0.0000000E+00; -3.5145082E-02;  4.0000000E+04;  0.0000000E+00;  3.9987375E+04;  1.6995243E-03;  0.0000000E+00; -5.5245281E-04;  1.6495413E+03;
  2.9105189E-01;  9.9999998E-03;  1.0001977E-01;4255; -2.7725694E-03;  0.0000000E+00; -1.1355402E-04;  1.0009865E+03;  1.0000000E-01;  8.1726086E+02;3;  1.0584877E+00;  0.0000000E+00; -2.7329050E-02;0;  1.3813208E-03;  4.0093828E+04;  0.0000000E+00; -3.5828166E-02;  4.0000000E+04;  0.0000000E+00;  3.9987375E+04;  1.7978281E-03;  0.0000000E+00; -4.1650736E-04;  1.6593367E+03;
  2.9109648E-01;  9.9999998E-03;  1.1002242E-01;4256; -2.8484864E-03;  0.0000000E+00; -1.0677197E-04;  1.0010685E+03;  1.0000000E-01;  8.8530829E+02;3;  9.3607670E-01;  0.0000000E+00;  9.2830900E-03;0;  1.5340357E-03;  4.0099625E+04;  0.0000000E+00; -2.2280116E-02;  4.0000000E+04;  0.0000000E+00;  3.9988070E+04;  1.8071558E-03;  0.0000000E+00; -2.7312012E-04;  1.6034065E+03;
  2.9115072E-01;  9.9999998E-03;  1.2002413E-01;4257; -2.8888818E-03;  0.0000000E+00; -9.5496660E-05;  1.0010966E+03;  1.0000000E-01;  9.0851752E+02;3;  8.3624631E-01;  0.0000000E+00;  5.3474940E-02;0;  1.5995986E-03;  4.0101020E+04;  0.0000000E+00;  1.3169490E-02;  4.0000000E+04;  0.0000000E+00;  3.9988918E+04;  1.7402510E-03;  0.0000000E+00; -1.4065240E-04;  1.4865430E+03;
  2.9120919E-01;  9.9999998E-03;  1.3002421E-01;4258; -2.8713939E-03;  0.0000000E+00; -8.7706714E-05;  1.0010647E+03;  1.0000000E-01;  8.8204913E+02;3;  7.9446572E-01;  0.0000000E+00;  7.7312015E-02;0;  1.5826303E-03;  4.0096824E+04;  0.0000000E+00;  7.7405386E-02;  4.0000000E+04;  0.0000000E+00;  3.9990180E+04;  1.6200526E-03;  0.0000000E+00; -3.7422298E-05;  1.3239823E+03;
  2.9126361E-01;  9.9999998E-03;  1.4002214E-01;4259; -2.8105397E-03;  0.0000000E+00; -7.1309834E-05;  1.0009603E+03;  1.0000000E-01;  7.9553308E+02;3;  7.9865485E-01;  0.0000000E+00;  8.5147381E-02;0;  1.4981164E-03;  4.0087113E+04;  0.0000000E+00;  1.7427406E-01;  4.0000000E+04;  0.0000000E+00;  3.9991836E+04;  1.4767058E-03;  0.0000000E+00;  2.1410608E-05;  1.1455615E+03;
  2.9130280E-01;  9.9999998E-03;  1.5001756E-01;4260; -2.7265581E-03;  0.0000000E+00; -4.3617296E-05;  1.0007979E+03;  1.0000000E-01;  6.6101837E+02;3;  8.1444263E-01;  0.0000000E+00;  8.3222874E-02;0;  1.3722902E-03;  4.0071797E+04;  0.0000000E+00;  3.0186537E-01;  4.0000000E+04;  0.0000000E+00;  3.9993281E+04;  1.3446972E-03;  0.0000000E+00;  2.7593045E-05;  1.0002039E+03;
  2.9131901E-01;  9.9999998E-03;  1.6001202E-01;4261; -2.6307153E-03;  0.0000000E+00; -1.5101687E-05;  1.0005783E+03;  1.0000000E-01;  4.7909756E+02;3;  8.4007609E-01;  0.0000000E+00;  7.4437261E-02;0;  1.2429205E-03;  4.0052082E+04;  0.0000000E+00;  4.5087576E-01;  4.0000000E+04;  0.0000000E+00;  3.9994910E+04;  1.2596158E-03;  0.0000000E+00; -1.6695281E-05;  9.4561786E+02;
  2.9131296E-01;  9.9999998E-03;  1.7000854E-01;4262; -2.5302132E-03;  0.0000000E+00;  2.8323279E-06;  1.0003204E+03;  1.0000000E-01;  2.6547397E+02;3;  8.6982971E-01;  0.0000000E+00;  6.5678656E-02;0;  1.1543077E-03;  4.0030156E+04;  0.0000000E+00;  6.0463458E-01;  4.0000000E+04;  0.0000000E+00;  3.9996344E+04;  1.2533638E-03;  0.0000000E+00; -9.9056102E-05;  1.0008552E+03;
  2.9128078E-01;  9.9999998E-03;  1.8000759E-01;4263; -2.4322595E-03;  0.0000000E+00;  1.2410292E-05;  1.0000523E+03;  1.0000000E-01;  4.3356800E+01;3;  8.9076734E-01;  0.0000000E+00;  6.5098189E-02;0;  1.1482979E-03;  4.0007684E+04;  0.0000000E+00;  7.3607427E-01;  4.0000000E+04;  0.0000000E+00;  3.9997328E+04;  1.3487814E-03;  0.0000000E+00; -2.0048342E-04;  1.1111440E+03;
  2.9121065E-01;  9.9999998E-03;  1.9000354E-01;4264; -2.3441189E-03;  0.0000000E+00;  1.1223160E-05;  9.9980084E+02;  1.0000000E-01; -1.6498299E+02;3;  8.8994539E-01;  0.0000000E+00;  8.1280090E-02;0;  1.2532887E-03;  3.9986840E+04;  0.0000000E+00;  8.1575775E-01;  4.0000000E+04;  0.0000000E+00;  3.9997930E+04;  1.5552933E-03;  0.0000000E+00; -3.0200466E-04;  1.1942147E+03;
  2.9110712E-01;  9.9999998E-03;  1.9999424E-01;4265; -2.2696136E-03;  0.0000000E+00; -1.8882010E-06;  9.9959283E+02;  1.0000000E-01; -3.3732379E+02;3;  8.5785025E-01;  0.0000000E+00;  1.2890065E-01;0;  1.4756562E-03;  3.9969973E+04;  0.0000000E+00;  8.2545799E-01;  4.0000000E+04;  0.0000000E+00;  3.9998703E+04;  1.8676932E-03;  0.0000000E+00; -3.9203698E-04;  1.1964402E+03;
  2.9099485E-01;  9.9999998E-03;  2.0997807E-01;4266; -2.2104005E-03;  0.0000000E+00; -2.1251983E-05;  9.9946460E+02;  1.0000000E-01; -4.4359241E+02;3;  7.6849437E-01;  0.0000000E+00;  2.2967406E-01;0;  1.8002172E-03;  3.9958852E+04;  0.0000000E+00;  7.6439130E-01;  4.0000000E+04;  0.0000000E+00;  4.0000668E+04;  2.2673451E-03;  0.0000000E+00; -4.6712795E-04;  1.1179644E+03;
  2.9088539E-01;  9.9999998E-03;  2.1996187E-01;4267; -2.1684358E-03;  0.0000000E+00; -2.2980299E-05;  9.9943860E+02;  1.0000000E-01; -4.6512265E+02;3;  5.8872461E-01;  0.0000000E+00;  4.1476914E-01;0;  2.2304847E-03;  3.9954547E+04;  0.0000000E+00;  6.5122688E-01;  4.0000000E+04;  0.0000000E+00;  4.0004133E+04;  2.7259749E-03;  0.0000000E+00; -4.9549021E-04;  1.1185996E+03;
  2.9079288E-01;  9.9999998E-03;  2.2995885E-01;4268; -2.1453472E-03;  0.0000000E+00;  2.1773976E-05;  9.9950238E+02;  1.0000000E-01; -4.1228464E+02;3;  2.7475557E-01;  0.0000000E+00;  7.1400541E-01;0;  2.8622886E-03;  3.9957113E+04;  0.0000000E+00;  5.2130646E-01;  4.0000000E+04;  0.0000000E+00;  4.0008270E+04;  3.2094419E-03;  0.0000000E+00; -3.4715328E-04;  1.3551908E+03;
  3.0104336E-01;  9.9999998E-03;  7.0003055E-02;4313; -2.6351043E-03;  0.0000000E+00; -6.8117981E-05;  1.0004392E+03;  1.0000000E-01;  3.6384155E+02;3;  1.2444721E+00;  0.0000000E+00;  1.3566251E-03;0;  1.7025613E-04;  4.0047543E+04;  0.0000000E+00; -3.8283668E-02;  4.0000000E+04;  0.0000000E+00;  3.9990293E+04;  1.1181708E-03;  0.0000000E+00; -9.4791467E-04;  1.2981610E+03;
  3.0103108E-01;  9.9999998E-03;  8.0006383E-02;4314; -2.6540915E-03;  0.0000000E+00; -8.8279121E-05;  1.0006053E+03;  1.0000000E-01;  5.0151669E+02;3;  1.2296449E+00;  0.0000000E+00; -5.9802537E-03;0;  5.5728416E-04;  4.0061891E+04;  0.0000000E+00; -5.7488974E-02;  4.0000000E+04;  0.0000000E+00;  3.9989016E+04;  1.4339380E-03;  0.0000000E+00; -8.7665388E-04;  1.4434207E+03;
  3.0102062E-01;  9.9999998E-03;  9.0013176E-02;4315; -2.6857897E-03;  0.0000000E+00; -1.0713406E-04;  1.0007653E+03;  1.0000000E-01;  6.3395740E+02;3;  1.1944294E+00;  0.0000000E+00; -1.3503771E-02;0;  8.9868001E-04;  4.0075434E+04;  0.0000000E+00; -7.6969862E-02;  4.0000000E+04;  0.0000000E+00;  3.9988191E+04;  1.6739626E-03;  0.0000000E+00; -7.7528256E-04;  1.5542273E+03;
  3.0102026E-01;  9.9999998E-03;  1.0002060E-01;4316; -2.7348984E-03;  0.0000000E+00; -1.2098665E-04;  1.0009052E+03;  1.0000000E-01;  7.4990472E+02;3;  1.1299367E+00;  0.0000000E+00; -1.7327940E-02;0;  1.1695598E-03;  4.0087152E+04;  0.0000000E+00; -9.1812834E-02;  4.0000000E+04;  0.0000000E+00;  3.9987598E+04;  1.8225438E-03;  0.0000000E+00; -6.5298402E-04;  1.6114475E+03;
  3.0103803E-01;  9.9999998E-03;  1.1002602E-01;4317; -2.8104973E-03;  0.0000000E+00; -1.2202891E-04;  1.0010126E+03;  1.0000000E-01;  8.3888983E+02;3;  1.0103655E+00;  0.0000000E+00;  3.9050160E-03;0;  1.3520874E-03;  4.0095707E+04;  0.0000000E+00; -9.5405154E-02;  4.0000000E+04;  0.0000000E+00;  3.9987992E+04;  1.8757475E-03;  0.0000000E+00; -5.2366004E-04;  1.6015298E+03;
  3.0107030E-01;  9.9999998E-03;  1.2003016E-01;4318; -2.8725923E-03;  0.0000000E+00; -1.1610567E-04;  1.0010755E+03;  1.0000000E-01;  8.9103650E+02;3;  8.7559050E-01;  0.0000000E+00;  4.9437836E-02;0;  1.4397581E-03;  4.0100344E+04;  0.0000000E+00; -8.0014564E-02;  4.0000000E+04;  0.0000000E+00;  3.9988594E+04;  1.8427760E-03;  0.0000000E+00; -4.0301791E-04;  1.5195704E+03;
  3.0111161E-01;  9.9999998E-03;  1.3003278E-01;4319; -2.8755812E-03;  0.0000000E+00; -1.1962634E-04;  1.0010799E+03;  1.0000000E-01;  8.9469073E+02;3;  8.1638968E-01;  0.0000000E+00;  6.3801348E-02;0;  1.4378341E-03;  4.0099289E+04;  0.0000000E+00; -3.8024109E-02;  4.0000000E+04;  0.0000000E+00;  3.9989621E+04;  1.7440583E-03;  0.0000000E+00; -3.0622422E-04;  1.3711686E+03;
  3.0115581E-01;  9.9999998E-03;  1.4003326E-01;4320; -2.8340998E-03;  0.0000000E+00; -1.2284835E-04;  1.0010192E+03;  1.0000000E-01;  8.4442053E+02;3;  8.1513321E-01;  0.0000000E+00;  5.7119660E-02;0;  1.3622537E-03;  4.0092598E+04;  0.0000000E+00;  3.6199614E-02;  4.0000000E+04;  0.0000000E+00;  3.9991277E+04;  1.6081798E-03;  0.0000000E+00; -2.4592614E-04;  1.1751560E+03;
  3.0119568E-01;  9.9999998E-03;  1.5003075E-01;4321; -2.7664627E-03;  0.0000000E+00; -1.1647585E-04;  1.0008916E+03;  1.0000000E-01;  7.3864575E+02;3;  8.2855064E-01;  0.0000000E+00;  5.1665552E-02;0;  1.2395001E-03;  4.0080414E+04;  0.0000000E+00;  1.4392287E-01;  4.0000000E+04;  0.0000000E+00;  3.9992996E+04;  1.4691794E-03;  0.0000000E+00; -2.2967932E-04;  9.6914240E+02;
  3.0122489E-01;  9.9999998E-03;  1.6002628E-01;4322; -2.6844221E-03;  0.0000000E+00; -1.0173700E-04;  1.0006979E+03;  1.0000000E-01;  5.7825525E+02;3;  8.4473550E-01;  0.0000000E+00;  4.9066935E-02;0;  1.1062931E-03;  4.0063020E+04;  0.0000000E+00;  2.8020382E-01;  4.0000000E+04;  0.0000000E+00;  3.9995020E+04;  1.3633320E-03;  0.0000000E+00; -2.5703901E-04;  8.1750366E+02;
  3.0124158E-01;  9.9999998E-03;  1.7002308E-01;4323; -2.5943667E-03;  0.0000000E+00; -8.5969878E-05;  1.0004603E+03;  1.0000000E-01;  3.8142133E+02;3;  8.6920631E-01;  0.0000000E+00;  4.9853306E-02;0;  1.0051624E-03;  4.0042137E+04;  0.0000000E+00;  4.3375394E-01;  4.0000000E+04;  0.0000000E+00;  3.9996336E+04;  1.3245265E-03;  0.0000000E+00; -3.1936416E-04;  7.9257440E+02;
  3.0123976E-01;  9.9999998E-03;  1.8002148E-01;4324; -2.5040705E-03;  0.0000000E+00; -7.4557851E-05;  1.0001997E+03;  1.0000000E-01;  1.6542741E+02;3;  8.8608009E-01;  0.0000000E+00;  5.5179797E-02;0;  9.7711675E-04;  4.0019520E+04;  0.0000000E+00;  5.8560067E-01;  4.0000000E+04;  0.0000000E+00;  3.9997699E+04;  1.3794013E-03;  0.0000000E+00; -4.0228452E-04;  8.9301758E+02;
  3.0120662E-01;  9.9999998E-03;  1.9001715E-01;4325; -2.4192450E-03;  0.0000000E+00; -7.0513313E-05;  9.9993500E+02;  1.0000000E-01; -5.3875019E+01;3;  8.9511240E-01;  0.0000000E+00;  6.4348795E-02;0;  1.0528287E-03;  3.9997742E+04;  0.0000000E+00;  7.0656502E-01;  4.0000000E+04;  0.0000000E+00;  3.9998609E+04;  1.5430539E-03;  0.0000000E+00; -4.9022509E-04;  1.0257318E+03;
  3.0113924E-01;  9.9999998E-03;  2.0000924E-01;4326; -2.3433352E-03;  0.0000000E+00; -7.7304117E-05;  9.9970111E+02;  1.0000000E-01; -2.4764732E+02;3;  8.8650334E-01;  0.0000000E+00;  8.5475862E-02;0;  1.2435531E-03;  3.9978707E+04;  0.0000000E+00;  7.6749080E-01;  4.0000000E+04;  0.0000000E+00;  3.9999543E+04;  1.8169022E-03;  0.0000000E+00; -5.7334907E-04;  1.1033063E+03;
  3.0105066E-01;  9.9999998E-03;  2.0999534E-01;4327; -2.2780462E-03;  0.0000000E+00; -9.2870403E-05;  9.9952972E+02;  1.0000000E-01; -3.8961862E+02;3;  8.4636807E-01;  0.0000000E+00;  1.3314123E-01;0;  1.5387551E-03;  3.9964617E+04;  0.0000000E+00;  7.4981600E-01;  4.0000000E+04;  0.0000000E+00;  4.0000609E+04;  2.1891501E-03;  0.0000000E+00; -6.5039488E-04;  1.0905896E+03;
  3.0095747E-01;  9.9999998E-03;  2.1997912E-01;4328; -2.2243501E-03;  0.0000000E+00; -9.9604818E-05;  9.9945172E+02;  1.0000000E-01; -4.5425876E+02;3;  7.4872559E-01;  0.0000000E+00;  2.2931130E-01;0;  1.9350057E-03;  3.9956430E+04;  0.0000000E+00;  6.5073943E-01;  4.0000000E+04;  0.0000000E+00;  4.0003898E+04;  2.6376720E-03;  0.0000000E+00; -7.0266641E-04;  1.0755970E+03;
  3.0087072E-01;  9.9999998E-03;  2.2997263E-01;4329; -2.1799661E-03;  0.0000000E+00; -7.5549375E-05;  9.9946448E+02;  1.0000000E-01; -4.4369116E+02;3;  5.6557447E-01;  0.0000000E+00;  3.9327857E-01;0;  2.4921224E-03;  3.9955199E+04;  0.0000000E+00;  4.8302194E-01;  4.0000000E+04;  0.0000000E+00;  4.0007328E+04;  3.1340958E-03;  0.0000000E+00; -6.4197357E-04;  1.2039425E+03;
  3.1112790E-01;  9.9999998E-03;  6.9996417E-02;4374; -2.6678564E-03;  0.0000000E+00; -6.6410794E-05;  1.0003896E+03;  1.0000000E-01;  3.2285507E+02;3;  1.2539295E+00;  0.0000000E+00;  1.7869502E-02;0; -2.2871699E-04;  4.0042367E+04;  0.0000000E+00; -4.5182470E-02;  4.0000000E+04;  0.0000000E+00;  3.9990945E+04;  9.4629091E-04;  0.0000000E+00; -1.1750079E-03;  1.1573512E+03;
  3.1109229E-01;  9.9999998E-03;  7.9997495E-02;4375; -2.6722064E-03;  0.0000000E+00; -8.6170825E-05;  1.0005441E+03;  1.0000000E-01;  4.5075269E+02;3;  1.2424681E+00;  0.0000000E+00;  1.3555648E-02;0;  1.8611387E-04;  4.0056070E+04;  0.0000000E+00; -7.0312284E-02;  4.0000000E+04;  0.0000000E+00;  3.9990004E+04;  1.2980737E-03;  0.0000000E+00; -1.1119598E-03;  1.3189501E+03;
  3.1105483E-01;  9.9999998E-03;  9.0002276E-02;4376; -2.6885257E-03;  0.0000000E+00; -1.0671086E-04;  1.0006945E+03;  1.0000000E-01;  5.7539111E+02;3;  1.2162702E+00;  0.0000000E+00;  6.7066853E-03;0;  5.5828365E-04;  4.0069523E+04;  0.0000000E+00; -9.8527566E-02;  4.0000000E+04;  0.0000000E+00;  3.9989082E+04;  1.5810044E-03;  0.0000000E+00; -1.0227207E-03;  1.4638097E+03;
  3.1102511E-01;  9.9999998E-03;  1.0000981E-01;4377; -2.7233679E-03;  0.0000000E+00; -1.2423220E-04;  1.0008374E+03;  1.0000000E-01;  6.9380756E+02;3;  1.1684312E+00;  0.0000000E+00;  1.1908953E-03;0;  8.6217251E-04;  4.0081777E+04;  0.0000000E+00; -1.2564799E-01;  4.0000000E+04;  0.0000000E+00;  3.9988078E+04;  1.7770856E-03;  0.0000000E+00; -9.1491308E-04;  1.5675231E+03;
  3.1100756E-01;  9.9999998E-03;  1.1002047E-01;4378; -2.7918522E-03;  0.0000000E+00; -1.3217259E-04;  1.0009572E+03;  1.0000000E-01;  7.9296521E+02;3;  1.0533029E+00;  0.0000000E+00;  1.9800583E-02;0;  1.0788227E-03;  4.0091668E+04;  0.0000000E+00; -1.4570060E-01;  4.0000000E+04;  0.0000000E+00;  3.9987836E+04;  1.8787152E-03;  0.0000000E+00; -7.9989253E-04;  1.6094109E+03;
  3.1100649E-01;  9.9999998E-03;  1.2002977E-01;4379; -2.8588779E-03;  0.0000000E+00; -1.3612509E-04;  1.0010399E+03;  1.0000000E-01;  8.6150647E+02;3;  9.1154349E-01;  0.0000000E+00;  5.6531154E-02;0;  1.1998054E-03;  4.0097867E+04;  0.0000000E+00; -1.5123740E-01;  4.0000000E+04;  0.0000000E+00;  3.9988426E+04;  1.8905704E-03;  0.0000000E+00; -6.9076504E-04;  1.5764050E+03;
  3.1102499E-01;  9.9999998E-03;  1.3003595E-01;4380; -2.8757206E-03;  0.0000000E+00; -1.4921508E-04;  1.0010696E+03;  1.0000000E-01;  8.8609839E+02;3;  8.4518814E-01;  0.0000000E+00;  6.0987853E-02;0;  1.2292946E-03;  4.0099629E+04;  0.0000000E+00; -1.3424549E-01;  4.0000000E+04;  0.0000000E+00;  3.9989133E+04;  1.8292976E-03;  0.0000000E+00; -6.0000311E-04;  1.4649375E+03;
  3.1105518E-01;  9.9999998E-03;  1.4003968E-01;4381; -2.8521339E-03;  0.0000000E+00; -1.6069283E-04;  1.0010417E+03;  1.0000000E-01;  8.6308673E+02;3;  8.3214724E-01;  0.0000000E+00;  5.3856678E-02;0;  1.1829070E-03;  4.0095898E+04;  0.0000000E+00; -8.7688856E-02;  4.0000000E+04;  0.0000000E+00;  3.9990535E+04;  1.7206493E-03;  0.0000000E+00; -5.3774228E-04;  1.2836167E+03;
  3.1109074E-01;  9.9999998E-03;  1.5003996E-01;4382; -2.8020649E-03;  0.0000000E+00; -1.6653376E-04;  1.0009504E+03;  1.0000000E-01;  7.8733575E+02;3;  8.3751851E-01;  0.0000000E+00;  4.7376659E-02;0;  1.0861247E-03;  4.0086785E+04;  0.0000000E+00; -7.6191230E-03;  4.0000000E+04;  0.0000000E+00;  3.9992109E+04;  1.5966633E-03;  0.0000000E+00; -5.1053858E-04;  1.0553132E+03;
  3.1112677E-01;  9.9999998E-03;  1.6003741E-01;4383; -2.7344136E-03;  0.0000000E+00; -1.6582332E-04;  1.0008001E+03;  1.0000000E-01;  6.6289484E+02;3;  8.5033804E-01;  0.0000000E+00;  4.5661982E-02;0;  9.7322586E-04;  4.0072352E+04;  0.0000000E+00;  1.0494056E-01;  4.0000000E+04;  0.0000000E+00;  3.9994113E+04;  1.4925117E-03;  0.0000000E+00; -5.1928585E-04;  8.2434741E+02;
  3.1115669E-01;  9.9999998E-03;  1.7003524E-01;4384; -2.6566072E-03;  0.0000000E+00; -1.5997569E-04;  1.0005923E+03;  1.0000000E-01;  4.9065280E+02;3;  8.6351693E-01;  0.0000000E+00;  4.7366384E-02;0;  8.8349736E-04;  4.0053910E+04;  0.0000000E+00;  2.4322343E-01;  4.0000000E+04;  0.0000000E+00;  3.9995867E+04;  1.4421166E-03;  0.0000000E+00; -5.5861921E-04;  6.6790894E+02;
  3.1117257E-01;  9.9999998E-03;  1.8003426E-01;4385; -2.5744177E-03;  0.0000000E+00; -1.5286508E-04;  1.0003482E+03;  1.0000000E-01;  2.8848566E+02;3;  8.7878919E-01;  0.0000000E+00;  5.3248726E-02;0;  8.5513719E-04;  4.0032902E+04;  0.0000000E+00;  3.9477605E-01;  4.0000000E+04;  0.0000000E+00;  3.9997348E+04;  1.4735848E-03;  0.0000000E+00; -6.1844761E-04;  6.6907782E+02;
  3.1116664E-01;  9.9999998E-03;  1.9003122E-01;4386; -2.4928628E-03;  0.0000000E+00; -1.4842325E-04;  1.0000952E+03;  1.0000000E-01;  7.8812584E+01;3;  8.8900310E-01;  0.0000000E+00;  5.8948126E-02;0;  9.1870083E-04;  4.0011605E+04;  0.0000000E+00;  5.3861684E-01;  4.0000000E+04;  0.0000000E+00;  3.9998340E+04;  1.6054865E-03;  0.0000000E+00; -6.8678567E-04;  7.9443506E+02;
  3.1113669E-01;  9.9999998E-03;  2.0002493E-01;4387; -2.4163364E-03;  0.0000000E+00; -1.5222290E-04;  9.9985480E+02;  1.0000000E-01; -1.2029289E+02;3;  8.8914901E-01;  0.0000000E+00;  6.8637848E-02;0;  1.0888174E-03;  3.9991809E+04;  0.0000000E+00;  6.4533371E-01;  4.0000000E+04;  0.0000000E+00;  3.9999266E+04;  1.8443896E-03;  0.0000000E+00; -7.5557223E-04;  9.2677722E+02;
  3.1108308E-01;  9.9999998E-03;  2.1001387E-01;4388; -2.3460221E-03;  0.0000000E+00; -1.6603048E-04;  9.9965601E+02;  1.0000000E-01; -2.8497958E+02;3;  8.7506515E-01;  0.0000000E+00;  8.6841568E-02;0;  1.3587927E-03;  3.9975742E+04;  0.0000000E+00;  6.8724859E-01;  4.0000000E+04;  0.0000000E+00;  4.0000293E+04;  2.1844718E-03;  0.0000000E+00; -8.2567916E-04;  9.8866547E+02;
  3.1101653E-01;  9.9999998E-03;  2.1999899E-01;4389; -2.2810097E-03;  0.0000000E+00; -1.7983011E-04;  9.9953436E+02;  1.0000000E-01; -3.8576688E+02;3;  8.3339733E-01;  0.0000000E+00;  1.2834281E-01;0;  1.7159370E-03;  3.9964711E+04;  0.0000000E+00;  6.4669120E-01;  4.0000000E+04;  0.0000000E+00;  4.0002496E+04;  2.6096078E-03;  0.0000000E+00; -8.9367072E-04;  9.9260016E+02;
  3.1094676E-01;  9.9999998E-03;  2.2998919E-01;4390; -2.2203906E-03;  0.0000000E+00; -1.7344966E-04;  9.9949359E+02;  1.0000000E-01; -4.1954370E+02;3;  7.4413013E-01;  0.0000000E+00;  2.0672554E-01;0;  2.1945979E-03;  3.9959621E+04;  0.0000000E+00;  5.1863670E-01;  4.0000000E+04;  0.0000000E+00;  4.0005496E+04;  3.0969130E-03;  0.0000000E+00; -9.0231519E-04;  1.0498761E+03;
  3.2119000E-01;  9.9999998E-03;  6.9995821E-02;4435; -2.7070653E-03;  0.0000000E+00; -6.8100468E-05;  1.0004198E+03;  1.0000000E-01;  3.4784201E+02;3;  1.2524444E+00;  0.0000000E+00;  3.4797300E-02;0; -6.1063690E-04;  4.0044012E+04;  0.0000000E+00; -3.8871959E-02;  4.0000000E+04;  0.0000000E+00;  3.9991891E+04;  8.1079442E-04;  0.0000000E+00; -1.4214313E-03;  1.0403394E+03;
  3.2116836E-01;  9.9999998E-03;  7.9992130E-02;4436; -2.6991467E-03;  0.0000000E+00; -8.7190325E-05;  1.0005490E+03;  1.0000000E-01;  4.5480194E+02;3;  1.2433207E+00;  0.0000000E+00;  3.3984654E-02;0; -1.8774299E-04;  4.0055883E+04;  0.0000000E+00; -6.5927245E-02;  4.0000000E+04;  0.0000000E+00;  3.9990746E+04;  1.1780926E-03;  0.0000000E+00; -1.3658355E-03;  1.2073447E+03;
  3.2113981E-01;  9.9999998E-03;  8.9992203E-02;4437; -2.7014490E-03;  0.0000000E+00; -1.0803122E-04;  1.0006803E+03;  1.0000000E-01;  5.6363837E+02;3;  1.2282814E+00;  0.0000000E+00;  2.9542942E-02;0;  1.9943761E-04;  4.0067840E+04;  0.0000000E+00; -9.8813444E-02;  4.0000000E+04;  0.0000000E+00;  3.9989688E+04;  1.4875663E-03;  0.0000000E+00; -1.2881287E-03;  1.3751483E+03;
  3.2110164E-01;  9.9999998E-03;  9.9997208E-02;4438; -2.7225276E-03;  0.0000000E+00; -1.2788664E-04;  1.0008074E+03;  1.0000000E-01;  6.6891937E+02;3;  1.1891162E+00;  0.0000000E+00;  2.8812090E-02;0;  5.2658294E-04;  4.0079090E+04;  0.0000000E+00; -1.3445087E-01;  4.0000000E+04;  0.0000000E+00;  3.9988656E+04;  1.7205547E-03;  0.0000000E+00; -1.1939717E-03;  1.5174784E+03;
  3.2105255E-01;  9.9999998E-03;  1.1000751E-01;4439; -2.7740076E-03;  0.0000000E+00; -1.4250886E-04;  1.0009131E+03;  1.0000000E-01;  7.5652179E+02;3;  1.0910244E+00;  0.0000000E+00;  4.0285405E-02;0;  7.7464851E-04;  4.0088523E+04;  0.0000000E+00; -1.6786127E-01;  4.0000000E+04;  0.0000000E+00;  3.9988051E+04;  1.8666366E-03;  0.0000000E+00; -1.0919881E-03;  1.6091755E+03;
  3.2100570E-01;  9.9999998E-03;  1.2002144E-01;4440; -2.8342241E-03;  0.0000000E+00; -1.5659702E-04;  1.0009974E+03;  1.0000000E-01;  8.2634698E+02;3;  9.5919245E-01;  0.0000000E+00;  6.4176366E-02;0;  9.3326357E-04;  4.0095430E+04;  0.0000000E+00; -1.9221546E-01;  4.0000000E+04;  0.0000000E+00;  3.9987977E+04;  1.9258100E-03;  0.0000000E+00; -9.9254644E-04;  1.6303208E+03;
  3.2098112E-01;  9.9999998E-03;  1.3003416E-01;4441; -2.8635773E-03;  0.0000000E+00; -1.7625715E-04;  1.0010449E+03;  1.0000000E-01;  8.6565454E+02;3;  8.8286394E-01;  0.0000000E+00;  6.7213997E-02;0;  1.0038924E-03;  4.0098598E+04;  0.0000000E+00; -1.9941776E-01;  4.0000000E+04;  0.0000000E+00;  3.9988645E+04;  1.9098173E-03;  0.0000000E+00; -9.0592494E-04;  1.5698788E+03;
  3.2098356E-01;  9.9999998E-03;  1.4004205E-01;4442; -2.8568497E-03;  0.0000000E+00; -1.9490179E-04;  1.0010447E+03;  1.0000000E-01;  8.6545703E+02;3;  8.5402602E-01;  0.0000000E+00;  5.8427341E-02;0;  1.0001808E-03;  4.0097117E+04;  0.0000000E+00; -1.8139173E-01;  4.0000000E+04;  0.0000000E+00;  3.9989492E+04;  1.8406283E-03;  0.0000000E+00; -8.4044744E-04;  1.4279003E+03;
  3.2100388E-01;  9.9999998E-03;  1.5004535E-01;4443; -2.8240026E-03;  0.0000000E+00; -2.0872343E-04;  1.0009858E+03;  1.0000000E-01;  8.1666827E+02;3;  8.4910369E-01;  0.0000000E+00;  5.1410671E-02;0;  9.4567472E-04;  4.0090934E+04;  0.0000000E+00; -1.3194087E-01;  4.0000000E+04;  0.0000000E+00;  3.9991074E+04;  1.7470981E-03;  0.0000000E+00; -8.0142333E-04;  1.2170825E+03;
  3.2103458E-01;  9.9999998E-03;  1.6004486E-01;4444; -2.7717308E-03;  0.0000000E+00; -2.1745541E-04;  1.0008698E+03;  1.0000000E-01;  7.2057220E+02;3;  8.5404879E-01;  0.0000000E+00;  4.9473144E-02;0;  8.7129936E-04;  4.0079707E+04;  0.0000000E+00; -4.8616737E-02;  4.0000000E+04;  0.0000000E+00;  3.9992988E+04;  1.6617229E-03;  0.0000000E+00; -7.9042354E-04;  9.6502869E+02;
  3.2106784E-01;  9.9999998E-03;  1.7004311E-01;4445; -2.7065796E-03;  0.0000000E+00; -2.2122300E-04;  1.0007017E+03;  1.0000000E-01;  5.8131689E+02;3;  8.6285079E-01;  0.0000000E+00;  5.0242085E-02;0;  8.1199274E-04;  4.0064395E+04;  0.0000000E+00;  6.5883659E-02;  4.0000000E+04;  0.0000000E+00;  3.9994809E+04;  1.6167681E-03;  0.0000000E+00; -8.0477534E-04;  7.1918011E+02;
  3.2109487E-01;  9.9999998E-03;  1.8004243E-01;4446; -2.6331544E-03;  0.0000000E+00; -2.2216410E-04;  1.0004957E+03;  1.0000000E-01;  4.1065506E+02;3;  8.7276536E-01;  0.0000000E+00;  5.2678894E-02;0;  8.0167409E-04;  4.0045945E+04;  0.0000000E+00;  2.0316350E-01;  4.0000000E+04;  0.0000000E+00;  3.9996242E+04;  1.6399707E-03;  0.0000000E+00; -8.3829660E-04;  5.6290106E+02;
  3.2111153E-01;  9.9999998E-03;  1.9004193E-01;4447; -2.5563722E-03;  0.0000000E+00; -2.2233675E-04;  1.0002615E+03;  1.0000000E-01;  2.1668523E+02;3;  8.8086516E-01;  0.0000000E+00;  5.7861291E-02;0;  8.6840685E-04;  4.0026234E+04;  0.0000000E+00;  3.4949905E-01;  4.0000000E+04;  0.0000000E+00;  3.9997527E+04;  1.7512162E-03;  0.0000000E+00; -8.8280940E-04;  5.8118384E+02;
  3.2111552E-01;  9.9999998E-03;  2.0003919E-01;4448; -2.4794135E-03;  0.0000000E+00; -2.2743076E-04;  1.0000278E+03;  1.0000000E-01;  2.3011694E+01;3;  8.8679904E-01;  0.0000000E+00;  6.4269617E-02;0;  1.0278722E-03;  4.0007098E+04;  0.0000000E+00;  4.8304206E-01;  4.0000000E+04;  0.0000000E+00;  3.9998844E+04;  1.9602564E-03;  0.0000000E+00; -9.3238417E-04;  7.1154907E+02;
  3.2110953E-01;  9.9999998E-03;  2.1003203E-01;4449; -2.4050609E-03;  0.0000000E+00; -2.4165628E-04;  9.9982306E+02;  1.0000000E-01; -1.4661314E+02;3;  8.8531989E-01;  0.0000000E+00;  6.9391474E-02;0;  1.2764899E-03;  3.9990176E+04;  0.0000000E+00;  5.7562357E-01;  4.0000000E+04;  0.0000000E+00;  3.9999047E+04;  2.2659814E-03;  0.0000000E+00; -9.8949147E-04;  8.2728027E+02;
  3.2108504E-01;  9.9999998E-03;  2.2001825E-01;4450; -2.3315507E-03;  0.0000000E+00; -2.6157097E-04;  9.9966919E+02;  1.0000000E-01; -2.7406631E+02;3;  8.6934656E-01;  0.0000000E+00;  8.5431911E-02;0;  1.5947178E-03;  3.9977277E+04;  0.0000000E+00;  6.0193253E-01;  4.0000000E+04;  0.0000000E+00;  4.0000781E+04;  2.6572689E-03;  0.0000000E+00; -1.0625510E-03;  8.6984552E+02;
  3.2103962E-01;  9.9999998E-03;  2.3000553E-01;4451; -2.2557047E-03;  0.0000000E+00; -2.6910048E-04;  9.9958679E+02;  1.0000000E-01; -3.4231131E+02;3;  8.3221298E-01;  0.0000000E+00;  1.1475251E-01;0;  1.9970587E-03;  3.9969453E+04;  0.0000000E+00;  5.4587358E-01;  4.0000000E+04;  0.0000000E+00;  4.0003508E+04;  3.1165206E-03;  0.0000000E+00; -1.1194617E-03;  9.0496832E+02;
  3.3125320E-01;  9.9999998E-03;  6.9994636E-02;4496; -2.7447660E-03;  0.0000000E+00; -7.5862488E-05;  1.0005220E+03;  1.0000000E-01;  4.3248160E+02;3;  1.2489487E+00;  0.0000000E+00;  4.9955565E-02;0; -9.2589087E-04;  4.0052020E+04;  0.0000000E+00; -2.3358183E-02;  4.0000000E+04;  0.0000000E+00;  3.9992922E+04;  7.5912487E-04;  0.0000000E+00; -1.6850157E-03;  9.5247211E+02;
  3.3124253E-01;  9.9999998E-03;  7.9990365E-02;4497; -2.7255963E-03;  0.0000000E+00; -9.4048293E-05;  1.0006185E+03;  1.0000000E-01;  5.1247931E+02;3;  1.2446445E+00;  0.0000000E+00;  5.1696356E-02;0; -5.1426818E-04;  4.0060879E+04;  0.0000000E+00; -4.8561234E-02;  4.0000000E+04;  0.0000000E+00;  3.9991719E+04;  1.1193145E-03;  0.0000000E+00; -1.6335826E-03;  1.1120566E+03;
  3.3122081E-01;  9.9999998E-03;  8.9988284E-02;4498; -2.7155096E-03;  0.0000000E+00; -1.1457576E-04;  1.0007202E+03;  1.0000000E-01;  5.9662512E+02;3;  1.2322135E+00;  0.0000000E+00;  5.3531297E-02;0; -1.2917467E-04;  4.0070250E+04;  0.0000000E+00; -8.1806242E-02;  4.0000000E+04;  0.0000000E+00;  3.9990074E+04;  1.4347647E-03;  0.0000000E+00; -1.5639394E-03;  1.2884763E+03;
  3.3118582E-01;  9.9999998E-03;  9.9989720E-02;4499; -2.7206435E-03;  0.0000000E+00; -1.3590608E-04;  1.0008169E+03;  1.0000000E-01;  6.7682037E+02;3;  1.2058692E+00;  0.0000000E+00;  5.3538080E-02;0;  2.0720589E-04;  4.0079691E+04;  0.0000000E+00; -1.2122893E-01;  4.0000000E+04;  0.0000000E+00;  3.9988883E+04;  1.6874913E-03;  0.0000000E+00; -1.4802854E-03;  1.4561243E+03;
  3.3113846E-01;  9.9999998E-03;  1.0999553E-01;4500; -2.7483802E-03;  0.0000000E+00; -1.5501217E-04;  1.0009079E+03;  1.0000000E-01;  7.5217627E+02;3;  1.1385456E+00;  0.0000000E+00;  6.1652027E-02;0;  4.7679013E-04;  4.0087559E+04;  0.0000000E+00; -1.6306782E-01;  4.0000000E+04;  0.0000000E+00;  3.9987914E+04;  1.8658101E-03;  0.0000000E+00; -1.3890200E-03;  1.5877209E+03;
  3.3108041E-01;  9.9999998E-03;  1.2000780E-01;4501; -2.7935163E-03;  0.0000000E+00; -1.7442969E-04;  1.0009771E+03;  1.0000000E-01;  8.0955737E+02;3;  1.0275809E+00;  0.0000000E+00;  7.3988594E-02;0;  6.6888321E-04;  4.0093832E+04;  0.0000000E+00; -2.0146580E-01;  4.0000000E+04;  0.0000000E+00;  3.9987516E+04;  1.9663703E-03;  0.0000000E+00; -1.2974871E-03;  1.6587717E+03;
  3.3101976E-01;  9.9999998E-03;  1.3002679E-01;4502; -2.8308418E-03;  0.0000000E+00; -1.9839573E-04;  1.0010215E+03;  1.0000000E-01;  8.4629706E+02;3;  9.3402350E-01;  0.0000000E+00;  7.6796219E-02;0;  7.8278047E-04;  4.0097336E+04;  0.0000000E+00; -2.2870772E-01;  4.0000000E+04;  0.0000000E+00;  3.9987836E+04;  1.9957835E-03;  0.0000000E+00; -1.2130031E-03;  1.6522557E+03;
  3.3097455E-01;  9.9999998E-03;  1.4004067E-01;4503; -2.8408230E-03;  0.0000000E+00; -2.2375195E-04;  1.0010309E+03;  1.0000000E-01;  8.5409930E+02;3;  8.8325733E-01;  0.0000000E+00;  6.8139464E-02;0;  8.2851551E-04;  4.0097238E+04;  0.0000000E+00; -2.3614639E-01;  4.0000000E+04;  0.0000000E+00;  3.9988590E+04;  1.9708201E-03;  0.0000000E+00; -1.1423046E-03;  1.5615641E+03;
  3.3095777E-01;  9.9999998E-03;  1.5004687E-01;4504; -2.8240690E-03;  0.0000000E+00; -2.4578031E-04;  1.0009952E+03;  1.0000000E-01;  8.2456927E+02;3;  8.6748356E-01;  0.0000000E+00;  5.9873890E-02;0;  8.2593353E-04;  4.0093176E+04;  0.0000000E+00; -2.1583331E-01;  4.0000000E+04;  0.0000000E+00;  3.9989902E+04;  1.9161497E-03;  0.0000000E+00; -1.0902162E-03;  1.3913831E+03;
  3.3096707E-01;  9.9999998E-03;  1.6004749E-01;4505; -2.7878829E-03;  0.0000000E+00; -2.6285238E-04;  1.0009104E+03;  1.0000000E-01;  7.5425024E+02;3;  8.6399448E-01;  0.0000000E+00;  5.5116456E-02;0;  8.0170343E-04;  4.0084672E+04;  0.0000000E+00; -1.6243733E-01;  4.0000000E+04;  0.0000000E+00;  3.9991707E+04;  1.8604659E-03;  0.0000000E+00; -1.0587624E-03;  1.1597104E+03;
  3.3099499E-01;  9.9999998E-03;  1.7004584E-01;4506; -2.7361042E-03;  0.0000000E+00; -2.7534255E-04;  1.0007836E+03;  1.0000000E-01;  6.4916681E+02;3;  8.6634666E-01;  0.0000000E+00;  5.3514566E-02;0;  7.8564661E-04;  4.0072336E+04;  0.0000000E+00; -7.5070798E-02;  4.0000000E+04;  0.0000000E+00;  3.9993535E+04;  1.8329218E-03;  0.0000000E+00; -1.0472751E-03;  8.9686871E+02;
  3.3103329E-01;  9.9999998E-03;  1.8004517E-01;4507; -2.6727519E-03;  0.0000000E+00; -2.8396485E-04;  1.0006083E+03;  1.0000000E-01;  5.0398575E+02;3;  8.7113613E-01;  0.0000000E+00;  5.4572701E-02;0;  8.0678391E-04;  4.0057070E+04;  0.0000000E+00;  4.1478146E-02;  4.0000000E+04;  0.0000000E+00;  3.9995176E+04;  1.8594449E-03;  0.0000000E+00; -1.0526610E-03;  6.5122375E+02;
  3.3107772E-01;  9.9999998E-03;  1.9004640E-01;4508; -2.6016647E-03;  0.0000000E+00; -2.9064159E-04;  1.0004098E+03;  1.0000000E-01;  3.3954596E+02;3;  8.7571228E-01;  0.0000000E+00;  5.8513690E-02;0;  8.8930980E-04;  4.0039801E+04;  0.0000000E+00;  1.7685388E-01;  4.0000000E+04;  0.0000000E+00;  3.9996766E+04;  1.9595397E-03;  0.0000000E+00; -1.0702299E-03;  5.1044986E+02;
  3.3111322E-01;  9.9999998E-03;  2.0004730E-01;4509; -2.5256895E-03;  0.0000000E+00; -2.9979667E-04;  1.0002042E+03;  1.0000000E-01;  1.6918040E+02;3;  8.7847388E-01;  0.0000000E+00;  6.2479336E-02;0;  1.0475380E-03;  4.0022332E+04;  0.0000000E+00;  3.1580210E-01;  4.0000000E+04;  0.0000000E+00;  3.9997742E+04;  2.1438664E-03;  0.0000000E+00; -1.0963284E-03;  5.4539465E+02;
  3.3112597E-01;  9.9999998E-03;  2.1004361E-01;4510; -2.4468352E-03;  0.0000000E+00; -3.1678547E-04;  1.0000024E+03;  1.0000000E-01;  1.9752527E+00;3;  8.7956351E-01;  0.0000000E+00;  6.5890618E-02;0;  1.2783908E-03;  4.0005949E+04;  0.0000000E+00;  4.3714687E-01;  4.0000000E+04;  0.0000000E+00;  3.9998246E+04;  2.4139811E-03;  0.0000000E+00; -1.1355904E-03;  6.6419635E+02;
  3.3111614E-01;  9.9999998E-03;  2.2003327E-01;4511; -2.3651673E-03;  0.0000000E+00; -3.4266172E-04;  9.9983661E+02;  1.0000000E-01; -1.3535420E+02;3;  8.7697870E-01;  0.0000000E+00;  6.9903687E-02;0;  1.5577878E-03;  3.9992129E+04;  0.0000000E+00;  5.1738900E-01;  4.0000000E+04;  0.0000000E+00;  3.9999000E+04;  2.7633326E-03;  0.0000000E+00; -1.2055448E-03;  7.4654138E+02;
  3.3108598E-01;  9.9999998E-03;  2.3002048E-01;4512; -2.2775144E-03;  0.0000000E+00; -3.6254039E-04;  9.9972260E+02;  1.0000000E-01; -2.2982066E+02;3;  8.7026185E-01;  0.0000000E+00;  7.6239847E-02;0;  1.8812334E-03;  3.9982031E+04;  0.0000000E+00;  5.3751582E-01;  4.0000000E+04;  0.0000000E+00;  4.0001129E+04;  3.1789690E-03;  0.0000000E+00; -1.2977356E-03;  7.8351166E+02;
  3.4122333E-01;  9.9999998E-03;  6.9998041E-02;4557; -2.7755003E-03;  0.0000000E+00; -9.0869675E-05;  1.0006709E+03;  1.0000000E-01;  5.5583612E+02;3;  1.2441553E+00;  0.0000000E+00;  6.1781336E-02;0; -1.1510517E-03;  4.0062930E+04;  0.0000000E+00; -3.6306018E-03;  4.0000000E+04;  0.0000000E+00;  3.9993449E+04;  8.0991641E-04;  0.0000000E+00; -1.9609681E-03;  8.9721222E+02;
  3.4122446E-01;  9.9999998E-03;  7.9992965E-02;4558; -2.7461436E-03;  0.0000000E+00; -1.0859002E-04;  1.0007312E+03;  1.0000000E-01;  6.0581000E+02;3;  1.2446891E+00;  0.0000000E+00;  6.6177487E-02;0; -7.7048747E-04;  4.0069164E+04;  0.0000000E+00; -2.4001947E-02;  4.0000000E+04;  0.0000000E+00;  3.9992238E+04;  1.1389893E-03;  0.0000000E+00; -1.9094768E-03;  1.0398191E+03;
  3.4122393E-01;  9.9999998E-03;  8.9988798E-02;4559; -2.7236287E-03;  0.0000000E+00; -1.2900296E-04;  1.0007975E+03;  1.0000000E-01;  6.6072205E+02;3;  1.2381880E+00;  0.0000000E+00;  6.8994507E-02;0; -4.0660147E-04;  4.0075789E+04;  0.0000000E+00; -5.3738553E-02;  4.0000000E+04;  0.0000000E+00;  3.9990961E+04;  1.4369892E-03;  0.0000000E+00; -1.8435906E-03;  1.2105015E+03;
  3.4122014E-01;  9.9999998E-03;  9.9986501E-02;4560; -2.7093003E-03;  0.0000000E+00; -1.5152879E-04;  1.0008618E+03;  1.0000000E-01;  7.1395514E+02;3;  1.2295226E+00;  0.0000000E+00;  7.0908599E-02;0; -7.8499317E-05;  4.0082562E+04;  0.0000000E+00; -9.2156887E-02;  4.0000000E+04;  0.0000000E+00;  3.9989672E+04;  1.6878168E-03;  0.0000000E+00; -1.7663161E-03;  1.3863564E+03;
  3.4120947E-01;  9.9999998E-03;  1.0998736E-01;4561; -2.7106775E-03;  0.0000000E+00; -1.7353562E-04;  1.0009243E+03;  1.0000000E-01;  7.6580548E+02;3;  1.1938912E+00;  0.0000000E+00;  7.6265134E-02;0;  1.9798824E-04;  4.0088691E+04;  0.0000000E+00; -1.3677089E-01;  4.0000000E+04;  0.0000000E+00;  3.9988477E+04;  1.8800106E-03;  0.0000000E+00; -1.6820224E-03;  1.5409102E+03;
  3.4118575E-01;  9.9999998E-03;  1.1999324E-01;4562; -2.7318625E-03;  0.0000000E+00; -1.9493572E-04;  1.0009759E+03;  1.0000000E-01;  8.0847095E+02;3;  1.1216586E+00;  0.0000000E+00;  8.6049110E-02;0;  4.1282980E-04;  4.0093609E+04;  0.0000000E+00; -1.8291156E-01;  4.0000000E+04;  0.0000000E+00;  3.9987664E+04;  2.0084553E-03;  0.0000000E+00; -1.5956255E-03;  1.6484823E+03;
  3.4114265E-01;  9.9999998E-03;  1.3000664E-01;4563; -2.7655712E-03;  0.0000000E+00; -2.1972712E-04;  1.0010076E+03;  1.0000000E-01;  8.3474182E+02;3;  1.0181793E+00;  0.0000000E+00;  8.6024031E-02;0;  5.6403561E-04;  4.0096398E+04;  0.0000000E+00; -2.2367674E-01;  4.0000000E+04;  0.0000000E+00;  3.9987516E+04;  2.0758437E-03;  0.0000000E+00; -1.5118081E-03;  1.6885138E+03;
  3.4108105E-01;  9.9999998E-03;  1.4002354E-01;4564; -2.7920129E-03;  0.0000000E+00; -2.4909843E-04;  1.0010141E+03;  1.0000000E-01;  8.4017377E+02;3;  9.4042271E-01;  0.0000000E+00;  8.0762975E-02;0;  6.5843412E-04;  4.0096828E+04;  0.0000000E+00; -2.5045693E-01;  4.0000000E+04;  0.0000000E+00;  3.9987754E+04;  2.0933009E-03;  0.0000000E+00; -1.4348668E-03;  1.6492117E+03;
  3.4102383E-01;  9.9999998E-03;  1.5003721E-01;4565; -2.7950178E-03;  0.0000000E+00; -2.7871862E-04;  1.0009905E+03;  1.0000000E-01;  8.2061877E+02;3;  8.9699996E-01;  0.0000000E+00;  7.0544221E-02;0;  7.1088050E-04;  4.0093879E+04;  0.0000000E+00; -2.5423181E-01;  4.0000000E+04;  0.0000000E+00;  3.9988762E+04;  2.0796773E-03;  0.0000000E+00; -1.3687968E-03;  1.5286079E+03;
  3.4099534E-01;  9.9999998E-03;  1.6004366E-01;4566; -2.7741734E-03;  0.0000000E+00; -3.0435779E-04;  1.0009295E+03;  1.0000000E-01;  7.7005231E+02;3;  8.8107997E-01;  0.0000000E+00;  6.2809564E-02;0;  7.4226561E-04;  4.0087594E+04;  0.0000000E+00; -2.2751160E-01;  4.0000000E+04;  0.0000000E+00;  3.9990387E+04;  2.0586781E-03;  0.0000000E+00; -1.3164125E-03;  1.3365282E+03;
  3.4099978E-01;  9.9999998E-03;  1.7004538E-01;4567; -2.7359934E-03;  0.0000000E+00; -3.2532125E-04;  1.0008326E+03;  1.0000000E-01;  6.8985706E+02;3;  8.7757391E-01;  0.0000000E+00;  5.8217540E-02;0;  7.7641883E-04;  4.0077934E+04;  0.0000000E+00; -1.6653389E-01;  4.0000000E+04;  0.0000000E+00;  3.9992062E+04;  2.0551628E-03;  0.0000000E+00; -1.2787440E-03;  1.0946960E+03;
  3.4102771E-01;  9.9999998E-03;  1.8004605E-01;4568; -2.6837126E-03;  0.0000000E+00; -3.4210260E-04;  1.0006958E+03;  1.0000000E-01;  5.7647754E+02;3;  8.7800550E-01;  0.0000000E+00;  5.7080295E-02;0;  8.3666190E-04;  4.0065578E+04;  0.0000000E+00; -7.3003396E-02;  4.0000000E+04;  0.0000000E+00;  3.9993805E+04;  2.0918406E-03;  0.0000000E+00; -1.2551787E-03;  8.3567371E+02;
  3.4106138E-01;  9.9999998E-03;  1.9004771E-01;4569; -2.6194786E-03;  0.0000000E+00; -3.5575457E-04;  1.0005365E+03;  1.0000000E-01;  4.4443188E+02;3;  8.7925708E-01;  0.0000000E+00;  5.7569217E-02;0;  9.4243570E-04;  4.0050906E+04;  0.0000000E+00;  4.5433864E-02;  4.0000000E+04;  0.0000000E+00;  3.9995477E+04;  2.1862497E-03;  0.0000000E+00; -1.2438140E-03;  6.1376562E+02;
  3.4108692E-01;  9.9999998E-03;  2.0005055E-01;4570; -2.5455500E-03;  0.0000000E+00; -3.6922682E-04;  1.0003565E+03;  1.0000000E-01;  2.9539905E+02;3;  8.8056260E-01;  0.0000000E+00;  5.9448935E-02;0;  1.1057024E-03;  4.0035684E+04;  0.0000000E+00;  1.7598593E-01;  4.0000000E+04;  0.0000000E+00;  3.9996621E+04;  2.3490540E-03;  0.0000000E+00; -1.2433516E-03;  5.1852856E+02;
  3.4110272E-01;  9.9999998E-03;  2.1005213E-01;4571; -2.4640225E-03;  0.0000000E+00; -3.9030713E-04;  1.0001686E+03;  1.0000000E-01;  1.3974913E+02;3;  8.8028491E-01;  0.0000000E+00;  6.0535595E-02;0;  1.3215776E-03;  4.0020402E+04;  0.0000000E+00;  3.0304673E-01;  4.0000000E+04;  0.0000000E+00;  3.9997031E+04;  2.5835242E-03;  0.0000000E+00; -1.2619466E-03;  5.8468805E+02;
  3.4110898E-01;  9.9999998E-03;  2.2004658E-01;4572; -2.3754211E-03;  0.0000000E+00; -4.2447806E-04;  9.9999609E+02;  1.0000000E-01; -3.2591672E+00;3;  8.8236934E-01;  0.0000000E+00;  5.9007529E-02;0;  1.5571370E-03;  4.0006844E+04;  0.0000000E+00;  4.0952954E-01;  4.0000000E+04;  0.0000000E+00;  3.9997043E+04;  2.8857556E-03;  0.0000000E+00; -1.3286186E-03;  6.8308453E+02;
  3.4110048E-01;  9.9999998E-03;  2.3003408E-01;4573; -2.2787366E-03;  0.0000000E+00; -4.5873271E-04;  9.9986713E+02;  1.0000000E-01; -1.1007096E+02;3;  8.8868243E-01;  0.0000000E+00;  5.5500396E-02;0;  1.7865879E-03;  3.9995566E+04;  0.0000000E+00;  4.7766864E-01;  4.0000000E+04;  0.0000000E+00;  3.9998438E+04;  3.2461190E-03;  0.0000000E+00; -1.4595311E-03;  7.0083398E+02;
  3.5117573E-01;  9.9999998E-03;  7.0000216E-02;4618; -2.7952639E-03;  0.0000000E+00; -1.1396639E-04;  1.0008215E+03;  1.0000000E-01;  6.8067212E+02;3;  1.2460197E+00;  0.0000000E+00;  6.7582898E-02;0; -1.2888885E-03;  4.0074598E+04;  0.0000000E+00;  1.6338252E-02;  4.0000000E+04;  0.0000000E+00;  3.9993633E+04;  9.6053648E-04;  0.0000000E+00; -2.2494250E-03;  8.7422638E+02;
  3.5117373E-01;  9.9999998E-03;  7.9996362E-02;4619; -2.7561206E-03;  0.0000000E+00; -1.3229239E-04;  1.0008500E+03;  1.0000000E-01;  7.0427637E+02;3;  1.2492588E+00;  0.0000000E+00;  7.2978050E-02;0; -9.5798902E-04;  4.0078223E+04;  0.0000000E+00;  2.7922813E-03;  4.0000000E+04;  0.0000000E+00;  3.9992754E+04;  1.2348887E-03;  0.0000000E+00; -2.1928777E-03;  9.9305634E+02;
  3.5117185E-01;  9.9999998E-03;  8.9992747E-02;4620; -2.7199509E-03;  0.0000000E+00; -1.5371948E-04;  1.0008863E+03;  1.0000000E-01;  7.3430023E+02;3;  1.2539219E+00;  0.0000000E+00;  7.5771593E-02;0; -6.3361577E-04;  4.0082035E+04;  0.0000000E+00; -2.0482622E-02;  4.0000000E+04;  0.0000000E+00;  3.9991387E+04;  1.4913320E-03;  0.0000000E+00; -2.1249477E-03;  1.1460125E+03;
  3.5116926E-01;  9.9999998E-03;  9.9990115E-02;4621; -2.6845504E-03;  0.0000000E+00; -1.7855183E-04;  1.0009190E+03;  1.0000000E-01;  7.6136121E+02;3;  1.2621930E+00;  0.0000000E+00;  7.6906890E-02;0; -3.3113430E-04;  4.0086211E+04;  0.0000000E+00; -5.3853769E-02;  4.0000000E+04;  0.0000000E+00;  3.9990020E+04;  1.7165823E-03;  0.0000000E+00; -2.0477166E-03;  1.3141841E+03;
  3.5116479E-01;  9.9999998E-03;  1.0998908E-01;4622; -2.6594903E-03;  0.0000000E+00; -2.0312231E-04;  1.0009532E+03;  1.0000000E-01;  7.8970605E+02;3;  1.2596793E+00;  0.0000000E+00;  8.1331640E-02;0; -6.3696411E-05;  4.0090520E+04;  0.0000000E+00; -9.6038736E-02;  4.0000000E+04;  0.0000000E+00;  3.9988801E+04;  1.9004350E-03;  0.0000000E+00; -1.9641314E-03;  1.4740797E+03;
  3.5115546E-01;  9.9999998E-03;  1.1999025E-01;4623; -2.6524807E-03;  0.0000000E+00; -2.2647362E-04;  1.0009832E+03;  1.0000000E-01;  8.1449548E+02;3;  1.2329750E+00;  0.0000000E+00;  8.7506503E-02;0;  1.5976571E-04;  4.0093773E+04;  0.0000000E+00; -1.4359909E-01;  4.0000000E+04;  0.0000000E+00;  3.9987879E+04;  2.0372306E-03;  0.0000000E+00; -1.8774649E-03;  1.6013394E+03;
  3.5113734E-01;  9.9999998E-03;  1.2999427E-01;4624; -2.6648501E-03;  0.0000000E+00; -2.4887722E-04;  1.0009979E+03;  1.0000000E-01;  8.2674207E+02;3;  1.1668417E+00;  0.0000000E+00;  9.6175313E-02;0;  3.3641479E-04;  4.0095652E+04;  0.0000000E+00; -1.9066662E-01;  4.0000000E+04;  0.0000000E+00;  3.9987598E+04;  2.1271876E-03;  0.0000000E+00; -1.7907728E-03;  1.6743052E+03;
  3.5110709E-01;  9.9999998E-03;  1.4000277E-01;4625; -2.6912161E-03;  0.0000000E+00; -2.7559805E-04;  1.0009993E+03;  1.0000000E-01;  8.2792719E+02;3;  1.0602509E+00;  0.0000000E+00;  9.2265263E-02;0;  4.7042733E-04;  4.0095695E+04;  0.0000000E+00; -2.2916658E-01;  4.0000000E+04;  0.0000000E+00;  3.9987531E+04;  2.1770883E-03;  0.0000000E+00; -1.7066610E-03;  1.6775150E+03;
  3.5106498E-01;  9.9999998E-03;  1.5001629E-01;4626; -2.7166987E-03;  0.0000000E+00; -3.0787435E-04;  1.0009782E+03;  1.0000000E-01;  8.1044623E+02;3;  9.7106224E-01;  0.0000000E+00;  8.7357976E-02;0;  5.7251914E-04;  4.0093445E+04;  0.0000000E+00; -2.4979497E-01;  4.0000000E+04;  0.0000000E+00;  3.9988223E+04;  2.1998391E-03;  0.0000000E+00; -1.6273200E-03;  1.6034695E+03;
  3.5102507E-01;  9.9999998E-03;  1.6002914E-01;4627; -2.7210014E-03;  0.0000000E+00; -3.4150263E-04;  1.0009294E+03;  1.0000000E-01;  7.7005231E+02;3;  9.2274022E-01;  0.0000000E+00;  7.5501949E-02;0;  6.5765076E-04;  4.0088395E+04;  0.0000000E+00; -2.4389109E-01;  4.0000000E+04;  0.0000000E+00;  3.9989453E+04;  2.2127158E-03;  0.0000000E+00; -1.5550650E-03;  1.4548635E+03;
  3.5100147E-01;  9.9999998E-03;  1.7003712E-01;4628; -2.7001444E-03;  0.0000000E+00; -3.7121560E-04;  1.0008574E+03;  1.0000000E-01;  7.1030090E+02;3;  9.0050578E-01;  0.0000000E+00;  6.4559981E-02;0;  7.4265082E-04;  4.0080934E+04;  0.0000000E+00; -2.0583354E-01;  4.0000000E+04;  0.0000000E+00;  3.9990941E+04;  2.2347744E-03;  0.0000000E+00; -1.4921236E-03;  1.2462152E+03;
  3.5099965E-01;  9.9999998E-03;  1.8004151E-01;4629; -2.6595348E-03;  0.0000000E+00; -3.9608372E-04;  1.0007498E+03;  1.0000000E-01;  6.2111823E+02;3;  8.9221239E-01;  0.0000000E+00;  5.8507659E-02;0;  8.4409351E-04;  4.0070793E+04;  0.0000000E+00; -1.3509479E-01;  4.0000000E+04;  0.0000000E+00;  3.9992773E+04;  2.2842991E-03;  0.0000000E+00; -1.4402056E-03;  1.0021644E+03;
  3.5101572E-01;  9.9999998E-03;  1.9004568E-01;4630; -2.6033057E-03;  0.0000000E+00; -4.1714861E-04;  1.0006180E+03;  1.0000000E-01;  5.1198553E+02;3;  8.8947445E-01;  0.0000000E+00;  5.5877212E-02;0;  9.7589043E-04;  4.0058711E+04;  0.0000000E+00; -3.6981832E-02;  4.0000000E+04;  0.0000000E+00;  3.9994625E+04;  2.3762537E-03;  0.0000000E+00; -1.4003633E-03;  7.6371814E+02;
  3.5104018E-01;  9.9999998E-03;  2.0005153E-01;4631; -2.5330668E-03;  0.0000000E+00; -4.3631656E-04;  1.0004680E+03;  1.0000000E-01;  3.8774213E+02;3;  8.8904589E-01;  0.0000000E+00;  5.4961946E-02;0;  1.1464383E-03;  4.0045531E+04;  0.0000000E+00;  7.8130923E-02;  4.0000000E+04;  0.0000000E+00;  3.9995754E+04;  2.5202590E-03;  0.0000000E+00; -1.3738207E-03;  6.0727466E+02;
  3.5106391E-01;  9.9999998E-03;  2.1005696E-01;4632; -2.4505563E-03;  0.0000000E+00; -4.6107257E-04;  1.0003008E+03;  1.0000000E-01;  2.4927690E+02;3;  8.9008701E-01;  0.0000000E+00;  5.3317282E-02;0;  1.3494566E-03;  4.0031871E+04;  0.0000000E+00;  1.9673105E-01;  4.0000000E+04;  0.0000000E+00;  3.9996004E+04;  2.7197558E-03;  0.0000000E+00; -1.3702991E-03;  6.1275098E+02;
  3.5108021E-01;  9.9999998E-03;  2.2005528E-01;4633; -2.3582946E-03;  0.0000000E+00; -5.0162018E-04;  1.0001305E+03;  1.0000000E-01;  1.0814509E+02;3;  8.9770561E-01;  0.0000000E+00;  4.6274677E-02;0;  1.5442782E-03;  4.0018836E+04;  0.0000000E+00;  3.0439812E-01;  4.0000000E+04;  0.0000000E+00;  3.9995539E+04;  2.9722045E-03;  0.0000000E+00; -1.4279262E-03;  7.0523492E+02;
  3.5108203E-01;  9.9999998E-03;  2.3004347E-01;4634; -2.2542265E-03;  0.0000000E+00; -5.4398371E-04;  9.9999640E+02;  1.0000000E-01; -2.9628792E+00;3;  9.1799897E-01;  0.0000000E+00;  3.3127647E-02;0;  1.6964850E-03;  4.0007207E+04;  0.0000000E+00;  3.8763189E-01;  4.0000000E+04;  0.0000000E+00;  3.9996551E+04;  3.2702703E-03;  0.0000000E+00; -1.5737853E-03;  6.8763324E+02;
  3.6113104E-01;  9.9999998E-03;  7.0002399E-02;4679; -2.7999550E-03;  0.0000000E+00; -1.4577979E-04;  1.0009410E+03;  1.0000000E-01;  7.7963226E+02;3;  1.2510667E+00;  0.0000000E+00;  6.7818984E-02;0; -1.3458513E-03;  4.0084008E+04;  0.0000000E+00;  3.4008466E-02;  4.0000000E+04;  0.0000000E+00;  3.9993781E+04;  1.2033059E-03;  0.0000000E+00; -2.5491572E-03;  8.8049817E+02;
  3.6112601E-01;  9.9999998E-03;  8.0000095E-02;4680; -2.7516168E-03;  0.0000000E+00; -1.6653685E-04;  1.0009444E+03;  1.0000000E-01;  7.8239764E+02;3;  1.2612598E+00;  0.0000000E+00;  7.2287619E-02;0; -1.0811350E-03;  4.0085102E+04;  0.0000000E+00;  2.8160106E-02;  4.0000000E+04;  0.0000000E+00;  3.9992891E+04;  1.4021603E-03;  0.0000000E+00; -2.4832953E-03;  9.7221503E+02;
  3.6112264E-01;  9.9999998E-03;  8.9997396E-02;4681; -2.6995449E-03;  0.0000000E+00; -1.9167439E-04;  1.0009496E+03;  1.0000000E-01;  7.8674316E+02;3;  1.2846400E+00;  0.0000000E+00;  7.2403722E-02;0; -8.1382936E-04;  4.0086555E+04;  0.0000000E+00;  1.3202693E-02;  4.0000000E+04;  0.0000000E+00;  3.9991914E+04;  1.5945887E-03;  0.0000000E+00; -2.4084181E-03;  1.0988630E+03;
  3.6112076E-01;  9.9999998E-03;  9.9994898E-02;4682; -2.6442383E-03;  0.0000000E+00; -2.2000090E-04;  1.0009608E+03;  1.0000000E-01;  7.9592810E+02;3;  1.3153967E+00;  0.0000000E+00;  7.1402006E-02;0; -5.5506988E-04;  4.0088812E+04;  0.0000000E+00; -1.2118911E-02;  4.0000000E+04;  0.0000000E+00;  3.9990719E+04;  1.7709527E-03;  0.0000000E+00; -2.3260226E-03;  1.2459625E+03;
  3.6111823E-01;  9.9999998E-03;  1.0999289E-01;4683; -2.5983052E-03;  0.0000000E+00; -2.4772121E-04;  1.0009750E+03;  1.0000000E-01;  8.0777960E+02;3;  1.3379421E+00;  0.0000000E+00;  7.0652716E-02;0; -3.1466433E-04;  4.0090910E+04;  0.0000000E+00; -4.7609791E-02;  4.0000000E+04;  0.0000000E+00;  3.9989609E+04;  1.9232887E-03;  0.0000000E+00; -2.2379530E-03;  1.3942345E+03;
  3.6111179E-01;  9.9999998E-03;  1.1999168E-01;4684; -2.5678074E-03;  0.0000000E+00; -2.7386748E-04;  1.0009841E+03;  1.0000000E-01;  8.1528558E+02;3;  1.3465791E+00;  0.0000000E+00;  7.0844717E-02;0; -9.9637313E-05;  4.0092762E+04;  0.0000000E+00; -9.1043644E-02;  4.0000000E+04;  0.0000000E+00;  3.9988605E+04;  2.0464845E-03;  0.0000000E+00; -2.1461218E-03;  1.5225892E+03;
  3.6110017E-01;  9.9999998E-03;  1.2999181E-01;4685; -2.5547016E-03;  0.0000000E+00; -2.9706483E-04;  1.0009862E+03;  1.0000000E-01;  8.1706329E+02;3;  1.3243107E+00;  0.0000000E+00;  7.9926081E-02;0;  8.7016029E-05;  4.0093809E+04;  0.0000000E+00; -1.3773784E-01;  4.0000000E+04;  0.0000000E+00;  3.9987738E+04;  2.1393390E-03;  0.0000000E+00; -2.0523230E-03;  1.6110804E+03;
  3.6108252E-01;  9.9999998E-03;  1.3999435E-01;4686; -2.5565897E-03;  0.0000000E+00; -3.1871314E-04;  1.0009781E+03;  1.0000000E-01;  8.1034747E+02;3;  1.2736031E+00;  0.0000000E+00;  9.2268810E-02;0;  2.4715858E-04;  4.0093305E+04;  0.0000000E+00; -1.8053269E-01;  4.0000000E+04;  0.0000000E+00;  3.9987707E+04;  2.2051968E-03;  0.0000000E+00; -1.9580382E-03;  1.6430961E+03;
  3.6105642E-01;  9.9999998E-03;  1.5000108E-01;4687; -2.5704093E-03;  0.0000000E+00; -3.4258733E-04;  1.0009526E+03;  1.0000000E-01;  7.8921222E+02;3;  1.1796937E+00;  0.0000000E+00;  9.4667114E-02;0;  3.8744486E-04;  4.0091258E+04;  0.0000000E+00; -2.1049052E-01;  4.0000000E+04;  0.0000000E+00;  3.9988086E+04;  2.2519543E-03;  0.0000000E+00; -1.8645094E-03;  1.6069381E+03;
  3.6102137E-01;  9.9999998E-03;  1.6001269E-01;4688; -2.5942936E-03;  0.0000000E+00; -3.7426123E-04;  1.0009117E+03;  1.0000000E-01;  7.5533667E+02;3;  1.0526824E+00;  0.0000000E+00;  8.7869108E-02;0;  5.1755423E-04;  4.0086910E+04;  0.0000000E+00; -2.1870984E-01;  4.0000000E+04;  0.0000000E+00;  3.9988836E+04;  2.2908414E-03;  0.0000000E+00; -1.7732872E-03;  1.4981456E+03;
  3.6099032E-01;  9.9999998E-03;  1.7002466E-01;4689; -2.6047858E-03;  0.0000000E+00; -4.0936764E-04;  1.0008445E+03;  1.0000000E-01;  6.9963452E+02;3;  9.7715163E-01;  0.0000000E+00;  7.7063970E-02;0;  6.4782577E-04;  4.0080789E+04;  0.0000000E+00; -1.9875765E-01;  4.0000000E+04;  0.0000000E+00;  3.9990316E+04;  2.3347151E-03;  0.0000000E+00; -1.6868893E-03;  1.3242830E+03;
  3.6097530E-01;  9.9999998E-03;  1.8003386E-01;4690; -2.5880099E-03;  0.0000000E+00; -4.4290730E-04;  1.0007669E+03;  1.0000000E-01;  6.3534003E+02;3;  9.3901020E-01;  0.0000000E+00;  6.5088674E-02;0;  7.8781438E-04;  4.0072406E+04;  0.0000000E+00; -1.4880067E-01;  4.0000000E+04;  0.0000000E+00;  3.9991902E+04;  2.3963982E-03;  0.0000000E+00; -1.6085838E-03;  1.1056677E+03;
  3.6097690E-01;  9.9999998E-03;  1.9004145E-01;4691; -2.5456599E-03;  0.0000000E+00; -4.7104500E-04;  1.0006564E+03;  1.0000000E-01;  5.4378711E+02;3;  9.2132592E-01;  0.0000000E+00;  5.6980781E-02;0;  9.4550569E-04;  4.0062270E+04;  0.0000000E+00; -7.2434038E-02;  4.0000000E+04;  0.0000000E+00;  3.9993469E+04;  2.4868634E-03;  0.0000000E+00; -1.5413577E-03;  8.7691980E+02;
  3.6099181E-01;  9.9999998E-03;  2.0004919E-01;4692; -2.4821544E-03;  0.0000000E+00; -4.9563416E-04;  1.0005270E+03;  1.0000000E-01;  4.3662964E+02;3;  9.1582215E-01;  0.0000000E+00;  4.8827425E-02;0;  1.1251216E-03;  4.0050902E+04;  0.0000000E+00;  2.2039590E-02;  4.0000000E+04;  0.0000000E+00;  3.9994859E+04;  2.6136332E-03;  0.0000000E+00; -1.4885116E-03;  6.9998401E+02;
  3.6101311E-01;  9.9999998E-03;  2.1005638E-01;4693; -2.4022956E-03;  0.0000000E+00; -5.2387692E-04;  1.0003824E+03;  1.0000000E-01;  3.1683054E+02;3;  9.1782153E-01;  0.0000000E+00;  3.9193910E-02;0;  1.3185932E-03;  4.0038793E+04;  0.0000000E+00;  1.2327761E-01;  4.0000000E+04;  0.0000000E+00;  3.9995141E+04;  2.7796661E-03;  0.0000000E+00; -1.4610729E-03;  6.5697284E+02;
  3.6102992E-01;  9.9999998E-03;  2.2005698E-01;4694; -2.3081861E-03;  0.0000000E+00; -5.6667777E-04;  1.0002255E+03;  1.0000000E-01;  1.8685892E+02;3;  9.3849564E-01;  0.0000000E+00;  2.6076829E-02;0;  1.4844247E-03;  4.0026465E+04;  0.0000000E+00;  2.1857719E-01;  4.0000000E+04;  0.0000000E+00;  3.9995035E+04;  2.9831142E-03;  0.0000000E+00; -1.4986895E-03;  7.1525146E+02;
  3.6103320E-01;  9.9999998E-03;  2.3004700E-01;4695; -2.1949273E-03;  0.0000000E+00; -6.1069289E-04;  1.0000907E+03;  1.0000000E-01;  7.5158371E+01;3;  9.8150218E-01;  0.0000000E+00;  1.2207837E-02;0;  1.5869427E-03;  4.0014711E+04;  0.0000000E+00;  2.9544666E-01;  4.0000000E+04;  0.0000000E+00;  3.9995918E+04;  3.2180632E-03;  0.0000000E+00; -1.6311205E-03;  6.6624738E+02;
  3.7109175E-01;  9.9999998E-03;  7.0004232E-02;4740; -2.7869157E-03;  0.0000000E+00; -1.8693795E-04;  1.0010043E+03;  1.0000000E-01;  8.3207526E+02;3;  1.2685506E+00;  0.0000000E+00;  6.0284726E-02;0; -1.3190255E-03;  4.0089035E+04;  0.0000000E+00;  4.8495345E-02;  4.0000000E+04;  0.0000000E+00;  3.9993355E+04;  1.5390386E-03;  0.0000000E+00; -2.8580641E-03;  9.1107654E+02;
  3.7108752E-01;  9.9999998E-03;  8.0003656E-02;4741; -2.7286948E-03;  0.0000000E+00; -2.1307234E-04;  1.0009881E+03;  1.0000000E-01;  8.1864349E+02;3;  1.2953823E+00;  0.0000000E+00;  5.9169427E-02;0; -1.1318492E-03;  4.0088273E+04;  0.0000000E+00;  5.0078679E-02;  4.0000000E+04;  0.0000000E+00;  3.9992918E+04;  1.6478883E-03;  0.0000000E+00; -2.7797376E-03;  9.7531067E+02;
  3.7108555E-01;  9.9999998E-03;  9.0002611E-02;4742; -2.6612245E-03;  0.0000000E+00; -2.4342745E-04;  1.0009765E+03;  1.0000000E-01;  8.0896478E+02;3;  1.3384267E+00;  0.0000000E+00;  5.6113560E-02;0; -9.3479943E-04;  4.0088246E+04;  0.0000000E+00;  4.3977316E-02;  4.0000000E+04;  0.0000000E+00;  3.9992191E+04;  1.7592942E-03;  0.0000000E+00; -2.6940936E-03;  1.0713992E+03;
  3.7108585E-01;  9.9999998E-03;  1.0000075E-01;4743; -2.5960514E-03;  0.0000000E+00; -2.7467369E-04;  1.0009693E+03;  1.0000000E-01;  8.0303900E+02;3;  1.3793842E+00;  0.0000000E+00;  5.1245842E-02;0; -7.3463621E-04;  4.0088629E+04;  0.0000000E+00;  2.8301243E-02;  4.0000000E+04;  0.0000000E+00;  3.9991160E+04;  1.8677296E-03;  0.0000000E+00; -2.6023658E-03;  1.1885568E+03;
  3.7108555E-01;  9.9999998E-03;  1.0999811E-01;4744; -2.5443835E-03;  0.0000000E+00; -3.0339486E-04;  1.0009673E+03;  1.0000000E-01;  8.0136005E+02;3;  1.4104149E+00;  0.0000000E+00;  4.7053423E-02;0; -5.3759920E-04;  4.0089395E+04;  0.0000000E+00;  2.3359989E-03;  4.0000000E+04;  0.0000000E+00;  3.9990219E+04;  1.9681153E-03;  0.0000000E+00; -2.5057145E-03;  1.3121580E+03;
  3.7108222E-01;  9.9999998E-03;  1.1999519E-01;4745; -2.5069092E-03;  0.0000000E+00; -3.2949788E-04;  1.0009619E+03;  1.0000000E-01;  7.9691571E+02;3;  1.4155940E+00;  0.0000000E+00;  4.9096331E-02;0; -3.4840452E-04;  4.0090039E+04;  0.0000000E+00; -3.2833245E-02;  4.0000000E+04;  0.0000000E+00;  3.9989160E+04;  2.0566967E-03;  0.0000000E+00; -2.4051012E-03;  1.4255103E+03;
  3.7107486E-01;  9.9999998E-03;  1.2999268E-01;4746; -2.4798701E-03;  0.0000000E+00; -3.5402222E-04;  1.0009542E+03;  1.0000000E-01;  7.9059491E+02;3;  1.4120781E+00;  0.0000000E+00;  5.5499669E-02;0; -1.6950397E-04;  4.0090234E+04;  0.0000000E+00; -7.3806636E-02;  4.0000000E+04;  0.0000000E+00;  3.9988574E+04;  2.1317373E-03;  0.0000000E+00; -2.3012413E-03;  1.5118278E+03;
  3.7106434E-01;  9.9999998E-03;  1.3999145E-01;4747; -2.4618551E-03;  0.0000000E+00; -3.7663916E-04;  1.0009376E+03;  1.0000000E-01;  7.7676813E+02;3;  1.3974710E+00;  0.0000000E+00;  6.5549567E-02;0; -5.2899122E-07;  4.0089262E+04;  0.0000000E+00; -1.1467387E-01;  4.0000000E+04;  0.0000000E+00;  3.9988359E+04;  2.1941829E-03;  0.0000000E+00; -2.1947119E-03;  1.5554359E+03;
  3.7104917E-01;  9.9999998E-03;  1.4999254E-01;4748; -2.4498836E-03;  0.0000000E+00; -3.9731886E-04;  1.0009149E+03;  1.0000000E-01;  7.5790448E+02;3;  1.3704129E+00;  0.0000000E+00;  7.7459887E-02;0;  1.6176072E-04;  4.0087133E+04;  0.0000000E+00; -1.4746693E-01;  4.0000000E+04;  0.0000000E+00;  3.9988641E+04;  2.2479077E-03;  0.0000000E+00; -2.0861470E-03;  1.5429613E+03;
  3.7102893E-01;  9.9999998E-03;  1.5999757E-01;4749; -2.4405019E-03;  0.0000000E+00; -4.1860517E-04;  1.0008723E+03;  1.0000000E-01;  7.2274500E+02;3;  1.3266613E+00;  0.0000000E+00;  8.3167978E-02;0;  3.2229628E-04;  4.0083211E+04;  0.0000000E+00; -1.6377699E-01;  4.0000000E+04;  0.0000000E+00;  3.9989164E+04;  2.2992149E-03;  0.0000000E+00; -1.9769187E-03;  1.4649753E+03;
  3.7100503E-01;  9.9999998E-03;  1.7000750E-01;4750; -2.4364451E-03;  0.0000000E+00; -4.4572016E-04;  1.0008145E+03;  1.0000000E-01;  6.7474634E+02;3;  1.2436261E+00;  0.0000000E+00;  7.9298906E-02;0;  4.8647495E-04;  4.0077746E+04;  0.0000000E+00; -1.5724429E-01;  4.0000000E+04;  0.0000000E+00;  3.9990371E+04;  2.3555411E-03;  0.0000000E+00; -1.8690662E-03;  1.3205737E+03;
  3.7098342E-01;  9.9999998E-03;  1.8001959E-01;4751; -2.4346998E-03;  0.0000000E+00; -4.7749912E-04;  1.0007440E+03;  1.0000000E-01;  6.1637762E+02;3;  1.1350950E+00;  0.0000000E+00;  7.2154365E-02;0;  6.5855111E-04;  4.0070211E+04;  0.0000000E+00; -1.2559518E-01;  4.0000000E+04;  0.0000000E+00;  3.9991773E+04;  2.4243305E-03;  0.0000000E+00; -1.7657793E-03;  1.1244425E+03;
  3.7097064E-01;  9.9999998E-03;  1.9003101E-01;4752; -2.4153858E-03;  0.0000000E+00; -5.0947967E-04;  1.0006539E+03;  1.0000000E-01;  5.4171307E+02;3;  1.0633701E+00;  0.0000000E+00;  6.1487183E-02;0;  8.4076426E-04;  4.0061523E+04;  0.0000000E+00; -7.1272202E-02;  4.0000000E+04;  0.0000000E+00;  3.9993270E+04;  2.5121991E-03;  0.0000000E+00; -1.6714348E-03;  9.0797485E+02;
  3.7096760E-01;  9.9999998E-03;  2.0004174E-01;4753; -2.3677927E-03;  0.0000000E+00; -5.3772819E-04;  1.0005427E+03;  1.0000000E-01;  4.4956754E+02;3;  1.0381901E+00;  0.0000000E+00;  5.0381191E-02;0;  1.0335736E-03;  4.0051258E+04;  0.0000000E+00; -8.0540503E-04;  4.0000000E+04;  0.0000000E+00;  3.9994551E+04;  2.6237767E-03;  0.0000000E+00; -1.5902030E-03;  7.2585382E+02;
  3.7097102E-01;  9.9999998E-03;  2.1005073E-01;4754; -2.2931795E-03;  0.0000000E+00; -5.6541670E-04;  1.0004107E+03;  1.0000000E-01;  3.4023730E+02;3;  1.0455711E+00;  0.0000000E+00;  4.0892813E-02;0;  1.2305327E-03;  4.0040391E+04;  0.0000000E+00;  7.6622084E-02;  4.0000000E+04;  0.0000000E+00;  3.9995281E+04;  2.7606715E-03;  0.0000000E+00; -1.5301389E-03;  6.4847009E+02;
  3.7097371E-01;  9.9999998E-03;  2.2005323E-01;4755; -2.1996030E-03;  0.0000000E+00; -6.0310878E-04;  1.0002689E+03;  1.0000000E-01;  2.2270975E+02;3;  1.0722085E+00;  0.0000000E+00;  3.1862024E-02;0;  1.3976014E-03;  4.0028527E+04;  0.0000000E+00;  1.5053646E-01;  4.0000000E+04;  0.0000000E+00;  3.9995039E+04;  2.9208632E-03;  0.0000000E+00; -1.5232618E-03;  6.6138696E+02;
  3.7096930E-01;  9.9999998E-03;  2.3004572E-01;4756; -2.0825679E-03;  0.0000000E+00; -6.3993124E-04;  1.0001329E+03;  1.0000000E-01;  1.1012035E+02;3;  1.1162510E+00;  0.0000000E+00;  2.8218111E-02;0;  1.5075237E-03;  4.0017008E+04;  0.0000000E+00;  2.1058024E-01;  4.0000000E+04;  0.0000000E+00;  3.9995996E+04;  3.0988988E-03;  0.0000000E+00; -1.5913751E-03;  5.8376538E+02;
  3.8105565E-01;  9.9999998E-03;  7.0007458E-02;4801; -2.7542734E-03;  0.0000000E+00; -2.3695471E-04;  1.0009976E+03;  1.0000000E-01;  8.2654449E+02;3;  1.3117718E+00;  0.0000000E+00;  4.3122519E-02;0; -1.1842109E-03;  4.0088418E+04;  0.0000000E+00;  6.0064469E-02;  4.0000000E+04;  0.0000000E+00;  3.9993074E+04;  1.9891174E-03;  0.0000000E+00; -3.1733282E-03;  9.5986218E+02;
  3.8105804E-01;  9.9999998E-03;  8.0007620E-02;4802; -2.6859576E-03;  0.0000000E+00; -2.7000482E-04;  1.0009697E+03;  1.0000000E-01;  8.0333533E+02;3;  1.3559881E+00;  0.0000000E+00;  3.8720071E-02;0; -1.0777803E-03;  4.0086828E+04;  0.0000000E+00;  6.7952447E-02;  4.0000000E+04;  0.0000000E+00;  3.9992648E+04;  2.0032760E-03;  0.0000000E+00; -3.0810563E-03;  9.9885748E+02;
  3.8106123E-01;  9.9999998E-03;  9.0007544E-02;4803; -2.6163044E-03;  0.0000000E+00; -3.0350368E-04;  1.0009524E+03;  1.0000000E-01;  7.8901471E+02;3;  1.4015903E+00;  0.0000000E+00;  3.4099612E-02;0; -9.5653930E-04;  4.0085918E+04;  0.0000000E+00;  7.0021994E-02;  4.0000000E+04;  0.0000000E+00;  3.9992176E+04;  2.0260073E-03;  0.0000000E+00; -2.9825466E-03;  1.0638328E+03;
  3.8106534E-01;  9.9999998E-03;  1.0000631E-01;4804; -2.5593115E-03;  0.0000000E+00; -3.3357445E-04;  1.0009390E+03;  1.0000000E-01;  7.7795331E+02;3;  1.4346958E+00;  0.0000000E+00;  2.8496699E-02;0; -8.2310638E-04;  4.0085312E+04;  0.0000000E+00;  6.4095728E-02;  4.0000000E+04;  0.0000000E+00;  3.9991668E+04;  2.0559265E-03;  0.0000000E+00; -2.8790329E-03;  1.1472029E+03;
  3.8106677E-01;  9.9999998E-03;  1.1000355E-01;4805; -2.5141134E-03;  0.0000000E+00; -3.6025280E-04;  1.0009296E+03;  1.0000000E-01;  7.7015106E+02;3;  1.4387330E+00;  0.0000000E+00;  3.2577965E-02;0; -6.8022264E-04;  4.0085191E+04;  0.0000000E+00;  4.8797715E-02;  4.0000000E+04;  0.0000000E+00;  3.9990809E+04;  2.0910683E-03;  0.0000000E+00; -2.7712910E-03;  1.2383906E+03;
  3.8106492E-01;  9.9999998E-03;  1.1999949E-01;4806; -2.4753925E-03;  0.0000000E+00; -3.8579042E-04;  1.0009184E+03;  1.0000000E-01;  7.6086737E+02;3;  1.4362221E+00;  0.0000000E+00;  4.0700849E-02;0; -5.3020427E-04;  4.0084945E+04;  0.0000000E+00;  2.4197781E-02;  4.0000000E+04;  0.0000000E+00;  3.9990082E+04;  2.1294532E-03;  0.0000000E+00; -2.6596575E-03;  1.3253142E+03;
  3.8106042E-01;  9.9999998E-03;  1.2999523E-01;4807; -2.4427993E-03;  0.0000000E+00; -4.1044512E-04;  1.0009037E+03;  1.0000000E-01;  7.4871954E+02;3;  1.4302932E+00;  0.0000000E+00;  4.9333338E-02;0; -3.7455326E-04;  4.0084375E+04;  0.0000000E+00; -7.6330700E-03;  4.0000000E+04;  0.0000000E+00;  3.9989539E+04;  2.1695285E-03;  0.0000000E+00; -2.5440818E-03;  1.3949021E+03;
  3.8105297E-01;  9.9999998E-03;  1.3999166E-01;4808; -2.4157825E-03;  0.0000000E+00; -4.3378767E-04;  1.0008820E+03;  1.0000000E-01;  7.3074475E+02;3;  1.4223843E+00;  0.0000000E+00;  6.0863718E-02;0; -2.1359930E-04;  4.0083340E+04;  0.0000000E+00; -4.2312592E-02;  4.0000000E+04;  0.0000000E+00;  3.9989340E+04;  2.2108124E-03;  0.0000000E+00; -2.4244117E-03;  1.4338590E+03;
  3.8104376E-01;  9.9999998E-03;  1.4998966E-01;4809; -2.3924080E-03;  0.0000000E+00; -4.5522727E-04;  1.0008517E+03;  1.0000000E-01;  7.0565906E+02;3;  1.4126501E+00;  0.0000000E+00;  7.1351610E-02;0; -4.6554254E-05;  4.0080867E+04;  0.0000000E+00; -7.3334135E-02;  4.0000000E+04;  0.0000000E+00;  3.9988941E+04;  2.2543173E-03;  0.0000000E+00; -2.3008715E-03;  1.4294303E+03;
  3.8103431E-01;  9.9999998E-03;  1.5999039E-01;4810; -2.3687263E-03;  0.0000000E+00; -4.7497600E-04;  1.0008130E+03;  1.0000000E-01;  6.7356122E+02;3;  1.3999362E+00;  0.0000000E+00;  8.0715351E-02;0;  1.2771995E-04;  4.0077273E+04;  0.0000000E+00; -9.3445502E-02;  4.0000000E+04;  0.0000000E+00;  3.9989609E+04;  2.3026182E-03;  0.0000000E+00; -2.1748983E-03;  1.3699441E+03;
  3.8102198E-01;  9.9999998E-03;  1.6999504E-01;4811; -2.3410001E-03;  0.0000000E+00; -4.9373019E-04;  1.0007619E+03;  1.0000000E-01;  6.3119202E+02;3;  1.3784307E+00;  0.0000000E+00;  9.0331592E-02;0;  3.1072064E-04;  4.0071914E+04;  0.0000000E+00; -9.7001128E-02;  4.0000000E+04;  0.0000000E+00;  3.9990598E+04;  2.3592114E-03;  0.0000000E+00; -2.0484908E-03;  1.2479010E+03;
  3.8100460E-01;  9.9999998E-03;  1.8000403E-01;4812; -2.3074860E-03;  0.0000000E+00; -5.1441131E-04;  1.0006885E+03;  1.0000000E-01;  5.7045300E+02;3;  1.3518832E+00;  0.0000000E+00;  8.9459658E-02;0;  5.0390186E-04;  4.0065211E+04;  0.0000000E+00; -8.1741735E-02;  4.0000000E+04;  0.0000000E+00;  3.9992070E+04;  2.4276157E-03;  0.0000000E+00; -1.9237138E-03;  1.0677125E+03;
  3.8098660E-01;  9.9999998E-03;  1.9001584E-01;4813; -2.2696408E-03;  0.0000000E+00; -5.3858111E-04;  1.0006076E+03;  1.0000000E-01;  5.0339316E+02;3;  1.3129035E+00;  0.0000000E+00;  8.6354278E-02;0;  7.0704694E-04;  4.0056988E+04;  0.0000000E+00; -4.9213506E-02;  4.0000000E+04;  0.0000000E+00;  3.9993586E+04;  2.5106447E-03;  0.0000000E+00; -1.8035978E-03;  8.5507220E+02;
  3.8097119E-01;  9.9999998E-03;  2.0002839E-01;4814; -2.2185761E-03;  0.0000000E+00; -5.6036387E-04;  1.0005098E+03;  1.0000000E-01;  4.2240781E+02;3;  1.2830114E+00;  0.0000000E+00;  8.3952233E-02;0;  9.1993902E-04;  4.0047531E+04;  0.0000000E+00; -4.2492822E-03;  4.0000000E+04;  0.0000000E+00;  3.9995039E+04;  2.6099058E-03;  0.0000000E+00; -1.6899668E-03;  6.5981647E+02;
  3.8095710E-01;  9.9999998E-03;  2.1003930E-01;4815; -2.1452757E-03;  0.0000000E+00; -5.7821709E-04;  1.0003937E+03;  1.0000000E-01;  3.2621298E+02;3;  1.2700191E+00;  0.0000000E+00;  8.5764654E-02;0;  1.1419520E-03;  4.0037125E+04;  0.0000000E+00;  4.6134867E-02;  4.0000000E+04;  0.0000000E+00;  3.9995891E+04;  2.7249530E-03;  0.0000000E+00; -1.5830010E-03;  5.4456219E+02;
  3.8094079E-01;  9.9999998E-03;  2.2004409E-01;4816; -2.0509460E-03;  0.0000000E+00; -6.0110149E-04;  1.0002587E+03;  1.0000000E-01;  2.1431493E+02;3;  1.2723031E+00;  0.0000000E+00;  8.9603908E-02;0;  1.3543555E-03;  4.0025785E+04;  0.0000000E+00;  9.3970701E-02;  4.0000000E+04;  0.0000000E+00;  3.9996141E+04;  2.8525374E-03;  0.0000000E+00; -1.4981820E-03;  5.0560153E+02;
  3.8091919E-01;  9.9999998E-03;  2.3003973E-01;4817; -1.9259279E-03;  0.0000000E+00; -6.1673875E-04;  1.0001284E+03;  1.0000000E-01;  1.0636736E+02;3;  1.2977228E+00;  0.0000000E+00;  1.0104120E-01;0;  1.5620207E-03;  4.0014242E+04;  0.0000000E+00;  1.3153198E-01;  4.0000000E+04;  0.0000000E+00;  3.9997344E+04;  2.9867643E-03;  0.0000000E+00; -1.4247436E-03;  3.9661429E+02;
  3.9102593E-01;  9.9999998E-03;  7.0010580E-02;4862; -2.7009938E-03;  0.0000000E+00; -2.9270016E-04;  1.0009206E+03;  1.0000000E-01;  7.6264508E+02;3;  1.3845097E+00;  0.0000000E+00;  2.0139799E-02;0; -8.9004915E-04;  4.0082430E+04;  0.0000000E+00;  6.9135956E-02;  4.0000000E+04;  0.0000000E+00;  3.9992410E+04;  2.6019127E-03;  0.0000000E+00; -3.4919619E-03;  1.0206360E+03;
  3.9103785E-01;  9.9999998E-03;  8.0010973E-02;4863; -2.6387642E-03;  0.0000000E+00; -3.2909939E-04;  1.0008983E+03;  1.0000000E-01;  7.4427527E+02;3;  1.4223025E+00;  0.0000000E+00;  1.8392110E-02;0; -8.5720886E-04;  4.0081066E+04;  0.0000000E+00;  8.1868656E-02;  4.0000000E+04;  0.0000000E+00;  3.9992207E+04;  2.5289780E-03;  0.0000000E+00; -3.3861869E-03;  1.0384059E+03;
  3.9104834E-01;  9.9999998E-03;  9.0011403E-02;4864; -2.5855908E-03;  0.0000000E+00; -3.6163381E-04;  1.0008823E+03;  1.0000000E-01;  7.3094226E+02;3;  1.4503819E+00;  0.0000000E+00;  1.4542241E-02;0; -8.0714794E-04;  4.0079867E+04;  0.0000000E+00;  9.0646029E-02;  4.0000000E+04;  0.0000000E+00;  3.9992125E+04;  2.4676640E-03;  0.0000000E+00; -3.2748119E-03;  1.0748113E+03;
  3.9105454E-01;  9.9999998E-03;  1.0001086E-01;4865; -2.5425733E-03;  0.0000000E+00; -3.8947185E-04;  1.0008737E+03;  1.0000000E-01;  7.2383136E+02;3;  1.4504278E+00;  0.0000000E+00;  2.0777466E-02;0; -7.3894858E-04;  4.0079234E+04;  0.0000000E+00;  9.3337342E-02;  4.0000000E+04;  0.0000000E+00;  3.9991777E+04;  2.4201488E-03;  0.0000000E+00; -3.1590974E-03;  1.1246475E+03;
  3.9105585E-01;  9.9999998E-03;  1.1000871E-01;4866; -2.5018670E-03;  0.0000000E+00; -4.1583044E-04;  1.0008608E+03;  1.0000000E-01;  7.1316504E+02;3;  1.4460055E+00;  0.0000000E+00;  2.9288078E-02;0; -6.5227412E-04;  4.0078570E+04;  0.0000000E+00;  8.8211946E-02;  4.0000000E+04;  0.0000000E+00;  3.9991418E+04;  2.3874121E-03;  0.0000000E+00; -3.0396862E-03;  1.1809398E+03;
  3.9105317E-01;  9.9999998E-03;  1.2000509E-01;4867; -2.4639950E-03;  0.0000000E+00; -4.4141925E-04;  1.0008462E+03;  1.0000000E-01;  7.0101721E+02;3;  1.4416137E+00;  0.0000000E+00;  3.9686274E-02;0; -5.4719625E-04;  4.0078137E+04;  0.0000000E+00;  7.4511237E-02;  4.0000000E+04;  0.0000000E+00;  3.9990633E+04;  2.3693230E-03;  0.0000000E+00; -2.9165193E-03;  1.2353262E+03;
  3.9104751E-01;  9.9999998E-03;  1.3000056E-01;4868; -2.4296418E-03;  0.0000000E+00; -4.6627116E-04;  1.0008287E+03;  1.0000000E-01;  6.8649908E+02;3;  1.4345101E+00;  0.0000000E+00;  5.0788976E-02;0; -4.2395154E-04;  4.0077191E+04;  0.0000000E+00;  5.3006675E-02;  4.0000000E+04;  0.0000000E+00;  3.9990312E+04;  2.3650955E-03;  0.0000000E+00; -2.7890471E-03;  1.2785576E+03;
  3.9104018E-01;  9.9999998E-03;  1.3999605E-01;4869; -2.3987682E-03;  0.0000000E+00; -4.8994977E-04;  1.0008071E+03;  1.0000000E-01;  6.6872180E+02;3;  1.4281871E+00;  0.0000000E+00;  6.1874244E-02;0; -2.8284825E-04;  4.0075621E+04;  0.0000000E+00;  2.6429206E-02;  4.0000000E+04;  0.0000000E+00;  3.9990328E+04;  2.3738600E-03;  0.0000000E+00; -2.6567082E-03;  1.3004603E+03;
  3.9103353E-01;  9.9999998E-03;  1.4999256E-01;4870; -2.3701964E-03;  0.0000000E+00; -5.1186298E-04;  1.0007764E+03;  1.0000000E-01;  6.4324109E+02;3;  1.4194202E+00;  0.0000000E+00;  7.4551880E-02;0; -1.2433529E-04;  4.0073121E+04;  0.0000000E+00; -5.0679105E-04;  4.0000000E+04;  0.0000000E+00;  3.9990406E+04;  2.3951370E-03;  0.0000000E+00; -2.5194723E-03;  1.2900879E+03;
  3.9102650E-01;  9.9999998E-03;  1.5999100E-01;4871; -2.3414653E-03;  0.0000000E+00; -5.3167541E-04;  1.0007372E+03;  1.0000000E-01;  6.1074817E+02;3;  1.4101495E+00;  0.0000000E+00;  8.5843004E-02;0;  5.0233677E-05;  4.0069402E+04;  0.0000000E+00; -2.2197409E-02;  4.0000000E+04;  0.0000000E+00;  3.9990570E+04;  2.4290495E-03;  0.0000000E+00; -2.3788158E-03;  1.2362169E+03;
  3.9101633E-01;  9.9999998E-03;  1.6999215E-01;4872; -2.3082602E-03;  0.0000000E+00; -5.4958760E-04;  1.0006804E+03;  1.0000000E-01;  5.6373712E+02;3;  1.4006217E+00;  0.0000000E+00;  9.7051375E-02;0;  2.3934455E-04;  4.0063992E+04;  0.0000000E+00; -3.4084748E-02;  4.0000000E+04;  0.0000000E+00;  3.9991574E+04;  2.4764601E-03;  0.0000000E+00; -2.2371155E-03;  1.1285616E+03;
  3.9100397E-01;  9.9999998E-03;  1.7999659E-01;4873; -2.2669786E-03;  0.0000000E+00; -5.6603673E-04;  1.0006140E+03;  1.0000000E-01;  5.0872635E+02;3;  1.3878351E+00;  0.0000000E+00;  1.0483702E-01;0;  4.4198404E-04;  4.0057617E+04;  0.0000000E+00; -3.4014188E-02;  4.0000000E+04;  0.0000000E+00;  3.9992707E+04;  2.5384459E-03;  0.0000000E+00; -2.0964618E-03;  9.6341064E+02;
  3.9098847E-01;  9.9999998E-03;  1.9000421E-01;4874; -2.2142425E-03;  0.0000000E+00; -5.8141822E-04;  1.0005364E+03;  1.0000000E-01;  4.4433310E+02;3;  1.3769649E+00;  0.0000000E+00;  1.1084025E-01;0;  6.5770443E-04;  4.0049668E+04;  0.0000000E+00; -2.2627674E-02;  4.0000000E+04;  0.0000000E+00;  3.9994363E+04;  2.6154930E-03;  0.0000000E+00; -1.9577886E-03;  7.5268396E+02;
  3.9096972E-01;  9.9999998E-03;  2.0001407E-01;4875; -2.1502064E-03;  0.0000000E+00; -5.9533480E-04;  1.0004431E+03;  1.0000000E-01;  3.6710074E+02;3;  1.3624680E+00;  0.0000000E+00;  1.1605673E-01;0;  8.8611338E-04;  4.0040539E+04;  0.0000000E+00; -2.9789601E-03;  4.0000000E+04;  0.0000000E+00;  3.9996094E+04;  2.7067454E-03;  0.0000000E+00; -1.8206320E-03;  5.3248383E+02;
  3.9094886E-01;  9.9999998E-03;  2.1002389E-01;4876; -2.0671615E-03;  0.0000000E+00; -6.0427317E-04;  1.0003347E+03;  1.0000000E-01;  2.7722672E+02;3;  1.3563502E+00;  0.0000000E+00;  1.2436345E-01;0;  1.1299676E-03;  4.0030289E+04;  0.0000000E+00;  2.0307206E-02;  4.0000000E+04;  0.0000000E+00;  3.9997395E+04;  2.8094549E-03;  0.0000000E+00; -1.6794873E-03;  3.5494910E+02;
  3.9092571E-01;  9.9999998E-03;  2.2002989E-01;4877; -1.9608154E-03;  0.0000000E+00; -6.0817221E-04;  1.0002158E+03;  1.0000000E-01;  1.7876038E+02;3;  1.3634050E+00;  0.0000000E+00;  1.3549805E-01;0;  1.3947765E-03;  4.0019492E+04;  0.0000000E+00;  4.1929021E-02;  4.0000000E+04;  0.0000000E+00;  3.9998328E+04;  2.9185503E-03;  0.0000000E+00; -1.5237738E-03;  2.3454166E+02;
  3.9089853E-01;  9.9999998E-03;  2.3002957E-01;4878; -1.8261173E-03;  0.0000000E+00; -6.0014147E-04;  1.0000856E+03;  1.0000000E-01;  7.0911575E+01;3;  1.3849480E+00;  0.0000000E+00;  1.5675379E-01;0;  1.7122673E-03;  4.0007711E+04;  0.0000000E+00;  5.6825224E-02;  4.0000000E+04;  0.0000000E+00;  3.9999594E+04;  3.0269953E-03;  0.0000000E+00; -1.3147281E-03;  1.0473846E+02;
  4.0100673E-01;  9.9999998E-03;  7.0012189E-02;4923; -2.6493545E-03;  0.0000000E+00; -3.4396606E-04;  1.0007891E+03;  1.0000000E-01;  6.5370990E+02;3;  1.4504266E+00;  0.0000000E+00;  5.6258836E-03;0; -3.5963836E-04;  4.0072074E+04;  0.0000000E+00;  7.5532615E-02;  4.0000000E+04;  0.0000000E+00;  3.9991902E+04;  3.4514619E-03;  0.0000000E+00; -3.8111003E-03;  1.0865829E+03;
  4.0102530E-01;  9.9999998E-03;  8.0013186E-02;4924; -2.6086543E-03;  0.0000000E+00; -3.8072516E-04;  1.0007809E+03;  1.0000000E-01;  6.4699402E+02;3;  1.4647644E+00;  0.0000000E+00;  6.2310053E-03;0; -3.8230582E-04;  4.0071766E+04;  0.0000000E+00;  9.1712482E-02;  4.0000000E+04;  0.0000000E+00;  3.9992090E+04;  3.3119195E-03;  0.0000000E+00; -3.6942253E-03;  1.0887078E+03;
  4.0103891E-01;  9.9999998E-03;  9.0014212E-02;4925; -2.5746827E-03;  0.0000000E+00; -4.1233178E-04;  1.0007816E+03;  1.0000000E-01;  6.4748785E+02;3;  1.4636928E+00;  0.0000000E+00;  1.0903629E-02;0; -3.8768351E-04;  4.0071297E+04;  0.0000000E+00;  1.0547429E-01;  4.0000000E+04;  0.0000000E+00;  3.9991992E+04;  3.1843341E-03;  0.0000000E+00; -3.5720177E-03;  1.1011870E+03;
  4.0104559E-01;  9.9999998E-03;  1.0001472E-01;4926; -2.5399611E-03;  0.0000000E+00; -4.4117688E-04;  1.0007742E+03;  1.0000000E-01;  6.4136456E+02;3;  1.4550744E+00;  0.0000000E+00;  2.0118704E-02;0; -3.7233601E-04;  4.0070953E+04;  0.0000000E+00;  1.1490215E-01;  4.0000000E+04;  0.0000000E+00;  3.9991699E+04;  3.0734707E-03;  0.0000000E+00; -3.4458067E-03;  1.1208782E+03;
  4.0104595E-01;  9.9999998E-03;  1.1001402E-01;4927; -2.5041045E-03;  0.0000000E+00; -4.6866931E-04;  1.0007670E+03;  1.0000000E-01;  6.3543884E+02;3;  1.4483480E+00;  0.0000000E+00;  3.0288246E-02;0; -3.3363490E-04;  4.0070645E+04;  0.0000000E+00;  1.1816603E-01;  4.0000000E+04;  0.0000000E+00;  3.9991555E+04;  2.9825182E-03;  0.0000000E+00; -3.3161531E-03;  1.1436132E+03;
  4.0104127E-01;  9.9999998E-03;  1.2001187E-01;4928; -2.4685692E-03;  0.0000000E+00; -4.9508596E-04;  1.0007583E+03;  1.0000000E-01;  6.2822913E+02;3;  1.4406068E+00;  0.0000000E+00;  4.2020865E-02;0; -2.6960019E-04;  4.0070164E+04;  0.0000000E+00;  1.1392383E-01;  4.0000000E+04;  0.0000000E+00;  3.9991250E+04;  2.9131630E-03;  0.0000000E+00; -3.1827632E-03;  1.1643044E+03;
  4.0103310E-01;  9.9999998E-03;  1.3000859E-01;4929; -2.4344150E-03;  0.0000000E+00; -5.2064896E-04;  1.0007455E+03;  1.0000000E-01;  6.1766156E+02;3;  1.4338182E+00;  0.0000000E+00;  5.3892583E-02;0; -1.7892569E-04;  4.0068988E+04;  0.0000000E+00;  1.0182366E-01;  4.0000000E+04;  0.0000000E+00;  3.9991160E+04;  2.8659138E-03;  0.0000000E+00; -3.0448395E-03;  1.1769895E+03;
  4.0102458E-01;  9.9999998E-03;  1.4000472E-01;4930; -2.4022278E-03;  0.0000000E+00; -5.4506701E-04;  1.0007203E+03;  1.0000000E-01;  5.9682263E+02;3;  1.4274286E+00;  0.0000000E+00;  6.5684214E-02;0; -6.1081490E-05;  4.0067098E+04;  0.0000000E+00;  8.3002813E-02;  4.0000000E+04;  0.0000000E+00;  3.9991449E+04;  2.8405732E-03;  0.0000000E+00; -2.9016547E-03;  1.1745415E+03;
  4.0101567E-01;  9.9999998E-03;  1.5000108E-01;4931; -2.3713154E-03;  0.0000000E+00; -5.6794705E-04;  1.0006910E+03;  1.0000000E-01;  5.7252704E+02;3;  1.4204022E+00;  0.0000000E+00;  7.7363938E-02;0;  8.3223218E-05;  4.0064211E+04;  0.0000000E+00;  6.0286928E-02;  4.0000000E+04;  0.0000000E+00;  3.9991246E+04;  2.8363043E-03;  0.0000000E+00; -2.7530810E-03;  1.1484303E+03;
  4.0100521E-01;  9.9999998E-03;  1.5999854E-01;4932; -2.3399359E-03;  0.0000000E+00; -5.8887090E-04;  1.0006495E+03;  1.0000000E-01;  5.3805884E+02;3;  1.4106942E+00;  0.0000000E+00;  9.2040166E-02;0;  2.5148550E-04;  4.0060422E+04;  0.0000000E+00;  3.7474848E-02;  4.0000000E+04;  0.0000000E+00;  3.9991730E+04;  2.8522278E-03;  0.0000000E+00; -2.6007423E-03;  1.0894298E+03;
  4.0099493E-01;  9.9999998E-03;  1.6999786E-01;4933; -2.3042611E-03;  0.0000000E+00; -6.0766476E-04;  1.0005895E+03;  1.0000000E-01;  4.8838126E+02;3;  1.4034222E+00;  0.0000000E+00;  1.0477659E-01;0;  4.4056471E-04;  4.0055289E+04;  0.0000000E+00;  1.7987818E-02;  4.0000000E+04;  0.0000000E+00;  3.9992566E+04;  2.8881428E-03;  0.0000000E+00; -2.4475781E-03;  9.8803839E+02;
  4.0098330E-01;  9.9999998E-03;  1.7999938E-01;4934; -2.2601625E-03;  0.0000000E+00; -6.2450388E-04;  1.0005227E+03;  1.0000000E-01;  4.3307416E+02;3;  1.3951410E+00;  0.0000000E+00;  1.1519287E-01;0;  6.4774998E-04;  4.0048773E+04;  0.0000000E+00;  3.9088931E-03;  4.0000000E+04;  0.0000000E+00;  3.9993566E+04;  2.9438513E-03;  0.0000000E+00; -2.2961013E-03;  8.3783228E+02;
  4.0096974E-01;  9.9999998E-03;  1.9000310E-01;4935; -2.2050326E-03;  0.0000000E+00; -6.3985254E-04;  1.0004461E+03;  1.0000000E-01;  3.6956979E+02;3;  1.3866446E+00;  0.0000000E+00;  1.2273081E-01;0;  8.7102293E-04;  4.0040602E+04;  0.0000000E+00; -4.3745670E-03;  4.0000000E+04;  0.0000000E+00;  3.9995133E+04;  3.0185576E-03;  0.0000000E+00; -2.1475346E-03;  6.4166833E+02;
  4.0095329E-01;  9.9999998E-03;  2.0000842E-01;4936; -2.1355071E-03;  0.0000000E+00; -6.5303233E-04;  1.0003545E+03;  1.0000000E-01;  2.9372009E+02;3;  1.3820007E+00;  0.0000000E+00;  1.3097839E-01;0;  1.1085651E-03;  4.0031598E+04;  0.0000000E+00; -8.0066249E-03;  4.0000000E+04;  0.0000000E+00;  3.9996871E+04;  3.1096991E-03;  0.0000000E+00; -2.0011340E-03;  4.1724768E+02;
  4.0093398E-01;  9.9999998E-03;  2.1001405E-01;4937; -2.0493681E-03;  0.0000000E+00; -6.6102517E-04;  1.0002515E+03;  1.0000000E-01;  2.0829041E+02;3;  1.3823676E+00;  0.0000000E+00;  1.3922927E-01;0;  1.3616852E-03;  4.0021430E+04;  0.0000000E+00; -9.1762086E-03;  4.0000000E+04;  0.0000000E+00;  3.9998785E+04;  3.2124687E-03;  0.0000000E+00; -1.8507835E-03;  1.9390157E+02;
  4.0091145E-01;  9.9999998E-03;  2.2001776E-01;4938; -1.9401980E-03;  0.0000000E+00; -6.5743568E-04;  1.0001394E+03;  1.0000000E-01;  1.1545352E+02;3;  1.3926860E+00;  0.0000000E+00;  1.5527050E-01;0;  1.6469570E-03;  4.0010445E+04;  0.0000000E+00; -1.0523579E-02;  4.0000000E+04;  0.0000000E+00;  4.0000203E+04;  3.3199119E-03;  0.0000000E+00; -1.6729549E-03;  2.6046614E+01;
  4.0088388E-01;  9.9999998E-03;  2.3001894E-01;4939; -1.8045716E-03;  0.0000000E+00; -6.3507387E-04;  1.0000180E+03;  1.0000000E-01;  1.4913158E+01;3;  1.4140378E+00;  0.0000000E+00;  1.8023169E-01;0;  2.0193639E-03;  3.9998859E+04;  0.0000000E+00; -1.4509642E-02;  4.0000000E+04;  0.0000000E+00;  4.0001832E+04;  3.4235527E-03;  0.0000000E+00; -1.4041888E-03;  2.3988889E+02;
  4.1099924E-01;  9.9999998E-03;  7.0012592E-02;4984; -2.6188146E-03;  0.0000000E+00; -3.8353360E-04;  1.0006339E+03;  1.0000000E-01;  5.2512097E+02;3;  1.4844903E+00;  0.0000000E+00;  1.6605388E-03;0;  5.0030276E-04;  4.0059941E+04;  0.0000000E+00;  7.8640871E-02;  4.0000000E+04;  0.0000000E+00;  3.9991328E+04;  4.6287682E-03;  0.0000000E+00; -4.1284654E-03;  1.1497601E+03;
  4.1101760E-01;  9.9999998E-03;  8.0014542E-02;4985; -2.5993234E-03;  0.0000000E+00; -4.2149037E-04;  1.0006465E+03;  1.0000000E-01;  5.3568854E+02;3;  1.4801865E+00;  0.0000000E+00;  6.3876882E-03;0;  4.4997316E-04;  4.0060930E+04;  0.0000000E+00;  9.6956134E-02;  4.0000000E+04;  0.0000000E+00;  3.9991305E+04;  4.4545922E-03;  0.0000000E+00; -4.0046191E-03;  1.1427839E+03;
  4.1102961E-01;  9.9999998E-03;  9.0016544E-02;4986; -2.5768199E-03;  0.0000000E+00; -4.5553979E-04;  1.0006608E+03;  1.0000000E-01;  5.4744128E+02;3;  1.4663956E+00;  0.0000000E+00;  1.4729080E-02;0;  4.1497406E-04;  4.0061781E+04;  0.0000000E+00;  1.1394279E-01;  4.0000000E+04;  0.0000000E+00;  3.9991496E+04;  4.2903670E-03;  0.0000000E+00; -3.8753930E-03;  1.1374800E+03;
  4.1103533E-01;  9.9999998E-03;  1.0001831E-01;4987; -2.5489852E-03;  0.0000000E+00; -4.8706029E-04;  1.0006710E+03;  1.0000000E-01;  5.5593488E+02;3;  1.4550582E+00;  0.0000000E+00;  2.4574624E-02;0;  4.0013576E-04;  4.0062293E+04;  0.0000000E+00;  1.2789413E-01;  4.0000000E+04;  0.0000000E+00;  3.9991398E+04;  4.1422886E-03;  0.0000000E+00; -3.7421528E-03;  1.1324758E+03;
  4.1103375E-01;  9.9999998E-03;  1.1001938E-01;4988; -2.5179910E-03;  0.0000000E+00; -5.1665644E-04;  1.0006703E+03;  1.0000000E-01;  5.5534235E+02;3;  1.4461246E+00;  0.0000000E+00;  3.5181001E-02;0;  4.0950044E-04;  4.0062500E+04;  0.0000000E+00;  1.3698769E-01;  4.0000000E+04;  0.0000000E+00;  3.9991738E+04;  4.0148227E-03;  0.0000000E+00; -3.6053222E-03;  1.1259314E+03;
  4.1102690E-01;  9.9999998E-03;  1.2001919E-01;4989; -2.4855672E-03;  0.0000000E+00; -5.4484041E-04;  1.0006702E+03;  1.0000000E-01;  5.5524353E+02;3;  1.4376929E+00;  0.0000000E+00;  4.6827648E-02;0;  4.4686068E-04;  4.0061926E+04;  0.0000000E+00;  1.3952997E-01;  4.0000000E+04;  0.0000000E+00;  3.9991703E+04;  3.9114091E-03;  0.0000000E+00; -3.4645484E-03;  1.1155919E+03;
  4.1101784E-01;  9.9999998E-03;  1.3001773E-01;4990; -2.4529465E-03;  0.0000000E+00; -5.7193841E-04;  1.0006569E+03;  1.0000000E-01;  5.4418213E+02;3;  1.4319601E+00;  0.0000000E+00;  5.9425257E-02;0;  5.1534525E-04;  4.0060859E+04;  0.0000000E+00;  1.3434753E-01;  4.0000000E+04;  0.0000000E+00;  3.9991918E+04;  3.8343593E-03;  0.0000000E+00; -3.3190141E-03;  1.0982985E+03;
  4.1100642E-01;  9.9999998E-03;  1.4001539E-01;4991; -2.4210420E-03;  0.0000000E+00; -5.9785409E-04;  1.0006352E+03;  1.0000000E-01;  5.2620734E+02;3;  1.4258417E+00;  0.0000000E+00;  7.1311355E-02;0;  6.1657303E-04;  4.0058715E+04;  0.0000000E+00;  1.2123622E-01;  4.0000000E+04;  0.0000000E+00;  3.9992004E+04;  3.7844947E-03;  0.0000000E+00; -3.1679217E-03;  1.0693558E+03;
  4.1099349E-01;  9.9999998E-03;  1.5001273E-01;4992; -2.3894047E-03;  0.0000000E+00; -6.2222499E-04;  1.0006027E+03;  1.0000000E-01;  4.9924515E+02;3;  1.4179928E+00;  0.0000000E+00;  8.4140316E-02;0;  7.5063366E-04;  4.0055949E+04;  0.0000000E+00;  1.0135140E-01;  4.0000000E+04;  0.0000000E+00;  3.9992234E+04;  3.7618987E-03;  0.0000000E+00; -3.0112651E-03;  1.0227712E+03;
  4.1098082E-01;  9.9999998E-03;  1.6001041E-01;4993; -2.3562843E-03;  0.0000000E+00; -6.4525433E-04;  1.0005558E+03;  1.0000000E-01;  4.6053018E+02;3;  1.4097135E+00;  0.0000000E+00;  9.6645489E-02;0;  9.1531011E-04;  4.0051621E+04;  0.0000000E+00;  7.6872669E-02;  4.0000000E+04;  0.0000000E+00;  3.9992934E+04;  3.7663225E-03;  0.0000000E+00; -2.8510124E-03;  9.5199713E+02;
  4.1096812E-01;  9.9999998E-03;  1.7000906E-01;4994; -2.3187308E-03;  0.0000000E+00; -6.6667137E-04;  1.0004984E+03;  1.0000000E-01;  4.1292661E+02;3;  1.4019300E+00;  0.0000000E+00;  1.0936014E-01;0;  1.1069465E-03;  4.0046215E+04;  0.0000000E+00;  5.0240166E-02;  4.0000000E+04;  0.0000000E+00;  3.9993602E+04;  3.7974713E-03;  0.0000000E+00; -2.6905248E-03;  8.5039099E+02;
  4.1095555E-01;  9.9999998E-03;  1.8000898E-01;4995; -2.2733496E-03;  0.0000000E+00; -6.8616553E-04;  1.0004304E+03;  1.0000000E-01;  3.5653311E+02;3;  1.3946036E+00;  0.0000000E+00;  1.2252980E-01;0;  1.3221460E-03;  4.0039422E+04;  0.0000000E+00;  2.3597432E-02;  4.0000000E+04;  0.0000000E+00;  3.9994730E+04;  3.8551698E-03;  0.0000000E+00; -2.5330237E-03;  7.1310486E+02;
  4.1094205E-01;  9.9999998E-03;  1.9001009E-01;4996; -2.2166425E-03;  0.0000000E+00; -7.0397730E-04;  1.0003470E+03;  1.0000000E-01;  2.8749805E+02;3;  1.3904821E+00;  0.0000000E+00;  1.3038404E-01;0;  1.5575534E-03;  4.0031527E+04;  0.0000000E+00; -1.5752370E-03;  4.0000000E+04;  0.0000000E+00;  3.9996188E+04;  3.9379694E-03;  0.0000000E+00; -2.3804160E-03;  5.4055432E+02;
  4.1092759E-01;  9.9999998E-03;  2.0001186E-01;4997; -2.1466380E-03;  0.0000000E+00; -7.2042941E-04;  1.0002562E+03;  1.0000000E-01;  2.1224091E+02;3;  1.3855958E+00;  0.0000000E+00;  1.3718900E-01;0;  1.8089574E-03;  4.0022371E+04;  0.0000000E+00; -2.4604306E-02;  4.0000000E+04;  0.0000000E+00;  3.9997637E+04;  4.0422371E-03;  0.0000000E+00; -2.2332796E-03;  3.4108887E+02;
  4.1091135E-01;  9.9999998E-03;  2.1001320E-01;4998; -2.0610173E-03;  0.0000000E+00; -7.3367823E-04;  1.0001536E+03;  1.0000000E-01;  1.2730504E+02;3;  1.3890089E+00;  0.0000000E+00;  1.4394659E-01;0;  2.0724295E-03;  4.0012250E+04;  0.0000000E+00; -4.5447588E-02;  4.0000000E+04;  0.0000000E+00;  3.9999266E+04;  4.1615167E-03;  0.0000000E+00; -2.0890872E-03;  1.3220717E+02;
  4.1089240E-01;  9.9999998E-03;  2.2001249E-01;4999; -1.9547273E-03;  0.0000000E+00; -7.3423830E-04;  1.0000471E+03;  1.0000000E-01;  3.9011242E+01;3;  1.3990811E+00;  0.0000000E+00;  1.5699983E-01;0;  2.3623041E-03;  4.0001449E+04;  0.0000000E+00; -6.4472072E-02;  4.0000000E+04;  0.0000000E+00;  4.0001316E+04;  4.2870915E-03;  0.0000000E+00; -1.9247874E-03;  1.7970512E+02;
  4.1086978E-01;  9.9999998E-03;  2.3001181E-01;5000; -1.8214200E-03;  0.0000000E+00; -7.0805079E-04;  9.9993622E+02;  1.0000000E-01; -5.2838013E+01;3;  1.4206088E+00;  0.0000000E+00;  1.7959383E-01;0;  2.7526298E-03;  3.9990203E+04;  0.0000000E+00; -8.2025640E-02;  4.0000000E+04;  0.0000000E+00;  4.0003629E+04;  4.4091237E-03;  0.0000000E+00; -1.6564939E-03;  4.6616608E+02;
  4.2100644E-01;  9.9999998E-03;  7.0013009E-02;5045; -2.6090210E-03;  0.0000000E+00; -4.1095368E-04;  1.0004874E+03;  1.0000000E-01;  4.0384042E+02;3;  1.5018996E+00;  0.0000000E+00;  6.3398527E-03;0;  1.7845165E-03;  4.0048352E+04;  0.0000000E+00;  7.7925213E-02;  4.0000000E+04;  0.0000000E+00;  3.9990699E+04;  6.2273699E-03;  0.0000000E+00; -4.4428534E-03;  1.2015920E+03;
  4.2101997E-01;  9.9999998E-03;  8.0015995E-02;5046; -2.6024359E-03;  0.0000000E+00; -4.5263977E-04;  1.0005205E+03;  1.0000000E-01;  4.3119769E+02;3;  1.4830040E+00;  0.0000000E+00;  1.3512788E-02;0;  1.7416733E-03;  4.0050961E+04;  0.0000000E+00;  9.7016886E-02;  4.0000000E+04;  0.0000000E+00;  3.9990809E+04;  6.0590976E-03;  0.0000000E+00; -4.3174243E-03;  1.1923848E+03;
  4.2102858E-01;  9.9999998E-03;  9.0019017E-02;5047; -2.5875731E-03;  0.0000000E+00; -4.9073657E-04;  1.0005510E+03;  1.0000000E-01;  4.5648093E+02;3;  1.4667165E+00;  0.0000000E+00;  2.2711035E-02;0;  1.7109294E-03;  4.0053141E+04;  0.0000000E+00;  1.1540407E-01;  4.0000000E+04;  0.0000000E+00;  3.9991059E+04;  5.8971592E-03;  0.0000000E+00; -4.1862298E-03;  1.1764237E+03;
  4.2102969E-01;  9.9999998E-03;  1.0002199E-01;5048; -2.5654528E-03;  0.0000000E+00; -5.2594353E-04;  1.0005761E+03;  1.0000000E-01;  4.7731982E+02;3;  1.4529728E+00;  0.0000000E+00;  3.1617817E-02;0;  1.6968967E-03;  4.0054660E+04;  0.0000000E+00;  1.3150784E-01;  4.0000000E+04;  0.0000000E+00;  3.9991348E+04;  5.7473769E-03;  0.0000000E+00; -4.0504802E-03;  1.1535396E+03;
  4.2102447E-01;  9.9999998E-03;  1.1002448E-01;5049; -2.5389397E-03;  0.0000000E+00; -5.5876165E-04;  1.0005911E+03;  1.0000000E-01;  4.8966516E+02;3;  1.4434555E+00;  0.0000000E+00;  4.1905038E-02;0;  1.7047487E-03;  4.0055422E+04;  0.0000000E+00;  1.4354154E-01;  4.0000000E+04;  0.0000000E+00;  3.9991441E+04;  5.6153638E-03;  0.0000000E+00; -3.9106151E-03;  1.1240419E+03;
  4.2101553E-01;  9.9999998E-03;  1.2002604E-01;5050; -2.5099060E-03;  0.0000000E+00; -5.8974168E-04;  1.0005959E+03;  1.0000000E-01;  4.9371442E+02;3;  1.4357451E+00;  0.0000000E+00;  5.4093238E-02;0;  1.7398116E-03;  4.0055402E+04;  0.0000000E+00;  1.4964458E-01;  4.0000000E+04;  0.0000000E+00;  3.9991906E+04;  5.5061113E-03;  0.0000000E+00; -3.7662997E-03;  1.0881489E+03;
  4.2100364E-01;  9.9999998E-03;  1.3002637E-01;5051; -2.4798233E-03;  0.0000000E+00; -6.1931129E-04;  1.0005862E+03;  1.0000000E-01;  4.8571466E+02;3;  1.4287195E+00;  0.0000000E+00;  6.6454418E-02;0;  1.8065665E-03;  4.0054266E+04;  0.0000000E+00;  1.4814869E-01;  4.0000000E+04;  0.0000000E+00;  3.9992312E+04;  5.4233274E-03;  0.0000000E+00; -3.6167610E-03;  1.0449037E+03;
  4.2099014E-01;  9.9999998E-03;  1.4002568E-01;5052; -2.4490352E-03;  0.0000000E+00; -6.4761139E-04;  1.0005660E+03;  1.0000000E-01;  4.6892502E+02;3;  1.4236882E+00;  0.0000000E+00;  7.7871144E-02;0;  1.9084874E-03;  4.0052082E+04;  0.0000000E+00;  1.3795373E-01;  4.0000000E+04;  0.0000000E+00;  3.9992555E+04;  5.3698933E-03;  0.0000000E+00; -3.4614059E-03;  9.9195953E+02;
  4.2097667E-01;  9.9999998E-03;  1.5002434E-01;5053; -2.4176263E-03;  0.0000000E+00; -6.7446200E-04;  1.0005312E+03;  1.0000000E-01;  4.4008630E+02;3;  1.4159815E+00;  0.0000000E+00;  9.0092704E-02;0;  2.0472207E-03;  4.0048887E+04;  0.0000000E+00;  1.1896733E-01;  4.0000000E+04;  0.0000000E+00;  3.9993211E+04;  5.3477422E-03;  0.0000000E+00; -3.3005215E-03;  9.2522296E+02;
  4.2096326E-01;  9.9999998E-03;  1.6002281E-01;5054; -2.3836058E-03;  0.0000000E+00; -7.0035667E-04;  1.0004808E+03;  1.0000000E-01;  3.9830972E+02;3;  1.4079014E+00;  0.0000000E+00;  1.0122737E-01;0;  2.2214479E-03;  4.0044332E+04;  0.0000000E+00;  9.2142411E-02;  4.0000000E+04;  0.0000000E+00;  3.9993711E+04;  5.3578261E-03;  0.0000000E+00; -3.1363782E-03;  8.4075421E+02;
  4.2095003E-01;  9.9999998E-03;  1.7002159E-01;5055; -2.3445699E-03;  0.0000000E+00; -7.2507473E-04;  1.0004224E+03;  1.0000000E-01;  3.4991602E+02;3;  1.4001899E+00;  0.0000000E+00;  1.1368764E-01;0;  2.4282299E-03;  4.0038492E+04;  0.0000000E+00;  5.9274159E-02;  4.0000000E+04;  0.0000000E+00;  3.9994477E+04;  5.4010409E-03;  0.0000000E+00; -2.9728110E-03;  7.3561639E+02;
  4.2093718E-01;  9.9999998E-03;  1.8002088E-01;5056; -2.2977444E-03;  0.0000000E+00; -7.4846402E-04;  1.0003467E+03;  1.0000000E-01;  2.8730051E+02;3;  1.3940921E+00;  0.0000000E+00;  1.2446228E-01;0;  2.6642280E-03;  4.0031586E+04;  0.0000000E+00;  2.2689486E-02;  4.0000000E+04;  0.0000000E+00;  3.9995430E+04;  5.4778736E-03;  0.0000000E+00; -2.8136456E-03;  6.0901080E+02;
  4.2092469E-01;  9.9999998E-03;  1.9002044E-01;5057; -2.2400182E-03;  0.0000000E+00; -7.7028410E-04;  1.0002635E+03;  1.0000000E-01;  2.1826543E+02;3;  1.3902649E+00;  0.0000000E+00;  1.3454702E-01;0;  2.9252088E-03;  4.0023312E+04;  0.0000000E+00; -1.5154163E-02;  4.0000000E+04;  0.0000000E+00;  3.9996496E+04;  5.5869068E-03;  0.0000000E+00; -2.6616980E-03;  4.6360117E+02;
  4.2091221E-01;  9.9999998E-03;  2.0001958E-01;5058; -2.1696542E-03;  0.0000000E+00; -7.9081388E-04;  1.0001684E+03;  1.0000000E-01;  1.3955161E+02;3;  1.3876371E+00;  0.0000000E+00;  1.4154626E-01;0;  3.2051317E-03;  4.0014336E+04;  0.0000000E+00; -5.2065331E-02;  4.0000000E+04;  0.0000000E+00;  3.9997707E+04;  5.7237390E-03;  0.0000000E+00; -2.5186073E-03;  3.0528143E+02;
  4.2089948E-01;  9.9999998E-03;  2.1001713E-01;5059; -2.0850368E-03;  0.0000000E+00; -8.1000419E-04;  1.0000664E+03;  1.0000000E-01;  5.5010788E+01;3;  1.3906463E+00;  0.0000000E+00;  1.4463860E-01;0;  3.4957041E-03;  4.0004320E+04;  0.0000000E+00; -8.6312078E-02;  4.0000000E+04;  0.0000000E+00;  3.9999488E+04;  5.8808653E-03;  0.0000000E+00; -2.3851611E-03;  1.5503787E+02;
  4.2088652E-01;  9.9999998E-03;  2.2001183E-01;5060; -1.9830763E-03;  0.0000000E+00; -8.1888633E-04;  9.9996136E+02;  1.0000000E-01; -3.1999096E+01;3;  1.3965762E+00;  0.0000000E+00;  1.5192096E-01;0;  3.8031114E-03;  3.9993699E+04;  0.0000000E+00; -1.1667814E-01;  4.0000000E+04;  0.0000000E+00;  4.0001484E+04;  6.0482994E-03;  0.0000000E+00; -2.2451880E-03;  2.5956985E+02;
  4.2087308E-01;  9.9999998E-03;  2.3000804E-01;5061; -1.8545225E-03;  0.0000000E+00; -7.9655717E-04;  9.9986230E+02;  1.0000000E-01; -1.1407085E+02;3;  1.4220858E+00;  0.0000000E+00;  1.7288965E-01;0;  4.2088409E-03;  3.9982898E+04;  0.0000000E+00; -1.4230046E-01;  4.0000000E+04;  0.0000000E+00;  4.0004492E+04;  6.2149735E-03;  0.0000000E+00; -2.0061326E-03;  5.9759149E+02;
  4.3102735E-01;  9.9999998E-03;  7.0013680E-02;5106; -2.6110667E-03;  0.0000000E+00; -4.2823690E-04;  1.0003767E+03;  1.0000000E-01;  3.1208994E+02;3;  1.5050493E+00;  0.0000000E+00;  1.7183844E-02;0;  3.5679778E-03;  4.0039855E+04;  0.0000000E+00;  7.3194057E-02;  4.0000000E+04;  0.0000000E+00;  3.9990543E+04;  8.3222380E-03;  0.0000000E+00; -4.7542602E-03;  1.2341021E+03;
  4.3103424E-01;  9.9999998E-03;  8.0017589E-02;5107; -2.6118911E-03;  0.0000000E+00; -4.7464200E-04;  1.0004312E+03;  1.0000000E-01;  3.5722446E+02;3;  1.4834013E+00;  0.0000000E+00;  2.4539482E-02;0;  3.5722372E-03;  4.0043965E+04;  0.0000000E+00;  9.1563955E-02;  4.0000000E+04;  0.0000000E+00;  3.9990527E+04;  8.2052723E-03;  0.0000000E+00; -4.6330350E-03;  1.2291193E+03;
  4.3103641E-01;  9.9999998E-03;  9.0021603E-02;5108; -2.6025691E-03;  0.0000000E+00; -5.1754038E-04;  1.0004766E+03;  1.0000000E-01;  3.9485303E+02;3;  1.4659103E+00;  0.0000000E+00;  3.2127373E-02;0;  3.5846550E-03;  4.0047191E+04;  0.0000000E+00;  1.0941563E-01;  4.0000000E+04;  0.0000000E+00;  3.9990758E+04;  8.0899158E-03;  0.0000000E+00; -4.5052608E-03;  1.2099543E+03;
  4.3103388E-01;  9.9999998E-03;  1.0002546E-01;5109; -2.5855980E-03;  0.0000000E+00; -5.5714900E-04;  1.0005128E+03;  1.0000000E-01;  4.2477811E+02;3;  1.4502031E+00;  0.0000000E+00;  4.1733384E-02;0;  3.6095041E-03;  4.0049793E+04;  0.0000000E+00;  1.2525839E-01;  4.0000000E+04;  0.0000000E+00;  3.9991094E+04;  7.9815565E-03;  0.0000000E+00; -4.3720524E-03;  1.1772524E+03;
  4.3102625E-01;  9.9999998E-03;  1.1002892E-01;5110; -2.5631043E-03;  0.0000000E+00; -5.9407181E-04;  1.0005361E+03;  1.0000000E-01;  4.4413559E+02;3;  1.4420350E+00;  0.0000000E+00;  5.1032312E-02;0;  3.6517759E-03;  4.0051141E+04;  0.0000000E+00;  1.3737644E-01;  4.0000000E+04;  0.0000000E+00;  3.9991492E+04;  7.8855176E-03;  0.0000000E+00; -4.2337417E-03;  1.1328677E+03;
  4.3101412E-01;  9.9999998E-03;  1.2003152E-01;5111; -2.5380065E-03;  0.0000000E+00; -6.2889769E-04;  1.0005495E+03;  1.0000000E-01;  4.5529578E+02;3;  1.4343491E+00;  0.0000000E+00;  6.2394489E-02;0;  3.7172618E-03;  4.0051262E+04;  0.0000000E+00;  1.4390093E-01;  4.0000000E+04;  0.0000000E+00;  3.9991781E+04;  7.8072972E-03;  0.0000000E+00; -4.0900353E-03;  1.0789275E+03;
  4.3099970E-01;  9.9999998E-03;  1.3003308E-01;5112; -2.5106529E-03;  0.0000000E+00; -6.6206016E-04;  1.0005402E+03;  1.0000000E-01;  4.4749353E+02;3;  1.4276665E+00;  0.0000000E+00;  7.3609337E-02;0;  3.8121957E-03;  4.0050121E+04;  0.0000000E+00;  1.4300665E-01;  4.0000000E+04;  0.0000000E+00;  3.9992449E+04;  7.7525890E-03;  0.0000000E+00; -3.9403932E-03;  1.0166923E+03;
  4.3098488E-01;  9.9999998E-03;  1.4003368E-01;5113; -2.4814522E-03;  0.0000000E+00; -6.9377897E-04;  1.0005184E+03;  1.0000000E-01;  4.2951871E+02;3;  1.4218684E+00;  0.0000000E+00;  8.4834009E-02;0;  3.9419895E-03;  4.0047754E+04;  0.0000000E+00;  1.3317183E-01;  4.0000000E+04;  0.0000000E+00;  3.9993016E+04;  7.7265319E-03;  0.0000000E+00; -3.7845422E-03;  9.4559650E+02;
  4.3097073E-01;  9.9999998E-03;  1.5003346E-01;5114; -2.4504955E-03;  0.0000000E+00; -7.2408502E-04;  1.0004858E+03;  1.0000000E-01;  4.0255652E+02;3;  1.4143491E+00;  0.0000000E+00;  9.6050166E-02;0;  4.1100699E-03;  4.0044258E+04;  0.0000000E+00;  1.1359083E-01;  4.0000000E+04;  0.0000000E+00;  3.9993434E+04;  7.7332300E-03;  0.0000000E+00; -3.6231598E-03;  8.6326801E+02;
  4.3095800E-01;  9.9999998E-03;  1.6003279E-01;5115; -2.4159597E-03;  0.0000000E+00; -7.5349479E-04;  1.0004363E+03;  1.0000000E-01;  3.6147125E+02;3;  1.4066509E+00;  0.0000000E+00;  1.0639010E-01;0;  4.3171179E-03;  4.0039566E+04;  0.0000000E+00;  8.4453516E-02;  4.0000000E+04;  0.0000000E+00;  3.9994184E+04;  7.7760955E-03;  0.0000000E+00; -3.4589777E-03;  7.6793292E+02;
  4.3094656E-01;  9.9999998E-03;  1.7003204E-01;5116; -2.3758134E-03;  0.0000000E+00; -7.8213325E-04;  1.0003728E+03;  1.0000000E-01;  3.0883078E+02;3;  1.3989022E+00;  0.0000000E+00;  1.1698563E-01;0;  4.5616319E-03;  4.0033660E+04;  0.0000000E+00;  4.7216453E-02;  4.0000000E+04;  0.0000000E+00;  3.9994980E+04;  7.8578563E-03;  0.0000000E+00; -3.2962246E-03;  6.6017474E+02;
  4.3093637E-01;  9.9999998E-03;  1.8003112E-01;5117; -2.3275167E-03;  0.0000000E+00; -8.0970669E-04;  1.0002978E+03;  1.0000000E-01;  2.4670908E+02;3;  1.3924489E+00;  0.0000000E+00;  1.2684020E-01;0;  4.8408415E-03;  4.0026668E+04;  0.0000000E+00;  4.4340678E-03;  4.0000000E+04;  0.0000000E+00;  3.9995980E+04;  7.9800766E-03;  0.0000000E+00; -3.1392351E-03;  5.4352698E+02;
  4.3092725E-01;  9.9999998E-03;  1.9002962E-01;5118; -2.2690203E-03;  0.0000000E+00; -8.3640806E-04;  1.0002059E+03;  1.0000000E-01;  1.7056308E+02;3;  1.3895969E+00;  0.0000000E+00;  1.3458370E-01;0;  5.1500350E-03;  4.0018395E+04;  0.0000000E+00; -4.0713631E-02;  4.0000000E+04;  0.0000000E+00;  3.9996941E+04;  8.1416238E-03;  0.0000000E+00; -2.9915886E-03;  4.2419400E+02;
  4.3091878E-01;  9.9999998E-03;  2.0002684E-01;5119; -2.1986123E-03;  0.0000000E+00; -8.6214382E-04;  1.0001071E+03;  1.0000000E-01;  8.8688850E+01;3;  1.3891342E+00;  0.0000000E+00;  1.4130986E-01;0;  5.4816590E-03;  4.0009539E+04;  0.0000000E+00; -8.5033357E-02;  4.0000000E+04;  0.0000000E+00;  3.9997738E+04;  8.3377156E-03;  0.0000000E+00; -2.8560567E-03;  3.0818463E+02;
  4.3091136E-01;  9.9999998E-03;  2.1002144E-01;5120; -2.1139656E-03;  0.0000000E+00; -8.8592380E-04;  1.0000085E+03;  1.0000000E-01;  7.1109099E+00;3;  1.3930008E+00;  0.0000000E+00;  1.4530872E-01;0;  5.8261571E-03;  3.9999695E+04;  0.0000000E+00; -1.2577322E-01;  4.0000000E+04;  0.0000000E+00;  3.9999051E+04;  8.5602216E-03;  0.0000000E+00; -2.7340646E-03;  2.0719556E+02;
  4.3090507E-01;  9.9999998E-03;  2.2001287E-01;5121; -2.0142305E-03;  0.0000000E+00; -9.0152433E-04;  9.9990979E+02;  1.0000000E-01; -7.4713936E+01;3;  1.3979104E+00;  0.0000000E+00;  1.4887591E-01;0;  6.1835139E-03;  3.9989688E+04;  0.0000000E+00; -1.6086681E-01;  4.0000000E+04;  0.0000000E+00;  4.0001480E+04;  8.7981429E-03;  0.0000000E+00; -2.6146290E-03;  2.9877402E+02;
  4.3089908E-01;  9.9999998E-03;  2.3000674E-01;5122; -1.8929105E-03;  0.0000000E+00; -8.8715175E-04;  9.9982269E+02;  1.0000000E-01; -1.4690942E+02;3;  1.4182512E+00;  0.0000000E+00;  1.6213840E-01;0;  6.6282679E-03;  3.9979230E+04;  0.0000000E+00; -1.8888935E-01;  4.0000000E+04;  0.0000000E+00;  4.0004512E+04;  9.0388926E-03;  0.0000000E+00; -2.4106246E-03;  6.4507562E+02;
  4.4104770E-01;  9.9999998E-03;  7.0013359E-02;5167; -2.6164963E-03;  0.0000000E+00; -4.3674588E-04;  1.0003344E+03;  1.0000000E-01;  2.7702921E+02;3;  1.5072035E+00;  0.0000000E+00;  2.9570060E-02;0;  5.8797691E-03;  4.0036289E+04;  0.0000000E+00;  6.4523570E-02;  4.0000000E+04;  0.0000000E+00;  3.9990406E+04;  1.0943831E-02;  0.0000000E+00; -5.0640618E-03;  1.2405468E+03;
  4.4104967E-01;  9.9999998E-03;  8.0018081E-02;5168; -2.6223923E-03;  0.0000000E+00; -4.8805543E-04;  1.0003978E+03;  1.0000000E-01;  3.2957092E+02;3;  1.4858027E+00;  0.0000000E+00;  3.6468513E-02;0;  5.9729246E-03;  4.0041262E+04;  0.0000000E+00;  8.0557935E-02;  4.0000000E+04;  0.0000000E+00;  3.9990422E+04;  1.0925223E-02;  0.0000000E+00; -4.9522985E-03;  1.2453966E+03;
  4.4104785E-01;  9.9999998E-03;  9.0023100E-02;5169; -2.6179266E-03;  0.0000000E+00; -5.3598243E-04;  1.0004506E+03;  1.0000000E-01;  3.7332278E+02;3;  1.4659072E+00;  0.0000000E+00;  4.3666899E-02;0;  6.0712453E-03;  4.0045309E+04;  0.0000000E+00;  9.5935136E-02;  4.0000000E+04;  0.0000000E+00;  3.9990523E+04;  1.0904174E-02;  0.0000000E+00; -4.8329290E-03;  1.2304994E+03;
  4.4104210E-01;  9.9999998E-03;  1.0002786E-01;5170; -2.6054296E-03;  0.0000000E+00; -5.8059808E-04;  1.0004947E+03;  1.0000000E-01;  4.0986496E+02;3;  1.4509485E+00;  0.0000000E+00;  5.1327053E-02;0;  6.1772242E-03;  4.0048465E+04;  0.0000000E+00;  1.0926968E-01;  4.0000000E+04;  0.0000000E+00;  3.9990938E+04;  1.0884030E-02;  0.0000000E+00; -4.7068056E-03;  1.1967224E+03;
  4.4103262E-01;  9.9999998E-03;  1.1003176E-01;5171; -2.5874591E-03;  0.0000000E+00; -6.2232907E-04;  1.0005253E+03;  1.0000000E-01;  4.3524695E+02;3;  1.4402107E+00;  0.0000000E+00;  6.0901098E-02;0;  6.2952633E-03;  4.0050141E+04;  0.0000000E+00;  1.1899912E-01;  4.0000000E+04;  0.0000000E+00;  3.9991281E+04;  1.0869467E-02;  0.0000000E+00; -4.5742034E-03;  1.1469609E+03;
  4.4102019E-01;  9.9999998E-03;  1.2003466E-01;5172; -2.5660782E-03;  0.0000000E+00; -6.6175952E-04;  1.0005361E+03;  1.0000000E-01;  4.4413559E+02;3;  1.4338286E+00;  0.0000000E+00;  7.1327612E-02;0;  6.4314692E-03;  4.0050449E+04;  0.0000000E+00;  1.2344629E-01;  4.0000000E+04;  0.0000000E+00;  3.9991809E+04;  1.0866413E-02;  0.0000000E+00; -4.4349437E-03;  1.0847419E+03;
  4.4100538E-01;  9.9999998E-03;  1.3003670E-01;5173; -2.5420433E-03;  0.0000000E+00; -6.9940789E-04;  1.0005315E+03;  1.0000000E-01;  4.4028384E+02;3;  1.4277833E+00;  0.0000000E+00;  8.1365302E-02;0;  6.5926253E-03;  4.0049594E+04;  0.0000000E+00;  1.2091456E-01;  4.0000000E+04;  0.0000000E+00;  3.9992473E+04;  1.0881336E-02;  0.0000000E+00; -4.2887111E-03;  1.0128784E+03;
  4.4099060E-01;  9.9999998E-03;  1.4003797E-01;5174; -2.5150175E-03;  0.0000000E+00; -7.3542516E-04;  1.0005104E+03;  1.0000000E-01;  4.2280286E+02;3;  1.4216332E+00;  0.0000000E+00;  9.1376632E-02;0;  6.7860042E-03;  4.0047051E+04;  0.0000000E+00;  1.0989179E-01;  4.0000000E+04;  0.0000000E+00;  3.9992922E+04;  1.0921664E-02;  0.0000000E+00; -4.1356594E-03;  9.3244324E+02;
  4.4097692E-01;  9.9999998E-03;  1.5003845E-01;5175; -2.4847344E-03;  0.0000000E+00; -7.7006879E-04;  1.0004769E+03;  1.0000000E-01;  3.9514932E+02;3;  1.4138056E+00;  0.0000000E+00;  1.0152435E-01;0;  7.0171221E-03;  4.0043301E+04;  0.0000000E+00;  8.9345232E-02;  4.0000000E+04;  0.0000000E+00;  3.9993660E+04;  1.0994110E-02;  0.0000000E+00; -3.9769881E-03;  8.4250555E+02;
  4.4096532E-01;  9.9999998E-03;  1.6003825E-01;5176; -2.4497774E-03;  0.0000000E+00; -8.0381409E-04;  1.0004212E+03;  1.0000000E-01;  3.4892841E+02;3;  1.4058793E+00;  0.0000000E+00;  1.1121793E-01;0;  7.2889766E-03;  4.0038246E+04;  0.0000000E+00;  5.9126265E-02;  4.0000000E+04;  0.0000000E+00;  3.9994527E+04;  1.1104919E-02;  0.0000000E+00; -3.8159427E-03;  7.4292694E+02;
  4.4095626E-01;  9.9999998E-03;  1.7003764E-01;5177; -2.4085348E-03;  0.0000000E+00; -8.3697378E-04;  1.0003565E+03;  1.0000000E-01;  2.9539905E+02;3;  1.3990644E+00;  0.0000000E+00;  1.1948227E-01;0;  7.6022828E-03;  4.0032109E+04;  0.0000000E+00;  2.0507570E-02;  4.0000000E+04;  0.0000000E+00;  3.9995074E+04;  1.1259452E-02;  0.0000000E+00; -3.6571689E-03;  6.3657391E+02;
  4.4094965E-01;  9.9999998E-03;  1.8003654E-01;5178; -2.3591488E-03;  0.0000000E+00; -8.6938153E-04;  1.0002824E+03;  1.0000000E-01;  2.3396869E+02;3;  1.3933939E+00;  0.0000000E+00;  1.2748572E-01;0;  7.9553872E-03;  4.0025156E+04;  0.0000000E+00; -2.3849808E-02;  4.0000000E+04;  0.0000000E+00;  3.9995688E+04;  1.1460792E-02;  0.0000000E+00; -3.5054053E-03;  5.2978674E+02;
  4.4094533E-01;  9.9999998E-03;  1.9003442E-01;5179; -2.2995980E-03;  0.0000000E+00; -9.0102141E-04;  1.0001902E+03;  1.0000000E-01;  1.5752641E+02;3;  1.3911130E+00;  0.0000000E+00;  1.3374563E-01;0;  8.3437786E-03;  4.0017090E+04;  0.0000000E+00; -7.0454858E-02;  4.0000000E+04;  0.0000000E+00;  3.9996773E+04;  1.1708499E-02;  0.0000000E+00; -3.3647206E-03;  4.3027103E+02;
  4.4094253E-01;  9.9999998E-03;  2.0003045E-01;5180; -2.2283688E-03;  0.0000000E+00; -9.3176321E-04;  1.0000981E+03;  1.0000000E-01;  8.1281654E+01;3;  1.3904388E+00;  0.0000000E+00;  1.3901742E-01;0;  8.7592695E-03;  4.0008223E+04;  0.0000000E+00; -1.1570963E-01;  4.0000000E+04;  0.0000000E+00;  3.9997613E+04;  1.1997742E-02;  0.0000000E+00; -3.2384724E-03;  3.4070398E+02;
  4.4094068E-01;  9.9999998E-03;  2.1002354E-01;5181; -2.1438664E-03;  0.0000000E+00; -9.6063869E-04;  9.9999689E+02;  1.0000000E-01; -2.5678287E+00;3;  1.3934146E+00;  0.0000000E+00;  1.4349963E-01;0;  9.1906562E-03;  3.9999051E+04;  0.0000000E+00; -1.5649168E-01;  4.0000000E+04;  0.0000000E+00;  3.9999023E+04;  1.2319476E-02;  0.0000000E+00; -3.1288206E-03;  2.5899640E+02;
  4.4093934E-01;  9.9999998E-03;  2.2001411E-01;5182; -2.0448598E-03;  0.0000000E+00; -9.8066835E-04;  9.9990967E+02;  1.0000000E-01; -7.4862083E+01;3;  1.3999966E+00;  0.0000000E+00;  1.4585218E-01;0;  9.6375579E-03;  3.9989672E+04;  0.0000000E+00; -1.9045621E-01;  4.0000000E+04;  0.0000000E+00;  4.0001379E+04;  1.2661573E-02;  0.0000000E+00; -3.0240158E-03;  3.0811523E+02;
  4.4093734E-01;  9.9999998E-03;  2.3000774E-01;5183; -1.9277607E-03;  0.0000000E+00; -9.7621331E-04;  9.9982648E+02;  1.0000000E-01; -1.4374902E+02;3;  1.4139540E+00;  0.0000000E+00;  1.5328169E-01;0;  1.0156274E-02;  3.9980090E+04;  0.0000000E+00; -2.1592043E-01;  4.0000000E+04;  0.0000000E+00;  4.0003961E+04;  1.3009906E-02;  0.0000000E+00; -2.8536315E-03;  6.0414178E+02;
  4.5105645E-01;  9.9999998E-03;  7.0011005E-02;5228; -2.6185664E-03;  0.0000000E+00; -4.3803305E-04;  1.0003589E+03;  1.0000000E-01;  2.9737430E+02;3;  1.5127028E+00;  0.0000000E+00;  4.2371050E-02;0;  8.6842561E-03;  4.0038039E+04;  0.0000000E+00;  5.1953714E-02;  4.0000000E+04;  0.0000000E+00;  3.9990539E+04;  1.4060187E-02;  0.0000000E+00; -5.3759310E-03;  1.2172441E+03;
  4.5105270E-01;  9.9999998E-03;  8.0016039E-02;5229; -2.6287162E-03;  0.0000000E+00; -4.9388822E-04;  1.0004225E+03;  1.0000000E-01;  3.5011356E+02;3;  1.4895836E+00;  0.0000000E+00;  4.8790473E-02;0;  8.9062750E-03;  4.0043164E+04;  0.0000000E+00;  6.4119570E-02;  4.0000000E+04;  0.0000000E+00;  3.9990328E+04;  1.4183462E-02;  0.0000000E+00; -5.2771866E-03;  1.2356948E+03;
  4.5104691E-01;  9.9999998E-03;  9.0021439E-02;5230; -2.6289765E-03;  0.0000000E+00; -5.4676383E-04;  1.0004813E+03;  1.0000000E-01;  3.9870477E+02;3;  1.4698879E+00;  0.0000000E+00;  5.5610571E-02;0;  9.1327429E-03;  4.0047758E+04;  0.0000000E+00;  7.5300634E-02;  4.0000000E+04;  0.0000000E+00;  3.9990664E+04;  1.4302366E-02;  0.0000000E+00; -5.1696231E-03;  1.2315413E+03;
  4.5103881E-01;  9.9999998E-03;  1.0002653E-01;5231; -2.6213897E-03;  0.0000000E+00; -5.9659267E-04;  1.0005249E+03;  1.0000000E-01;  4.3485190E+02;3;  1.4527787E+00;  0.0000000E+00;  6.2872209E-02;0;  9.3635544E-03;  4.0050820E+04;  0.0000000E+00;  8.4346227E-02;  4.0000000E+04;  0.0000000E+00;  3.9990809E+04;  1.4417290E-02;  0.0000000E+00; -5.0537349E-03;  1.2055691E+03;
  4.5102876E-01;  9.9999998E-03;  1.1003079E-01;5232; -2.6077318E-03;  0.0000000E+00; -6.4358924E-04;  1.0005559E+03;  1.0000000E-01;  4.6053018E+02;3;  1.4420213E+00;  0.0000000E+00;  7.0796691E-02;0;  9.6016508E-03;  4.0052734E+04;  0.0000000E+00;  8.9987472E-02;  4.0000000E+04;  0.0000000E+00;  3.9991129E+04;  1.4531352E-02;  0.0000000E+00; -4.9297009E-03;  1.1608895E+03;
  4.5101762E-01;  9.9999998E-03;  1.2003400E-01;5233; -2.5904835E-03;  0.0000000E+00; -6.8827922E-04;  1.0005685E+03;  1.0000000E-01;  4.7099902E+02;3;  1.4341995E+00;  0.0000000E+00;  8.0354832E-02;0;  9.8526990E-03;  4.0053332E+04;  0.0000000E+00;  9.0914406E-02;  4.0000000E+04;  0.0000000E+00;  3.9991707E+04;  1.4650172E-02;  0.0000000E+00; -4.7974726E-03;  1.1017812E+03;
  4.5100608E-01;  9.9999998E-03;  1.3003604E-01;5234; -2.5696254E-03;  0.0000000E+00; -7.3113869E-04;  1.0005609E+03;  1.0000000E-01;  4.6467822E+02;3;  1.4276364E+00;  0.0000000E+00;  8.9618124E-02;0;  1.0124061E-02;  4.0052160E+04;  0.0000000E+00;  8.5809007E-02;  4.0000000E+04;  0.0000000E+00;  3.9992207E+04;  1.4781137E-02;  0.0000000E+00; -4.6570762E-03;  1.0318765E+03;
  4.5099449E-01;  9.9999998E-03;  1.4003721E-01;5235; -2.5451765E-03;  0.0000000E+00; -7.7230681E-04;  1.0005391E+03;  1.0000000E-01;  4.4660464E+02;3;  1.4213388E+00;  0.0000000E+00;  9.8239876E-02;0;  1.0423582E-02;  4.0049566E+04;  0.0000000E+00;  7.3455237E-02;  4.0000000E+04;  0.0000000E+00;  3.9992898E+04;  1.4932679E-02;  0.0000000E+00; -4.5090974E-03;  9.5324060E+02;
  4.5098430E-01;  9.9999998E-03;  1.5003774E-01;5236; -2.5161307E-03;  0.0000000E+00; -8.1211503E-04;  1.0005020E+03;  1.0000000E-01;  4.1588947E+02;3;  1.4141128E+00;  0.0000000E+00;  1.0699669E-01;0;  1.0758911E-02;  4.0045578E+04;  0.0000000E+00;  5.2938815E-02;  4.0000000E+04;  0.0000000E+00;  3.9993414E+04;  1.5114264E-02;  0.0000000E+00; -4.3553524E-03;  8.6583380E+02;
  4.5097667E-01;  9.9999998E-03;  1.6003768E-01;5237; -2.4813008E-03;  0.0000000E+00; -8.5101690E-04;  1.0004481E+03;  1.0000000E-01;  3.7124875E+02;3;  1.4059374E+00;  0.0000000E+00;  1.1534074E-01;0;  1.1135641E-02;  4.0040594E+04;  0.0000000E+00;  2.4049249E-02;  4.0000000E+04;  0.0000000E+00;  3.9994121E+04;  1.5335274E-02;  0.0000000E+00; -4.1996329E-03;  7.7030780E+02;
  4.5097196E-01;  9.9999998E-03;  1.7003703E-01;5238; -2.4390561E-03;  0.0000000E+00; -8.8912208E-04;  1.0003855E+03;  1.0000000E-01;  3.1939838E+02;3;  1.3996251E+00;  0.0000000E+00;  1.2196301E-01;0;  1.1556689E-02;  4.0034410E+04;  0.0000000E+00; -1.2116047E-02;  4.0000000E+04;  0.0000000E+00;  3.9994617E+04;  1.5603673E-02;  0.0000000E+00; -4.0469836E-03;  6.6982373E+02;
  4.5097011E-01;  9.9999998E-03;  1.8003558E-01;5239; -2.3883206E-03;  0.0000000E+00; -9.2689309E-04;  1.0003035E+03;  1.0000000E-01;  2.5144968E+02;3;  1.3955569E+00;  0.0000000E+00;  1.2777154E-01;0;  1.2021966E-02;  4.0027445E+04;  0.0000000E+00; -5.3104445E-02;  4.0000000E+04;  0.0000000E+00;  3.9995867E+04;  1.5924474E-02;  0.0000000E+00; -3.9025075E-03;  5.6995392E+02;
  4.5097074E-01;  9.9999998E-03;  1.9003303E-01;5240; -2.3274508E-03;  0.0000000E+00; -9.6363970E-04;  1.0002175E+03;  1.0000000E-01;  1.8014305E+02;3;  1.3937467E+00;  0.0000000E+00;  1.3277747E-01;0;  1.2527743E-02;  4.0019500E+04;  0.0000000E+00; -9.5629446E-02;  4.0000000E+04;  0.0000000E+00;  3.9996508E+04;  1.6298274E-02;  0.0000000E+00; -3.7705307E-03;  4.7607458E+02;
  4.5097345E-01;  9.9999998E-03;  2.0002884E-01;5241; -2.2550863E-03;  0.0000000E+00; -9.9936349E-04;  1.0001248E+03;  1.0000000E-01;  1.0340448E+02;3;  1.3936394E+00;  0.0000000E+00;  1.3673109E-01;0;  1.3066029E-02;  4.0011270E+04;  0.0000000E+00; -1.3631146E-01;  4.0000000E+04;  0.0000000E+00;  3.9997348E+04;  1.6720658E-02;  0.0000000E+00; -3.6546292E-03;  3.8755432E+02;
  4.5097780E-01;  9.9999998E-03;  2.1002246E-01;5242; -2.1701467E-03;  0.0000000E+00; -1.0329077E-03;  1.0000341E+03;  1.0000000E-01;  2.8246115E+01;3;  1.3964928E+00;  0.0000000E+00;  1.4086568E-01;0;  1.3625535E-02;  4.0002629E+04;  0.0000000E+00; -1.7224471E-01;  4.0000000E+04;  0.0000000E+00;  3.9998637E+04;  1.7182291E-02;  0.0000000E+00; -3.5567554E-03;  2.9929401E+02;
  4.5098272E-01;  9.9999998E-03;  2.2001487E-01;5243; -2.0710384E-03;  0.0000000E+00; -1.0583517E-03;  9.9994666E+02;  1.0000000E-01; -4.4196281E+01;3;  1.4035825E+00;  0.0000000E+00;  1.4355302E-01;0;  1.4203463E-02;  3.9993637E+04;  0.0000000E+00; -2.0121853E-01;  4.0000000E+04;  0.0000000E+00;  4.0000605E+04;  1.7669715E-02;  0.0000000E+00; -3.4662518E-03;  2.9523166E+02;
  4.5098588E-01;  9.9999998E-03;  2.3001069E-01;5244; -1.9559390E-03;  0.0000000E+00; -1.0656667E-03;  9.9987207E+02;  1.0000000E-01; -1.0597231E+02;3;  1.4171162E+00;  0.0000000E+00;  1.4805415E-01;0;  1.4835548E-02;  3.9984867E+04;  0.0000000E+00; -2.2148377E-01;  4.0000000E+04;  0.0000000E+00;  4.0003148E+04;  1.8166631E-02;  0.0000000E+00; -3.3310840E-03;  4.8883862E+02;
  4.6105012E-01;  9.9999998E-03;  7.0007257E-02;5289; -2.6090117E-03;  0.0000000E+00; -4.3331401E-04;  1.0004441E+03;  1.0000000E-01;  3.6789084E+02;3;  1.5197952E+00;  0.0000000E+00;  5.6308251E-02;0;  1.1869319E-02;  4.0044453E+04;  0.0000000E+00;  3.5277169E-02;  4.0000000E+04;  0.0000000E+00;  3.9990949E+04;  1.7565750E-02;  0.0000000E+00; -5.6964303E-03;  1.1649473E+03;
  4.6104035E-01;  9.9999998E-03;  8.0011778E-02;5290; -2.6238773E-03;  0.0000000E+00; -4.9334706E-04;  1.0005064E+03;  1.0000000E-01;  4.1954370E+02;3;  1.4961673E+00;  0.0000000E+00;  6.3256793E-02;0;  1.2256169E-02;  4.0049543E+04;  0.0000000E+00;  4.2322852E-02;  4.0000000E+04;  0.0000000E+00;  3.9990883E+04;  1.7867934E-02;  0.0000000E+00; -5.6117652E-03;  1.1989584E+03;
  4.6102947E-01;  9.9999998E-03;  9.0016671E-02;5291; -2.6294400E-03;  0.0000000E+00; -5.5125012E-04;  1.0005533E+03;  1.0000000E-01;  4.5845618E+02;3;  1.4751719E+00;  0.0000000E+00;  6.8686232E-02;0;  1.2649574E-02;  4.0053551E+04;  0.0000000E+00;  4.8105549E-02;  4.0000000E+04;  0.0000000E+00;  3.9990758E+04;  1.8166546E-02;  0.0000000E+00; -5.5169715E-03;  1.2105570E+03;
  4.6101820E-01;  9.9999998E-03;  1.0002136E-01;5292; -2.6270405E-03;  0.0000000E+00; -6.0628867E-04;  1.0005943E+03;  1.0000000E-01;  4.9233176E+02;3;  1.4575161E+00;  0.0000000E+00;  7.4528709E-02;0;  1.3046432E-02;  4.0056480E+04;  0.0000000E+00;  5.1850986E-02;  4.0000000E+04;  0.0000000E+00;  3.9990797E+04;  1.8458620E-02;  0.0000000E+00; -5.4121870E-03;  1.2002211E+03;
  4.6100730E-01;  9.9999998E-03;  1.1002535E-01;5293; -2.6182502E-03;  0.0000000E+00; -6.5865315E-04;  1.0006189E+03;  1.0000000E-01;  5.1277563E+02;3;  1.4452733E+00;  0.0000000E+00;  8.1248306E-02;0;  1.3447702E-02;  4.0058223E+04;  0.0000000E+00;  5.2762799E-02;  4.0000000E+04;  0.0000000E+00;  3.9991082E+04;  1.8745162E-02;  0.0000000E+00; -5.2974592E-03;  1.1707079E+03;
  4.6099681E-01;  9.9999998E-03;  1.2002823E-01;5294; -2.6052252E-03;  0.0000000E+00; -7.0898508E-04;  1.0006287E+03;  1.0000000E-01;  5.2087415E+02;3;  1.4374611E+00;  0.0000000E+00;  8.8659905E-02;0;  1.3857564E-02;  4.0058453E+04;  0.0000000E+00;  5.0044812E-02;  4.0000000E+04;  0.0000000E+00;  3.9991535E+04;  1.9030418E-02;  0.0000000E+00; -5.1728538E-03;  1.1260601E+03;
  4.6098793E-01;  9.9999998E-03;  1.3003001E-01;5295; -2.5881866E-03;  0.0000000E+00; -7.5761648E-04;  1.0006232E+03;  1.0000000E-01;  5.1633105E+02;3;  1.4298656E+00;  0.0000000E+00;  9.7060606E-02;0;  1.4283580E-02;  4.0057336E+04;  0.0000000E+00;  4.2882152E-02;  4.0000000E+04;  0.0000000E+00;  3.9991852E+04;  1.9322367E-02;  0.0000000E+00; -5.0387876E-03;  1.0699777E+03;
  4.6098086E-01;  9.9999998E-03;  1.4003080E-01;5296; -2.5664393E-03;  0.0000000E+00; -8.0470188E-04;  1.0005961E+03;  1.0000000E-01;  4.9391196E+02;3;  1.4223231E+00;  0.0000000E+00;  1.0437568E-01;0;  1.4734398E-02;  4.0054625E+04;  0.0000000E+00;  3.0493764E-02;  4.0000000E+04;  0.0000000E+00;  3.9992441E+04;  1.9630808E-02;  0.0000000E+00; -4.8964107E-03;  1.0044252E+03;
  4.6097633E-01;  9.9999998E-03;  1.5003084E-01;5297; -2.5389434E-03;  0.0000000E+00; -8.5044745E-04;  1.0005555E+03;  1.0000000E-01;  4.6023389E+02;3;  1.4150121E+00;  0.0000000E+00;  1.1226574E-01;0;  1.5219182E-02;  4.0050836E+04;  0.0000000E+00;  1.2218026E-02;  4.0000000E+04;  0.0000000E+00;  3.9993066E+04;  1.9967373E-02;  0.0000000E+00; -4.7481922E-03;  9.2943701E+02;
  4.6097550E-01;  9.9999998E-03;  1.6003038E-01;5298; -2.5044011E-03;  0.0000000E+00; -8.9531200E-04;  1.0005019E+03;  1.0000000E-01;  4.1579071E+02;3;  1.4075934E+00;  0.0000000E+00;  1.1888483E-01;0;  1.5746035E-02;  4.0045875E+04;  0.0000000E+00; -1.2145563E-02;  4.0000000E+04;  0.0000000E+00;  3.9993438E+04;  2.0344552E-02;  0.0000000E+00; -4.5985174E-03;  8.4474768E+02;
  4.6097854E-01;  9.9999998E-03;  1.7002937E-01;5299; -2.4616632E-03;  0.0000000E+00; -9.3921443E-04;  1.0004372E+03;  1.0000000E-01;  3.6216260E+02;3;  1.4026605E+00;  0.0000000E+00;  1.2484065E-01;0;  1.6320210E-02;  4.0040004E+04;  0.0000000E+00; -4.1794550E-02;  4.0000000E+04;  0.0000000E+00;  3.9994504E+04;  2.0773049E-02;  0.0000000E+00; -4.4528390E-03;  7.5155591E+02;
  4.6098527E-01;  9.9999998E-03;  1.8002783E-01;5300; -2.4092449E-03;  0.0000000E+00; -9.8186871E-04;  1.0003630E+03;  1.0000000E-01;  3.0073224E+02;3;  1.3993499E+00;  0.0000000E+00;  1.2838060E-01;0;  1.6943578E-02;  4.0032879E+04;  0.0000000E+00; -7.4870624E-02;  4.0000000E+04;  0.0000000E+00;  3.9995090E+04;  2.1260036E-02;  0.0000000E+00; -4.3164585E-03;  6.5194037E+02;
  4.6099460E-01;  9.9999998E-03;  1.9002581E-01;5301; -2.3472207E-03;  0.0000000E+00; -1.0241268E-03;  1.0002809E+03;  1.0000000E-01;  2.3278354E+02;3;  1.3965892E+00;  0.0000000E+00;  1.3185425E-01;0;  1.7613104E-02;  4.0025516E+04;  0.0000000E+00; -1.0884342E-01;  4.0000000E+04;  0.0000000E+00;  3.9995918E+04;  2.1807102E-02;  0.0000000E+00; -4.1939984E-03;  5.4817645E+02;
  4.6100533E-01;  9.9999998E-03;  2.0002304E-01;5302; -2.2732392E-03;  0.0000000E+00; -1.0648480E-03;  1.0001916E+03;  1.0000000E-01;  1.5871156E+02;3;  1.3980366E+00;  0.0000000E+00;  1.3563389E-01;0;  1.8320963E-02;  4.0017359E+04;  0.0000000E+00; -1.4109708E-01;  4.0000000E+04;  0.0000000E+00;  3.9997113E+04;  2.2409793E-02;  0.0000000E+00; -4.0888302E-03;  4.4035370E+02;
  4.6101668E-01;  9.9999998E-03;  2.1001966E-01;5303; -2.1867100E-03;  0.0000000E+00; -1.1027949E-03;  1.0001087E+03;  1.0000000E-01;  9.0071526E+01;3;  1.4016277E+00;  0.0000000E+00;  1.3799159E-01;0;  1.9056203E-02;  4.0008980E+04;  0.0000000E+00; -1.6935953E-01;  4.0000000E+04;  0.0000000E+00;  3.9998156E+04;  2.3058100E-02;  0.0000000E+00; -4.0018973E-03;  3.3260248E+02;
  4.6102637E-01;  9.9999998E-03;  2.2001654E-01;5304; -2.0866268E-03;  0.0000000E+00; -1.1352878E-03;  1.0000191E+03;  1.0000000E-01;  1.5802022E+01;3;  1.4095138E+00;  0.0000000E+00;  1.3990526E-01;0;  1.9809876E-02;  4.0000590E+04;  0.0000000E+00; -1.9175965E-01;  4.0000000E+04;  0.0000000E+00;  3.9999941E+04;  2.3736395E-02;  0.0000000E+00; -3.9265202E-03;  2.7259610E+02;
  4.6103290E-01;  9.9999998E-03;  2.3001538E-01;5305; -1.9724609E-03;  0.0000000E+00; -1.1585964E-03;  9.9993646E+02;  1.0000000E-01; -5.2640488E+01;3;  1.4211878E+00;  0.0000000E+00;  1.4156421E-01;0;  2.0590162E-02;  3.9992473E+04;  0.0000000E+00; -2.0630340E-01;  4.0000000E+04;  0.0000000E+00;  4.0001297E+04;  2.4426740E-02;  0.0000000E+00; -3.8365780E-03;  3.3470505E+02;
  4.7102216E-01;  9.9999998E-03;  7.0004962E-02;5350; -2.5744019E-03;  0.0000000E+00; -4.2427648E-04;  1.0005708E+03;  1.0000000E-01;  4.7287549E+02;3;  1.5422055E+00;  0.0000000E+00;  6.9495864E-02;0;  1.5240088E-02;  4.0054320E+04;  0.0000000E+00;  1.4254074E-02;  4.0000000E+04;  0.0000000E+00;  3.9991809E+04;  2.1274937E-02;  0.0000000E+00; -6.0348492E-03;  1.0897910E+03;
  4.7100812E-01;  9.9999998E-03;  8.0008529E-02;5351; -2.5978514E-03;  0.0000000E+00; -4.8804376E-04;  1.0006196E+03;  1.0000000E-01;  5.1326941E+02;3;  1.5093017E+00;  0.0000000E+00;  7.5604178E-02;0;  1.5820891E-02;  4.0058324E+04;  0.0000000E+00;  1.5404453E-02;  4.0000000E+04;  0.0000000E+00;  3.9991250E+04;  2.1783143E-02;  0.0000000E+00; -5.9622531E-03;  1.1396445E+03;
  4.7099429E-01;  9.9999998E-03;  9.0012334E-02;5352; -2.6093645E-03;  0.0000000E+00; -5.5051892E-04;  1.0006570E+03;  1.0000000E-01;  5.4437964E+02;3;  1.4852428E+00;  0.0000000E+00;  8.0801934E-02;0;  1.6414516E-02;  4.0061516E+04;  0.0000000E+00;  1.5288404E-02;  4.0000000E+04;  0.0000000E+00;  3.9991117E+04;  2.2292782E-02;  0.0000000E+00; -5.8782655E-03;  1.1702871E+03;
  4.7098091E-01;  9.9999998E-03;  1.0001594E-01;5353; -2.6131705E-03;  0.0000000E+00; -6.1110692E-04;  1.0006882E+03;  1.0000000E-01;  5.7015668E+02;3;  1.4681888E+00;  0.0000000E+00;  8.6537495E-02;0;  1.7013829E-02;  4.0063996E+04;  0.0000000E+00;  1.3671712E-02;  4.0000000E+04;  0.0000000E+00;  3.9990977E+04;  2.2796461E-02;  0.0000000E+00; -5.7826312E-03;  1.1816315E+03;
  4.7096902E-01;  9.9999998E-03;  1.1001886E-01;5354; -2.6105277E-03;  0.0000000E+00; -6.6946150E-04;  1.0007045E+03;  1.0000000E-01;  5.8368713E+02;3;  1.4532087E+00;  0.0000000E+00;  9.0666503E-02;0;  1.7617030E-02;  4.0065211E+04;  0.0000000E+00;  1.0348677E-02;  4.0000000E+04;  0.0000000E+00;  3.9991164E+04;  2.3292301E-02;  0.0000000E+00; -5.6752716E-03;  1.1754269E+03;
  4.7095960E-01;  9.9999998E-03;  1.2002072E-01;5355; -2.6025237E-03;  0.0000000E+00; -7.2562776E-04;  1.0007087E+03;  1.0000000E-01;  5.8714386E+02;3;  1.4433334E+00;  0.0000000E+00;  9.7516984E-02;0;  1.8227022E-02;  4.0065262E+04;  0.0000000E+00;  5.1046871E-03;  4.0000000E+04;  0.0000000E+00;  3.9991336E+04;  2.3783447E-02;  0.0000000E+00; -5.5564241E-03;  1.1547081E+03;
  4.7095335E-01;  9.9999998E-03;  1.3002154E-01;5356; -2.5895229E-03;  0.0000000E+00; -7.8026752E-04;  1.0006958E+03;  1.0000000E-01;  5.7647748E+02;3;  1.4338125E+00;  0.0000000E+00;  1.0400178E-01;0;  1.8850442E-02;  4.0063891E+04;  0.0000000E+00; -2.3387305E-03;  4.0000000E+04;  0.0000000E+00;  3.9991344E+04;  2.4277352E-02;  0.0000000E+00; -5.4269088E-03;  1.1219329E+03;
  4.7095045E-01;  9.9999998E-03;  1.4002137E-01;5357; -2.5706503E-03;  0.0000000E+00; -8.3361048E-04;  1.0006688E+03;  1.0000000E-01;  5.5405835E+02;3;  1.4253236E+00;  0.0000000E+00;  1.1034471E-01;0;  1.9496527E-02;  4.0061445E+04;  0.0000000E+00; -1.2363018E-02;  4.0000000E+04;  0.0000000E+00;  3.9991887E+04;  2.4785014E-02;  0.0000000E+00; -5.2884868E-03;  1.0779933E+03;
  4.7095111E-01;  9.9999998E-03;  1.5002061E-01;5358; -2.5449903E-03;  0.0000000E+00; -8.8595314E-04;  1.0006277E+03;  1.0000000E-01;  5.2008405E+02;3;  1.4186766E+00;  0.0000000E+00;  1.1534212E-01;0;  2.0175656E-02;  4.0057711E+04;  0.0000000E+00; -2.5433721E-02;  4.0000000E+04;  0.0000000E+00;  3.9992148E+04;  2.5319990E-02;  0.0000000E+00; -5.1443339E-03;  1.0217231E+03;
  4.7095567E-01;  9.9999998E-03;  1.6001967E-01;5359; -2.5111740E-03;  0.0000000E+00; -9.3711878E-04;  1.0005751E+03;  1.0000000E-01;  4.7643094E+02;3;  1.4115518E+00;  0.0000000E+00;  1.2137064E-01;0;  2.0897949E-02;  4.0052891E+04;  0.0000000E+00; -4.1873094E-02;  4.0000000E+04;  0.0000000E+00;  3.9992918E+04;  2.5897337E-02;  0.0000000E+00; -4.9993885E-03;  9.5105896E+02;
  4.7096416E-01;  9.9999998E-03;  1.7001885E-01;5360; -2.4682656E-03;  0.0000000E+00; -9.8724838E-04;  1.0005076E+03;  1.0000000E-01;  4.2053128E+02;3;  1.4072199E+00;  0.0000000E+00;  1.2597893E-01;0;  2.1671001E-02;  4.0046918E+04;  0.0000000E+00; -6.1420824E-02;  4.0000000E+04;  0.0000000E+00;  3.9993445E+04;  2.6530510E-02;  0.0000000E+00; -4.8595094E-03;  8.6429590E+02;
  4.7097611E-01;  9.9999998E-03;  1.8001826E-01;5361; -2.4149430E-03;  0.0000000E+00; -1.0358625E-03;  1.0004378E+03;  1.0000000E-01;  3.6275516E+02;3;  1.4039131E+00;  0.0000000E+00;  1.3069920E-01;0;  2.2498459E-02;  4.0040223E+04;  0.0000000E+00; -8.3161972E-02;  4.0000000E+04;  0.0000000E+00;  3.9994051E+04;  2.7228776E-02;  0.0000000E+00; -4.7303177E-03;  7.6048132E+02;
  4.7099048E-01;  9.9999998E-03;  1.9001798E-01;5362; -2.3503194E-03;  0.0000000E+00; -1.0827541E-03;  1.0003558E+03;  1.0000000E-01;  2.9470770E+02;3;  1.4024565E+00;  0.0000000E+00;  1.3349915E-01;0;  2.3378639E-02;  4.0032617E+04;  0.0000000E+00; -1.0574660E-01;  4.0000000E+04;  0.0000000E+00;  3.9995254E+04;  2.7994974E-02;  0.0000000E+00; -4.6163346E-03;  6.4087872E+02;
  4.7100472E-01;  9.9999998E-03;  2.0001817E-01;5363; -2.2741423E-03;  0.0000000E+00; -1.1285564E-03;  1.0002721E+03;  1.0000000E-01;  2.2537633E+02;3;  1.4031168E+00;  0.0000000E+00;  1.3443168E-01;0;  2.4303114E-02;  4.0024695E+04;  0.0000000E+00; -1.2766956E-01;  4.0000000E+04;  0.0000000E+00;  3.9996312E+04;  2.8824039E-02;  0.0000000E+00; -4.5209243E-03;  5.1149615E+02;
  4.7101671E-01;  9.9999998E-03;  2.1001904E-01;5364; -2.1854714E-03;  0.0000000E+00; -1.1722676E-03;  1.0001829E+03;  1.0000000E-01;  1.5150188E+02;3;  1.4073231E+00;  0.0000000E+00;  1.3562034E-01;0;  2.5258509E-02;  4.0016559E+04;  0.0000000E+00; -1.4742811E-01;  4.0000000E+04;  0.0000000E+00;  3.9997527E+04;  2.9703707E-02;  0.0000000E+00; -4.4451975E-03;  3.8915060E+02;
  4.7102395E-01;  9.9999998E-03;  2.2002062E-01;5365; -2.0840468E-03;  0.0000000E+00; -1.2143311E-03;  1.0000920E+03;  1.0000000E-01;  7.6244751E+01;3;  1.4153756E+00;  0.0000000E+00;  1.3593967E-01;0;  2.6227389E-02;  4.0008348E+04;  0.0000000E+00; -1.6334955E-01;  4.0000000E+04;  0.0000000E+00;  3.9998516E+04;  3.0616248E-02;  0.0000000E+00; -4.3888604E-03;  3.0342990E+02;
  4.7102538E-01;  9.9999998E-03;  2.3002152E-01;5366; -1.9700108E-03;  0.0000000E+00; -1.2555681E-03;  1.0000023E+03;  1.0000000E-01;  1.8764900E+00;3;  1.4268868E+00;  0.0000000E+00;  1.3669901E-01;0;  2.7189555E-02;  4.0000238E+04;  0.0000000E+00; -1.7297350E-01;  4.0000000E+04;  0.0000000E+00;  3.9999570E+04;  3.1541083E-02;  0.0000000E+00; -4.3515279E-03;  2.5789429E+02;
  4.8095894E-01;  9.9999998E-03;  1.1001425E-01;5415; -2.5726703E-03;  0.0000000E+00; -6.7663525E-04;  1.0008071E+03;  1.0000146E-01;  6.6872180E+02;3;  1.4673430E+00;  0.0000000E+00;  9.8938577E-02;0;  2.1821100E-02;  4.0072273E+04;  0.0000000E+00; -3.3816174E-02;  4.0000000E+04;  0.0000000E+00;  3.9991195E+04;  2.7885159E-02;  0.0000000E+00; -6.0640597E-03;  1.1767767E+03;
  4.8095018E-01;  9.9999998E-03;  1.2001522E-01;5416; -2.5714070E-03;  0.0000000E+00; -7.3933514E-04;  1.0008028E+03;  1.0000150E-01;  6.6506757E+02;3;  1.4518559E+00;  0.0000000E+00;  1.0442290E-01;0;  2.2665715E-02;  4.0072316E+04;  0.0000000E+00; -3.9555144E-02;  4.0000000E+04;  0.0000000E+00;  3.9991023E+04;  2.8611967E-02;  0.0000000E+00; -5.9462530E-03;  1.1855089E+03;
  4.8097199E-01;  9.9999998E-03;  1.0001236E-01;5414; -2.5662689E-03;  0.0000000E+00; -6.1233091E-04;  1.0007997E+03;  1.0000148E-01;  6.6249976E+02;3;  1.4868846E+00;  0.0000000E+00;  9.3288846E-02;0;  2.0984886E-02;  4.0071641E+04;  0.0000000E+00; -2.7697833E-02;  4.0000000E+04;  0.0000000E+00;  3.9991441E+04;  2.7153945E-02;  0.0000000E+00; -6.1690588E-03;  1.1546906E+03;
  4.8094559E-01;  9.9999998E-03;  1.3001519E-01;5417; -2.5631199E-03;  0.0000000E+00; -8.0049515E-04;  1.0007884E+03;  1.0000146E-01;  6.5321606E+02;3;  1.4406416E+00;  0.0000000E+00;  1.1050070E-01;0;  2.3524020E-02;  4.0070578E+04;  0.0000000E+00; -4.4762574E-02;  4.0000000E+04;  0.0000000E+00;  3.9991137E+04;  2.9340876E-02;  0.0000000E+00; -5.8168559E-03;  1.1811671E+03;
  4.8098853E-01;  9.9999998E-03;  9.0009876E-02;5413; -2.5485398E-03;  0.0000000E+00; -5.4631568E-04;  1.0007869E+03;  1.0000148E-01;  6.5193213E+02;3;  1.5180575E+00;  0.0000000E+00;  8.9688793E-02;0;  2.0156426E-02;  4.0070172E+04;  0.0000000E+00; -2.1553354E-02;  4.0000000E+04;  0.0000000E+00;  3.9991660E+04;  2.6417248E-02;  0.0000000E+00; -6.2608221E-03;  1.1183091E+03;
  4.8100784E-01;  9.9999998E-03;  8.0007121E-02;5412; -2.5186837E-03;  0.0000000E+00; -4.7960566E-04;  1.0007609E+03;  1.0000142E-01;  6.3040186E+02;3;  1.5564617E+00;  0.0000000E+00;  8.5412592E-02;0;  1.9340865E-02;  4.0067914E+04;  0.0000000E+00; -1.5814004E-02;  4.0000000E+04;  0.0000000E+00;  3.9992055E+04;  2.5680399E-02;  0.0000000E+00; -6.3395333E-03;  1.0674386E+03;
  4.8094445E-01;  9.9999998E-03;  1.4001437E-01;5418; -2.5476683E-03;  0.0000000E+00; -8.6046808E-04;  1.0007547E+03;  1.0000150E-01;  6.2526624E+02;3;  1.4309988E+00;  0.0000000E+00;  1.1604804E-01;0;  2.4404828E-02;  4.0068438E+04;  0.0000000E+00; -4.9572956E-02;  4.0000000E+04;  0.0000000E+00;  3.9991012E+04;  3.0083053E-02;  0.0000000E+00; -5.6782244E-03;  1.1625676E+03;
  4.8102877E-01;  9.9999998E-03;  7.0004404E-02;5411; -2.4842357E-03;  0.0000000E+00; -4.1327369E-04;  1.0007327E+03;  1.0000142E-01;  6.0709387E+02;3;  1.5920607E+00;  0.0000000E+00;  7.9227142E-02;0;  1.8549245E-02;  4.0065426E+04;  0.0000000E+00; -1.0854686E-02;  4.0000000E+04;  0.0000000E+00;  3.9992469E+04;  2.4954896E-02;  0.0000000E+00; -6.4056516E-03;  1.0030937E+03;
  4.8094594E-01;  9.9999998E-03;  1.5001327E-01;5419; -2.5240872E-03;  0.0000000E+00; -9.1936375E-04;  1.0007127E+03;  1.0000141E-01;  5.9050177E+02;3;  1.4238818E+00;  0.0000000E+00;  1.2149052E-01;0;  2.5319358E-02;  4.0064688E+04;  0.0000000E+00; -5.4455329E-02;  4.0000000E+04;  0.0000000E+00;  3.9991488E+04;  3.0853570E-02;  0.0000000E+00; -5.5342112E-03;  1.1266520E+03;
  4.8094916E-01;  9.9999998E-03;  1.6001242E-01;5420; -2.4913824E-03;  0.0000000E+00; -9.7688858E-04;  1.0006616E+03;  1.0000144E-01;  5.4813263E+02;3;  1.4172516E+00;  0.0000000E+00;  1.2392514E-01;0;  2.6278956E-02;  4.0059871E+04;  0.0000000E+00; -6.0106039E-02;  4.0000000E+04;  0.0000000E+00;  3.9991863E+04;  3.1669267E-02;  0.0000000E+00; -5.3903102E-03;  1.0694673E+03;
  4.8095360E-01;  9.9999998E-03;  1.7001218E-01;5421; -2.4485977E-03;  0.0000000E+00; -1.0336258E-03;  1.0005950E+03;  1.0000145E-01;  4.9292429E+02;3;  1.4116143E+00;  0.0000000E+00;  1.2757979E-01;0;  2.7293066E-02;  4.0053758E+04;  0.0000000E+00; -6.7109659E-02;  4.0000000E+04;  0.0000000E+00;  3.9992430E+04;  3.2545812E-02;  0.0000000E+00; -5.2527469E-03;  9.8738068E+02;
  4.8095840E-01;  9.9999998E-03;  1.8001296E-01;5422; -2.3948073E-03;  0.0000000E+00; -1.0889556E-03;  1.0005204E+03;  1.0000140E-01;  4.3119766E+02;3;  1.4091423E+00;  0.0000000E+00;  1.3065790E-01;0;  2.8366324E-02;  4.0047215E+04;  0.0000000E+00; -7.5778522E-02;  4.0000000E+04;  0.0000000E+00;  3.9993348E+04;  3.3493835E-02;  0.0000000E+00; -5.1275110E-03;  8.7869720E+02;
  4.8096275E-01;  9.9999998E-03;  1.9001505E-01;5423; -2.3289064E-03;  0.0000000E+00; -1.1422831E-03;  1.0004399E+03;  1.0000148E-01;  3.6443411E+02;3;  1.4085300E+00;  0.0000000E+00;  1.3352619E-01;0;  2.9497657E-02;  4.0039535E+04;  0.0000000E+00; -8.6118899E-02;  4.0000000E+04;  0.0000000E+00;  3.9994457E+04;  3.4517158E-02;  0.0000000E+00; -5.0195004E-03;  7.4742236E+02;
  4.8096561E-01;  9.9999998E-03;  2.0001879E-01;5424; -2.2498392E-03;  0.0000000E+00; -1.1930877E-03;  1.0003477E+03;  1.0000140E-01;  2.8799182E+02;3;  1.4119518E+00;  0.0000000E+00;  1.3500309E-01;0;  3.0678891E-02;  4.0031105E+04;  0.0000000E+00; -9.7766168E-02;  4.0000000E+04;  0.0000000E+00;  3.9995516E+04;  3.5610553E-02;  0.0000000E+00; -4.9316632E-03;  6.1063672E+02;
  4.8096442E-01;  9.9999998E-03;  2.1002364E-01;5425; -2.1582262E-03;  0.0000000E+00; -1.2429249E-03;  1.0002512E+03;  1.0000147E-01;  2.0809286E+02;3;  1.4164597E+00;  0.0000000E+00;  1.3468382E-01;0;  3.1893585E-02;  4.0022543E+04;  0.0000000E+00; -1.0986612E-01;  4.0000000E+04;  0.0000000E+00;  3.9996426E+04;  3.6759660E-02;  0.0000000E+00; -4.8660748E-03;  5.0016660E+02;
  4.8095912E-01;  9.9999998E-03;  2.2002798E-01;5426; -2.0546888E-03;  0.0000000E+00; -1.2965334E-03;  1.0001497E+03;  1.0000146E-01;  1.2394711E+02;3;  1.4251459E+00;  0.0000000E+00;  1.3328359E-01;0;  3.3113230E-02;  4.0013969E+04;  0.0000000E+00; -1.2081238E-01;  4.0000000E+04;  0.0000000E+00;  3.9996848E+04;  3.7945345E-02;  0.0000000E+00; -4.8321141E-03;  4.4302042E+02;
  4.8095128E-01;  9.9999998E-03;  2.3002848E-01;5427; -1.9401187E-03;  0.0000000E+00; -1.3562475E-03;  1.0000507E+03;  1.0000141E-01;  4.1974117E+01;3;  1.4358112E+00;  0.0000000E+00;  1.3167177E-01;0;  3.4294233E-02;  4.0005539E+04;  0.0000000E+00; -1.2791853E-01;  4.0000000E+04;  0.0000000E+00;  3.9997316E+04;  3.9145984E-02;  0.0000000E+00; -4.8517510E-03;  3.8542691E+02;
  4.9110273E-01;  9.9999998E-03;  6.9994032E-02;5472; -2.2601043E-03;  0.0000000E+00; -4.0385529E-04;  1.0008721E+03;  1.0000208E-01;  7.2254742E+02;3;  1.7317835E+00;  0.0000000E+00;  7.6774463E-02;0;  2.1485645E-02;  4.0075055E+04;  0.0000000E+00; -3.8755633E-02;  4.0000000E+04;  0.0000000E+00;  3.9993289E+04;  2.8311605E-02;  0.0000000E+00; -6.8259588E-03;  9.1808771E+02;
  4.9107733E-01;  9.9999998E-03;  7.9995066E-02;5473; -2.3047645E-03;  0.0000000E+00; -4.7022771E-04;  1.0008800E+03;  1.0000209E-01;  7.2906573E+02;3;  1.6889160E+00;  0.0000000E+00;  8.7113127E-02;0;  2.2488842E-02;  4.0076410E+04;  0.0000000E+00; -4.9425181E-02;  4.0000000E+04;  0.0000000E+00;  3.9992547E+04;  2.9246187E-02;  0.0000000E+00; -6.7573451E-03;  9.9397119E+02;
  4.9105272E-01;  9.9999998E-03;  8.9996420E-02;5474; -2.3572079E-03;  0.0000000E+00; -5.3880695E-04;  1.0008885E+03;  1.0000204E-01;  7.3617664E+02;3;  1.6407139E+00;  0.0000000E+00;  9.7713120E-02;0;  2.3532238E-02;  4.0077586E+04;  0.0000000E+00; -5.9840497E-02;  4.0000000E+04;  0.0000000E+00;  3.9992230E+04;  3.0207179E-02;  0.0000000E+00; -6.6749421E-03;  1.0635781E+03;
  4.9103060E-01;  9.9999998E-03;  9.9997826E-02;5475; -2.4107606E-03;  0.0000000E+00; -6.0917030E-04;  1.0008918E+03;  1.0000208E-01;  7.3884326E+02;3;  1.5847896E+00;  0.0000000E+00;  1.0635906E-01;0;  2.4600899E-02;  4.0078090E+04;  0.0000000E+00; -6.8997592E-02;  4.0000000E+04;  0.0000000E+00;  3.9991684E+04;  3.1179147E-02;  0.0000000E+00; -6.5782475E-03;  1.1247256E+03;
  4.9101231E-01;  9.9999998E-03;  1.0999900E-01;5476; -2.4555135E-03;  0.0000000E+00; -6.8047526E-04;  1.0008857E+03;  1.0000202E-01;  7.3380634E+02;3;  1.5304167E+00;  0.0000000E+00;  1.1046769E-01;0;  2.5686303E-02;  4.0078398E+04;  0.0000000E+00; -7.5914629E-02;  4.0000000E+04;  0.0000000E+00;  3.9991125E+04;  3.2153536E-02;  0.0000000E+00; -6.4672325E-03;  1.1755948E+03;
  4.9099913E-01;  9.9999998E-03;  1.1999960E-01;5477; -2.4811672E-03;  0.0000000E+00; -7.5119286E-04;  1.0008755E+03;  1.0000196E-01;  7.2531274E+02;3;  1.4826632E+00;  0.0000000E+00;  1.1222406E-01;0;  2.6786508E-02;  4.0077984E+04;  0.0000000E+00; -7.9793029E-02;  4.0000000E+04;  0.0000000E+00;  3.9991000E+04;  3.3129070E-02;  0.0000000E+00; -6.3425614E-03;  1.2142975E+03;
  4.9099147E-01;  9.9999998E-03;  1.2999952E-01;5478; -2.4864743E-03;  0.0000000E+00; -8.1985845E-04;  1.0008563E+03;  1.0000198E-01;  7.0941199E+02;3;  1.4603835E+00;  0.0000000E+00;  1.1619182E-01;0;  2.7905416E-02;  4.0076320E+04;  0.0000000E+00; -8.0231264E-02;  4.0000000E+04;  0.0000000E+00;  3.9990777E+04;  3.4111321E-02;  0.0000000E+00; -6.2059043E-03;  1.2382520E+03;
  4.9098891E-01;  9.9999998E-03;  1.3999891E-01;5479; -2.4797935E-03;  0.0000000E+00; -8.8696746E-04;  1.0008268E+03;  1.0000201E-01;  6.8501764E+02;3;  1.4459379E+00;  0.0000000E+00;  1.2062909E-01;0;  2.9052099E-02;  4.0073902E+04;  0.0000000E+00; -7.7346168E-02;  4.0000000E+04;  0.0000000E+00;  3.9990621E+04;  3.5112318E-02;  0.0000000E+00; -6.0602180E-03;  1.2437343E+03;
  4.9099058E-01;  9.9999998E-03;  1.4999828E-01;5480; -2.4615508E-03;  0.0000000E+00; -9.5284253E-04;  1.0007781E+03;  1.0000207E-01;  6.4462372E+02;3;  1.4349965E+00;  0.0000000E+00;  1.2399665E-01;0;  3.0238748E-02;  4.0070379E+04;  0.0000000E+00; -7.1849324E-02;  4.0000000E+04;  0.0000000E+00;  3.9990719E+04;  3.6148816E-02;  0.0000000E+00; -5.9100678E-03;  1.2254703E+03;
  4.9099541E-01;  9.9999998E-03;  1.5999825E-01;5481; -2.4319987E-03;  0.0000000E+00; -1.0172082E-03;  1.0007247E+03;  1.0000201E-01;  6.0037805E+02;3;  1.4275219E+00;  0.0000000E+00;  1.2774116E-01;0;  3.1478547E-02;  4.0065426E+04;  0.0000000E+00; -6.5083660E-02;  4.0000000E+04;  0.0000000E+00;  3.9990926E+04;  3.7240025E-02;  0.0000000E+00; -5.7614772E-03;  1.1772733E+03;
  4.9100158E-01;  9.9999998E-03;  1.6999952E-01;5482; -2.3898764E-03;  0.0000000E+00; -1.0798835E-03;  1.0006561E+03;  1.0000210E-01;  5.4349078E+02;3;  1.4220554E+00;  0.0000000E+00;  1.3129467E-01;0;  3.2782014E-02;  4.0059672E+04;  0.0000000E+00; -5.8739167E-02;  4.0000000E+04;  0.0000000E+00;  3.9991836E+04;  3.8403042E-02;  0.0000000E+00; -5.6210258E-03;  1.0932480E+03;
  4.9100724E-01;  9.9999998E-03;  1.8000241E-01;5483; -2.3345228E-03;  0.0000000E+00; -1.1407447E-03;  1.0005809E+03;  1.0000210E-01;  4.8127029E+02;3;  1.4197340E+00;  0.0000000E+00;  1.3295509E-01;0;  3.4154456E-02;  4.0052277E+04;  0.0000000E+00; -5.4563630E-02;  4.0000000E+04;  0.0000000E+00;  3.9992551E+04;  3.9649319E-02;  0.0000000E+00; -5.4948619E-03;  9.7077594E+02;
  4.9100921E-01;  9.9999998E-03;  1.9000727E-01;5484; -2.2662310E-03;  0.0000000E+00; -1.2003137E-03;  1.0004918E+03;  1.0000215E-01;  4.0739584E+02;3;  1.4196721E+00;  0.0000000E+00;  1.3168101E-01;0;  3.5592631E-02;  4.0044070E+04;  0.0000000E+00; -5.4003049E-02;  4.0000000E+04;  0.0000000E+00;  3.9993801E+04;  4.0980775E-02;  0.0000000E+00; -5.3881425E-03;  8.1625800E+02;
  4.9100459E-01;  9.9999998E-03;  2.0001383E-01;5485; -2.1841300E-03;  0.0000000E+00; -1.2568865E-03;  1.0003934E+03;  1.0000195E-01;  3.2591669E+02;3;  1.4246254E+00;  0.0000000E+00;  1.3320847E-01;0;  3.7085027E-02;  4.0034953E+04;  0.0000000E+00; -5.7789929E-02;  4.0000000E+04;  0.0000000E+00;  3.9995078E+04;  4.2388789E-02;  0.0000000E+00; -5.3037638E-03;  6.5211200E+02;
  4.9099523E-01;  9.9999998E-03;  2.1002205E-01;5486; -2.0878001E-03;  0.0000000E+00; -1.3117042E-03;  1.0002857E+03;  1.0000203E-01;  2.3673402E+02;3;  1.4328140E+00;  0.0000000E+00;  1.3393211E-01;0;  3.8615592E-02;  4.0025492E+04;  0.0000000E+00; -6.5628372E-02;  4.0000000E+04;  0.0000000E+00;  3.9996102E+04;  4.3858591E-02;  0.0000000E+00; -5.2430006E-03;  5.2768896E+02;
  4.9098110E-01;  9.9999998E-03;  2.2002986E-01;5487; -1.9788013E-03;  0.0000000E+00; -1.3730897E-03;  1.0001705E+03;  1.0000205E-01;  1.4123056E+02;3;  1.4457250E+00;  0.0000000E+00;  1.3410029E-01;0;  4.0147346E-02;  4.0015895E+04;  0.0000000E+00; -7.5974666E-02;  4.0000000E+04;  0.0000000E+00;  3.9996133E+04;  4.5366988E-02;  0.0000000E+00; -5.2196416E-03;  4.9399146E+02;
  4.9096254E-01;  9.9999998E-03;  2.3003136E-01;5488; -1.8609131E-03;  0.0000000E+00; -1.4480061E-03;  1.0000508E+03;  1.0000207E-01;  4.2072880E+01;3;  1.4583050E+00;  0.0000000E+00;  1.3304198E-01;0;  4.1609693E-02;  4.0006176E+04;  0.0000000E+00; -8.5904039E-02;  4.0000000E+04;  0.0000000E+00;  3.9996418E+04;  4.6886873E-02;  0.0000000E+00; -5.2771801E-03;  4.5765680E+02;
  5.0107688E-01;  9.9999998E-03;  6.9988079E-02;5533; -1.7436403E-03;  0.0000000E+00; -4.0289154E-04;  1.0009665E+03;  1.0000388E-01;  8.0076740E+02;3;  2.1421077E+00;  0.0000000E+00;  5.4064315E-02;0;  2.3695536E-02;  4.0080727E+04;  0.0000000E+00; -6.6665597E-02;  4.0000000E+04;  0.0000000E+00;  3.9993965E+04;  3.1000974E-02;  0.0000000E+00; -7.3054368E-03;  8.4979712E+02;
  5.0106049E-01;  9.9999998E-03;  7.9987124E-02;5534; -1.7826341E-03;  0.0000000E+00; -4.6986929E-04;  1.0009653E+03;  1.0000373E-01;  7.9977979E+02;3;  2.0867622E+00;  0.0000000E+00;  6.6272780E-02;0;  2.4882201E-02;  4.0080703E+04;  0.0000000E+00; -8.2000658E-02;  4.0000000E+04;  0.0000000E+00;  3.9993105E+04;  3.2105256E-02;  0.0000000E+00; -7.2230552E-03;  9.3276965E+02;
  5.0104409E-01;  9.9999998E-03;  8.9986593E-02;5535; -1.8459500E-03;  0.0000000E+00; -5.3972448E-04;  1.0009573E+03;  1.0000387E-01;  7.9316272E+02;3;  2.0107577E+00;  0.0000000E+00;  8.2382590E-02;0;  2.6131151E-02;  4.0081137E+04;  0.0000000E+00; -9.5600396E-02;  4.0000000E+04;  0.0000000E+00;  3.9992617E+04;  3.3256806E-02;  0.0000000E+00; -7.1256547E-03;  1.0166670E+03;
  5.0102824E-01;  9.9999998E-03;  9.9986553E-02;5536; -1.9287037E-03;  0.0000000E+00; -6.1230845E-04;  1.0009480E+03;  1.0000372E-01;  7.8536047E+02;3;  1.9203395E+00;  0.0000000E+00;  8.9678735E-02;0;  2.7425019E-02;  4.0081312E+04;  0.0000000E+00; -1.0593597E-01;  4.0000000E+04;  0.0000000E+00;  3.9991906E+04;  3.4437981E-02;  0.0000000E+00; -7.0129610E-03;  1.0981350E+03;
  5.0101411E-01;  9.9999998E-03;  1.0998679E-01;5537; -2.0215649E-03;  0.0000000E+00; -6.8606751E-04;  1.0009424E+03;  1.0000384E-01;  7.8071863E+02;3;  1.8229915E+00;  0.0000000E+00;  9.9583052E-02;0;  2.8752506E-02;  4.0081082E+04;  0.0000000E+00; -1.1160864E-01;  4.0000000E+04;  0.0000000E+00;  3.9991340E+04;  3.5637788E-02;  0.0000000E+00; -6.8852822E-03;  1.1730151E+03;
  5.0100285E-01;  9.9999998E-03;  1.1998700E-01;5538; -2.1117101E-03;  0.0000000E+00; -7.6125731E-04;  1.0009246E+03;  1.0000389E-01;  7.6600299E+02;3;  1.7284760E+00;  0.0000000E+00;  1.1384366E-01;0;  3.0109046E-02;  4.0080578E+04;  0.0000000E+00; -1.1158971E-01;  4.0000000E+04;  0.0000000E+00;  3.9990793E+04;  3.6852699E-02;  0.0000000E+00; -6.7436527E-03;  1.2365457E+03;
  5.0099498E-01;  9.9999998E-03;  1.2998705E-01;5539; -2.1868686E-03;  0.0000000E+00; -8.3716807E-04;  1.0009048E+03;  1.0000384E-01;  7.4960840E+02;3;  1.6409980E+00;  0.0000000E+00;  1.2032988E-01;0;  3.1496808E-02;  4.0079195E+04;  0.0000000E+00; -1.0545138E-01;  4.0000000E+04;  0.0000000E+00;  3.9990410E+04;  3.8086955E-02;  0.0000000E+00; -6.5901480E-03;  1.2831006E+03;
  5.0099033E-01;  9.9999998E-03;  1.3998717E-01;5540; -2.2360771E-03;  0.0000000E+00; -9.1259560E-04;  1.0008715E+03;  1.0000389E-01;  7.2205359E+02;3;  1.5705987E+00;  0.0000000E+00;  1.2562492E-01;0;  3.2923810E-02;  4.0076793E+04;  0.0000000E+00; -9.3512349E-02;  4.0000000E+04;  0.0000000E+00;  3.9990184E+04;  3.9352082E-02;  0.0000000E+00; -6.4282706E-03;  1.3063352E+03;
  5.0098878E-01;  9.9999998E-03;  1.4998777E-01;5541; -2.2556428E-03;  0.0000000E+00; -9.8686933E-04;  1.0008269E+03;  1.0000379E-01;  6.8511639E+02;3;  1.5254512E+00;  0.0000000E+00;  1.3043530E-01;0;  3.4402482E-02;  4.0073188E+04;  0.0000000E+00; -7.6935120E-02;  4.0000000E+04;  0.0000000E+00;  3.9990000E+04;  4.0665738E-02;  0.0000000E+00; -6.2632551E-03;  1.2989744E+03;
  5.0098962E-01;  9.9999998E-03;  1.5998939E-01;5542; -2.2470003E-03;  0.0000000E+00; -1.0588458E-03;  1.0007648E+03;  1.0000366E-01;  6.3366107E+02;3;  1.4977856E+00;  0.0000000E+00;  1.2844448E-01;0;  3.5947308E-02;  4.0068340E+04;  0.0000000E+00; -5.7870775E-02;  4.0000000E+04;  0.0000000E+00;  3.9990730E+04;  4.2048972E-02;  0.0000000E+00; -6.1016637E-03;  1.2532755E+03;
  5.0099164E-01;  9.9999998E-03;  1.6999248E-01;5543; -2.2150192E-03;  0.0000000E+00; -1.1284079E-03;  1.0006964E+03;  1.0000373E-01;  5.7697131E+02;3;  1.4829210E+00;  0.0000000E+00;  1.3093458E-01;0;  3.7569962E-02;  4.0061980E+04;  0.0000000E+00; -3.9200235E-02;  4.0000000E+04;  0.0000000E+00;  3.9991086E+04;  4.3520398E-02;  0.0000000E+00; -5.9504355E-03;  1.1627487E+03;
  5.0099289E-01;  9.9999998E-03;  1.7999727E-01;5544; -2.1619413E-03;  0.0000000E+00; -1.1950195E-03;  1.0006121E+03;  1.0000380E-01;  5.0714612E+02;3;  1.4775019E+00;  0.0000000E+00;  1.3493620E-01;0;  3.9275467E-02;  4.0054227E+04;  0.0000000E+00; -2.4024598E-02;  4.0000000E+04;  0.0000000E+00;  3.9992207E+04;  4.5091402E-02;  0.0000000E+00; -5.8159353E-03;  1.0255724E+03;
  5.0099111E-01;  9.9999998E-03;  1.9000362E-01;5545; -2.0878143E-03;  0.0000000E+00; -1.2578260E-03;  1.0005157E+03;  1.0000368E-01;  4.2724713E+02;3;  1.4801863E+00;  0.0000000E+00;  1.3757911E-01;0;  4.1059885E-02;  4.0045004E+04;  0.0000000E+00; -1.4986883E-02;  4.0000000E+04;  0.0000000E+00;  3.9993531E+04;  4.6762746E-02;  0.0000000E+00; -5.7028593E-03;  8.4995551E+02;
  5.0098681E-01;  9.9999998E-03;  2.0001131E-01;5546; -1.9921381E-03;  0.0000000E+00; -1.3156299E-03;  1.0004058E+03;  1.0000372E-01;  3.3618799E+02;3;  1.4904120E+00;  0.0000000E+00;  1.4015563E-01;0;  4.2912178E-02;  4.0034758E+04;  0.0000000E+00; -1.3664207E-02;  4.0000000E+04;  0.0000000E+00;  3.9995152E+04;  4.8524544E-02;  0.0000000E+00; -5.6123673E-03;  6.6068951E+02;
  5.0098002E-01;  9.9999998E-03;  2.1002027E-01;5547; -1.8764006E-03;  0.0000000E+00; -1.3713811E-03;  1.0002836E+03;  1.0000365E-01;  2.3495630E+02;3;  1.5047941E+00;  0.0000000E+00;  1.4031161E-01;0;  4.4813320E-02;  4.0024168E+04;  0.0000000E+00; -2.0227233E-02;  4.0000000E+04;  0.0000000E+00;  3.9996191E+04;  5.0356466E-02;  0.0000000E+00; -5.5431463E-03;  5.0873709E+02;
  5.0097042E-01;  9.9999998E-03;  2.2002856E-01;5548; -1.7483201E-03;  0.0000000E+00; -1.4390434E-03;  1.0001485E+03;  1.0000384E-01;  1.2305824E+02;3;  1.5185333E+00;  0.0000000E+00;  1.3856310E-01;0;  4.6715252E-02;  4.0012898E+04;  0.0000000E+00; -3.3346500E-02;  4.0000000E+04;  0.0000000E+00;  3.9996492E+04;  5.2230183E-02;  0.0000000E+00; -5.5149309E-03;  4.4892456E+02;
  5.0095797E-01;  9.9999998E-03;  2.3003103E-01;5549; -1.6093731E-03;  0.0000000E+00; -1.5303143E-03;  1.0000154E+03;  1.0000373E-01;  1.2740379E+01;3;  1.5348568E+00;  0.0000000E+00;  1.3352735E-01;0;  4.8515968E-02;  4.0001965E+04;  0.0000000E+00; -5.0212514E-02;  4.0000000E+04;  0.0000000E+00;  3.9996926E+04;  5.4112934E-02;  0.0000000E+00; -5.5969656E-03;  4.0973041E+02;
  5.1101118E-01;  9.9999998E-03;  6.9987245E-02;5594; -8.6274778E-04;  0.0000000E+00; -3.9444640E-04;  1.0009768E+03;  1.0000610E-01;  8.0926099E+02;3;  2.8591044E+00;  0.0000000E+00;  3.3480309E-02;0;  2.5003130E-02;  4.0078863E+04;  0.0000000E+00; -9.0535305E-02;  4.0000000E+04;  0.0000000E+00;  3.9994188E+04;  3.2866046E-02;  0.0000000E+00; -7.8629162E-03;  8.0831342E+02;
  5.1100326E-01;  9.9999998E-03;  7.9985224E-02;5595; -8.4548094E-04;  0.0000000E+00; -4.6581708E-04;  1.0009662E+03;  1.0000617E-01;  8.0047113E+02;3;  2.8046453E+00;  0.0000000E+00;  4.2831469E-02;0;  2.6307158E-02;  4.0078562E+04;  0.0000000E+00; -1.0880771E-01;  4.0000000E+04;  0.0000000E+00;  3.9993613E+04;  3.4060370E-02;  0.0000000E+00; -7.7532120E-03;  8.9267651E+02;
  5.1099557E-01;  9.9999998E-03;  8.9983329E-02;5596; -8.6330145E-04;  0.0000000E+00; -5.4155057E-04;  1.0009597E+03;  1.0000612E-01;  7.9513794E+02;3;  2.7219942E+00;  0.0000000E+00;  5.7774171E-02;0;  2.7698399E-02;  4.0078539E+04;  0.0000000E+00; -1.2370352E-01;  4.0000000E+04;  0.0000000E+00;  3.9992738E+04;  3.5325602E-02;  0.0000000E+00; -7.6272027E-03;  9.8412482E+02;
  5.1098794E-01;  9.9999998E-03;  9.9981792E-02;5597; -9.1893523E-04;  0.0000000E+00; -6.2057830E-04;  1.0009486E+03;  1.0000619E-01;  7.8595300E+02;3;  2.6156087E+00;  0.0000000E+00;  6.6924497E-02;0;  2.9160386E-02;  4.0078711E+04;  0.0000000E+00; -1.3333216E-01;  4.0000000E+04;  0.0000000E+00;  3.9992211E+04;  3.6645591E-02;  0.0000000E+00; -7.4852058E-03;  1.0780380E+03;
  5.1098055E-01;  9.9999998E-03;  1.0998078E-01;5598; -1.0089389E-03;  0.0000000E+00; -7.0139399E-04;  1.0009359E+03;  1.0000629E-01;  7.7528668E+02;3;  2.4917936E+00;  0.0000000E+00;  7.8809731E-02;0;  3.0681808E-02;  4.0078547E+04;  0.0000000E+00; -1.3611205E-01;  4.0000000E+04;  0.0000000E+00;  3.9991422E+04;  3.8009882E-02;  0.0000000E+00; -7.3280740E-03;  1.1682354E+03;
  5.1097387E-01;  9.9999998E-03;  1.1998022E-01;5599; -1.1235875E-03;  0.0000000E+00; -7.8266166E-04;  1.0009227E+03;  1.0000619E-01;  7.6442279E+02;3;  2.3570840E+00;  0.0000000E+00;  9.3876347E-02;0;  3.2257784E-02;  4.0078285E+04;  0.0000000E+00; -1.3101336E-01;  4.0000000E+04;  0.0000000E+00;  3.9990906E+04;  3.9415099E-02;  0.0000000E+00; -7.1573146E-03;  1.2472706E+03;
  5.1096845E-01;  9.9999998E-03;  1.2998013E-01;5600; -1.2475663E-03;  0.0000000E+00; -8.6419354E-04;  1.0009022E+03;  1.0000630E-01;  7.4743561E+02;3;  2.2226326E+00;  0.0000000E+00;  1.0799000E-01;0;  3.3889398E-02;  4.0077129E+04;  0.0000000E+00; -1.1778252E-01;  4.0000000E+04;  0.0000000E+00;  3.9990211E+04;  4.0864844E-02;  0.0000000E+00; -6.9754468E-03;  1.3068881E+03;
  5.1096445E-01;  9.9999998E-03;  1.3998063E-01;5601; -1.3636668E-03;  0.0000000E+00; -9.4462617E-04;  1.0008737E+03;  1.0000619E-01;  7.2383130E+02;3;  2.0971594E+00;  0.0000000E+00;  1.1970302E-01;0;  3.5584085E-02;  4.0075051E+04;  0.0000000E+00; -9.7096898E-02;  4.0000000E+04;  0.0000000E+00;  3.9989949E+04;  4.2370509E-02;  0.0000000E+00; -6.7864261E-03;  1.3382960E+03;
  5.1096189E-01;  9.9999998E-03;  1.4998212E-01;5602; -1.4551285E-03;  0.0000000E+00; -1.0237336E-03;  1.0008295E+03;  1.0000607E-01;  6.8728912E+02;3;  1.9896766E+00;  0.0000000E+00;  1.2909915E-01;0;  3.7353683E-02;  4.0071809E+04;  0.0000000E+00; -7.0639148E-02;  4.0000000E+04;  0.0000000E+00;  3.9989992E+04;  4.3949760E-02;  0.0000000E+00; -6.5960763E-03;  1.3326750E+03;
  5.1096052E-01;  9.9999998E-03;  1.5998499E-01;5603; -1.5101952E-03;  0.0000000E+00; -1.1020775E-03;  1.0007706E+03;  1.0000635E-01;  6.3840167E+02;3;  1.9023240E+00;  0.0000000E+00;  1.3457772E-01;0;  3.9212238E-02;  4.0066586E+04;  0.0000000E+00; -4.1341808E-02;  4.0000000E+04;  0.0000000E+00;  3.9990328E+04;  4.5623612E-02;  0.0000000E+00; -6.4113750E-03;  1.2813885E+03;
  5.1095939E-01;  9.9999998E-03;  1.6998948E-01;5604; -1.5229833E-03;  0.0000000E+00; -1.1778728E-03;  1.0006959E+03;  1.0000616E-01;  5.7647748E+02;3;  1.8388902E+00;  0.0000000E+00;  1.3934185E-01;0;  4.1170761E-02;  4.0059984E+04;  0.0000000E+00; -1.3160680E-02;  4.0000000E+04;  0.0000000E+00;  3.9991180E+04;  4.7410224E-02;  0.0000000E+00; -6.2394645E-03;  1.1784436E+03;
  5.1095700E-01;  9.9999998E-03;  1.7999552E-01;5605; -1.4916854E-03;  0.0000000E+00; -1.2498372E-03;  1.0006060E+03;  1.0000625E-01;  5.0210922E+02;3;  1.8008099E+00;  0.0000000E+00;  1.4245287E-01;0;  4.3232616E-02;  4.0051547E+04;  0.0000000E+00;  9.7200638E-03;  4.0000000E+04;  0.0000000E+00;  3.9992164E+04;  4.9319334E-02;  0.0000000E+00; -6.0867197E-03;  1.0238945E+03;
  5.1095307E-01;  9.9999998E-03;  1.9000278E-01;5606; -1.4147270E-03;  0.0000000E+00; -1.3163437E-03;  1.0004979E+03;  1.0000610E-01;  4.1253152E+02;3;  1.7874879E+00;  0.0000000E+00;  1.4599772E-01;0;  4.5391236E-02;  4.0041379E+04;  0.0000000E+00;  2.3821715E-02;  4.0000000E+04;  0.0000000E+00;  3.9993875E+04;  5.1348649E-02;  0.0000000E+00; -5.9574139E-03;  8.2873627E+02;
  5.1094764E-01;  9.9999998E-03;  2.0001087E-01;5607; -1.2905735E-03;  0.0000000E+00; -1.3780833E-03;  1.0003704E+03;  1.0000618E-01;  3.0685550E+02;3;  1.7966919E+00;  0.0000000E+00;  1.4850618E-01;0;  4.7630437E-02;  4.0030027E+04;  0.0000000E+00;  2.7098164E-02;  4.0000000E+04;  0.0000000E+00;  3.9995305E+04;  5.3482722E-02;  0.0000000E+00; -5.8522862E-03;  6.1933716E+02;
  5.1094002E-01;  9.9999998E-03;  2.1001935E-01;5608; -1.1185555E-03;  0.0000000E+00; -1.4394630E-03;  1.0002354E+03;  1.0000617E-01;  1.9505620E+02;3;  1.8272398E+00;  0.0000000E+00;  1.4870088E-01;0;  4.9923632E-02;  4.0017672E+04;  0.0000000E+00;  1.9231325E-02;  4.0000000E+04;  0.0000000E+00;  3.9996699E+04;  5.5694692E-02;  0.0000000E+00; -5.7710605E-03;  4.4152368E+02;
  5.1092982E-01;  9.9999998E-03;  2.2002640E-01;5609; -8.9799147E-04;  0.0000000E+00; -1.5198198E-03;  1.0000837E+03;  1.0000622E-01;  6.9331367E+01;3;  1.8769710E+00;  0.0000000E+00;  1.4253730E-01;0;  5.2202702E-02;  4.0005000E+04;  0.0000000E+00;  1.5742362E-03;  4.0000000E+04;  0.0000000E+00;  3.9997227E+04;  5.7948880E-02;  0.0000000E+00; -5.7461765E-03;  3.3707895E+02;
  5.1091743E-01;  9.9999998E-03;  2.3002844E-01;5610; -6.2443252E-04;  0.0000000E+00; -1.6343205E-03;  9.9993390E+02;  1.0000625E-01; -5.4763878E+01;3;  1.9442507E+00;  0.0000000E+00;  1.3198605E-01;0;  5.4325409E-02;  3.9992355E+04;  0.0000000E+00; -2.3029130E-02;  4.0000000E+04;  0.0000000E+00;  3.9997809E+04;  6.0206212E-02;  0.0000000E+00; -5.8808024E-03;  2.5483636E+02;
  5.2093810E-01;  9.9999998E-03;  6.9990017E-02;5655;  4.7082824E-05;  0.0000000E+00; -3.8340883E-04;  1.0008899E+03;  1.0001037E-01;  7.3726306E+02;3;  3.5897284E+00;  0.0000000E+00;  6.9913201E-02;0;  2.5414791E-02;  4.0067531E+04;  0.0000000E+00; -1.0564713E-01;  4.0000000E+04;  0.0000000E+00;  3.9994273E+04;  3.3930674E-02;  0.0000000E+00; -8.5158823E-03;  7.9618970E+02;
  5.2093571E-01;  9.9999998E-03;  7.9988033E-02;5656;  1.6203498E-04;  0.0000000E+00; -4.5608400E-04;  1.0008807E+03;  1.0001046E-01;  7.2965833E+02;3;  3.5506799E+00;  0.0000000E+00;  7.7426486E-02;0;  2.6739242E-02;  4.0067707E+04;  0.0000000E+00; -1.2451959E-01;  4.0000000E+04;  0.0000000E+00;  3.9993648E+04;  3.5103898E-02;  0.0000000E+00; -8.3646569E-03;  8.7563214E+02;
  5.2093345E-01;  9.9999998E-03;  8.9985974E-02;5657;  2.5033811E-04;  0.0000000E+00; -5.3617964E-04;  1.0008791E+03;  1.0001046E-01;  7.2827563E+02;3;  3.4872313E+00;  0.0000000E+00;  8.3142497E-02;0;  2.8173197E-02;  4.0068230E+04;  0.0000000E+00; -1.3854089E-01;  4.0000000E+04;  0.0000000E+00;  3.9993020E+04;  3.6368873E-02;  0.0000000E+00; -8.1956759E-03;  9.6654956E+02;
  5.2093112E-01;  9.9999998E-03;  9.9984020E-02;5658;  3.0291898E-04;  0.0000000E+00; -6.2265532E-04;  1.0008795E+03;  1.0001040E-01;  7.2857196E+02;3;  3.4003420E+00;  0.0000000E+00;  8.4357128E-02;0;  2.9705092E-02;  4.0068738E+04;  0.0000000E+00; -1.4574918E-01;  4.0000000E+04;  0.0000000E+00;  3.9992238E+04;  3.7715308E-02;  0.0000000E+00; -8.0102170E-03;  1.0633818E+03;
  5.2092838E-01;  9.9999998E-03;  1.0998250E-01;5659;  3.1563686E-04;  0.0000000E+00; -7.1382255E-04;  1.0008749E+03;  1.0001045E-01;  7.2481897E+02;3;  3.2984970E+00;  0.0000000E+00;  8.9865714E-02;0;  3.1327933E-02;  4.0069516E+04;  0.0000000E+00; -1.4464208E-01;  4.0000000E+04;  0.0000000E+00;  3.9991512E+04;  3.9137825E-02;  0.0000000E+00; -7.8098923E-03;  1.1582158E+03;
  5.2092546E-01;  9.9999998E-03;  1.1998162E-01;5660;  2.8914699E-04;  0.0000000E+00; -8.0749125E-04;  1.0008711E+03;  1.0001054E-01;  7.2165857E+02;3;  3.1766913E+00;  0.0000000E+00;  1.0131075E-01;0;  3.3039831E-02;  4.0069996E+04;  0.0000000E+00; -1.3440819E-01;  4.0000000E+04;  0.0000000E+00;  3.9990879E+04;  4.0636659E-02;  0.0000000E+00; -7.5968276E-03;  1.2415280E+03;
  5.2092278E-01;  9.9999998E-03;  1.2998159E-01;5661;  2.3046552E-04;  0.0000000E+00; -9.0063427E-04;  1.0008587E+03;  1.0001041E-01;  7.1138721E+02;3;  3.0434074E+00;  0.0000000E+00;  1.1178394E-01;0;  3.4844577E-02;  4.0069559E+04;  0.0000000E+00; -1.1511759E-01;  4.0000000E+04;  0.0000000E+00;  3.9990387E+04;  4.2218518E-02;  0.0000000E+00; -7.3739402E-03;  1.3028733E+03;
  5.2092052E-01;  9.9999998E-03;  1.3998264E-01;5662;  1.5400875E-04;  0.0000000E+00; -9.9212595E-04;  1.0008351E+03;  1.0001052E-01;  6.9193097E+02;3;  2.9095683E+00;  0.0000000E+00;  1.2055715E-01;0;  3.6750346E-02;  4.0068051E+04;  0.0000000E+00; -8.7840967E-02;  4.0000000E+04;  0.0000000E+00;  3.9989957E+04;  4.3895967E-02;  0.0000000E+00; -7.1456227E-03;  1.3316139E+03;
  5.2091873E-01;  9.9999998E-03;  1.4998497E-01;5663;  7.8770201E-05;  0.0000000E+00; -1.0817120E-03;  1.0007963E+03;  1.0001054E-01;  6.5973438E+02;3;  2.7826495E+00;  0.0000000E+00;  1.2821916E-01;0;  3.8768928E-02;  4.0064996E+04;  0.0000000E+00; -5.4679494E-02;  4.0000000E+04;  0.0000000E+00;  3.9989922E+04;  4.5687038E-02;  0.0000000E+00; -6.9181104E-03;  1.3178126E+03;
  5.2091724E-01;  9.9999998E-03;  1.5998864E-01;5664;  2.2680424E-05;  0.0000000E+00; -1.1679842E-03;  1.0007388E+03;  1.0001034E-01;  6.1203204E+02;3;  2.6697428E+00;  0.0000000E+00;  1.3656235E-01;0;  4.0913466E-02;  4.0059949E+04;  0.0000000E+00; -1.9090779E-02;  4.0000000E+04;  0.0000000E+00;  3.9990457E+04;  4.7612246E-02;  0.0000000E+00; -6.6987793E-03;  1.2532357E+03;
  5.2091527E-01;  9.9999998E-03;  1.6999365E-01;5665;  1.8241709E-06;  0.0000000E+00; -1.2502560E-03;  1.0006612E+03;  1.0001042E-01;  5.4773755E+02;3;  2.5767817E+00;  0.0000000E+00;  1.4116950E-01;0;  4.3192670E-02;  4.0053102E+04;  0.0000000E+00;  1.4255051E-02;  4.0000000E+04;  0.0000000E+00;  3.9991438E+04;  4.9687762E-02;  0.0000000E+00; -6.4950935E-03;  1.1337832E+03;
  5.2091247E-01;  9.9999998E-03;  1.7999984E-01;5666;  2.8924434E-05;  0.0000000E+00; -1.3279078E-03;  1.0005615E+03;  1.0001040E-01;  4.6517200E+02;3;  2.5069823E+00;  0.0000000E+00;  1.4608309E-01;0;  4.5605469E-02;  4.0043965E+04;  0.0000000E+00;  4.0519238E-02;  4.0000000E+04;  0.0000000E+00;  3.9992617E+04;  5.1919300E-02;  0.0000000E+00; -6.3138320E-03;  9.6279742E+02;
  5.2090889E-01;  9.9999998E-03;  1.9000691E-01;5667;  1.1459990E-04;  0.0000000E+00; -1.4007675E-03;  1.0004449E+03;  1.0001057E-01;  3.6858215E+02;3;  2.4644761E+00;  0.0000000E+00;  1.5275836E-01;0;  4.8138641E-02;  4.0032762E+04;  0.0000000E+00;  5.5829205E-02;  4.0000000E+04;  0.0000000E+00;  3.9994320E+04;  5.4298636E-02;  0.0000000E+00; -6.1599938E-03;  7.5479315E+02;
  5.2090442E-01;  9.9999998E-03;  2.0001402E-01;5668;  2.6407969E-04;  0.0000000E+00; -1.4668634E-03;  1.0003077E+03;  1.0001054E-01;  2.5500511E+02;3;  2.4508684E+00;  0.0000000E+00;  1.5543456E-01;0;  5.0768826E-02;  4.0020324E+04;  0.0000000E+00;  5.8008570E-02;  4.0000000E+04;  0.0000000E+00;  3.9995770E+04;  5.6802992E-02;  0.0000000E+00; -6.0341647E-03;  5.3590442E+02;
  5.2089870E-01;  9.9999998E-03;  2.1002050E-01;5669;  4.7600799E-04;  0.0000000E+00; -1.5319246E-03;  1.0001545E+03;  1.0001054E-01;  1.2799637E+02;3;  2.4568403E+00;  0.0000000E+00;  1.5251788E-01;0;  5.3460829E-02;  4.0006723E+04;  0.0000000E+00;  4.6793010E-02;  4.0000000E+04;  0.0000000E+00;  3.9997469E+04;  5.9397265E-02;  0.0000000E+00; -5.9364364E-03;  3.4110242E+02;
  5.2089119E-01;  9.9999998E-03;  2.2002488E-01;5670;  7.3602545E-04;  0.0000000E+00; -1.6125888E-03;  9.9998871E+02;  1.0001040E-01; -9.3330688E+00;3;  2.4791174E+00;  0.0000000E+00;  1.4802535E-01;0;  5.6144189E-02;  3.9992559E+04;  0.0000000E+00;  2.3611035E-02;  4.0000000E+04;  0.0000000E+00;  3.9998336E+04;  6.2038288E-02;  0.0000000E+00; -5.8940998E-03;  1.9187088E+02;
  5.2088147E-01;  9.9999998E-03;  2.3002559E-01;5671;  1.0213036E-03;  0.0000000E+00; -1.7191265E-03;  9.9982690E+02;  1.0001051E-01; -1.4340334E+02;3;  2.5073209E+00;  0.0000000E+00;  1.3916330E-01;0;  5.8694519E-02;  3.9978387E+04;  0.0000000E+00; -8.6091682E-03;  4.0000000E+04;  0.0000000E+00;  3.9999355E+04;  6.4679421E-02;  0.0000000E+00; -5.9849042E-03;  5.9849945E+01;
  5.3087300E-01;  9.9999998E-03;  6.9996692E-02;5716;  6.1900943E-04;  0.0000000E+00; -4.4856218E-04;  1.0007134E+03;  1.0001725E-01;  5.9109436E+02;3;  4.0403104E+00;  0.0000000E+00;  1.4455205E-01;0;  2.5167761E-02;  4.0047238E+04;  0.0000000E+00; -1.0747418E-01;  4.0000000E+04;  0.0000000E+00;  3.9994043E+04;  3.4446590E-02;  0.0000000E+00; -9.2788283E-03;  8.0911505E+02;
  5.3087437E-01;  9.9999998E-03;  7.9995230E-02;5717;  8.0936833E-04;  0.0000000E+00; -5.1820476E-04;  1.0007183E+03;  1.0001741E-01;  5.9514362E+02;3;  4.0476661E+00;  0.0000000E+00;  1.5589941E-01;0;  2.6399821E-02;  4.0048656E+04;  0.0000000E+00; -1.2415361E-01;  4.0000000E+04;  0.0000000E+00;  3.9993523E+04;  3.5473086E-02;  0.0000000E+00; -9.0732649E-03;  8.7766858E+02;
  5.3087550E-01;  9.9999998E-03;  8.9993574E-02;5718;  9.9851529E-04;  0.0000000E+00; -5.9139205E-04;  1.0007301E+03;  1.0001743E-01;  6.0492114E+02;3;  4.0365467E+00;  0.0000000E+00;  1.5935671E-01;0;  2.7756218E-02;  4.0050086E+04;  0.0000000E+00; -1.3504435E-01;  4.0000000E+04;  0.0000000E+00;  3.9992824E+04;  3.6604360E-02;  0.0000000E+00; -8.8481428E-03;  9.6038019E+02;
  5.3087634E-01;  9.9999998E-03;  9.9991858E-02;5719;  1.1781537E-03;  0.0000000E+00; -6.7040260E-04;  1.0007457E+03;  1.0001730E-01;  6.1776025E+02;3;  4.0010777E+00;  0.0000000E+00;  1.5718447E-01;0;  2.9233554E-02;  4.0052031E+04;  0.0000000E+00; -1.3843168E-01;  4.0000000E+04;  0.0000000E+00;  3.9992066E+04;  3.7839629E-02;  0.0000000E+00; -8.6060744E-03;  1.0507294E+03;
  5.3087628E-01;  9.9999998E-03;  1.0999055E-01;5720;  1.3322305E-03;  0.0000000E+00; -7.5700769E-04;  1.0007597E+03;  1.0001743E-01;  6.2941425E+02;3;  3.9272966E+00;  0.0000000E+00;  1.5624446E-01;0;  3.0833282E-02;  4.0054070E+04;  0.0000000E+00; -1.3318834E-01;  4.0000000E+04;  0.0000000E+00;  3.9991461E+04;  3.9182853E-02;  0.0000000E+00; -8.3495723E-03;  1.1396744E+03;
  5.3087533E-01;  9.9999998E-03;  1.1999002E-01;5721;  1.4492515E-03;  0.0000000E+00; -8.4984710E-04;  1.0007686E+03;  1.0001743E-01;  6.3672266E+02;3;  3.8365128E+00;  0.0000000E+00;  1.5261658E-01;0;  3.2561354E-02;  4.0055574E+04;  0.0000000E+00; -1.1892066E-01;  4.0000000E+04;  0.0000000E+00;  3.9990820E+04;  4.0642746E-02;  0.0000000E+00; -8.0813905E-03;  1.2162142E+03;
  5.3087389E-01;  9.9999998E-03;  1.2999049E-01;5722;  1.5294090E-03;  0.0000000E+00; -9.4647409E-04;  1.0007697E+03;  1.0001732E-01;  6.3761157E+02;3;  3.7407086E+00;  0.0000000E+00;  1.4893001E-01;0;  3.4427263E-02;  4.0056133E+04;  0.0000000E+00; -9.6080273E-02;  4.0000000E+04;  0.0000000E+00;  3.9990277E+04;  4.2232227E-02;  0.0000000E+00; -7.8049619E-03;  1.2683790E+03;
  5.3087205E-01;  9.9999998E-03;  1.3999204E-01;5723;  1.5769816E-03;  0.0000000E+00; -1.0442506E-03;  1.0007586E+03;  1.0001726E-01;  6.2852539E+02;3;  3.6314716E+00;  0.0000000E+00;  1.5194300E-01;0;  3.6443561E-02;  4.0055418E+04;  0.0000000E+00; -6.6036031E-02;  4.0000000E+04;  0.0000000E+00;  3.9990125E+04;  4.3968502E-02;  0.0000000E+00; -7.5249411E-03;  1.2843094E+03;
  5.3087002E-01;  9.9999998E-03;  1.4999492E-01;5724;  1.6020279E-03;  0.0000000E+00; -1.1395176E-03;  1.0007311E+03;  1.0001729E-01;  6.0571124E+02;3;  3.5211504E+00;  0.0000000E+00;  1.5088992E-01;0;  3.8624421E-02;  4.0053082E+04;  0.0000000E+00; -3.1046111E-02;  4.0000000E+04;  0.0000000E+00;  3.9990316E+04;  4.5872219E-02;  0.0000000E+00; -7.2477986E-03;  1.2536454E+03;
  5.3086782E-01;  9.9999998E-03;  1.5999915E-01;5725;  1.6194490E-03;  0.0000000E+00; -1.2313629E-03;  1.0006780E+03;  1.0001763E-01;  5.6176184E+02;3;  3.4118476E+00;  0.0000000E+00;  1.5664040E-01;0;  4.0983267E-02;  4.0048457E+04;  0.0000000E+00;  5.3686351E-03;  4.0000000E+04;  0.0000000E+00;  3.9991008E+04;  4.7964294E-02;  0.0000000E+00; -6.9810282E-03;  1.1695980E+03;
  5.3086555E-01;  9.9999998E-03;  1.7000446E-01;5726;  1.6434676E-03;  0.0000000E+00; -1.3171895E-03;  1.0006031E+03;  1.0001736E-01;  4.9973892E+02;3;  3.3058240E+00;  0.0000000E+00;  1.6110027E-01;0;  4.3526821E-02;  4.0041590E+04;  0.0000000E+00;  3.8434044E-02;  4.0000000E+04;  0.0000000E+00;  3.9992059E+04;  5.0258748E-02;  0.0000000E+00; -6.7319283E-03;  1.0316748E+03;
  5.3086317E-01;  9.9999998E-03;  1.8001045E-01;5727;  1.6916769E-03;  0.0000000E+00; -1.3957309E-03;  1.0005032E+03;  1.0001744E-01;  4.1687708E+02;3;  3.2123771E+00;  0.0000000E+00;  1.6576822E-01;0;  4.6249814E-02;  4.0031973E+04;  0.0000000E+00;  6.3233763E-02;  4.0000000E+04;  0.0000000E+00;  3.9993543E+04;  5.2756190E-02;  0.0000000E+00; -6.5063764E-03;  8.4842145E+02;
  5.3086096E-01;  9.9999998E-03;  1.9001664E-01;5728;  1.7791276E-03;  0.0000000E+00; -1.4683170E-03;  1.0003772E+03;  1.0001754E-01;  3.1248495E+02;3;  3.1387455E+00;  0.0000000E+00;  1.6932151E-01;0;  4.9133297E-02;  4.0020418E+04;  0.0000000E+00;  7.5962715E-02;  4.0000000E+04;  0.0000000E+00;  3.9995070E+04;  5.5441022E-02;  0.0000000E+00; -6.3077253E-03;  6.3893414E+02;
  5.3085911E-01;  9.9999998E-03;  2.0002218E-01;5729;  1.9135503E-03;  0.0000000E+00; -1.5349665E-03;  1.0002306E+03;  1.0001753E-01;  1.9100693E+02;3;  3.0840101E+00;  0.0000000E+00;  1.6480346E-01;0;  5.2147049E-02;  4.0007266E+04;  0.0000000E+00;  7.4618354E-02;  4.0000000E+04;  0.0000000E+00;  3.9996848E+04;  5.8281932E-02;  0.0000000E+00; -6.1348830E-03;  4.3054868E+02;
  5.3085774E-01;  9.9999998E-03;  2.1002577E-01;5730;  2.0946048E-03;  0.0000000E+00; -1.6006532E-03;  1.0000648E+03;  1.0001735E-01;  5.3726871E+01;3;  3.0443914E+00;  0.0000000E+00;  1.6151716E-01;0;  5.5249315E-02;  3.9992633E+04;  0.0000000E+00;  5.9109211E-02;  4.0000000E+04;  0.0000000E+00;  3.9998027E+04;  6.1235130E-02;  0.0000000E+00; -5.9858137E-03;  2.4544780E+02;
  5.3085685E-01;  9.9999998E-03;  2.2002615E-01;5731;  2.3090758E-03;  0.0000000E+00; -1.6771386E-03;  9.9988928E+02;  1.0001730E-01; -9.1750488E+01;3;  3.0186741E+00;  0.0000000E+00;  1.5885723E-01;0;  5.8372580E-02;  3.9977543E+04;  0.0000000E+00;  3.0950643E-02;  4.0000000E+04;  0.0000000E+00;  3.9999348E+04;  6.4248726E-02;  0.0000000E+00; -5.8761477E-03;  7.7623161E+01;
  5.3085500E-01;  9.9999998E-03;  2.3002376E-01;5732;  2.5383506E-03;  0.0000000E+00; -1.7695939E-03;  9.9971637E+02;  1.0001736E-01; -2.3500568E+02;3;  2.9996061E+00;  0.0000000E+00;  1.4352718E-01;0;  6.1419949E-02;  3.9962199E+04;  0.0000000E+00; -6.9222567E-03;  4.0000000E+04;  0.0000000E+00;  4.0000602E+04;  6.7268461E-02;  0.0000000E+00; -5.8485116E-03;  1.1795967E+02;
  5.4082525E-01;  9.9999998E-03;  7.0006557E-02;5777;  9.0848113E-04;  0.0000000E+00; -5.8975769E-04;  1.0004969E+03;  1.0002947E-01;  4.1164264E+02;3;  4.1852078E+00;  0.0000000E+00;  1.6118011E-01;0;  2.4698697E-02;  4.0020109E+04;  0.0000000E+00; -9.2545234E-02;  4.0000000E+04;  0.0000000E+00;  3.9993586E+04;  3.4859620E-02;  0.0000000E+00; -1.0160922E-02;  8.3870105E+02;
  5.4082936E-01;  9.9999998E-03;  8.0005981E-02;5778;  1.1165236E-03;  0.0000000E+00; -6.7098427E-04;  1.0005257E+03;  1.0002926E-01;  4.3554321E+02;3;  4.2056427E+00;  0.0000000E+00;  1.7910302E-01;0;  2.5729174E-02;  4.0022652E+04;  0.0000000E+00; -1.0406268E-01;  4.0000000E+04;  0.0000000E+00;  3.9993105E+04;  3.5620745E-02;  0.0000000E+00; -9.8915715E-03;  8.9198755E+02;
  5.4083282E-01;  9.9999998E-03;  9.0005137E-02;5779;  1.3312747E-03;  0.0000000E+00; -7.5091398E-04;  1.0005576E+03;  1.0002936E-01;  4.6191284E+02;3;  4.2185740E+00;  0.0000000E+00;  1.9312616E-01;0;  2.6889879E-02;  4.0025945E+04;  0.0000000E+00; -1.0969185E-01;  4.0000000E+04;  0.0000000E+00;  3.9992660E+04;  3.6490440E-02;  0.0000000E+00; -9.6005602E-03;  9.6036792E+02;
  5.4083556E-01;  9.9999998E-03;  1.0000420E-01;5780;  1.5506034E-03;  0.0000000E+00; -8.2890614E-04;  1.0005927E+03;  1.0002934E-01;  4.9104779E+02;3;  4.2256713E+00;  0.0000000E+00;  2.0379017E-01;0;  2.8187729E-02;  4.0029320E+04;  0.0000000E+00; -1.0831183E-01;  4.0000000E+04;  0.0000000E+00;  3.9992012E+04;  3.7479542E-02;  0.0000000E+00; -9.2918118E-03;  1.0367806E+03;
  5.4083705E-01;  9.9999998E-03;  1.1000348E-01;5781;  1.7738424E-03;  0.0000000E+00; -9.0458110E-04;  1.0006271E+03;  1.0002936E-01;  5.1949146E+02;3;  4.2252216E+00;  0.0000000E+00;  2.1302599E-01;0;  2.9634167E-02;  4.0032953E+04;  0.0000000E+00; -9.9439301E-02;  4.0000000E+04;  0.0000000E+00;  3.9991539E+04;  3.8603049E-02;  0.0000000E+00; -8.9688813E-03;  1.1113344E+03;
  5.4083687E-01;  9.9999998E-03;  1.2000331E-01;5782;  1.9985244E-03;  0.0000000E+00; -9.7774144E-04;  1.0006569E+03;  1.0002952E-01;  5.4418213E+02;3;  4.2107973E+00;  0.0000000E+00;  2.2052857E-01;0;  3.1244949E-02;  4.0036090E+04;  0.0000000E+00; -8.3236672E-02;  4.0000000E+04;  0.0000000E+00;  3.9990941E+04;  3.9880086E-02;  0.0000000E+00; -8.6351363E-03;  1.1721516E+03;
  5.4083526E-01;  9.9999998E-03;  1.3000403E-01;5783;  2.2146034E-03;  0.0000000E+00; -1.0513924E-03;  1.0006766E+03;  1.0002955E-01;  5.6057672E+02;3;  4.1624756E+00;  0.0000000E+00;  2.1435936E-01;0;  3.3038951E-02;  4.0037965E+04;  0.0000000E+00; -6.0520027E-02;  4.0000000E+04;  0.0000000E+00;  3.9990680E+04;  4.1333329E-02;  0.0000000E+00; -8.2943765E-03;  1.2063827E+03;
  5.4083252E-01;  9.9999998E-03;  1.4000587E-01;5784;  2.3893539E-03;  0.0000000E+00; -1.1333242E-03;  1.0006833E+03;  1.0002943E-01;  5.6610742E+02;3;  4.0737357E+00;  0.0000000E+00;  2.0288944E-01;0;  3.5038613E-02;  4.0038445E+04;  0.0000000E+00; -3.2721531E-02;  4.0000000E+04;  0.0000000E+00;  3.9990617E+04;  4.2990010E-02;  0.0000000E+00; -7.9513984E-03;  1.2016938E+03;
  5.4082912E-01;  9.9999998E-03;  1.5000902E-01;5785;  2.5220923E-03;  0.0000000E+00; -1.2189880E-03;  1.0006626E+03;  1.0002962E-01;  5.4892273E+02;3;  3.9934704E+00;  0.0000000E+00;  1.9804633E-01;0;  3.7263848E-02;  4.0036820E+04;  0.0000000E+00; -1.8408756E-03;  4.0000000E+04;  0.0000000E+00;  3.9990953E+04;  4.4876572E-02;  0.0000000E+00; -7.6127253E-03;  1.1481820E+03;
  5.4082543E-01;  9.9999998E-03;  1.6001339E-01;5786;  2.6308238E-03;  0.0000000E+00; -1.3036400E-03;  1.0006232E+03;  1.0002933E-01;  5.1633105E+02;3;  3.9117239E+00;  0.0000000E+00;  1.9713591E-01;0;  3.9729491E-02;  4.0032602E+04;  0.0000000E+00;  2.9136302E-02;  4.0000000E+04;  0.0000000E+00;  3.9991812E+04;  4.7015168E-02;  0.0000000E+00; -7.2856764E-03;  1.0412991E+03;
  5.4082197E-01;  9.9999998E-03;  1.7001861E-01;5787;  2.7255083E-03;  0.0000000E+00; -1.3841793E-03;  1.0005525E+03;  1.0002951E-01;  4.5776480E+02;3;  3.8203893E+00;  0.0000000E+00;  2.0033853E-01;0;  4.2442210E-02;  4.0026059E+04;  0.0000000E+00;  5.6089457E-02;  4.0000000E+04;  0.0000000E+00;  3.9993121E+04;  4.9418911E-02;  0.0000000E+00; -6.9767023E-03;  8.8525287E+02;
  5.4081947E-01;  9.9999998E-03;  1.8002422E-01;5788;  2.8245114E-03;  0.0000000E+00; -1.4581704E-03;  1.0004573E+03;  1.0002954E-01;  3.7885345E+02;3;  3.7351470E+00;  0.0000000E+00;  1.9463815E-01;0;  4.5393962E-02;  4.0016699E+04;  0.0000000E+00;  7.4701197E-02;  4.0000000E+04;  0.0000000E+00;  3.9994719E+04;  5.2083638E-02;  0.0000000E+00; -6.6896756E-03;  6.9483282E+02;
  5.4081887E-01;  9.9999998E-03;  1.9002946E-01;5789;  2.9410911E-03;  0.0000000E+00; -1.5254226E-03;  1.0003307E+03;  1.0002946E-01;  2.7396753E+02;3;  3.6470773E+00;  0.0000000E+00;  1.9550718E-01;0;  4.8562795E-02;  4.0005348E+04;  0.0000000E+00;  8.1660904E-02;  4.0000000E+04;  0.0000000E+00;  3.9996141E+04;  5.4987203E-02;  0.0000000E+00; -6.4244098E-03;  4.9523730E+02;
  5.4082125E-01;  9.9999998E-03;  2.0003322E-01;5790;  3.0827147E-03;  0.0000000E+00; -1.5884360E-03;  1.0001799E+03;  1.0002949E-01;  1.4903281E+02;3;  3.5669110E+00;  0.0000000E+00;  1.9667181E-01;0;  5.1914196E-02;  3.9991898E+04;  0.0000000E+00;  7.5315915E-02;  4.0000000E+04;  0.0000000E+00;  3.9997590E+04;  5.8090396E-02;  0.0000000E+00; -6.1761988E-03;  3.1511166E+02;
  5.4082710E-01;  9.9999998E-03;  2.1003371E-01;5791;  3.2508078E-03;  0.0000000E+00; -1.6525157E-03;  1.0000070E+03;  1.0002949E-01;  5.8269954E+00;3;  3.5015345E+00;  0.0000000E+00;  1.8847056E-01;0;  5.5401690E-02;  3.9977191E+04;  0.0000000E+00;  5.5766493E-02;  4.0000000E+04;  0.0000000E+00;  3.9998559E+04;  6.1341062E-02;  0.0000000E+00; -5.9393719E-03;  1.6408133E+02;
  5.4083627E-01;  9.9999998E-03;  2.2002940E-01;5792;  3.4398485E-03;  0.0000000E+00; -1.7231825E-03;  9.9982715E+02;  1.0002942E-01; -1.4320581E+02;3;  3.4407971E+00;  0.0000000E+00;  1.7747509E-01;0;  5.8962986E-02;  3.9961719E+04;  0.0000000E+00;  2.4603799E-02;  4.0000000E+04;  0.0000000E+00;  3.9999828E+04;  6.4678930E-02;  0.0000000E+00; -5.7159457E-03;  4.2164642E+01;
  5.4084706E-01;  9.9999998E-03;  2.3002289E-01;5793;  3.6554337E-03;  0.0000000E+00; -1.7963391E-03;  9.9965540E+02;  1.0002951E-01; -2.8552277E+02;3;  3.3812330E+00;  0.0000000E+00;  1.6414066E-01;0;  6.2538922E-02;  3.9946250E+04;  0.0000000E+00; -1.5338451E-02;  4.0000000E+04;  0.0000000E+00;  4.0001461E+04;  6.8040267E-02;  0.0000000E+00; -5.5013476E-03;  2.4485577E+02;
  5.5080384E-01;  9.9999998E-03;  7.0016995E-02;5838;  1.0727565E-03;  0.0000000E+00; -7.5293076E-04;  1.0002845E+03;  1.0004856E-01;  2.3564764E+02;3;  4.2381873E+00;  0.0000000E+00;  1.5772618E-01;0;  2.4553746E-02;  3.9987750E+04;  0.0000000E+00; -5.9441395E-02;  4.0000000E+04;  0.0000000E+00;  3.9992895E+04;  3.5718426E-02;  0.0000000E+00; -1.1164681E-02;  8.7527826E+02;
  5.5081046E-01;  9.9999998E-03;  8.0017567E-02;5839;  1.2804149E-03;  0.0000000E+00; -8.4968528E-04;  1.0003365E+03;  1.0004842E-01;  2.7880692E+02;3;  4.2590275E+00;  0.0000000E+00;  1.7598249E-01;0;  2.5290817E-02;  3.9991977E+04;  0.0000000E+00; -6.3041694E-02;  4.0000000E+04;  0.0000000E+00;  3.9992660E+04;  3.6118057E-02;  0.0000000E+00; -1.0827240E-02;  9.1162769E+02;
  5.5081499E-01;  9.9999998E-03;  9.0017766E-02;5840;  1.4940728E-03;  0.0000000E+00; -9.4185834E-04;  1.0003924E+03;  1.0004833E-01;  3.2512659E+02;3;  4.2734032E+00;  0.0000000E+00;  1.9426167E-01;0;  2.6154967E-02;  3.9996996E+04;  0.0000000E+00; -6.1703596E-02;  4.0000000E+04;  0.0000000E+00;  3.9992266E+04;  3.6620643E-02;  0.0000000E+00; -1.0465676E-02;  9.6255359E+02;
  5.5081761E-01;  9.9999998E-03;  1.0001770E-01;5841;  1.7121272E-03;  0.0000000E+00; -1.0287430E-03;  1.0004515E+03;  1.0004845E-01;  3.7411285E+02;3;  4.2825222E+00;  0.0000000E+00;  2.0915897E-01;0;  2.7164992E-02;  4.0002152E+04;  0.0000000E+00; -5.5229399E-02;  4.0000000E+04;  0.0000000E+00;  3.9991863E+04;  3.7250165E-02;  0.0000000E+00; -1.0085173E-02;  1.0205336E+03;
  5.5081820E-01;  9.9999998E-03;  1.1001743E-01;5842;  1.9343476E-03;  0.0000000E+00; -1.1095051E-03;  1.0005112E+03;  1.0004858E-01;  4.2349417E+02;3;  4.2866645E+00;  0.0000000E+00;  2.2393557E-01;0;  2.8344354E-02;  4.0007387E+04;  0.0000000E+00; -4.3972701E-02;  4.0000000E+04;  0.0000000E+00;  3.9991441E+04;  3.8034465E-02;  0.0000000E+00; -9.6901115E-03;  1.0753392E+03;
  5.5081642E-01;  9.9999998E-03;  1.2001752E-01;5843;  2.1612945E-03;  0.0000000E+00; -1.1834762E-03;  1.0005601E+03;  1.0004846E-01;  4.6398685E+02;3;  4.2855473E+00;  0.0000000E+00;  2.3473430E-01;0;  2.9720165E-02;  4.0011883E+04;  0.0000000E+00; -2.8686261E-02;  4.0000000E+04;  0.0000000E+00;  3.9991125E+04;  3.9004542E-02;  0.0000000E+00; -9.2843771E-03;  1.1146270E+03;
  5.5081302E-01;  9.9999998E-03;  1.3001831E-01;5844;  2.3916564E-03;  0.0000000E+00; -1.2500997E-03;  1.0005983E+03;  1.0004845E-01;  4.9568964E+02;3;  4.2746773E+00;  0.0000000E+00;  2.4515516E-01;0;  3.1321526E-02;  4.0015352E+04;  0.0000000E+00; -1.0392316E-02;  4.0000000E+04;  0.0000000E+00;  3.9991148E+04;  4.0193453E-02;  0.0000000E+00; -8.8719269E-03;  1.1254724E+03;
  5.5080801E-01;  9.9999998E-03;  1.4002018E-01;5845;  2.6247099E-03;  0.0000000E+00; -1.3097466E-03;  1.0006254E+03;  1.0004857E-01;  5.1810876E+02;3;  4.2573199E+00;  0.0000000E+00;  2.5186005E-01;0;  3.3177689E-02;  4.0016902E+04;  0.0000000E+00;  9.7600985E-03;  4.0000000E+04;  0.0000000E+00;  3.9991383E+04;  4.1635174E-02;  0.0000000E+00; -8.4574856E-03;  1.0959585E+03;
  5.5080247E-01;  9.9999998E-03;  1.5002328E-01;5846;  2.8534997E-03;  0.0000000E+00; -1.3657003E-03;  1.0006212E+03;  1.0004828E-01;  5.1465210E+02;3;  4.2258515E+00;  0.0000000E+00;  2.5075176E-01;0;  3.5315782E-02;  4.0016375E+04;  0.0000000E+00;  3.0537464E-02;  4.0000000E+04;  0.0000000E+00;  3.9991992E+04;  4.3363106E-02;  0.0000000E+00; -8.0473218E-03;  1.0171412E+03;
  5.5079710E-01;  9.9999998E-03;  1.6002749E-01;5847;  3.0436672E-03;  0.0000000E+00; -1.4294364E-03;  1.0005934E+03;  1.0004862E-01;  4.9164038E+02;3;  4.1574330E+00;  0.0000000E+00;  2.4548966E-01;0;  3.7760053E-02;  4.0013195E+04;  0.0000000E+00;  5.0124008E-02;  4.0000000E+04;  0.0000000E+00;  3.9992910E+04;  4.5408648E-02;  0.0000000E+00; -7.6485942E-03;  8.8754791E+02;
  5.5079287E-01;  9.9999998E-03;  1.7003244E-01;5848;  3.2080237E-03;  0.0000000E+00; -1.4963436E-03;  1.0005346E+03;  1.0004863E-01;  4.4295041E+02;3;  4.0908704E+00;  0.0000000E+00;  2.4311341E-01;0;  4.0517703E-02;  4.0007145E+04;  0.0000000E+00;  6.5794647E-02;  4.0000000E+04;  0.0000000E+00;  3.9994129E+04;  4.7784664E-02;  0.0000000E+00; -7.2669606E-03;  7.1629779E+02;
  5.5079126E-01;  9.9999998E-03;  1.8003756E-01;5849;  3.3716210E-03;  0.0000000E+00; -1.5577569E-03;  1.0004440E+03;  1.0004853E-01;  3.6789081E+02;3;  4.0215106E+00;  0.0000000E+00;  2.4072462E-01;0;  4.3579634E-02;  3.9998609E+04;  0.0000000E+00;  7.4469000E-02;  4.0000000E+04;  0.0000000E+00;  3.9995953E+04;  5.0483651E-02;  0.0000000E+00; -6.9040186E-03;  5.2472656E+02;
  5.5079395E-01;  9.9999998E-03;  1.9004194E-01;5850;  3.5414211E-03;  0.0000000E+00; -1.6157468E-03;  1.0003272E+03;  1.0004846E-01;  2.7110342E+02;3;  3.9448311E+00;  0.0000000E+00;  2.3733142E-01;0;  4.6923149E-02;  3.9987863E+04;  0.0000000E+00;  7.3673636E-02;  4.0000000E+04;  0.0000000E+00;  3.9997203E+04;  5.3479321E-02;  0.0000000E+00; -6.5561710E-03;  3.4418597E+02;
  5.5080235E-01;  9.9999998E-03;  2.0004418E-01;5851;  3.7275990E-03;  0.0000000E+00; -1.6694850E-03;  1.0001767E+03;  1.0004871E-01;  1.4636623E+02;3;  3.8759305E+00;  0.0000000E+00;  2.3610425E-01;0;  5.0513782E-02;  3.9974871E+04;  0.0000000E+00;  6.2170878E-02;  4.0000000E+04;  0.0000000E+00;  3.9998301E+04;  5.6726940E-02;  0.0000000E+00; -6.2131598E-03;  2.0480580E+02;
  5.5081797E-01;  9.9999998E-03;  2.1004169E-01;5852;  3.9314949E-03;  0.0000000E+00; -1.7258049E-03;  1.0000099E+03;  1.0004868E-01;  8.1972980E+00;3;  3.8036373E+00;  0.0000000E+00;  2.2915858E-01;0;  5.4303482E-02;  3.9960707E+04;  0.0000000E+00;  4.0201113E-02;  4.0000000E+04;  0.0000000E+00;  3.9999105E+04;  6.0167797E-02;  0.0000000E+00; -5.8643138E-03;  1.0081659E+02;
  5.5084008E-01;  9.9999998E-03;  2.2003295E-01;5853;  4.1569714E-03;  0.0000000E+00; -1.7858996E-03;  9.9983368E+02;  1.0004873E-01; -1.3777386E+02;3;  3.7320981E+00;  0.0000000E+00;  2.2197363E-01;0;  5.8234684E-02;  3.9945941E+04;  0.0000000E+00;  9.2851734E-03;  4.0000000E+04;  0.0000000E+00;  4.0000133E+04;  6.3733242E-02;  0.0000000E+00; -5.4985578E-03;  5.9065113E+01;
  5.5086666E-01;  9.9999998E-03;  2.3002242E-01;5854;  4.4291727E-03;  0.0000000E+00; -1.8344403E-03;  9.9966803E+02;  1.0004845E-01; -2.7505392E+02;3;  3.6655195E+00;  0.0000000E+00;  2.0655060E-01;0;  6.2291350E-02;  3.9930941E+04;  0.0000000E+00; -2.8204154E-02;  4.0000000E+04;  0.0000000E+00;  4.0001762E+04;  6.7349486E-02;  0.0000000E+00; -5.0581358E-03;  3.0131357E+02;
  5.6082541E-01;  9.9999998E-03;  7.0022650E-02;5899;  1.1802118E-03;  0.0000000E+00; -9.1970735E-04;  1.0001280E+03;  1.0007960E-01;  1.0607107E+02;3;  4.2583404E+00;  0.0000000E+00;  1.5595394E-01;0;  2.5287725E-02;  3.9950359E+04;  0.0000000E+00; -9.8987296E-03;  4.0000000E+04;  0.0000000E+00;  3.9992281E+04;  3.7574124E-02;  0.0000000E+00; -1.2286398E-02;  9.0936023E+02;
  5.6083232E-01;  9.9999998E-03;  8.0024101E-02;5900;  1.3811791E-03;  0.0000000E+00; -1.0315115E-03;  1.0002009E+03;  1.0007960E-01;  1.6651379E+02;3;  4.2768846E+00;  0.0000000E+00;  1.7621548E-01;0;  2.5667783E-02;  3.9956309E+04;  0.0000000E+00; -3.5982511E-03;  4.0000000E+04;  0.0000000E+00;  3.9992148E+04;  3.7550226E-02;  0.0000000E+00; -1.1882442E-02;  9.3046149E+02;
  5.6083548E-01;  9.9999998E-03;  9.0025157E-02;5901;  1.5871471E-03;  0.0000000E+00; -1.1365052E-03;  1.0002779E+03;  1.0007951E-01;  2.3021570E+02;3;  4.2916508E+00;  0.0000000E+00;  1.9359997E-01;0;  2.6163109E-02;  3.9962703E+04;  0.0000000E+00;  5.5467715E-03;  4.0000000E+04;  0.0000000E+00;  3.9991895E+04;  3.7614841E-02;  0.0000000E+00; -1.1451731E-02;  9.6435162E+02;
  5.6083512E-01;  9.9999998E-03;  1.0002587E-01;5902;  1.7964445E-03;  0.0000000E+00; -1.2335859E-03;  1.0003553E+03;  1.0007958E-01;  2.9431265E+02;3;  4.3023958E+00;  0.0000000E+00;  2.1096469E-01;0;  2.6804879E-02;  3.9969391E+04;  0.0000000E+00;  1.6615577E-02;  4.0000000E+04;  0.0000000E+00;  3.9991691E+04;  3.7805248E-02;  0.0000000E+00; -1.1000370E-02;  1.0033055E+03;
  5.6083161E-01;  9.9999998E-03;  1.1002627E-01;5903;  2.0091941E-03;  0.0000000E+00; -1.3216492E-03;  1.0004333E+03;  1.0007960E-01;  3.5900217E+02;3;  4.3047490E+00;  0.0000000E+00;  2.2694507E-01;0;  2.7628589E-02;  3.9975926E+04;  0.0000000E+00;  2.8361659E-02;  4.0000000E+04;  0.0000000E+00;  3.9991277E+04;  3.8161870E-02;  0.0000000E+00; -1.0533281E-02;  1.0367292E+03;
  5.6082559E-01;  9.9999998E-03;  1.2002670E-01;5904;  2.2245841E-03;  0.0000000E+00; -1.3997554E-03;  1.0005049E+03;  1.0007966E-01;  4.1835852E+02;3;  4.3008213E+00;  0.0000000E+00;  2.4259514E-01;0;  2.8673403E-02;  3.9981613E+04;  0.0000000E+00;  3.9543495E-02;  4.0000000E+04;  0.0000000E+00;  3.9991391E+04;  3.8727921E-02;  0.0000000E+00; -1.0054517E-02;  1.0526022E+03;
  5.6081760E-01;  9.9999998E-03;  1.3002758E-01;5905;  2.4454955E-03;  0.0000000E+00; -1.4676929E-03;  1.0005626E+03;  1.0007964E-01;  4.6615961E+02;3;  4.2928591E+00;  0.0000000E+00;  2.5563768E-01;0;  2.9978573E-02;  3.9986074E+04;  0.0000000E+00;  4.9223788E-02;  4.0000000E+04;  0.0000000E+00;  3.9991750E+04;  3.9546356E-02;  0.0000000E+00; -9.5677832E-03;  1.0384613E+03;
  5.6080818E-01;  9.9999998E-03;  1.4002948E-01;5906;  2.6697759E-03;  0.0000000E+00; -1.5259014E-03;  1.0005996E+03;  1.0007980E-01;  4.9677603E+02;3;  4.2800879E+00;  0.0000000E+00;  2.6780298E-01;0;  3.1583030E-02;  3.9988668E+04;  0.0000000E+00;  5.6981839E-02;  4.0000000E+04;  0.0000000E+00;  3.9991879E+04;  4.0660314E-02;  0.0000000E+00; -9.0772845E-03;  9.8349451E+02;
  5.6079865E-01;  9.9999998E-03;  1.5003264E-01;5907;  2.9000356E-03;  0.0000000E+00; -1.5760318E-03;  1.0006111E+03;  1.0007989E-01;  5.0635602E+02;3;  4.2600775E+00;  0.0000000E+00;  2.7522716E-01;0;  3.3520136E-02;  3.9989109E+04;  0.0000000E+00;  6.2864020E-02;  4.0000000E+04;  0.0000000E+00;  3.9992859E+04;  4.2108834E-02;  0.0000000E+00; -8.5886978E-03;  8.8080939E+02;
  5.6079102E-01;  9.9999998E-03;  1.6003697E-01;5908;  3.1375913E-03;  0.0000000E+00; -1.6209745E-03;  1.0005988E+03;  1.0007964E-01;  4.9608469E+02;3;  4.2366166E+00;  0.0000000E+00;  2.8130588E-01;0;  3.5814639E-02;  3.9986781E+04;  0.0000000E+00;  6.6741005E-02;  4.0000000E+04;  0.0000000E+00;  3.9994105E+04;  4.3923799E-02;  0.0000000E+00; -8.1091607E-03;  7.3205261E+02;
  5.6078774E-01;  9.9999998E-03;  1.7004186E-01;5909;  3.3667705E-03;  0.0000000E+00; -1.6683921E-03;  1.0005540E+03;  1.0007987E-01;  4.5894995E+02;3;  4.1879411E+00;  0.0000000E+00;  2.8202614E-01;0;  3.8479615E-02;  3.9981996E+04;  0.0000000E+00;  6.7778736E-02;  4.0000000E+04;  0.0000000E+00;  3.9995418E+04;  4.6123590E-02;  0.0000000E+00; -7.6439767E-03;  5.5097162E+02;
  5.6079006E-01;  9.9999998E-03;  1.8004665E-01;5910;  3.5819425E-03;  0.0000000E+00; -1.7185006E-03;  1.0004816E+03;  1.0007997E-01;  3.9900104E+02;3;  4.1351180E+00;  0.0000000E+00;  2.8319454E-01;0;  4.1511267E-02;  3.9974738E+04;  0.0000000E+00;  6.4595610E-02;  4.0000000E+04;  0.0000000E+00;  3.9996922E+04;  4.8704863E-02;  0.0000000E+00; -7.1935938E-03;  3.6425046E+02;
  5.6079978E-01;  9.9999998E-03;  1.9005042E-01;5911;  3.8019696E-03;  0.0000000E+00; -1.7667105E-03;  1.0003746E+03;  1.0007988E-01;  3.1041095E+02;3;  4.0816498E+00;  0.0000000E+00;  2.8518164E-01;0;  4.4886999E-02;  3.9965094E+04;  0.0000000E+00;  5.5792809E-02;  4.0000000E+04;  0.0000000E+00;  3.9998172E+04;  5.1638830E-02;  0.0000000E+00; -6.7518335E-03;  2.0833145E+02;
  5.6081778E-01;  9.9999998E-03;  2.0005141E-01;5912;  4.0452690E-03;  0.0000000E+00; -1.8088712E-03;  1.0002401E+03;  1.0007979E-01;  1.9890794E+02;3;  4.0246663E+00;  0.0000000E+00;  2.8594106E-01;0;  4.8573744E-02;  3.9953680E+04;  0.0000000E+00;  4.0549628E-02;  4.0000000E+04;  0.0000000E+00;  3.9998879E+04;  5.4877210E-02;  0.0000000E+00; -6.3034664E-03;  1.1259605E+02;
  5.6084549E-01;  9.9999998E-03;  2.1004660E-01;5913;  4.3134564E-03;  0.0000000E+00; -1.8514333E-03;  1.0000848E+03;  1.0007975E-01;  7.0220230E+01;3;  3.9696746E+00;  0.0000000E+00;  2.8337666E-01;0;  5.2526914E-02;  3.9940984E+04;  0.0000000E+00;  1.9046796E-02;  4.0000000E+04;  0.0000000E+00;  3.9999164E+04;  5.8357306E-02;  0.0000000E+00; -5.8303908E-03;  5.9062595E+01;
  5.6088221E-01;  9.9999998E-03;  2.2003460E-01;5914;  4.6171644E-03;  0.0000000E+00; -1.8942211E-03;  9.9991840E+02;  1.0008001E-01; -6.7603020E+01;3;  3.9173865E+00;  0.0000000E+00;  2.7713749E-01;0;  5.6696676E-02;  3.9927484E+04;  0.0000000E+00; -7.8623360E-03;  4.0000000E+04;  0.0000000E+00;  3.9999883E+04;  6.2004000E-02;  0.0000000E+00; -5.3073252E-03;  4.9540421E+01;
  5.6092471E-01;  9.9999998E-03;  2.3002151E-01;5915;  4.9934643E-03;  0.0000000E+00; -1.9159458E-03;  9.9976550E+02;  1.0007983E-01; -1.9426610E+02;3;  3.8710210E+00;  0.0000000E+00;  2.6723698E-01;0;  6.1096895E-02;  3.9913676E+04;  0.0000000E+00; -3.9335910E-02;  4.0000000E+04;  0.0000000E+00;  4.0001363E+04;  6.5733895E-02;  0.0000000E+00; -4.6369992E-03;  2.7879141E+02;
  5.7090974E-01;  9.9999998E-03;  7.0019178E-02;5960;  1.2627442E-03;  0.0000000E+00; -1.0815493E-03;  1.0000565E+03;  1.0013084E-01;  4.6813488E+01;3;  4.2722850E+00;  0.0000000E+00;  1.5332872E-01;0;  2.7387846E-02;  3.9904309E+04;  0.0000000E+00;  4.9938362E-02;  4.0000000E+04;  0.0000000E+00;  3.9991664E+04;  4.0904183E-02;  0.0000000E+00; -1.3516336E-02;  9.3210181E+02;
  5.7091117E-01;  9.9999998E-03;  8.0021173E-02;5961;  1.4533799E-03;  0.0000000E+00; -1.2083763E-03;  1.0001429E+03;  1.0013099E-01;  1.1841640E+02;3;  4.2866368E+00;  0.0000000E+00;  1.7411347E-01;0;  2.7380131E-02;  3.9910875E+04;  0.0000000E+00;  6.6580907E-02;  4.0000000E+04;  0.0000000E+00;  3.9991812E+04;  4.0433336E-02;  0.0000000E+00; -1.3053206E-02;  9.4243622E+02;
  5.7090819E-01;  9.9999998E-03;  9.0022907E-02;5962;  1.6484506E-03;  0.0000000E+00; -1.3261735E-03;  1.0002316E+03;  1.0013097E-01;  1.9189580E+02;3;  4.3000793E+00;  0.0000000E+00;  1.9429933E-01;0;  2.7469052E-02;  3.9918059E+04;  0.0000000E+00;  8.3011262E-02;  4.0000000E+04;  0.0000000E+00;  3.9991512E+04;  4.0029865E-02;  0.0000000E+00; -1.2560813E-02;  9.6325110E+02;
  5.7090056E-01;  9.9999998E-03;  1.0002434E-01;5963;  1.8466164E-03;  0.0000000E+00; -1.4339832E-03;  1.0003196E+03;  1.0013086E-01;  2.6478262E+02;3;  4.3077855E+00;  0.0000000E+00;  2.1300876E-01;0;  2.7696688E-02;  3.9925488E+04;  0.0000000E+00;  9.7161822E-02;  4.0000000E+04;  0.0000000E+00;  3.9991520E+04;  3.9742284E-02;  0.0000000E+00; -1.2045596E-02;  9.8612927E+02;
  5.7088846E-01;  9.9999998E-03;  1.1002558E-01;5964;  2.0472126E-03;  0.0000000E+00; -1.5304408E-03;  1.0004092E+03;  1.0013118E-01;  3.3895334E+02;3;  4.3117318E+00;  0.0000000E+00;  2.3187664E-01;0;  2.8110098E-02;  3.9932762E+04;  0.0000000E+00;  1.0701562E-01;  4.0000000E+04;  0.0000000E+00;  3.9991430E+04;  3.9622549E-02;  0.0000000E+00; -1.1512451E-02;  1.0006426E+03;
  5.7087332E-01;  9.9999998E-03;  1.2002667E-01;5965;  2.2503729E-03;  0.0000000E+00; -1.6149927E-03;  1.0004895E+03;  1.0013115E-01;  4.0551938E+02;3;  4.3087258E+00;  0.0000000E+00;  2.4884911E-01;0;  2.8758867E-02;  3.9939137E+04;  0.0000000E+00;  1.1113376E-01;  4.0000000E+04;  0.0000000E+00;  3.9991449E+04;  3.9724033E-02;  0.0000000E+00; -1.0965167E-02;  9.9511578E+02;
  5.7085669E-01;  9.9999998E-03;  1.3002791E-01;5966;  2.4608714E-03;  0.0000000E+00; -1.6877406E-03;  1.0005559E+03;  1.0013101E-01;  4.6053015E+02;3;  4.3011088E+00;  0.0000000E+00;  2.6572648E-01;0;  2.9691523E-02;  3.9944281E+04;  0.0000000E+00;  1.0905406E-01;  4.0000000E+04;  0.0000000E+00;  3.9991848E+04;  4.0098302E-02;  0.0000000E+00; -1.0406779E-02;  9.5847015E+02;
  5.7084042E-01;  9.9999998E-03;  1.4002998E-01;5967;  2.6782595E-03;  0.0000000E+00; -1.7494521E-03;  1.0006080E+03;  1.0013114E-01;  5.0378818E+02;3;  4.2863531E+00;  0.0000000E+00;  2.7975866E-01;0;  3.0954838E-02;  3.9947441E+04;  0.0000000E+00;  1.0151831E-01;  4.0000000E+04;  0.0000000E+00;  3.9992531E+04;  4.0795334E-02;  0.0000000E+00; -9.8404950E-03;  8.8159326E+02;
  5.7082736E-01;  9.9999998E-03;  1.5003318E-01;5968;  2.9071211E-03;  0.0000000E+00; -1.8009898E-03;  1.0006373E+03;  1.0013122E-01;  5.2798505E+02;3;  4.2701778E+00;  0.0000000E+00;  2.9484102E-01;0;  3.2588128E-02;  3.9948613E+04;  0.0000000E+00;  9.0194792E-02;  4.0000000E+04;  0.0000000E+00;  3.9993539E+04;  4.1858952E-02;  0.0000000E+00; -9.2708236E-03;  7.6021667E+02;
  5.7081932E-01;  9.9999998E-03;  1.6003747E-01;5969;  3.1477967E-03;  0.0000000E+00; -1.8462413E-03;  1.0006360E+03;  1.0013103E-01;  5.2699738E+02;3;  4.2470627E+00;  0.0000000E+00;  3.0294663E-01;0;  3.4620017E-02;  3.9947543E+04;  0.0000000E+00;  7.6851211E-02;  4.0000000E+04;  0.0000000E+00;  3.9994914E+04;  4.3324664E-02;  0.0000000E+00; -8.7046465E-03;  5.9886993E+02;
  5.7081848E-01;  9.9999998E-03;  1.7004232E-01;5970;  3.3995751E-03;  0.0000000E+00; -1.8878879E-03;  1.0006115E+03;  1.0013123E-01;  5.0655353E+02;3;  4.2179556E+00;  0.0000000E+00;  3.1139159E-01;0;  3.7064306E-02;  3.9944160E+04;  0.0000000E+00;  6.2732525E-02;  4.0000000E+04;  0.0000000E+00;  3.9996227E+04;  4.5211770E-02;  0.0000000E+00; -8.1474632E-03;  4.1441266E+02;
  5.7082689E-01;  9.9999998E-03;  1.8004683E-01;5971;  3.6523680E-03;  0.0000000E+00; -1.9308183E-03;  1.0005519E+03;  1.0013138E-01;  4.5727100E+02;3;  4.1753287E+00;  0.0000000E+00;  3.1321433E-01;0;  3.9921429E-02;  3.9938363E+04;  0.0000000E+00;  4.8302304E-02;  4.0000000E+04;  0.0000000E+00;  3.9997586E+04;  4.7520760E-02;  0.0000000E+00; -7.5993305E-03;  2.3643942E+02;
  5.7084543E-01;  9.9999998E-03;  1.9005004E-01;5972;  3.9116349E-03;  0.0000000E+00; -1.9739224E-03;  1.0004672E+03;  1.0013139E-01;  3.8705075E+02;3;  4.1364751E+00;  0.0000000E+00;  3.1905431E-01;0;  4.3173958E-02;  3.9930465E+04;  0.0000000E+00;  3.3289667E-02;  4.0000000E+04;  0.0000000E+00;  3.9998742E+04;  5.0227456E-02;  0.0000000E+00; -7.0534986E-03;  1.0295083E+02;
  5.7087529E-01;  9.9999998E-03;  2.0005012E-01;5973;  4.2041731E-03;  0.0000000E+00; -2.0094470E-03;  1.0003486E+03;  1.0013146E-01;  2.8878192E+02;3;  4.1015339E+00;  0.0000000E+00;  3.2229748E-01;0;  4.6789233E-02;  3.9920770E+04;  0.0000000E+00;  1.7160604E-02;  4.0000000E+04;  0.0000000E+00;  3.9999117E+04;  5.3282030E-02;  0.0000000E+00; -6.4927987E-03;  4.0553478E+01;
  5.7091647E-01;  9.9999998E-03;  2.1004404E-01;5974;  4.5428569E-03;  0.0000000E+00; -2.0398339E-03;  1.0002084E+03;  1.0013153E-01;  1.7263708E+02;3;  4.0699081E+00;  0.0000000E+00;  3.2366320E-01;0;  5.0727323E-02;  3.9909754E+04;  0.0000000E+00; -4.8474339E-04;  4.0000000E+04;  0.0000000E+00;  3.9998930E+04;  5.6619510E-02;  0.0000000E+00; -5.8921878E-03;  2.8839716E+01;
  5.7096744E-01;  9.9999998E-03;  2.2003092E-01;5975;  4.9483925E-03;  0.0000000E+00; -2.0604809E-03;  1.0000651E+03;  1.0013144E-01;  5.3924397E+01;3;  4.0498176E+00;  0.0000000E+00;  3.2419798E-01;0;  5.4954495E-02;  3.9897914E+04;  0.0000000E+00; -2.0475445E-02;  4.0000000E+04;  0.0000000E+00;  3.9999473E+04;  6.0160495E-02;  0.0000000E+00; -5.2059991E-03;  4.6793900E+01;
  5.7102400E-01;  9.9999998E-03;  2.3001820E-01;5976;  5.4639499E-03;  0.0000000E+00; -2.0483027E-03;  9.9992792E+02;  1.0013144E-01; -5.9702011E+01;3;  4.0509052E+00;  0.0000000E+00;  3.1970459E-01;0;  5.9521124E-02;  3.9886082E+04;  0.0000000E+00; -4.5363057E-02;  4.0000000E+04;  0.0000000E+00;  4.0000719E+04;  6.3815199E-02;  0.0000000E+00; -4.2940760E-03;  2.2089188E+02;
  5.8103698E-01;  9.9999998E-03;  7.0010141E-02;6021;  1.3417024E-03;  0.0000000E+00; -1.2343943E-03;  1.0000443E+03;  1.0021388E-01;  3.6640938E+01;3;  4.2825694E+00;  0.0000000E+00;  1.5091346E-01;0;  3.1194631E-02;  3.9838492E+04;  0.0000000E+00;  1.0924674E-01;  4.0000000E+04;  0.0000000E+00;  3.9991102E+04;  4.6028350E-02;  0.0000000E+00; -1.4833718E-02;  9.3458215E+02;
  5.8102757E-01;  9.9999998E-03;  8.0012783E-02;6022;  1.5190943E-03;  0.0000000E+00; -1.3759679E-03;  1.0001270E+03;  1.0021397E-01;  1.0518221E+02;3;  4.2999191E+00;  0.0000000E+00;  1.7213544E-01;0;  3.0806018E-02;  3.9844871E+04;  0.0000000E+00;  1.3449195E-01;  4.0000000E+04;  0.0000000E+00;  3.9991410E+04;  4.5130625E-02;  0.0000000E+00; -1.4324607E-02;  9.3964203E+02;
  5.8101052E-01;  9.9999998E-03;  9.0015702E-02;6023;  1.6979048E-03;  0.0000000E+00; -1.5071426E-03;  1.0002179E+03;  1.0021431E-01;  1.8053809E+02;3;  4.3074293E+00;  0.0000000E+00;  1.9351383E-01;0;  3.0489584E-02;  3.9852027E+04;  0.0000000E+00;  1.5592916E-01;  4.0000000E+04;  0.0000000E+00;  3.9991312E+04;  4.4272862E-02;  0.0000000E+00; -1.3783278E-02;  9.5282263E+02;
  5.8098739E-01;  9.9999998E-03;  1.0001854E-01;6024;  1.8808313E-03;  0.0000000E+00; -1.6259176E-03;  1.0003070E+03;  1.0021400E-01;  2.5431378E+02;3;  4.3123646E+00;  0.0000000E+00;  2.1616857E-01;0;  3.0296411E-02;  3.9859082E+04;  0.0000000E+00;  1.7058741E-01;  4.0000000E+04;  0.0000000E+00;  3.9991320E+04;  4.3512791E-02;  0.0000000E+00; -1.3216381E-02;  9.6525964E+02;
  5.8096117E-01;  9.9999998E-03;  1.1002100E-01;6025;  2.0648607E-03;  0.0000000E+00; -1.7325419E-03;  1.0003943E+03;  1.0021417E-01;  3.2670679E+02;3;  4.3128047E+00;  0.0000000E+00;  2.3776233E-01;0;  3.0284032E-02;  3.9866039E+04;  0.0000000E+00;  1.7607220E-01;  4.0000000E+04;  0.0000000E+00;  3.9991344E+04;  4.2912669E-02;  0.0000000E+00; -1.2628637E-02;  9.6670612E+02;
  5.8093476E-01;  9.9999998E-03;  1.2002308E-01;6026;  2.2583448E-03;  0.0000000E+00; -1.8264281E-03;  1.0004733E+03;  1.0021426E-01;  3.9208765E+02;3;  4.3099346E+00;  0.0000000E+00;  2.5654331E-01;0;  3.0508641E-02;  3.9872082E+04;  0.0000000E+00;  1.7115670E-01;  4.0000000E+04;  0.0000000E+00;  3.9991406E+04;  4.2531621E-02;  0.0000000E+00; -1.2022979E-02;  9.4628632E+02;
  5.8091015E-01;  9.9999998E-03;  1.3002503E-01;6027;  2.4589475E-03;  0.0000000E+00; -1.9073565E-03;  1.0005438E+03;  1.0021437E-01;  4.5055511E+02;3;  4.3011808E+00;  0.0000000E+00;  2.7491280E-01;0;  3.1027431E-02;  3.9877152E+04;  0.0000000E+00;  1.5623714E-01;  4.0000000E+04;  0.0000000E+00;  3.9992090E+04;  4.2428624E-02;  0.0000000E+00; -1.1401193E-02;  8.9430139E+02;
  5.8089000E-01;  9.9999998E-03;  1.4002723E-01;6028;  2.6712415E-03;  0.0000000E+00; -1.9760539E-03;  1.0005981E+03;  1.0021447E-01;  4.9549213E+02;3;  4.2879586E+00;  0.0000000E+00;  2.9317698E-01;0;  3.1891912E-02;  3.9880648E+04;  0.0000000E+00;  1.3341103E-01;  4.0000000E+04;  0.0000000E+00;  3.9992707E+04;  4.2656656E-02;  0.0000000E+00; -1.0764744E-02;  8.0379663E+02;
  5.8087587E-01;  9.9999998E-03;  1.5003012E-01;6029;  2.8962044E-03;  0.0000000E+00; -2.0350057E-03;  1.0006343E+03;  1.0021443E-01;  5.2551599E+02;3;  4.2708902E+00;  0.0000000E+00;  3.0828875E-01;0;  3.3146162E-02;  3.9882520E+04;  0.0000000E+00;  1.0596401E-01;  4.0000000E+04;  0.0000000E+00;  3.9993848E+04;  4.3262497E-02;  0.0000000E+00; -1.0116334E-02;  6.7297107E+02;
  5.8086973E-01;  9.9999998E-03;  1.6003379E-01;6030;  3.1373566E-03;  0.0000000E+00; -2.0863812E-03;  1.0006485E+03;  1.0021445E-01;  5.3726874E+02;3;  4.2504148E+00;  0.0000000E+00;  3.2069388E-01;0;  3.4820970E-02;  3.9882234E+04;  0.0000000E+00;  7.7447362E-02;  4.0000000E+04;  0.0000000E+00;  3.9995027E+04;  4.4283085E-02;  0.0000000E+00; -9.4621144E-03;  5.0915286E+02;
  5.8087361E-01;  9.9999998E-03;  1.7003769E-01;6031;  3.3945891E-03;  0.0000000E+00; -2.1328896E-03;  1.0006367E+03;  1.0021455E-01;  5.2749121E+02;3;  4.2260604E+00;  0.0000000E+00;  3.3163804E-01;0;  3.6932264E-02;  3.9880012E+04;  0.0000000E+00;  5.0967433E-02;  4.0000000E+04;  0.0000000E+00;  3.9996434E+04;  4.5740329E-02;  0.0000000E+00; -8.8080661E-03;  3.3098801E+02;
  5.8088893E-01;  9.9999998E-03;  1.8004102E-01;6032;  3.6683069E-03;  0.0000000E+00; -2.1781644E-03;  1.0005991E+03;  1.0021462E-01;  4.9638098E+02;3;  4.1946549E+00;  0.0000000E+00;  3.3711573E-01;0;  3.9482318E-02;  3.9875680E+04;  0.0000000E+00;  2.8525496E-02;  4.0000000E+04;  0.0000000E+00;  3.9997617E+04;  4.7637291E-02;  0.0000000E+00; -8.1549725E-03;  1.6794077E+02;
  5.8091694E-01;  9.9999998E-03;  1.9004282E-01;6033;  3.9586830E-03;  0.0000000E+00; -2.2243359E-03;  1.0005301E+03;  1.0021471E-01;  4.3919742E+02;3;  4.1640477E+00;  0.0000000E+00;  3.4069350E-01;0;  4.2457398E-02;  3.9869488E+04;  0.0000000E+00;  1.0677222E-02;  4.0000000E+04;  0.0000000E+00;  3.9998551E+04;  4.9954765E-02;  0.0000000E+00; -7.4973665E-03;  5.4740173E+01;
  5.8095777E-01;  9.9999998E-03;  2.0004129E-01;6034;  4.2929421E-03;  0.0000000E+00; -2.2644878E-03;  1.0004340E+03;  1.0021479E-01;  3.5959473E+02;3;  4.1435709E+00;  0.0000000E+00;  3.4790742E-01;0;  4.5824822E-02;  3.9861730E+04;  0.0000000E+00; -3.1406090E-03;  4.0000000E+04;  0.0000000E+00;  3.9998738E+04;  5.2646279E-02;  0.0000000E+00; -6.8214564E-03;  1.6816263E+01;
  5.8101076E-01;  9.9999998E-03;  2.1003370E-01;6035;  4.7004209E-03;  0.0000000E+00; -2.2933627E-03;  1.0003176E+03;  1.0021475E-01;  2.6310364E+02;3;  4.1367526E+00;  0.0000000E+00;  3.5488704E-01;0;  4.9544863E-02;  3.9852871E+04;  0.0000000E+00; -1.4409922E-02;  4.0000000E+04;  0.0000000E+00;  3.9998527E+04;  5.5645712E-02;  0.0000000E+00; -6.1008502E-03;  2.7165213E+01;
  5.8107305E-01;  9.9999998E-03;  2.2002058E-01;6036;  5.2235071E-03;  0.0000000E+00; -2.2922372E-03;  1.0001993E+03;  1.0021487E-01;  1.6513112E+02;3;  4.1622906E+00;  0.0000000E+00;  3.6579165E-01;0;  5.3610723E-02;  3.9843000E+04;  0.0000000E+00; -2.6358260E-02;  4.0000000E+04;  0.0000000E+00;  3.9999008E+04;  5.8870427E-02;  0.0000000E+00; -5.2597024E-03;  5.9429710E+01;
  5.8114058E-01;  9.9999998E-03;  2.3001045E-01;6037;  5.9200283E-03;  0.0000000E+00; -2.2250207E-03;  1.0000823E+03;  1.0021494E-01;  6.8146217E+01;3;  4.2289181E+00;  0.0000000E+00;  3.8313901E-01;0;  5.8162935E-02;  3.9832918E+04;  0.0000000E+00; -4.6011079E-02;  4.0000000E+04;  0.0000000E+00;  4.0000062E+04;  6.2225416E-02;  0.0000000E+00; -4.0624808E-03;  1.9359131E+02;
  5.9114695E-01;  9.9999998E-03;  7.0004456E-02;6082;  1.4393848E-03;  0.0000000E+00; -1.3744661E-03;  1.0000319E+03;  1.0034806E-01;  2.6468386E+01;3;  4.3003993E+00;  0.0000000E+00;  1.5012874E-01;0;  3.6809169E-02;  3.9733477E+04;  0.0000000E+00;  1.5404999E-01;  4.0000000E+04;  0.0000000E+00;  3.9990621E+04;  5.3016845E-02;  0.0000000E+00; -1.6207675E-02;  9.0625067E+02;
  5.9112519E-01;  9.9999998E-03;  8.0006853E-02;6083;  1.5951634E-03;  0.0000000E+00; -1.5318921E-03;  1.0001069E+03;  1.0034810E-01;  8.8590080E+01;3;  4.3056593E+00;  0.0000000E+00;  1.7197052E-01;0;  3.6091372E-02;  3.9739055E+04;  0.0000000E+00;  1.8371409E-01;  4.0000000E+04;  0.0000000E+00;  3.9990832E+04;  5.1761989E-02;  0.0000000E+00; -1.5670616E-02;  9.1019647E+02;
  5.9109598E-01;  9.9999998E-03;  9.0009421E-02;6084;  1.7561390E-03;  0.0000000E+00; -1.6762289E-03;  1.0001837E+03;  1.0034801E-01;  1.5219322E+02;3;  4.3133016E+00;  0.0000000E+00;  1.9575892E-01;0;  3.5417218E-02;  3.9744816E+04;  0.0000000E+00;  2.0617144E-01;  4.0000000E+04;  0.0000000E+00;  3.9990699E+04;  5.0515972E-02;  0.0000000E+00; -1.5098753E-02;  9.2111737E+02;
  5.9106123E-01;  9.9999998E-03;  1.0001238E-01;6085;  1.9155304E-03;  0.0000000E+00; -1.8086768E-03;  1.0002559E+03;  1.0034835E-01;  2.1194461E+02;3;  4.3131723E+00;  0.0000000E+00;  2.1927170E-01;0;  3.4845769E-02;  3.9750668E+04;  0.0000000E+00;  2.1807243E-01;  4.0000000E+04;  0.0000000E+00;  3.9990848E+04;  4.9343850E-02;  0.0000000E+00; -1.4498081E-02;  9.3001923E+02;
  5.9102309E-01;  9.9999998E-03;  1.1001588E-01;6086;  2.0834750E-03;  0.0000000E+00; -1.9275669E-03;  1.0003305E+03;  1.0034828E-01;  2.7377002E+02;3;  4.3096213E+00;  0.0000000E+00;  2.4116756E-01;0;  3.4436561E-02;  3.9756250E+04;  0.0000000E+00;  2.1713878E-01;  4.0000000E+04;  0.0000000E+00;  3.9990891E+04;  4.8308689E-02;  0.0000000E+00; -1.3872128E-02;  9.2682623E+02;
  5.9098542E-01;  9.9999998E-03;  1.2001973E-01;6087;  2.2623600E-03;  0.0000000E+00; -2.0327372E-03;  1.0004009E+03;  1.0034828E-01;  3.3213873E+02;3;  4.3092074E+00;  0.0000000E+00;  2.6352179E-01;0;  3.4253091E-02;  3.9761363E+04;  0.0000000E+00;  2.0276628E-01;  4.0000000E+04;  0.0000000E+00;  3.9991160E+04;  4.7475576E-02;  0.0000000E+00; -1.3222486E-02;  9.0166882E+02;
  5.9095216E-01;  9.9999998E-03;  1.3002370E-01;6088;  2.4534187E-03;  0.0000000E+00; -2.1250728E-03;  1.0004628E+03;  1.0034844E-01;  3.8339655E+02;3;  4.3000321E+00;  0.0000000E+00;  2.8418186E-01;0;  3.4356799E-02;  3.9765695E+04;  0.0000000E+00;  1.7639698E-01;  4.0000000E+04;  0.0000000E+00;  3.9991441E+04;  4.6906088E-02;  0.0000000E+00; -1.2549288E-02;  8.4600470E+02;
  5.9092689E-01;  9.9999998E-03;  1.4002752E-01;6089;  2.6586636E-03;  0.0000000E+00; -2.2051884E-03;  1.0005101E+03;  1.0034855E-01;  4.2260529E+02;3;  4.2857280E+00;  0.0000000E+00;  3.0402821E-01;0;  3.4803227E-02;  3.9768770E+04;  0.0000000E+00;  1.4137252E-01;  4.0000000E+04;  0.0000000E+00;  3.9992246E+04;  4.6655234E-02;  0.0000000E+00; -1.1852006E-02;  7.5460608E+02;
  5.9091115E-01;  9.9999998E-03;  1.5003128E-01;6090;  2.8810806E-03;  0.0000000E+00; -2.2743871E-03;  1.0005464E+03;  1.0034860E-01;  4.5262915E+02;3;  4.2718897E+00;  0.0000000E+00;  3.2099494E-01;0;  3.5637870E-02;  3.9770582E+04;  0.0000000E+00;  1.0226817E-01;  4.0000000E+04;  0.0000000E+00;  3.9993219E+04;  4.6769060E-02;  0.0000000E+00; -1.1131190E-02;  6.2791235E+02;
  5.9090674E-01;  9.9999998E-03;  1.6003498E-01;6091;  3.1217937E-03;  0.0000000E+00; -2.3365903E-03;  1.0005646E+03;  1.0034893E-01;  4.6783859E+02;3;  4.2533298E+00;  0.0000000E+00;  3.3590201E-01;0;  3.6892686E-02;  3.9770805E+04;  0.0000000E+00;  6.3889004E-02;  4.0000000E+04;  0.0000000E+00;  3.9994332E+04;  4.7284640E-02;  0.0000000E+00; -1.0391953E-02;  4.7578949E+02;
  5.9091449E-01;  9.9999998E-03;  1.7003824E-01;6092;  3.3817026E-03;  0.0000000E+00; -2.3948692E-03;  1.0005642E+03;  1.0034908E-01;  4.6744354E+02;3;  4.2299881E+00;  0.0000000E+00;  3.4531265E-01;0;  3.8584877E-02;  3.9769449E+04;  0.0000000E+00;  3.0509109E-02;  4.0000000E+04;  0.0000000E+00;  3.9995648E+04;  4.8225723E-02;  0.0000000E+00; -9.6408455E-03;  3.1930533E+02;
  5.9093553E-01;  9.9999998E-03;  1.8004018E-01;6093;  3.6640994E-03;  0.0000000E+00; -2.4529849E-03;  1.0005411E+03;  1.0034906E-01;  4.4828357E+02;3;  4.2046251E+00;  0.0000000E+00;  3.5319337E-01;0;  4.0717646E-02;  3.9766312E+04;  0.0000000E+00;  4.9609751E-03;  4.0000000E+04;  0.0000000E+00;  3.9996461E+04;  4.9598336E-02;  0.0000000E+00; -8.8806916E-03;  1.8911809E+02;
  5.9097028E-01;  9.9999998E-03;  1.9003983E-01;6094;  3.9795041E-03;  0.0000000E+00; -2.5126410E-03;  1.0004915E+03;  1.0034942E-01;  4.0719833E+02;3;  4.1854053E+00;  0.0000000E+00;  3.5638702E-01;0;  4.3276221E-02;  3.9761770E+04;  0.0000000E+00; -1.1848751E-02;  4.0000000E+04;  0.0000000E+00;  3.9997074E+04;  5.1386062E-02;  0.0000000E+00; -8.1098424E-03;  1.1783104E+02;
  5.9101784E-01;  9.9999998E-03;  2.0003535E-01;6095;  4.3506343E-03;  0.0000000E+00; -2.5720953E-03;  1.0004111E+03;  1.0034940E-01;  3.4063232E+02;3;  4.1775808E+00;  0.0000000E+00;  3.6149669E-01;0;  4.6224788E-02;  3.9755664E+04;  0.0000000E+00; -2.0653140E-02;  4.0000000E+04;  0.0000000E+00;  3.9997066E+04;  5.3548805E-02;  0.0000000E+00; -7.3240180E-03;  1.1405071E+02;
  5.9107673E-01;  9.9999998E-03;  2.1002403E-01;6096;  4.8148227E-03;  0.0000000E+00; -2.6200511E-03;  1.0003178E+03;  1.0034940E-01;  2.6330118E+02;3;  4.2006831E+00;  0.0000000E+00;  3.7006697E-01;0;  4.9514841E-02;  3.9748074E+04;  0.0000000E+00; -2.3694174E-02;  4.0000000E+04;  0.0000000E+00;  3.9996910E+04;  5.6024257E-02;  0.0000000E+00; -6.5094158E-03;  1.1449551E+02;
  5.9114408E-01;  9.9999998E-03;  2.2000794E-01;6097;  5.4390547E-03;  0.0000000E+00; -2.6195676E-03;  1.0002217E+03;  1.0034967E-01;  1.8369850E+02;3;  4.2669230E+00;  0.0000000E+00;  3.8549465E-01;0;  5.3150628E-02;  3.9739973E+04;  0.0000000E+00; -2.5846712E-02;  4.0000000E+04;  0.0000000E+00;  3.9997750E+04;  5.8728270E-02;  0.0000000E+00; -5.5776429E-03;  3.5679790E+01;
  5.9121573E-01;  9.9999998E-03;  2.2999859E-01;6098;  6.3296179E-03;  0.0000000E+00; -2.4987145E-03;  1.0001291E+03;  1.0034961E-01;  1.0695993E+02;3;  4.4145551E+00;  0.0000000E+00;  4.2581084E-01;0;  5.7398751E-02;  3.9731297E+04;  0.0000000E+00; -3.7023980E-02;  4.0000000E+04;  0.0000000E+00;  3.9999449E+04;  6.1557561E-02;  0.0000000E+00; -4.1588112E-03;  2.1652837E+02;
  6.0118037E-01;  9.9999998E-03;  7.0008747E-02;6143;  1.5810520E-03;  0.0000000E+00; -1.4996793E-03;  9.9996008E+02;  1.0056140E-01; -3.3085480E+01;3;  4.3103299E+00;  0.0000000E+00;  1.4992465E-01;0;  4.4049252E-02;  3.9562473E+04;  0.0000000E+00;  1.7144294E-01;  4.0000000E+04;  0.0000000E+00;  3.9989887E+04;  6.1655860E-02;  0.0000000E+00; -1.7606609E-02;  8.3821222E+02;
  6.0115731E-01;  9.9999998E-03;  8.0009311E-02;6144;  1.7079182E-03;  0.0000000E+00; -1.6725278E-03;  1.0000161E+03;  1.0056169E-01;  1.3332955E+01;3;  4.3181267E+00;  0.0000000E+00;  1.7503206E-01;0;  4.3106645E-02;  3.9566414E+04;  0.0000000E+00;  1.9927891E-01;  4.0000000E+04;  0.0000000E+00;  3.9989926E+04;  6.0169775E-02;  0.0000000E+00; -1.7063132E-02;  8.4384869E+02;
  6.0112786E-01;  9.9999998E-03;  9.0009503E-02;6145;  1.8361305E-03;  0.0000000E+00; -1.8332166E-03;  1.0000713E+03;  1.0056166E-01;  5.9060055E+01;3;  4.3152719E+00;  0.0000000E+00;  1.9901958E-01;0;  4.2179734E-02;  3.9570316E+04;  0.0000000E+00;  2.1738037E-01;  4.0000000E+04;  0.0000000E+00;  3.9989914E+04;  5.8662064E-02;  0.0000000E+00; -1.6482333E-02;  8.5685010E+02;
  6.0109293E-01;  9.9999998E-03;  1.0001004E-01;6146;  1.9712674E-03;  0.0000000E+00; -1.9804074E-03;  1.0001270E+03;  1.0056184E-01;  1.0518221E+02;3;  4.3108287E+00;  0.0000000E+00;  2.2185957E-01;0;  4.1324567E-02;  3.9574480E+04;  0.0000000E+00;  2.2272281E-01;  4.0000000E+04;  0.0000000E+00;  3.9989887E+04;  5.7193428E-02;  0.0000000E+00; -1.5868861E-02;  8.6876837E+02;
  6.0105389E-01;  9.9999998E-03;  1.1001147E-01;6147;  2.1171316E-03;  0.0000000E+00; -2.1139020E-03;  1.0001786E+03;  1.0056213E-01;  1.4794643E+02;3;  4.3106780E+00;  0.0000000E+00;  2.4556229E-01;0;  4.0602788E-02;  3.9578410E+04;  0.0000000E+00;  2.1375003E-01;  4.0000000E+04;  0.0000000E+00;  3.9989949E+04;  5.5827226E-02;  0.0000000E+00; -1.5224439E-02;  8.7044086E+02;
  6.0101336E-01;  9.9999998E-03;  1.2001422E-01;6148;  2.2754995E-03;  0.0000000E+00; -2.2347460E-03;  1.0002233E+03;  1.0056242E-01;  1.8498241E+02;3;  4.3042622E+00;  0.0000000E+00;  2.6963082E-01;0;  4.0078253E-02;  3.9581609E+04;  0.0000000E+00;  1.9086850E-01;  4.0000000E+04;  0.0000000E+00;  3.9989750E+04;  5.4626733E-02;  0.0000000E+00; -1.4548480E-02;  8.5283582E+02;
  6.0097462E-01;  9.9999998E-03;  1.3001843E-01;6149;  2.4529069E-03;  0.0000000E+00; -2.3419114E-03;  1.0002683E+03;  1.0056223E-01;  2.2231468E+02;3;  4.2975202E+00;  0.0000000E+00;  2.9308131E-01;0;  3.9811492E-02;  3.9584527E+04;  0.0000000E+00;  1.5655248E-01;  4.0000000E+04;  0.0000000E+00;  3.9990305E+04;  5.3650178E-02;  0.0000000E+00; -1.3838688E-02;  8.0830188E+02;
  6.0094178E-01;  9.9999998E-03;  1.4002390E-01;6150;  2.6506116E-03;  0.0000000E+00; -2.4359638E-03;  1.0003046E+03;  1.0056274E-01;  2.5233852E+02;3;  4.2846184E+00;  0.0000000E+00;  3.1374210E-01;0;  3.9859392E-02;  3.9586484E+04;  0.0000000E+00;  1.1500859E-01;  4.0000000E+04;  0.0000000E+00;  3.9990672E+04;  5.2951578E-02;  0.0000000E+00; -1.3092188E-02;  7.3230682E+02;
  6.0091919E-01;  9.9999998E-03;  1.5002997E-01;6151;  2.8687653E-03;  0.0000000E+00; -2.5209966E-03;  1.0003337E+03;  1.0056295E-01;  2.7643661E+02;3;  4.2717676E+00;  0.0000000E+00;  3.3098355E-01;0;  4.0269621E-02;  3.9587785E+04;  0.0000000E+00;  7.1374603E-02;  4.0000000E+04;  0.0000000E+00;  3.9991355E+04;  5.2577127E-02;  0.0000000E+00; -1.2307508E-02;  6.2644617E+02;
  6.0091025E-01;  9.9999998E-03;  1.6003557E-01;6152;  3.1094979E-03;  0.0000000E+00; -2.5983006E-03;  1.0003493E+03;  1.0056322E-01;  2.8937451E+02;3;  4.2538877E+00;  0.0000000E+00;  3.4437093E-01;0;  4.1074585E-02;  3.9587883E+04;  0.0000000E+00;  3.0728666E-02;  4.0000000E+04;  0.0000000E+00;  3.9992602E+04;  5.2563779E-02;  0.0000000E+00; -1.1489194E-02;  5.0202930E+02;
  6.0091645E-01;  9.9999998E-03;  1.7003958E-01;6153;  3.3735165E-03;  0.0000000E+00; -2.6730830E-03;  1.0003516E+03;  1.0056351E-01;  2.9134976E+02;3;  4.2349157E+00;  0.0000000E+00;  3.5539028E-01;0;  4.2291541E-02;  3.9586785E+04;  0.0000000E+00; -2.5234364E-03;  4.0000000E+04;  0.0000000E+00;  3.9993426E+04;  5.2936435E-02;  0.0000000E+00; -1.0644895E-02;  3.8214172E+02;
  6.0093814E-01;  9.9999998E-03;  1.8004106E-01;6154;  3.6669986E-03;  0.0000000E+00; -2.7503222E-03;  1.0003297E+03;  1.0056404E-01;  2.7317743E+02;3;  4.2171764E+00;  0.0000000E+00;  3.6225635E-01;0;  4.3922432E-02;  3.9584355E+04;  0.0000000E+00; -2.5560157E-02;  4.0000000E+04;  0.0000000E+00;  3.9994129E+04;  5.3703103E-02;  0.0000000E+00; -9.7806696E-03;  2.9724783E+02;
  6.0097426E-01;  9.9999998E-03;  1.9003880E-01;6155;  4.0067649E-03;  0.0000000E+00; -2.8340132E-03;  1.0002844E+03;  1.0056406E-01;  2.3554887E+02;3;  4.2068505E+00;  0.0000000E+00;  3.6559084E-01;0;  4.5949314E-02;  3.9580539E+04;  0.0000000E+00; -3.7452392E-02;  4.0000000E+04;  0.0000000E+00;  3.9994375E+04;  5.4850735E-02;  0.0000000E+00; -8.9014210E-03;  2.7124847E+02;
  6.0102284E-01;  9.9999998E-03;  2.0003054E-01;6156;  4.4137700E-03;  0.0000000E+00; -2.9234581E-03;  1.0002125E+03;  1.0056403E-01;  1.7609377E+02;3;  4.2181439E+00;  0.0000000E+00;  3.6385617E-01;0;  4.8330437E-02;  3.9574996E+04;  0.0000000E+00; -3.8650151E-02;  4.0000000E+04;  0.0000000E+00;  3.9994074E+04;  5.6346502E-02;  0.0000000E+00; -8.0160648E-03;  2.9317957E+02;
  6.0108179E-01;  9.9999998E-03;  2.1001390E-01;6157;  4.9233306E-03;  0.0000000E+00; -3.0080054E-03;  1.0001331E+03;  1.0056417E-01;  1.1031786E+02;3;  4.2634616E+00;  0.0000000E+00;  3.6765930E-01;0;  5.1000774E-02;  3.9568539E+04;  0.0000000E+00; -3.1093797E-02;  4.0000000E+04;  0.0000000E+00;  3.9994191E+04;  5.8137018E-02;  0.0000000E+00; -7.1362434E-03;  2.6476013E+02;
  6.0114723E-01;  9.9999998E-03;  2.1999264E-01;6158;  5.6191990E-03;  0.0000000E+00; -3.0381877E-03;  1.0000624E+03;  1.0056438E-01;  5.1652855E+01;3;  4.3626270E+00;  0.0000000E+00;  3.8526160E-01;0;  5.3948436E-02;  3.9561078E+04;  0.0000000E+00; -1.9149516E-02;  4.0000000E+04;  0.0000000E+00;  3.9996219E+04;  6.0143840E-02;  0.0000000E+00; -6.1954036E-03;  2.2768427E+01;
  6.0121518E-01;  9.9999998E-03;  2.2998236E-01;6159;  6.6588051E-03;  0.0000000E+00; -2.8998246E-03;  1.0000001E+03;  1.0056425E-01;  9.8762631E-02;3;  4.5771332E+00;  0.0000000E+00;  4.4622353E-01;0;  5.7531297E-02;  3.9553426E+04;  0.0000000E+00; -1.1947080E-02;  4.0000000E+04;  0.0000000E+00;  3.9999215E+04;  6.2262002E-02;  0.0000000E+00; -4.7307070E-03;  3.6022711E+02;
  6.1113471E-01;  9.9999998E-03;  7.0019618E-02;6204;  1.7900579E-03;  0.0000000E+00; -1.6096263E-03;  9.9981842E+02;  1.0089495E-01; -1.5041548E+02;3;  4.3424850E+00;  0.0000000E+00;  1.5724941E-01;0;  5.2503299E-02;  3.9294746E+04;  0.0000000E+00;  1.5321079E-01;  4.0000000E+04;  0.0000000E+00;  3.9988297E+04;  7.1514167E-02;  0.0000000E+00; -1.9010868E-02;  7.3070349E+02;
  6.1111629E-01;  9.9999998E-03;  8.0019869E-02;6205;  1.8825370E-03;  0.0000000E+00; -1.7985804E-03;  9.9984680E+02;  1.0089531E-01; -1.2690998E+02;3;  4.3278627E+00;  0.0000000E+00;  1.7584118E-01;0;  5.1475197E-02;  3.9296418E+04;  0.0000000E+00;  1.7180736E-01;  4.0000000E+04;  0.0000000E+00;  3.9988547E+04;  6.9955938E-02;  0.0000000E+00; -1.8480740E-02;  7.3898969E+02;
  6.1109155E-01;  9.9999998E-03;  9.0019144E-02;6206;  1.9737121E-03;  0.0000000E+00; -1.9750921E-03;  9.9987750E+02;  1.0089567E-01; -1.0147861E+02;3;  4.3276882E+00;  0.0000000E+00;  2.0161632E-01;0;  5.0436009E-02;  3.9298285E+04;  0.0000000E+00;  1.7952783E-01;  4.0000000E+04;  0.0000000E+00;  3.9988207E+04;  6.8346463E-02;  0.0000000E+00; -1.7910454E-02;  7.5743005E+02;
  6.1106098E-01;  9.9999998E-03;  1.0001791E-01;6207;  2.0677187E-03;  0.0000000E+00; -2.1404375E-03;  9.9990430E+02;  1.0089583E-01; -7.9306396E+01;3;  4.3187971E+00;  0.0000000E+00;  2.2657971E-01;0;  4.9436994E-02;  3.9300285E+04;  0.0000000E+00;  1.7447658E-01;  4.0000000E+04;  0.0000000E+00;  3.9988000E+04;  6.6739969E-02;  0.0000000E+00; -1.7302973E-02;  7.7928943E+02;
  6.1102629E-01;  9.9999998E-03;  1.1001673E-01;6208;  2.1799433E-03;  0.0000000E+00; -2.2926952E-03;  9.9993152E+02;  1.0089607E-01; -5.6739132E+01;3;  4.3084283E+00;  0.0000000E+00;  2.5070283E-01;0;  4.8531987E-02;  3.9301938E+04;  0.0000000E+00;  1.5641811E-01;  4.0000000E+04;  0.0000000E+00;  3.9987922E+04;  6.5190159E-02;  0.0000000E+00; -1.6658170E-02;  7.9674420E+02;
  6.1098993E-01;  9.9999998E-03;  1.2001604E-01;6209;  2.3126891E-03;  0.0000000E+00; -2.4318676E-03;  9.9996045E+02;  1.0089671E-01; -3.2789192E+01;3;  4.3002796E+00;  0.0000000E+00;  2.7294165E-01;0;  4.7780737E-02;  3.9303449E+04;  0.0000000E+00;  1.2699017E-01;  4.0000000E+04;  0.0000000E+00;  3.9987723E+04;  6.3753717E-02;  0.0000000E+00; -1.5972978E-02;  8.0131512E+02;
  6.1095506E-01;  9.9999998E-03;  1.3001642E-01;6210;  2.4704589E-03;  0.0000000E+00; -2.5576875E-03;  9.9998004E+02;  1.0089687E-01; -1.6542740E+01;3;  4.2925673E+00;  0.0000000E+00;  2.9601103E-01;0;  4.7240000E-02;  3.9304750E+04;  0.0000000E+00;  8.9522757E-02;  4.0000000E+04;  0.0000000E+00;  3.9987891E+04;  6.2482465E-02;  0.0000000E+00; -1.5242465E-02;  7.8477948E+02;
  6.1092484E-01;  9.9999998E-03;  1.4001842E-01;6211;  2.6568628E-03;  0.0000000E+00; -2.6716033E-03;  9.9999878E+02;  1.0089706E-01; -9.8762631E-01;3;  4.2846651E+00;  0.0000000E+00;  3.1845537E-01;0;  4.6961501E-02;  3.9305480E+04;  0.0000000E+00;  4.8491590E-02;  4.0000000E+04;  0.0000000E+00;  3.9988176E+04;  6.1422411E-02;  0.0000000E+00; -1.4460908E-02;  7.4169696E+02;
  6.1090285E-01;  9.9999998E-03;  1.5002196E-01;6212;  2.8700244E-03;  0.0000000E+00; -2.7759736E-03;  1.0000123E+03;  1.0089783E-01;  1.0172551E+01;3;  4.2742615E+00;  0.0000000E+00;  3.3814389E-01;0;  4.6990439E-02;  3.9305484E+04;  0.0000000E+00;  8.6316364E-03;  4.0000000E+04;  0.0000000E+00;  3.9988457E+04;  6.0614813E-02;  0.0000000E+00; -1.3624374E-02;  6.7282977E+02;
  6.1089289E-01;  9.9999998E-03;  1.6002612E-01;6213;  3.1088213E-03;  0.0000000E+00; -2.8737462E-03;  1.0000191E+03;  1.0089833E-01;  1.5802021E+01;3;  4.2567720E+00;  0.0000000E+00;  3.5037297E-01;0;  4.7358848E-02;  3.9305000E+04;  0.0000000E+00; -2.5868516E-02;  4.0000000E+04;  0.0000000E+00;  3.9989207E+04;  6.0095493E-02;  0.0000000E+00; -1.2736644E-02;  5.8821106E+02;
  6.1089742E-01;  9.9999998E-03;  1.7002937E-01;6214;  3.3790155E-03;  0.0000000E+00; -2.9703490E-03;  1.0000137E+03;  1.0089871E-01;  1.1357702E+01;3;  4.2436199E+00;  0.0000000E+00;  3.5800484E-01;0;  4.8081439E-02;  3.9303543E+04;  0.0000000E+00; -5.1623009E-02;  4.0000000E+04;  0.0000000E+00;  3.9989918E+04;  5.9888761E-02;  0.0000000E+00; -1.1807322E-02;  5.0780817E+02;
  6.1091697E-01;  9.9999998E-03;  1.8002985E-01;6215;  3.6902961E-03;  0.0000000E+00; -3.0725501E-03;  9.9999152E+02;  1.0089894E-01; -7.0121469E+00;3;  4.2403092E+00;  0.0000000E+00;  3.6338207E-01;0;  4.9158227E-02;  3.9300715E+04;  0.0000000E+00; -6.6587172E-02;  4.0000000E+04;  0.0000000E+00;  3.9990406E+04;  6.0005419E-02;  0.0000000E+00; -1.0847193E-02;  4.5587674E+02;
  6.1095071E-01;  9.9999998E-03;  1.9002545E-01;6216;  4.0620458E-03;  0.0000000E+00; -3.1865023E-03;  9.9994305E+02;  1.0089947E-01; -4.7159157E+01;3;  4.2498903E+00;  0.0000000E+00;  3.5857683E-01;0;  5.0568201E-02;  3.9296605E+04;  0.0000000E+00; -6.9728717E-02;  4.0000000E+04;  0.0000000E+00;  3.9990461E+04;  6.0438123E-02;  0.0000000E+00; -9.8699220E-03;  4.4507352E+02;
  6.1099583E-01;  9.9999998E-03;  2.0001361E-01;6217;  4.5112232E-03;  0.0000000E+00; -3.3102550E-03;  9.9987427E+02;  1.0089987E-01; -1.0414520E+02;3;  4.2791252E+00;  0.0000000E+00;  3.5586375E-01;0;  5.2264698E-02;  3.9291266E+04;  0.0000000E+00; -6.0582846E-02;  4.0000000E+04;  0.0000000E+00;  3.9990473E+04;  6.1163750E-02;  0.0000000E+00; -8.8990508E-03;  4.4325397E+02;
  6.1104923E-01;  9.9999998E-03;  2.0999217E-01;6218;  5.0737322E-03;  0.0000000E+00; -3.4339246E-03;  9.9980322E+02;  1.0089972E-01; -1.6300772E+02;3;  4.3423252E+00;  0.0000000E+00;  3.5399950E-01;0;  5.4169297E-02;  3.9284449E+04;  0.0000000E+00; -3.9575774E-02;  4.0000000E+04;  0.0000000E+00;  3.9991375E+04;  6.2141255E-02;  0.0000000E+00; -7.9719573E-03;  3.0846597E+02;
  6.1110741E-01;  9.9999998E-03;  2.1996792E-01;6219;  5.8354815E-03;  0.0000000E+00; -3.4972294E-03;  9.9975134E+02;  1.0089993E-01; -2.0601884E+02;3;  4.4708805E+00;  0.0000000E+00;  3.6927938E-01;0;  5.6264110E-02;  3.9276965E+04;  0.0000000E+00; -9.0370253E-03;  4.0000000E+04;  0.0000000E+00;  3.9994953E+04;  6.3309155E-02;  0.0000000E+00; -7.0450474E-03;  1.5844426E+02;
  6.1116701E-01;  9.9999998E-03;  2.2996056E-01;6220;  6.9811218E-03;  0.0000000E+00; -3.3608044E-03;  9.9971576E+02;  1.0090013E-01; -2.3549950E+02;3;  4.7392597E+00;  0.0000000E+00;  4.4201908E-01;0;  5.8963753E-02;  3.9269414E+04;  0.0000000E+00;  2.4772771E-02;  4.0000000E+04;  0.0000000E+00;  3.9999723E+04;  6.4578094E-02;  0.0000000E+00; -5.6143422E-03;  7.4285815E+02;
  6.2103611E-01;  9.9999998E-03;  7.0028856E-02;6265;  2.1430042E-03;  0.0000000E+00; -1.7022593E-03;  9.9969958E+02;  1.0140128E-01; -2.4888184E+02;3;  4.4053006E+00;  0.0000000E+00;  1.6099094E-01;0;  6.1562374E-02;  3.8898812E+04;  0.0000000E+00;  9.6840739E-02;  4.0000000E+04;  0.0000000E+00;  3.9985863E+04;  8.1974782E-02;  0.0000000E+00; -2.0412408E-02;  5.9251831E+02;
  6.2102079E-01;  9.9999998E-03;  8.0029465E-02;6266;  2.1718561E-03;  0.0000000E+00; -1.9090958E-03;  9.9970239E+02;  1.0140149E-01; -2.4656091E+02;3;  4.3825765E+00;  0.0000000E+00;  1.8271095E-01;0;  6.0613863E-02;  3.8898418E+04;  0.0000000E+00;  9.9122606E-02;  4.0000000E+04;  0.0000000E+00;  3.9985754E+04;  8.0524668E-02;  0.0000000E+00; -1.9910805E-02;  6.0607910E+02;
  6.2100035E-01;  9.9999998E-03;  9.0028740E-02;6267;  2.2032473E-03;  0.0000000E+00; -2.1045716E-03;  9.9970514E+02;  1.0140219E-01; -2.4428937E+02;3;  4.3494024E+00;  0.0000000E+00;  2.0288125E-01;0;  5.9630498E-02;  3.8898203E+04;  0.0000000E+00;  9.1167435E-02;  4.0000000E+04;  0.0000000E+00;  3.9985449E+04;  7.8996524E-02;  0.0000000E+00; -1.9366028E-02;  6.3703094E+02;
  6.2097538E-01;  9.9999998E-03;  1.0002686E-01;6268;  2.2475231E-03;  0.0000000E+00; -2.2876484E-03;  9.9970306E+02;  1.0140278E-01; -2.4601772E+02;3;  4.3360100E+00;  0.0000000E+00;  2.2710660E-01;0;  5.8652535E-02;  3.8897777E+04;  0.0000000E+00;  7.2818309E-02;  4.0000000E+04;  0.0000000E+00;  3.9985086E+04;  7.7431798E-02;  0.0000000E+00; -1.8779263E-02;  6.8083966E+02;
  6.2094694E-01;  9.9999998E-03;  1.1002443E-01;6269;  2.3074427E-03;  0.0000000E+00; -2.4605196E-03;  9.9970221E+02;  1.0140337E-01; -2.4670906E+02;3;  4.3152819E+00;  0.0000000E+00;  2.5146508E-01;0;  5.7726324E-02;  3.8897391E+04;  0.0000000E+00;  4.5505665E-02;  4.0000000E+04;  0.0000000E+00;  3.9984703E+04;  7.5874269E-02;  0.0000000E+00; -1.8147947E-02;  7.2958960E+02;
  6.2091702E-01;  9.9999998E-03;  1.2002187E-01;6270;  2.3973775E-03;  0.0000000E+00; -2.6221953E-03;  9.9970276E+02;  1.0140344E-01; -2.4626462E+02;3;  4.2995934E+00;  0.0000000E+00;  2.7663851E-01;0;  5.6898013E-02;  3.8896941E+04;  0.0000000E+00;  1.2167097E-02;  4.0000000E+04;  0.0000000E+00;  3.9984352E+04;  7.4364595E-02;  0.0000000E+00; -1.7466580E-02;  7.7256427E+02;
  6.2088847E-01;  9.9999998E-03;  1.3001959E-01;6271;  2.5245703E-03;  0.0000000E+00; -2.7725734E-03;  9.9970551E+02;  1.0140459E-01; -2.4399309E+02;3;  4.2897673E+00;  0.0000000E+00;  2.9854134E-01;0;  5.6215368E-02;  3.8896578E+04;  0.0000000E+00; -2.3304082E-02;  4.0000000E+04;  0.0000000E+00;  3.9984016E+04;  7.2942801E-02;  0.0000000E+00; -1.6727431E-02;  7.9833069E+02;
  6.2086481E-01;  9.9999998E-03;  1.4001785E-01;6272;  2.6902987E-03;  0.0000000E+00; -2.9118792E-03;  9.9970520E+02;  1.0140541E-01; -2.4423999E+02;3;  4.2851577E+00;  0.0000000E+00;  3.1925485E-01;0;  5.5722862E-02;  3.8895680E+04;  0.0000000E+00; -5.6819458E-02;  4.0000000E+04;  0.0000000E+00;  3.9984012E+04;  7.1645275E-02;  0.0000000E+00; -1.5922414E-02;  7.9870544E+02;
  6.2084937E-01;  9.9999998E-03;  1.5001689E-01;6273;  2.8941412E-03;  0.0000000E+00; -3.0420583E-03;  9.9970465E+02;  1.0140602E-01; -2.4468442E+02;3;  4.2733121E+00;  0.0000000E+00;  3.3592573E-01;0;  5.5459142E-02;  3.8894484E+04;  0.0000000E+00; -8.4946230E-02;  4.0000000E+04;  0.0000000E+00;  3.9984207E+04;  7.0504420E-02;  0.0000000E+00; -1.5045280E-02;  7.7277765E+02;
  6.2084484E-01;  9.9999998E-03;  1.6001657E-01;6274;  3.1336972E-03;  0.0000000E+00; -3.1660069E-03;  9.9969592E+02;  1.0140680E-01; -2.5194347E+02;3;  4.2690239E+00;  0.0000000E+00;  3.5012546E-01;0;  5.5450320E-02;  3.8892934E+04;  0.0000000E+00; -1.0549439E-01;  4.0000000E+04;  0.0000000E+00;  3.9984672E+04;  6.9549493E-02;  0.0000000E+00; -1.4099171E-02;  7.2857990E+02;
  6.2085283E-01;  9.9999998E-03;  1.7001554E-01;6275;  3.4147270E-03;  0.0000000E+00; -3.2911100E-03;  9.9967657E+02;  1.0140770E-01; -2.6794302E+02;3;  4.2669277E+00;  0.0000000E+00;  3.5173073E-01;0;  5.5706792E-02;  3.8890512E+04;  0.0000000E+00; -1.1722583E-01;  4.0000000E+04;  0.0000000E+00;  3.9984977E+04;  6.8803094E-02;  0.0000000E+00; -1.3096301E-02;  6.8112256E+02;
  6.2087375E-01;  9.9999998E-03;  1.8001191E-01;6276;  3.7537741E-03;  0.0000000E+00; -3.4223793E-03;  9.9964288E+02;  1.0140860E-01; -2.9584348E+02;3;  4.2806296E+00;  0.0000000E+00;  3.4857073E-01;0;  5.6223512E-02;  3.8886777E+04;  0.0000000E+00; -1.1926837E-01;  4.0000000E+04;  0.0000000E+00;  3.9985520E+04;  6.8276860E-02;  0.0000000E+00; -1.2053346E-02;  6.4534161E+02;
  6.2090605E-01;  9.9999998E-03;  1.9000332E-01;6277;  4.1626533E-03;  0.0000000E+00; -3.5681839E-03;  9.9958472E+02;  1.0140942E-01; -3.4403961E+02;3;  4.3051720E+00;  0.0000000E+00;  3.4588808E-01;0;  5.6978371E-02;  3.8881434E+04;  0.0000000E+00; -1.1015473E-01;  4.0000000E+04;  0.0000000E+00;  3.9985520E+04;  6.7972176E-02;  0.0000000E+00; -1.0993804E-02;  6.1806250E+02;
  6.2094653E-01;  9.9999998E-03;  1.9998713E-01;6278;  4.6623414E-03;  0.0000000E+00; -3.7295534E-03;  9.9951532E+02;  1.0140961E-01; -4.0156885E+02;3;  4.3575797E+00;  0.0000000E+00;  3.3456522E-01;0;  5.7918679E-02;  3.8875145E+04;  0.0000000E+00; -8.7789938E-02;  4.0000000E+04;  0.0000000E+00;  3.9986047E+04;  6.7876890E-02;  0.0000000E+00; -9.9582104E-03;  5.3845172E+02;
  6.2099272E-01;  9.9999998E-03;  2.0996258E-01;6279;  5.2796048E-03;  0.0000000E+00; -3.8886566E-03;  9.9945032E+02;  1.0141014E-01; -4.5539450E+02;3;  4.4484954E+00;  0.0000000E+00;  3.2965022E-01;0;  5.8967263E-02;  3.8867551E+04;  0.0000000E+00; -5.0427515E-02;  4.0000000E+04;  0.0000000E+00;  3.9988492E+04;  6.7970768E-02;  0.0000000E+00; -9.0035032E-03;  2.3451994E+02;
  6.2104142E-01;  9.9999998E-03;  2.1993969E-01;6280;  6.0975901E-03;  0.0000000E+00; -3.9778836E-03;  9.9941144E+02;  1.0141039E-01; -4.8759113E+02;3;  4.5982933E+00;  0.0000000E+00;  3.4300280E-01;0;  6.0117178E-02;  3.8859223E+04;  0.0000000E+00;  1.6718330E-03;  4.0000000E+04;  0.0000000E+00;  3.9993879E+04;  6.8217747E-02;  0.0000000E+00; -8.1005702E-03;  4.7650034E+02;
  6.2109101E-01;  9.9999998E-03;  2.2993985E-01;6281;  7.2887940E-03;  0.0000000E+00; -3.8612897E-03;  9.9937793E+02;  1.0141005E-01; -5.1539282E+02;3;  4.8718138E+00;  0.0000000E+00;  4.1399354E-01;0;  6.1793867E-02;  3.8850887E+04;  0.0000000E+00;  6.4756416E-02;  4.0000000E+04;  0.0000000E+00;  4.0000090E+04;  6.8564959E-02;  0.0000000E+00; -6.7710904E-03;  1.2490072E+03;
  6.3101959E-01;  9.9999998E-03;  7.0024885E-02;6326;  2.7476714E-03;  0.0000000E+00; -1.7805189E-03;  9.9977234E+02;  1.0213829E-01; -1.8863663E+02;3;  4.5164909E+00;  0.0000000E+00;  1.6291061E-01;0;  7.0567295E-02;  3.8349582E+04;  0.0000000E+00;  8.4262388E-03;  4.0000000E+04;  0.0000000E+00;  3.9981980E+04;  9.2394873E-02;  0.0000000E+00; -2.1827579E-02;  4.5277682E+02;
  6.3099056E-01;  9.9999998E-03;  8.0027148E-02;6327;  2.6937691E-03;  0.0000000E+00; -2.0047263E-03;  9.9974048E+02;  1.0213865E-01; -2.1500626E+02;3;  4.4695935E+00;  0.0000000E+00;  1.8283902E-01;0;  6.9856353E-02;  3.8346656E+04;  0.0000000E+00; -1.0325355E-02;  4.0000000E+04;  0.0000000E+00;  3.9981754E+04;  9.1218606E-02;  0.0000000E+00; -2.1362254E-02;  4.8422928E+02;
  6.3095474E-01;  9.9999998E-03;  9.0028673E-02;6328;  2.6368771E-03;  0.0000000E+00; -2.2182120E-03;  9.9971008E+02;  1.0213952E-01; -2.4019072E+02;3;  4.4292340E+00;  0.0000000E+00;  2.0587188E-01;0;  6.9092385E-02;  3.8343488E+04;  0.0000000E+00; -3.7046991E-02;  4.0000000E+04;  0.0000000E+00;  3.9981160E+04;  8.9942001E-02;  0.0000000E+00; -2.0849613E-02;  5.4506421E+02;
  6.3091445E-01;  9.9999998E-03;  1.0002945E-01;6329;  2.5846674E-03;  0.0000000E+00; -2.4248906E-03;  9.9968365E+02;  1.0214072E-01; -2.6206665E+02;3;  4.3910046E+00;  0.0000000E+00;  2.3094906E-01;0;  6.8301842E-02;  3.8341004E+04;  0.0000000E+00; -6.9854595E-02;  4.0000000E+04;  0.0000000E+00;  3.9980645E+04;  8.8590853E-02;  0.0000000E+00; -2.0289008E-02;  6.2862280E+02;
  6.3087350E-01;  9.9999998E-03;  1.1002924E-01;6330;  2.5685392E-03;  0.0000000E+00; -2.6211732E-03;  9.9965717E+02;  1.0214174E-01; -2.8404132E+02;3;  4.3483143E+00;  0.0000000E+00;  2.4974547E-01;0;  6.7513406E-02;  3.8338570E+04;  0.0000000E+00; -1.0551926E-01;  4.0000000E+04;  0.0000000E+00;  3.9979832E+04;  8.7189630E-02;  0.0000000E+00; -1.9676225E-02;  7.2208136E+02;
  6.3083631E-01;  9.9999998E-03;  1.2002764E-01;6331;  2.5932731E-03;  0.0000000E+00; -2.8081487E-03;  9.9963287E+02;  1.0214268E-01; -3.0413953E+02;3;  4.3187652E+00;  0.0000000E+00;  2.7086270E-01;0;  6.6763550E-02;  3.8336117E+04;  0.0000000E+00; -1.3994390E-01;  4.0000000E+04;  0.0000000E+00;  3.9979328E+04;  8.5767306E-02;  0.0000000E+00; -1.9003753E-02;  8.0961975E+02;
  6.3080621E-01;  9.9999998E-03;  1.3002490E-01;6332;  2.6692941E-03;  0.0000000E+00; -2.9865212E-03;  9.9961475E+02;  1.0214432E-01; -3.1915143E+02;3;  4.3023381E+00;  0.0000000E+00;  2.9045856E-01;0;  6.6086583E-02;  3.8334055E+04;  0.0000000E+00; -1.6902362E-01;  4.0000000E+04;  0.0000000E+00;  3.9978770E+04;  8.4348388E-02;  0.0000000E+00; -1.8261807E-02;  8.7657349E+02;
  6.3078505E-01;  9.9999998E-03;  1.4002153E-01;6333;  2.7991063E-03;  0.0000000E+00; -3.1557640E-03;  9.9959796E+02;  1.0214541E-01; -3.3307697E+02;3;  4.2963181E+00;  0.0000000E+00;  3.0926239E-01;0;  6.5514334E-02;  3.8331707E+04;  0.0000000E+00; -1.8957683E-01;  4.0000000E+04;  0.0000000E+00;  3.9978469E+04;  8.2954086E-02;  0.0000000E+00; -1.7439753E-02;  9.1351263E+02;
  6.3077390E-01;  9.9999998E-03;  1.5001798E-01;6334;  2.9835380E-03;  0.0000000E+00; -3.3190022E-03;  9.9958258E+02;  1.0214674E-01; -3.4581735E+02;3;  4.2924743E+00;  0.0000000E+00;  3.2433403E-01;0;  6.5073587E-02;  3.8328930E+04;  0.0000000E+00; -2.0015554E-01;  4.0000000E+04;  0.0000000E+00;  3.9978488E+04;  8.1602760E-02;  0.0000000E+00; -1.6529175E-02;  9.1969220E+02;
  6.3077360E-01;  9.9999998E-03;  1.6001406E-01;6335;  3.2226569E-03;  0.0000000E+00; -3.4775522E-03;  9.9955719E+02;  1.0214814E-01; -3.6685379E+02;3;  4.2965741E+00;  0.0000000E+00;  3.3162266E-01;0;  6.4780399E-02;  3.8325852E+04;  0.0000000E+00; -2.0131169E-01;  4.0000000E+04;  0.0000000E+00;  3.9978613E+04;  8.0313697E-02;  0.0000000E+00; -1.5533299E-02;  9.0348016E+02;
  6.3078469E-01;  9.9999998E-03;  1.7000899E-01;6336;  3.5201937E-03;  0.0000000E+00; -3.6375315E-03;  9.9952222E+02;  1.0214947E-01; -3.9584064E+02;3;  4.3134413E+00;  0.0000000E+00;  3.3314142E-01;0;  6.4637765E-02;  3.8321934E+04;  0.0000000E+00; -1.9450204E-01;  4.0000000E+04;  0.0000000E+00;  3.9978504E+04;  7.9105623E-02;  0.0000000E+00; -1.4467858E-02;  8.7750195E+02;
  6.3080633E-01;  9.9999998E-03;  1.8000117E-01;6337;  3.8893742E-03;  0.0000000E+00; -3.8020227E-03;  9.9946747E+02;  1.0215106E-01; -4.4117267E+02;3;  4.3368311E+00;  0.0000000E+00;  3.2841170E-01;0;  6.4635500E-02;  3.8316996E+04;  0.0000000E+00; -1.7994785E-01;  4.0000000E+04;  0.0000000E+00;  3.9978820E+04;  7.7992216E-02;  0.0000000E+00; -1.3356715E-02;  8.4852893E+02;
  6.3083601E-01;  9.9999998E-03;  1.8998852E-01;6338;  4.3403483E-03;  0.0000000E+00; -3.9798236E-03;  9.9939801E+02;  1.0215215E-01; -4.9875128E+02;3;  4.3892446E+00;  0.0000000E+00;  3.1904319E-01;0;  6.4748168E-02;  3.8310230E+04;  0.0000000E+00; -1.5539241E-01;  4.0000000E+04;  0.0000000E+00;  3.9979262E+04;  7.6982275E-02;  0.0000000E+00; -1.2234106E-02;  7.9680481E+02;
  6.3087088E-01;  9.9999998E-03;  1.9996904E-01;6339;  4.8869816E-03;  0.0000000E+00; -4.1712872E-03;  9.9931067E+02;  1.0215345E-01; -5.7109491E+02;3;  4.4575377E+00;  0.0000000E+00;  3.0452684E-01;0;  6.4926341E-02;  3.8302082E+04;  0.0000000E+00; -1.1692846E-01;  4.0000000E+04;  0.0000000E+00;  3.9980227E+04;  7.6080680E-02;  0.0000000E+00; -1.1154339E-02;  6.3698785E+02;
  6.3090801E-01;  9.9999998E-03;  2.0994389E-01;6340;  5.5479896E-03;  0.0000000E+00; -4.3604765E-03;  9.9924084E+02;  1.0215411E-01; -6.2896985E+02;3;  4.5639281E+00;  0.0000000E+00;  2.9757622E-01;0;  6.5096736E-02;  3.8292875E+04;  0.0000000E+00; -6.1109241E-02;  4.0000000E+04;  0.0000000E+00;  3.9983691E+04;  7.5290173E-02;  0.0000000E+00; -1.0193441E-02;  1.9057278E+02;
  6.3094515E-01;  9.9999998E-03;  2.1992552E-01;6341;  6.3929544E-03;  0.0000000E+00; -4.4770744E-03;  9.9919708E+02;  1.0215443E-01; -6.6521570E+02;3;  4.7283616E+00;  0.0000000E+00;  3.0680400E-01;0;  6.5265082E-02;  3.8282945E+04;  0.0000000E+00;  1.2117232E-02;  4.0000000E+04;  0.0000000E+00;  3.9990562E+04;  7.4608676E-02;  0.0000000E+00; -9.3435962E-03;  6.9195874E+02;
  6.3098234E-01;  9.9999998E-03;  2.2993349E-01;6342;  7.5516901E-03;  0.0000000E+00; -4.4124625E-03;  9.9915033E+02;  1.0215427E-01; -7.0393066E+02;3;  4.9975481E+00;  0.0000000E+00;  3.6329150E-01;0;  6.5794915E-02;  3.8272680E+04;  0.0000000E+00;  9.8264076E-02;  4.0000000E+04;  0.0000000E+00;  3.9997543E+04;  7.4031718E-02;  0.0000000E+00; -8.2367994E-03;  1.5692466E+03;
  6.4104986E-01;  9.9999998E-03;  7.0007369E-02;6387;  3.8929482E-03;  0.0000000E+00; -1.8476141E-03;  1.0001010E+03;  1.0315657E-01;  8.3651947E+01;3;  4.8096290E+00;  0.0000000E+00;  1.5154353E-01;0;  7.8616507E-02;  3.7622879E+04;  0.0000000E+00; -9.6734293E-02;  4.0000000E+04;  0.0000000E+00;  3.9976434E+04;  1.0187530E-01;  0.0000000E+00; -2.3258790E-02;  3.7022714E+02;
  6.4102495E-01;  9.9999998E-03;  8.0007352E-02;6388;  3.7033109E-03;  0.0000000E+00; -2.0873414E-03;  1.0000529E+03;  1.0315756E-01;  4.3751846E+01;3;  4.7430496E+00;  0.0000000E+00;  1.7559771E-01;0;  7.8321785E-02;  3.7618449E+04;  0.0000000E+00; -1.3782118E-01;  4.0000000E+04;  0.0000000E+00;  3.9975961E+04;  1.0115709E-01;  0.0000000E+00; -2.2835309E-02;  4.4395645E+02;
  6.4099616E-01;  9.9999998E-03;  9.0007044E-02;6389;  3.4965805E-03;  0.0000000E+00; -2.3213704E-03;  1.0000036E+03;  1.0315905E-01;  2.9628789E+00;3;  4.6554132E+00;  0.0000000E+00;  1.9692583E-01;0;  7.7970609E-02;  3.7613938E+04;  0.0000000E+00; -1.8347554E-01;  4.0000000E+04;  0.0000000E+00;  3.9975223E+04;  1.0033087E-01;  0.0000000E+00; -2.2360262E-02;  5.5102130E+02;
  6.4096344E-01;  9.9999998E-03;  1.0000653E-01;6390;  3.3020363E-03;  0.0000000E+00; -2.5495917E-03;  9.9995959E+02;  1.0316058E-01; -3.3480534E+01;3;  4.5639892E+00;  0.0000000E+00;  2.2088033E-01;0;  7.7564925E-02;  3.7609895E+04;  0.0000000E+00; -2.2971924E-01;  4.0000000E+04;  0.0000000E+00;  3.9974219E+04;  9.9395625E-02;  0.0000000E+00; -2.1830697E-02;  6.7849799E+02;
  6.4092797E-01;  9.9999998E-03;  1.1000609E-01;6391;  3.1476705E-03;  0.0000000E+00; -2.7716013E-03;  9.9992188E+02;  1.0316254E-01; -6.4738907E+01;3;  4.4824915E+00;  0.0000000E+00;  2.4063361E-01;0;  7.7112071E-02;  3.7606238E+04;  0.0000000E+00; -2.7162206E-01;  4.0000000E+04;  0.0000000E+00;  3.9973391E+04;  9.8352030E-02;  0.0000000E+00; -2.1239961E-02;  8.0982306E+02;
  6.4089149E-01;  9.9999998E-03;  1.2000604E-01;6392;  3.0508128E-03;  0.0000000E+00; -2.9891618E-03;  9.9988861E+02;  1.0316449E-01; -9.2293678E+01;3;  4.4116707E+00;  0.0000000E+00;  2.6184371E-01;0;  7.6623894E-02;  3.7602508E+04;  0.0000000E+00; -3.0414587E-01;  4.0000000E+04;  0.0000000E+00;  3.9972551E+04;  9.7202025E-02;  0.0000000E+00; -2.0578129E-02;  9.2744055E+02;
  6.4085603E-01;  9.9999998E-03;  1.3000634E-01;6393;  3.0386318E-03;  0.0000000E+00; -3.2013257E-03;  9.9985333E+02;  1.0316669E-01; -1.2152742E+02;3;  4.3719001E+00;  0.0000000E+00;  2.7931553E-01;0;  7.6115049E-02;  3.7599227E+04;  0.0000000E+00; -3.2334527E-01;  4.0000000E+04;  0.0000000E+00;  3.9971660E+04;  9.5948398E-02;  0.0000000E+00; -1.9833349E-02;  1.0164982E+03;
  6.4082366E-01;  9.9999998E-03;  1.4000703E-01;6394;  3.1048162E-03;  0.0000000E+00; -3.4078569E-03;  9.9982605E+02;  1.0316910E-01; -1.4409468E+02;3;  4.3537989E+00;  0.0000000E+00;  2.8475666E-01;0;  7.5602055E-02;  3.7595586E+04;  0.0000000E+00; -3.2743967E-01;  4.0000000E+04;  0.0000000E+00;  3.9971270E+04;  9.4595373E-02;  0.0000000E+00; -1.8993320E-02;  1.0689972E+03;
  6.4079517E-01;  9.9999998E-03;  1.5000828E-01;6395;  3.2517309E-03;  0.0000000E+00; -3.6086550E-03;  9.9979510E+02;  1.0317156E-01; -1.6977296E+02;3;  4.3534031E+00;  0.0000000E+00;  2.9402405E-01;0;  7.5100534E-02;  3.7591820E+04;  0.0000000E+00; -3.1741318E-01;  4.0000000E+04;  0.0000000E+00;  3.9971039E+04;  9.3149200E-02;  0.0000000E+00; -1.8048665E-02;  1.0863094E+03;
  6.4077097E-01;  9.9999998E-03;  1.6000997E-01;6396;  3.4787294E-03;  0.0000000E+00; -3.8066013E-03;  9.9975690E+02;  1.0317384E-01; -2.0142639E+02;3;  4.3664155E+00;  0.0000000E+00;  3.0104569E-01;0;  7.4616566E-02;  3.7587074E+04;  0.0000000E+00; -2.9685077E-01;  4.0000000E+04;  0.0000000E+00;  3.9970918E+04;  9.1620125E-02;  0.0000000E+00; -1.7003562E-02;  1.0784451E+03;
  6.4075410E-01;  9.9999998E-03;  1.7001015E-01;6397;  3.7856966E-03;  0.0000000E+00; -4.0023755E-03;  9.9970209E+02;  1.0317647E-01; -2.4680782E+02;3;  4.3965101E+00;  0.0000000E+00;  2.9921773E-01;0;  7.4148513E-02;  3.7581340E+04;  0.0000000E+00; -2.6966462E-01;  4.0000000E+04;  0.0000000E+00;  3.9970820E+04;  9.0027563E-02;  0.0000000E+00; -1.5879048E-02;  1.0587791E+03;
  6.4075261E-01;  9.9999998E-03;  1.8000440E-01;6398;  4.1781892E-03;  0.0000000E+00; -4.2003198E-03;  9.9963098E+02;  1.0317879E-01; -3.0571973E+02;3;  4.4317470E+00;  0.0000000E+00;  2.9350182E-01;0;  7.3690921E-02;  3.7574496E+04;  0.0000000E+00; -2.3668838E-01;  4.0000000E+04;  0.0000000E+00;  3.9970848E+04;  8.8400133E-02;  0.0000000E+00; -1.4709215E-02;  1.0306218E+03;
  6.4076799E-01;  9.9999998E-03;  1.8999125E-01;6399;  4.6630348E-03;  0.0000000E+00; -4.4028801E-03;  9.9953815E+02;  1.0318115E-01; -3.8265582E+02;3;  4.5013576E+00;  0.0000000E+00;  2.8839484E-01;0;  7.3222436E-02;  3.7565695E+04;  0.0000000E+00; -1.9483003E-01;  4.0000000E+04;  0.0000000E+00;  3.9971023E+04;  8.6760864E-02;  0.0000000E+00; -1.3538427E-02;  9.6197333E+02;
  6.4079136E-01;  9.9999998E-03;  1.9997224E-01;6400;  5.2483403E-03;  0.0000000E+00; -4.6144254E-03;  9.9943408E+02;  1.0318273E-01; -4.6887558E+02;3;  4.5856452E+00;  0.0000000E+00;  2.7043250E-01;0;  7.2695091E-02;  3.7555680E+04;  0.0000000E+00; -1.3904062E-01;  4.0000000E+04;  0.0000000E+00;  3.9972562E+04;  8.5125230E-02;  0.0000000E+00; -1.2430141E-02;  7.5923077E+02;
  6.4081585E-01;  9.9999998E-03;  2.0995142E-01;6401;  5.9285113E-03;  0.0000000E+00; -4.8235445E-03;  9.9933893E+02;  1.0318427E-01; -5.4768817E+02;3;  4.6966929E+00;  0.0000000E+00;  2.6443678E-01;0;  7.2043329E-02;  3.7544227E+04;  0.0000000E+00; -6.6608511E-02;  4.0000000E+04;  0.0000000E+00;  3.9976234E+04;  8.3516993E-02;  0.0000000E+00; -1.1473660E-02;  2.6755435E+02;
  6.4083815E-01;  9.9999998E-03;  2.1993989E-01;6402;  6.7648790E-03;  0.0000000E+00; -4.9650418E-03;  9.9926807E+02;  1.0318518E-01; -6.0640253E+02;3;  4.8658705E+00;  0.0000000E+00;  2.6860639E-01;0;  7.1281374E-02;  3.7532277E+04;  0.0000000E+00;  1.9756848E-02;  4.0000000E+04;  0.0000000E+00;  3.9982938E+04;  8.1967942E-02;  0.0000000E+00; -1.0686566E-02;  6.0328857E+02;
  6.4085829E-01;  9.9999998E-03;  2.2995242E-01;6403;  7.8361509E-03;  0.0000000E+00; -4.9690036E-03;  9.9918127E+02;  1.0318498E-01; -6.7830176E+02;3;  5.1053839E+00;  0.0000000E+00;  3.1158370E-01;0;  7.0664681E-02;  3.7519883E+04;  0.0000000E+00;  1.0783032E-01;  4.0000000E+04;  0.0000000E+00;  3.9989816E+04;  8.0520488E-02;  0.0000000E+00; -9.8558040E-03;  1.4548203E+03;
  6.5100360E-01;  9.9999998E-03;  6.9996238E-02;6448;  5.9151016E-03;  0.0000000E+00; -1.8922645E-03;  1.0005863E+03;  1.0447907E-01;  4.8571463E+02;3;  5.4057245E+00;  0.0000000E+00;  1.3652304E-01;0;  8.4955603E-02;  3.6710371E+04;  0.0000000E+00; -1.9651371E-01;  4.0000000E+04;  0.0000000E+00;  3.9968691E+04;  1.0966280E-01;  0.0000000E+00; -2.4707202E-02;  3.9550607E+02;
  6.5097409E-01;  9.9999998E-03;  7.9995543E-02;6449;  5.5618770E-03;  0.0000000E+00; -2.1506764E-03;  1.0005273E+03;  1.0448135E-01;  4.3692587E+02;3;  5.2847743E+00;  0.0000000E+00;  1.5558578E-01;0;  8.5163124E-02;  3.6704848E+04;  0.0000000E+00; -2.5700256E-01;  4.0000000E+04;  0.0000000E+00;  3.9968184E+04;  1.0948047E-01;  0.0000000E+00; -2.4317345E-02;  5.1311005E+02;
  6.5094358E-01;  9.9999998E-03;  8.9994870E-02;6450;  5.1748301E-03;  0.0000000E+00; -2.4061818E-03;  1.0004796E+03;  1.0448404E-01;  3.9732205E+02;3;  5.1364903E+00;  0.0000000E+00;  1.7309727E-01;0;  8.5318252E-02;  3.6699527E+04;  0.0000000E+00; -3.1819472E-01;  4.0000000E+04;  0.0000000E+00;  3.9967332E+04;  1.0918877E-01;  0.0000000E+00; -2.3870518E-02;  6.5417499E+02;
  6.5091306E-01;  9.9999998E-03;  9.9994279E-02;6451;  4.7891075E-03;  0.0000000E+00; -2.6557022E-03;  1.0004328E+03;  1.0448698E-01;  3.5860712E+02;3;  4.9838319E+00;  0.0000000E+00;  1.9182488E-01;0;  8.5403331E-02;  3.6694980E+04;  0.0000000E+00; -3.7418872E-01;  4.0000000E+04;  0.0000000E+00;  3.9966043E+04;  1.0876549E-01;  0.0000000E+00; -2.3362158E-02;  8.0623425E+02;
  6.5088356E-01;  9.9999998E-03;  1.0999416E-01;6452;  4.4383402E-03;  0.0000000E+00; -2.9040070E-03;  1.0003975E+03;  1.0449031E-01;  3.2927463E+02;3;  4.8408294E+00;  0.0000000E+00;  2.1928383E-01;0;  8.5404269E-02;  3.6690723E+04;  0.0000000E+00; -4.1860104E-01;  4.0000000E+04;  0.0000000E+00;  3.9964965E+04;  1.0818853E-01;  0.0000000E+00; -2.2784261E-02;  9.5308435E+02;
  6.5085614E-01;  9.9999998E-03;  1.1999445E-01;6453;  4.1564172E-03;  0.0000000E+00; -3.1519081E-03;  1.0003643E+03;  1.0449348E-01;  3.0181860E+02;3;  4.7124028E+00;  0.0000000E+00;  2.3409244E-01;0;  8.5311323E-02;  3.6686660E+04;  0.0000000E+00; -4.4582316E-01;  4.0000000E+04;  0.0000000E+00;  3.9963879E+04;  1.0743690E-01;  0.0000000E+00; -2.2125576E-02;  1.0774659E+03;
  6.5083253E-01;  9.9999998E-03;  1.2999517E-01;6454;  3.9752410E-03;  0.0000000E+00; -3.3983670E-03;  1.0003379E+03;  1.0449734E-01;  2.7989331E+02;3;  4.6092539E+00;  0.0000000E+00;  2.4665466E-01;0;  8.5119732E-02;  3.6683180E+04;  0.0000000E+00; -4.5248166E-01;  4.0000000E+04;  0.0000000E+00;  3.9963094E+04;  1.0649297E-01;  0.0000000E+00; -2.1373235E-02;  1.1658259E+03;
  6.5081453E-01;  9.9999998E-03;  1.3999639E-01;6455;  3.9141243E-03;  0.0000000E+00; -3.6409891E-03;  1.0003121E+03;  1.0450092E-01;  2.5856058E+02;3;  4.5518456E+00;  0.0000000E+00;  2.5842217E-01;0;  8.4828526E-02;  3.6678816E+04;  0.0000000E+00; -4.3852720E-01;  4.0000000E+04;  0.0000000E+00;  3.9962504E+04;  1.0534277E-01;  0.0000000E+00; -2.0514246E-02;  1.2125214E+03;
  6.5080345E-01;  9.9999998E-03;  1.4999799E-01;6456;  3.9680405E-03;  0.0000000E+00; -3.8814514E-03;  1.0002827E+03;  1.0450477E-01;  2.3416620E+02;3;  4.5221062E+00;  0.0000000E+00;  2.6446259E-01;0;  8.4438197E-02;  3.6674305E+04;  0.0000000E+00; -4.0750685E-01;  4.0000000E+04;  0.0000000E+00;  3.9962160E+04;  1.0397724E-01;  0.0000000E+00; -1.9539043E-02;  1.2216996E+03;
  6.5080005E-01;  9.9999998E-03;  1.5999956E-01;6457;  4.1400683E-03;  0.0000000E+00; -4.1185278E-03;  1.0002390E+03;  1.0450928E-01;  1.9792032E+02;3;  4.5182300E+00;  0.0000000E+00;  2.6731119E-01;0;  8.3943367E-02;  3.6668531E+04;  0.0000000E+00; -3.6578754E-01;  4.0000000E+04;  0.0000000E+00;  3.9961715E+04;  1.0239680E-01;  0.0000000E+00; -1.8453436E-02;  1.2041816E+03;
  6.5080363E-01;  9.9999998E-03;  1.7000069E-01;6458;  4.4260435E-03;  0.0000000E+00; -4.3486054E-03;  1.0001780E+03;  1.0451332E-01;  1.4745261E+02;3;  4.5528131E+00;  0.0000000E+00;  2.6647896E-01;0;  8.3328336E-02;  3.6661766E+04;  0.0000000E+00; -3.1895903E-01;  4.0000000E+04;  0.0000000E+00;  3.9961660E+04;  1.0061072E-01;  0.0000000E+00; -1.7282385E-02;  1.1693027E+03;
  6.5081245E-01;  9.9999998E-03;  1.8000036E-01;6459;  4.8152944E-03;  0.0000000E+00; -4.5757350E-03;  1.0000955E+03;  1.0451718E-01;  7.9108871E+01;3;  4.5998483E+00;  0.0000000E+00;  2.5935739E-01;0;  8.2572460E-02;  3.6653355E+04;  0.0000000E+00; -2.6800036E-01;  4.0000000E+04;  0.0000000E+00;  3.9961918E+04;  9.8638229E-02;  0.0000000E+00; -1.6065769E-02;  1.1156465E+03;
  6.5082288E-01;  9.9999998E-03;  1.8999775E-01;6460;  5.2996990E-03;  0.0000000E+00; -4.7993073E-03;  9.9998651E+02;  1.0452078E-01; -1.1160177E+01;3;  4.6722908E+00;  0.0000000E+00;  2.5581136E-01;0;  8.1652388E-02;  3.6643070E+04;  0.0000000E+00; -2.0925826E-01;  4.0000000E+04;  0.0000000E+00;  3.9962379E+04;  9.6508130E-02;  0.0000000E+00; -1.4855742E-02;  1.0202589E+03;
  6.5082747E-01;  9.9999998E-03;  1.9999336E-01;6461;  5.8816886E-03;  0.0000000E+00; -5.0164466E-03;  9.9986041E+02;  1.0452393E-01; -1.1565104E+02;3;  4.7751231E+00;  0.0000000E+00;  2.4734075E-01;0;  8.0540739E-02;  3.6630895E+04;  0.0000000E+00; -1.3851671E-01;  4.0000000E+04;  0.0000000E+00;  3.9963609E+04;  9.4258599E-02;  0.0000000E+00; -1.3717858E-02;  8.2895947E+02;
  6.5081596E-01;  9.9999998E-03;  2.0999055E-01;6462;  6.5436279E-03;  0.0000000E+00; -5.2330620E-03;  9.9972314E+02;  1.0452615E-01; -2.2937621E+02;3;  4.8812242E+00;  0.0000000E+00;  2.3944058E-01;0;  7.9186745E-02;  3.6617559E+04;  0.0000000E+00; -5.6023326E-02;  4.0000000E+04;  0.0000000E+00;  3.9966125E+04;  9.1936275E-02;  0.0000000E+00; -1.2749529E-02;  4.7432193E+02;
  6.5077507E-01;  9.9999998E-03;  2.3000142E-01;6464;  8.2395757E-03;  0.0000000E+00; -5.4930132E-03;  9.9946301E+02;  1.0452833E-01; -4.4487628E+02;3;  5.2180057E+00;  0.0000000E+00;  2.7673525E-01;0;  7.5916924E-02;  3.6588984E+04;  0.0000000E+00;  8.0708310E-02;  4.0000000E+04;  0.0000000E+00;  3.9976043E+04;  8.7393761E-02;  0.0000000E+00; -1.1476840E-02;  8.1409717E+02;
  6.5079093E-01;  9.9999998E-03;  2.1999176E-01;6463;  7.3126806E-03;  0.0000000E+00; -5.4112738E-03;  9.9959241E+02;  1.0452796E-01; -3.3766943E+02;3;  5.0303116E+00;  0.0000000E+00;  2.4930218E-01;0;  7.7586368E-02;  3.6603191E+04;  0.0000000E+00;  2.6553888E-02;  4.0000000E+04;  0.0000000E+00;  3.9970555E+04;  8.9614868E-02;  0.0000000E+00; -1.2028503E-02;  1.0077766E+02;
  6.6098440E-01;  9.9999998E-03;  6.9980174E-02;6509;  8.7290732E-03;  0.0000000E+00; -1.8543655E-03;  1.0009452E+03;  1.0609844E-01;  7.8308893E+02;3;  6.1888604E+00;  0.0000000E+00;  1.4634120E-01;0;  8.9369565E-02;  3.5619250E+04;  0.0000000E+00; -2.6707059E-01;  4.0000000E+04;  0.0000000E+00;  3.9958875E+04;  1.1558934E-01;  0.0000000E+00; -2.6219778E-02;  4.7387735E+02;
  6.6096109E-01;  9.9999998E-03;  7.9978436E-02;6510;  8.3118780E-03;  0.0000000E+00; -2.1288372E-03;  1.0008969E+03;  1.0610209E-01;  7.4309003E+02;3;  6.0442529E+00;  0.0000000E+00;  1.6616642E-01;0;  9.0109445E-02;  3.5613363E+04;  0.0000000E+00; -3.3995736E-01;  4.0000000E+04;  0.0000000E+00;  3.9958195E+04;  1.1595883E-01;  0.0000000E+00; -2.5849385E-02;  6.1552942E+02;
  6.6093630E-01;  9.9999998E-03;  8.9977562E-02;6511;  7.8307465E-03;  0.0000000E+00; -2.4063957E-03;  1.0008577E+03;  1.0610646E-01;  7.1059711E+02;3;  5.8757863E+00;  0.0000000E+00;  1.8605456E-01;0;  9.0804182E-02;  3.5608434E+04;  0.0000000E+00; -4.0989050E-01;  4.0000000E+04;  0.0000000E+00;  3.9957238E+04;  1.1621872E-01;  0.0000000E+00; -2.5414540E-02;  7.7199164E+02;
  6.6091084E-01;  9.9999998E-03;  9.9977605E-02;6512;  7.3161195E-03;  0.0000000E+00; -2.6844642E-03;  1.0008325E+03;  1.0611106E-01;  6.8965948E+02;3;  5.6922007E+00;  0.0000000E+00;  1.9448903E-01;0;  9.1415524E-02;  3.5604203E+04;  0.0000000E+00; -4.6933714E-01;  4.0000000E+04;  0.0000000E+00;  3.9955988E+04;  1.1632493E-01;  0.0000000E+00; -2.4909405E-02;  9.3079346E+02;
  6.6088563E-01;  9.9999998E-03;  1.0997862E-01;6513;  6.8044881E-03;  0.0000000E+00; -2.9620444E-03;  1.0008172E+03;  1.0611635E-01;  6.7701782E+02;3;  5.5027061E+00;  0.0000000E+00;  2.2122976E-01;0;  9.1909207E-02;  3.5600676E+04;  0.0000000E+00; -5.1080680E-01;  4.0000000E+04;  0.0000000E+00;  3.9954719E+04;  1.1623438E-01;  0.0000000E+00; -2.4325175E-02;  1.0752412E+03;
  6.6086197E-01;  9.9999998E-03;  1.1998086E-01;6514;  6.3388194E-03;  0.0000000E+00; -3.2416282E-03;  1.0008111E+03;  1.0612210E-01;  6.7198096E+02;3;  5.3134313E+00;  0.0000000E+00;  2.3134109E-01;0;  9.2256345E-02;  3.5597277E+04;  0.0000000E+00; -5.2854615E-01;  4.0000000E+04;  0.0000000E+00;  3.9953648E+04;  1.1590675E-01;  0.0000000E+00; -2.3650406E-02;  1.1884646E+03;
  6.6084069E-01;  9.9999998E-03;  1.2998445E-01;6515;  5.9642112E-03;  0.0000000E+00; -3.5197884E-03;  1.0008086E+03;  1.0612793E-01;  6.6990692E+02;3;  5.1422892E+00;  0.0000000E+00;  2.4732794E-01;0;  9.2434175E-02;  3.5593895E+04;  0.0000000E+00; -5.2022368E-01;  4.0000000E+04;  0.0000000E+00;  3.9952598E+04;  1.1530656E-01;  0.0000000E+00; -2.2872383E-02;  1.2586482E+03;
  6.6082323E-01;  9.9999998E-03;  1.3998929E-01;6516;  5.7131140E-03;  0.0000000E+00; -3.7978622E-03;  1.0008066E+03;  1.0613424E-01;  6.6822797E+02;3;  5.0234499E+00;  0.0000000E+00;  2.5242931E-01;0;  9.2425883E-02;  3.5590277E+04;  0.0000000E+00; -4.8782241E-01;  4.0000000E+04;  0.0000000E+00;  3.9952117E+04;  1.1440450E-01;  0.0000000E+00; -2.1978613E-02;  1.2829025E+03;
  6.6081083E-01;  9.9999998E-03;  1.4999518E-01;6517;  5.5988324E-03;  0.0000000E+00; -4.0721032E-03;  1.0007928E+03;  1.0614111E-01;  6.5687024E+02;3;  4.9372044E+00;  0.0000000E+00;  2.5702703E-01;0;  9.2218652E-02;  3.5585613E+04;  0.0000000E+00; -4.3736735E-01;  4.0000000E+04;  0.0000000E+00;  3.9951660E+04;  1.1317904E-01;  0.0000000E+00; -2.0960381E-02;  1.2681216E+03;
  6.6080427E-01;  9.9999998E-03;  1.6000198E-01;6518;  5.6289420E-03;  0.0000000E+00; -4.3366365E-03;  1.0007567E+03;  1.0614753E-01;  6.2694519E+02;3;  4.8792133E+00;  0.0000000E+00;  2.6653519E-01;0;  9.1795392E-02;  3.5579840E+04;  0.0000000E+00; -3.7717599E-01;  4.0000000E+04;  0.0000000E+00;  3.9951344E+04;  1.1162066E-01;  0.0000000E+00; -1.9825272E-02;  1.2259667E+03;
  6.6080385E-01;  9.9999998E-03;  1.7000946E-01;6519;  5.8059436E-03;  0.0000000E+00; -4.5918934E-03;  1.0007035E+03;  1.0615346E-01;  5.8279828E+02;3;  4.8837175E+00;  0.0000000E+00;  2.6897797E-01;0;  9.1133900E-02;  3.5572129E+04;  0.0000000E+00; -3.1337413E-01;  4.0000000E+04;  0.0000000E+00;  3.9951398E+04;  1.0973547E-01;  0.0000000E+00; -1.8601567E-02;  1.1641307E+03;
  6.6080952E-01;  9.9999998E-03;  1.8001688E-01;6520;  6.1098342E-03;  0.0000000E+00; -4.8342240E-03;  1.0006212E+03;  1.0615946E-01;  5.1465210E+02;3;  4.9096947E+00;  0.0000000E+00;  2.6797238E-01;0;  9.0210974E-02;  3.5562699E+04;  0.0000000E+00; -2.4673556E-01;  4.0000000E+04;  0.0000000E+00;  3.9951730E+04;  1.0754389E-01;  0.0000000E+00; -1.7332911E-02;  1.0809891E+03;
  6.6081977E-01;  9.9999998E-03;  1.9002478E-01;6521;  6.5286099E-03;  0.0000000E+00; -5.0642085E-03;  1.0005051E+03;  1.0616504E-01;  4.1845728E+02;3;  4.9623213E+00;  0.0000000E+00;  2.6603895E-01;0;  8.9013234E-02;  3.5551180E+04;  0.0000000E+00; -1.7441057E-01;  4.0000000E+04;  0.0000000E+00;  3.9952375E+04;  1.0508570E-01;  0.0000000E+00; -1.6072465E-02;  9.6651532E+02;
  6.6083157E-01;  9.9999998E-03;  2.0003425E-01;6522;  7.0374859E-03;  0.0000000E+00; -5.2811601E-03;  1.0003563E+03;  1.0617018E-01;  2.9520151E+02;3;  5.0473528E+00;  0.0000000E+00;  2.6640561E-01;0;  8.7532476E-02;  3.5537785E+04;  0.0000000E+00; -9.4760269E-02;  4.0000000E+04;  0.0000000E+00;  3.9953309E+04;  1.0241479E-01;  0.0000000E+00; -1.4882312E-02;  8.1075006E+02;
  6.6084129E-01;  9.9999998E-03;  2.1004632E-01;6523;  7.6064202E-03;  0.0000000E+00; -5.4958309E-03;  1.0001826E+03;  1.0617392E-01;  1.5130435E+02;3;  5.1235523E+00;  0.0000000E+00;  2.5758636E-01;0;  8.5749574E-02;  3.5522277E+04;  0.0000000E+00; -1.4098503E-02;  4.0000000E+04;  0.0000000E+00;  3.9954457E+04;  9.9600747E-02;  0.0000000E+00; -1.3851174E-02;  6.1976477E+02;
  6.6084552E-01;  9.9999998E-03;  2.2005965E-01;6524;  8.2187625E-03;  0.0000000E+00; -5.7137739E-03;  9.9998755E+02;  1.0617704E-01; -1.0320695E+01;3;  5.2297602E+00;  0.0000000E+00;  2.6528543E-01;0;  8.3610691E-02;  3.5505875E+04;  0.0000000E+00;  4.5200780E-02;  4.0000000E+04;  0.0000000E+00;  3.9956016E+04;  9.6729770E-02;  0.0000000E+00; -1.3119080E-02;  3.9609686E+02;
  6.6084051E-01;  9.9999998E-03;  2.3006918E-01;6525;  8.9094779E-03;  0.0000000E+00; -5.8997050E-03;  9.9979376E+02;  1.0617924E-01; -1.7085936E+02;3;  5.3555441E+00;  0.0000000E+00;  2.7585679E-01;0;  8.1121288E-02;  3.5489359E+04;  0.0000000E+00;  3.4344830E-02;  4.0000000E+04;  0.0000000E+00;  3.9959262E+04;  9.3911417E-02;  0.0000000E+00; -1.2790128E-02;  4.1706958E+00;
  6.7094117E-01;  9.9999998E-03;  6.9969177E-02;6570;  1.1240882E-02;  0.0000000E+00; -1.7308331E-03;  1.0008688E+03;  1.0798641E-01;  7.1978204E+02;3;  6.6838856E+00;  0.0000000E+00;  1.2920690E-01;0;  9.1572389E-02;  3.4374344E+04;  0.0000000E+00; -2.8809857E-01;  4.0000000E+04;  0.0000000E+00;  3.9946855E+04;  1.1940325E-01;  0.0000000E+00; -2.7830863E-02;  5.2065570E+02;
  6.7093521E-01;  9.9999998E-03;  7.9965897E-02;6571;  1.0980168E-02;  0.0000000E+00; -2.0082095E-03;  1.0008463E+03;  1.0799275E-01;  7.0111591E+02;3;  6.6247597E+00;  0.0000000E+00;  1.6486013E-01;0;  9.2831470E-02;  3.4369168E+04;  0.0000000E+00; -3.6238477E-01;  4.0000000E+04;  0.0000000E+00;  3.9946141E+04;  1.2028842E-01;  0.0000000E+00; -2.7456949E-02;  6.6849579E+02;
  6.7092890E-01;  9.9999998E-03;  8.9963764E-02;6572;  1.0651157E-02;  0.0000000E+00; -2.2945723E-03;  1.0008382E+03;  1.0799950E-01;  6.9440009E+02;3;  6.5257268E+00;  0.0000000E+00;  1.9234584E-01;0;  9.4060078E-02;  3.4364797E+04;  0.0000000E+00; -4.3076864E-01;  4.0000000E+04;  0.0000000E+00;  3.9944988E+04;  1.2106963E-01;  0.0000000E+00; -2.7009552E-02;  8.2508856E+02;
  6.7092222E-01;  9.9999998E-03;  9.9963054E-02;6573;  1.0262974E-02;  0.0000000E+00; -2.5918155E-03;  1.0008469E+03;  1.0800669E-01;  7.0170850E+02;3;  6.3942785E+00;  0.0000000E+00;  2.1939886E-01;0;  9.5198579E-02;  3.4361652E+04;  0.0000000E+00; -4.8474336E-01;  4.0000000E+04;  0.0000000E+00;  3.9943672E+04;  1.2168031E-01;  0.0000000E+00; -2.6481733E-02;  9.7658716E+02;
  6.7091525E-01;  9.9999998E-03;  1.0996387E-01;6574;  9.8408451E-03;  0.0000000E+00; -2.8955408E-03;  1.0008744E+03;  1.0801467E-01;  7.2442389E+02;3;  6.2467484E+00;  0.0000000E+00;  2.3329009E-01;0;  9.6193157E-02;  3.4359395E+04;  0.0000000E+00; -5.1642752E-01;  4.0000000E+04;  0.0000000E+00;  3.9942723E+04;  1.2205802E-01;  0.0000000E+00; -2.5864864E-02;  1.1056639E+03;
  6.7090851E-01;  9.9999998E-03;  1.1996683E-01;6575;  9.4128707E-03;  0.0000000E+00; -3.1985282E-03;  1.0009100E+03;  1.0802379E-01;  7.5385516E+02;3;  6.0723581E+00;  0.0000000E+00;  2.5642556E-01;0;  9.6994974E-02;  3.4357324E+04;  0.0000000E+00; -5.2053696E-01;  4.0000000E+04;  0.0000000E+00;  3.9941551E+04;  1.2214341E-01;  0.0000000E+00; -2.5148436E-02;  1.1961573E+03;
  6.7090231E-01;  9.9999998E-03;  1.2997222E-01;6576;  9.0125948E-03;  0.0000000E+00; -3.5023286E-03;  1.0009464E+03;  1.0803253E-01;  7.8407654E+02;3;  5.8980341E+00;  0.0000000E+00;  2.6844826E-01;0;  9.7563162E-02;  3.4355098E+04;  0.0000000E+00; -4.9605802E-01;  4.0000000E+04;  0.0000000E+00;  3.9940715E+04;  1.2188430E-01;  0.0000000E+00; -2.4321141E-02;  1.2381079E+03;
  6.7089725E-01;  9.9999998E-03;  1.3997978E-01;6577;  8.6780805E-03;  0.0000000E+00; -3.8051438E-03;  1.0009843E+03;  1.0804205E-01;  8.1548303E+02;3;  5.7428288E+00;  0.0000000E+00;  2.7193642E-01;0;  9.7868145E-02;  3.4352336E+04;  0.0000000E+00; -4.4673893E-01;  4.0000000E+04;  0.0000000E+00;  3.9940227E+04;  1.2124050E-01;  0.0000000E+00; -2.3372356E-02;  1.2308260E+03;
  6.7089355E-01;  9.9999998E-03;  1.4998913E-01;6578;  8.4401630E-03;  0.0000000E+00; -4.0986980E-03;  1.0010001E+03;  1.0805163E-01;  8.2861847E+02;3;  5.6063671E+00;  0.0000000E+00;  2.8615376E-01;0;  9.7887799E-02;  3.4348648E+04;  0.0000000E+00; -3.8027605E-01;  4.0000000E+04;  0.0000000E+00;  3.9940180E+04;  1.2018324E-01;  0.0000000E+00; -2.2295438E-02;  1.1827615E+03;
  6.7089188E-01;  9.9999998E-03;  1.6000013E-01;6579;  8.3235651E-03;  0.0000000E+00; -4.3832157E-03;  1.0009962E+03;  1.0806111E-01;  8.2535931E+02;3;  5.5063095E+00;  0.0000000E+00;  3.0614942E-01;0;  9.7599655E-02;  3.4343023E+04;  0.0000000E+00; -3.0583382E-01;  4.0000000E+04;  0.0000000E+00;  3.9940254E+04;  1.1869892E-01;  0.0000000E+00; -2.1099264E-02;  1.1042925E+03;
  6.7089236E-01;  9.9999998E-03;  1.7001309E-01;6580;  8.3225891E-03;  0.0000000E+00; -4.6519255E-03;  1.0009572E+03;  1.0807063E-01;  7.9296515E+02;3;  5.4425921E+00;  0.0000000E+00;  3.1576532E-01;0;  9.6974596E-02;  3.4335484E+04;  0.0000000E+00; -2.2940956E-01;  4.0000000E+04;  0.0000000E+00;  3.9940449E+04;  1.1678673E-01;  0.0000000E+00; -1.9812129E-02;  9.9892896E+02;
  6.7089409E-01;  9.9999998E-03;  1.8002881E-01;6581;  8.4363697E-03;  0.0000000E+00; -4.8986534E-03;  1.0008858E+03;  1.0807890E-01;  7.3390509E+02;3;  5.4215045E+00;  0.0000000E+00;  3.2330063E-01;0;  9.5996074E-02;  3.4325391E+04;  0.0000000E+00; -1.5232123E-01;  4.0000000E+04;  0.0000000E+00;  3.9941152E+04;  1.1447065E-01;  0.0000000E+00; -1.8474581E-02;  8.6423041E+02;
  6.7089462E-01;  9.9999998E-03;  1.9004864E-01;6582;  8.6496016E-03;  0.0000000E+00; -5.1274942E-03;  1.0007754E+03;  1.0808765E-01;  6.4235217E+02;3;  5.4116912E+00;  0.0000000E+00;  3.2581270E-01;0;  9.4663762E-02;  3.4313176E+04;  0.0000000E+00; -7.3987044E-02;  4.0000000E+04;  0.0000000E+00;  3.9942164E+04;  1.1179587E-01;  0.0000000E+00; -1.7132113E-02;  7.0559448E+02;
  6.7089194E-01;  9.9999998E-03;  2.0007357E-01;6583;  8.9399200E-03;  0.0000000E+00; -5.3387815E-03;  1.0006286E+03;  1.0809516E-01;  5.2077533E+02;3;  5.4302454E+00;  0.0000000E+00;  3.3354315E-01;0;  9.2997104E-02;  3.4298609E+04;  0.0000000E+00;  2.5745421E-03;  4.0000000E+04;  0.0000000E+00;  3.9942930E+04;  1.0882884E-01;  0.0000000E+00; -1.5831741E-02;  5.6281464E+02;
  6.7088383E-01;  9.9999998E-03;  2.1010292E-01;6584;  9.2902742E-03;  0.0000000E+00; -5.5433679E-03;  1.0004303E+03;  1.0810217E-01;  3.5653311E+02;3;  5.4755883E+00;  0.0000000E+00;  3.4296426E-01;0;  9.1021538E-02;  3.4282156E+04;  0.0000000E+00;  6.2444761E-02;  4.0000000E+04;  0.0000000E+00;  3.9943004E+04;  1.0565767E-01;  0.0000000E+00; -1.4636131E-02;  5.2662573E+02;
  6.7087120E-01;  9.9999998E-03;  2.2012873E-01;6585;  9.6609015E-03;  0.0000000E+00; -5.7909028E-03;  1.0001954E+03;  1.0810784E-01;  1.6187195E+02;3;  5.4940600E+00;  0.0000000E+00;  3.3418778E-01;0;  8.8657089E-02;  3.4264707E+04;  0.0000000E+00;  6.7907669E-02;  4.0000000E+04;  0.0000000E+00;  3.9942242E+04;  1.0238220E-01;  0.0000000E+00; -1.3725108E-02;  6.1128259E+02;
  6.7085397E-01;  9.9999998E-03;  2.3013736E-01;6586;  9.9907033E-03;  0.0000000E+00; -6.0739685E-03;  9.9996204E+02;  1.0811196E-01; -3.1455898E+01;3;  5.5253930E+00;  0.0000000E+00;  3.2518399E-01;0;  8.5734926E-02;  3.4246996E+04;  0.0000000E+00; -5.7462748E-02;  4.0000000E+04;  0.0000000E+00;  3.9943086E+04;  9.9107385E-02;  0.0000000E+00; -1.3372460E-02;  5.0958557E+02;
  6.8091697E-01;  9.9999998E-03;  6.9967888E-02;6631;  1.2678175E-02;  0.0000000E+00; -1.6971364E-03;  1.0002957E+03;  1.1012562E-01;  2.4503009E+02;3;  6.6198134E+00;  0.0000000E+00; -2.5036776E-02;0;  9.1356933E-02;  3.3013699E+04;  0.0000000E+00; -2.4943185E-01;  4.0000000E+04;  0.0000000E+00;  3.9932902E+04;  1.2095284E-01;  0.0000000E+00; -2.9595912E-02;  4.9287158E+02;
  6.8092746E-01;  9.9999998E-03;  7.9964831E-02;6632;  1.2659357E-02;  0.0000000E+00; -1.9629702E-03;  1.0003076E+03;  1.1013468E-01;  2.5480759E+02;3;  6.6386433E+00;  0.0000000E+00; -8.6578764E-03;0;  9.3033023E-02;  3.3009422E+04;  0.0000000E+00; -3.1126860E-01;  4.0000000E+04;  0.0000000E+00;  3.9932215E+04;  1.2221944E-01;  0.0000000E+00; -2.9186418E-02;  6.2651483E+02;
  6.8093824E-01;  9.9999998E-03;  8.9963064E-02;6633;  1.2603547E-02;  0.0000000E+00; -2.2388597E-03;  1.0003438E+03;  1.1014516E-01;  2.8483142E+02;3;  6.6720605E+00;  0.0000000E+00;  3.8930554E-02;0;  9.4701350E-02;  3.3006242E+04;  0.0000000E+00; -3.6521643E-01;  4.0000000E+04;  0.0000000E+00;  3.9931367E+04;  1.2339324E-01;  0.0000000E+00; -2.8691890E-02;  7.6603448E+02;
  6.8094891E-01;  9.9999998E-03;  9.9962853E-02;6634;  1.2509676E-02;  0.0000000E+00; -2.5254849E-03;  1.0004045E+03;  1.1015628E-01;  3.3510162E+02;3;  6.6627293E+00;  0.0000000E+00;  7.9926796E-02;0;  9.6288890E-02;  3.3003906E+04;  0.0000000E+00; -4.0305087E-01;  4.0000000E+04;  0.0000000E+00;  3.9930301E+04;  1.2439428E-01;  0.0000000E+00; -2.8105382E-02;  8.9657074E+02;
  6.8095928E-01;  9.9999998E-03;  1.0996496E-01;6635;  1.2379622E-02;  0.0000000E+00; -2.8196911E-03;  1.0004827E+03;  1.1016810E-01;  3.9988989E+02;3;  6.6450229E+00;  0.0000000E+00;  1.4921221E-01;0;  9.7723477E-02;  3.3003066E+04;  0.0000000E+00; -4.1759661E-01;  4.0000000E+04;  0.0000000E+00;  3.9929176E+04;  1.2514283E-01;  0.0000000E+00; -2.7419349E-02;  1.0008511E+03;
  6.8096900E-01;  9.9999998E-03;  1.1996999E-01;6636;  1.2213379E-02;  0.0000000E+00; -3.1220480E-03;  1.0005752E+03;  1.1018109E-01;  4.7652969E+02;3;  6.5851617E+00;  0.0000000E+00;  2.0018771E-01;0;  9.8936327E-02;  3.3002664E+04;  0.0000000E+00; -4.0471339E-01;  4.0000000E+04;  0.0000000E+00;  3.9928262E+04;  1.2556180E-01;  0.0000000E+00; -2.6625475E-02;  1.0636721E+03;
  6.8097836E-01;  9.9999998E-03;  1.2997794E-01;6637;  1.2033525E-02;  0.0000000E+00; -3.4279742E-03;  1.0006701E+03;  1.1019445E-01;  5.5514478E+02;3;  6.5016594E+00;  0.0000000E+00;  2.3597464E-01;0;  9.9874064E-02;  3.3001824E+04;  0.0000000E+00; -3.6462983E-01;  4.0000000E+04;  0.0000000E+00;  3.9927566E+04;  1.2558965E-01;  0.0000000E+00; -2.5715586E-02;  1.0760879E+03;
  6.8098789E-01;  9.9999998E-03;  1.3998848E-01;6638;  1.1859897E-02;  0.0000000E+00; -3.7351381E-03;  1.0007526E+03;  1.1020771E-01;  6.2348846E+02;3;  6.3969207E+00;  0.0000000E+00;  2.6601455E-01;0;  1.0049310E-01;  3.3000371E+04;  0.0000000E+00; -3.0205452E-01;  4.0000000E+04;  0.0000000E+00;  3.9927195E+04;  1.2517558E-01;  0.0000000E+00; -2.4682483E-02;  1.0380945E+03;
  6.8099809E-01;  9.9999998E-03;  1.5000117E-01;6639;  1.1707580E-02;  0.0000000E+00; -4.0367544E-03;  1.0008149E+03;  1.1022161E-01;  6.7514136E+02;3;  6.2793870E+00;  0.0000000E+00;  2.9076847E-01;0;  1.0075939E-01;  3.2997066E+04;  0.0000000E+00; -2.2506797E-01;  4.0000000E+04;  0.0000000E+00;  3.9927406E+04;  1.2428219E-01;  0.0000000E+00; -2.3522805E-02;  9.5771393E+02;
  6.8100965E-01;  9.9999998E-03;  1.6001542E-01;6640;  1.1594907E-02;  0.0000000E+00; -4.3232222E-03;  1.0008427E+03;  1.1023516E-01;  6.9815302E+02;3;  6.1733713E+00;  0.0000000E+00;  3.1077597E-01;0;  1.0064480E-01;  3.2991828E+04;  0.0000000E+00; -1.4236557E-01;  4.0000000E+04;  0.0000000E+00;  3.9927691E+04;  1.2289176E-01;  0.0000000E+00; -2.2246968E-02;  8.4293994E+02;
  6.8102348E-01;  9.9999998E-03;  1.7003167E-01;6641;  1.1524528E-02;  0.0000000E+00; -4.5917723E-03;  1.0008295E+03;  1.1024840E-01;  6.8728912E+02;3;  6.0759640E+00;  0.0000000E+00;  3.2665864E-01;0;  1.0012280E-01;  3.2983570E+04;  0.0000000E+00; -5.9728712E-02;  4.0000000E+04;  0.0000000E+00;  3.9928824E+04;  1.2100402E-01;  0.0000000E+00; -2.0881215E-02;  6.9463153E+02;
  6.8103939E-01;  9.9999998E-03;  1.8005209E-01;6642;  1.1493821E-02;  0.0000000E+00; -4.8366026E-03;  1.0007745E+03;  1.1026175E-01;  6.4166083E+02;3;  5.9866676E+00;  0.0000000E+00;  3.5341433E-01;0;  9.9184498E-02;  3.2972863E+04;  0.0000000E+00;  1.9850668E-02;  4.0000000E+04;  0.0000000E+00;  3.9930043E+04;  1.1864333E-01;  0.0000000E+00; -1.9458830E-02;  5.1216406E+02;
  6.8105602E-01;  9.9999998E-03;  1.9007838E-01;6643;  1.1489265E-02;  0.0000000E+00; -5.0616767E-03;  1.0006732E+03;  1.1027423E-01;  5.5771259E+02;3;  5.9184666E+00;  0.0000000E+00;  3.6424363E-01;0;  9.7846583E-02;  3.2959297E+04;  0.0000000E+00;  9.3023874E-02;  4.0000000E+04;  0.0000000E+00;  3.9931402E+04;  1.1585835E-01;  0.0000000E+00; -1.8011762E-02;  3.1912878E+02;
  6.8107218E-01;  9.9999998E-03;  2.0011213E-01;6644;  1.1489511E-02;  0.0000000E+00; -5.2691363E-03;  1.0005266E+03;  1.1028607E-01;  4.3623456E+02;3;  5.8431573E+00;  0.0000000E+00;  3.7478131E-01;0;  9.6155323E-02;  3.2943297E+04;  0.0000000E+00;  1.5098788E-01;  4.0000000E+04;  0.0000000E+00;  3.9932773E+04;  1.1272147E-01;  0.0000000E+00; -1.6566148E-02;  2.0899089E+02;
  6.8108577E-01;  9.9999998E-03;  2.1015334E-01;6645;  1.1514691E-02;  0.0000000E+00; -5.4795598E-03;  1.0003231E+03;  1.1029655E-01;  2.6764673E+02;3;  5.7828698E+00;  0.0000000E+00;  3.8636133E-01;0;  9.4174236E-02;  3.2925422E+04;  0.0000000E+00;  1.7146870E-01;  4.0000000E+04;  0.0000000E+00;  3.9932199E+04;  1.0933895E-01;  0.0000000E+00; -1.5164714E-02;  2.1779585E+02;
  6.8109548E-01;  9.9999998E-03;  2.2018993E-01;6646;  1.1593517E-02;  0.0000000E+00; -5.7384484E-03;  1.0000612E+03;  1.1030682E-01;  5.0763992E+01;3;  5.7490554E+00;  0.0000000E+00;  3.9613980E-01;0;  9.1877401E-02;  3.2906496E+04;  0.0000000E+00;  1.0514880E-01;  4.0000000E+04;  0.0000000E+00;  3.9930004E+04;  1.0583803E-01;  0.0000000E+00; -1.3960628E-02;  4.2430786E+02;
  6.8109369E-01;  9.9999998E-03;  2.3019998E-01;6647;  1.1562625E-02;  0.0000000E+00; -6.0790009E-03;  9.9981024E+02;  1.1031567E-01; -1.5723010E+02;3;  5.6737714E+00;  0.0000000E+00;  3.8437086E-01;0;  8.8962689E-02;  3.2887137E+04;  0.0000000E+00; -1.4448266E-01;  4.0000000E+04;  0.0000000E+00;  3.9929215E+04;  1.0228858E-01;  0.0000000E+00; -1.3325892E-02;  6.5645007E+02;
  6.9142342E-01;  9.9999998E-03;  6.9998652E-02;6692;  1.3380563E-02;  0.0000000E+00; -1.8046679E-03;  9.9935217E+02;  1.1259435E-01; -5.3672552E+02;3;  6.3910656E+00;  0.0000000E+00; -2.0247014E-01;0;  8.9007631E-02;  3.1531848E+04;  0.0000000E+00; -1.4909856E-01;  4.0000000E+04;  0.0000000E+00;  3.9916621E+04;  1.2067280E-01;  0.0000000E+00; -3.1665172E-02;  3.8475601E+02;
  6.9147027E-01;  9.9999998E-03;  8.0000527E-02;6693;  1.3518130E-02;  0.0000000E+00; -2.0817295E-03;  9.9940515E+02;  1.1261085E-01; -4.9282553E+02;3;  6.3903408E+00;  0.0000000E+00; -2.1976210E-01;0;  9.0854608E-02;  3.1526021E+04;  0.0000000E+00; -1.8307409E-01;  4.0000000E+04;  0.0000000E+00;  3.9916207E+04;  1.2203744E-01;  0.0000000E+00; -3.1182831E-02;  4.7834583E+02;
  6.9151282E-01;  9.9999998E-03;  9.0002850E-02;6694;  1.3661709E-02;  0.0000000E+00; -2.3632494E-03;  9.9949066E+02;  1.1262813E-01; -4.2196335E+02;3;  6.3889689E+00;  0.0000000E+00; -2.3170909E-01;0;  9.2714816E-02;  3.1522189E+04;  0.0000000E+00; -2.0855723E-01;  4.0000000E+04;  0.0000000E+00;  3.9915340E+04;  1.2331401E-01;  0.0000000E+00; -3.0599196E-02;  5.8310297E+02;
  6.9154924E-01;  9.9999998E-03;  1.0000660E-01;6695;  1.3807878E-02;  0.0000000E+00; -2.6486095E-03;  9.9960608E+02;  1.1264545E-01; -3.2636111E+02;3;  6.4066820E+00;  0.0000000E+00; -2.3183264E-01;0;  9.4510980E-02;  3.1520459E+04;  0.0000000E+00; -2.1918033E-01;  4.0000000E+04;  0.0000000E+00;  3.9914461E+04;  1.2441901E-01;  0.0000000E+00; -2.9908029E-02;  6.8388330E+02;
  6.9157922E-01;  9.9999998E-03;  1.1001281E-01;6696;  1.3953585E-02;  0.0000000E+00; -2.9350526E-03;  9.9975378E+02;  1.1266281E-01; -2.0399422E+02;3;  6.4323268E+00;  0.0000000E+00; -2.1042952E-01;0;  9.6165873E-02;  3.1520525E+04;  0.0000000E+00; -2.0975187E-01;  4.0000000E+04;  0.0000000E+00;  3.9913750E+04;  1.2527040E-01;  0.0000000E+00; -2.9104525E-02;  7.6384253E+02;
  6.9160253E-01;  9.9999998E-03;  1.2002157E-01;6697;  1.4087158E-02;  0.0000000E+00; -3.2213686E-03;  9.9990277E+02;  1.1267979E-01; -8.0540924E+01;3;  6.4678087E+00;  0.0000000E+00; -1.7021056E-01;0;  9.7604483E-02;  3.1521463E+04;  0.0000000E+00; -1.7785224E-01;  4.0000000E+04;  0.0000000E+00;  3.9912895E+04;  1.2578900E-01;  0.0000000E+00; -2.8184516E-02;  8.0808368E+02;
  6.9162077E-01;  9.9999998E-03;  1.3003257E-01;6698;  1.4199430E-02;  0.0000000E+00; -3.5060288E-03;  1.0000612E+03;  1.1269707E-01;  5.0665230E+01;3;  6.5055356E+00;  0.0000000E+00; -1.2378906E-01;0;  9.8759845E-02;  3.1522619E+04;  0.0000000E+00; -1.2466241E-01;  4.0000000E+04;  0.0000000E+00;  3.9912445E+04;  1.2590472E-01;  0.0000000E+00; -2.7144881E-02;  8.0731982E+02;
  6.9163543E-01;  9.9999998E-03;  1.4004539E-01;6699;  1.4282538E-02;  0.0000000E+00; -3.7868000E-03;  1.0001975E+03;  1.1271384E-01;  1.6364967E+02;3;  6.5493884E+00;  0.0000000E+00; -3.5900433E-02;0;  9.9576764E-02;  3.1522678E+04;  0.0000000E+00; -5.4818444E-02;  4.0000000E+04;  0.0000000E+00;  3.9912707E+04;  1.2556051E-01;  0.0000000E+00; -2.5983745E-02;  7.6031122E+02;
  6.9164950E-01;  9.9999998E-03;  1.5005949E-01;6700;  1.4344152E-02;  0.0000000E+00; -4.0646228E-03;  1.0003068E+03;  1.1273111E-01;  2.5421501E+02;3;  6.5805330E+00;  0.0000000E+00;  5.4582525E-02;0;  1.0001787E-01;  3.1520840E+04;  0.0000000E+00;  2.4725180E-02;  4.0000000E+04;  0.0000000E+00;  3.9913047E+04;  1.2472068E-01;  0.0000000E+00; -2.4702810E-02;  6.7441266E+02;
  6.9166589E-01;  9.9999998E-03;  1.6007467E-01;6701;  1.4380793E-02;  0.0000000E+00; -4.3331045E-03;  1.0003708E+03;  1.1274821E-01;  3.0725055E+02;3;  6.5533738E+00;  0.0000000E+00;  1.4570770E-01;0;  1.0004789E-01;  3.1516172E+04;  0.0000000E+00;  1.0700161E-01;  4.0000000E+04;  0.0000000E+00;  3.9914109E+04;  1.2336347E-01;  0.0000000E+00; -2.3315582E-02;  5.6163678E+02;
  6.9168621E-01;  9.9999998E-03;  1.7009191E-01;6702;  1.4391990E-02;  0.0000000E+00; -4.5879558E-03;  1.0003878E+03;  1.1276562E-01;  3.2127484E+02;3;  6.4987063E+00;  0.0000000E+00;  2.3317625E-01;0;  9.9642374E-02;  3.1508080E+04;  0.0000000E+00;  1.8662015E-01;  4.0000000E+04;  0.0000000E+00;  3.9915309E+04;  1.2148894E-01;  0.0000000E+00; -2.1846561E-02;  4.4235925E+02;
  6.9171089E-01;  9.9999998E-03;  1.8011317E-01;6703;  1.4362072E-02;  0.0000000E+00; -4.8294733E-03;  1.0003561E+03;  1.1278380E-01;  2.9510275E+02;3;  6.4080219E+00;  0.0000000E+00;  2.7797315E-01;0;  9.8796673E-02;  3.1496574E+04;  0.0000000E+00;  2.5840664E-01;  4.0000000E+04;  0.0000000E+00;  3.9916996E+04;  1.1911906E-01;  0.0000000E+00; -2.0322390E-02;  3.7046939E+02;
  6.9174117E-01;  9.9999998E-03;  1.9014078E-01;6704;  1.4289484E-02;  0.0000000E+00; -5.0478023E-03;  1.0002689E+03;  1.1280183E-01;  2.2270973E+02;3;  6.3067279E+00;  0.0000000E+00;  2.9974985E-01;0;  9.7546443E-02;  3.1481609E+04;  0.0000000E+00;  3.1533366E-01;  4.0000000E+04;  0.0000000E+00;  3.9918742E+04;  1.1630720E-01;  0.0000000E+00; -1.8760759E-02;  4.1967517E+02;
  6.9177997E-01;  9.9999998E-03;  2.0017798E-01;6705;  1.4175654E-02;  0.0000000E+00; -5.2518961E-03;  1.0001264E+03;  1.1282057E-01;  1.0468839E+02;3;  6.1947560E+00;  0.0000000E+00;  3.2858458E-01;0;  9.5963359E-02;  3.1463324E+04;  0.0000000E+00;  3.4518152E-01;  4.0000000E+04;  0.0000000E+00;  3.9919980E+04;  1.1313191E-01;  0.0000000E+00; -1.7168554E-02;  5.0482394E+02;
  6.9183260E-01;  9.9999998E-03;  2.1022272E-01;6706;  1.4072447E-02;  0.0000000E+00; -5.4711029E-03;  9.9991858E+02;  1.1284044E-01; -6.7454880E+01;3;  6.0826421E+00;  0.0000000E+00;  3.5844591E-01;0;  9.4137505E-02;  3.1441904E+04;  0.0000000E+00;  3.2328764E-01;  4.0000000E+04;  0.0000000E+00;  3.9919133E+04;  1.0971001E-01;  0.0000000E+00; -1.5572502E-02;  3.9279044E+02;
  6.9190341E-01;  9.9999998E-03;  2.2025698E-01;6707;  1.4068316E-02;  0.0000000E+00; -5.7610255E-03;  9.9965881E+02;  1.1286342E-01; -2.8265866E+02;3;  6.0223384E+00;  0.0000000E+00;  3.7254924E-01;0;  9.2053182E-02;  3.1417779E+04;  0.0000000E+00;  2.0095797E-01;  4.0000000E+04;  0.0000000E+00;  3.9915957E+04;  1.0618707E-01;  0.0000000E+00; -1.4133883E-02;  1.9338399E+02;
  6.9198853E-01;  9.9999998E-03;  2.3025864E-01;6708;  1.3891757E-02;  0.0000000E+00; -6.1200340E-03;  9.9942200E+02;  1.1288901E-01; -4.7885062E+02;3;  5.8863721E+00;  0.0000000E+00;  3.7164438E-01;0;  8.9427277E-02;  3.1391926E+04;  0.0000000E+00; -1.0720977E-01;  4.0000000E+04;  0.0000000E+00;  3.9915676E+04;  1.0258278E-01;  0.0000000E+00; -1.3155506E-02;  5.5644031E+02;
  7.0363724E-01;  9.9999998E-03;  7.0134580E-02;6753;  1.3859948E-02;  0.0000000E+00; -2.0652893E-03;  9.9849707E+02;  1.1568473E-01; -1.2451499E+03;3;  6.2528253E+00;  0.0000000E+00; -3.8164183E-01;0;  8.4870502E-02;  2.9840658E+04;  0.0000000E+00;  1.7628979E-02;  4.0000000E+04;  0.0000000E+00;  3.9897488E+04;  1.1925138E-01;  0.0000000E+00; -3.4380876E-02;  2.8187057E+02;
  7.0366842E-01;  9.9999998E-03;  8.0145605E-02;6754;  1.4099315E-02;  0.0000000E+00; -2.3730772E-03;  9.9859839E+02;  1.1569861E-01; -1.1612017E+03;3;  6.1900959E+00;  0.0000000E+00; -4.3144011E-01;0;  8.6556599E-02;  2.9839291E+04;  0.0000000E+00;  2.6972763E-02;  4.0000000E+04;  0.0000000E+00;  3.9897148E+04;  1.2030761E-01;  0.0000000E+00; -3.3751011E-02;  3.3252548E+02;
  7.0368844E-01;  9.9999998E-03;  9.0157002E-02;6755;  1.4363034E-02;  0.0000000E+00; -2.6818393E-03;  9.9874066E+02;  1.1571141E-01; -1.0433285E+03;3;  6.0992727E+00;  0.0000000E+00; -5.1005667E-01;0;  8.8246182E-02;  2.9840879E+04;  0.0000000E+00;  4.2810924E-02;  4.0000000E+04;  0.0000000E+00;  3.9896457E+04;  1.2124483E-01;  0.0000000E+00; -3.2998651E-02;  4.1497903E+02;
  7.0369571E-01;  9.9999998E-03;  1.0016955E-01;6756;  1.4645202E-02;  0.0000000E+00; -2.9909096E-03;  9.9891193E+02;  1.1572305E-01; -9.0145593E+02;3;  6.0515332E+00;  0.0000000E+00; -5.6073481E-01;0;  8.9869037E-02;  2.9845312E+04;  0.0000000E+00;  6.7778066E-02;  4.0000000E+04;  0.0000000E+00;  3.9895703E+04;  1.2198916E-01;  0.0000000E+00; -3.2120127E-02;  5.1255029E+02;
  7.0369172E-01;  9.9999998E-03;  1.1018308E-01;6757;  1.4942000E-02;  0.0000000E+00; -3.2968288E-03;  9.9911731E+02;  1.1573505E-01; -7.3128790E+02;3;  6.0023537E+00;  0.0000000E+00; -5.9922463E-01;0;  9.1356829E-02;  2.9851676E+04;  0.0000000E+00;  1.0373973E-01;  4.0000000E+04;  0.0000000E+00;  3.9895121E+04;  1.2247267E-01;  0.0000000E+00; -3.1115836E-02;  6.0610364E+02;
  7.0367867E-01;  9.9999998E-03;  1.2019708E-01;6758;  1.5247087E-02;  0.0000000E+00; -3.5969988E-03;  9.9933069E+02;  1.1574621E-01; -5.5450281E+02;3;  5.9371157E+00;  0.0000000E+00; -6.4304817E-01;0;  9.2645705E-02;  2.9859062E+04;  0.0000000E+00;  1.5106156E-01;  4.0000000E+04;  0.0000000E+00;  3.9894898E+04;  1.2263384E-01;  0.0000000E+00; -2.9988142E-02;  6.7802216E+02;
  7.0366108E-01;  9.9999998E-03;  1.3021082E-01;6759;  1.5546859E-02;  0.0000000E+00; -3.8828410E-03;  9.9953534E+02;  1.1575768E-01; -3.8497675E+02;3;  5.8550372E+00;  0.0000000E+00; -6.9197428E-01;0;  9.3675703E-02;  2.9866035E+04;  0.0000000E+00;  2.0846258E-01;  4.0000000E+04;  0.0000000E+00;  3.9894789E+04;  1.2241734E-01;  0.0000000E+00; -2.8741634E-02;  7.1660681E+02;
  7.0364469E-01;  9.9999998E-03;  1.4022374E-01;6760;  1.5832242E-02;  0.0000000E+00; -4.1553667E-03;  9.9972009E+02;  1.1577031E-01; -2.3189465E+02;3;  5.8398628E+00;  0.0000000E+00; -7.1568853E-01;0;  9.4397366E-02;  2.9871061E+04;  0.0000000E+00;  2.7318957E-01;  4.0000000E+04;  0.0000000E+00;  3.9895406E+04;  1.2177926E-01;  0.0000000E+00; -2.7381891E-02;  7.2006506E+02;
  7.0363456E-01;  9.9999998E-03;  1.5023598E-01;6761;  1.6088290E-02;  0.0000000E+00; -4.4137910E-03;  9.9986731E+02;  1.1578479E-01; -1.0992281E+02;3;  5.8695273E+00;  0.0000000E+00; -7.0389086E-01;0;  9.4770536E-02;  2.9872656E+04;  0.0000000E+00;  3.4153736E-01;  4.0000000E+04;  0.0000000E+00;  3.9896117E+04;  1.2068780E-01;  0.0000000E+00; -2.5917260E-02;  6.9997516E+02;
  7.0363623E-01;  9.9999998E-03;  1.6024804E-01;6762;  1.6307665E-02;  0.0000000E+00; -4.6538478E-03;  9.9995770E+02;  1.1580241E-01; -3.5060734E+01;3;  5.9305444E+00;  0.0000000E+00; -6.5943474E-01;0;  9.4761446E-02;  2.9869902E+04;  0.0000000E+00;  4.0999708E-01;  4.0000000E+04;  0.0000000E+00;  3.9897402E+04;  1.1912785E-01;  0.0000000E+00; -2.4366412E-02;  6.8411029E+02;
  7.0365143E-01;  9.9999998E-03;  1.7026195E-01;6763;  1.6496230E-02;  0.0000000E+00; -4.8762066E-03;  9.9999481E+02;  1.1582272E-01; -4.2961745E+00;3;  6.0237994E+00;  0.0000000E+00; -5.8636540E-01;0;  9.4353676E-02;  2.9862125E+04;  0.0000000E+00;  4.7436640E-01;  4.0000000E+04;  0.0000000E+00;  3.9898836E+04;  1.1710842E-01;  0.0000000E+00; -2.2754740E-02;  7.0285596E+02;
  7.0368212E-01;  9.9999998E-03;  1.8028027E-01;6764;  1.6622791E-02;  0.0000000E+00; -5.0798915E-03;  9.9995898E+02;  1.1584578E-01; -3.3974346E+01;3;  6.1474080E+00;  0.0000000E+00; -4.2503154E-01;0;  9.3544573E-02;  2.9849369E+04;  0.0000000E+00;  5.2876389E-01;  4.0000000E+04;  0.0000000E+00;  3.9900188E+04;  1.1464769E-01;  0.0000000E+00; -2.1103118E-02;  7.5748120E+02;
  7.0373160E-01;  9.9999998E-03;  1.9030455E-01;6765;  1.6714646E-02;  0.0000000E+00; -5.2708243E-03;  9.9986664E+02;  1.1587207E-01; -1.1046600E+02;3;  6.2437735E+00;  0.0000000E+00; -2.7047884E-01;0;  9.2389308E-02;  2.9831588E+04;  0.0000000E+00;  5.6603611E-01;  4.0000000E+04;  0.0000000E+00;  3.9900836E+04;  1.1180747E-01;  0.0000000E+00; -1.9418158E-02;  8.0268280E+02;
  7.0379865E-01;  9.9999998E-03;  2.0033439E-01;6766;  1.6814884E-02;  0.0000000E+00; -5.4605389E-03;  9.9971667E+02;  1.1590143E-01; -2.3470940E+02;3;  6.3840489E+00;  0.0000000E+00; -2.9534530E-02;0;  9.0979978E-02;  2.9809949E+04;  0.0000000E+00;  5.7581604E-01;  4.0000000E+04;  0.0000000E+00;  3.9900203E+04;  1.0867620E-01;  0.0000000E+00; -1.7696215E-02;  7.6149298E+02;
  7.0389652E-01;  9.9999998E-03;  2.1035831E-01;6767;  1.6912764E-02;  0.0000000E+00; -5.7183192E-03;  9.9950177E+02;  1.1593702E-01; -4.1277841E+02;3;  6.4124427E+00;  0.0000000E+00;  1.1930545E-01;0;  8.9335121E-02;  2.9783594E+04;  0.0000000E+00;  5.3909683E-01;  4.0000000E+04;  0.0000000E+00;  3.9897445E+04;  1.0533474E-01;  0.0000000E+00; -1.5999613E-02;  6.6177820E+02;
  7.0402640E-01;  9.9999998E-03;  2.2035331E-01;6768;  1.6978221E-02;  0.0000000E+00; -6.0463115E-03;  9.9928876E+02;  1.1598000E-01; -5.8926721E+02;3;  6.3714008E+00;  0.0000000E+00;  1.3692373E-01;0;  8.7402061E-02;  2.9753193E+04;  0.0000000E+00;  4.1939512E-01;  4.0000000E+04;  0.0000000E+00;  3.9895176E+04;  1.0187239E-01;  0.0000000E+00; -1.4470335E-02;  5.5063971E+02;
  7.0416737E-01;  9.9999998E-03;  2.3032564E-01;6769;  1.6745396E-02;  0.0000000E+00; -6.3377069E-03;  9.9915601E+02;  1.1602523E-01; -6.9923944E+02;3;  6.2417998E+00;  0.0000000E+00;  1.9470251E-01;0;  8.5197531E-02;  2.9722115E+04;  0.0000000E+00;  1.5154518E-01;  4.0000000E+04;  0.0000000E+00;  3.9898449E+04;  9.8302923E-02;  0.0000000E+00; -1.3105392E-02;  2.4949985E+02;
  7.1667105E-01;  9.9999998E-03;  7.0231281E-02;6814;  1.4470330E-02;  0.0000000E+00; -2.4521605E-03;  9.9851123E+02;  1.1930912E-01; -1.2333971E+03;3;  6.2359400E+00;  0.0000000E+00; -5.4355192E-01;0;  8.0072224E-02;  2.8081275E+04;  0.0000000E+00;  2.0420498E-01;  4.0000000E+04;  0.0000000E+00;  3.9876820E+04;  1.1773380E-01;  0.0000000E+00; -3.7661579E-02;  4.7411972E+02;
  7.1665806E-01;  9.9999998E-03;  8.0253683E-02;6815;  1.4786034E-02;  0.0000000E+00; -2.8068316E-03;  9.9862677E+02;  1.1931010E-01; -1.1376962E+03;3;  6.1373181E+00;  0.0000000E+00; -6.3723212E-01;0;  8.1211619E-02;  2.8086330E+04;  0.0000000E+00;  2.5977957E-01;  4.0000000E+04;  0.0000000E+00;  3.9876496E+04;  1.1802850E-01;  0.0000000E+00; -3.6816880E-02;  5.8268170E+02;
  7.1663088E-01;  9.9999998E-03;  9.0274543E-02;6816;  1.5123051E-02;  0.0000000E+00; -3.1597370E-03;  9.9877820E+02;  1.1931022E-01; -1.0122182E+03;3;  6.0086188E+00;  0.0000000E+00; -7.3490238E-01;0;  8.2317412E-02;  2.8094453E+04;  0.0000000E+00;  3.1706268E-01;  4.0000000E+04;  0.0000000E+00;  3.9876070E+04;  1.1814407E-01;  0.0000000E+00; -3.5826653E-02;  7.0787268E+02;
  7.1658909E-01;  9.9999998E-03;  1.0029428E-01;6817;  1.5473824E-02;  0.0000000E+00; -3.5057489E-03;  9.9896619E+02;  1.1931024E-01; -8.5651892E+02;3;  5.8824005E+00;  0.0000000E+00; -8.1288564E-01;0;  8.3337739E-02;  2.8105299E+04;  0.0000000E+00;  3.7368861E-01;  4.0000000E+04;  0.0000000E+00;  3.9875535E+04;  1.1802910E-01;  0.0000000E+00; -3.4691360E-02;  8.3487506E+02;
  7.1653384E-01;  9.9999998E-03;  1.1031300E-01;6818;  1.5834901E-02;  0.0000000E+00; -3.8448235E-03;  9.9918146E+02;  1.1930890E-01; -6.7815363E+02;3;  5.7193666E+00;  0.0000000E+00; -9.1295707E-01;0;  8.4223792E-02;  2.8117902E+04;  0.0000000E+00;  4.2756590E-01;  4.0000000E+04;  0.0000000E+00;  3.9874941E+04;  1.1764050E-01;  0.0000000E+00; -3.3416715E-02;  9.4748621E+02;
  7.1646738E-01;  9.9999998E-03;  1.2033049E-01;6819;  1.6184589E-02;  0.0000000E+00; -4.1720588E-03;  9.9940460E+02;  1.1930835E-01; -4.9326996E+02;3;  5.4868679E+00;  0.0000000E+00; -1.0227479E+00;0;  8.4927224E-02;  2.8131146E+04;  0.0000000E+00;  4.7742823E-01;  4.0000000E+04;  0.0000000E+00;  3.9874777E+04;  1.1693978E-01;  0.0000000E+00; -3.2012552E-02;  1.0304324E+03;
  7.1639574E-01;  9.9999998E-03;  1.3034625E-01;6820;  1.6524758E-02;  0.0000000E+00; -4.4828411E-03;  9.9961499E+02;  1.1930798E-01; -3.1895392E+02;3;  5.2896233E+00;  0.0000000E+00; -1.0914323E+00;0;  8.5410029E-02;  2.8143482E+04;  0.0000000E+00;  5.2330750E-01;  4.0000000E+04;  0.0000000E+00;  3.9875148E+04;  1.1590183E-01;  0.0000000E+00; -3.0491795E-02;  1.0741237E+03;
  7.1632683E-01;  9.9999998E-03;  1.4036025E-01;6821;  1.6859446E-02;  0.0000000E+00; -4.7767721E-03;  9.9980133E+02;  1.1931024E-01; -1.6458792E+02;3;  5.0762591E+00;  0.0000000E+00; -1.1658851E+00;0;  8.5641891E-02;  2.8153236E+04;  0.0000000E+00;  5.6636930E-01;  4.0000000E+04;  0.0000000E+00;  3.9875852E+04;  1.1451049E-01;  0.0000000E+00; -2.8868597E-02;  1.0791732E+03;
  7.1626943E-01;  9.9999998E-03;  1.5037282E-01;6822;  1.7179089E-02;  0.0000000E+00; -5.0511523E-03;  9.9994635E+02;  1.1931631E-01; -4.4443184E+01;3;  4.8589382E+00;  0.0000000E+00; -1.2542810E+00;0;  8.5594349E-02;  2.8158598E+04;  0.0000000E+00;  6.0822427E-01;  4.0000000E+04;  0.0000000E+00;  3.9876984E+04;  1.1275355E-01;  0.0000000E+00; -2.7159197E-02;  1.0600626E+03;
  7.1623033E-01;  9.9999998E-03;  1.6038619E-01;6823;  1.7472915E-02;  0.0000000E+00; -5.3005787E-03;  1.0000281E+03;  1.1932792E-01;  2.3307981E+01;3;  4.6719499E+00;  0.0000000E+00; -1.3366927E+00;0;  8.5237578E-02;  2.8158439E+04;  0.0000000E+00;  6.4987528E-01;  4.0000000E+04;  0.0000000E+00;  3.9878395E+04;  1.1062697E-01;  0.0000000E+00; -2.5389384E-02;  1.0456176E+03;
  7.1621376E-01;  9.9999998E-03;  1.7040332E-01;6824;  1.7748594E-02;  0.0000000E+00; -5.5247368E-03;  1.0000460E+03;  1.1934406E-01;  3.8122375E+01;3;  4.5307288E+00;  0.0000000E+00; -1.3976387E+00;0;  8.4555611E-02;  2.8152225E+04;  0.0000000E+00;  6.8915689E-01;  4.0000000E+04;  0.0000000E+00;  3.9879879E+04;  1.0814682E-01;  0.0000000E+00; -2.3591215E-02;  1.0573308E+03;
  7.1622461E-01;  9.9999998E-03;  1.8042448E-01;6825;  1.8002469E-02;  0.0000000E+00; -5.7217921E-03;  9.9999426E+02;  1.1936616E-01; -4.7406063E+00;3;  4.4602685E+00;  0.0000000E+00; -1.4257004E+00;0;  8.3551846E-02;  2.8139881E+04;  0.0000000E+00;  7.2083795E-01;  4.0000000E+04;  0.0000000E+00;  3.9881023E+04;  1.0534140E-01;  0.0000000E+00; -2.1789558E-02;  1.0790441E+03;
  7.1626663E-01;  9.9999998E-03;  1.9044799E-01;6826;  1.8256543E-02;  0.0000000E+00; -5.8961455E-03;  9.9987817E+02;  1.1939484E-01; -1.0093541E+02;3;  4.4421072E+00;  0.0000000E+00; -1.4156792E+00;0;  8.2274042E-02;  2.8121717E+04;  0.0000000E+00;  7.3796952E-01;  4.0000000E+04;  0.0000000E+00;  3.9880969E+04;  1.0226417E-01;  0.0000000E+00; -1.9990129E-02;  1.0556077E+03;
  7.1633995E-01;  9.9999998E-03;  2.0046605E-01;6827;  1.8546933E-02;  0.0000000E+00; -6.0719582E-03;  9.9970160E+02;  1.1942969E-01; -2.4720287E+02;3;  4.4260721E+00;  0.0000000E+00; -1.4149672E+00;0;  8.0806404E-02;  2.8098902E+04;  0.0000000E+00;  7.3031795E-01;  4.0000000E+04;  0.0000000E+00;  3.9878730E+04;  9.8991938E-02;  0.0000000E+00; -1.8185532E-02;  9.6297461E+02;
  7.1643382E-01;  9.9999998E-03;  2.1046327E-01;6828;  1.8840043E-02;  0.0000000E+00; -6.2697614E-03;  9.9948828E+02;  1.1946791E-01; -4.2393860E+02;3;  4.6232600E+00;  0.0000000E+00; -1.3318185E+00;0;  7.9216436E-02;  2.8073510E+04;  0.0000000E+00;  6.7855579E-01;  4.0000000E+04;  0.0000000E+00;  3.9875137E+04;  9.5600955E-02;  0.0000000E+00; -1.6384516E-02;  9.0209644E+02;
  7.1653724E-01;  9.9999998E-03;  2.2042713E-01;6829;  1.9047009E-02;  0.0000000E+00; -6.4631803E-03;  9.9932257E+02;  1.1950751E-01; -5.6121863E+02;3;  5.1048722E+00;  0.0000000E+00; -1.0620331E+00;0;  7.7574745E-02;  2.8047527E+04;  0.0000000E+00;  5.4632449E-01;  4.0000000E+04;  0.0000000E+00;  3.9874918E+04;  9.2154600E-02;  0.0000000E+00; -1.4579857E-02;  6.2859814E+02;
  7.1665221E-01;  9.9999998E-03;  2.3039076E-01;6830;  1.9117441E-02;  0.0000000E+00; -6.5972065E-03;  9.9922992E+02;  1.1954949E-01; -6.3800659E+02;3;  5.7343998E+00;  0.0000000E+00; -4.7269267E-01;0;  7.6045297E-02;  2.8021686E+04;  0.0000000E+00;  2.7104196E-01;  4.0000000E+04;  0.0000000E+00;  3.9878871E+04;  8.8691011E-02;  0.0000000E+00; -1.2645712E-02;  2.0018565E+02;
  7.2875267E-01;  9.9999998E-03;  7.0222341E-02;6875;  1.5366334E-02;  0.0000000E+00; -2.8935862E-03;  9.9890857E+02;  1.2296528E-01; -9.0422119E+02;3;  6.2911220E+00;  0.0000000E+00; -6.9812065E-01;0;  7.5668290E-02;  2.6477742E+04;  0.0000000E+00;  3.3193523E-01;  4.0000000E+04;  0.0000000E+00;  3.9857113E+04;  1.1668859E-01;  0.0000000E+00; -4.1020308E-02;  7.3992938E+02;
  7.2874337E-01;  9.9999998E-03;  8.0251090E-02;6876;  1.5730744E-02;  0.0000000E+00; -3.2962353E-03;  9.9900146E+02;  1.2296765E-01; -8.2728510E+02;3;  6.1676078E+00;  0.0000000E+00; -7.9265326E-01;0;  7.6032281E-02;  2.6481564E+04;  0.0000000E+00;  4.1912925E-01;  4.0000000E+04;  0.0000000E+00;  3.9857168E+04;  1.1599185E-01;  0.0000000E+00; -3.9959569E-02;  9.2559448E+02;
  7.2871715E-01;  9.9999998E-03;  9.0279303E-02;6877;  1.6097821E-02;  0.0000000E+00; -3.6934069E-03;  9.9912994E+02;  1.2296884E-01; -7.2081903E+02;3;  5.9851456E+00;  0.0000000E+00; -9.0740967E-01;0;  7.6315030E-02;  2.6488105E+04;  0.0000000E+00;  5.0255662E-01;  4.0000000E+04;  0.0000000E+00;  3.9856531E+04;  1.1504427E-01;  0.0000000E+00; -3.8729239E-02;  1.1054493E+03;
  7.2867429E-01;  9.9999998E-03;  1.0030669E-01;6878;  1.6460331E-02;  0.0000000E+00; -4.0796828E-03;  9.9929260E+02;  1.2296815E-01; -5.8605743E+02;3;  5.7977118E+00;  0.0000000E+00; -9.9879092E-01;0;  7.6485008E-02;  2.6496891E+04;  0.0000000E+00;  5.7499498E-01;  4.0000000E+04;  0.0000000E+00;  3.9855988E+04;  1.1381809E-01;  0.0000000E+00; -3.7333082E-02;  1.2596443E+03;
  7.2861433E-01;  9.9999998E-03;  1.1033263E-01;6879;  1.6807320E-02;  0.0000000E+00; -4.4534230E-03;  9.9947449E+02;  1.2296806E-01; -4.3539502E+02;3;  5.5470276E+00;  0.0000000E+00; -1.1255563E+00;0;  7.6514870E-02;  2.6507197E+04;  0.0000000E+00;  6.3084054E-01;  4.0000000E+04;  0.0000000E+00;  3.9855469E+04;  1.1229608E-01;  0.0000000E+00; -3.5781216E-02;  1.3699037E+03;
  7.2854108E-01;  9.9999998E-03;  1.2035710E-01;6880;  1.7130267E-02;  0.0000000E+00; -4.8125195E-03;  9.9966052E+02;  1.2296762E-01; -2.8122656E+02;3;  5.2435517E+00;  0.0000000E+00; -1.2154530E+00;0;  7.6380551E-02;  2.6518104E+04;  0.0000000E+00;  6.6803819E-01;  4.0000000E+04;  0.0000000E+00;  3.9855168E+04;  1.1047059E-01;  0.0000000E+00; -3.4090038E-02;  1.4235297E+03;
  7.2846359E-01;  9.9999998E-03;  1.3038014E-01;6881;  1.7429842E-02;  0.0000000E+00; -5.1478422E-03;  9.9983856E+02;  1.2296833E-01; -1.3372459E+02;3;  4.9332819E+00;  0.0000000E+00; -1.2903460E+00;0;  7.6060742E-02;  2.6527693E+04;  0.0000000E+00;  6.8895304E-01;  4.0000000E+04;  0.0000000E+00;  3.9855539E+04;  1.0834118E-01;  0.0000000E+00; -3.2280438E-02;  1.4173093E+03;
  7.2839248E-01;  9.9999998E-03;  1.4040150E-01;6882;  1.7700603E-02;  0.0000000E+00; -5.4580830E-03;  9.9998572E+02;  1.2297366E-01; -1.1851515E+01;3;  4.6048350E+00;  0.0000000E+00; -1.3713861E+00;0;  7.5537205E-02;  2.6534010E+04;  0.0000000E+00;  6.9957829E-01;  4.0000000E+04;  0.0000000E+00;  3.9855996E+04;  1.0591158E-01;  0.0000000E+00; -3.0374371E-02;  1.3600033E+03;
  7.2834063E-01;  9.9999998E-03;  1.5042280E-01;6883;  1.7942928E-02;  0.0000000E+00; -5.7437876E-03;  1.0000885E+03;  1.2298515E-01;  7.3281868E+01;3;  4.2156968E+00;  0.0000000E+00; -1.4607546E+00;0;  7.4792929E-02;  2.6534996E+04;  0.0000000E+00;  7.0730877E-01;  4.0000000E+04;  0.0000000E+00;  3.9857219E+04;  1.0318790E-01;  0.0000000E+00; -2.8394967E-02;  1.2737812E+03;
  7.2831964E-01;  9.9999998E-03;  1.6044511E-01;6884;  1.8177455E-02;  0.0000000E+00; -6.0041691E-03;  1.0001310E+03;  1.2300444E-01;  1.0854012E+02;3;  3.8332825E+00;  0.0000000E+00; -1.5288831E+00;0;  7.3807187E-02;  2.6529158E+04;  0.0000000E+00;  7.1744633E-01;  4.0000000E+04;  0.0000000E+00;  3.9858480E+04;  1.0018288E-01;  0.0000000E+00; -2.6375690E-02;  1.1924835E+03;
  7.2833878E-01;  9.9999998E-03;  1.7046940E-01;6885;  1.8407600E-02;  0.0000000E+00; -6.2365104E-03;  1.0001127E+03;  1.2303523E-01;  9.3330681E+01;3;  3.4635208E+00;  0.0000000E+00; -1.5688872E+00;0;  7.2559938E-02;  2.6515484E+04;  0.0000000E+00;  7.3000252E-01;  4.0000000E+04;  0.0000000E+00;  3.9859930E+04;  9.6916392E-02;  0.0000000E+00; -2.4356455E-02;  1.1415229E+03;
  7.2840035E-01;  9.9999998E-03;  1.8049224E-01;6886;  1.8631306E-02;  0.0000000E+00; -6.4409641E-03;  1.0000266E+03;  1.2307683E-01;  2.2024065E+01;3;  3.1119895E+00;  0.0000000E+00; -1.6148900E+00;0;  7.1055286E-02;  2.6494246E+04;  0.0000000E+00;  7.4024844E-01;  4.0000000E+04;  0.0000000E+00;  3.9860773E+04;  9.3424991E-02;  0.0000000E+00; -2.2369707E-02;  1.1059858E+03;
  7.2849244E-01;  9.9999998E-03;  1.9050927E-01;6887;  1.8882571E-02;  0.0000000E+00; -6.6271559E-03;  9.9987445E+02;  1.2312212E-01; -1.0399704E+02;3;  2.7829087E+00;  0.0000000E+00; -1.6473303E+00;0;  6.9347098E-02;  2.6467898E+04;  0.0000000E+00;  7.3983687E-01;  4.0000000E+04;  0.0000000E+00;  3.9860363E+04;  8.9778148E-02;  0.0000000E+00; -2.0431047E-02;  1.0297533E+03;
  7.2859508E-01;  9.9999998E-03;  2.0051457E-01;6888;  1.9165495E-02;  0.0000000E+00; -6.8083941E-03;  9.9967267E+02;  1.2316835E-01; -2.7120218E+02;3;  2.4262464E+00;  0.0000000E+00; -1.6913701E+00;0;  6.7517020E-02;  2.6440002E+04;  0.0000000E+00;  7.1523112E-01;  4.0000000E+04;  0.0000000E+00;  3.9858480E+04;  8.6060219E-02;  0.0000000E+00; -1.8543201E-02;  8.7931427E+02;
  7.2867370E-01;  9.9999998E-03;  2.1049285E-01;6889;  1.9470077E-02;  0.0000000E+00; -6.9871377E-03;  9.9946344E+02;  1.2320586E-01; -4.4453058E+02;3;  2.2219782E+00;  0.0000000E+00; -1.6936882E+00;0;  6.5669358E-02;  2.6415650E+04;  0.0000000E+00;  6.4315617E-01;  4.0000000E+04;  0.0000000E+00;  3.9857098E+04;  8.2375951E-02;  0.0000000E+00; -1.6706595E-02;  6.6316791E+02;
  7.2872615E-01;  9.9999998E-03;  2.2045346E-01;6890;  1.9769069E-02;  0.0000000E+00; -7.1355482E-03;  9.9929767E+02;  1.2323230E-01; -5.8185999E+02;3;  2.0077622E+00;  0.0000000E+00; -1.7020892E+00;0;  6.3911878E-02;  2.6395793E+04;  0.0000000E+00;  4.8428085E-01;  4.0000000E+04;  0.0000000E+00;  3.9858918E+04;  7.8777820E-02;  0.0000000E+00; -1.4865945E-02;  3.0469870E+02;
  7.2875774E-01;  9.9999998E-03;  2.3043025E-01;6891;  2.0082289E-02;  0.0000000E+00; -7.2238781E-03;  9.9918640E+02;  1.2324946E-01; -6.7405493E+02;3;  1.7813687E+00;  0.0000000E+00; -1.6664095E+00;0;  6.2434051E-02;  2.6380646E+04;  0.0000000E+00;  1.7690933E-01;  4.0000000E+04;  0.0000000E+00;  3.9863148E+04;  7.5291179E-02;  0.0000000E+00; -1.2857128E-02;  8.2766040E+02;
  7.4089020E-01;  9.9999998E-03;  7.0207179E-02;6936;  1.6741874E-02;  0.0000000E+00; -3.3926351E-03;  9.9929742E+02;  1.2682469E-01; -5.8205750E+02;3;  6.4486480E+00;  0.0000000E+00; -8.0951798E-01;0;  7.0991725E-02;  2.4925375E+04;  0.0000000E+00;  3.8214734E-01;  4.0000000E+04;  0.0000000E+00;  3.9838168E+04;  1.1560567E-01;  0.0000000E+00; -4.4613950E-02;  9.2921576E+02;
  7.4085951E-01;  9.9999998E-03;  8.0242179E-02;6937;  1.7114170E-02;  0.0000000E+00; -3.8475157E-03;  9.9933063E+02;  1.2682205E-01; -5.5455212E+02;3;  6.2736483E+00;  0.0000000E+00; -9.1810107E-01;0;  7.0496678E-02;  2.4929010E+04;  0.0000000E+00;  4.8097700E-01;  4.0000000E+04;  0.0000000E+00;  3.9837883E+04;  1.1382066E-01;  0.0000000E+00; -4.3323983E-02;  1.1587137E+03;
  7.4081504E-01;  9.9999998E-03;  9.0277337E-02;6938;  1.7461397E-02;  0.0000000E+00; -4.2929384E-03;  9.9939301E+02;  1.2681964E-01; -5.0289929E+02;3;  6.0000062E+00;  0.0000000E+00; -1.0437199E+00;0;  6.9877610E-02;  2.4934459E+04;  0.0000000E+00;  5.7035816E-01;  4.0000000E+04;  0.0000000E+00;  3.9837355E+04;  1.1171979E-01;  0.0000000E+00; -4.1842189E-02;  1.3613558E+03;
  7.4075568E-01;  9.9999998E-03;  1.0031201E-01;6939;  1.7773202E-02;  0.0000000E+00; -4.7176969E-03;  9.9948083E+02;  1.2681700E-01; -4.3011124E+02;3;  5.7297654E+00;  0.0000000E+00; -1.1297297E+00;0;  6.9123492E-02;  2.4941422E+04;  0.0000000E+00;  6.3919210E-01;  4.0000000E+04;  0.0000000E+00;  3.9836621E+04;  1.0929801E-01;  0.0000000E+00; -4.0174514E-02;  1.5112303E+03;
  7.4068534E-01;  9.9999998E-03;  1.1034501E-01;6940;  1.8038737E-02;  0.0000000E+00; -5.1238271E-03;  9.9959406E+02;  1.2681632E-01; -3.3633612E+02;3;  5.3764334E+00;  0.0000000E+00; -1.2430004E+00;0;  6.8224475E-02;  2.4948928E+04;  0.0000000E+00;  6.7948174E-01;  4.0000000E+04;  0.0000000E+00;  3.9835895E+04;  1.0655972E-01;  0.0000000E+00; -3.8335238E-02;  1.5872947E+03;
  7.4061179E-01;  9.9999998E-03;  1.2037666E-01;6941;  1.8246988E-02;  0.0000000E+00; -5.5059092E-03;  9.9970697E+02;  1.2681842E-01; -2.4275853E+02;3;  4.9947252E+00;  0.0000000E+00; -1.3069174E+00;0;  6.7170337E-02;  2.4955152E+04;  0.0000000E+00;  6.8941641E-01;  4.0000000E+04;  0.0000000E+00;  3.9835414E+04;  1.0351631E-01;  0.0000000E+00; -3.6345974E-02;  1.5799045E+03;
  7.4054402E-01;  9.9999998E-03;  1.3040678E-01;6942;  1.8409766E-02;  0.0000000E+00; -5.8558611E-03;  9.9981097E+02;  1.2682627E-01; -1.5658813E+02;3;  4.6132026E+00;  0.0000000E+00; -1.3519859E+00;0;  6.5955393E-02;  2.4958850E+04;  0.0000000E+00;  6.7445791E-01;  4.0000000E+04;  0.0000000E+00;  3.9835145E+04;  1.0018794E-01;  0.0000000E+00; -3.4232549E-02;  1.4939297E+03;
  7.4049091E-01;  9.9999998E-03;  1.4043337E-01;6943;  1.8537624E-02;  0.0000000E+00; -6.1734905E-03;  9.9988892E+02;  1.2684135E-01; -9.2046768E+01;3;  4.2026653E+00;  0.0000000E+00; -1.3893769E+00;0;  6.4577878E-02;  2.4958279E+04;  0.0000000E+00;  6.4582443E-01;  4.0000000E+04;  0.0000000E+00;  3.9835301E+04;  9.6600570E-02;  0.0000000E+00; -3.2022692E-02;  1.3477441E+03;
  7.4046105E-01;  9.9999998E-03;  1.5045390E-01;6944;  1.8646391E-02;  0.0000000E+00; -6.4634699E-03;  9.9992444E+02;  1.2686396E-01; -6.2615505E+01;3;  3.7123950E+00;  0.0000000E+00; -1.4405811E+00;0;  6.3038260E-02;  2.4952258E+04;  0.0000000E+00;  6.1665887E-01;  4.0000000E+04;  0.0000000E+00;  3.9835992E+04;  9.2783503E-02;  0.0000000E+00; -2.9745242E-02;  1.1705614E+03;
  7.4045807E-01;  9.9999998E-03;  1.6046937E-01;6945;  1.8741820E-02;  0.0000000E+00; -6.7216610E-03;  9.9990302E+02;  1.2689367E-01; -8.0343391E+01;3;  3.2629433E+00;  0.0000000E+00; -1.4537872E+00;0;  6.1330505E-02;  2.4940301E+04;  0.0000000E+00;  5.9643942E-01;  4.0000000E+04;  0.0000000E+00;  3.9837016E+04;  8.8769823E-02;  0.0000000E+00; -2.7439317E-02;  9.9942029E+02;
  7.4047983E-01;  9.9999998E-03;  1.7048068E-01;6946;  1.8842969E-02;  0.0000000E+00; -6.9481810E-03;  9.9982385E+02;  1.2692891E-01; -1.4592178E+02;3;  2.8360157E+00;  0.0000000E+00; -1.4608860E+00;0;  5.9453506E-02;  2.4923074E+04;  0.0000000E+00;  5.8750838E-01;  4.0000000E+04;  0.0000000E+00;  3.9838230E+04;  8.4604733E-02;  0.0000000E+00; -2.5151227E-02;  8.6961267E+02;
  7.4052525E-01;  9.9999998E-03;  1.8048759E-01;6947;  1.8977942E-02;  0.0000000E+00; -7.1521159E-03;  9.9967761E+02;  1.2696859E-01; -2.6710352E+02;3;  2.4053771E+00;  0.0000000E+00; -1.4572189E+00;0;  5.7419322E-02;  2.4901035E+04;  0.0000000E+00;  5.8437788E-01;  4.0000000E+04;  0.0000000E+00;  3.9839047E+04;  8.0341078E-02;  0.0000000E+00; -2.2921756E-02;  7.8738068E+02;
  7.4059540E-01;  9.9999998E-03;  1.9048962E-01;6948;  1.9161386E-02;  0.0000000E+00; -7.3429560E-03;  9.9949030E+02;  1.2701222E-01; -4.2225961E+02;3;  1.8854107E+00;  0.0000000E+00; -1.4371340E+00;0;  5.5254266E-02;  2.4875465E+04;  0.0000000E+00;  5.7480597E-01;  4.0000000E+04;  0.0000000E+00;  3.9839672E+04;  7.6032557E-02;  0.0000000E+00; -2.0778293E-02;  7.1621021E+02;
  7.4065208E-01;  9.9999998E-03;  2.0047404E-01;6949;  1.9381370E-02;  0.0000000E+00; -7.5179809E-03;  9.9928113E+02;  1.2704656E-01; -5.9558801E+02;3;  1.4444345E+00;  0.0000000E+00; -1.3801055E+00;0;  5.3049106E-02;  2.4851648E+04;  0.0000000E+00;  5.4143810E-01;  4.0000000E+04;  0.0000000E+00;  3.9840578E+04;  7.1783707E-02;  0.0000000E+00; -1.8734600E-02;  6.6379468E+02;
  7.4068493E-01;  9.9999998E-03;  2.1044612E-01;6950;  1.9645272E-02;  0.0000000E+00; -7.6786405E-03;  9.9907965E+02;  1.2706946E-01; -7.6249683E+02;3;  8.0963403E-01;  0.0000000E+00; -1.3356103E+00;0;  5.0871253E-02;  2.4831402E+04;  0.0000000E+00;  4.6155953E-01;  4.0000000E+04;  0.0000000E+00;  3.9843148E+04;  6.7661293E-02;  0.0000000E+00; -1.6790042E-02;  8.5906378E+02;
  7.4070609E-01;  9.9999998E-03;  2.2042717E-01;6951;  1.9938033E-02;  0.0000000E+00; -7.7918996E-03;  9.9892548E+02;  1.2708716E-01; -8.9024628E+02;3;  1.3495165E-01;  0.0000000E+00; -1.2020031E+00;0;  4.8806716E-02;  2.4814092E+04;  0.0000000E+00;  3.0792674E-01;  4.0000000E+04;  0.0000000E+00;  3.9848539E+04;  6.3683130E-02;  0.0000000E+00; -1.4876414E-02;  1.5130835E+03;
  7.4070281E-01;  9.9999998E-03;  2.3043786E-01;6952;  2.0261234E-02;  0.0000000E+00; -7.8631341E-03;  9.9877686E+02;  1.2709424E-01; -1.0133539E+03;3; -6.8325275E-01;  0.0000000E+00; -1.0764931E+00;0;  4.7003906E-02;  2.4801436E+04;  0.0000000E+00;  4.9751222E-02;  4.0000000E+04;  0.0000000E+00;  3.9852715E+04;  5.9886388E-02;  0.0000000E+00; -1.2882481E-02;  2.1606416E+03;
  7.5382382E-01;  9.9999998E-03;  7.0220500E-02;6997;  1.8897552E-02;  0.0000000E+00; -3.9624511E-03;  9.9970563E+02;  1.3109747E-01; -2.4389430E+02;3;  6.6593413E+00;  0.0000000E+00; -9.2387420E-01;0;  6.5078914E-02;  2.3357221E+04;  0.0000000E+00;  3.3843368E-01;  4.0000000E+04;  0.0000000E+00;  3.9817719E+04;  1.1363905E-01;  0.0000000E+00; -4.8560135E-02;  9.9317926E+02;
  7.5380129E-01;  9.9999998E-03;  8.0257885E-02;6998;  1.9176193E-02;  0.0000000E+00; -4.4767130E-03;  9.9967657E+02;  1.3109778E-01; -2.6794299E+02;3;  6.3404675E+00;  0.0000000E+00; -1.0445383E+00;0;  6.3743047E-02;  2.3357986E+04;  0.0000000E+00;  4.2536804E-01;  4.0000000E+04;  0.0000000E+00;  3.9817641E+04;  1.1079752E-01;  0.0000000E+00; -4.7054470E-02;  1.2071155E+03;
  7.5374353E-01;  9.9999998E-03;  9.0298072E-02;6999;  1.9390574E-02;  0.0000000E+00; -4.9688159E-03;  9.9965784E+02;  1.3109300E-01; -2.8349811E+02;3;  5.9749284E+00;  0.0000000E+00; -1.1412928E+00;0;  6.2260941E-02;  2.3361701E+04;  0.0000000E+00;  4.9868086E-01;  4.0000000E+04;  0.0000000E+00;  3.9817164E+04;  1.0758617E-01;  0.0000000E+00; -4.5325227E-02;  1.3750723E+03;
  7.5365669E-01;  9.9999998E-03;  1.0033730E-01;7000;  1.9538781E-02;  0.0000000E+00; -5.4322965E-03;  9.9965051E+02;  1.3108547E-01; -2.8952264E+02;3;  5.5826101E+00;  0.0000000E+00; -1.2167425E+00;0;  6.0638484E-02;  2.3367318E+04;  0.0000000E+00;  5.4516459E-01;  4.0000000E+04;  0.0000000E+00;  3.9816156E+04;  1.0402105E-01;  0.0000000E+00; -4.3382566E-02;  1.4688994E+03;
  7.5355226E-01;  9.9999998E-03;  1.1036939E-01;7001;  1.9610720E-02;  0.0000000E+00; -5.8668405E-03;  9.9965845E+02;  1.3107891E-01; -2.8295493E+02;3;  5.1223145E+00;  0.0000000E+00; -1.2750707E+00;0;  5.8879532E-02;  2.3373461E+04;  0.0000000E+00;  5.5587721E-01;  4.0000000E+04;  0.0000000E+00;  3.9815082E+04;  1.0012627E-01;  0.0000000E+00; -4.1246742E-02;  1.4689788E+03;
  7.5343740E-01;  9.9999998E-03;  1.2039249E-01;7002;  1.9619977E-02;  0.0000000E+00; -6.2646153E-03;  9.9966858E+02;  1.3107409E-01; -2.7456009E+02;3;  4.6716886E+00;  0.0000000E+00; -1.2975504E+00;0;  5.6990732E-02;  2.3378936E+04;  0.0000000E+00;  5.3037697E-01;  4.0000000E+04;  0.0000000E+00;  3.9814074E+04;  9.5933892E-02;  0.0000000E+00; -3.8943160E-02;  1.3729570E+03;
  7.5332272E-01;  9.9999998E-03;  1.3041124E-01;7003;  1.9581083E-02;  0.0000000E+00; -6.6236844E-03;  9.9967444E+02;  1.3107230E-01; -2.6972073E+02;3;  4.2030268E+00;  0.0000000E+00; -1.2982051E+00;0;  5.4977685E-02;  2.3382734E+04;  0.0000000E+00;  4.7783276E-01;  4.0000000E+04;  0.0000000E+00;  3.9813480E+04;  9.1479383E-02;  0.0000000E+00; -3.6501698E-02;  1.1981417E+03;
  7.5322133E-01;  9.9999998E-03;  1.4042711E-01;7004;  1.9513190E-02;  0.0000000E+00; -6.9473498E-03;  9.9965845E+02;  1.3107625E-01; -2.8295493E+02;3;  3.7127571E+00;  0.0000000E+00; -1.2999544E+00;0;  5.2846652E-02;  2.3383193E+04;  0.0000000E+00;  4.1449443E-01;  4.0000000E+04;  0.0000000E+00;  3.9813047E+04;  8.6801291E-02;  0.0000000E+00; -3.3954639E-02;  9.7516724E+02;
  7.5314444E-01;  9.9999998E-03;  1.5043905E-01;7005;  1.9427635E-02;  0.0000000E+00; -7.2342576E-03;  9.9961066E+02;  1.3108575E-01; -3.2255872E+02;3;  3.2294605E+00;  0.0000000E+00; -1.2735547E+00;0;  5.0606549E-02;  2.3379229E+04;  0.0000000E+00;  3.5839644E-01;  4.0000000E+04;  0.0000000E+00;  3.9813281E+04;  8.1941701E-02;  0.0000000E+00; -3.1335153E-02;  7.3583710E+02;
  7.5313276E-01;  9.9999998E-03;  1.6044548E-01;7006;  1.9357841E-02;  0.0000000E+00; -7.4883881E-03;  9.9953381E+02;  1.3111444E-01; -3.8621124E+02;3;  2.7093594E+00;  0.0000000E+00; -1.2303877E+00;0;  4.8221961E-02;  2.3366932E+04;  0.0000000E+00;  3.2160735E-01;  4.0000000E+04;  0.0000000E+00;  3.9813898E+04;  7.6914079E-02;  0.0000000E+00; -2.8692121E-02;  5.0244464E+02;
  7.5320184E-01;  9.9999998E-03;  1.7044425E-01;7007;  1.9338019E-02;  0.0000000E+00; -7.7206376E-03;  9.9942065E+02;  1.3116385E-01; -4.7998636E+02;3;  2.2255571E+00;  0.0000000E+00; -1.1505666E+00;0;  4.5669034E-02;  2.3345057E+04;  0.0000000E+00;  3.0716696E-01;  4.0000000E+04;  0.0000000E+00;  3.9814617E+04;  7.1748041E-02;  0.0000000E+00; -2.6079006E-02;  2.9608469E+02;
  7.5331193E-01;  9.9999998E-03;  1.8043809E-01;7008;  1.9377645E-02;  0.0000000E+00; -7.9357009E-03;  9.9926764E+02;  1.3122156E-01; -6.0674817E+02;3;  1.6274955E+00;  0.0000000E+00; -1.0585395E+00;0;  4.2989332E-02;  2.3317588E+04;  0.0000000E+00;  3.0808574E-01;  4.0000000E+04;  0.0000000E+00;  3.9815547E+04;  6.6530220E-02;  0.0000000E+00; -2.3540888E-02;  1.8753740E+02;
  7.5344402E-01;  9.9999998E-03;  1.9042858E-01;7009;  1.9466095E-02;  0.0000000E+00; -8.1317173E-03;  9.9908704E+02;  1.3128249E-01; -7.5637354E+02;3;  1.0753704E+00;  0.0000000E+00; -9.3294924E-01;0;  4.0222049E-02;  2.3286738E+04;  0.0000000E+00;  3.0754438E-01;  4.0000000E+04;  0.0000000E+00;  3.9817250E+04;  6.1338298E-02;  0.0000000E+00; -2.1116251E-02;  3.5959369E+02;
  7.5357366E-01;  9.9999998E-03;  2.0041373E-01;7010;  1.9621428E-02;  0.0000000E+00; -8.3163185E-03;  9.9889197E+02;  1.3133937E-01; -9.1799860E+02;3;  3.5351786E-01;  0.0000000E+00; -7.9835308E-01;0;  3.7421342E-02;  2.3255830E+04;  0.0000000E+00;  2.8421122E-01;  4.0000000E+04;  0.0000000E+00;  3.9820461E+04;  5.6259014E-02;  0.0000000E+00; -1.8837672E-02;  8.0607690E+02;
  7.5368571E-01;  9.9999998E-03;  2.1040559E-01;7011;  1.9815093E-02;  0.0000000E+00; -8.4643345E-03;  9.9871881E+02;  1.3138728E-01; -1.0614513E+03;3; -4.3754274E-01;  0.0000000E+00; -5.7469565E-01;0;  3.4652114E-02;  2.3226859E+04;  0.0000000E+00;  2.1889359E-01;  4.0000000E+04;  0.0000000E+00;  3.9825910E+04;  5.1359639E-02;  0.0000000E+00; -1.6707523E-02;  1.5621949E+03;
  7.5378060E-01;  9.9999998E-03;  2.2041848E-01;7012;  2.0031724E-02;  0.0000000E+00; -8.5483631E-03;  9.9856866E+02;  1.3142803E-01; -1.1858428E+03;3; -1.3182578E+00;  0.0000000E+00; -3.2391912E-01;0;  3.2024931E-02;  2.3200975E+04;  0.0000000E+00;  1.0259192E-01;  4.0000000E+04;  0.0000000E+00;  3.9832629E+04;  4.6675701E-02;  0.0000000E+00; -1.4650770E-02;  2.5065854E+03;
  7.5384974E-01;  9.9999998E-03;  2.3045985E-01;7013;  2.0274425E-02;  0.0000000E+00; -8.5940044E-03;  9.9839380E+02;  1.3145682E-01; -1.3307275E+03;3; -2.1532006E+00;  0.0000000E+00; -7.8558505E-02;0;  2.9652357E-02;  2.3179684E+04;  0.0000000E+00; -5.2528791E-02;  4.0000000E+04;  0.0000000E+00;  3.9836875E+04;  4.2241242E-02;  0.0000000E+00; -1.2588885E-02;  3.1100125E+03;
  7.6789528E-01;  9.9999998E-03;  7.0080124E-02;7058;  2.1575876E-02;  0.0000000E+00; -4.5124805E-03;  1.0002524E+03;  1.3597657E-01;  2.0917924E+02;3;  6.8883729E+00;  0.0000000E+00; -9.8210967E-01;0;  5.7596479E-02;  2.1742445E+04;  0.0000000E+00;  1.8586935E-01;  4.0000000E+04;  0.0000000E+00;  3.9795629E+04;  1.1046001E-01;  0.0000000E+00; -5.2863527E-02;  9.0897522E+02;
  7.6780331E-01;  9.9999998E-03;  8.0103748E-02;7059;  2.1652786E-02;  0.0000000E+00; -5.0816024E-03;  1.0001667E+03;  1.3596080E-01;  1.3816891E+02;3;  6.4994044E+00;  0.0000000E+00; -1.0827439E+00;0;  5.5661682E-02;  2.1747660E+04;  0.0000000E+00;  2.3570460E-01;  4.0000000E+04;  0.0000000E+00;  3.9795781E+04;  1.0681786E-01;  0.0000000E+00; -5.1156174E-02;  1.0387556E+03;
  7.6767224E-01;  9.9999998E-03;  9.0132222E-02;7060;  2.1653352E-02;  0.0000000E+00; -5.6261458E-03;  1.0000732E+03;  1.3593656E-01;  6.0640251E+01;3;  5.9852614E+00;  0.0000000E+00; -1.1838452E+00;0;  5.3557370E-02;  2.1755551E+04;  0.0000000E+00;  2.7260581E-01;  4.0000000E+04;  0.0000000E+00;  3.9795387E+04;  1.0275602E-01;  0.0000000E+00; -4.9198646E-02;  1.0970232E+03;
  7.6750076E-01;  9.9999998E-03;  1.0016439E-01;7061;  2.1565834E-02;  0.0000000E+00; -6.1379671E-03;  9.9998267E+02;  1.3590516E-01; -1.4369962E+01;3;  5.4475355E+00;  0.0000000E+00; -1.2233537E+00;0;  5.1306050E-02;  2.1766414E+04;  0.0000000E+00;  2.8472614E-01;  4.0000000E+04;  0.0000000E+00;  3.9794480E+04;  9.8303445E-02;  0.0000000E+00; -4.6997394E-02;  1.0636505E+03;
  7.6730138E-01;  9.9999998E-03;  1.1020190E-01;7062;  2.1407865E-02;  0.0000000E+00; -6.6073672E-03;  9.9989600E+02;  1.3587196E-01; -8.6170387E+01;3;  4.9139161E+00;  0.0000000E+00; -1.2171383E+00;0;  4.8917476E-02;  2.1778971E+04;  0.0000000E+00;  2.6403299E-01;  4.0000000E+04;  0.0000000E+00;  3.9793016E+04;  9.3487836E-02;  0.0000000E+00; -4.4570360E-02;  9.3448529E+02;
  7.6710147E-01;  9.9999998E-03;  1.2023960E-01;7063;  2.1198541E-02;  0.0000000E+00; -7.0356131E-03;  9.9982214E+02;  1.3584073E-01; -1.4735384E+02;3;  4.3431420E+00;  0.0000000E+00; -1.2264488E+00;0;  4.6393245E-02;  2.1790480E+04;  0.0000000E+00;  2.1066649E-01;  4.0000000E+04;  0.0000000E+00;  3.9791527E+04;  8.8342011E-02;  0.0000000E+00; -4.1948766E-02;  7.2841260E+02;
  7.6695597E-01;  9.9999998E-03;  1.3027261E-01;7064;  2.0953778E-02;  0.0000000E+00; -7.4284826E-03;  9.9975830E+02;  1.3582994E-01; -2.0024123E+02;3;  3.7605679E+00;  0.0000000E+00; -1.1837873E+00;0;  4.3713786E-02;  2.1795945E+04;  0.0000000E+00;  1.3480794E-01;  4.0000000E+04;  0.0000000E+00;  3.9790016E+04;  8.2888171E-02;  0.0000000E+00; -3.9174385E-02;  4.9636154E+02;
  7.6692343E-01;  9.9999998E-03;  1.4030060E-01;7065;  2.0693257E-02;  0.0000000E+00; -7.7815880E-03;  9.9972821E+02;  1.3585638E-01; -2.2517879E+02;3;  3.1526239E+00;  0.0000000E+00; -1.1101229E+00;0;  4.0851314E-02;  2.1789881E+04;  0.0000000E+00;  5.4879602E-02;  4.0000000E+04;  0.0000000E+00;  3.9788863E+04;  7.7137157E-02;  0.0000000E+00; -3.6285844E-02;  3.5275522E+02;
  7.6691920E-01;  9.9999998E-03;  1.5032478E-01;7066;  2.0432312E-02;  0.0000000E+00; -8.0944682E-03;  9.9968365E+02;  1.3588943E-01; -2.6206662E+02;3;  2.5058489E+00;  0.0000000E+00; -1.0072299E+00;0;  3.7893929E-02;  2.1779955E+04;  0.0000000E+00; -6.0358006E-03;  4.0000000E+04;  0.0000000E+00;  3.9788223E+04;  7.1189158E-02;  0.0000000E+00; -3.3295229E-02;  4.0178625E+02;
  7.6692373E-01;  9.9999998E-03;  1.6034512E-01;7067;  2.0202555E-02;  0.0000000E+00; -8.3669797E-03;  9.9960840E+02;  1.3592249E-01; -3.2443521E+02;3;  1.8842958E+00;  0.0000000E+00; -8.7265706E-01;0;  3.4870222E-02;  2.1767693E+04;  0.0000000E+00; -3.3193875E-02;  4.0000000E+04;  0.0000000E+00;  3.9788277E+04;  6.5118693E-02;  0.0000000E+00; -3.0248469E-02;  5.0134644E+02;
  7.6694000E-01;  9.9999998E-03;  1.7036356E-01;7068;  2.0021645E-02;  0.0000000E+00; -8.6041521E-03;  9.9949542E+02;  1.3595586E-01; -4.1801282E+02;3;  1.2247983E+00;  0.0000000E+00; -7.0347196E-01;0;  3.1776980E-02;  2.1752771E+04;  0.0000000E+00; -2.4613904E-02;  4.0000000E+04;  0.0000000E+00;  3.9788699E+04;  5.8990099E-02;  0.0000000E+00; -2.7213117E-02;  5.4276154E+02;
  7.6702684E-01;  9.9999998E-03;  1.8037312E-01;7069;  1.9907948E-02;  0.0000000E+00; -8.8148452E-03;  9.9937128E+02;  1.3600737E-01; -5.2087408E+02;3;  6.3981998E-01;  0.0000000E+00; -5.3044772E-01;0;  2.8561588E-02;  2.1730104E+04;  0.0000000E+00;  7.4303988E-03;  4.0000000E+04;  0.0000000E+00;  3.9790289E+04;  5.2825257E-02;  0.0000000E+00; -2.4263669E-02;  5.4147083E+02;
  7.6715660E-01;  9.9999998E-03;  1.9038020E-01;7070;  1.9872878E-02;  0.0000000E+00; -9.0056164E-03;  9.9923175E+02;  1.3606787E-01; -6.3647571E+02;3; -1.2061353E-01;  0.0000000E+00; -3.0730757E-01;0;  2.5255688E-02;  2.1702717E+04;  0.0000000E+00;  4.0320951E-02;  4.0000000E+04;  0.0000000E+00;  3.9792691E+04;  4.6708155E-02;  0.0000000E+00; -2.1452468E-02;  6.6062122E+02;
  7.6730311E-01;  9.9999998E-03;  2.0038918E-01;7071;  1.9893639E-02;  0.0000000E+00; -9.1644535E-03;  9.9909131E+02;  1.3612954E-01; -7.5281812E+02;3; -9.2590076E-01;  0.0000000E+00; -3.7902426E-02;0;  2.1914909E-02;  2.1673553E+04;  0.0000000E+00;  4.6574850E-02;  4.0000000E+04;  0.0000000E+00;  3.9797246E+04;  4.0732820E-02;  0.0000000E+00; -1.8817911E-02;  1.1417979E+03;
  7.6745760E-01;  9.9999998E-03;  2.1041688E-01;7072;  1.9959481E-02;  0.0000000E+00; -9.2702452E-03;  9.9896625E+02;  1.3618739E-01; -8.5642010E+02;3; -1.6722921E+00;  0.0000000E+00;  2.4197923E-01;0;  1.8606408E-02;  2.1644119E+04;  0.0000000E+00;  4.6093785E-03;  4.0000000E+04;  0.0000000E+00;  3.9803387E+04;  3.4961328E-02;  0.0000000E+00; -1.6354920E-02;  1.9231661E+03;
  7.6761550E-01;  9.9999998E-03;  2.2046784E-01;7073;  2.0049190E-02;  0.0000000E+00; -9.3137324E-03;  9.9882977E+02;  1.3624454E-01; -9.6950330E+02;3; -2.3366342E+00;  0.0000000E+00;  5.0117391E-01;0;  1.5450994E-02;  2.1615379E+04;  0.0000000E+00; -9.0004183E-02;  4.0000000E+04;  0.0000000E+00;  3.9808781E+04;  2.9448066E-02;  0.0000000E+00; -1.3997072E-02;  2.6694202E+03;
  7.6772100E-01;  9.9999998E-03;  2.3053266E-01;7074;  2.0201789E-02;  0.0000000E+00; -9.3499348E-03;  9.9864630E+02;  1.3628069E-01; -1.1214990E+03;3; -2.7315431E+00;  0.0000000E+00;  6.1140829E-01;0;  1.2535476E-02;  2.1592842E+04;  0.0000000E+00; -2.0809722E-01;  4.0000000E+04;  0.0000000E+00;  3.9810418E+04;  2.4290718E-02;  0.0000000E+00; -1.1755242E-02;  2.9560554E+03;
  7.8153265E-01;  9.9999998E-03;  7.0054568E-02;7119;  2.3984993E-02;  0.0000000E+00; -4.9143131E-03;  1.0005052E+03;  1.4106424E-01;  4.1855597E+02;3;  7.1435986E+00;  0.0000000E+00; -9.4255990E-01;0;  5.0838113E-02;  2.0218824E+04;  0.0000000E+00; -1.9857263E-02;  4.0000000E+04;  0.0000000E+00;  3.9772047E+04;  1.0772359E-01;  0.0000000E+00; -5.6885473E-02;  8.0496027E+02;
  7.8151375E-01;  9.9999998E-03;  8.0047764E-02;7120;  2.3859551E-02;  0.0000000E+00; -5.5353036E-03;  1.0004530E+03;  1.4106974E-01;  3.7529794E+02;3;  6.6449862E+00;  0.0000000E+00; -1.0289024E+00;0;  4.8507042E-02;  2.0219439E+04;  0.0000000E+00; -2.2098660E-02;  4.0000000E+04;  0.0000000E+00;  3.9772984E+04;  1.0358873E-01;  0.0000000E+00; -5.5081688E-02;  9.0792389E+02;
  7.8157091E-01;  9.9999998E-03;  9.0048574E-02;7121;  2.3692260E-02;  0.0000000E+00; -6.1294627E-03;  1.0004239E+03;  1.4110643E-01;  3.5119986E+02;3;  6.1355343E+00;  0.0000000E+00; -1.0722461E+00;0;  4.5905616E-02;  2.0212482E+04;  0.0000000E+00; -3.5586469E-02;  4.0000000E+04;  0.0000000E+00;  3.9772672E+04;  9.8936014E-02;  0.0000000E+00; -5.3030398E-02;  9.0213776E+02;
  7.8161913E-01;  9.9999998E-03;  1.0006440E-01;7122;  2.3459645E-02;  0.0000000E+00; -6.6937436E-03;  1.0003987E+03;  1.4114805E-01;  3.3026218E+02;3;  5.5089736E+00;  0.0000000E+00; -1.1159956E+00;0;  4.3085199E-02;  2.0205615E+04;  0.0000000E+00; -6.6155933E-02;  4.0000000E+04;  0.0000000E+00;  3.9771617E+04;  9.3790457E-02;  0.0000000E+00; -5.0705258E-02;  7.6866992E+02;
  7.8161299E-01;  9.9999998E-03;  1.1009723E-01;7123;  2.3150161E-02;  0.0000000E+00; -7.2225626E-03;  1.0003643E+03;  1.4117557E-01;  3.0181854E+02;3;  4.8613887E+00;  0.0000000E+00; -1.1186044E+00;0;  4.0087368E-02;  2.0202555E+04;  0.0000000E+00; -1.1675055E-01;  4.0000000E+04;  0.0000000E+00;  3.9769656E+04;  8.8189177E-02;  0.0000000E+00; -4.8101809E-02;  5.3665027E+02;
  7.8156924E-01;  9.9999998E-03;  1.2014168E-01;7124;  2.2775974E-02;  0.0000000E+00; -7.7133188E-03;  1.0003352E+03;  1.4119343E-01;  2.7772049E+02;3;  4.1401825E+00;  0.0000000E+00; -1.0907969E+00;0;  3.6928795E-02;  2.0202445E+04;  0.0000000E+00; -1.8477382E-01;  4.0000000E+04;  0.0000000E+00;  3.9767652E+04;  8.2172863E-02;  0.0000000E+00; -4.5244068E-02;  3.5921091E+02;
  7.8151035E-01;  9.9999998E-03;  1.3018762E-01;7125;  2.2352217E-02;  0.0000000E+00; -8.1608091E-03;  1.0003149E+03;  1.4120543E-01;  2.6093085E+02;3;  3.3634043E+00;  0.0000000E+00; -9.9852341E-01;0;  3.3629026E-02;  2.0203320E+04;  0.0000000E+00; -2.5913483E-01;  4.0000000E+04;  0.0000000E+00;  3.9765230E+04;  7.5795107E-02;  0.0000000E+00; -4.2166080E-02;  5.1848505E+02;
  7.8145486E-01;  9.9999998E-03;  1.4023162E-01;7126;  2.1913253E-02;  0.0000000E+00; -8.5571986E-03;  1.0003002E+03;  1.4121808E-01;  2.4868427E+02;3;  2.6275246E+00;  0.0000000E+00; -8.8666153E-01;0;  3.0211162E-02;  2.0203365E+04;  0.0000000E+00; -3.2211319E-01;  4.0000000E+04;  0.0000000E+00;  3.9763117E+04;  6.9113612E-02;  0.0000000E+00; -3.8902450E-02;  8.2719366E+02;
  7.8140867E-01;  9.9999998E-03;  1.5026955E-01;7127;  2.1480389E-02;  0.0000000E+00; -8.9089386E-03;  1.0002758E+03;  1.4123148E-01;  2.2853670E+02;3;  1.8768569E+00;  0.0000000E+00; -7.4226856E-01;0;  2.6709754E-02;  2.0201621E+04;  0.0000000E+00; -3.5495150E-01;  4.0000000E+04;  0.0000000E+00;  3.9761801E+04;  6.2197376E-02;  0.0000000E+00; -3.5487622E-02;  1.0856279E+03;
  7.8137881E-01;  9.9999998E-03;  1.6030137E-01;7128;  2.1077324E-02;  0.0000000E+00; -9.2124753E-03;  1.0002394E+03;  1.4124838E-01;  1.9831534E+02;3;  1.1211227E+00;  0.0000000E+00; -5.5990112E-01;0;  2.3139991E-02;  2.0197016E+04;  0.0000000E+00; -3.4510642E-01;  4.0000000E+04;  0.0000000E+00;  3.9761059E+04;  5.5116255E-02;  0.0000000E+00; -3.1976264E-02;  1.2216398E+03;
  7.8137952E-01;  9.9999998E-03;  1.7033607E-01;7129;  2.0733681E-02;  0.0000000E+00; -9.4677275E-03;  1.0001889E+03;  1.4127026E-01;  1.5653874E+02;3;  4.8123103E-01;  0.0000000E+00; -3.3714494E-01;0;  1.9487571E-02;  2.0188162E+04;  0.0000000E+00; -2.9234585E-01;  4.0000000E+04;  0.0000000E+00;  3.9761387E+04;  4.7934446E-02;  0.0000000E+00; -2.8446876E-02;  1.2095341E+03;
  7.8142887E-01;  9.9999998E-03;  1.8037504E-01;7130;  2.0456523E-02;  0.0000000E+00; -9.6844947E-03;  1.0001225E+03;  1.4130592E-01;  1.0152797E+02;3; -3.1050107E-01;  0.0000000E+00; -1.1364999E-01;0;  1.5736865E-02;  2.0173746E+04;  0.0000000E+00; -2.1136875E-01;  4.0000000E+04;  0.0000000E+00;  3.9763051E+04;  4.0723693E-02;  0.0000000E+00; -2.4986828E-02;  1.0796318E+03;
  7.8155023E-01;  9.9999998E-03;  1.9041389E-01;7131;  2.0240841E-02;  0.0000000E+00; -9.8546669E-03;  1.0000580E+03;  1.4135993E-01;  4.7998631E+01;3; -1.0274390E+00;  0.0000000E+00;  1.4421873E-01;0;  1.1889130E-02;  2.0151930E+04;  0.0000000E+00; -1.2934296E-01;  4.0000000E+04;  0.0000000E+00;  3.9765805E+04;  3.3558894E-02;  0.0000000E+00; -2.1669764E-02;  9.6931671E+02;
  7.8173453E-01;  9.9999998E-03;  2.0045401E-01;7132;  2.0090804E-02;  0.0000000E+00; -9.9695912E-03;  9.9999756E+02;  1.4143266E-01; -2.0246336E+00;3; -1.6829187E+00;  0.0000000E+00;  4.4749182E-01;0;  7.9919137E-03;  2.0123838E+04;  0.0000000E+00; -7.8764379E-02;  4.0000000E+04;  0.0000000E+00;  3.9770109E+04;  2.6526181E-02;  0.0000000E+00; -1.8534267E-02;  1.1668776E+03;
  7.8196627E-01;  9.9999998E-03;  2.1051490E-01;7133;  1.9997757E-02;  0.0000000E+00; -1.0021612E-02;  9.9993018E+02;  1.4151636E-01; -5.7825512E+01;3; -2.2633574E+00;  0.0000000E+00;  7.1904570E-01;0;  4.1382182E-03;  2.0091480E+04;  0.0000000E+00; -8.7837473E-02;  4.0000000E+04;  0.0000000E+00;  3.9774121E+04;  1.9699514E-02;  0.0000000E+00; -1.5561296E-02;  1.6264899E+03;
  7.8220171E-01;  9.9999998E-03;  2.2059509E-01;7134;  1.9982379E-02;  0.0000000E+00; -1.0049356E-02;  9.9981146E+02;  1.4160019E-01; -1.5619308E+02;3; -2.6832519E+00;  0.0000000E+00;  9.1433448E-01;0;  4.2944960E-04;  2.0059086E+04;  0.0000000E+00; -1.6987073E-01;  4.0000000E+04;  0.0000000E+00;  3.9774820E+04;  1.3176753E-02;  0.0000000E+00; -1.2747304E-02;  1.8375254E+03;
  7.8237295E-01;  9.9999998E-03;  2.3066464E-01;7135;  2.0091815E-02;  0.0000000E+00; -1.0123638E-02;  9.9962659E+02;  1.4166120E-01; -3.0937390E+02;3; -2.8895226E+00;  0.0000000E+00;  9.6930140E-01;0; -3.1932429E-03;  2.0032557E+04;  0.0000000E+00; -3.0893829E-01;  4.0000000E+04;  0.0000000E+00;  3.9772348E+04;  7.0803328E-03;  0.0000000E+00; -1.0273576E-02;  1.7475995E+03;
  7.9568166E-01;  9.9999998E-03;  7.0156485E-02;7180;  2.5836660E-02;  0.0000000E+00; -5.1606009E-03;  1.0001398E+03;  1.4666586E-01;  1.1574979E+02;3;  7.3692293E+00;  0.0000000E+00; -7.7081507E-01;0;  4.7814853E-02;  1.8700658E+04;  0.0000000E+00; -2.3568821E-01;  4.0000000E+04;  0.0000000E+00;  3.9745121E+04;  1.0866889E-01;  0.0000000E+00; -6.0854033E-02;  9.4701874E+02;
  7.9571015E-01;  9.9999998E-03;  8.0146514E-02;7181;  2.5608720E-02;  0.0000000E+00; -5.8217579E-03;  1.0001781E+03;  1.4669745E-01;  1.4755135E+02;3;  6.8199902E+00;  0.0000000E+00; -8.3556104E-01;0;  4.5169063E-02;  1.8698012E+04;  0.0000000E+00; -2.9040390E-01;  4.0000000E+04;  0.0000000E+00;  3.9746531E+04;  1.0414355E-01;  0.0000000E+00; -5.8974490E-02;  1.1843052E+03;
  7.9574037E-01;  9.9999998E-03;  9.0137146E-02;7182;  2.5319373E-02;  0.0000000E+00; -6.4538638E-03;  1.0002214E+03;  1.4673124E-01;  1.8340218E+02;3;  6.2088313E+00;  0.0000000E+00; -8.8160372E-01;0;  4.2232562E-02;  1.8695473E+04;  0.0000000E+00; -3.4752828E-01;  4.0000000E+04;  0.0000000E+00;  3.9747383E+04;  9.9028774E-02;  0.0000000E+00; -5.6796212E-02;  1.3355243E+03;
  7.9576629E-01;  9.9999998E-03;  1.0014214E-01;7183;  2.4956277E-02;  0.0000000E+00; -7.0591387E-03;  1.0002734E+03;  1.4676543E-01;  2.2656145E+02;3;  5.4950333E+00;  0.0000000E+00; -9.0084630E-01;0;  3.9019343E-02;  1.8693533E+04;  0.0000000E+00; -4.0793893E-01;  4.0000000E+04;  0.0000000E+00;  3.9747008E+04;  9.3328014E-02;  0.0000000E+00; -5.4308672E-02;  1.3801312E+03;
  7.9579163E-01;  9.9999998E-03;  1.1016984E-01;7184;  2.4523729E-02;  0.0000000E+00; -7.6343333E-03;  1.0003353E+03;  1.4680076E-01;  2.7781924E+02;3;  4.7470746E+00;  0.0000000E+00; -8.8433754E-01;0;  3.5543792E-02;  1.8692072E+04;  0.0000000E+00; -4.7117448E-01;  4.0000000E+04;  0.0000000E+00;  3.9745055E+04;  8.7055497E-02;  0.0000000E+00; -5.1511705E-02;  1.3607092E+03;
  7.9579580E-01;  9.9999998E-03;  1.2021868E-01;7185;  2.4027539E-02;  0.0000000E+00; -8.1709428E-03;  1.0004041E+03;  1.4682902E-01;  3.3480527E+02;3;  3.9552605E+00;  0.0000000E+00; -8.1868178E-01;0;  3.1829681E-02;  1.8692746E+04;  0.0000000E+00; -5.3257972E-01;  4.0000000E+04;  0.0000000E+00;  3.9742441E+04;  8.0240510E-02;  0.0000000E+00; -4.8410829E-02;  1.3649188E+03;
  7.9575831E-01;  9.9999998E-03;  1.3027395E-01;7186;  2.3486078E-02;  0.0000000E+00; -8.6681284E-03;  1.0004735E+03;  1.4684072E-01;  3.9228513E+02;3;  3.1481788E+00;  0.0000000E+00; -7.5890547E-01;0;  2.7916711E-02;  1.8696963E+04;  0.0000000E+00; -5.8272082E-01;  4.0000000E+04;  0.0000000E+00;  3.9739750E+04;  7.2942972E-02;  0.0000000E+00; -4.5026261E-02;  1.4504513E+03;
  7.9569274E-01;  9.9999998E-03;  1.4031924E-01;7187;  2.2918176E-02;  0.0000000E+00; -9.1205752E-03;  1.0005424E+03;  1.4684093E-01;  4.4936990E+02;3;  2.3418381E+00;  0.0000000E+00; -6.3501215E-01;0;  2.3853861E-02;  1.8702971E+04;  0.0000000E+00; -6.0920936E-01;  4.0000000E+04;  0.0000000E+00;  3.9737277E+04;  6.5247379E-02;  0.0000000E+00; -4.1393518E-02;  1.5835955E+03;
  7.9563326E-01;  9.9999998E-03;  1.5036367E-01;7188;  2.2362340E-02;  0.0000000E+00; -9.5242029E-03;  1.0006030E+03;  1.4684150E-01;  4.9954132E+02;3;  1.5583076E+00;  0.0000000E+00; -4.8596549E-01;0;  1.9679014E-02;  1.8707119E+04;  0.0000000E+00; -6.0016537E-01;  4.0000000E+04;  0.0000000E+00;  3.9735531E+04;  5.7225045E-02;  0.0000000E+00; -3.7546031E-02;  1.6837479E+03;
  7.9561770E-01;  9.9999998E-03;  1.6041528E-01;7189;  2.1832744E-02;  0.0000000E+00; -9.8767960E-03;  1.0006573E+03;  1.4685549E-01;  5.4457709E+02;3;  7.7809900E-01;  0.0000000E+00; -3.2610196E-01;0;  1.5404303E-02;  1.8706205E+04;  0.0000000E+00; -5.4816413E-01;  4.0000000E+04;  0.0000000E+00;  3.9734355E+04;  4.8946995E-02;  0.0000000E+00; -3.3542693E-02;  1.6798564E+03;
  7.9567939E-01;  9.9999998E-03;  1.7047426E-01;7190;  2.1340068E-02;  0.0000000E+00; -1.0176271E-02;  1.0007103E+03;  1.4689325E-01;  5.8842767E+02;3; -2.2202240E-02;  0.0000000E+00; -1.1681115E-01;0;  1.1016795E-02;  1.8696705E+04;  0.0000000E+00; -4.5552790E-01;  4.0000000E+04;  0.0000000E+00;  3.9734363E+04;  4.0492367E-02;  0.0000000E+00; -2.9475572E-02;  1.5397000E+03;
  7.9583913E-01;  9.9999998E-03;  1.8053947E-01;7191;  2.0905163E-02;  0.0000000E+00; -1.0417841E-02;  1.0007476E+03;  1.4696315E-01;  6.1934039E+02;3; -7.3669928E-01;  0.0000000E+00;  1.1638003E-01;0;  6.5023005E-03;  1.8677260E+04;  0.0000000E+00; -3.3740729E-01;  4.0000000E+04;  0.0000000E+00;  3.9735051E+04;  3.1947374E-02;  0.0000000E+00; -2.5445074E-02;  1.2898732E+03;
  7.9609871E-01;  9.9999998E-03;  1.9060995E-01;7192;  2.0545000E-02;  0.0000000E+00; -1.0600550E-02;  1.0007690E+03;  1.4706431E-01;  6.3711761E+02;3; -1.4243727E+00;  0.0000000E+00;  3.9327073E-01;0;  1.8730331E-03;  1.8648078E+04;  0.0000000E+00; -2.1938945E-01;  4.0000000E+04;  0.0000000E+00;  3.9736238E+04;  2.3408987E-02;  0.0000000E+00; -2.1535954E-02;  1.0165526E+03;
  7.9643387E-01;  9.9999998E-03;  2.0067868E-01;7193;  2.0245381E-02;  0.0000000E+00; -1.0717341E-02;  1.0007625E+03;  1.4718816E-01;  6.3168567E+02;3; -2.0219688E+00;  0.0000000E+00;  6.6430950E-01;0; -2.8020041E-03;  1.8611871E+04;  0.0000000E+00; -1.3082704E-01;  4.0000000E+04;  0.0000000E+00;  3.9736777E+04;  1.4998497E-02;  0.0000000E+00; -1.7800501E-02;  8.1914154E+02;
  7.9680502E-01;  9.9999998E-03;  2.1075152E-01;7194;  2.0028701E-02;  0.0000000E+00; -1.0789998E-02;  1.0007078E+03;  1.4732112E-01;  5.8645233E+02;3; -2.5620503E+00;  0.0000000E+00;  9.2929274E-01;0; -7.4373945E-03;  1.8571984E+04;  0.0000000E+00; -9.7413942E-02;  4.0000000E+04;  0.0000000E+00;  3.9734934E+04;  6.8299980E-03;  0.0000000E+00; -1.4267392E-02;  7.5780823E+02;
  7.9713833E-01;  9.9999998E-03;  2.2080906E-01;7195;  1.9935604E-02;  0.0000000E+00; -1.0876182E-02;  1.0005759E+03;  1.4744078E-01;  4.7712213E+02;3; -2.9260702E+00;  0.0000000E+00;  1.0994887E+00;0; -1.2000517E-02;  1.8534621E+04;  0.0000000E+00; -1.3787945E-01;  4.0000000E+04;  0.0000000E+00;  3.9730531E+04; -9.4856066E-04;  0.0000000E+00; -1.1051957E-02;  1.0176309E+03;
  7.9737526E-01;  9.9999998E-03;  2.3082800E-01;7196;  1.9971266E-02;  0.0000000E+00; -1.0967699E-02;  1.0004398E+03;  1.4752544E-01;  3.6433524E+02;3; -3.1509166E+00;  0.0000000E+00;  1.1660506E+00;0; -1.6511437E-02;  1.8504861E+04;  0.0000000E+00; -2.5369781E-01;  4.0000000E+04;  0.0000000E+00;  3.9729062E+04; -8.2028667E-03;  0.0000000E+00; -8.3085699E-03;  1.2049071E+03;
  8.0993539E-01;  9.9999998E-03;  7.0329905E-02;7241;  2.6997076E-02;  0.0000000E+00; -5.2590533E-03;  9.9902301E+02;  1.5259784E-01; -8.0940887E+02;3;  7.3571429E+00;  0.0000000E+00; -4.9645832E-01;0;  5.3109959E-02;  1.7254328E+04;  0.0000000E+00; -4.1127911E-01;  4.0000000E+04;  0.0000000E+00;  3.9716414E+04;  1.1782838E-01;  0.0000000E+00; -6.4718418E-02;  1.3319799E+03;
  8.0993009E-01;  9.9999998E-03;  8.0321483E-02;7242;  2.6696933E-02;  0.0000000E+00; -5.9417076E-03;  9.9912463E+02;  1.5260272E-01; -7.2521381E+02;3;  6.8057871E+00;  0.0000000E+00; -5.4747564E-01;0;  4.9940661E-02;  1.7258594E+04;  0.0000000E+00; -5.0437289E-01;  4.0000000E+04;  0.0000000E+00;  3.9718715E+04;  1.1267734E-01;  0.0000000E+00; -6.2736675E-02;  1.7002142E+03;
  8.0993956E-01;  9.9999998E-03;  9.0311386E-02;7243;  2.6343849E-02;  0.0000000E+00; -6.6026771E-03;  9.9924231E+02;  1.5261720E-01; -6.2773511E+02;3;  6.1672029E+00;  0.0000000E+00; -5.5394310E-01;0;  4.6405330E-02;  1.7261734E+04;  0.0000000E+00; -5.9130788E-01;  4.0000000E+04;  0.0000000E+00;  3.9720410E+04;  1.0682629E-01;  0.0000000E+00; -6.0420960E-02;  1.9991487E+03;
  8.0997044E-01;  9.9999998E-03;  1.0029548E-01;7244;  2.5930539E-02;  0.0000000E+00; -7.2398144E-03;  9.9937500E+02;  1.5264413E-01; -5.1781232E+02;3;  5.4261656E+00;  0.0000000E+00; -5.6029004E-01;0;  4.2524911E-02;  1.7262971E+04;  0.0000000E+00; -6.6742814E-01;  4.0000000E+04;  0.0000000E+00;  3.9720859E+04;  1.0028774E-01;  0.0000000E+00; -5.7762824E-02;  2.1799229E+03;
  8.0993438E-01;  9.9999998E-03;  1.1029356E-01;7245;  2.5444299E-02;  0.0000000E+00; -7.8478893E-03;  9.9950476E+02;  1.5265442E-01; -4.1030923E+02;3;  4.6502175E+00;  0.0000000E+00; -5.2531266E-01;0;  3.8260601E-02;  1.7268418E+04;  0.0000000E+00; -7.2857547E-01;  4.0000000E+04;  0.0000000E+00;  3.9719840E+04;  9.2993781E-02;  0.0000000E+00; -5.4733180E-02;  2.2319048E+03;
  8.0984622E-01;  9.9999998E-03;  1.2032502E-01;7246;  2.4900679E-02;  0.0000000E+00; -8.4311785E-03;  9.9963312E+02;  1.5264933E-01; -3.0394189E+02;3;  3.8679466E+00;  0.0000000E+00; -4.8661131E-01;0;  3.3652317E-02;  1.7277268E+04;  0.0000000E+00; -7.6979780E-01;  4.0000000E+04;  0.0000000E+00;  3.9717645E+04;  8.4990390E-02;  0.0000000E+00; -5.1338073E-02;  2.1917559E+03;
  8.0976057E-01;  9.9999998E-03;  1.3037667E-01;7247;  2.4307745E-02;  0.0000000E+00; -8.9812065E-03;  9.9977271E+02;  1.5264326E-01; -1.8829089E+02;3;  3.0222156E+00;  0.0000000E+00; -4.0538627E-01;0;  2.8774641E-02;  1.7286307E+04;  0.0000000E+00; -7.8529972E-01;  4.0000000E+04;  0.0000000E+00;  3.9714910E+04;  7.6383106E-02;  0.0000000E+00; -4.7608465E-02;  2.1123418E+03;
  8.0966640E-01;  9.9999998E-03;  1.4043839E-01;7248;  2.3685597E-02;  0.0000000E+00; -9.4904620E-03;  9.9991614E+02;  1.5262903E-01; -6.9479492E+01;3;  2.1684408E+00;  0.0000000E+00; -3.0189693E-01;0;  2.3681074E-02;  1.7296355E+04;  0.0000000E+00; -7.7051562E-01;  4.0000000E+04;  0.0000000E+00;  3.9712363E+04;  6.7247517E-02;  0.0000000E+00; -4.3566443E-02;  2.0185110E+03;
  8.0961245E-01;  9.9999998E-03;  1.5050958E-01;7249;  2.3038881E-02;  0.0000000E+00; -9.9536236E-03;  1.0000623E+03;  1.5262471E-01;  5.1652840E+01;3;  1.2882446E+00;  0.0000000E+00; -1.5713614E-01;0;  1.8445332E-02;  1.7302895E+04;  0.0000000E+00; -7.2296649E-01;  4.0000000E+04;  0.0000000E+00;  3.9710465E+04;  5.7690550E-02;  0.0000000E+00; -3.9245218E-02;  1.8957986E+03;
  8.0966741E-01;  9.9999998E-03;  1.6059053E-01;7250;  2.2413434E-02;  0.0000000E+00; -1.0367017E-02;  1.0002126E+03;  1.5265697E-01;  1.7619247E+02;3;  5.0124598E-01;  0.0000000E+00; -2.7430343E-02;0;  1.3104372E-02;  1.7299539E+04;  0.0000000E+00; -6.4267993E-01;  4.0000000E+04;  0.0000000E+00;  3.9709449E+04;  4.7812995E-02;  0.0000000E+00; -3.4708623E-02;  1.7091377E+03;
  8.0985445E-01;  9.9999998E-03;  1.7067854E-01;7251;  2.1811683E-02;  0.0000000E+00; -1.0718244E-02;  1.0003520E+03;  1.5273334E-01;  2.9164597E+02;3; -3.1250387E-01;  0.0000000E+00;  1.8260515E-01;0;  7.6484960E-03;  1.7284080E+04;  0.0000000E+00; -5.3450567E-01;  4.0000000E+04;  0.0000000E+00;  3.9709168E+04;  3.7701376E-02;  0.0000000E+00; -3.0052880E-02;  1.4434296E+03;
  8.1015861E-01;  9.9999998E-03;  1.8076393E-01;7252;  2.1264249E-02;  0.0000000E+00; -1.1010012E-02;  1.0004676E+03;  1.5284823E-01;  3.8734692E+02;3; -1.0439601E+00;  0.0000000E+00;  3.7171301E-01;0;  2.0712186E-03;  1.7257898E+04;  0.0000000E+00; -4.0927848E-01;  4.0000000E+04;  0.0000000E+00;  3.9709129E+04;  2.7462745E-02;  0.0000000E+00; -2.5391527E-02;  1.1289346E+03;
  8.1053579E-01;  9.9999998E-03;  1.9083957E-01;7253;  2.0762425E-02;  0.0000000E+00; -1.1225887E-02;  1.0005356E+03;  1.5298550E-01;  4.4374036E+02;3; -1.7297646E+00;  0.0000000E+00;  6.0577118E-01;0; -3.5974570E-03;  1.7224768E+04;  0.0000000E+00; -2.8085363E-01;  4.0000000E+04;  0.0000000E+00;  3.9708152E+04;  1.7232232E-02;  0.0000000E+00; -2.0829689E-02;  8.2608191E+02;
  8.1095701E-01;  9.9999998E-03;  2.0088957E-01;7254;  2.0334484E-02;  0.0000000E+00; -1.1377431E-02;  1.0005410E+03;  1.5313484E-01;  4.4818469E+02;3; -2.2964439E+00;  0.0000000E+00;  8.3863723E-01;0; -9.2821876E-03;  1.7186955E+04;  0.0000000E+00; -1.6183557E-01;  4.0000000E+04;  0.0000000E+00;  3.9706191E+04;  7.1716169E-03;  0.0000000E+00; -1.6453804E-02;  6.2975220E+02;
  8.1136757E-01;  9.9999998E-03;  2.1092492E-01;7255;  2.0003144E-02;  0.0000000E+00; -1.1488410E-02;  1.0004722E+03;  1.5327872E-01;  3.9119867E+02;3; -2.8027444E+00;  0.0000000E+00;  1.0345789E+00;0; -1.4906717E-02;  1.7148564E+04;  0.0000000E+00; -6.2709317E-02;  4.0000000E+04;  0.0000000E+00;  3.9702746E+04; -2.5743314E-03;  0.0000000E+00; -1.2332386E-02;  7.6366278E+02;
  8.1172663E-01;  9.9999998E-03;  2.2094153E-01;7256;  1.9816091E-02;  0.0000000E+00; -1.1610986E-02;  1.0003429E+03;  1.5340507E-01;  2.8404123E+02;3; -3.1370745E+00;  0.0000000E+00;  1.1497947E+00;0; -2.0486947E-02;  1.7112863E+04;  0.0000000E+00;  8.2923323E-03;  4.0000000E+04;  0.0000000E+00;  3.9698977E+04; -1.1856859E-02;  0.0000000E+00; -8.6300895E-03;  1.1031865E+03;
  8.1200421E-01;  9.9999998E-03;  2.3093297E-01;7257;  1.9765036E-02;  0.0000000E+00; -1.1726798E-02;  1.0002185E+03;  1.5350166E-01;  1.8103185E+02;3; -3.3913267E+00;  0.0000000E+00;  1.2010227E+00;0; -2.6099946E-02;  1.7082703E+04;  0.0000000E+00;  4.8090320E-02;  4.0000000E+04;  0.0000000E+00;  3.9699746E+04; -2.0548305E-02;  0.0000000E+00; -5.5516413E-03;  9.0559674E+02;
  8.2448494E-01;  9.9999998E-03;  7.0406638E-02;7302;  2.7630374E-02;  0.0000000E+00; -5.2571693E-03;  9.9774713E+02;  1.5876471E-01; -1.8664648E+03;3;  7.2958870E+00;  0.0000000E+00; -1.6542532E-01;0;  7.1147807E-02;  1.5923813E+04;  0.0000000E+00; -5.0524890E-01;  4.0000000E+04;  0.0000000E+00;  3.9688004E+04;  1.3985367E-01;  0.0000000E+00; -6.8705864E-02;  1.6426414E+03;
  8.2456017E-01;  9.9999998E-03;  1.3039006E-01;7308;  2.4849808E-02;  0.0000000E+00; -9.1658989E-03;  9.9867590E+02;  1.5894768E-01; -1.0970055E+03;3;  2.8761516E+00;  0.0000000E+00;  5.1560573E-02;0;  3.8840547E-02;  1.5918839E+04;  0.0000000E+00; -8.6593652E-01;  4.0000000E+04;  0.0000000E+00;  3.9688516E+04;  8.8724427E-02;  0.0000000E+00; -4.9883880E-02;  2.3778711E+03;
  8.2461607E-01;  9.9999998E-03;  1.2033802E-01;7307;  2.5459845E-02;  0.0000000E+00; -8.5614622E-03;  9.9848322E+02;  1.5894744E-01; -1.2566058E+03;3;  3.7185013E+00;  0.0000000E+00; -4.3959603E-02;0;  4.5402467E-02;  1.5912205E+04;  0.0000000E+00; -8.8325649E-01;  4.0000000E+04;  0.0000000E+00;  3.9691133E+04;  9.9455237E-02;  0.0000000E+00; -5.4052770E-02;  2.6306306E+03;
  8.2459384E-01;  9.9999998E-03;  1.4047252E-01;7309;  2.4191443E-02;  0.0000000E+00; -9.7367438E-03;  9.9888342E+02;  1.5897925E-01; -9.2505981E+02;3;  1.9226427E+00;  0.0000000E+00;  1.5119241E-01;0;  3.2064650E-02;  1.5918971E+04;  0.0000000E+00; -8.2023776E-01;  4.0000000E+04;  0.0000000E+00;  3.9685859E+04;  7.7405967E-02;  0.0000000E+00; -4.5341317E-02;  2.0694253E+03;
  8.2463855E-01;  9.9999998E-03;  8.0401391E-02;7303;  2.7306998E-02;  0.0000000E+00; -5.9514698E-03;  9.9786884E+02;  1.5884319E-01; -1.7656283E+03;3;  6.6924109E+00;  0.0000000E+00; -1.5614301E-01;0;  6.7190215E-02;  1.5911687E+04;  0.0000000E+00; -6.2390596E-01;  4.0000000E+04;  0.0000000E+00;  3.9690520E+04;  1.3379805E-01;  0.0000000E+00; -6.6607833E-02;  2.0950754E+03;
  8.2464987E-01;  9.9999998E-03;  1.5056884E-01;7310;  2.3493389E-02;  0.0000000E+00; -1.0260235E-02;  9.9909003E+02;  1.5901192E-01; -7.5390424E+02;3;  1.1065067E+00;  0.0000000E+00;  2.7520454E-01;0;  2.5081988E-02;  1.5917397E+04;  0.0000000E+00; -7.5525218E-01;  4.0000000E+04;  0.0000000E+00;  3.9684152E+04;  6.5526463E-02;  0.0000000E+00; -4.0444475E-02;  1.7532334E+03;
  8.2469755E-01;  9.9999998E-03;  1.6066086E-01;7311;  2.2779055E-02;  0.0000000E+00; -1.0729091E-02;  9.9927490E+02;  1.5903653E-01; -6.0072345E+02;3;  1.8073569E-01;  0.0000000E+00;  4.2071417E-01;0;  1.7944578E-02;  1.5915679E+04;  0.0000000E+00; -6.7883199E-01;  4.0000000E+04;  0.0000000E+00;  3.9683387E+04;  5.3214040E-02;  0.0000000E+00; -3.5269462E-02;  1.4478306E+03;
  8.2475662E-01;  9.9999998E-03;  9.0378225E-02;7304;  2.6932335E-02;  0.0000000E+00; -6.6285236E-03;  9.9800049E+02;  1.5892063E-01; -1.6565450E+03;3;  6.0394745E+00;  0.0000000E+00; -1.4839870E-01;0;  6.2638216E-02;  1.5900876E+04;  0.0000000E+00; -7.3073614E-01;  4.0000000E+04;  0.0000000E+00;  3.9692426E+04;  1.2674803E-01;  0.0000000E+00; -6.4109810E-02;  2.4799023E+03;
  8.2477909E-01;  9.9999998E-03;  1.1032000E-01;7306;  2.6016450E-02;  0.0000000E+00; -7.9337396E-03;  9.9830939E+02;  1.5898912E-01; -1.4006511E+03;3;  4.6029754E+00;  0.0000000E+00; -6.7134246E-02;0;  5.1736757E-02;  1.5897807E+04;  0.0000000E+00; -8.6655140E-01;  4.0000000E+04;  0.0000000E+00;  3.9692691E+04;  1.0957832E-01;  0.0000000E+00; -5.7841562E-02;  2.7623765E+03;
  8.2478708E-01;  9.9999998E-03;  1.7073900E-01;7312;  2.2075513E-02;  0.0000000E+00; -1.1126873E-02;  9.9944507E+02;  1.5906936E-01; -4.5973987E+02;3; -5.1495457E-01;  0.0000000E+00;  5.5728263E-01;0;  1.0726186E-02;  1.5910032E+04;  0.0000000E+00; -5.9498709E-01;  4.0000000E+04;  0.0000000E+00;  3.9683676E+04;  4.0668488E-02;  0.0000000E+00; -2.9942302E-02;  1.1606130E+03;
  8.2487386E-01;  9.9999998E-03;  1.0033638E-01;7305;  2.6502021E-02;  0.0000000E+00; -7.2882287E-03;  9.9814893E+02;  1.5899917E-01; -1.5335856E+03;3;  5.3556294E+00;  0.0000000E+00; -1.1482584E-01;0;  5.7577077E-02;  1.5890147E+04;  0.0000000E+00; -8.1459421E-01;  4.0000000E+04;  0.0000000E+00;  3.9693105E+04;  1.1878502E-01;  0.0000000E+00; -6.1207946E-02;  2.7175789E+03;
  8.2493323E-01;  9.9999998E-03;  1.8080628E-01;7313;  2.1390779E-02;  0.0000000E+00; -1.1451438E-02;  9.9956299E+02;  1.5911798E-01; -3.6206366E+02;3; -1.3178988E+00;  0.0000000E+00;  7.2807193E-01;0;  3.4594741E-03;  1.5899315E+04;  0.0000000E+00; -5.0089383E-01;  4.0000000E+04;  0.0000000E+00;  3.9684391E+04;  2.8055292E-02;  0.0000000E+00; -2.4595818E-02;  9.0116486E+02;
  8.2514787E-01;  9.9999998E-03;  1.9086355E-01;7314;  2.0746786E-02;  0.0000000E+00; -1.1699092E-02;  9.9962994E+02;  1.5918748E-01; -3.0660846E+02;3; -1.9769641E+00;  0.0000000E+00;  8.9701235E-01;0; -3.8022911E-03;  1.5882279E+04;  0.0000000E+00; -3.8696912E-01;  4.0000000E+04;  0.0000000E+00;  3.9684840E+04;  1.5548027E-02;  0.0000000E+00; -1.9350318E-02;  6.6318481E+02;
  8.2544321E-01;  9.9999998E-03;  2.0089434E-01;7315;  2.0194340E-02;  0.0000000E+00; -1.1882017E-02;  9.9963348E+02;  1.5928763E-01; -3.0364560E+02;3; -2.5124230E+00;  0.0000000E+00;  1.0629128E+00;0; -1.0968571E-02;  1.5857431E+04;  0.0000000E+00; -2.4120325E-01;  4.0000000E+04;  0.0000000E+00;  3.9685051E+04;  3.3366492E-03;  0.0000000E+00; -1.4305220E-02;  5.3032330E+02;
  8.2572412E-01;  9.9999998E-03;  2.1091843E-01;7316;  1.9750958E-02;  0.0000000E+00; -1.2008364E-02;  9.9956604E+02;  1.5937988E-01; -3.5954523E+02;3; -3.0048993E+00;  0.0000000E+00;  1.2093048E+00;0; -1.7972525E-02;  1.5832320E+04;  0.0000000E+00; -5.0760407E-02;  4.0000000E+04;  0.0000000E+00;  3.9685621E+04; -8.4292935E-03;  0.0000000E+00; -9.5432308E-03;  7.2009338E+02;
  8.2593924E-01;  9.9999998E-03;  2.2094846E-01;7317;  1.9471880E-02;  0.0000000E+00; -1.2142041E-02;  9.9942889E+02;  1.5944427E-01; -4.7317160E+02;3; -3.3125861E+00;  0.0000000E+00;  1.2682749E+00;0; -2.4839532E-02;  1.5811192E+04;  0.0000000E+00;  1.8918030E-01;  4.0000000E+04;  0.0000000E+00;  3.9685406E+04; -1.9582013E-02;  0.0000000E+00; -5.2575185E-03;  1.1355100E+03;
  8.2600540E-01;  9.9999998E-03;  2.3097147E-01;7318;  1.9346001E-02;  0.0000000E+00; -1.2299835E-02;  9.9924268E+02;  1.5945144E-01; -6.2743878E+02;3; -3.6678214E+00;  0.0000000E+00;  1.3337932E+00;0; -3.1771541E-02;  1.5800732E+04;  0.0000000E+00;  4.6779323E-01;  4.0000000E+04;  0.0000000E+00;  3.9685609E+04; -2.9925236E-02;  0.0000000E+00; -1.8463042E-03;  1.7492096E+03;
  8.4112549E-01;  9.9999998E-03;  7.0434615E-02;7363;  2.7986946E-02;  0.0000000E+00; -5.1810648E-03;  9.9706360E+02;  1.6597660E-01; -2.4327695E+03;3;  7.1758919E+00;  0.0000000E+00;  2.5440779E-01;0;  1.1015657E-01;  1.4580466E+04;  0.0000000E+00; -5.1461256E-01;  4.0000000E+04;  0.0000000E+00;  3.9657773E+04;  1.8363085E-01;  0.0000000E+00; -7.3474281E-02;  1.7196023E+03;
  8.4111536E-01;  9.9999998E-03;  8.0500878E-02;7364;  2.7663181E-02;  0.0000000E+00; -5.8979103E-03;  9.9713702E+02;  1.6598874E-01; -2.3719316E+03;3;  6.5390968E+00;  0.0000000E+00;  2.7203578E-01;0;  1.0373825E-01;  1.4578205E+04;  0.0000000E+00; -6.3794690E-01;  4.0000000E+04;  0.0000000E+00;  3.9659629E+04;  1.7469867E-01;  0.0000000E+00; -7.0960417E-02;  2.1631077E+03;
  8.4113264E-01;  9.9999998E-03;  9.0540312E-02;7365;  2.7280919E-02;  0.0000000E+00; -6.6048061E-03;  9.9723401E+02;  1.6601647E-01; -2.2915884E+03;3;  5.8373871E+00;  0.0000000E+00;  3.3469933E-01;0;  9.6661143E-02;  1.4573847E+04;  0.0000000E+00; -7.4764293E-01;  4.0000000E+04;  0.0000000E+00;  3.9661492E+04;  1.6464917E-01;  0.0000000E+00; -6.7988031E-02;  2.5382168E+03;
  8.4117883E-01;  9.9999998E-03;  1.0055947E-01;7366;  2.6852593E-02;  0.0000000E+00; -7.2974465E-03;  9.9733966E+02;  1.6606075E-01; -2.2040352E+03;3;  5.1268802E+00;  0.0000000E+00;  3.8294500E-01;0;  8.8973045E-02;  1.4567219E+04;  0.0000000E+00; -8.2964861E-01;  4.0000000E+04;  0.0000000E+00;  3.9662102E+04;  1.5351586E-01;  0.0000000E+00; -6.4542815E-02;  2.7524236E+03;
  8.4120864E-01;  9.9999998E-03;  1.1054949E-01;7367;  2.6363134E-02;  0.0000000E+00; -7.9836566E-03;  9.9745935E+02;  1.6610029E-01; -2.1048777E+03;3;  4.3096585E+00;  0.0000000E+00;  4.3391061E-01;0;  8.0631360E-02;  1.4562169E+04;  0.0000000E+00; -8.7345481E-01;  4.0000000E+04;  0.0000000E+00;  3.9661754E+04;  1.4125416E-01;  0.0000000E+00; -6.0622793E-02;  2.7474819E+03;
  8.4115314E-01;  9.9999998E-03;  1.2055480E-01;7368;  2.5805997E-02;  0.0000000E+00; -8.6552687E-03;  9.9759747E+02;  1.6610277E-01; -1.9904612E+03;3;  3.4528928E+00;  0.0000000E+00;  5.2386898E-01;0;  7.1550272E-02;  1.4563769E+04;  0.0000000E+00; -8.7707418E-01;  4.0000000E+04;  0.0000000E+00;  3.9660285E+04;  1.2777199E-01;  0.0000000E+00; -5.6221716E-02;  2.5260911E+03;
  8.4097761E-01;  9.9999998E-03;  1.3057347E-01;7369;  2.5170431E-02;  0.0000000E+00; -9.2987642E-03;  9.9774750E+02;  1.6605966E-01; -1.8661685E+03;3;  2.5912271E+00;  0.0000000E+00;  5.9893352E-01;0;  6.1814159E-02;  1.4574041E+04;  0.0000000E+00; -8.4760779E-01;  4.0000000E+04;  0.0000000E+00;  3.9658293E+04;  1.1318878E-01;  0.0000000E+00; -5.1374622E-02;  2.1532488E+03;
  8.4065437E-01;  9.9999998E-03;  1.4060274E-01;7370;  2.4463834E-02;  0.0000000E+00; -9.9123931E-03;  9.9790497E+02;  1.6595390E-01; -1.7357031E+03;3;  1.7303675E+00;  0.0000000E+00;  6.8985242E-01;0;  5.1575266E-02;  1.4595117E+04;  0.0000000E+00; -7.9993564E-01;  4.0000000E+04;  0.0000000E+00;  3.9656801E+04;  9.7704485E-02;  0.0000000E+00; -4.6129219E-02;  1.7281021E+03;
  8.4034765E-01;  9.9999998E-03;  1.5063991E-01;7371;  2.3720490E-02;  0.0000000E+00; -1.0478399E-02;  9.9808020E+02;  1.6584441E-01; -1.5905221E+03;3;  9.3493086E-01;  0.0000000E+00;  7.6590359E-01;0;  4.1280001E-02;  1.4616412E+04;  0.0000000E+00; -7.5315726E-01;  4.0000000E+04;  0.0000000E+00;  3.9655805E+04;  8.1819043E-02;  0.0000000E+00; -4.0539041E-02;  1.3437791E+03;
  8.4015208E-01;  9.9999998E-03;  1.6066879E-01;7372;  2.2910969E-02;  0.0000000E+00; -1.0987832E-02;  9.9825311E+02;  1.6576853E-01; -1.4472670E+03;3; -4.8791025E-02;  0.0000000E+00;  8.8954037E-01;0;  3.1124745E-02;  1.4631119E+04;  0.0000000E+00; -7.2191662E-01;  4.0000000E+04;  0.0000000E+00;  3.9655781E+04;  6.5809228E-02;  0.0000000E+00; -3.4684483E-02;  1.0676558E+03;
  8.4013098E-01;  9.9999998E-03;  1.7069151E-01;7373;  2.2094097E-02;  0.0000000E+00; -1.1425206E-02;  9.9840979E+02;  1.6575176E-01; -1.3174435E+03;3; -7.8036284E-01;  0.0000000E+00;  1.0166682E+00;0;  2.1168254E-02;  1.4634318E+04;  0.0000000E+00; -7.0661485E-01;  4.0000000E+04;  0.0000000E+00;  3.9656586E+04;  4.9841888E-02;  0.0000000E+00; -2.8673634E-02;  9.3082166E+02;
  8.4127498E-01;  9.9999998E-03;  2.3102193E-01;7379;  1.8603548E-02;  0.0000000E+00; -1.2889175E-02;  9.9822400E+02;  1.6596593E-01; -1.4713650E+03;3; -4.0837293E+00;  0.0000000E+00;  1.6896255E+00;0; -3.4855355E-02;  1.4566562E+04;  0.0000000E+00;  6.2928587E-01;  4.0000000E+04;  0.0000000E+00;  3.9667773E+04; -3.7797522E-02;  0.0000000E+00;  2.9421672E-03;  3.4734653E+03;
  8.4025681E-01;  9.9999998E-03;  1.8071528E-01;7374;  2.1281617E-02;  0.0000000E+00; -1.1794608E-02;  9.9853790E+02;  1.6578287E-01; -1.2113231E+03;3; -1.5414007E+00;  0.0000000E+00;  1.1548843E+00;0;  1.1358343E-02;  1.4627573E+04;  0.0000000E+00; -6.8802571E-01;  4.0000000E+04;  0.0000000E+00;  3.9658355E+04;  3.3990946E-02;  0.0000000E+00; -2.2632603E-02;  9.5980109E+02;
  8.4046668E-01;  9.9999998E-03;  1.9074854E-01;7375;  2.0505512E-02;  0.0000000E+00; -1.2084460E-02;  9.9862537E+02;  1.6583617E-01; -1.1388807E+03;3; -2.2176840E+00;  0.0000000E+00;  1.2960514E+00;0;  1.6824547E-03;  1.4615286E+04;  0.0000000E+00; -6.2981969E-01;  4.0000000E+04;  0.0000000E+00;  3.9661344E+04;  1.8371552E-02;  0.0000000E+00; -1.6689098E-02;  1.2098717E+03;
  8.4111571E-01;  9.9999998E-03;  2.2094703E-01;7378;  1.8876866E-02;  0.0000000E+00; -1.2649383E-02;  9.9850385E+02;  1.6594769E-01; -1.2395199E+03;3; -3.6275861E+00;  0.0000000E+00;  1.5792764E+00;0; -2.5828274E-02;  1.4577633E+04;  0.0000000E+00;  1.4699624E-01;  4.0000000E+04;  0.0000000E+00;  3.9671230E+04; -2.5100842E-02;  0.0000000E+00; -7.2743231E-04;  2.9665862E+03;
  8.4070033E-01;  9.9999998E-03;  2.0078440E-01;7376;  1.9797226E-02;  0.0000000E+00; -1.2290166E-02;  9.9867273E+02;  1.6588798E-01; -1.0996227E+03;3; -2.8001509E+00;  0.0000000E+00;  1.4447807E+00;0; -7.7735092E-03;  1.4601701E+04;  0.0000000E+00; -4.8969907E-01;  4.0000000E+04;  0.0000000E+00;  3.9666719E+04;  3.1846182E-03;  0.0000000E+00; -1.0958128E-02;  1.7940051E+03;
  8.4091479E-01;  9.9999998E-03;  2.1084726E-01;7377;  1.9237272E-02;  0.0000000E+00; -1.2441392E-02;  9.9865784E+02;  1.6592273E-01; -1.1119680E+03;3; -3.2111511E+00;  0.0000000E+00;  1.5379215E+00;0; -1.6908251E-02;  1.4589550E+04;  0.0000000E+00; -2.3349899E-01;  4.0000000E+04;  0.0000000E+00;  3.9671742E+04; -1.1373180E-02;  0.0000000E+00; -5.5350708E-03;  2.5711963E+03;
  8.5909736E-01;  9.9999998E-03;  7.0431106E-02;7424;  2.8376175E-02;  0.0000000E+00; -5.1286928E-03;  9.9751892E+02;  1.7421354E-01; -2.0555452E+03;3;  6.8718996E+00;  0.0000000E+00;  6.8029219E-01;0;  1.7216212E-01;  1.3276117E+04;  0.0000000E+00; -4.4155517E-01;  4.0000000E+04;  0.0000000E+00;  3.9625117E+04;  2.5095719E-01;  0.0000000E+00; -7.8795068E-02;  1.5082046E+03;
  8.5917765E-01;  9.9999998E-03;  8.0540344E-02;7425;  2.8068764E-02;  0.0000000E+00; -5.8731288E-03;  9.9750470E+02;  1.7423300E-01; -2.0672981E+03;3;  6.2830024E+00;  0.0000000E+00;  7.7417094E-01;0;  1.6248250E-01;  1.3268699E+04;  0.0000000E+00; -5.5329579E-01;  4.0000000E+04;  0.0000000E+00;  3.9626145E+04;  2.3808795E-01;  0.0000000E+00; -7.5605452E-02;  1.8654860E+03;
  8.5927945E-01;  9.9999998E-03;  9.0621546E-02;7426;  2.7717639E-02;  0.0000000E+00; -6.6187796E-03;  9.9752203E+02;  1.7426743E-01; -2.0529280E+03;3;  5.5333405E+00;  0.0000000E+00;  8.4089339E-01;0;  1.5181328E-01;  1.3259858E+04;  0.0000000E+00; -6.5497619E-01;  4.0000000E+04;  0.0000000E+00;  3.9627086E+04;  2.2365113E-01;  0.0000000E+00; -7.1837842E-02;  2.1594609E+03;
  8.5939229E-01;  9.9999998E-03;  1.0068948E-01;7427;  2.7295738E-02;  0.0000000E+00; -7.3571783E-03;  9.9756641E+02;  1.7430921E-01; -2.0161884E+03;3;  4.7936745E+00;  0.0000000E+00;  9.3302101E-01;0;  1.4019591E-01;  1.3250377E+04;  0.0000000E+00; -7.3291469E-01;  4.0000000E+04;  0.0000000E+00;  3.9627195E+04;  2.0768116E-01;  0.0000000E+00; -6.7485265E-02;  2.2908547E+03;
  8.5945970E-01;  9.9999998E-03;  1.1073166E-01;7428;  2.6819998E-02;  0.0000000E+00; -8.0844844E-03;  9.9763647E+02;  1.7433612E-01; -1.9581160E+03;3;  4.0408821E+00;  0.0000000E+00;  9.8733932E-01;0;  1.2760505E-01;  1.3244355E+04;  0.0000000E+00; -7.7800685E-01;  4.0000000E+04;  0.0000000E+00;  3.9626152E+04;  1.9017835E-01;  0.0000000E+00; -6.2573291E-02;  2.1988176E+03;
  8.5942161E-01;  9.9999998E-03;  1.2077369E-01;7429;  2.6262470E-02;  0.0000000E+00; -8.8083716E-03;  9.9772589E+02;  1.7432062E-01; -1.8840441E+03;3;  3.2011204E+00;  0.0000000E+00;  1.0609468E+00;0;  1.1402464E-01;  1.3245593E+04;  0.0000000E+00; -7.9069960E-01;  4.0000000E+04;  0.0000000E+00;  3.9624273E+04;  1.7116538E-01;  0.0000000E+00; -5.7140738E-02;  1.8897627E+03;
  8.5922003E-01;  9.9999998E-03;  1.3081177E-01;7430;  2.5613669E-02;  0.0000000E+00; -9.5141856E-03;  9.9783124E+02;  1.7424043E-01; -1.7967874E+03;3;  2.3214254E+00;  0.0000000E+00;  1.1027402E+00;0;  9.9565834E-02;  1.3257289E+04;  0.0000000E+00; -7.8305340E-01;  4.0000000E+04;  0.0000000E+00;  3.9622137E+04;  1.5083377E-01;  0.0000000E+00; -5.1267933E-02;  1.4454473E+03;
  8.5902584E-01;  9.9999998E-03;  1.4086373E-01;7431;  2.4876267E-02;  0.0000000E+00; -1.0187693E-02;  9.9795471E+02;  1.7416249E-01; -1.6944694E+03;3;  1.5301521E+00;  0.0000000E+00;  1.2217124E+00;0;  8.4859103E-02;  1.3269335E+04;  0.0000000E+00; -7.7840716E-01;  4.0000000E+04;  0.0000000E+00;  3.9620574E+04;  1.2987101E-01;  0.0000000E+00; -4.5011904E-02;  9.9444946E+02;
  8.5887927E-01;  9.9999998E-03;  1.5090770E-01;7432;  2.4037674E-02;  0.0000000E+00; -1.0817431E-02;  9.9809088E+02;  1.7409915E-01; -1.5816825E+03;3;  4.9206895E-01;  0.0000000E+00;  1.2772535E+00;0;  7.0177600E-02;  1.3279231E+04;  0.0000000E+00; -8.0350876E-01;  4.0000000E+04;  0.0000000E+00;  3.9619434E+04;  1.0861601E-01;  0.0000000E+00; -3.8438410E-02;  6.6417096E+02;
  8.5879546E-01;  9.9999998E-03;  1.6093862E-01;7433;  2.3115074E-02;  0.0000000E+00; -1.1385709E-02;  9.9822382E+02;  1.7405540E-01; -1.4715128E+03;3; -2.8249991E-01;  0.0000000E+00;  1.3876740E+00;0;  5.5655409E-02;  1.3285745E+04;  0.0000000E+00; -8.7646115E-01;  4.0000000E+04;  0.0000000E+00;  3.9619488E+04;  8.7299563E-02;  0.0000000E+00; -3.1644154E-02;  5.3239850E+02;
  8.5876751E-01;  9.9999998E-03;  1.7095627E-01;7434;  2.2152612E-02;  0.0000000E+00; -1.1872927E-02;  9.9833710E+02;  1.7402758E-01; -1.3776884E+03;3; -1.1059825E+00;  0.0000000E+00;  1.5362998E+00;0;  4.1358363E-02;  1.3289221E+04;  0.0000000E+00; -9.9341720E-01;  4.0000000E+04;  0.0000000E+00;  3.9620207E+04;  6.6132985E-02;  0.0000000E+00; -2.4774622E-02;  6.1507166E+02;
  8.5874820E-01;  9.9999998E-03;  1.8096806E-01;7435;  2.1138212E-02;  0.0000000E+00; -1.2277214E-02;  9.9840887E+02;  1.7399618E-01; -1.3182333E+03;3; -1.8828411E+00;  0.0000000E+00;  1.6703563E+00;0;  2.7301071E-02;  1.3292458E+04;  0.0000000E+00; -1.1219530E+00;  4.0000000E+04;  0.0000000E+00;  3.9621961E+04;  4.5295823E-02;  0.0000000E+00; -1.7994752E-02;  8.5503680E+02;
  8.5869372E-01;  9.9999998E-03;  1.9098453E-01;7436;  2.0171303E-02;  0.0000000E+00; -1.2599691E-02;  9.9842615E+02;  1.7393924E-01; -1.3039127E+03;3; -2.6393492E+00;  0.0000000E+00;  1.8482642E+00;0;  1.3599228E-02;  1.3298040E+04;  0.0000000E+00; -1.2060804E+00;  4.0000000E+04;  0.0000000E+00;  3.9624223E+04;  2.5053229E-02;  0.0000000E+00; -1.1454001E-02;  1.1237966E+03;
  8.5853344E-01;  9.9999998E-03;  2.0099851E-01;7437;  1.9279931E-02;  0.0000000E+00; -1.2841870E-02;  9.9838806E+02;  1.7383799E-01; -1.3354674E+03;3; -3.1545274E+00;  0.0000000E+00;  1.9240812E+00;0;  4.0870439E-04;  1.3309160E+04;  0.0000000E+00; -1.1718322E+00;  4.0000000E+04;  0.0000000E+00;  3.9628035E+04;  5.7086456E-03;  0.0000000E+00; -5.2999412E-03;  1.3437451E+03;
  8.5832679E-01;  9.9999998E-03;  2.1102138E-01;7438;  1.8582772E-02;  0.0000000E+00; -1.3091704E-02;  9.9829895E+02;  1.7371903E-01; -1.4092924E+03;3; -3.5749784E+00;  0.0000000E+00;  1.9614980E+00;0; -1.2115386E-02;  1.3321900E+04;  0.0000000E+00; -9.6291906E-01;  4.0000000E+04;  0.0000000E+00;  3.9632941E+04; -1.2418855E-02;  0.0000000E+00;  3.0346881E-04;  1.6630208E+03;
  8.5811943E-01;  9.9999998E-03;  2.2107351E-01;7439;  1.8015333E-02;  0.0000000E+00; -1.3328650E-02;  9.9810681E+02;  1.7360125E-01; -1.5684482E+03;3; -4.0884776E+00;  0.0000000E+00;  2.0472744E+00;0; -2.4083097E-02;  1.3333196E+04;  0.0000000E+00; -5.5829304E-01;  4.0000000E+04;  0.0000000E+00;  3.9635844E+04; -2.9191742E-02;  0.0000000E+00;  5.1086461E-03;  2.0567419E+03;
  8.5793281E-01;  9.9999998E-03;  2.3111273E-01;7440;  1.7501844E-02;  0.0000000E+00; -1.3471104E-02;  9.9786432E+02;  1.7350245E-01; -1.7693807E+03;3; -4.5357437E+00;  0.0000000E+00;  2.1655147E+00;0; -3.5617929E-02;  1.3341219E+04;  0.0000000E+00;  7.8939581E-03;  4.0000000E+04;  0.0000000E+00;  3.9639539E+04; -4.4479642E-02;  0.0000000E+00;  8.8617122E-03;  3.0511729E+03;
  8.7652820E-01;  9.9999998E-03;  7.0407324E-02;7485;  2.9319588E-02;  0.0000000E+00; -5.2929386E-03;  9.9809052E+02;  1.8259530E-01; -1.5819785E+03;3;  5.9798665E+00;  0.0000000E+00;  9.5811576E-01;0;  2.4107759E-01;  1.2117840E+04;  0.0000000E+00; -3.0819306E-01;  4.0000000E+04;  0.0000000E+00;  3.9593387E+04;  3.2454523E-01;  0.0000000E+00; -8.3467647E-02;  1.1521617E+03;
  8.7657821E-01;  9.9999998E-03;  8.0518648E-02;7486;  2.9085830E-02;  0.0000000E+00; -6.0923472E-03;  9.9802844E+02;  1.8260297E-01; -1.6333844E+03;3;  5.4622521E+00;  0.0000000E+00;  1.1199970E+00;0;  2.2708321E-01;  1.2110889E+04;  0.0000000E+00; -4.0051222E-01;  4.0000000E+04;  0.0000000E+00;  3.9593629E+04;  3.0637953E-01;  0.0000000E+00; -7.9296321E-02;  1.3368999E+03;
  8.7669158E-01;  9.9999998E-03;  9.0607829E-02;7487;  2.8814318E-02;  0.0000000E+00; -6.8964087E-03;  9.9800342E+02;  1.8264329E-01; -1.6541245E+03;3;  4.7788191E+00;  0.0000000E+00;  1.1886579E+00;0;  2.1195936E-01;  1.2100436E+04;  0.0000000E+00; -4.9023104E-01;  4.0000000E+04;  0.0000000E+00;  3.9593656E+04;  2.8639695E-01;  0.0000000E+00; -7.4437588E-02;  1.4791968E+03;
  8.7684011E-01;  9.9999998E-03;  1.0067269E-01;7488;  2.8471120E-02;  0.0000000E+00; -7.6980880E-03;  9.9801526E+02;  1.8270209E-01; -1.6442977E+03;3;  4.0925217E+00;  0.0000000E+00;  1.3187165E+00;0;  1.9575602E-01;  1.2088415E+04;  0.0000000E+00; -5.6612200E-01;  4.0000000E+04;  0.0000000E+00;  3.9592625E+04;  2.6466548E-01;  0.0000000E+00; -6.8909466E-02;  1.4794236E+03;
  8.7697756E-01;  9.9999998E-03;  1.1072814E-01;7489;  2.8068239E-02;  0.0000000E+00; -8.4927334E-03;  9.9805896E+02;  1.8275839E-01; -1.6081012E+03;3;  3.4609878E+00;  0.0000000E+00;  1.4417593E+00;0;  1.7849302E-01;  1.2077744E+04;  0.0000000E+00; -6.2098563E-01;  4.0000000E+04;  0.0000000E+00;  3.9590848E+04;  2.4125223E-01;  0.0000000E+00; -6.2759213E-02;  1.2829674E+03;
  8.7706071E-01;  9.9999998E-03;  1.2077986E-01;7490;  2.7572053E-02;  0.0000000E+00; -9.2918621E-03;  9.9813269E+02;  1.8279004E-01; -1.5470166E+03;3;  2.5306692E+00;  0.0000000E+00;  1.4292811E+00;0;  1.6026835E-01;  1.2071425E+04;  0.0000000E+00; -6.5658450E-01;  4.0000000E+04;  0.0000000E+00;  3.9587988E+04;  2.1634279E-01;  0.0000000E+00; -5.6074437E-02;  9.0408221E+02;
  8.7705541E-01;  9.9999998E-03;  1.3083538E-01;7491;  2.6897829E-02;  0.0000000E+00; -1.0047407E-02;  9.9822754E+02;  1.8278028E-01; -1.4684509E+03;3;  1.7508645E+00;  0.0000000E+00;  1.6162682E+00;0;  1.4124317E-01;  1.2071594E+04;  0.0000000E+00; -6.8644661E-01;  4.0000000E+04;  0.0000000E+00;  3.9584723E+04;  1.9021195E-01;  0.0000000E+00; -4.8968781E-02;  4.8619870E+02;
  8.7697452E-01;  9.9999998E-03;  1.4089218E-01;7492;  2.6078930E-02;  0.0000000E+00; -1.0767055E-02;  9.9834949E+02;  1.8273579E-01; -1.3674169E+03;3;  8.4732074E-01;  0.0000000E+00;  1.6531879E+00;0;  1.2176217E-01;  1.2077359E+04;  0.0000000E+00; -7.3346609E-01;  4.0000000E+04;  0.0000000E+00;  3.9582090E+04;  1.6332254E-01;  0.0000000E+00; -4.1560367E-02;  4.0975363E+02;
  8.7684947E-01;  9.9999998E-03;  1.5094435E-01;7493;  2.5099358E-02;  0.0000000E+00; -1.1421520E-02;  9.9848932E+02;  1.8266758E-01; -1.2515684E+03;3;  3.2491013E-02;  0.0000000E+00;  1.8124224E+00;0;  1.0217828E-01;  1.2086782E+04;  0.0000000E+00; -8.2196200E-01;  4.0000000E+04;  0.0000000E+00;  3.9580492E+04;  1.3613524E-01;  0.0000000E+00; -3.3956956E-02;  6.0408759E+02;
  8.7672383E-01;  9.9999998E-03;  1.6098559E-01;7494;  2.3993192E-02;  0.0000000E+00; -1.2001331E-02;  9.9862592E+02;  1.8259653E-01; -1.1383865E+03;3; -8.4752375E-01;  0.0000000E+00;  1.8748811E+00;0;  8.2795419E-02;  1.2096639E+04;  0.0000000E+00; -9.6690637E-01;  4.0000000E+04;  0.0000000E+00;  3.9580414E+04;  1.0908450E-01;  0.0000000E+00; -2.6289081E-02;  6.6683527E+02;
  8.7665921E-01;  9.9999998E-03;  1.7101589E-01;7495;  2.2732154E-02;  0.0000000E+00; -1.2488991E-02;  9.9873975E+02;  1.8255207E-01; -1.0441177E+03;3; -1.7953588E+00;  0.0000000E+00;  2.0878479E+00;0;  6.3824214E-02;  1.2103004E+04;  0.0000000E+00; -1.1631813E+00;  4.0000000E+04;  0.0000000E+00;  3.9581285E+04;  8.2528763E-02;  0.0000000E+00; -1.8704548E-02;  6.5569568E+02;
  8.7664777E-01;  9.9999998E-03;  1.8103927E-01;7496;  2.1380352E-02;  0.0000000E+00; -1.2859863E-02;  9.9881647E+02;  1.8252812E-01; -9.8051459E+02;3; -2.5576580E+00;  0.0000000E+00;  2.3082612E+00;0;  4.5366682E-02;  1.2105961E+04;  0.0000000E+00; -1.3778703E+00;  4.0000000E+04;  0.0000000E+00;  3.9582953E+04;  5.6734558E-02;  0.0000000E+00; -1.1367877E-02;  8.4746606E+02;
  8.7664670E-01;  9.9999998E-03;  1.9106372E-01;7497;  2.0046959E-02;  0.0000000E+00; -1.3140026E-02;  9.9882898E+02;  1.8250306E-01; -9.7014453E+02;3; -3.2571068E+00;  0.0000000E+00;  2.4426184E+00;0;  2.7546886E-02;  1.2108130E+04;  0.0000000E+00; -1.5551105E+00;  4.0000000E+04;  0.0000000E+00;  3.9585789E+04;  3.1973988E-02;  0.0000000E+00; -4.4271019E-03;  1.2210629E+03;
  8.7663603E-01;  9.9999998E-03;  2.0109436E-01;7498;  1.8851772E-02;  0.0000000E+00; -1.3377123E-02;  9.9877563E+02;  1.8246873E-01; -1.0143408E+03;3; -3.6124985E+00;  0.0000000E+00;  2.4630160E+00;0;  1.0543915E-02;  1.2110447E+04;  0.0000000E+00; -1.6309006E+00;  4.0000000E+04;  0.0000000E+00;  3.9589422E+04;  8.5581206E-03;  0.0000000E+00;  1.9857942E-03;  1.5373258E+03;
  8.7660313E-01;  9.9999998E-03;  2.1112926E-01;7499;  1.7837793E-02;  0.0000000E+00; -1.3641925E-02;  9.9864648E+02;  1.8241715E-01; -1.1213500E+03;3; -4.1794147E+00;  0.0000000E+00;  2.5670877E+00;0; -5.5891578E-03;  1.2113198E+04;  0.0000000E+00; -1.5525815E+00;  4.0000000E+04;  0.0000000E+00;  3.9594320E+04; -1.3228120E-02;  0.0000000E+00;  7.6389625E-03;  1.7230059E+03;
  8.7654716E-01;  9.9999998E-03;  2.2119017E-01;7500;  1.6926462E-02;  0.0000000E+00; -1.3870047E-02;  9.9840662E+02;  1.8235548E-01; -1.3201096E+03;3; -4.6688385E+00;  0.0000000E+00;  2.6834106E+00;0; -2.0993706E-02;  1.2115991E+04;  0.0000000E+00; -1.2940267E+00;  4.0000000E+04;  0.0000000E+00;  3.9596914E+04; -3.3278517E-02;  0.0000000E+00;  1.2284811E-02;  1.6270146E+03;
  8.7642002E-01;  9.9999998E-03;  2.3124868E-01;7501;  1.6078727E-02;  0.0000000E+00; -1.4064596E-02;  9.9806421E+02;  1.8226853E-01; -1.6037556E+03;3; -5.0788083E+00;  0.0000000E+00;  2.8000197E+00;0; -3.6048051E-02;  1.2121305E+04;  0.0000000E+00; -8.6414206E-01;  4.0000000E+04;  0.0000000E+00;  3.9597504E+04; -5.1441401E-02;  0.0000000E+00;  1.5393349E-02;  1.4254199E+03;
  8.9553487E-01;  9.9999998E-03;  7.0362248E-02;7546;  3.4811303E-02;  0.0000000E+00; -6.7190491E-03;  9.9841162E+02;  1.9196421E-01; -1.3159611E+03;3;  3.1177058E+00;  0.0000000E+00;  1.0418316E+00;0;  3.0271468E-01;  1.0980537E+04;  0.0000000E+00; -1.6439240E-01;  4.0000000E+04;  0.0000000E+00;  3.9558930E+04;  3.8897777E-01;  0.0000000E+00; -8.6263083E-02;  9.9128650E+02;
  8.9567947E-01;  9.9999998E-03;  8.0467172E-02;7547;  3.5164274E-02;  0.0000000E+00; -7.7785668E-03;  9.9833319E+02;  1.9201675E-01; -1.3808975E+03;3;  2.4519455E+00;  0.0000000E+00;  1.1198620E+00;0;  2.8470722E-01;  1.0968979E+04;  0.0000000E+00; -2.3334575E-01;  4.0000000E+04;  0.0000000E+00;  3.9558324E+04;  3.6554894E-01;  0.0000000E+00; -8.0841720E-02;  9.6947333E+02;
  8.9581221E-01;  9.9999998E-03;  9.0543136E-02;7548;  3.5397440E-02;  0.0000000E+00; -8.8159535E-03;  9.9829694E+02;  1.9206360E-01; -1.4109706E+03;3;  1.8485465E+00;  0.0000000E+00;  1.3065296E+00;0;  2.6508266E-01;  1.0958464E+04;  0.0000000E+00; -3.0974478E-01;  4.0000000E+04;  0.0000000E+00;  3.9557672E+04;  3.3970031E-01;  0.0000000E+00; -7.4617662E-02;  9.1210229E+02;
  8.9591271E-01;  9.9999998E-03;  1.0059363E-01;7549;  3.5411898E-02;  0.0000000E+00; -9.8269517E-03;  9.9829150E+02;  1.9209443E-01; -1.4154644E+03;3;  9.8342925E-01;  0.0000000E+00;  1.3510009E+00;0;  2.4408653E-01;  1.0950310E+04;  0.0000000E+00; -3.8794774E-01;  4.0000000E+04;  0.0000000E+00;  3.9555973E+04;  3.1175965E-01;  0.0000000E+00; -6.7673117E-02;  7.5652673E+02;
  8.9595467E-01;  9.9999998E-03;  1.1062772E-01;7550;  3.5005771E-02;  0.0000000E+00; -1.0781773E-02;  9.9832074E+02;  1.9210123E-01; -1.3912181E+03;3;  1.1652156E-01;  0.0000000E+00;  1.5947148E+00;0;  2.2194704E-01;  1.0946028E+04;  0.0000000E+00; -4.6457574E-01;  4.0000000E+04;  0.0000000E+00;  3.9553734E+04;  2.8207660E-01;  0.0000000E+00; -6.0129557E-02;  4.7069598E+02;
  8.9590269E-01;  9.9999998E-03;  1.2067479E-01;7551;  3.4109242E-02;  0.0000000E+00; -1.1621910E-02;  9.9837488E+02;  1.9206530E-01; -1.3463800E+03;3; -8.3548224E-01;  0.0000000E+00;  1.7722927E+00;0;  1.9886425E-01;  1.0947790E+04;  0.0000000E+00; -5.4120576E-01;  4.0000000E+04;  0.0000000E+00;  3.9550332E+04;  2.5099137E-01;  0.0000000E+00; -5.2127115E-02;  2.3306946E+02;
  8.9576185E-01;  9.9999998E-03;  1.3074388E-01;7552;  3.2752719E-02;  0.0000000E+00; -1.2310711E-02;  9.9846393E+02;  1.9198895E-01; -1.2726044E+03;3; -1.5450125E+00;  0.0000000E+00;  2.0528722E+00;0;  1.7515370E-01;  1.0955382E+04;  0.0000000E+00; -6.2536401E-01;  4.0000000E+04;  0.0000000E+00;  3.9546723E+04;  2.1897286E-01;  0.0000000E+00; -4.3819159E-02;  5.8215118E+02;
  8.9557827E-01;  9.9999998E-03;  1.4082552E-01;7553;  3.0996431E-02;  0.0000000E+00; -1.2886094E-02;  9.9858435E+02;  1.9189326E-01; -1.1728542E+03;3; -2.4569201E+00;  0.0000000E+00;  2.3340182E+00;0;  1.5120673E-01;  1.0966572E+04;  0.0000000E+00; -7.2900832E-01;  4.0000000E+04;  0.0000000E+00;  3.9543699E+04;  1.8655419E-01;  0.0000000E+00; -3.5347465E-02;  1.0042071E+03;
  8.9539981E-01;  9.9999998E-03;  1.5090537E-01;7554;  2.9027550E-02;  0.0000000E+00; -1.3301193E-02;  9.9873767E+02;  1.9179833E-01; -1.0457963E+03;3; -2.8420460E+00;  0.0000000E+00;  2.6087296E+00;0;  1.2739030E-01;  1.0978664E+04;  0.0000000E+00; -8.6381835E-01;  4.0000000E+04;  0.0000000E+00;  3.9541395E+04;  1.5423006E-01;  0.0000000E+00; -2.6839761E-02;  1.2778522E+03;
  8.9528072E-01;  9.9999998E-03;  1.6097602E-01;7555;  2.6950039E-02;  0.0000000E+00; -1.3599949E-02;  9.9891321E+02;  1.9173136E-01; -9.0036847E+02;3; -3.2574208E+00;  0.0000000E+00;  2.7878006E+00;0;  1.0396723E-01;  1.0988473E+04;  0.0000000E+00; -1.0350287E+00;  4.0000000E+04;  0.0000000E+00;  3.9540801E+04;  1.2240723E-01;  0.0000000E+00; -1.8439997E-02;  1.3505388E+03;
  8.9523977E-01;  9.9999998E-03;  1.7103614E-01;7556;  2.4793519E-02;  0.0000000E+00; -1.3791558E-02;  9.9908698E+02;  1.9170290E-01; -7.5642206E+02;3; -3.6979375E+00;  0.0000000E+00;  3.0024047E+00;0;  8.1071317E-02;  1.0994284E+04;  0.0000000E+00; -1.2340833E+00;  4.0000000E+04;  0.0000000E+00;  3.9541059E+04;  9.1407195E-02;  0.0000000E+00; -1.0335875E-02;  1.3031991E+03;
  8.9517897E-01;  9.9999998E-03;  1.8106671E-01;7557;  2.2664433E-02;  0.0000000E+00; -1.3894049E-02;  9.9922235E+02;  1.9167008E-01; -6.4427722E+02;3; -4.0206847E+00;  0.0000000E+00;  3.0590365E+00;0;  5.8838949E-02;  1.1000498E+04;  0.0000000E+00; -1.4318643E+00;  4.0000000E+04;  0.0000000E+00;  3.9543363E+04;  6.1612088E-02;  0.0000000E+00; -2.7731396E-03;  1.2914325E+03;
  8.9514464E-01;  9.9999998E-03;  1.9109268E-01;7558;  2.0590004E-02;  0.0000000E+00; -1.3920444E-02;  9.9931110E+02;  1.9164978E-01; -5.7074854E+02;3; -4.4191389E+00;  0.0000000E+00;  3.1716239E+00;0;  3.7425157E-02;  1.1004747E+04;  0.0000000E+00; -1.5829471E+00;  4.0000000E+04;  0.0000000E+00;  3.9546949E+04;  3.3271816E-02;  0.0000000E+00;  4.1533411E-03;  1.3962544E+03;
  8.9512736E-01;  9.9999998E-03;  2.0113371E-01;7559;  1.8754331E-02;  0.0000000E+00; -1.3925035E-02;  9.9933722E+02;  1.9163409E-01; -5.4911957E+02;3; -4.4704628E+00;  0.0000000E+00;  3.0877457E+00;0;  1.7014531E-02;  1.1007344E+04;  0.0000000E+00; -1.6364264E+00;  4.0000000E+04;  0.0000000E+00;  3.9552168E+04;  6.6651083E-03;  0.0000000E+00;  1.0349423E-02;  1.5339780E+03;
  8.9510649E-01;  9.9999998E-03;  2.1119197E-01;7560;  1.7245179E-02;  0.0000000E+00; -1.4023330E-02;  9.9928363E+02;  1.9161281E-01; -5.9351331E+02;3; -4.8977466E+00;  0.0000000E+00;  3.1198192E+00;0; -2.3585493E-03;  1.1009181E+04;  0.0000000E+00; -1.5533977E+00;  4.0000000E+04;  0.0000000E+00;  3.9557578E+04; -1.7920971E-02;  0.0000000E+00;  1.5562422E-02;  1.6005732E+03;
  8.9506620E-01;  9.9999998E-03;  2.2128467E-01;7561;  1.5872771E-02;  0.0000000E+00; -1.4127171E-02;  9.9909772E+02;  1.9158152E-01; -7.4753345E+02;3; -5.3011541E+00;  0.0000000E+00;  3.2083282E+00;0; -2.0877529E-02;  1.1010929E+04;  0.0000000E+00; -1.3203783E+00;  4.0000000E+04;  0.0000000E+00;  3.9558359E+04; -4.0420569E-02;  0.0000000E+00;  1.9543041E-02;  1.2646366E+03;
  8.9492613E-01;  9.9999998E-03;  2.3137793E-01;7562;  1.4615060E-02;  0.0000000E+00; -1.4316569E-02;  9.9875928E+02;  1.9151010E-01; -1.0279202E+03;3; -5.6835527E+00;  0.0000000E+00;  3.3193822E+00;0; -3.9193958E-02;  1.1016687E+04;  0.0000000E+00; -9.5960802E-01;  4.0000000E+04;  0.0000000E+00;  3.9553188E+04; -6.0659733E-02;  0.0000000E+00;  2.1465775E-02;  3.4447311E+02;
  9.1541255E-01;  9.9999998E-03;  7.0295438E-02;7607;  6.3574240E-02;  0.0000000E+00; -1.1632684E-02;  9.9828766E+02;  2.0214716E-01; -1.4186241E+03;3; -2.8883240E+00;  0.0000000E+00; -1.7339177E-01;0;  3.2238126E-01;  9.9040420E+03;  0.0000000E+00; -7.3034905E-02;  4.0000000E+04;  0.0000000E+00;  3.9521418E+04;  4.0579858E-01;  0.0000000E+00; -8.3417341E-02;  1.2021189E+03;
  9.1545105E-01;  9.9999998E-03;  8.0382586E-02;7608;  6.1785698E-02;  0.0000000E+00; -1.3050443E-02;  9.9821057E+02;  2.0215566E-01; -1.4825236E+03;3; -4.2128158E+00;  0.0000000E+00;  6.5021105E-02;0;  3.0188742E-01;  9.8986816E+03;  0.0000000E+00; -1.1739248E-01;  4.0000000E+04;  0.0000000E+00;  3.9521285E+04;  3.7883565E-01;  0.0000000E+00; -7.6948233E-02;  1.3177570E+03;
  9.1545820E-01;  9.9999998E-03;  9.0458140E-02;7609;  5.9398677E-02;  0.0000000E+00; -1.4266271E-02;  9.9816864E+02;  2.0214486E-01; -1.5172385E+03;3; -5.2908525E+00;  0.0000000E+00;  4.5264754E-01;0;  2.7984557E-01;  9.8954492E+03;  0.0000000E+00; -1.7767347E-01;  4.0000000E+04;  0.0000000E+00;  3.9521152E+04;  3.4953022E-01;  0.0000000E+00; -6.9684654E-02;  1.4311365E+03;
  9.1542345E-01;  9.9999998E-03;  1.0051657E-01;7610;  5.6426231E-02;  0.0000000E+00; -1.5293972E-02;  9.9816290E+02;  2.0211077E-01; -1.5219791E+03;3; -6.4273186E+00;  0.0000000E+00;  8.4561986E-01;0;  2.5658542E-01;  9.8950381E+03;  0.0000000E+00; -2.5664929E-01;  4.0000000E+04;  0.0000000E+00;  3.9520293E+04;  3.1834784E-01;  0.0000000E+00; -6.1762433E-02;  1.4776833E+03;
  9.1533357E-01;  9.9999998E-03;  1.1055782E-01;7611;  5.2979443E-02;  0.0000000E+00; -1.6115071E-02;  9.9817804E+02;  2.0204788E-01; -1.5094363E+03;3; -7.2175446E+00;  0.0000000E+00;  1.3343341E+00;0;  2.3241895E-01;  9.8983301E+03;  0.0000000E+00; -3.5586330E-01;  4.0000000E+04;  0.0000000E+00;  3.9518613E+04;  2.8576553E-01;  0.0000000E+00; -5.3346582E-02;  1.4185220E+03;
  9.1516328E-01;  9.9999998E-03;  1.2061464E-01;7612;  4.9271211E-02;  0.0000000E+00; -1.6720762E-02;  9.9823663E+02;  2.0194362E-01; -1.4608945E+03;3; -7.5235162E+00;  0.0000000E+00;  1.7247674E+00;0;  2.0757897E-01;  9.9068145E+03;  0.0000000E+00; -4.7450581E-01;  4.0000000E+04;  0.0000000E+00;  3.9515754E+04;  2.5217333E-01;  0.0000000E+00; -4.4594359E-02;  1.2778816E+03;
  9.1492915E-01;  9.9999998E-03;  1.3068844E-01;7613;  4.5448460E-02;  0.0000000E+00; -1.7168859E-02;  9.9832880E+02;  2.0180704E-01; -1.3845511E+03;3; -7.8227606E+00;  0.0000000E+00;  2.2166731E+00;0;  1.8233937E-01;  9.9197568E+03;  0.0000000E+00; -6.0877591E-01;  4.0000000E+04;  0.0000000E+00;  3.9512574E+04;  2.1800433E-01;  0.0000000E+00; -3.5664964E-02;  1.1566445E+03;
  9.1467470E-01;  9.9999998E-03;  1.4077136E-01;7614;  4.1531775E-02;  0.0000000E+00; -1.7435335E-02;  9.9845630E+02;  2.0166151E-01; -1.2789247E+03;3; -7.9019947E+00;  0.0000000E+00;  2.6030438E+00;0;  1.5696627E-01;  9.9349688E+03;  0.0000000E+00; -7.5213999E-01;  4.0000000E+04;  0.0000000E+00;  3.9509328E+04;  1.8367152E-01;  0.0000000E+00; -2.6705258E-02;  1.1614323E+03;
  9.1445178E-01;  9.9999998E-03;  1.5085660E-01;7615;  3.7600536E-02;  0.0000000E+00; -1.7527318E-02;  9.9861884E+02;  2.0153484E-01; -1.1442621E+03;3; -7.8401418E+00;  0.0000000E+00;  3.0748653E+00;0;  1.3171412E-01;  9.9496299E+03;  0.0000000E+00; -8.9614624E-01;  4.0000000E+04;  0.0000000E+00;  3.9506727E+04;  1.4955282E-01;  0.0000000E+00; -1.7838700E-02;  1.2686669E+03;
  9.1430980E-01;  9.9999998E-03;  1.6093975E-01;7616;  3.3697523E-02;  0.0000000E+00; -1.7384153E-02;  9.9880975E+02;  2.0144722E-01; -9.8609393E+02;3; -7.8694949E+00;  0.0000000E+00;  3.6538701E+00;0;  1.0675448E-01;  9.9610430E+03;  0.0000000E+00; -1.0314039E+00;  4.0000000E+04;  0.0000000E+00;  3.9505039E+04;  1.1598497E-01;  0.0000000E+00; -9.2304908E-03;  1.3615502E+03;
  9.1427493E-01;  9.9999998E-03;  1.7101516E-01;7617;  2.9824892E-02;  0.0000000E+00; -1.6972890E-02;  9.9900488E+02;  2.0141883E-01; -8.2441974E+02;3; -7.7145419E+00;  0.0000000E+00;  4.2445273E+00;0;  8.2194157E-02;  9.9674648E+03;  0.0000000E+00; -1.1471168E+00;  4.0000000E+04;  0.0000000E+00;  3.9504863E+04;  8.3302312E-02;  0.0000000E+00; -1.1081581E-03;  1.3692886E+03;
  9.1436821E-01;  9.9999998E-03;  1.8107961E-01;7618;  2.6043691E-02;  0.0000000E+00; -1.6291378E-02;  9.9918976E+02;  2.0145491E-01; -6.7128851E+02;3; -7.7004080E+00;  0.0000000E+00;  4.7981148E+00;0;  5.8159128E-02;  9.9676006E+03;  0.0000000E+00; -1.2296706E+00;  4.0000000E+04;  0.0000000E+00;  3.9506246E+04;  5.1827513E-02;  0.0000000E+00;  6.3316165E-03;  1.2812506E+03;
  9.1460848E-01;  9.9999998E-03;  1.9113871E-01;7619;  2.2472331E-02;  0.0000000E+00; -1.5353115E-02;  9.9934583E+02;  2.0156552E-01; -5.4195911E+02;3; -7.3018141E+00;  0.0000000E+00;  5.0947576E+00;0;  3.4880646E-02;  9.9602354E+03;  0.0000000E+00; -1.2632074E+00;  4.0000000E+04;  0.0000000E+00;  3.9509324E+04;  2.1849727E-02;  0.0000000E+00;  1.3030916E-02;  1.1083282E+03;
  9.1498649E-01;  9.9999998E-03;  2.0120604E-01;7620;  1.9175416E-02;  0.0000000E+00; -1.4277657E-02;  9.9945001E+02;  2.0174268E-01; -4.5564069E+02;3; -6.8413534E+00;  0.0000000E+00;  4.9334331E+00;0;  1.2707367E-02;  9.9456240E+03;  0.0000000E+00; -1.2369974E+00;  4.0000000E+04;  0.0000000E+00;  3.9513434E+04; -6.3726855E-03;  0.0000000E+00;  1.9080052E-02;  9.5920477E+02;
  9.1528970E-01;  9.9999998E-03;  2.1128052E-01;7621;  1.6725287E-02;  0.0000000E+00; -1.3688434E-02;  9.9946790E+02;  2.0188937E-01; -4.4082629E+02;3; -5.9613566E+00;  0.0000000E+00;  3.8604660E+00;0; -8.3111916E-03;  9.9327500E+03;  0.0000000E+00; -1.1511737E+00;  4.0000000E+04;  0.0000000E+00;  3.9517559E+04; -3.2297447E-02;  0.0000000E+00;  2.3986256E-02;  9.9165570E+02;
  9.1544592E-01;  9.9999998E-03;  2.2139220E-01;7622;  1.4794361E-02;  0.0000000E+00; -1.3631120E-02;  9.9930872E+02;  2.0197231E-01; -5.7272357E+02;3; -6.1419706E+00;  0.0000000E+00;  3.7907622E+00;0; -2.8928209E-02;  9.9246152E+03;  0.0000000E+00; -1.0074257E+00;  4.0000000E+04;  0.0000000E+00;  3.9516445E+04; -5.5835091E-02;  0.0000000E+00;  2.6906881E-02;  7.8809332E+02;
  9.1546160E-01;  9.9999998E-03;  2.3150709E-01;7623;  1.2991483E-02;  0.0000000E+00; -1.3790310E-02;  9.9897205E+02;  2.0199525E-01; -8.5162885E+02;3; -6.4159427E+00;  0.0000000E+00;  3.8797121E+00;0; -4.9804397E-02;  9.9218760E+03;  0.0000000E+00; -8.2594371E-01;  4.0000000E+04;  0.0000000E+00;  3.9506984E+04; -7.6960951E-02;  0.0000000E+00;  2.7156556E-02;  1.0511517E+03;
  9.3744653E-01;  9.9999998E-03;  7.0564449E-02;7668;  7.6991871E-02;  0.0000000E+00; -1.1514893E-02;  9.9846570E+02;  2.1395601E-01; -1.2711216E+03;3; -5.0775928E+00;  0.0000000E+00; -5.5035329E-01;0;  2.7312356E-01;  8.8462871E+03;  0.0000000E+00; -2.4060279E-02;  4.0000000E+04;  0.0000000E+00;  3.9480883E+04;  3.4309378E-01;  0.0000000E+00; -6.9970228E-02;  1.7720974E+03;
  9.3750185E-01;  9.9999998E-03;  8.0650806E-02;7669;  7.3316559E-02;  0.0000000E+00; -1.2682167E-02;  9.9844196E+02;  2.1397300E-01; -1.2908247E+03;3; -5.9656839E+00;  0.0000000E+00; -3.3774513E-01;0;  2.5467753E-01;  8.8426992E+03;  0.0000000E+00; -4.5375094E-02;  4.0000000E+04;  0.0000000E+00;  3.9481883E+04;  3.1815782E-01;  0.0000000E+00; -6.3480280E-02;  2.2245391E+03;
  9.3747950E-01;  9.9999998E-03;  9.0717703E-02;7670;  6.9277547E-02;  0.0000000E+00; -1.3687450E-02;  9.9843890E+02;  2.1394125E-01; -1.2933431E+03;3; -6.6193709E+00;  0.0000000E+00; -1.1871772E-01;0;  2.3509493E-01;  8.8428857E+03;  0.0000000E+00; -9.1510251E-02;  4.0000000E+04;  0.0000000E+00;  3.9482918E+04;  2.9139897E-01;  0.0000000E+00; -5.6304045E-02;  2.6205566E+03;
  9.3735784E-01;  9.9999998E-03;  1.0076739E-01;7671;  6.4961925E-02;  0.0000000E+00; -1.4505843E-02;  9.9844958E+02;  2.1385390E-01; -1.2845039E+03;3; -7.2910433E+00;  0.0000000E+00;  8.6841241E-02;0;  2.1462949E-01;  8.8481338E+03;  0.0000000E+00; -1.7291988E-01;  4.0000000E+04;  0.0000000E+00;  3.9484082E+04;  2.6320937E-01;  0.0000000E+00; -4.8579883E-02;  2.8290105E+03;
  9.3713850E-01;  9.9999998E-03;  1.1078304E-01;7672;  6.0374334E-02;  0.0000000E+00; -1.5191615E-02;  9.9847675E+02;  2.1370982E-01; -1.2619861E+03;3; -7.9048853E+00;  0.0000000E+00;  3.1491217E-01;0;  1.9350421E-01;  8.8583799E+03;  0.0000000E+00; -2.9267189E-01;  4.0000000E+04;  0.0000000E+00;  3.9483844E+04;  2.3396531E-01;  0.0000000E+00; -4.0461089E-02;  2.7610085E+03;
  9.3682092E-01;  9.9999998E-03;  1.2080427E-01;7673;  5.5593912E-02;  0.0000000E+00; -1.5733145E-02;  9.9852045E+02;  2.1351205E-01; -1.2257897E+03;3; -8.2423191E+00;  0.0000000E+00;  5.5498677E-01;0;  1.7181611E-01;  8.8738809E+03;  0.0000000E+00; -4.4193405E-01;  4.0000000E+04;  0.0000000E+00;  3.9482566E+04;  2.0389205E-01;  0.0000000E+00; -3.2075945E-02;  2.4084253E+03;
  9.3645203E-01;  9.9999998E-03;  1.3083705E-01;7674;  5.0719216E-02;  0.0000000E+00; -1.6152762E-02;  9.9859467E+02;  2.1329033E-01; -1.1643101E+03;3; -8.5428324E+00;  0.0000000E+00;  7.6755226E-01;0;  1.4963602E-01;  8.8926592E+03;  0.0000000E+00; -5.9949070E-01;  4.0000000E+04;  0.0000000E+00;  3.9480258E+04;  1.7318514E-01;  0.0000000E+00; -2.3549119E-02;  1.8628323E+03;
  9.3611187E-01;  9.9999998E-03;  1.4088191E-01;7675;  4.5825209E-02;  0.0000000E+00; -1.6419336E-02;  9.9870135E+02;  2.1308278E-01; -1.0759177E+03;3; -8.6614323E+00;  0.0000000E+00;  1.0524164E+00;0;  1.2702784E-01;  8.9109844E+03;  0.0000000E+00; -7.3584157E-01;  4.0000000E+04;  0.0000000E+00;  3.9477219E+04;  1.4201802E-01;  0.0000000E+00; -1.4990181E-02;  1.3054742E+03;
  9.3587720E-01;  9.9999998E-03;  1.5093862E-01;7676;  4.1013792E-02;  0.0000000E+00; -1.6494716E-02;  9.9883722E+02;  2.1293531E-01; -9.6332861E+02;3; -8.6858139E+00;  0.0000000E+00;  1.4402487E+00;0;  1.0412365E-01;  8.9254150E+03;  0.0000000E+00; -8.2134670E-01;  4.0000000E+04;  0.0000000E+00;  3.9474289E+04;  1.1063081E-01;  0.0000000E+00; -6.5071546E-03;  9.6770111E+02;
  9.3576366E-01;  9.9999998E-03;  1.6099977E-01;7677;  3.6247667E-02;  0.0000000E+00; -1.6271345E-02;  9.9899280E+02;  2.1285620E-01; -8.3444366E+02;3; -8.6490583E+00;  0.0000000E+00;  2.0609913E+00;0;  8.1159756E-02;  8.9348096E+03;  0.0000000E+00; -8.3575857E-01;  4.0000000E+04;  0.0000000E+00;  3.9472355E+04;  7.9451598E-02;  0.0000000E+00;  1.7081595E-03;  9.5661279E+02;
  9.3576616E-01;  9.9999998E-03;  1.7106174E-01;7678;  3.1583253E-02;  0.0000000E+00; -1.5723163E-02;  9.9916364E+02;  2.1284096E-01; -6.9291711E+02;3; -8.5980911E+00;  0.0000000E+00;  2.8084717E+00;0;  5.8311589E-02;  8.9391699E+03;  0.0000000E+00; -7.7570546E-01;  4.0000000E+04;  0.0000000E+00;  3.9471512E+04;  4.8912656E-02;  0.0000000E+00;  9.3989316E-03;  1.1137140E+03;
  9.3589759E-01;  9.9999998E-03;  1.8112357E-01;7679;  2.7006704E-02;  0.0000000E+00; -1.4788120E-02;  9.9933032E+02;  2.1289676E-01; -5.5479785E+02;3; -8.5507841E+00;  0.0000000E+00;  3.6280060E+00;0;  3.5723463E-02;  8.9375332E+03;  0.0000000E+00; -6.5724123E-01;  4.0000000E+04;  0.0000000E+00;  3.9472199E+04;  1.9363731E-02;  0.0000000E+00;  1.6359730E-02;  1.3209854E+03;
  9.3618405E-01;  9.9999998E-03;  1.9118701E-01;7680;  2.2615271E-02;  0.0000000E+00; -1.3479900E-02;  9.9948151E+02;  2.1303804E-01; -4.2956711E+02;3; -8.2978020E+00;  0.0000000E+00;  4.2252917E+00;0;  1.3641146E-02;  8.9286328E+03;  0.0000000E+00; -5.1095825E-01;  4.0000000E+04;  0.0000000E+00;  3.9474410E+04; -8.9112679E-03;  0.0000000E+00;  2.2552414E-02;  1.5475928E+03;
  9.3660331E-01;  9.9999998E-03;  2.0125656E-01;7681;  1.8705448E-02;  0.0000000E+00; -1.2106123E-02;  9.9959674E+02;  2.1325375E-01; -3.3411322E+02;3; -7.4610820E+00;  0.0000000E+00;  4.0533242E+00;0; -7.5889360E-03;  8.9129062E+03;  0.0000000E+00; -3.7482488E-01;  4.0000000E+04;  0.0000000E+00;  3.9478242E+04; -3.5614666E-02;  0.0000000E+00;  2.8025730E-02;  1.7688364E+03;
  9.3705827E-01;  9.9999998E-03;  2.1134290E-01;7682;  1.5793120E-02;  0.0000000E+00; -1.1441191E-02;  9.9963580E+02;  2.1349473E-01; -3.0171915E+02;3; -6.8146343E+00;  0.0000000E+00;  3.4702578E+00;0; -2.8350160E-02;  8.8940508E+03;  0.0000000E+00; -2.8925273E-01;  4.0000000E+04;  0.0000000E+00;  3.9482031E+04; -6.0478024E-02;  0.0000000E+00;  3.2127865E-02;  1.9061157E+03;
  9.3746859E-01;  9.9999998E-03;  2.2147888E-01;7683;  1.3303891E-02;  0.0000000E+00; -1.1220534E-02;  9.9948108E+02;  2.1372300E-01; -4.2991275E+02;3; -6.9691224E+00;  0.0000000E+00;  3.6577301E+00;0; -4.9094584E-02;  8.8751465E+03;  0.0000000E+00; -2.8271654E-01;  4.0000000E+04;  0.0000000E+00;  3.9478117E+04; -8.3360404E-02;  0.0000000E+00;  3.4265820E-02;  1.3674130E+03;
  9.3770236E-01;  9.9999998E-03;  2.3160893E-01;7684;  1.0948414E-02;  0.0000000E+00; -1.1235191E-02;  9.9911096E+02;  2.1387824E-01; -7.3657007E+02;3; -7.1347914E+00;  0.0000000E+00;  3.7933254E+00;0; -7.0270896E-02;  8.8620889E+03;  0.0000000E+00; -3.7175828E-01;  4.0000000E+04;  0.0000000E+00;  3.9466195E+04; -1.0391331E-01;  0.0000000E+00;  3.3642419E-02;  1.0159191E+03;
  9.5964873E-01;  9.9999998E-03;  7.0587955E-02;7729;  8.1460163E-02;  0.0000000E+00; -8.1057250E-03;  9.9869440E+02;  2.2642128E-01; -1.0816449E+03;3; -5.1965570E+00;  0.0000000E+00; -4.8962575E-01;0;  1.8523423E-01;  7.9050889E+03;  0.0000000E+00;  9.4845276E-03;  4.0000000E+04;  0.0000000E+00;  3.9441195E+04;  2.2805749E-01;  0.0000000E+00; -4.2823251E-02;  2.5991624E+03;
  9.5970607E-01;  9.9999998E-03;  8.0685250E-02;7730;  7.7503860E-02;  0.0000000E+00; -8.9848731E-03;  9.9870392E+02;  2.2644809E-01; -1.0737933E+03;3; -6.1994696E+00;  0.0000000E+00; -2.9328865E-01;0;  1.7109828E-01;  7.9025615E+03;  0.0000000E+00; -4.9534873E-03;  4.0000000E+04;  0.0000000E+00;  3.9443309E+04;  2.0916639E-01;  0.0000000E+00; -3.8068112E-02;  3.2594670E+03;
  9.5970565E-01;  9.9999998E-03;  9.0765297E-02;7731;  7.3063396E-02;  0.0000000E+00; -9.7081801E-03;  9.9872308E+02;  2.2643787E-01; -1.0578926E+03;3; -7.0566421E+00;  0.0000000E+00; -7.8864351E-02;0;  1.5592276E-01;  7.9026426E+03;  0.0000000E+00; -5.5146888E-02;  4.0000000E+04;  0.0000000E+00;  3.9445891E+04;  1.8872856E-01;  0.0000000E+00; -3.2805804E-02;  3.7940479E+03;
  9.5961940E-01;  9.9999998E-03;  1.0083509E-01;7732;  6.8230666E-02;  0.0000000E+00; -1.0285445E-02;  9.9874988E+02;  2.2637458E-01; -1.0357205E+03;3; -7.7761607E+00;  0.0000000E+00;  1.2831064E-01;0;  1.3991281E-01;  7.9065796E+03;  0.0000000E+00; -1.5439492E-01;  4.0000000E+04;  0.0000000E+00;  3.9448574E+04;  1.6703066E-01;  0.0000000E+00; -2.7117847E-02;  4.0505688E+03;
  9.5942503E-01;  9.9999998E-03;  1.1087422E-01;7733;  6.3152060E-02;  0.0000000E+00; -1.0742435E-02;  9.9878717E+02;  2.2624533E-01; -1.0048078E+03;3; -8.2547655E+00;  0.0000000E+00;  3.1903136E-01;0;  1.2329764E-01;  7.9154033E+03;  0.0000000E+00; -3.0100811E-01;  4.0000000E+04;  0.0000000E+00;  3.9450191E+04;  1.4439984E-01;  0.0000000E+00; -2.1102196E-02;  3.9522209E+03;
  9.5915192E-01;  9.9999998E-03;  1.2089529E-01;7734;  5.7958569E-02;  0.0000000E+00; -1.1101027E-02;  9.9883801E+02;  2.2606736E-01; -9.6268573E+02;3; -8.6420488E+00;  0.0000000E+00;  4.6439973E-01;0;  1.0610036E-01;  7.9280664E+03;  0.0000000E+00; -4.7235221E-01;  4.0000000E+04;  0.0000000E+00;  3.9450695E+04;  1.2089933E-01;  0.0000000E+00; -1.4798966E-02;  3.5417920E+03;
  9.5883191E-01;  9.9999998E-03;  1.3091114E-01;7735;  5.2644078E-02;  0.0000000E+00; -1.1360145E-02;  9.9890186E+02;  2.2586085E-01; -9.0979852E+02;3; -8.9505587E+00;  0.0000000E+00;  6.0556960E-01;0;  8.8379785E-02;  7.9435356E+03;  0.0000000E+00; -6.2646294E-01;  4.0000000E+04;  0.0000000E+00;  3.9449770E+04;  9.6651934E-02;  0.0000000E+00; -8.2721468E-03;  2.9740376E+03;
  9.5853388E-01;  9.9999998E-03;  1.4093404E-01;7736;  4.7280580E-02;  0.0000000E+00; -1.1505432E-02;  9.9900360E+02;  2.2566448E-01; -8.2550488E+02;3; -9.1890574E+00;  0.0000000E+00;  7.2947681E-01;0;  7.0130020E-02;  7.9589185E+03;  0.0000000E+00; -7.1138299E-01;  4.0000000E+04;  0.0000000E+00;  3.9447969E+04;  7.1708038E-02;  0.0000000E+00; -1.5780190E-03;  2.4629585E+03;
  9.5832658E-01;  9.9999998E-03;  1.5097056E-01;7737;  4.1928053E-02;  0.0000000E+00; -1.1497159E-02;  9.9913458E+02;  2.2551930E-01; -7.1696509E+02;3; -9.2921257E+00;  0.0000000E+00;  9.2663944E-01;0;  5.1415782E-02;  7.9712725E+03;  0.0000000E+00; -6.8075264E-01;  4.0000000E+04;  0.0000000E+00;  3.9445441E+04;  4.6214469E-02;  0.0000000E+00;  5.2013122E-03;  2.2447922E+03;
  9.5822871E-01;  9.9999998E-03;  1.6101876E-01;7738;  3.6635045E-02;  0.0000000E+00; -1.1282836E-02;  9.9927667E+02;  2.2543755E-01; -5.9924042E+02;3; -9.3801584E+00;  0.0000000E+00;  1.2477454E+00;0;  3.2428976E-02;  7.9794253E+03;  0.0000000E+00; -5.1044846E-01;  4.0000000E+04;  0.0000000E+00;  3.9443281E+04;  2.0533536E-02;  0.0000000E+00;  1.1895441E-02;  2.5989407E+03;
  9.5827824E-01;  9.9999998E-03;  1.7107268E-01;7739;  3.1440441E-02;  0.0000000E+00; -1.0762396E-02;  9.9942657E+02;  2.2544283E-01; -4.7504678E+02;3; -9.2790976E+00;  0.0000000E+00;  1.6923066E+00;0;  1.3255553E-02;  7.9813574E+03;  0.0000000E+00; -2.1180698E-01;  4.0000000E+04;  0.0000000E+00;  3.9442203E+04; -5.0261486E-03;  0.0000000E+00;  1.8281702E-02;  3.6095669E+03;
  9.5851362E-01;  9.9999998E-03;  1.8113293E-01;7740;  2.6430218E-02;  0.0000000E+00; -9.9353734E-03;  9.9956476E+02;  2.2555742E-01; -3.6058124E+02;3; -9.1027813E+00;  0.0000000E+00;  2.1043160E+00;0; -6.0447790E-03;  7.9751621E+03;  0.0000000E+00;  1.6360624E-01;  4.0000000E+04;  0.0000000E+00;  3.9441922E+04; -3.0185249E-02;  0.0000000E+00;  2.4140470E-02;  4.9841699E+03;
  9.5894855E-01;  9.9999998E-03;  1.9120008E-01;7741;  2.1677786E-02;  0.0000000E+00; -8.8106394E-03;  9.9968304E+02;  2.2579128E-01; -2.6260904E+02;3; -8.7059050E+00;  0.0000000E+00;  2.4248023E+00;0; -2.5276408E-02;  7.9599624E+03;  0.0000000E+00;  5.3379756E-01;  4.0000000E+04;  0.0000000E+00;  3.9443344E+04; -5.4644685E-02;  0.0000000E+00;  2.9368278E-02;  6.2717212E+03;
  9.5955545E-01;  9.9999998E-03;  2.0128258E-01;7742;  1.7478457E-02;  0.0000000E+00; -7.6186704E-03;  9.9976605E+02;  2.2613066E-01; -1.9382104E+02;3; -7.8197341E+00;  0.0000000E+00;  2.1379960E+00;0; -4.4204324E-02;  7.9367139E+03;  0.0000000E+00;  8.1071794E-01;  4.0000000E+04;  0.0000000E+00;  3.9446555E+04; -7.8166246E-02;  0.0000000E+00;  3.3961922E-02;  7.0421938E+03;
  9.6028918E-01;  9.9999998E-03;  2.1138352E-01;7743;  1.4180331E-02;  0.0000000E+00; -7.1761291E-03;  9.9979645E+02;  2.2655019E-01; -1.6863666E+02;3; -7.8867521E+00;  0.0000000E+00;  2.4988260E+00;0; -6.3550510E-02;  7.9073555E+03;  0.0000000E+00;  9.2356426E-01;  4.0000000E+04;  0.0000000E+00;  3.9449570E+04; -1.0067752E-01;  0.0000000E+00;  3.7127011E-02;  7.0063076E+03;
  9.6095842E-01;  9.9999998E-03;  2.2152133E-01;7744;  1.1102125E-02;  0.0000000E+00; -6.6990857E-03;  9.9967896E+02;  2.2694448E-01; -2.6596689E+02;3; -7.9440227E+00;  0.0000000E+00;  2.7666869E+00;0; -8.2646325E-02;  7.8791206E+03;  0.0000000E+00;  8.1271249E-01;  4.0000000E+04;  0.0000000E+00;  3.9446762E+04; -1.2164956E-01;  0.0000000E+00;  3.9003234E-02;  5.7944082E+03;
  9.6129614E-01;  9.9999998E-03;  2.3164879E-01;7745;  8.1846472E-03;  0.0000000E+00; -6.2664403E-03;  9.9931049E+02;  2.2717488E-01; -5.7124115E+02;3; -8.0148859E+00;  0.0000000E+00;  3.1076391E+00;0; -1.0130299E-01;  7.8615874E+03;  0.0000000E+00;  4.3667758E-01;  4.0000000E+04;  0.0000000E+00;  3.9438480E+04; -1.4048868E-01;  0.0000000E+00;  3.9185695E-02;  3.3687949E+03;
  9.8312461E-01;  9.9999998E-03;  7.0511766E-02;7790;  8.2174048E-02;  0.0000000E+00; -2.9035448E-03;  9.9825653E+02;  2.4019744E-01; -1.4444463E+03;3; -5.4074855E+00;  0.0000000E+00;  2.9016688E-01;0;  1.0260300E-01;  7.0212910E+03;  0.0000000E+00; -9.0546265E-02;  4.0000000E+04;  0.0000000E+00;  3.9402918E+04;  1.0031953E-01;  0.0000000E+00;  2.2834658E-03;  3.2432559E+03;
  9.8293924E-01;  9.9999998E-03;  8.0597721E-02;7791;  7.8152224E-02;  0.0000000E+00; -3.3135985E-03;  9.9826514E+02;  2.4008325E-01; -1.4372860E+03;3; -6.4519696E+00;  0.0000000E+00;  4.5041803E-01;0;  9.2673540E-02;  7.0284146E+03;  0.0000000E+00; -1.2901525E-01;  4.0000000E+04;  0.0000000E+00;  3.9405988E+04;  8.9909233E-02;  0.0000000E+00;  2.7643056E-03;  3.8990437E+03;
  9.8266143E-01;  9.9999998E-03;  9.0675786E-02;7792;  7.3593810E-02;  0.0000000E+00; -3.6694501E-03;  9.9828546E+02;  2.3990607E-01; -1.4204471E+03;3; -7.4026771E+00;  0.0000000E+00;  5.9152925E-01;0;  8.1645988E-02;  7.0392168E+03;  0.0000000E+00; -2.0072122E-01;  4.0000000E+04;  0.0000000E+00;  3.9409664E+04;  7.8299835E-02;  0.0000000E+00;  3.3461517E-03;  4.4330879E+03;
  9.8230076E-01;  9.9999998E-03;  1.0074987E-01;7793;  6.8611972E-02;  0.0000000E+00; -3.9750985E-03;  9.9831970E+02;  2.3967585E-01; -1.3921024E+03;3; -8.1599665E+00;  0.0000000E+00;  7.3401594E-01;0;  6.9554478E-02;  7.0535088E+03;  0.0000000E+00; -3.1532192E-01;  4.0000000E+04;  0.0000000E+00;  3.9413715E+04;  6.5379411E-02;  0.0000000E+00;  4.1750693E-03;  4.7099985E+03;
  9.8187715E-01;  9.9999998E-03;  1.1081068E-01;7794;  6.3300297E-02;  0.0000000E+00; -4.2157979E-03;  9.9837183E+02;  2.3940504E-01; -1.3488940E+03;3; -8.7767496E+00;  0.0000000E+00;  8.8664335E-01;0;  5.6488372E-02;  7.0706704E+03;  0.0000000E+00; -4.6551904E-01;  4.0000000E+04;  0.0000000E+00;  3.9416621E+04;  5.1096175E-02;  0.0000000E+00;  5.3921966E-03;  4.6785391E+03;
  9.8142940E-01;  9.9999998E-03;  1.2085896E-01;7795;  5.7788666E-02;  0.0000000E+00; -4.3633995E-03;  9.9843817E+02;  2.3911466E-01; -1.2939329E+03;3; -9.1338673E+00;  0.0000000E+00;  1.0463436E+00;0;  4.2540673E-02;  7.0894102E+03;  0.0000000E+00; -6.2005544E-01;  4.0000000E+04;  0.0000000E+00;  3.9418250E+04;  3.5426784E-02;  0.0000000E+00;  7.1138889E-03;  4.4045688E+03;
  9.8100483E-01;  9.9999998E-03;  1.3092314E-01;7796;  5.2194100E-02;  0.0000000E+00; -4.3953196E-03;  9.9852826E+02;  2.3883232E-01; -1.2193180E+03;3; -9.4007387E+00;  0.0000000E+00;  1.1834276E+00;0;  2.7791224E-02;  7.1081191E+03;  0.0000000E+00; -7.2590280E-01;  4.0000000E+04;  0.0000000E+00;  3.9418172E+04;  1.8391158E-02;  0.0000000E+00;  9.4000669E-03;  4.0397100E+03;
  9.8066807E-01;  9.9999998E-03;  1.4099687E-01;7797;  4.6537347E-02;  0.0000000E+00; -4.2931419E-03;  9.9864508E+02;  2.3859772E-01; -1.1225311E+03;3; -9.6078558E+00;  0.0000000E+00;  1.2758012E+00;0;  1.2358032E-02;  7.1243916E+03;  0.0000000E+00; -7.2095025E-01;  4.0000000E+04;  0.0000000E+00;  3.9416828E+04;  1.0868422E-04;  0.0000000E+00;  1.2249348E-02;  3.7769746E+03;
  9.8053402E-01;  9.9999998E-03;  1.5107307E-01;7798;  4.0880013E-02;  0.0000000E+00; -4.0450166E-03;  9.9878577E+02;  2.3847957E-01; -1.0059423E+03;3; -9.7156029E+00;  0.0000000E+00;  1.3364522E+00;0; -3.7198998E-03;  7.1336909E+03;  0.0000000E+00; -5.5433208E-01;  4.0000000E+04;  0.0000000E+00;  3.9414527E+04; -1.9344408E-02;  0.0000000E+00;  1.5624508E-02;  3.9048711E+03;
  9.8061049E-01;  9.9999998E-03;  1.6115718E-01;7799;  3.5316143E-02;  0.0000000E+00; -3.6887918E-03;  9.9893878E+02;  2.3848945E-01; -8.7918103E+02;3; -9.7625809E+00;  0.0000000E+00;  1.3435844E+00;0; -2.0224243E-02;  7.1352573E+03;  0.0000000E+00; -2.0635337E-01;  4.0000000E+04;  0.0000000E+00;  3.9411895E+04; -3.9578222E-02;  0.0000000E+00;  1.9353978E-02;  4.8113511E+03;
  9.8089027E-01;  9.9999998E-03;  1.7124833E-01;7800;  2.9853236E-02;  0.0000000E+00; -3.1990644E-03;  9.9908154E+02;  2.3862043E-01; -7.6091333E+02;3; -9.7750149E+00;  0.0000000E+00;  1.3869560E+00;0; -3.6982346E-02;  7.1289507E+03;  0.0000000E+00;  2.9374373E-01;  4.0000000E+04;  0.0000000E+00;  3.9409359E+04; -6.0203344E-02;  0.0000000E+00;  2.3220997E-02;  6.5380571E+03;
  9.8137176E-01;  9.9999998E-03;  1.8134011E-01;7801;  2.4579637E-02;  0.0000000E+00; -2.5683478E-03;  9.9918652E+02;  2.3887664E-01; -6.7395319E+02;3; -9.5834608E+00;  0.0000000E+00;  1.5248741E+00;0; -5.3877179E-02;  7.1144956E+03;  0.0000000E+00;  8.6452717E-01;  4.0000000E+04;  0.0000000E+00;  3.9406961E+04; -8.0886342E-02;  0.0000000E+00;  2.7009163E-02;  8.5955068E+03;
  9.8202497E-01;  9.9999998E-03;  1.9142188E-01;7802;  1.9674752E-02;  0.0000000E+00; -1.9640268E-03;  9.9924622E+02;  2.3924601E-01; -6.2447327E+02;3; -8.9459686E+00;  0.0000000E+00;  1.4384125E+00;0; -7.0798799E-02;  7.0926909E+03;  0.0000000E+00;  1.3898108E+00;  4.0000000E+04;  0.0000000E+00;  3.9404918E+04; -1.0133369E-01;  0.0000000E+00;  3.0534884E-02;  1.0282767E+04;
  9.8273987E-01;  9.9999998E-03;  2.0148364E-01;7803;  1.5531048E-02;  0.0000000E+00; -1.8394825E-03;  9.9923914E+02;  2.3965974E-01; -6.3034967E+02;3; -8.8548241E+00;  0.0000000E+00;  1.4980323E+00;0; -8.7899074E-02;  7.0674023E+03;  0.0000000E+00;  1.7492828E+00;  4.0000000E+04;  0.0000000E+00;  3.9403707E+04; -1.2130850E-01;  0.0000000E+00;  3.3409420E-02;  1.0959378E+04;
  9.8342144E-01;  9.9999998E-03;  2.1152750E-01;7804;  1.1623888E-02;  0.0000000E+00; -1.5771876E-03;  9.9919110E+02;  2.4006072E-01; -6.7015076E+02;3; -8.8717422E+00;  0.0000000E+00;  1.7238193E+00;0; -1.0503107E-01;  7.0419536E+03;  0.0000000E+00;  1.8469801E+00;  4.0000000E+04;  0.0000000E+00;  3.9405742E+04; -1.4047821E-01;  0.0000000E+00;  3.5447143E-02;  1.0269352E+04;
  9.8414999E-01;  9.9999998E-03;  2.2160475E-01;7805;  7.8929532E-03;  0.0000000E+00; -1.0667773E-03;  9.9905579E+02;  2.4050988E-01; -7.8224585E+02;3; -8.9382935E+00;  0.0000000E+00;  2.2084758E+00;0; -1.2244627E-01;  7.0132046E+03;  0.0000000E+00;  1.6452050E+00;  4.0000000E+04;  0.0000000E+00;  3.9407523E+04; -1.5894704E-01;  0.0000000E+00;  3.6500763E-02;  8.2159521E+03;
  9.8470038E-01;  9.9999998E-03;  2.3170082E-01;7806;  4.3903999E-03;  0.0000000E+00; -4.8648697E-04;  9.9874213E+02;  2.4088262E-01; -1.0421384E+03;3; -8.9634132E+00;  0.0000000E+00;  2.4901867E+00;0; -1.3997656E-01;  6.9885493E+03;  0.0000000E+00;  1.1230714E+00;  4.0000000E+04;  0.0000000E+00;  3.9406633E+04; -1.7627372E-01;  0.0000000E+00;  3.6297154E-02;  5.0951992E+03;
  1.0056057E+00;  9.9999998E-03;  1.4098066E-01;7858;  4.4128958E-02;  0.0000000E+00;  6.0823560E-03;  9.9719574E+02;  2.5378594E-01; -2.3232773E+03;3; -9.9290247E+00;  0.0000000E+00;  1.9188141E+00;0; -1.7316140E-02;  6.2905474E+03;  0.0000000E+00; -6.9389611E-01;  4.0000000E+04;  0.0000000E+00;  3.9375832E+04; -4.7630183E-02;  0.0000000E+00;  3.0314043E-02;  4.7389424E+03;
  1.0055845E+00;  9.9999998E-03;  1.5110825E-01;7859;  3.8377456E-02;  0.0000000E+00;  6.2776790E-03;  9.9737500E+02;  2.5371569E-01; -2.1747393E+03;3; -9.9688187E+00;  0.0000000E+00;  1.7466851E+00;0; -3.4071706E-02;  6.2964497E+03;  0.0000000E+00; -4.7046840E-01;  4.0000000E+04;  0.0000000E+00;  3.9372957E+04; -6.1613861E-02;  0.0000000E+00;  2.7542157E-02;  4.9925190E+03;
  1.0056896E+00;  9.9999998E-03;  1.3086313E-01;7857;  4.9953487E-02;  0.0000000E+00;  5.7754749E-03;  9.9704407E+02;  2.5387603E-01; -2.4489026E+03;3; -9.7861300E+00;  0.0000000E+00;  2.0495059E+00;0; -7.2878599E-04;  6.2831616E+03;  0.0000000E+00; -7.8011578E-01;  4.0000000E+04;  0.0000000E+00;  3.9378367E+04; -3.4691527E-02;  0.0000000E+00;  3.3962741E-02;  4.8278018E+03;
  1.0056219E+00;  9.9999998E-03;  1.6122584E-01;7860;  3.2721158E-02;  0.0000000E+00;  6.4009009E-03;  9.9755878E+02;  2.5367129E-01; -2.0224976E+03;3; -1.0033058E+01;  0.0000000E+00;  1.6940224E+00;0; -5.0702341E-02;  6.3005581E+03;  0.0000000E+00; -1.0176321E-01;  4.0000000E+04;  0.0000000E+00;  3.9369434E+04; -7.6449960E-02;  0.0000000E+00;  2.5747618E-02;  5.8672104E+03;
  1.0059774E+00;  9.9999998E-03;  1.2077470E-01;7856;  5.5761289E-02;  0.0000000E+00;  5.4366933E-03;  9.9692480E+02;  2.5408578E-01; -2.5477139E+03;3; -9.5868893E+00;  0.0000000E+00;  2.1202505E+00;0;  1.5389496E-02;  6.2698867E+03;  0.0000000E+00; -7.6168084E-01;  4.0000000E+04;  0.0000000E+00;  3.9378773E+04; -2.3152338E-02;  0.0000000E+00;  3.8541835E-02;  4.9644048E+03;
  1.0058112E+00;  9.9999998E-03;  1.7132199E-01;7861;  2.7167369E-02;  0.0000000E+00;  6.5384684E-03;  9.9771667E+02;  2.5371501E-01; -1.8916873E+03;3; -1.0086214E+01;  0.0000000E+00;  1.6894130E+00;0; -6.7011431E-02;  6.2991616E+03;  0.0000000E+00;  3.8072461E-01;  4.0000000E+04;  0.0000000E+00;  3.9366871E+04; -9.1943689E-02;  0.0000000E+00;  2.4932260E-02;  7.3117627E+03;
  1.0062485E+00;  9.9999998E-03;  1.8141454E-01;7862;  2.1918859E-02;  0.0000000E+00;  6.5757916E-03;  9.9781995E+02;  2.5392523E-01; -1.8061099E+03;3; -9.7881012E+00;  0.0000000E+00;  1.5465232E+00;0; -8.2905613E-02;  6.2885845E+03;  0.0000000E+00;  9.0320432E-01;  4.0000000E+04;  0.0000000E+00;  3.9363848E+04; -1.0784248E-01;  0.0000000E+00;  2.4936862E-02;  8.8855098E+03;
  1.0065643E+00;  9.9999998E-03;  1.1072714E-01;7855;  6.1428685E-02;  0.0000000E+00;  5.1699588E-03;  9.9681976E+02;  2.5447953E-01; -2.6347725E+03;3; -9.2276783E+00;  0.0000000E+00;  2.1928997E+00;0;  3.0772995E-02;  6.2477090E+03;  0.0000000E+00; -6.8324542E-01;  4.0000000E+04;  0.0000000E+00;  3.9377453E+04; -1.3428282E-02;  0.0000000E+00;  4.4201277E-02;  4.9585098E+03;
  1.0067391E+00;  9.9999998E-03;  1.9148661E-01;7863;  1.7013418E-02;  0.0000000E+00;  6.5331422E-03;  9.9785242E+02;  2.5417808E-01; -1.7791973E+03;3; -9.7546215E+00;  0.0000000E+00;  1.6279421E+00;0; -9.8517463E-02;  6.2748579E+03;  0.0000000E+00;  1.3720005E+00;  4.0000000E+04;  0.0000000E+00;  3.9361766E+04; -1.2398292E-01;  0.0000000E+00;  2.5465457E-02;  1.0032321E+04;
  1.0071461E+00;  9.9999998E-03;  1.0068011E-01;7854;  6.6902980E-02;  0.0000000E+00;  4.8793429E-03;  9.9674304E+02;  2.5485960E-01; -2.6983257E+03;3; -8.6374865E+00;  0.0000000E+00;  2.1283913E+00;0;  4.5000147E-02;  6.2265537E+03;  0.0000000E+00; -5.8392316E-01;  4.0000000E+04;  0.0000000E+00;  3.9374160E+04; -5.3639482E-03;  0.0000000E+00;  5.0364096E-02;  4.7314946E+03;
  1.0072970E+00;  9.9999998E-03;  2.0155165E-01;7864;  1.2284505E-02;  0.0000000E+00;  6.5699709E-03;  9.9779120E+02;  2.5448656E-01; -1.8299608E+03;3; -9.7572403E+00;  0.0000000E+00;  1.7009954E+00;0; -1.1406446E-01;  6.2572100E+03;  0.0000000E+00;  1.6941025E+00;  4.0000000E+04;  0.0000000E+00;  3.9361219E+04; -1.4022234E-01;  0.0000000E+00;  2.6157888E-02;  1.0281019E+04;
  1.0075965E+00;  9.9999998E-03;  9.0618849E-02;7853;  7.2046645E-02;  0.0000000E+00;  4.6061315E-03;  9.9668213E+02;  2.5514841E-01; -2.7487930E+03;3; -7.7913494E+00;  0.0000000E+00;  1.9232321E+00;0;  5.7667982E-02;  6.2103428E+03;  0.0000000E+00; -4.8687088E-01;  4.0000000E+04;  0.0000000E+00;  3.9370332E+04;  1.2143669E-03;  0.0000000E+00;  5.6453615E-02;  4.3156245E+03;
  1.0079266E+00;  9.9999998E-03;  2.1161489E-01;7865;  7.7209659E-03;  0.0000000E+00;  6.7127710E-03;  9.9766644E+02;  2.5486505E-01; -1.9333152E+03;3; -9.7782841E+00;  0.0000000E+00;  1.8042367E+00;0; -1.2978101E-01;  6.2353496E+03;  0.0000000E+00;  1.7960234E+00;  4.0000000E+04;  0.0000000E+00;  3.9363152E+04; -1.5635566E-01;  0.0000000E+00;  2.6574653E-02;  9.4119287E+03;
  1.0078758E+00;  9.9999998E-03;  8.0548532E-02;7852;  7.6709211E-02;  0.0000000E+00;  4.4071022E-03;  9.9663538E+02;  2.5532115E-01; -2.7875076E+03;3; -6.7660632E+00;  0.0000000E+00;  1.6624340E+00;0;  6.8490140E-02;  6.2000669E+03;  0.0000000E+00; -3.9976817E-01;  4.0000000E+04;  0.0000000E+00;  3.9366535E+04;  6.5239747E-03;  0.0000000E+00;  6.1966162E-02;  3.8147158E+03;
  1.0085922E+00;  9.9999998E-03;  2.2170398E-01;7866;  3.3040433E-03;  0.0000000E+00;  6.9913296E-03;  9.9743829E+02;  2.5529692E-01; -2.1222959E+03;3; -9.8220968E+00;  0.0000000E+00;  1.9408170E+00;0; -1.4595403E-01;  6.2103696E+03;  0.0000000E+00;  1.6319532E+00;  4.0000000E+04;  0.0000000E+00;  3.9365520E+04; -1.7222054E-01;  0.0000000E+00;  2.6266513E-02;  7.4709043E+03;
  1.0080726E+00;  9.9999998E-03;  7.0474915E-02;7851;  8.0785327E-02;  0.0000000E+00;  4.2531048E-03;  9.9659808E+02;  2.5544259E-01; -2.8184197E+03;3; -5.6739130E+00;  0.0000000E+00;  1.6404724E+00;0;  7.7424854E-02;  6.1926758E+03;  0.0000000E+00; -3.2171234E-01;  4.0000000E+04;  0.0000000E+00;  3.9363484E+04;  1.0662269E-02;  0.0000000E+00;  6.6762581E-02;  3.3508186E+03;
  1.0092797E+00;  9.9999998E-03;  2.3180807E-01;7867; -9.4329863E-04;  0.0000000E+00;  7.3803635E-03;  9.9707349E+02;  2.5577977E-01; -2.4245566E+03;3; -9.8741360E+00;  0.0000000E+00;  2.1128616E+00;0; -1.6288081E-01;  6.1826943E+03;  0.0000000E+00;  1.1858405E+00;  4.0000000E+04;  0.0000000E+00;  3.9365500E+04; -1.8757096E-01;  0.0000000E+00;  2.4690155E-02;  4.9106943E+03;
  1.0336945E+00;  9.9999998E-03;  1.1077000E-01;7916;  5.8053460E-02;  0.0000000E+00;  1.8197367E-02;  9.9481238E+02;  2.7158406E-01; -4.2978115E+03;3; -9.4862785E+00;  0.0000000E+00;  3.2920833E+00;0;  1.3319246E-01;  5.4739380E+03;  0.0000000E+00; -6.2662202E-01;  4.0000000E+04;  0.0000000E+00;  3.9327836E+04;  3.2739509E-02;  0.0000000E+00;  1.0045295E-01;  4.7966997E+03;
  1.0337532E+00;  9.9999998E-03;  1.0069897E-01;7915;  6.3664995E-02;  0.0000000E+00;  1.7410776E-02;  9.9479883E+02;  2.7161717E-01; -4.3090205E+03;3; -8.8657818E+00;  0.0000000E+00;  3.3740072E+00;0;  1.4488547E-01;  5.4703076E+03;  0.0000000E+00; -5.5835837E-01;  4.0000000E+04;  0.0000000E+00;  3.9327254E+04;  3.1266250E-02;  0.0000000E+00;  1.1361922E-01;  4.6344785E+03;
  1.0339618E+00;  9.9999998E-03;  7.0499688E-02;7912;  7.7832498E-02;  0.0000000E+00;  1.2827097E-02;  9.9477777E+02;  2.7172303E-01; -4.3264521E+03;3; -5.8627357E+00;  0.0000000E+00;  5.4587350E+00;0;  1.6658267E-01;  5.4610020E+03;  0.0000000E+00; -3.1893057E-01;  4.0000000E+04;  0.0000000E+00;  3.9321938E+04;  2.1695131E-02;  0.0000000E+00;  1.4488754E-01;  3.9305002E+03;
  1.0334436E+00;  9.9999998E-03;  1.5113355E-01;7920;  3.4957506E-02;  0.0000000E+00;  1.8979989E-02;  9.9527667E+02;  2.7124515E-01; -3.9131350E+03;3; -1.0180758E+01;  0.0000000E+00;  2.1652207E+00;0;  7.4876912E-02;  5.4976206E+03;  0.0000000E+00; -6.9654876E-01;  4.0000000E+04;  0.0000000E+00;  3.9316457E+04;  2.5571795E-02;  0.0000000E+00;  4.9305119E-02;  4.7413047E+03;
  1.0332264E+00;  9.9999998E-03;  1.6121559E-01;7921;  2.9352039E-02;  0.0000000E+00;  1.8674582E-02;  9.9547809E+02;  2.7099377E-01; -3.7462771E+03;3; -1.0272236E+01;  0.0000000E+00;  2.1179576E+00;0;  5.8091052E-02;  5.5091021E+03;  0.0000000E+00; -6.0669512E-01;  4.0000000E+04;  0.0000000E+00;  3.9313113E+04;  1.8759226E-02;  0.0000000E+00;  3.9331827E-02;  4.9885415E+03;
  1.0331626E+00;  9.9999998E-03;  1.7131957E-01;7922;  2.3795389E-02;  0.0000000E+00;  1.8401127E-02;  9.9566205E+02;  2.7083674E-01; -3.5938877E+03;3; -1.0337936E+01;  0.0000000E+00;  2.1072097E+00;0;  4.2589776E-02;  5.5158652E+03;  0.0000000E+00; -4.6950296E-01;  4.0000000E+04;  0.0000000E+00;  3.9310578E+04;  1.1355469E-02;  0.0000000E+00;  3.1234305E-02;  5.3799922E+03;
  1.0340792E+00;  9.9999998E-03;  9.0642810E-02;7914;  6.8885669E-02;  0.0000000E+00;  1.6691791E-02;  9.9479999E+02;  2.7182633E-01; -4.3080825E+03;3; -8.1347160E+00;  0.0000000E+00;  3.9867661E+00;0;  1.5636963E-01;  5.4599087E+03;  0.0000000E+00; -4.7968692E-01;  4.0000000E+04;  0.0000000E+00;  3.9325125E+04;  2.9831091E-02;  0.0000000E+00;  1.2653853E-01;  4.3844995E+03;
  1.0340112E+00;  9.9999998E-03;  1.2087137E-01;7917;  5.2215733E-02;  0.0000000E+00;  1.8963648E-02;  9.9485651E+02;  2.7179539E-01; -4.2612695E+03;3; -9.7199860E+00;  0.0000000E+00;  2.8144121E+00;0;  1.2275034E-01;  5.4680688E+03;  0.0000000E+00; -6.8159372E-01;  4.0000000E+04;  0.0000000E+00;  3.9325926E+04;  3.5149090E-02;  0.0000000E+00;  8.7601252E-02;  4.8197476E+03;
  1.0337981E+00;  9.9999998E-03;  1.4105764E-01;7919;  4.0621195E-02;  0.0000000E+00;  1.9265207E-02;  9.9508496E+02;  2.7156809E-01; -4.0719927E+03;3; -1.0088338E+01;  0.0000000E+00;  2.3262954E+00;0;  9.2649609E-02;  5.4824600E+03;  0.0000000E+00; -7.3240221E-01;  4.0000000E+04;  0.0000000E+00;  3.9319832E+04;  3.1517670E-02;  0.0000000E+00;  6.1131939E-02;  4.6860986E+03;
  1.0341194E+00;  9.9999998E-03;  8.0575027E-02;7913;  7.3695906E-02;  0.0000000E+00;  1.5075556E-02;  9.9480151E+02;  2.7184007E-01; -4.3067983E+03;3; -7.0655508E+00;  0.0000000E+00;  5.4137650E+00;0;  1.6335434E-01;  5.4577300E+03;  0.0000000E+00; -3.9909741E-01;  4.0000000E+04;  0.0000000E+00;  3.9323195E+04;  2.6334697E-02;  0.0000000E+00;  1.3701963E-01;  4.1286328E+03;
  1.0331007E+00;  9.9999998E-03;  1.8143390E-01;7923;  1.8340427E-02;  0.0000000E+00;  1.8104941E-02;  9.9579816E+02;  2.7067465E-01; -3.4811021E+03;3; -1.0371627E+01;  0.0000000E+00;  2.0890794E+00;0;  2.7160913E-02;  5.5214717E+03;  0.0000000E+00; -2.9894236E-01;  4.0000000E+04;  0.0000000E+00;  3.9309465E+04;  2.3216726E-03;  0.0000000E+00;  2.4839239E-02;  5.7696807E+03;
  1.0330243E+00;  9.9999998E-03;  1.9155802E-01;7924;  1.2999589E-02;  0.0000000E+00;  1.7795598E-02;  9.9584131E+02;  2.7052012E-01; -3.4453503E+03;3; -1.0417455E+01;  0.0000000E+00;  2.1056821E+00;0;  1.1650758E-02;  5.5257964E+03;  0.0000000E+00; -1.1872254E-01;  4.0000000E+04;  0.0000000E+00;  3.9309996E+04; -8.2963109E-03;  0.0000000E+00;  1.9947069E-02;  5.9899531E+03;
  1.0340459E+00;  9.9999998E-03;  1.3096911E-01;7918;  4.6388213E-02;  0.0000000E+00;  1.9302649E-02;  9.9494232E+02;  2.7179071E-01; -4.1901611E+03;3; -9.8827066E+00;  0.0000000E+00;  2.4990177E+00;0;  1.0916795E-01;  5.4709043E+03;  0.0000000E+00; -7.2172481E-01;  4.0000000E+04;  0.0000000E+00;  3.9323336E+04;  3.4955766E-02;  0.0000000E+00;  7.4212179E-02;  4.7501162E+03;
  1.0331382E+00;  9.9999998E-03;  2.0167923E-01;7925;  7.7500716E-03;  0.0000000E+00;  1.7589189E-02;  9.9576721E+02;  2.7052531E-01; -3.5067307E+03;3; -1.0473034E+01;  0.0000000E+00;  2.1663194E+00;0; -2.0631701E-03;  5.5226772E+03;  0.0000000E+00;  2.2800790E-02;  4.0000000E+04;  0.0000000E+00;  3.9310988E+04; -1.8216172E-02;  0.0000000E+00;  1.6153002E-02;  5.8714067E+03;
  1.0333762E+00;  9.9999998E-03;  2.1177505E-01;7926;  2.6156344E-03;  0.0000000E+00;  1.7464986E-02;  9.9558002E+02;  2.7064800E-01; -3.6618359E+03;3; -1.0527259E+01;  0.0000000E+00;  2.2173412E+00;0; -1.4525300E-02;  5.5138110E+03;  0.0000000E+00;  9.4871692E-02;  4.0000000E+04;  0.0000000E+00;  3.9313664E+04; -2.7424781E-02;  0.0000000E+00;  1.2899481E-02;  5.4436943E+03;
  1.0338287E+00;  9.9999998E-03;  2.2186799E-01;7927; -2.4442561E-03;  0.0000000E+00;  1.7491726E-02;  9.9529059E+02;  2.7095053E-01; -3.9016289E+03;3; -1.0598205E+01;  0.0000000E+00;  2.2783432E+00;0; -2.4998872E-02;  5.4966919E+03;  0.0000000E+00;  5.7458892E-02;  4.0000000E+04;  0.0000000E+00;  3.9318090E+04; -3.4504868E-02;  0.0000000E+00;  9.5059965E-03;  4.8663228E+03;
  1.0344236E+00;  9.9999998E-03;  2.3198748E-01;7928; -7.4147745E-03;  0.0000000E+00;  1.7552085E-02;  9.9481787E+02;  2.7139294E-01; -4.2932681E+03;3; -1.0680979E+01;  0.0000000E+00;  2.3704774E+00;0; -3.4776755E-02;  5.4736113E+03;  0.0000000E+00; -1.1209171E-01;  4.0000000E+04;  0.0000000E+00;  3.9317395E+04; -3.9877724E-02;  0.0000000E+00;  5.1009674E-03;  3.9101433E+03;
  1.0615114E+00;  9.9999998E-03;  7.0557877E-02;7973;  7.3623978E-02;  0.0000000E+00;  2.2445330E-02;  9.9503198E+02;  2.8911492E-01; -4.1158716E+03;3; -6.3623610E+00;  0.0000000E+00;  9.3590851E+00;0;  4.1744965E-01;  4.8345093E+03;  0.0000000E+00;  5.9004202E-02;  4.0000000E+04;  0.0000000E+00;  3.9273941E+04;  1.8828654E-01;  0.0000000E+00;  2.2916310E-01;  4.1396279E+03;
  1.0606200E+00;  9.9999998E-03;  2.3224019E-01;7989; -1.4102081E-02;  0.0000000E+00;  3.0490404E-02;  9.9440540E+02;  2.8769100E-01; -4.6349609E+03;3; -1.1544122E+01;  0.0000000E+00;  2.8347478E+00;0;  4.6357715E-01;  4.8740610E+03;  0.0000000E+00; -2.1590326E+00;  4.0000000E+04;  0.0000000E+00;  3.9258508E+04;  4.7976726E-01;  0.0000000E+00; -1.6190119E-02;  3.3749539E+03;
  1.0603106E+00;  9.9999998E-03;  2.2212408E-01;7988; -8.5209198E-03;  0.0000000E+00;  3.0720225E-02;  9.9495056E+02;  2.8743792E-01; -4.1833267E+03;3; -1.1422041E+01;  0.0000000E+00;  2.8127313E+00;0;  4.6068776E-01;  4.8878335E+03;  0.0000000E+00; -2.2166131E+00;  4.0000000E+04;  0.0000000E+00;  3.9261633E+04;  4.6674955E-01;  0.0000000E+00; -6.0617882E-03;  3.8483040E+03;
  1.0620053E+00;  9.9999998E-03;  8.0644675E-02;7974;  6.9438100E-02;  0.0000000E+00;  2.6472988E-02;  9.9501941E+02;  2.8944629E-01; -4.1262412E+03;3; -7.1538534E+00;  0.0000000E+00;  9.9523792E+00;0;  4.3787229E-01;  4.8245508E+03;  0.0000000E+00;  2.3190865E-02;  4.0000000E+04;  0.0000000E+00;  3.9273195E+04;  2.1615443E-01;  0.0000000E+00;  2.2171786E-01;  4.1963755E+03;
  1.0601658E+00;  9.9999998E-03;  2.1205470E-01;7987; -2.9096887E-03;  0.0000000E+00;  3.0948663E-02;  9.9525287E+02;  2.8734177E-01; -3.9328682E+03;3; -1.1332902E+01;  0.0000000E+00;  2.8156664E+00;0;  4.6006384E-01;  4.8956973E+03;  0.0000000E+00; -2.2153294E+00;  4.0000000E+04;  0.0000000E+00;  3.9256668E+04;  4.5595881E-01;  0.0000000E+00;  4.1050422E-03;  3.8989602E+03;
  1.0601554E+00;  9.9999998E-03;  2.0198618E-01;7986;  2.7335000E-03;  0.0000000E+00;  3.1258523E-02;  9.9542871E+02;  2.8737059E-01; -3.7871956E+03;3; -1.1246556E+01;  0.0000000E+00;  2.7984219E+00;0;  4.6132472E-01;  4.8982485E+03;  0.0000000E+00; -2.1397691E+00;  4.0000000E+04;  0.0000000E+00;  3.9253652E+04;  4.4625682E-01;  0.0000000E+00;  1.5067907E-02;  4.2272656E+03;
  1.0624979E+00;  9.9999998E-03;  9.0726629E-02;7975;  6.4764515E-02;  0.0000000E+00;  3.0526202E-02;  9.9497687E+02;  2.8978336E-01; -4.1614980E+03;3; -7.9283257E+00;  0.0000000E+00;  9.8927841E+00;0;  4.5787895E-01;  4.8145674E+03;  0.0000000E+00; -5.3239651E-02;  4.0000000E+04;  0.0000000E+00;  3.9272652E+04;  2.4679504E-01;  0.0000000E+00;  2.1108390E-01;  4.2302930E+03;
  1.0602450E+00;  9.9999998E-03;  1.9189034E-01;7985;  8.4229419E-03;  0.0000000E+00;  3.1625699E-02;  9.9547296E+02;  2.8750843E-01; -3.7505056E+03;3; -1.1142152E+01;  0.0000000E+00;  2.7893507E+00;0;  4.6381783E-01;  4.8962495E+03;  0.0000000E+00; -1.9963275E+00;  4.0000000E+04;  0.0000000E+00;  3.9252137E+04;  4.3652079E-01;  0.0000000E+00;  2.7297044E-02;  4.6720337E+03;
  1.0604464E+00;  9.9999998E-03;  1.8177532E-01;7984;  1.4146574E-02;  0.0000000E+00;  3.2048728E-02;  9.9539685E+02;  2.8775385E-01; -3.8135647E+03;3; -1.0997678E+01;  0.0000000E+00;  2.7908328E+00;0;  4.6802765E-01;  4.8897534E+03;  0.0000000E+00; -1.8076820E+00;  4.0000000E+04;  0.0000000E+00;  3.9251145E+04;  4.2683879E-01;  0.0000000E+00;  4.1188870E-02;  5.0188521E+03;
  1.0609225E+00;  9.9999998E-03;  1.7165913E-01;7983;  1.9863863E-02;  0.0000000E+00;  3.2605115E-02;  9.9524640E+02;  2.8820673E-01; -3.9382007E+03;3; -1.0845555E+01;  0.0000000E+00;  2.7858584E+00;0;  4.7768715E-01;  4.8755161E+03;  0.0000000E+00; -1.6007749E+00;  4.0000000E+04;  0.0000000E+00;  3.9250449E+04;  4.2042616E-01;  0.0000000E+00;  5.7260994E-02;  5.1121533E+03;
  1.0630662E+00;  9.9999998E-03;  1.0081291E-01;7976;  5.9638821E-02;  0.0000000E+00;  3.3870783E-02;  9.9492413E+02;  2.9016933E-01; -4.2051992E+03;3; -8.6856298E+00;  0.0000000E+00;  6.2511644E+00;0;  4.7833136E-01;  4.8032432E+03;  0.0000000E+00; -1.7401053E-01;  4.0000000E+04;  0.0000000E+00;  3.9270883E+04;  2.8087735E-01;  0.0000000E+00;  1.9745401E-01;  4.1755972E+03;
  1.0616897E+00;  9.9999998E-03;  1.6154726E-01;7982;  2.5563926E-02;  0.0000000E+00;  3.3294845E-02;  9.9508966E+02;  2.8886092E-01; -4.0680710E+03;3; -1.0687581E+01;  0.0000000E+00;  2.8452287E+00;0;  4.9246615E-01;  4.8540146E+03;  0.0000000E+00; -1.3887285E+00;  4.0000000E+04;  0.0000000E+00;  3.9251070E+04;  4.1663921E-01;  0.0000000E+00;  7.5826950E-02;  4.8773711E+03;
  1.0635252E+00;  9.9999998E-03;  1.1091734E-01;7977;  5.4142039E-02;  0.0000000E+00;  3.4751706E-02;  9.9487280E+02;  2.9047585E-01; -4.2477158E+03;3; -9.2627583E+00;  0.0000000E+00;  3.5763781E+00;0;  4.9633658E-01;  4.7949419E+03;  0.0000000E+00; -3.3757344E-01;  4.0000000E+04;  0.0000000E+00;  3.9268305E+04;  3.1580159E-01;  0.0000000E+00;  1.8053500E-01;  3.9915349E+03;
  1.0624181E+00;  9.9999998E-03;  1.5141778E-01;7981;  3.1294458E-02;  0.0000000E+00;  3.3921655E-02;  9.9494556E+02;  2.8947744E-01; -4.1874229E+03;3; -1.0523210E+01;  0.0000000E+00;  2.9345405E+00;0;  5.0435191E-01;  4.8332192E+03;  0.0000000E+00; -1.1716157E+00;  4.0000000E+04;  0.0000000E+00;  3.9253090E+04;  4.0810564E-01;  0.0000000E+00;  9.6246272E-02;  4.3814297E+03;
  1.0636092E+00;  9.9999998E-03;  1.2103213E-01;7978;  4.8522603E-02;  0.0000000E+00;  3.4890153E-02;  9.9482086E+02;  2.9050574E-01; -4.2907754E+03;3; -9.7157545E+00;  0.0000000E+00;  3.2391505E+00;0;  5.0736958E-01;  4.7955039E+03;  0.0000000E+00; -5.3209937E-01;  4.0000000E+04;  0.0000000E+00;  3.9264918E+04;  3.4658056E-01;  0.0000000E+00;  1.6078901E-01;  3.7544827E+03;
  1.0630186E+00;  9.9999998E-03;  1.4128387E-01;7980;  3.7042469E-02;  0.0000000E+00;  3.4425732E-02;  9.9484894E+02;  2.8998423E-01; -4.2674688E+03;3; -1.0318089E+01;  0.0000000E+00;  3.0119159E+00;0;  5.1134133E-01;  4.8155098E+03;  0.0000000E+00; -9.5502341E-01;  4.0000000E+04;  0.0000000E+00;  3.9256539E+04;  3.9357239E-01;  0.0000000E+00;  1.1776894E-01;  3.8807119E+03;
  1.0634210E+00;  9.9999998E-03;  1.3115531E-01;7979;  4.2792555E-02;  0.0000000E+00;  3.4758963E-02;  9.9480548E+02;  2.9033214E-01; -4.3035161E+03;3; -1.0008451E+01;  0.0000000E+00;  3.0647480E+00;0;  5.1225322E-01;  4.8027676E+03;  0.0000000E+00; -7.4092638E-01;  4.0000000E+04;  0.0000000E+00;  3.9260590E+04;  3.7271959E-01;  0.0000000E+00;  1.3953364E-01;  3.6550217E+03;
  1.0900801E+00;  9.9999998E-03;  2.3252685E-01;8050; -1.9385019E-02;  0.0000000E+00;  4.7393743E-02;  9.9889026E+02;  3.0488116E-01; -9.1936029E+02;3; -1.2520149E+01;  0.0000000E+00;  3.5004807E+00;0;  1.5626243E+00;  4.3843706E+03;  0.0000000E+00; -3.2233193E+00;  4.0000000E+04;  0.0000000E+00;  3.9187359E+04;  1.5889071E+00;  0.0000000E+00; -2.6282810E-02;  4.5647563E+03;
  1.0898637E+00;  9.9999998E-03;  2.2239546E-01;8049; -1.3308777E-02;  0.0000000E+00;  4.7804534E-02;  9.9953375E+02;  3.0468354E-01; -3.8625186E+02;3; -1.2238898E+01;  0.0000000E+00;  3.4161539E+00;0;  1.5304567E+00;  4.3944590E+03;  0.0000000E+00; -3.0558550E+00;  4.0000000E+04;  0.0000000E+00;  3.9199395E+04;  1.5354204E+00;  0.0000000E+00; -4.9637831E-03;  5.6291587E+03;
  1.0897956E+00;  9.9999998E-03;  2.1231543E-01;8048; -7.2247018E-03;  0.0000000E+00;  4.8103500E-02;  9.9981097E+02;  3.0463588E-01; -1.5658459E+02;3; -1.2019927E+01;  0.0000000E+00;  3.4558837E+00;0;  1.4992095E+00;  4.3997231E+03;  0.0000000E+00; -2.8095562E+00;  4.0000000E+04;  0.0000000E+00;  3.9198461E+04;  1.4816720E+00;  0.0000000E+00;  1.7537449E-02;  6.8262441E+03;
  1.0898454E+00;  9.9999998E-03;  2.0225927E-01;8047; -1.1792637E-03;  0.0000000E+00;  4.8452221E-02;  9.9990430E+02;  3.0469456E-01; -7.9304588E+01;3; -1.1745524E+01;  0.0000000E+00;  3.4978430E+00;0;  1.4676433E+00;  4.4008374E+03;  0.0000000E+00; -2.4989913E+00;  4.0000000E+04;  0.0000000E+00;  3.9195906E+04;  1.4260474E+00;  0.0000000E+00;  4.1595805E-02;  7.8877461E+03;
  1.0902004E+00;  9.9999998E-03;  1.9218388E-01;8046;  4.8083630E-03;  0.0000000E+00;  4.8987936E-02;  9.9989246E+02;  3.0497852E-01; -8.9081856E+01;3; -1.1445828E+01;  0.0000000E+00;  3.5692303E+00;0;  1.4429953E+00;  4.3949282E+03;  0.0000000E+00; -2.1484942E+00;  4.0000000E+04;  0.0000000E+00;  3.9194125E+04;  1.3753389E+00;  0.0000000E+00;  6.7656346E-02;  8.6399268E+03;
  1.0921234E+00;  9.9999998E-03;  7.0742145E-02;8034;  7.0190735E-02;  0.0000000E+00;  3.0097904E-02;  9.9986664E+02;  3.0706450E-01; -1.1046340E+02;3; -7.4903302E+00;  0.0000000E+00;  1.4997067E+01;0;  8.2842493E-01;  4.3337363E+03;  0.0000000E+00;  2.9293782E-01;  4.0000000E+04;  0.0000000E+00;  3.9224211E+04;  5.1973593E-01;  0.0000000E+00;  3.0868897E-01;  4.3570459E+03;
  1.0907402E+00;  9.9999998E-03;  1.8208976E-01;8045;  1.0708258E-02;  0.0000000E+00;  4.9631588E-02;  9.9979425E+02;  3.0541235E-01; -1.7046037E+02;3; -1.1133700E+01;  0.0000000E+00;  3.6623368E+00;0;  1.4199916E+00;  4.3842861E+03;  0.0000000E+00; -1.7989513E+00;  4.0000000E+04;  0.0000000E+00;  3.9192395E+04;  1.3244026E+00;  0.0000000E+00;  9.5589064E-02;  8.8601934E+03;
  1.0925714E+00;  9.9999998E-03;  8.0846295E-02;8035;  6.5915890E-02;  0.0000000E+00;  3.5590313E-02;  9.9983643E+02;  3.0730081E-01; -1.3549911E+02;3; -8.3285427E+00;  0.0000000E+00;  1.6502605E+01;0;  8.9340055E-01;  4.3277939E+03;  0.0000000E+00;  2.6543120E-01;  4.0000000E+04;  0.0000000E+00;  3.9222590E+04;  5.8713126E-01;  0.0000000E+00;  3.0626926E-01;  4.3369790E+03;
  1.0914671E+00;  9.9999998E-03;  1.7197497E-01;8044;  1.6581783E-02;  0.0000000E+00;  5.0362237E-02;  9.9965564E+02;  3.0597958E-01; -2.8526920E+02;3; -1.1041001E+01;  0.0000000E+00;  3.7910311E+00;0;  1.3983046E+00;  4.3695054E+03;  0.0000000E+00; -1.4859508E+00;  4.0000000E+04;  0.0000000E+00;  3.9191195E+04;  1.2731326E+00;  0.0000000E+00;  1.2517197E-01;  8.3581621E+03;
  1.0932009E+00;  9.9999998E-03;  9.0940818E-02;8036;  6.1100535E-02;  0.0000000E+00;  4.1356053E-02;  9.9980719E+02;  3.0764931E-01; -1.5974474E+02;3; -9.0323219E+00;  0.0000000E+00;  1.7484465E+01;0;  9.6571660E-01;  4.3190884E+03;  0.0000000E+00;  1.6534247E-01;  4.0000000E+04;  0.0000000E+00;  3.9220859E+04;  6.6481650E-01;  0.0000000E+00;  3.0090010E-01;  4.1100620E+03;
  1.0923289E+00;  9.9999998E-03;  1.6183455E-01;8043;  2.2467108E-02;  0.0000000E+00;  5.1137827E-02;  9.9954425E+02;  3.0662465E-01; -3.7756064E+02;3; -1.0933406E+01;  0.0000000E+00;  3.9225938E+00;0;  1.3752687E+00;  4.3522178E+03;  0.0000000E+00; -1.2283397E+00;  4.0000000E+04;  0.0000000E+00;  3.9191332E+04;  1.2195686E+00;  0.0000000E+00;  1.5570003E-01;  7.1217266E+03;
  1.0937796E+00;  9.9999998E-03;  1.0103114E-01;8037;  5.5999726E-02;  0.0000000E+00;  4.6973370E-02;  9.9975232E+02;  3.0796292E-01; -2.0517441E+02;3; -8.8772087E+00;  0.0000000E+00;  1.6749454E+01;0;  1.0410789E+00;  4.3114326E+03;  0.0000000E+00; -4.3436168E-03;  4.0000000E+04;  0.0000000E+00;  3.9218500E+04;  7.4935782E-01;  0.0000000E+00;  2.9172108E-01;  3.6621738E+03;
  1.0931395E+00;  9.9999998E-03;  1.5167335E-01;8042;  2.8366590E-02;  0.0000000E+00;  5.1844623E-02;  9.9946326E+02;  3.0722997E-01; -4.4466812E+02;3; -1.0785613E+01;  0.0000000E+00;  4.0286412E+00;0;  1.3442090E+00;  4.3356260E+03;  0.0000000E+00; -1.0231367E+00;  4.0000000E+04;  0.0000000E+00;  3.9193434E+04;  1.1585494E+00;  0.0000000E+00;  1.8565956E-01;  5.4003018E+03;
  1.0941728E+00;  9.9999998E-03;  1.1112585E-01;8038;  5.1010497E-02;  0.0000000E+00;  5.1071890E-02;  9.9967285E+02;  3.0816185E-01; -2.7104745E+02;3; -8.1105671E+00;  0.0000000E+00;  1.1427494E+01;0;  1.1155932E+00;  4.3070518E+03;  0.0000000E+00; -2.1980798E-01;  4.0000000E+04;  0.0000000E+00;  3.9214605E+04;  8.3736849E-01;  0.0000000E+00;  2.7822465E-01;  3.0925276E+03;
  1.0937572E+00;  9.9999998E-03;  1.4150886E-01;8041;  3.4260608E-02;  0.0000000E+00;  5.2396011E-02;  9.9944647E+02;  3.0770475E-01; -4.5859320E+02;3; -1.0565666E+01;  0.0000000E+00;  4.1459041E+00;0;  1.3014032E+00;  4.3221597E+03;  0.0000000E+00; -8.4356707E-01;  4.0000000E+04;  0.0000000E+00;  3.9197926E+04;  1.0878496E+00;  0.0000000E+00;  2.1355358E-01;  3.6974182E+03;
  1.0942917E+00;  9.9999998E-03;  1.2123047E-01;8039;  4.5779236E-02;  0.0000000E+00;  5.2634109E-02;  9.9957086E+02;  3.0818212E-01; -3.5553683E+02;3; -9.2254810E+00;  0.0000000E+00;  6.4783335E+00;0;  1.1851625E+00;  4.3074512E+03;  0.0000000E+00; -4.4667241E-01;  4.0000000E+04;  0.0000000E+00;  3.9209695E+04;  9.2483777E-01;  0.0000000E+00;  2.6032472E-01;  2.5990803E+03;
  1.0941344E+00;  9.9999998E-03;  1.3135627E-01;8040;  4.0105168E-02;  0.0000000E+00;  5.2731059E-02;  9.9948029E+02;  3.0801892E-01; -4.3054523E+02;3; -1.0156434E+01;  0.0000000E+00;  4.5369663E+00;0;  1.2473902E+00;  4.3128037E+03;  0.0000000E+00; -6.5714324E-01;  4.0000000E+04;  0.0000000E+00;  3.9203668E+04;  1.0088425E+00;  0.0000000E+00;  2.3854770E-01;  2.6489624E+03;
  1.1249181E+00;  9.9999998E-03;  7.0926957E-02;8095;  9.9018537E-02;  0.0000000E+00;  1.1598339E-02;  1.0054359E+03;  3.1971243E-01;  4.5034023E+03;3;  5.5308671E+00;  0.0000000E+00;  1.0547344E+01;0;  1.1815790E+00;  4.0448735E+03;  0.0000000E+00;  4.2920887E-02;  4.0000000E+04;  0.0000000E+00;  3.9194633E+04;  8.1942630E-01;  0.0000000E+00;  3.6215270E-01;  4.4236362E+03;
  1.1252152E+00;  9.9999998E-03;  8.1052944E-02;8096;  9.7698539E-02;  0.0000000E+00;  1.4729601E-02;  1.0054393E+03;  3.1974897E-01;  4.5061670E+03;3;  3.4101062E+00;  0.0000000E+00;  1.2643726E+01;0;  1.2940373E+00;  4.0444097E+03;  0.0000000E+00;  4.1603385E-03;  4.0000000E+04;  0.0000000E+00;  3.9193527E+04;  9.2614543E-01;  0.0000000E+00;  3.6789188E-01;  4.4142241E+03;
  1.1256330E+00;  9.9999998E-03;  9.1154523E-02;8097;  9.6401997E-02;  0.0000000E+00;  1.8476702E-02;  1.0054152E+03;  3.1982431E-01;  4.4862163E+03;3;  1.1309401E+00;  0.0000000E+00;  1.4752659E+01;0;  1.4168733E+00;  4.0430115E+03;  0.0000000E+00; -7.4002348E-02;  4.0000000E+04;  0.0000000E+00;  3.9192262E+04;  1.0460526E+00;  0.0000000E+00;  3.7082076E-01;  4.2612334E+03;
  1.1262020E+00;  9.9999998E-03;  1.0123392E-01;8098;  9.5507503E-02;  0.0000000E+00;  2.2798007E-02;  1.0053889E+03;  3.1994656E-01;  4.4644883E+03;3; -1.2338361E+00;  0.0000000E+00;  1.6785032E+01;0;  1.5494879E+00;  4.0407490E+03;  0.0000000E+00; -1.8079962E-01;  4.0000000E+04;  0.0000000E+00;  3.9189820E+04;  1.1789206E+00;  0.0000000E+00;  3.7056729E-01;  3.8893933E+03;
  1.1232771E+00;  9.9999998E-03;  2.3273723E-01;8111; -2.0611994E-02;  0.0000000E+00;  6.9811739E-02;  1.0061125E+03;  3.1813088E-01;  5.0639624E+03;3; -1.4138383E+01;  0.0000000E+00;  4.8506765E+00;0;  3.0728848E+00;  4.0887478E+03;  0.0000000E+00; -1.8872292E+00;  4.0000000E+04;  0.0000000E+00;  3.9114266E+04;  3.0613317E+00;  0.0000000E+00;  1.1553041E-02;  6.9190562E+03;
  1.1229807E+00;  9.9999998E-03;  2.2259563E-01;8110; -1.4327897E-02;  0.0000000E+00;  7.0266865E-02;  1.0068333E+03;  3.1793973E-01;  5.6609604E+03;3; -1.3837508E+01;  0.0000000E+00;  4.8854704E+00;0;  2.9812288E+00;  4.0974746E+03;  0.0000000E+00; -1.2511442E+00;  4.0000000E+04;  0.0000000E+00;  3.9136125E+04;  2.9386187E+00;  0.0000000E+00;  4.2610191E-02;  5.9042119E+03;
  1.1228436E+00;  9.9999998E-03;  2.1250434E-01;8109; -8.0860574E-03;  0.0000000E+00;  7.0377499E-02;  1.0070640E+03;  3.1787747E-01;  5.8521582E+03;3; -1.3545411E+01;  0.0000000E+00;  4.9472127E+00;0;  2.8874302E+00;  4.1018560E+03;  0.0000000E+00; -7.4815637E-01;  4.0000000E+04;  0.0000000E+00;  3.9142004E+04;  2.8109202E+00;  0.0000000E+00;  7.6510027E-02;  7.7474385E+03;
  1.1228620E+00;  9.9999998E-03;  2.0244896E-01;8108; -1.8494773E-03;  0.0000000E+00;  7.0531920E-02;  1.0070162E+03;  3.1791669E-01;  5.8125562E+03;3; -1.3287108E+01;  0.0000000E+00;  5.0065494E+00;0;  2.7908597E+00;  4.1023462E+03;  0.0000000E+00; -3.6264604E-01;  4.0000000E+04;  0.0000000E+00;  3.9143555E+04;  2.6777313E+00;  0.0000000E+00;  1.1312848E-01;  9.5824297E+03;
  1.1269995E+00;  9.9999998E-03;  1.1131398E-01;8099;  9.5518619E-02;  0.0000000E+00;  2.7616886E-02;  1.0053889E+03;  3.2011783E-01;  4.4643872E+03;3; -3.5183957E+00;  0.0000000E+00;  1.8679079E+01;0;  1.6923317E+00;  4.0376392E+03;  0.0000000E+00; -2.8572559E-01;  4.0000000E+04;  0.0000000E+00;  3.9185820E+04;  1.3252478E+00;  0.0000000E+00;  3.6708388E-01;  3.3340251E+03;
  1.1232152E+00;  9.9999998E-03;  1.9237129E-01;8107;  4.4748918E-03;  0.0000000E+00;  7.0955463E-02;  1.0068281E+03;  3.1809849E-01;  5.6567134E+03;3; -1.3114249E+01;  0.0000000E+00;  5.0534034E+00;0;  2.6958144E+00;  4.0982783E+03;  0.0000000E+00; -8.0047630E-02;  4.0000000E+04;  0.0000000E+00;  3.9145207E+04;  2.5435665E+00;  0.0000000E+00;  1.5224783E-01;  1.0629952E+04;
  1.1237532E+00;  9.9999998E-03;  1.8225120E-01;8106;  1.0938588E-02;  0.0000000E+00;  7.1557038E-02;  1.0065230E+03;  3.1837165E-01;  5.4039878E+03;3; -1.3079373E+01;  0.0000000E+00;  5.3502593E+00;0;  2.5960231E+00;  4.0912908E+03;  0.0000000E+00;  8.2347751E-02;  4.0000000E+04;  0.0000000E+00;  3.9146840E+04;  2.4035308E+00;  0.0000000E+00;  1.9249214E-01;  1.0719432E+04;
  1.1275430E+00;  9.9999998E-03;  1.2140122E-01;8100;  9.3728811E-02;  0.0000000E+00;  3.2532498E-02;  1.0054006E+03;  3.2020015E-01;  4.4740640E+03;3; -6.7226162E+00;  0.0000000E+00;  2.0456390E+01;0;  1.8397102E+00;  4.0372109E+03;  0.0000000E+00; -3.4398037E-01;  4.0000000E+04;  0.0000000E+00;  3.9179594E+04;  1.4804862E+00;  0.0000000E+00;  3.5922405E-01;  2.7098198E+03;
  1.1244723E+00;  9.9999998E-03;  1.7209372E-01;8105;  1.8656410E-02;  0.0000000E+00;  7.0130952E-02;  1.0061805E+03;  3.1871989E-01;  5.1202510E+03;3; -2.3973301E+01;  0.0000000E+00;  2.0565447E+01;0;  2.4906609E+00;  4.0818662E+03;  0.0000000E+00;  1.1942330E-01;  4.0000000E+04;  0.0000000E+00;  3.9148371E+04;  2.2585938E+00;  0.0000000E+00;  2.3206711E-01;  9.7768330E+03;
  1.1275362E+00;  9.9999998E-03;  1.3149978E-01;8101;  8.7274760E-02;  0.0000000E+00;  3.7293687E-02;  1.0054291E+03;  3.2010639E-01;  4.4977661E+03;3; -1.1452278E+01;  0.0000000E+00;  2.2151535E+01;0;  1.9854760E+00;  4.0412485E+03;  0.0000000E+00; -3.2502729E-01;  4.0000000E+04;  0.0000000E+00;  3.9172188E+04;  1.6396786E+00;  0.0000000E+00;  3.4579745E-01;  2.5389524E+03;
  1.1253355E+00;  9.9999998E-03;  1.6192080E-01;8104;  3.7639845E-02;  0.0000000E+00;  5.8870755E-02;  1.0058694E+03;  3.1911486E-01;  4.8624883E+03;3; -3.1799908E+01;  0.0000000E+00;  2.8144527E+01;0;  2.3787749E+00;  4.0708752E+03;  0.0000000E+00;  4.9404979E-02;  4.0000000E+04;  0.0000000E+00;  3.9151469E+04;  2.1103208E+00;  0.0000000E+00;  2.6845399E-01;  7.9629648E+03;
  1.1262528E+00;  9.9999998E-03;  1.5175721E-01;8103;  5.8057133E-02;  0.0000000E+00;  4.9356822E-02;  1.0056342E+03;  3.1951413E-01;  4.6676343E+03;3; -2.4503866E+01;  0.0000000E+00;  2.5740404E+01;0;  2.2574589E+00;  4.0594678E+03;  0.0000000E+00; -8.5660651E-02;  4.0000000E+04;  0.0000000E+00;  3.9156898E+04;  1.9571152E+00;  0.0000000E+00;  3.0034378E-01;  5.7054087E+03;
  1.1270066E+00;  9.9999998E-03;  1.4161471E-01;8102;  7.4929282E-02;  0.0000000E+00;  4.2532548E-02;  1.0054910E+03;  3.1985027E-01;  4.5490234E+03;3; -1.7607391E+01;  0.0000000E+00;  2.3850576E+01;0;  2.1250520E+00;  4.0493667E+03;  0.0000000E+00; -2.2895843E-01;  4.0000000E+04;  0.0000000E+00;  3.9164031E+04;  1.7989184E+00;  0.0000000E+00;  3.2613355E-01;  3.6396199E+03;
  1.1582464E+00;  9.9999998E-03;  7.0916921E-02;8156;  1.5719609E-01;  0.0000000E+00;  3.3007793E-02;  1.0035957E+03;  3.2122838E-01;  2.9787878E+03;3;  5.1300415E+01;  0.0000000E+00;  1.3644070E+01;0;  1.0987452E+00;  3.9903608E+03;  0.0000000E+00; -2.4327128E-01;  4.0000000E+04;  0.0000000E+00;  3.9201594E+04;  7.4375242E-01;  0.0000000E+00;  3.5499284E-01;  7.0185122E+03;
  1.1586187E+00;  9.9999998E-03;  8.1037864E-02;8157;  1.6593467E-01;  0.0000000E+00;  3.9191060E-02;  1.0037861E+03;  3.2114339E-01;  3.1365005E+03;3;  5.1640163E+01;  0.0000000E+00;  1.5791236E+01;0;  1.2147412E+00;  3.9937219E+03;  0.0000000E+00; -3.1684458E-01;  4.0000000E+04;  0.0000000E+00;  3.9201387E+04;  8.4904480E-01;  0.0000000E+00;  3.6569640E-01;  6.9704492E+03;
  1.1575166E+00;  9.9999998E-03;  2.3266269E-01;8172;  3.4464082E-01;  0.0000000E+00;  1.1257489E-01;  1.0080509E+03;  3.2006916E-01;  6.6696133E+03;3; -2.3099880E-01;  0.0000000E+00;  1.9560261E+01;0;  3.6781452E+00;  4.0563889E+03;  0.0000000E+00; -1.2862419E-01;  4.0000000E+04;  0.0000000E+00;  3.9095117E+04;  3.4797525E+00;  0.0000000E+00;  1.9839260E-01;  7.7573062E+03;
  1.1592885E+00;  9.9999998E-03;  9.1133997E-02;8158;  1.7603682E-01;  0.0000000E+00;  4.5569222E-02;  1.0039285E+03;  3.2106540E-01;  3.2544136E+03;3;  5.1802402E+01;  0.0000000E+00;  1.8045620E+01;0;  1.3374014E+00;  3.9967693E+03;  0.0000000E+00; -3.8980076E-01;  4.0000000E+04;  0.0000000E+00;  3.9200902E+04;  9.6347809E-01;  0.0000000E+00;  3.7392330E-01;  6.8978179E+03;
  1.1572905E+00;  9.9999998E-03;  2.2251813E-01;8171;  3.3943096E-01;  0.0000000E+00;  1.1336107E-01;  1.0084484E+03;  3.1999698E-01;  6.9988696E+03;3;  6.1840553E+00;  0.0000000E+00;  1.9901035E+01;0;  3.5071156E+00;  4.0593191E+03;  0.0000000E+00;  5.3573245E-01;  4.0000000E+04;  0.0000000E+00;  3.9114461E+04;  3.3115063E+00;  0.0000000E+00;  1.9560929E-01;  4.9144414E+03;
  1.1571807E+00;  9.9999998E-03;  2.1239778E-01;8170;  3.3169040E-01;  0.0000000E+00;  1.1354216E-01;  1.0084214E+03;  3.1998503E-01;  6.9765508E+03;3;  1.2686872E+01;  0.0000000E+00;  2.0960445E+01;0;  3.3367517E+00;  4.0597468E+03;  0.0000000E+00;  9.5249623E-01;  4.0000000E+04;  0.0000000E+00;  3.9122953E+04;  3.1314292E+00;  0.0000000E+00;  2.0532252E-01;  4.7912148E+03;
  1.1600082E+00;  9.9999998E-03;  1.0120966E-01;8159;  1.8730915E-01;  0.0000000E+00;  5.2044727E-02;  1.0040621E+03;  3.2098794E-01;  3.3652158E+03;3;  5.1869614E+01;  0.0000000E+00;  2.0242105E+01;0;  1.4676296E+00;  4.0000139E+03;  0.0000000E+00; -4.4420651E-01;  4.0000000E+04;  0.0000000E+00;  3.9198957E+04;  1.0881786E+00;  0.0000000E+00;  3.7945092E-01;  6.6434907E+03;
  1.1571957E+00;  9.9999998E-03;  2.0230643E-01;8169;  3.2073003E-01;  0.0000000E+00;  1.1259305E-01;  1.0081036E+03;  3.2002255E-01;  6.7132656E+03;3;  1.9189934E+01;  0.0000000E+00;  2.5047729E+01;0;  3.1656709E+00;  4.0578015E+03;  0.0000000E+00;  1.1709100E+00;  4.0000000E+04;  0.0000000E+00;  3.9126879E+04;  2.9415338E+00;  0.0000000E+00;  2.2413719E-01;  5.8519814E+03;
  1.1606572E+00;  9.9999998E-03;  1.1127880E-01;8160;  1.9965936E-01;  0.0000000E+00;  5.8548290E-02;  1.0042004E+03;  3.2091412E-01;  3.4796719E+03;3;  5.1683815E+01;  0.0000000E+00;  2.2404617E+01;0;  1.6057193E+00;  4.0036523E+03;  0.0000000E+00; -4.5410323E-01;  4.0000000E+04;  0.0000000E+00;  3.9194762E+04;  1.2237768E+00;  0.0000000E+00;  3.8194257E-01;  6.1142153E+03;
  1.1573211E+00;  9.9999998E-03;  1.9220467E-01;8168;  3.0761302E-01;  0.0000000E+00;  1.0852607E-01;  1.0076171E+03;  3.2009593E-01;  6.3102402E+03;3;  2.5671833E+01;  0.0000000E+00;  3.0848436E+01;0;  2.9921880E+00;  4.0538750E+03;  0.0000000E+00;  1.2268306E+00;  4.0000000E+04;  0.0000000E+00;  3.9130945E+04;  2.7437444E+00;  0.0000000E+00;  2.4844360E-01;  6.6782402E+03;
  1.1611190E+00;  9.9999998E-03;  1.2135212E-01;8161;  2.1286917E-01;  0.0000000E+00;  6.4889297E-02;  1.0043635E+03;  3.2083896E-01;  3.6148674E+03;3;  5.1335941E+01;  0.0000000E+00;  2.4310358E+01;0;  1.7524900E+00;  4.0079829E+03;  0.0000000E+00; -3.9110783E-01;  4.0000000E+04;  0.0000000E+00;  3.9188340E+04;  1.3714403E+00;  0.0000000E+00;  3.8104969E-01;  5.2913662E+03;
  1.1575857E+00;  9.9999998E-03;  1.8207026E-01;8167;  2.9350033E-01;  0.0000000E+00;  1.0143587E-01;  1.0070281E+03;  3.2019550E-01;  5.8222827E+03;3;  3.1900175E+01;  0.0000000E+00;  3.3091866E+01;0;  2.8161197E+00;  4.0483860E+03;  0.0000000E+00;  1.1423289E+00;  4.0000000E+04;  0.0000000E+00;  3.9135688E+04;  2.5397644E+00;  0.0000000E+00;  2.7635521E-01;  6.8748970E+03;
  1.1580974E+00;  9.9999998E-03;  1.7191149E-01;8166;  2.7959967E-01;  0.0000000E+00;  9.3780972E-02;  1.0064037E+03;  3.2031333E-01;  5.3050933E+03;3;  3.7659149E+01;  0.0000000E+00;  3.1524090E+01;0;  2.6359103E+00;  4.0417195E+03;  0.0000000E+00;  9.3820143E-01;  4.0000000E+04;  0.0000000E+00;  3.9141562E+04;  2.3307264E+00;  0.0000000E+00;  3.0518392E-01;  6.3269233E+03;
  1.1611781E+00;  9.9999998E-03;  1.3143431E-01;8162;  2.2645266E-01;  0.0000000E+00;  7.0854977E-02;  1.0045798E+03;  3.2075456E-01;  3.7940105E+03;3;  5.0390694E+01;  0.0000000E+00;  2.5802721E+01;0;  1.9108474E+00;  4.0132764E+03;  0.0000000E+00; -2.3550391E-01;  4.0000000E+04;  0.0000000E+00;  3.9179266E+04;  1.5344493E+00;  0.0000000E+00;  3.7639806E-01;  4.2936836E+03;
  1.1588892E+00;  9.9999998E-03;  1.6175613E-01;8165;  2.6625514E-01;  0.0000000E+00;  8.7254822E-02;  1.0058012E+03;  3.2043967E-01;  4.8058760E+03;3;  4.2622784E+01;  0.0000000E+00;  2.9371431E+01;0;  2.4512172E+00;  4.0343030E+03;  0.0000000E+00;  6.4889306E-01;  4.0000000E+04;  0.0000000E+00;  3.9149012E+04;  2.1197934E+00;  0.0000000E+00;  3.3142373E-01;  5.1895903E+03;
  1.1606202E+00;  9.9999998E-03;  1.4152706E-01;8163;  2.3989421E-01;  0.0000000E+00;  7.6379441E-02;  1.0048862E+03;  3.2066417E-01;  4.0478159E+03;3;  4.8753677E+01;  0.0000000E+00;  2.6937292E+01;0;  2.0841751E+00;  4.0196765E+03;  0.0000000E+00;  1.1852572E-02;  4.0000000E+04;  0.0000000E+00;  3.9168906E+04;  1.7168925E+00;  0.0000000E+00;  3.6728272E-01;  3.6107375E+03;
  1.1597984E+00;  9.9999998E-03;  1.5162969E-01;8164;  2.5313485E-01;  0.0000000E+00;  8.1703380E-02;  1.0052911E+03;  3.2055685E-01;  4.3832939E+03;3;  4.6081779E+01;  0.0000000E+00;  2.8070055E+01;0;  2.2657299E+00;  4.0267893E+03;  0.0000000E+00;  3.2216194E-01;  4.0000000E+04;  0.0000000E+00;  3.9158172E+04;  1.9132982E+00;  0.0000000E+00;  3.5243157E-01;  3.9973386E+03;
  1.1900004E+00;  9.9999998E-03;  2.1205643E-01;8231;  3.8609865E-01;  0.0000000E+00;  8.4166892E-02;  1.0061234E+03;  3.1383064E-01;  5.0726206E+03;3;  6.3819683E+01;  0.0000000E+00;  4.8394032E+01;0;  2.2461753E+00;  4.2000850E+03;  0.0000000E+00;  8.0908787E-01;  4.0000000E+04;  0.0000000E+00;  3.9149633E+04;  2.0075135E+00;  0.0000000E+00;  2.3866168E-01;  8.2997833E+02;
  1.1900860E+00;  9.9999998E-03;  2.0192502E-01;8230;  3.6597225E-01;  0.0000000E+00;  7.9353139E-02;  1.0055711E+03;  3.1386873E-01;  4.6150996E+03;3;  6.2060616E+01;  0.0000000E+00;  4.5527050E+01;0;  2.1104200E+00;  4.1953735E+03;  0.0000000E+00;  8.6487603E-01;  4.0000000E+04;  0.0000000E+00;  3.9150984E+04;  1.8680207E+00;  0.0000000E+00;  2.4239933E-01;  1.6236553E+03;
  1.1900123E+00;  9.9999998E-03;  2.2221503E-01;8232;  4.0687540E-01;  0.0000000E+00;  9.0733089E-02;  1.0064111E+03;  3.1380808E-01;  5.3109102E+03;3;  6.5369560E+01;  0.0000000E+00;  4.9608944E+01;0;  2.3869758E+00;  4.2032930E+03;  0.0000000E+00;  5.8931911E-01;  4.0000000E+04;  0.0000000E+00;  3.9144852E+04;  2.1383324E+00;  0.0000000E+00;  2.4864328E-01;  6.8106238E+02;
  1.1901432E+00;  9.9999998E-03;  2.3238443E-01;8233;  4.2774567E-01;  0.0000000E+00;  9.7217530E-02;  1.0063461E+03;  3.1380317E-01;  5.2570889E+03;3;  6.5011124E+01;  0.0000000E+00;  4.7013145E+01;0;  2.5354257E+00;  4.2051875E+03;  0.0000000E+00;  1.2174332E-01;  4.0000000E+04;  0.0000000E+00;  3.9132727E+04;  2.2566452E+00;  0.0000000E+00;  2.7878058E-01;  2.8852776E+03;
  1.1903048E+00;  9.9999998E-03;  1.9180295E-01;8229;  3.4642878E-01;  0.0000000E+00;  7.5666368E-02;  1.0048864E+03;  3.1390622E-01;  4.0478640E+03;3;  6.0546303E+01;  0.0000000E+00;  4.3586933E+01;0;  1.9734890E+00;  4.1895635E+03;  0.0000000E+00;  8.1501436E-01;  4.0000000E+04;  0.0000000E+00;  3.9153551E+04;  1.7213427E+00;  0.0000000E+00;  2.5214639E-01;  2.1997957E+03;
  1.1906382E+00;  9.9999998E-03;  1.8167464E-01;8228;  3.2728586E-01;  0.0000000E+00;  7.2386615E-02;  1.0041510E+03;  3.1394064E-01;  3.4386580E+03;3;  5.9158150E+01;  0.0000000E+00;  4.1923920E+01;0;  1.8349082E+00;  4.1831211E+03;  0.0000000E+00;  6.9759858E-01;  4.0000000E+04;  0.0000000E+00;  3.9158492E+04;  1.5712107E+00;  0.0000000E+00;  2.6369745E-01;  2.6830002E+03;
  1.1910768E+00;  9.9999998E-03;  1.7153789E-01;8227;  3.0846635E-01;  0.0000000E+00;  6.9058388E-02;  1.0034285E+03;  3.1395790E-01;  2.8401177E+03;3;  5.7909363E+01;  0.0000000E+00;  4.0215054E+01;0;  1.6954584E+00;  4.1766226E+03;  0.0000000E+00;  5.3596044E-01;  4.0000000E+04;  0.0000000E+00;  3.9165805E+04;  1.4208988E+00;  0.0000000E+00;  2.7455968E-01;  3.2525652E+03;
  1.1918414E+00;  9.9999998E-03;  1.6142170E-01;8226;  2.9002848E-01;  0.0000000E+00;  6.5042488E-02;  1.0027695E+03;  3.1393287E-01;  2.2942119E+03;3;  5.6874615E+01;  0.0000000E+00;  3.8535034E+01;0;  1.5492387E+00;  4.1709263E+03;  0.0000000E+00;  3.4709176E-01;  4.0000000E+04;  0.0000000E+00;  3.9175336E+04;  1.2669845E+00;  0.0000000E+00;  2.8225419E-01;  4.1140713E+03;
  1.1917418E+00;  9.9999998E-03;  7.0728131E-02;8217;  1.6018724E-01;  0.0000000E+00;  2.3727413E-02;  9.9926263E+02;  3.1464374E-01; -6.1083203E+02;3;  5.6077339E+01;  0.0000000E+00;  1.7018263E+01;0;  6.2865490E-01;  4.1174971E+03;  0.0000000E+00; -1.8591599E-01;  4.0000000E+04;  0.0000000E+00;  3.9231688E+04;  3.8523507E-01;  0.0000000E+00;  2.4341981E-01;  1.1403662E+04;
  1.1918547E+00;  9.9999998E-03;  8.0837861E-02;8218;  1.7013633E-01;  0.0000000E+00;  2.8062796E-02;  9.9961896E+02;  3.1451687E-01; -3.1566150E+02;3;  5.6090656E+01;  0.0000000E+00;  1.9571100E+01;0;  7.0697808E-01;  4.1231167E+03;  0.0000000E+00; -2.5263372E-01;  4.0000000E+04;  0.0000000E+00;  3.9231363E+04;  4.5059752E-01;  0.0000000E+00;  2.5638059E-01;  1.1319059E+04;
  1.1920468E+00;  9.9999998E-03;  9.0930939E-02;8219;  1.8130900E-01;  0.0000000E+00;  3.2521665E-02;  9.9998267E+02;  3.1438848E-01; -1.4368446E+01;3;  5.6031612E+01;  0.0000000E+00;  2.1980856E+01;0;  7.9101098E-01;  4.1290112E+03;  0.0000000E+00; -3.0829921E-01;  4.0000000E+04;  0.0000000E+00;  3.9230742E+04;  5.2349639E-01;  0.0000000E+00;  2.6751456E-01;  1.1158932E+04;
  1.1923163E+00;  9.9999998E-03;  1.0100982E-01;8220;  1.9372673E-01;  0.0000000E+00;  3.7065253E-02;  1.0003323E+03;  3.1426138E-01;  2.7522226E+02;3;  5.5852749E+01;  0.0000000E+00;  2.4565901E+01;0;  8.7944520E-01;  4.1350767E+03;  0.0000000E+00; -3.3961374E-01;  4.0000000E+04;  0.0000000E+00;  3.9228469E+04;  6.0313165E-01;  0.0000000E+00;  2.7631354E-01;  1.0820769E+04;
  1.1926591E+00;  9.9999998E-03;  1.1107575E-01;8221;  2.0731282E-01;  0.0000000E+00;  4.1684348E-02;  1.0006692E+03;  3.1413999E-01;  5.5439435E+02;3;  5.5478294E+01;  0.0000000E+00;  2.7225775E+01;0;  9.7101343E-01;  4.1413350E+03;  0.0000000E+00; -3.3328834E-01;  4.0000000E+04;  0.0000000E+00;  3.9224008E+04;  6.8857020E-01;  0.0000000E+00;  2.8244323E-01;  1.0224114E+04;
  1.1927027E+00;  9.9999998E-03;  1.5133303E-01;8225;  2.7201444E-01;  0.0000000E+00;  6.0440205E-02;  1.0022061E+03;  3.1389767E-01;  1.8275065E+03;3;  5.6124298E+01;  0.0000000E+00;  3.6686268E+01;0;  1.4054801E+00;  4.1656572E+03;  0.0000000E+00;  1.5425532E-01;  4.0000000E+04;  0.0000000E+00;  3.9186535E+04;  1.1193911E+00;  0.0000000E+00;  2.8608900E-01;  5.3484111E+03;
  1.1930660E+00;  9.9999998E-03;  1.2112811E-01;8222;  2.2200866E-01;  0.0000000E+00;  4.6315420E-02;  1.0009990E+03;  3.1402472E-01;  8.2754205E+02;3;  5.5455048E+01;  0.0000000E+00;  2.9678980E+01;0;  1.0645978E+00;  4.1477471E+03;  0.0000000E+00; -2.7861845E-01;  4.0000000E+04;  0.0000000E+00;  3.9217598E+04;  7.7882457E-01;  0.0000000E+00;  2.8577322E-01;  9.3389404E+03;
  1.1934264E+00;  9.9999998E-03;  1.3118194E-01;8223;  2.3778592E-01;  0.0000000E+00;  5.0851192E-02;  1.0013436E+03;  3.1392509E-01;  1.1130336E+03;3;  5.5467873E+01;  0.0000000E+00;  3.2085884E+01;0;  1.1619503E+00;  4.1542788E+03;  0.0000000E+00; -1.7262319E-01;  4.0000000E+04;  0.0000000E+00;  3.9208840E+04;  8.7519121E-01;  0.0000000E+00;  2.8675908E-01;  8.1844546E+03;
  1.1933503E+00;  9.9999998E-03;  1.4125212E-01;8224;  2.5452730E-01;  0.0000000E+00;  5.5554900E-02;  1.0017346E+03;  3.1388086E-01;  1.4369403E+03;3;  5.5656792E+01;  0.0000000E+00;  3.4494186E+01;0;  1.2735698E+00;  4.1603389E+03;  0.0000000E+00; -2.3995204E-02;  4.0000000E+04;  0.0000000E+00;  3.9198480E+04;  9.8666322E-01;  0.0000000E+00;  2.8690666E-01;  6.7976450E+03;
  1.2214692E+00;  9.9999998E-03;  2.0175111E-01;8291;  3.6476281E-01;  0.0000000E+00;  2.5441706E-02;  1.0017057E+03;  3.0418131E-01;  1.4128638E+03;3;  6.5577652E+01;  0.0000000E+00;  4.7287746E+01;0;  9.6212792E-01;  4.4287144E+03;  0.0000000E+00;  8.4863675E-01;  4.0000000E+04;  0.0000000E+00;  3.9180379E+04;  7.6003200E-01;  0.0000000E+00;  2.0209594E-01;  4.1149380E+03;
  1.2216235E+00;  9.9999998E-03;  1.9164923E-01;8290;  3.4531325E-01;  0.0000000E+00;  2.3729775E-02;  1.0010504E+03;  3.0420640E-01;  8.7005438E+02;3;  6.3798981E+01;  0.0000000E+00;  4.5673786E+01;0;  8.9153469E-01;  4.4221602E+03;  0.0000000E+00;  7.1072823E-01;  4.0000000E+04;  0.0000000E+00;  3.9182133E+04;  7.0151716E-01;  0.0000000E+00;  1.9001751E-01;  4.2348667E+03;
  1.2215594E+00;  9.9999998E-03;  2.1188013E-01;8292;  3.8459840E-01;  0.0000000E+00;  2.7422661E-02;  1.0022559E+03;  3.0411837E-01;  1.8686768E+03;3;  6.7436768E+01;  0.0000000E+00;  4.8877403E+01;0;  1.0276388E+00;  4.4352725E+03;  0.0000000E+00;  9.3214601E-01;  4.0000000E+04;  0.0000000E+00;  3.9180090E+04;  8.1239641E-01;  0.0000000E+00;  2.1524243E-01;  4.2508384E+03;
  1.2219795E+00;  9.9999998E-03;  1.8155265E-01;8289;  3.2602349E-01;  0.0000000E+00;  2.2034517E-02;  1.0003647E+03;  3.0419767E-01;  3.0206491E+02;3;  6.2126923E+01;  0.0000000E+00;  4.4080257E+01;0;  8.1900728E-01;  4.4157725E+03;  0.0000000E+00;  5.7446998E-01;  4.0000000E+04;  0.0000000E+00;  3.9186941E+04;  6.4100540E-01;  0.0000000E+00;  1.7800185E-01;  4.8643032E+03;
  1.2224698E+00;  9.9999998E-03;  1.7145398E-01;8288;  3.0691531E-01;  0.0000000E+00;  2.0206487E-02;  9.9968561E+02;  3.0415943E-01; -2.6044302E+02;3;  6.0500389E+01;  0.0000000E+00;  4.2299168E+01;0;  7.4812990E-01;  4.4098184E+03;  0.0000000E+00;  4.6668878E-01;  4.0000000E+04;  0.0000000E+00;  3.9194246E+04;  5.8245540E-01;  0.0000000E+00;  1.6567451E-01;  5.8891348E+03;
  1.2218101E+00;  9.9999998E-03;  2.2204413E-01;8293;  4.0492862E-01;  0.0000000E+00;  3.0119568E-02;  1.0025698E+03;  3.0402717E-01;  2.1286748E+03;3;  6.9612709E+01;  0.0000000E+00;  5.0790085E+01;0;  1.0896118E+00;  4.4412993E+03;  0.0000000E+00;  8.6469924E-01;  4.0000000E+04;  0.0000000E+00;  3.9176996E+04;  8.5812712E-01;  0.0000000E+00;  2.3148461E-01;  3.8764429E+03;
  1.2228916E+00;  9.9999998E-03;  1.6135031E-01;8287;  2.8802338E-01;  0.0000000E+00;  1.8313121E-02;  9.9905743E+02;  3.0412000E-01; -7.8078516E+02;3;  5.8643883E+01;  0.0000000E+00;  4.0135773E+01;0;  6.8433487E-01;  4.4038481E+03;  0.0000000E+00;  3.9064208E-01;  4.0000000E+04;  0.0000000E+00;  3.9203426E+04;  5.3072768E-01;  0.0000000E+00;  1.5360720E-01;  7.1473579E+03;
  1.2233241E+00;  9.9999998E-03;  1.5126446E-01;8286;  2.6950920E-01;  0.0000000E+00;  1.6264739E-02;  9.9847827E+02;  3.0407399E-01; -1.2604922E+03;3;  5.6856766E+01;  0.0000000E+00;  3.7897266E+01;0;  6.2591207E-01;  4.3984023E+03;  0.0000000E+00;  3.3769503E-01;  4.0000000E+04;  0.0000000E+00;  3.9213496E+04;  4.8451877E-01;  0.0000000E+00;  1.4139330E-01;  8.5256865E+03;
  1.2238020E+00;  9.9999998E-03;  8.0797635E-02;8279;  1.6537824E-01;  0.0000000E+00;  4.3358048E-03;  9.9513818E+02;  3.0437389E-01; -4.0272505E+03;3;  5.5883301E+01;  0.0000000E+00;  1.9190145E+01;0;  3.6305463E-01;  4.3576572E+03;  0.0000000E+00;  1.2108904E-01;  4.0000000E+04;  0.0000000E+00;  3.9254504E+04;  3.1233284E-01;  0.0000000E+00;  5.0721806E-02;  1.4019758E+04;
  1.2237483E+00;  9.9999998E-03;  9.0889178E-02;8280;  1.7697708E-01;  0.0000000E+00;  5.8218329E-03;  9.9560577E+02;  3.0429754E-01; -3.6399202E+03;3;  5.5365845E+01;  0.0000000E+00;  2.1486221E+01;0;  3.9125025E-01;  4.3631309E+03;  0.0000000E+00;  1.1885535E-01;  4.0000000E+04;  0.0000000E+00;  3.9253688E+04;  3.2402402E-01;  0.0000000E+00;  6.7226231E-02;  1.3893852E+04;
  1.2237900E+00;  9.9999998E-03;  1.4119847E-01;8285;  2.5157014E-01;  0.0000000E+00;  1.4057799E-02;  9.9795074E+02;  3.0401716E-01; -1.6974905E+03;3;  5.5112408E+01;  0.0000000E+00;  3.5268456E+01;0;  5.7254571E-01;  4.3935977E+03;  0.0000000E+00;  2.9240531E-01;  4.0000000E+04;  0.0000000E+00;  3.9223965E+04;  4.4387785E-01;  0.0000000E+00;  1.2866785E-01;  9.9253848E+03;
  1.2239985E+00;  9.9999998E-03;  7.0684448E-02;8278;  1.5497713E-01;  0.0000000E+00;  2.9450054E-03;  9.9469269E+02;  3.0442891E-01; -4.3962612E+03;3;  5.6225838E+01;  0.0000000E+00;  1.6775368E+01;0;  3.3795813E-01;  4.3530586E+03;  0.0000000E+00;  1.2577756E-01;  4.0000000E+04;  0.0000000E+00;  3.9254426E+04;  3.0567440E-01;  0.0000000E+00;  3.2283723E-02;  1.4076247E+04;
  1.2238550E+00;  9.9999998E-03;  1.0096119E-01;8281;  1.8971217E-01;  0.0000000E+00;  7.3527987E-03;  9.9607538E+02;  3.0419499E-01; -3.2509099E+03;3;  5.4508202E+01;  0.0000000E+00;  2.3982824E+01;0;  4.2145467E-01;  4.3694336E+03;  0.0000000E+00;  1.2886521E-01;  4.0000000E+04;  0.0000000E+00;  3.9252102E+04;  3.4016025E-01;  0.0000000E+00;  8.1294425E-02;  1.3610727E+04;
  1.2222978E+00;  9.9999998E-03;  2.3220254E-01;8294;  4.2576143E-01;  0.0000000E+00;  3.3769574E-02;  1.0026023E+03;  3.0391297E-01;  2.1556299E+03;3;  7.1617004E+01;  0.0000000E+00;  5.3950188E+01;0;  1.1464984E+00;  4.4473052E+03;  0.0000000E+00;  5.2234113E-01;  4.0000000E+04;  0.0000000E+00;  3.9171414E+04;  8.9183074E-01;  0.0000000E+00;  2.5466770E-01;  2.7757717E+03;
  1.2239361E+00;  9.9999998E-03;  1.3114814E-01;8284;  2.3447703E-01;  0.0000000E+00;  1.2284274E-02;  9.9747083E+02;  3.0401880E-01; -2.0950405E+03;3;  5.3749908E+01;  0.0000000E+00;  3.2463226E+01;0;  5.2869797E-01;  4.3878359E+03;  0.0000000E+00;  2.4225403E-01;  4.0000000E+04;  0.0000000E+00;  3.9233945E+04;  4.1131669E-01;  0.0000000E+00;  1.1738129E-01;  1.1198773E+04;
  1.2239815E+00;  9.9999998E-03;  1.2109176E-01;8283;  2.1840814E-01;  0.0000000E+00;  1.0639850E-02;  9.9701062E+02;  3.0405149E-01; -2.4761990E+03;3;  5.2832523E+01;  0.0000000E+00;  2.9693796E+01;0;  4.8953405E-01;  4.3818799E+03;  0.0000000E+00;  1.9406049E-01;  4.0000000E+04;  0.0000000E+00;  3.9242039E+04;  3.8352856E-01;  0.0000000E+00;  1.0600550E-01;  1.2273438E+04;
  1.2239932E+00;  9.9999998E-03;  1.1102549E-01;8282;  2.0352671E-01;  0.0000000E+00;  8.9297015E-03;  9.9654126E+02;  3.0410475E-01; -2.8650103E+03;3;  5.3579205E+01;  0.0000000E+00;  2.6764473E+01;0;  4.5365956E-01;  4.3758999E+03;  0.0000000E+00;  1.5505609E-01;  4.0000000E+04;  0.0000000E+00;  3.9248105E+04;  3.5988781E-01;  0.0000000E+00;  9.3771756E-02;  1.3087915E+04;
  1.2516645E+00;  9.9999998E-03;  1.9165383E-01;8351;  3.4199134E-01;  0.0000000E+00; -2.8550364E-02;  9.9667896E+02;  2.9248548E-01; -2.7507178E+03;3;  6.4675415E+01;  0.0000000E+00;  4.0340046E+01;0;  4.2966902E-01;  4.7350835E+03;  0.0000000E+00;  1.1207240E+00;  4.0000000E+04;  0.0000000E+00;  3.9212125E+04;  3.3002064E-01;  0.0000000E+00;  9.9648371E-02;  7.5097085E+03;
  1.2515293E+00;  9.9999998E-03;  2.0172934E-01;8352;  3.6128116E-01;  0.0000000E+00; -2.8608305E-02;  9.9722693E+02;  2.9245281E-01; -2.2968242E+03;3;  6.6432457E+01;  0.0000000E+00;  4.0910950E+01;0;  4.3071029E-01;  4.7416528E+03;  0.0000000E+00;  1.3706349E+00;  4.0000000E+04;  0.0000000E+00;  3.9212516E+04;  2.9501635E-01;  0.0000000E+00;  1.3569394E-01;  7.5594917E+03;
  1.2520990E+00;  9.9999998E-03;  1.8159394E-01;8350;  3.2268798E-01;  0.0000000E+00; -2.8951125E-02;  9.9608820E+02;  2.9244515E-01; -3.2400042E+03;3;  6.2957710E+01;  0.0000000E+00;  3.9761948E+01;0;  4.3452522E-01;  4.7297383E+03;  0.0000000E+00;  8.9574832E-01;  4.0000000E+04;  0.0000000E+00;  3.9214496E+04;  3.7123236E-01;  0.0000000E+00;  6.3292861E-02;  8.0683599E+03;
  1.2517670E+00;  9.9999998E-03;  2.1184817E-01;8353;  3.8060686E-01;  0.0000000E+00; -2.9184876E-02;  9.9769043E+02;  2.9233530E-01; -1.9129325E+03;3;  6.7803101E+01;  0.0000000E+00;  4.1496967E+01;0;  4.3354008E-01;  4.7498193E+03;  0.0000000E+00;  1.5670067E+00;  4.0000000E+04;  0.0000000E+00;  3.9214078E+04;  2.6307508E-01;  0.0000000E+00;  1.7046499E-01;  8.0682173E+03;
  1.2525873E+00;  9.9999998E-03;  1.7152408E-01;8349;  3.0341941E-01;  0.0000000E+00; -2.9404575E-02;  9.9547150E+02;  2.9238549E-01; -3.7508125E+03;3;  6.1261677E+01;  0.0000000E+00;  3.9211014E+01;0;  4.4756183E-01;  4.7244697E+03;  0.0000000E+00;  7.2868192E-01;  4.0000000E+04;  0.0000000E+00;  3.9218500E+04;  4.1941473E-01;  0.0000000E+00;  2.8147088E-02;  8.8794033E+03;
  1.2529112E+00;  9.9999998E-03;  1.6142772E-01;8348;  2.8424409E-01;  0.0000000E+00; -2.9591227E-02;  9.9485278E+02;  2.9235029E-01; -4.2632510E+03;3;  5.9677219E+01;  0.0000000E+00;  3.8630280E+01;0;  4.6787763E-01;  4.7183447E+03;  0.0000000E+00;  6.1962819E-01;  4.0000000E+04;  0.0000000E+00;  3.9223590E+04;  4.7190031E-01;  0.0000000E+00; -4.0226886E-03;  9.6718789E+03;
  1.2522879E+00;  9.9999998E-03;  2.2200781E-01;8354;  3.9997941E-01;  0.0000000E+00; -2.9767400E-02;  9.9796063E+02;  2.9214790E-01; -1.6891414E+03;3;  6.9956711E+01;  0.0000000E+00;  4.2737354E+01;0;  4.3464088E-01;  4.7590898E+03;  0.0000000E+00;  1.5822097E+00;  4.0000000E+04;  0.0000000E+00;  3.9212230E+04;  2.3182982E-01;  0.0000000E+00;  2.0281108E-01;  8.1863105E+03;
  1.2532841E+00;  9.9999998E-03;  1.5131921E-01;8347;  2.6535082E-01;  0.0000000E+00; -2.9851127E-02;  9.9423285E+02;  2.9228467E-01; -4.7767236E+03;3;  5.7562557E+01;  0.0000000E+00;  3.7849533E+01;0;  4.9594206E-01;  4.7130518E+03;  0.0000000E+00;  5.5329680E-01;  4.0000000E+04;  0.0000000E+00;  3.9229527E+04;  5.2974933E-01;  0.0000000E+00; -3.3807289E-02;  1.0408428E+04;
  1.2537484E+00;  9.9999998E-03;  1.4122963E-01;8346;  2.4706937E-01;  0.0000000E+00; -3.0163901E-02;  9.9362146E+02;  2.9218897E-01; -5.2830845E+03;3;  5.5007305E+01;  0.0000000E+00;  3.6696926E+01;0;  5.3217560E-01;  4.7088936E+03;  0.0000000E+00;  5.0420427E-01;  4.0000000E+04;  0.0000000E+00;  3.9235848E+04;  5.9376484E-01;  0.0000000E+00; -6.1589226E-02;  1.1106691E+04;
  1.2530233E+00;  9.9999998E-03;  2.3215944E-01;8355;  4.1943750E-01;  0.0000000E+00; -2.9994672E-02;  9.9802484E+02;  2.9191554E-01; -1.6359667E+03;3;  7.2468384E+01;  0.0000000E+00;  4.4590908E+01;0;  4.3049741E-01;  4.7690581E+03;  0.0000000E+00;  1.2513771E+00;  4.0000000E+04;  0.0000000E+00;  3.9207980E+04;  1.9995764E-01;  0.0000000E+00;  2.3053978E-01;  7.5258394E+03;
  1.2540945E+00;  9.9999998E-03;  1.3116612E-01;8345;  2.2971421E-01;  0.0000000E+00; -3.0111164E-02;  9.9301855E+02;  2.9212064E-01; -5.7824351E+03;3;  5.2391254E+01;  0.0000000E+00;  3.5314945E+01;0;  5.7281250E-01;  4.7043872E+03;  0.0000000E+00;  4.5758113E-01;  4.0000000E+04;  0.0000000E+00;  3.9242016E+04;  6.5946001E-01;  0.0000000E+00; -8.6647511E-02;  1.1756653E+04;
  1.2542940E+00;  9.9999998E-03;  1.2110738E-01;8344;  2.1349631E-01;  0.0000000E+00; -2.9653342E-02;  9.9240552E+02;  2.9208723E-01; -6.2901807E+03;3;  5.0144199E+01;  0.0000000E+00;  3.3717922E+01;0;  6.1491680E-01;  4.6992505E+03;  0.0000000E+00;  4.1480812E-01;  4.0000000E+04;  0.0000000E+00;  3.9246934E+04;  7.2451490E-01;  0.0000000E+00; -1.0959813E-01;  1.2330025E+04;
  1.2543491E+00;  9.9999998E-03;  1.1105555E-01;8343;  1.9849585E-01;  0.0000000E+00; -2.8782427E-02;  9.9178851E+02;  2.9209572E-01; -6.8012378E+03;3;  4.8671284E+01;  0.0000000E+00;  3.1736544E+01;0;  6.5592480E-01;  4.6933223E+03;  0.0000000E+00;  3.8089630E-01;  4.0000000E+04;  0.0000000E+00;  3.9250422E+04;  7.8709739E-01;  0.0000000E+00; -1.3117257E-01;  1.2787559E+04;
  1.2544495E+00;  9.9999998E-03;  1.0099557E-01;8342;  1.8464954E-01;  0.0000000E+00; -2.7658395E-02;  9.9116309E+02;  2.9210907E-01; -7.3192539E+03;3;  5.2275246E+01;  0.0000000E+00;  2.7109850E+01;0;  6.9849801E-01;  4.6877471E+03;  0.0000000E+00;  3.5819241E-01;  4.0000000E+04;  0.0000000E+00;  3.9252152E+04;  8.5190994E-01;  0.0000000E+00; -1.5341194E-01;  1.3094338E+04;
  1.2547088E+00;  9.9999998E-03;  9.0918526E-02;8341;  1.7162775E-01;  0.0000000E+00; -2.6233699E-02;  9.9054486E+02;  2.9209131E-01; -7.8312905E+03;3;  5.3868294E+01;  0.0000000E+00;  2.4253717E+01;0;  7.4540472E-01;  4.6834048E+03;  0.0000000E+00;  3.4330270E-01;  4.0000000E+04;  0.0000000E+00;  3.9252582E+04;  9.2295146E-01;  0.0000000E+00; -1.7754672E-01;  1.3236335E+04;
  1.2550957E+00;  9.9999998E-03;  8.0823325E-02;8340;  1.5981676E-01;  0.0000000E+00; -2.4576761E-02;  9.8996649E+02;  2.9205003E-01; -8.3102949E+03;3;  5.3616322E+01;  0.0000000E+00;  2.1254782E+01;0;  7.9606712E-01;  4.6802642E+03;  0.0000000E+00;  3.2804534E-01;  4.0000000E+04;  0.0000000E+00;  3.9251738E+04;  9.9932498E-01;  0.0000000E+00; -2.0325786E-01;  1.3232629E+04;
  1.2554462E+00;  9.9999998E-03;  7.0693374E-02;8339;  1.4939952E-01;  0.0000000E+00; -2.2473261E-02;  9.8945825E+02;  2.9202563E-01; -8.7312422E+03;3;  5.3544975E+01;  0.0000000E+00;  1.8742449E+01;0;  8.4508640E-01;  4.6772891E+03;  0.0000000E+00;  3.0323806E-01;  4.0000000E+04;  0.0000000E+00;  3.9250305E+04;  1.0738261E+00;  0.0000000E+00; -2.2873969E-01;  1.3130294E+04;
  1.2801133E+00;  9.9999998E-03;  2.0181966E-01;8413;  3.5799825E-01;  0.0000000E+00; -7.9064175E-02;  9.9351099E+02;  2.7906430E-01; -5.3739189E+03;3;  6.6978531E+01;  0.0000000E+00;  3.4879002E+01;0;  6.9212133E-01;  5.1611904E+03;  0.0000000E+00;  1.1299890E+00;  4.0000000E+04;  0.0000000E+00;  3.9240820E+04;  6.4359325E-01;  0.0000000E+00;  4.8528086E-02;  1.0297346E+04;
  1.2803162E+00;  9.9999998E-03;  1.9176637E-01;8412;  3.3894622E-01;  0.0000000E+00; -7.8385159E-02;  9.9308655E+02;  2.7908528E-01; -5.7253677E+03;3;  6.4755806E+01;  0.0000000E+00;  3.4274952E+01;0;  7.8206116E-01;  5.1560308E+03;  0.0000000E+00;  8.5774833E-01;  4.0000000E+04;  0.0000000E+00;  3.9236949E+04;  7.8661889E-01;  0.0000000E+00; -4.5577083E-03;  1.0214456E+04;
  1.2803171E+00;  9.9999998E-03;  2.1190321E-01;8414;  3.7683055E-01;  0.0000000E+00; -8.0139637E-02;  9.9388519E+02;  2.7893019E-01; -5.0639697E+03;3;  6.8153908E+01;  0.0000000E+00;  3.5683567E+01;0;  6.1942828E-01;  5.1693730E+03;  0.0000000E+00;  1.3380253E+00;  4.0000000E+04;  0.0000000E+00;  3.9246605E+04;  5.2049345E-01;  0.0000000E+00;  9.8934844E-02;  1.0897659E+04;
  1.2808170E+00;  9.9999998E-03;  1.8171467E-01;8411;  3.1974524E-01;  0.0000000E+00; -7.7930100E-02;  9.9262610E+02;  2.7901709E-01; -6.1067178E+03;3;  6.3137726E+01;  0.0000000E+00;  3.3575180E+01;0;  8.9104903E-01;  5.1529023E+03;  0.0000000E+00;  6.1289984E-01;  4.0000000E+04;  0.0000000E+00;  3.9234566E+04;  9.4921923E-01;  0.0000000E+00; -5.8170173E-02;  1.0423579E+04;
  1.2808460E+00;  9.9999998E-03;  2.2203621E-01;8415;  3.9530790E-01;  0.0000000E+00; -8.1498384E-02;  9.9413550E+02;  2.7870181E-01; -4.8566841E+03;3;  6.9846741E+01;  0.0000000E+00;  3.5920319E+01;0;  5.5680931E-01;  5.1799141E+03;  0.0000000E+00;  1.3454399E+00;  4.0000000E+04;  0.0000000E+00;  3.9249590E+04;  4.1285416E-01;  0.0000000E+00;  1.4395514E-01;  1.1365436E+04;
  1.2813898E+00;  9.9999998E-03;  1.7163767E-01;8410;  3.0030444E-01;  0.0000000E+00; -7.7365950E-02;  9.9211597E+02;  2.7892685E-01; -6.5291318E+03;3;  6.2650520E+01;  0.0000000E+00;  3.3300201E+01;0;  1.0146773E+00;  5.1499551E+03;  0.0000000E+00;  4.4594944E-01;  4.0000000E+04;  0.0000000E+00;  3.9233086E+04;  1.1247417E+00;  0.0000000E+00; -1.1006443E-01;  1.0498868E+04;
  1.2818828E+00;  9.9999998E-03;  1.6153155E-01;8409;  2.8073031E-01;  0.0000000E+00; -7.6485187E-02;  9.9155774E+02;  2.7884457E-01; -6.9914302E+03;3;  6.0734501E+01;  0.0000000E+00;  3.3024334E+01;0;  1.1469723E+00;  5.1463833E+03;  0.0000000E+00;  3.5981351E-01;  4.0000000E+04;  0.0000000E+00;  3.9231324E+04;  1.3052244E+00;  0.0000000E+00; -1.5825208E-01;  1.0276523E+04;
  1.2816669E+00;  9.9999998E-03;  2.3218040E-01;8416;  4.1341573E-01;  0.0000000E+00; -8.2766630E-02;  9.9422803E+02;  2.7838930E-01; -4.7800513E+03;3;  7.2827576E+01;  0.0000000E+00;  3.6673618E+01;0;  4.9803227E-01;  5.1929692E+03;  0.0000000E+00;  9.7504145E-01;  4.0000000E+04;  0.0000000E+00;  3.9248172E+04;  3.1892753E-01;  0.0000000E+00;  1.7910473E-01;  1.1177777E+04;
  1.2823066E+00;  9.9999998E-03;  1.5141125E-01;8408;  2.6163024E-01;  0.0000000E+00; -7.5154059E-02;  9.9096704E+02;  2.7874953E-01; -7.4805801E+03;3;  5.7841156E+01;  0.0000000E+00;  3.2431282E+01;0;  1.2858579E+00;  5.1428950E+03;  0.0000000E+00;  3.2861298E-01;  4.0000000E+04;  0.0000000E+00;  3.9230070E+04;  1.4876884E+00;  0.0000000E+00; -2.0183045E-01;  9.8672656E+03;
  1.2827258E+00;  9.9999998E-03;  1.4130296E-01;8407;  2.4332491E-01;  0.0000000E+00; -7.3414803E-02;  9.9035095E+02;  2.7863643E-01; -7.9907568E+03;3;  5.5000385E+01;  0.0000000E+00;  3.2245113E+01;0;  1.4315279E+00;  5.1400371E+03;  0.0000000E+00;  3.2429829E-01;  4.0000000E+04;  0.0000000E+00;  3.9229902E+04;  1.6724831E+00;  0.0000000E+00; -2.4095525E-01;  9.4718682E+03;
  1.2831438E+00;  9.9999998E-03;  1.3123256E-01;8406;  2.2602007E-01;  0.0000000E+00; -7.1311906E-02;  9.8972974E+02;  2.7851078E-01; -8.5051748E+03;3;  5.1867599E+01;  0.0000000E+00;  3.2219589E+01;0;  1.5815215E+00;  5.1376167E+03;  0.0000000E+00;  3.3078384E-01;  4.0000000E+04;  0.0000000E+00;  3.9230047E+04;  1.8578887E+00;  0.0000000E+00; -2.7636719E-01;  9.2294375E+03;
  1.2835394E+00;  9.9999998E-03;  1.2117600E-01;8405;  2.0988026E-01;  0.0000000E+00; -6.8806186E-02;  9.8908234E+02;  2.7838808E-01; -9.0413105E+03;3;  4.8484940E+01;  0.0000000E+00;  3.2267235E+01;0;  1.7324281E+00;  5.1352349E+03;  0.0000000E+00;  3.4307092E-01;  4.0000000E+04;  0.0000000E+00;  3.9230164E+04;  2.0416932E+00;  0.0000000E+00; -3.0926517E-01;  9.1634941E+03;
  1.2838100E+00;  9.9999998E-03;  1.1110826E-01;8404;  1.9502421E-01;  0.0000000E+00; -6.5716267E-02;  9.8842487E+02;  2.7831566E-01; -9.5857930E+03;3;  4.5552013E+01;  0.0000000E+00;  3.2194729E+01;0;  1.8758410E+00;  5.1315122E+03;  0.0000000E+00;  3.5788628E-01;  4.0000000E+04;  0.0000000E+00;  3.9229828E+04;  2.2159784E+00;  0.0000000E+00; -3.4013739E-01;  9.2049697E+03;
  1.2840389E+00;  9.9999998E-03;  1.0101849E-01;8403;  1.8141407E-01;  0.0000000E+00; -6.2189925E-02;  9.8778522E+02;  2.7827033E-01; -1.0115468E+04;3;  4.5474731E+01;  0.0000000E+00;  3.1281931E+01;0;  2.0137937E+00;  5.1273140E+03;  0.0000000E+00;  3.7128416E-01;  4.0000000E+04;  0.0000000E+00;  3.9228594E+04;  2.3839960E+00;  0.0000000E+00; -3.7020227E-01;  9.2297627E+03;
  1.2842727E+00;  9.9999998E-03;  9.0904802E-02;8402;  1.6883355E-01;  0.0000000E+00; -5.8110029E-02;  9.8717493E+02;  2.7823582E-01; -1.0620854E+04;3;  4.7603065E+01;  0.0000000E+00;  2.8256071E+01;0;  2.1472545E+00;  5.1233496E+03;  0.0000000E+00;  3.7694407E-01;  4.0000000E+04;  0.0000000E+00;  3.9226719E+04;  2.5472178E+00;  0.0000000E+00; -3.9996326E-01;  9.1499678E+03;
  1.2844847E+00;  9.9999998E-03;  8.0755062E-02;8401;  1.5736799E-01;  0.0000000E+00; -5.3364851E-02;  9.8663129E+02;  2.7821696E-01; -1.1071058E+04;3;  4.8309120E+01;  0.0000000E+00;  2.4685488E+01;0;  2.2730517E+00;  5.1195430E+03;  0.0000000E+00;  3.6771581E-01;  4.0000000E+04;  0.0000000E+00;  3.9224340E+04;  2.7020454E+00;  0.0000000E+00; -4.2899361E-01;  8.9460566E+03;
  1.2846214E+00;  9.9999998E-03;  7.0613340E-02;8400;  1.4720884E-01;  0.0000000E+00; -4.7973305E-02;  9.8617712E+02;  2.7823022E-01; -1.1447125E+04;3;  4.9217194E+01;  0.0000000E+00;  2.1008408E+01;0;  2.3853414E+00;  5.1153218E+03;  0.0000000E+00;  3.3929202E-01;  4.0000000E+04;  0.0000000E+00;  3.9222090E+04;  2.8415632E+00;  0.0000000E+00; -4.5622179E-01;  8.6604902E+03;
  1.3077023E+00;  9.9999998E-03;  1.9191283E-01;8473;  3.3551076E-01;  0.0000000E+00; -1.2529474E-01;  9.9042737E+02;  2.6410219E-01; -7.9259946E+03;3;  6.4052254E+01;  0.0000000E+00;  2.9329472E+01;0;  1.8780190E+00;  5.7213203E+03;  0.0000000E+00; -2.4297835E-02;  4.0000000E+04;  0.0000000E+00;  3.9251113E+04;  1.9990356E+00;  0.0000000E+00; -1.2101658E-01;  1.1181222E+04;
  1.3074808E+00;  9.9999998E-03;  2.0197318E-01;8474;  3.5362822E-01;  0.0000000E+00; -1.2584852E-01;  9.9060876E+02;  2.6408046E-01; -7.7758325E+03;3;  6.5969513E+01;  0.0000000E+00;  3.1565336E+01;0;  1.6774697E+00;  5.7239214E+03;  0.0000000E+00;  1.6624112E-01;  4.0000000E+04;  0.0000000E+00;  3.9258469E+04;  1.7432886E+00;  0.0000000E+00; -6.5818943E-02;  1.1682690E+04;
  1.3075367E+00;  9.9999998E-03;  2.1203965E-01;8475;  3.7166438E-01;  0.0000000E+00; -1.2615561E-01;  9.9078424E+02;  2.6397800E-01; -7.6305371E+03;3;  6.9021767E+01;  0.0000000E+00;  3.2628780E+01;0;  1.5016203E+00;  5.7291650E+03;  0.0000000E+00;  3.1814039E-01;  4.0000000E+04;  0.0000000E+00;  3.9266875E+04;  1.5169424E+00;  0.0000000E+00; -1.5322109E-02;  1.2365939E+04;
  1.3081781E+00;  9.9999998E-03;  1.8184437E-01;8472;  3.1688359E-01;  0.0000000E+00; -1.2431329E-01;  9.9021564E+02;  2.6404330E-01; -8.1012568E+03;3;  6.4451675E+01;  0.0000000E+00;  2.7571911E+01;0;  2.1044185E+00;  5.7215063E+03;  0.0000000E+00; -1.6016175E-01;  4.0000000E+04;  0.0000000E+00;  3.9243312E+04;  2.2825384E+00;  0.0000000E+00; -1.7811987E-01;  1.0551115E+04;
  1.3079267E+00;  9.9999998E-03;  2.2213110E-01;8476;  3.8971642E-01;  0.0000000E+00; -1.2668255E-01;  9.9093115E+02;  2.6377538E-01; -7.5088579E+03;3;  7.3267609E+01;  0.0000000E+00;  3.0959364E+01;0;  1.3485875E+00;  5.7379351E+03;  0.0000000E+00;  2.9276168E-01;  4.0000000E+04;  0.0000000E+00;  3.9274316E+04;  1.3222761E+00;  0.0000000E+00;  2.6311342E-02;  1.3176393E+04;
  1.3088810E+00;  9.9999998E-03;  1.7176454E-01;8471;  2.9755253E-01;  0.0000000E+00; -1.2309216E-01;  9.8996014E+02;  2.6389641E-01; -8.3127754E+03;3;  6.3246773E+01;  0.0000000E+00;  2.6625372E+01;0;  2.3561435E+00;  5.7248452E+03;  0.0000000E+00; -1.9600411E-01;  4.0000000E+04;  0.0000000E+00;  3.9234496E+04;  2.5908182E+00;  0.0000000E+00; -2.3467478E-01;  9.5556533E+03;
  1.3084711E+00;  9.9999998E-03;  2.3224887E-01;8477;  4.0677381E-01;  0.0000000E+00; -1.2736790E-01;  9.9099109E+02;  2.6354405E-01; -7.4591733E+03;3;  7.2714775E+01;  0.0000000E+00;  2.9066254E+01;0;  1.2042665E+00;  5.7475718E+03;  0.0000000E+00; -7.5149268E-02;  4.0000000E+04;  0.0000000E+00;  3.9277918E+04;  1.1505885E+00;  0.0000000E+00;  5.3678069E-02;  1.3614092E+04;
  1.3096514E+00;  9.9999998E-03;  1.6166162E-01;8470;  2.7848646E-01;  0.0000000E+00; -1.2134193E-01;  9.8966351E+02;  2.6370108E-01; -8.5582852E+03;3;  6.1136528E+01;  0.0000000E+00;  2.5257740E+01;0;  2.6230581E+00;  5.7296719E+03;  0.0000000E+00; -1.2754758E-01;  4.0000000E+04;  0.0000000E+00;  3.9225406E+04;  2.9112046E+00;  0.0000000E+00; -2.8814653E-01;  8.2145010E+03;
  1.3102971E+00;  9.9999998E-03;  1.5153296E-01;8469;  2.5988591E-01;  0.0000000E+00; -1.1872225E-01;  9.8933032E+02;  2.6351833E-01; -8.8341045E+03;3;  5.8714935E+01;  0.0000000E+00;  2.3512552E+01;0;  2.8895988E+00;  5.7333486E+03;  0.0000000E+00;  6.8881102E-03;  4.0000000E+04;  0.0000000E+00;  3.9216703E+04;  3.2260191E+00;  0.0000000E+00; -3.3642033E-01;  6.7389224E+03;
  1.3105959E+00;  9.9999998E-03;  1.4139813E-01;8468;  2.4193171E-01;  0.0000000E+00; -1.1489014E-01;  9.8895221E+02;  2.6343903E-01; -9.1471592E+03;3;  5.5925690E+01;  0.0000000E+00;  2.2018959E+01;0;  3.1347387E+00;  5.7321260E+03;  0.0000000E+00;  1.6128257E-01;  4.0000000E+04;  0.0000000E+00;  3.9209641E+04;  3.5129240E+00;  0.0000000E+00; -3.7818536E-01;  5.4174351E+03;
  1.3107444E+00;  9.9999998E-03;  1.3129039E-01;8467;  2.2490396E-01;  0.0000000E+00; -1.1008660E-01;  9.8853021E+02;  2.6339832E-01; -9.4965469E+03;3;  5.3147163E+01;  0.0000000E+00;  2.0990032E+01;0;  3.3657708E+00;  5.7288066E+03;  0.0000000E+00;  3.0038649E-01;  4.0000000E+04;  0.0000000E+00;  3.9204598E+04;  3.7806902E+00;  0.0000000E+00; -4.1491950E-01;  4.4490317E+03;
  1.3109708E+00;  9.9999998E-03;  1.2120987E-01;8466;  2.0903683E-01;  0.0000000E+00; -1.0468210E-01;  9.8809027E+02;  2.6332626E-01; -9.8607822E+03;3;  4.8969349E+01;  0.0000000E+00;  1.9277468E+01;0;  3.5957165E+00;  5.7267422E+03;  0.0000000E+00;  4.0899989E-01;  4.0000000E+04;  0.0000000E+00;  3.9200395E+04;  4.0445452E+00;  0.0000000E+00; -4.4882864E-01;  3.8788767E+03;
  1.3112696E+00;  9.9999998E-03;  1.1112474E-01;8465;  1.9466113E-01;  0.0000000E+00; -9.8558150E-02;  9.8764331E+02;  2.6323605E-01; -1.0230831E+04;3;  4.1294159E+01;  0.0000000E+00;  1.7637575E+01;0;  3.8225272E+00;  5.7257656E+03;  0.0000000E+00;  4.7991452E-01;  4.0000000E+04;  0.0000000E+00;  3.9196906E+04;  4.3035336E+00;  0.0000000E+00; -4.8100644E-01;  3.5954495E+03;
  1.3115423E+00;  9.9999998E-03;  1.0101331E-01;8464;  1.8224572E-01;  0.0000000E+00; -9.1632888E-02;  9.8721393E+02;  2.6316732E-01; -1.0586322E+04;3;  2.5448957E+01;  0.0000000E+00;  1.4768648E+01;0;  4.0365310E+00;  5.7241968E+03;  0.0000000E+00;  5.1114476E-01;  4.0000000E+04;  0.0000000E+00;  3.9193348E+04;  4.5482426E+00;  0.0000000E+00; -5.1171178E-01;  3.4064351E+03;
  1.3117558E+00;  9.9999998E-03;  9.0860441E-02;8463;  1.7235163E-01;  0.0000000E+00; -8.3932951E-02;  9.8680560E+02;  2.6313227E-01; -1.0924348E+04;3; -1.1704260E+00;  0.0000000E+00;  1.1631570E+01;0;  4.2328782E+00;  5.7217217E+03;  0.0000000E+00;  5.0502628E-01;  4.0000000E+04;  0.0000000E+00;  3.9189945E+04;  4.7738280E+00;  0.0000000E+00; -5.4094976E-01;  3.1632830E+03;
  1.3119404E+00;  9.9999998E-03;  8.0718271E-02;8462;  1.6583183E-01;  0.0000000E+00; -7.5553924E-02;  9.8646771E+02;  2.6312080E-01; -1.1204093E+04;3; -3.2333664E+01;  0.0000000E+00;  8.5473251E+00;0;  4.4109402E+00;  5.7190464E+03;  0.0000000E+00;  4.6744093E-01;  4.0000000E+04;  0.0000000E+00;  3.9186520E+04;  4.9793324E+00;  0.0000000E+00; -5.6839216E-01;  2.8146648E+03;
  1.3121200E+00;  9.9999998E-03;  7.0599750E-02;8461;  1.6297548E-01;  0.0000000E+00; -6.6730581E-02;  9.8620410E+02;  2.6311669E-01; -1.1422347E+04;3; -6.2322388E+01;  0.0000000E+00;  6.7119293E+00;0;  4.5709782E+00;  5.7168379E+03;  0.0000000E+00;  4.0617523E-01;  4.0000000E+04;  0.0000000E+00;  3.9183250E+04;  5.1646552E+00;  0.0000000E+00; -5.9367681E-01;  2.3800139E+03;
  1.3329285E+00;  9.9999998E-03;  2.0214257E-01;8535;  3.4668571E-01;  0.0000000E+00; -1.5762801E-01;  9.8920026E+02;  2.4874012E-01; -8.9395918E+03;3;  6.7897408E+01;  0.0000000E+00;  9.9910507E+00;0;  3.1273656E+00;  6.4314473E+03;  0.0000000E+00; -4.3800810E-01;  4.0000000E+04;  0.0000000E+00;  3.9261258E+04;  3.3201745E+00;  0.0000000E+00; -1.9280893E-01;  1.0649130E+04;
  1.3333185E+00;  9.9999998E-03;  1.9207709E-01;8534;  3.2900044E-01;  0.0000000E+00; -1.5583813E-01;  9.8937274E+02;  2.4868456E-01; -8.7967617E+03;3;  6.0330196E+01;  0.0000000E+00;  8.2858353E+00;0;  3.4199390E+00;  6.4377939E+03;  0.0000000E+00; -5.2156067E-01;  4.0000000E+04;  0.0000000E+00;  3.9251191E+04;  3.6558108E+00;  0.0000000E+00; -2.3587185E-01;  9.5012598E+03;
  1.3329082E+00;  9.9999998E-03;  2.1219531E-01;8536;  3.6445960E-01;  0.0000000E+00; -1.5939367E-01;  9.8907617E+02;  2.4866575E-01; -9.0422676E+03;3;  7.1774437E+01;  0.0000000E+00;  1.0232401E+01;0;  2.8650501E+00;  6.4318203E+03;  0.0000000E+00; -3.6721385E-01;  4.0000000E+04;  0.0000000E+00;  3.9270961E+04;  3.0242136E+00;  0.0000000E+00; -1.5916348E-01;  1.1730115E+04;
  1.3340682E+00;  9.9999998E-03;  1.8200323E-01;8533;  3.1525326E-01;  0.0000000E+00; -1.5256292E-01;  9.8958173E+02;  2.4849719E-01; -8.6236973E+03;3;  2.2387466E+01;  0.0000000E+00; -4.3144979E+00;0;  3.7420137E+00;  6.4511772E+03;  0.0000000E+00; -5.2572972E-01;  4.0000000E+04;  0.0000000E+00;  3.9238480E+04;  4.0254593E+00;  0.0000000E+00; -2.8344554E-01;  8.0113452E+03;
  1.3332133E+00;  9.9999998E-03;  2.2225426E-01;8537;  3.8186675E-01;  0.0000000E+00; -1.6139799E-01;  9.8901379E+02;  2.4847840E-01; -9.0938877E+03;3;  7.5534103E+01;  0.0000000E+00;  9.2570372E+00;0;  2.6264133E+00;  6.4377095E+03;  0.0000000E+00; -4.4657442E-01;  4.0000000E+04;  0.0000000E+00;  3.9281289E+04;  2.7674899E+00;  0.0000000E+00; -1.4107655E-01;  1.3007369E+04;
  1.3338392E+00;  9.9999998E-03;  2.3234241E-01;8538;  3.9778578E-01;  0.0000000E+00; -1.6296636E-01;  9.8894910E+02;  2.4818437E-01; -9.1473438E+03;3;  7.1878799E+01;  0.0000000E+00;  1.4907150E+01;0;  2.4049175E+00;  6.4491880E+03;  0.0000000E+00; -8.4375364E-01;  4.0000000E+04;  0.0000000E+00;  3.9289145E+04;  2.5509751E+00;  0.0000000E+00; -1.4605762E-01;  1.4303198E+04;
  1.3351399E+00;  9.9999998E-03;  1.7192568E-01;8532;  3.2099438E-01;  0.0000000E+00; -1.4424211E-01;  9.8982544E+02;  2.4817134E-01; -8.4218350E+03;3; -5.8440998E+01;  0.0000000E+00; -1.4601217E+01;0;  4.0862355E+00;  6.4718188E+03;  0.0000000E+00; -4.1909638E-01;  4.0000000E+04;  0.0000000E+00;  3.9224125E+04;  4.4179735E+00;  0.0000000E+00; -3.3173794E-01;  6.1692188E+03;
  1.3361682E+00;  9.9999998E-03;  1.6182771E-01;8531;  3.4031701E-01;  0.0000000E+00; -1.3629881E-01;  9.9005438E+02;  2.4783532E-01; -8.2322178E+03;3; -9.1041252E+01;  0.0000000E+00; -1.0918196E+01;0;  4.4245086E+00;  6.4926958E+03;  0.0000000E+00; -2.1620594E-01;  4.0000000E+04;  0.0000000E+00;  3.9208910E+04;  4.8008547E+00;  0.0000000E+00; -3.7634608E-01;  4.1941460E+03;
  1.3367614E+00;  9.9999998E-03;  1.5169594E-01;8530;  3.5312003E-01;  0.0000000E+00; -1.3005497E-01;  9.9021075E+02;  2.4764735E-01; -8.1026929E+03;3; -1.0801280E+02;  0.0000000E+00; -1.1439564E+01;0;  4.7292104E+00;  6.5047202E+03;  0.0000000E+00;  3.6008768E-02;  4.0000000E+04;  0.0000000E+00;  3.9195184E+04;  5.1440530E+00;  0.0000000E+00; -4.1484246E-01;  2.4319463E+03;
  1.3370192E+00;  9.9999998E-03;  1.4154328E-01;8529;  3.5919118E-01;  0.0000000E+00; -1.2370538E-01;  9.9027087E+02;  2.4757066E-01; -8.0529341E+03;3; -1.2159890E+02;  0.0000000E+00; -1.1693496E+01;0;  5.0039639E+00;  6.5093057E+03;  0.0000000E+00;  2.8363633E-01;  4.0000000E+04;  0.0000000E+00;  3.9183805E+04;  5.4517822E+00;  0.0000000E+00; -4.4781834E-01;  1.2889301E+03;
  1.3371329E+00;  9.9999998E-03;  1.2127221E-01;8527;  3.6449662E-01;  0.0000000E+00; -1.0951634E-01;  9.9015649E+02;  2.4755818E-01; -8.1475967E+03;3; -1.4563106E+02;  0.0000000E+00; -1.2069879E+01;0;  5.4889827E+00;  6.5076172E+03;  0.0000000E+00;  6.3235182E-01;  4.0000000E+04;  0.0000000E+00;  3.9168523E+04;  5.9917841E+00;  0.0000000E+00; -5.0280148E-01;  2.0817554E+03;
  1.3371010E+00;  9.9999998E-03;  1.3139129E-01;8528;  3.6191016E-01;  0.0000000E+00; -1.1688603E-01;  9.9025165E+02;  2.4755330E-01; -8.0688110E+03;3; -1.3404210E+02;  0.0000000E+00; -1.2171023E+01;0;  5.2557497E+00;  6.5094502E+03;  0.0000000E+00;  4.8900101E-01;  4.0000000E+04;  0.0000000E+00;  3.9175242E+04;  5.7324061E+00;  0.0000000E+00; -4.7665662E-01;  1.3735184E+03;
  1.3372567E+00;  9.9999998E-03;  1.1116020E-01;8526;  3.7079808E-01;  0.0000000E+00; -1.0168017E-01;  9.9004272E+02;  2.4753386E-01; -8.2417139E+03;3; -1.5654831E+02;  0.0000000E+00; -1.1602842E+01;0;  5.7104197E+00;  6.5072065E+03;  0.0000000E+00;  7.0760584E-01;  4.0000000E+04;  0.0000000E+00;  3.9163410E+04;  6.2376933E+00;  0.0000000E+00; -5.2727348E-01;  2.8023877E+03;
  1.3373882E+00;  9.9999998E-03;  1.0103066E-01;8525;  3.7902188E-01;  0.0000000E+00; -9.3416169E-02;  9.8991284E+02;  2.4751732E-01; -8.3492012E+03;3; -1.6626749E+02;  0.0000000E+00; -1.1261902E+01;0;  5.9136081E+00;  6.5063545E+03;  0.0000000E+00;  7.1765417E-01;  4.0000000E+04;  0.0000000E+00;  3.9158566E+04;  6.4640851E+00;  0.0000000E+00; -5.5047715E-01;  3.4349351E+03;
  1.3375262E+00;  9.9999998E-03;  9.0910316E-02;8524;  3.8873351E-01;  0.0000000E+00; -8.4833033E-02;  9.8979236E+02;  2.4751127E-01; -8.4489395E+03;3; -1.7499171E+02;  0.0000000E+00; -1.0532550E+01;0;  6.0969610E+00;  6.5054302E+03;  0.0000000E+00;  6.7379183E-01;  4.0000000E+04;  0.0000000E+00;  3.9154367E+04;  6.6693206E+00;  0.0000000E+00; -5.7235944E-01;  3.9900198E+03;
  1.3376641E+00;  9.9999998E-03;  8.0800474E-02;8523;  3.9941576E-01;  0.0000000E+00; -7.6029174E-02;  9.8970441E+02;  2.4751103E-01; -8.5216924E+03;3; -1.8285495E+02;  0.0000000E+00; -9.6887503E+00;0;  6.2596478E+00;  6.5047104E+03;  0.0000000E+00;  5.9140402E-01;  4.0000000E+04;  0.0000000E+00;  3.9150000E+04;  6.8523755E+00;  0.0000000E+00; -5.9272778E-01;  4.4925049E+03;
  1.3377970E+00;  9.9999998E-03;  7.0700526E-02;8522;  4.1043913E-01;  0.0000000E+00; -6.7005821E-02;  9.8967151E+02;  2.4751265E-01; -8.5489102E+03;3; -1.8966862E+02;  0.0000000E+00; -8.5967741E+00;0;  6.4014421E+00;  6.5045508E+03;  0.0000000E+00;  4.8674390E-01;  4.0000000E+04;  0.0000000E+00;  3.9145926E+04;  7.0127702E+00;  0.0000000E+00; -6.1132801E-01;  4.9620918E+03;
  1.3573020E+00;  9.9999998E-03;  2.1233831E-01;8597;  3.9450246E-01;  0.0000000E+00; -1.4663114E-01;  9.8906281E+02;  2.3347203E-01; -9.0498838E+03;3; -5.0173782E+01;  0.0000000E+00; -4.1362011E+01;0;  4.4227829E+00;  7.2979053E+03;  0.0000000E+00; -3.9760053E-01;  4.0000000E+04;  0.0000000E+00;  3.9260672E+04;  4.6935005E+00;  0.0000000E+00; -2.7071747E-01;  9.0771768E+03;
  1.3575007E+00;  9.9999998E-03;  2.0229404E-01;8596;  4.1761059E-01;  0.0000000E+00; -1.4003520E-01;  9.8954285E+02;  2.3344015E-01; -8.6526338E+03;3; -9.3422493E+01;  0.0000000E+00; -3.5259022E+01;0;  4.6923780E+00;  7.3096143E+03;  0.0000000E+00; -3.0430150E-01;  4.0000000E+04;  0.0000000E+00;  3.9250809E+04;  4.9819484E+00;  0.0000000E+00; -2.8957009E-01;  7.5760762E+03;
  1.3575439E+00;  9.9999998E-03;  2.2237492E-01;8598;  3.8942662E-01;  0.0000000E+00; -1.5237068E-01;  9.8875311E+02;  2.3332542E-01; -9.3060547E+03;3;  1.4016603E+01;  0.0000000E+00; -3.7590248E+01;0;  4.1734262E+00;  7.2985010E+03;  0.0000000E+00; -6.5970725E-01;  4.0000000E+04;  0.0000000E+00;  3.9271867E+04;  4.4420891E+00;  0.0000000E+00; -2.6866293E-01;  1.0920653E+04;
  1.3580586E+00;  9.9999998E-03;  1.9222625E-01;8595;  4.5033035E-01;  0.0000000E+00; -1.3354485E-01;  9.9016516E+02;  2.3326759E-01; -8.1376079E+03;3; -1.0878558E+02;  0.0000000E+00; -3.2942188E+01;0;  4.9763718E+00;  7.3314893E+03;  0.0000000E+00; -2.4991482E-01;  4.0000000E+04;  0.0000000E+00;  3.9239102E+04;  5.2938218E+00;  0.0000000E+00; -3.1745014E-01;  5.9419473E+03;
  1.3581072E+00;  9.9999998E-03;  2.3244438E-01;8599;  3.9550972E-01;  0.0000000E+00; -1.5597944E-01;  9.8853894E+02;  2.3305401E-01; -9.4832061E+03;3;  4.9767033E+01;  0.0000000E+00; -3.1599491E+01;0;  3.9382465E+00;  7.3077139E+03;  0.0000000E+00; -1.2710441E+00;  4.0000000E+04;  0.0000000E+00;  3.9281008E+04;  4.2259712E+00;  0.0000000E+00; -2.8772479E-01;  1.3145054E+04;
  1.3588256E+00;  9.9999998E-03;  1.8213734E-01;8594;  4.8508248E-01;  0.0000000E+00; -1.2643242E-01;  9.9087970E+02;  2.3301145E-01; -7.5462666E+03;3; -1.1884000E+02;  0.0000000E+00; -3.2759090E+01;0;  5.2631311E+00;  7.3597339E+03;  0.0000000E+00; -1.5851259E-01;  4.0000000E+04;  0.0000000E+00;  3.9224129E+04;  5.6110396E+00;  0.0000000E+00; -3.4790829E-01;  3.9925630E+03;
  1.3596632E+00;  9.9999998E-03;  1.7203556E-01;8593;  5.1818639E-01;  0.0000000E+00; -1.1905422E-01;  9.9163538E+02;  2.3271686E-01; -6.9209023E+03;3; -1.2773029E+02;  0.0000000E+00; -3.2589741E+01;0;  5.5413823E+00;  7.3909512E+03;  0.0000000E+00; -5.3433580E-03;  4.0000000E+04;  0.0000000E+00;  3.9207062E+04;  5.9182577E+00;  0.0000000E+00; -3.7687540E-01;  2.0456169E+03;
  1.3604522E+00;  9.9999998E-03;  1.6192470E-01;8592;  5.4852861E-01;  0.0000000E+00; -1.1169148E-01;  9.9237347E+02;  2.3241977E-01; -6.3101123E+03;3; -1.3591249E+02;  0.0000000E+00; -3.2120499E+01;0;  5.8026509E+00;  7.4217690E+03;  0.0000000E+00;  1.8886307E-01;  4.0000000E+04;  0.0000000E+00;  3.9189527E+04;  6.2045627E+00;  0.0000000E+00; -4.0191194E-01;  1.8419971E+03;
  1.3615499E+00;  9.9999998E-03;  8.0956317E-02;8584;  6.7886066E-01;  0.0000000E+00; -5.9469450E-02;  9.9449750E+02;  2.3216842E-01; -4.5526284E+03;3; -1.9448659E+02;  0.0000000E+00; -1.7856133E+01;0;  7.1254430E+00;  7.4683247E+03;  0.0000000E+00;  5.8106118E-01;  4.0000000E+04;  0.0000000E+00;  3.9121941E+04;  7.6412272E+00;  0.0000000E+00; -5.1578432E-01;  1.0027943E+04;
  1.3616040E+00;  9.9999998E-03;  7.0866063E-02;8583;  6.9198924E-01;  0.0000000E+00; -5.2325208E-02;  9.9457898E+02;  2.3219678E-01; -4.4852100E+03;3; -1.9845769E+02;  0.0000000E+00; -1.5692941E+01;0;  7.2116680E+00;  7.4683828E+03;  0.0000000E+00;  4.6743786E-01;  4.0000000E+04;  0.0000000E+00;  3.9117223E+04;  7.7380943E+00;  0.0000000E+00; -5.2642643E-01;  1.0640047E+04;
  1.3615294E+00;  9.9999998E-03;  9.1039032E-02;8585;  6.6542470E-01;  0.0000000E+00; -6.6413902E-02;  9.9444800E+02;  2.3212555E-01; -4.5935620E+03;3; -1.8948366E+02;  0.0000000E+00; -1.9992456E+01;0;  7.0234885E+00;  7.4698677E+03;  0.0000000E+00;  6.7852157E-01;  4.0000000E+04;  0.0000000E+00;  3.9126883E+04;  7.5277448E+00;  0.0000000E+00; -5.0425637E-01;  9.4076299E+03;
  1.3611403E+00;  9.9999998E-03;  1.5179455E-01;8591;  5.7566422E-01;  0.0000000E+00; -1.0461237E-01;  9.9305249E+02;  2.3214261E-01; -5.7482231E+03;3; -1.4392375E+02;  0.0000000E+00; -3.1323509E+01;0;  6.0438690E+00;  7.4499326E+03;  0.0000000E+00;  3.8751626E-01;  4.0000000E+04;  0.0000000E+00;  3.9173613E+04;  6.4661579E+00;  0.0000000E+00; -4.2228907E-01;  3.5140344E+03;
  1.3615465E+00;  9.9999998E-03;  1.0112166E-01;8586;  6.5205061E-01;  0.0000000E+00; -7.3182486E-02;  9.9440576E+02;  2.3207006E-01; -4.6285249E+03;3; -1.8354863E+02;  0.0000000E+00; -2.2256372E+01;0;  6.9053273E+00;  7.4725693E+03;  0.0000000E+00;  7.4628156E-01;  4.0000000E+04;  0.0000000E+00;  3.9131980E+04;  7.3974004E+00;  0.0000000E+00; -4.9207291E-01;  8.7778662E+03;
  1.3616116E+00;  9.9999998E-03;  1.1121914E-01;8587;  6.3926613E-01;  0.0000000E+00; -7.9710506E-02;  9.9434106E+02;  2.3200305E-01; -4.6820259E+03;3; -1.7652037E+02;  0.0000000E+00; -2.4358799E+01;0;  6.7708645E+00;  7.4761460E+03;  0.0000000E+00;  7.7316284E-01;  4.0000000E+04;  0.0000000E+00;  3.9137203E+04;  7.2502522E+00;  0.0000000E+00; -4.7938761E-01;  8.1172397E+03;
  1.3617133E+00;  9.9999998E-03;  1.2134400E-01;8588;  6.2722158E-01;  0.0000000E+00; -8.5955314E-02;  9.9422211E+02;  2.3192988E-01; -4.7804487E+03;3; -1.6846231E+02;  0.0000000E+00; -2.6485464E+01;0;  6.6200166E+00;  7.4794907E+03;  0.0000000E+00;  7.5179195E-01;  4.0000000E+04;  0.0000000E+00;  3.9143008E+04;  7.0863371E+00;  0.0000000E+00; -4.6632063E-01;  7.3651211E+03;
  1.3616151E+00;  9.9999998E-03;  1.4164758E-01;8590;  5.9808248E-01;  0.0000000E+00; -9.8082289E-02;  9.9360693E+02;  2.3194315E-01; -5.2894395E+03;3; -1.5191563E+02;  0.0000000E+00; -3.0236546E+01;0;  6.2608886E+00;  7.4707183E+03;  0.0000000E+00;  5.5683571E-01;  4.0000000E+04;  0.0000000E+00;  3.9160602E+04;  6.6995835E+00;  0.0000000E+00; -4.3869516E-01;  5.1478701E+03;
  1.3617640E+00;  9.9999998E-03;  1.3149701E-01;8589;  6.1440748E-01;  0.0000000E+00; -9.2022069E-02;  9.9399377E+02;  2.3188911E-01; -4.9693691E+03;3; -1.6014494E+02;  0.0000000E+00; -2.8515749E+01;0;  6.4511991E+00;  7.4793247E+03;  0.0000000E+00;  6.7940158E-01;  4.0000000E+04;  0.0000000E+00;  3.9150535E+04;  6.9041100E+00;  0.0000000E+00; -4.5291072E-01;  6.4154771E+03;
  1.3804661E+00;  9.9999998E-03;  2.0236388E-01;8657;  6.2572640E-01;  0.0000000E+00; -9.8228201E-02;  9.9148914E+02;  2.1889071E-01; -7.0385757E+03;3; -1.3417575E+02;  0.0000000E+00; -4.4128677E+01;0;  5.8029361E+00;  8.3511738E+03;  0.0000000E+00;  2.1602382E-01;  4.0000000E+04;  0.0000000E+00;  3.9234527E+04;  6.1337986E+00;  0.0000000E+00; -3.3086270E-01;  3.8454102E+03;
  1.3804803E+00;  9.9999998E-03;  2.1240781E-01;8658;  5.9705395E-01;  0.0000000E+00; -1.0206565E-01;  9.9078833E+02;  2.1887943E-01; -7.6181172E+03;3; -1.3118759E+02;  0.0000000E+00; -4.4810673E+01;0;  5.6413040E+00;  8.3365420E+03;  0.0000000E+00; -1.3768248E-01;  4.0000000E+04;  0.0000000E+00;  3.9244934E+04;  5.9633093E+00;  0.0000000E+00; -3.2200506E-01;  5.8339536E+03;
  1.3807528E+00;  9.9999998E-03;  1.9229478E-01;8656;  6.5788704E-01;  0.0000000E+00; -9.3560353E-02;  9.9238055E+02;  2.1877958E-01; -6.3012935E+03;3; -1.3755338E+02;  0.0000000E+00; -4.3578114E+01;0;  5.9660525E+00;  8.3774014E+03;  0.0000000E+00;  4.0475959E-01;  4.0000000E+04;  0.0000000E+00;  3.9222383E+04;  6.3083043E+00;  0.0000000E+00; -3.4225163E-01;  2.0392903E+03;
  1.3807870E+00;  9.9999998E-03;  2.2244963E-01;8659;  5.7184219E-01;  0.0000000E+00; -1.0530380E-01;  9.9029980E+02;  2.1875173E-01; -8.0220615E+03;3; -1.2856010E+02;  0.0000000E+00; -4.6365196E+01;0;  5.4854183E+00;  8.3329541E+03;  0.0000000E+00; -8.0869830E-01;  4.0000000E+04;  0.0000000E+00;  3.9255582E+04;  5.8043008E+00;  0.0000000E+00; -3.1888232E-01;  8.5333047E+03;
  1.3813500E+00;  9.9999998E-03;  1.8219872E-01;8655;  6.9304454E-01;  0.0000000E+00; -8.7904170E-02;  9.9339844E+02;  2.1853414E-01; -5.4594263E+03;3; -1.4128290E+02;  0.0000000E+00; -4.2487782E+01;0;  6.1250238E+00;  8.4159111E+03;  0.0000000E+00;  5.2606088E-01;  4.0000000E+04;  0.0000000E+00;  3.9207355E+04;  6.4783435E+00;  0.0000000E+00; -3.5331982E-01;  1.0332952E+03;
  1.3813530E+00;  9.9999998E-03;  2.3252088E-01;8660;  5.4919273E-01;  0.0000000E+00; -1.0810214E-01;  9.8996967E+02;  2.1852328E-01; -8.2949697E+03;3; -1.2691257E+02;  0.0000000E+00; -4.7585186E+01;0;  5.3366446E+00;  8.3392676E+03;  0.0000000E+00; -2.0121787E+00;  4.0000000E+04;  0.0000000E+00;  3.9263707E+04;  5.6617036E+00;  0.0000000E+00; -3.2505897E-01;  1.2470707E+04;
  1.3821220E+00;  9.9999998E-03;  1.7208338E-01;8654;  7.2923863E-01;  0.0000000E+00; -8.1452534E-02;  9.9449060E+02;  2.1820843E-01; -4.5560977E+03;3; -1.4455519E+02;  0.0000000E+00; -4.1361572E+01;0;  6.2711492E+00;  8.4615244E+03;  0.0000000E+00;  6.2619364E-01;  4.0000000E+04;  0.0000000E+00;  3.9189898E+04;  6.6330061E+00;  0.0000000E+00; -3.6185673E-01;  2.9045505E+03;
  1.3829163E+00;  9.9999998E-03;  1.6196077E-01;8653;  7.6418990E-01;  0.0000000E+00; -7.4881919E-02;  9.9556647E+02;  2.1786194E-01; -3.6663091E+03;3; -1.4737578E+02;  0.0000000E+00; -3.9882259E+01;0;  6.3990874E+00;  8.5080176E+03;  0.0000000E+00;  7.0818591E-01;  4.0000000E+04;  0.0000000E+00;  3.9172473E+04;  6.7659187E+00;  0.0000000E+00; -3.6683115E-01;  5.1845200E+03;
  1.3836279E+00;  9.9999998E-03;  1.5182754E-01;8652;  7.9611802E-01;  0.0000000E+00; -6.8813302E-02;  9.9656042E+02;  2.1754284E-01; -2.8442881E+03;3; -1.5008083E+02;  0.0000000E+00; -3.8557053E+01;0;  6.5082202E+00;  8.5505918E+03;  0.0000000E+00;  7.5650853E-01;  4.0000000E+04;  0.0000000E+00;  3.9156629E+04;  6.8766837E+00;  0.0000000E+00; -3.6846337E-01;  7.2679463E+03;
  1.3838137E+00;  9.9999998E-03;  8.1094742E-02;8645;  9.1496730E-01;  0.0000000E+00; -3.8685434E-02;  9.9890045E+02;  2.1768363E-01; -9.0923499E+02;3; -1.7039082E+02;  0.0000000E+00; -2.2724737E+01;0;  6.9502101E+00;  8.5794639E+03;  0.0000000E+00;  3.7598264E-01;  4.0000000E+04;  0.0000000E+00;  3.9104281E+04;  7.3289762E+00;  0.0000000E+00; -3.7876618E-01;  1.4018220E+04;
  1.3838432E+00;  9.9999998E-03;  9.1171622E-02;8646;  9.0197468E-01;  0.0000000E+00; -4.3169126E-02;  9.9883630E+02;  2.1761841E-01; -9.6231848E+02;3; -1.6884645E+02;  0.0000000E+00; -2.5321165E+01;0;  6.9167190E+00;  8.5826768E+03;  0.0000000E+00;  4.5227063E-01;  4.0000000E+04;  0.0000000E+00;  3.9109703E+04;  7.2927752E+00;  0.0000000E+00; -3.7605616E-01;  1.3344051E+04;
  1.3838238E+00;  9.9999998E-03;  7.0997283E-02;8644;  9.2719853E-01;  0.0000000E+00; -3.4078456E-02;  9.9897070E+02;  2.1772864E-01; -8.5117224E+02;3; -1.7132132E+02;  0.0000000E+00; -1.9942480E+01;0;  6.9741349E+00;  8.5782432E+03;  0.0000000E+00;  2.9789543E-01;  4.0000000E+04;  0.0000000E+00;  3.9098809E+04;  7.3556151E+00;  0.0000000E+00; -3.8148025E-01;  1.4705019E+04;
  1.3839271E+00;  9.9999998E-03;  1.0124023E-01;8647;  8.8856012E-01;  0.0000000E+00; -4.7474742E-02;  9.9876941E+02;  2.1753100E-01; -1.0176183E+03;3; -1.6658269E+02;  0.0000000E+00; -2.7861727E+01;0;  6.8727813E+00;  8.5878213E+03;  0.0000000E+00;  5.2483064E-01;  4.0000000E+04;  0.0000000E+00;  3.9114930E+04;  7.2462063E+00;  0.0000000E+00; -3.7342504E-01;  1.2685423E+04;
  1.3840758E+00;  9.9999998E-03;  1.4168073E-01;8651;  8.2240921E-01;  0.0000000E+00; -6.3814819E-02;  9.9738507E+02;  2.1734285E-01; -2.1623438E+03;3; -1.5320782E+02;  0.0000000E+00; -3.6948994E+01;0;  6.6011434E+00;  8.5803105E+03;  0.0000000E+00;  7.5698560E-01;  4.0000000E+04;  0.0000000E+00;  3.9143699E+04;  6.9695868E+00;  0.0000000E+00; -3.6844328E-01;  8.9702188E+03;
  1.3840535E+00;  9.9999998E-03;  1.1131167E-01;8648;  8.7469697E-01;  0.0000000E+00; -5.1634267E-02;  9.9863348E+02;  2.1742883E-01; -1.1299929E+03;3; -1.6373129E+02;  0.0000000E+00; -3.0369522E+01;0;  6.8186016E+00;  8.5935088E+03;  0.0000000E+00;  5.9403670E-01;  4.0000000E+04;  0.0000000E+00;  3.9120340E+04;  7.1896996E+00;  0.0000000E+00; -3.7109822E-01;  1.2010031E+04;
  1.3842001E+00;  9.9999998E-03;  1.2140643E-01;8649;  8.6017448E-01;  0.0000000E+00; -5.5605173E-02;  9.9839764E+02;  2.1732475E-01; -1.3250229E+03;3; -1.6025652E+02;  0.0000000E+00; -3.2742702E+01;0;  6.7546053E+00;  8.5979648E+03;  0.0000000E+00;  6.5987462E-01;  4.0000000E+04;  0.0000000E+00;  3.9126133E+04;  7.1238637E+00;  0.0000000E+00; -3.6925840E-01;  1.1244213E+04;
  1.3842460E+00;  9.9999998E-03;  1.3153218E-01;8650;  8.4333247E-01;  0.0000000E+00; -5.9547342E-02;  9.9799530E+02;  2.1727729E-01; -1.6577183E+03;3; -1.5665424E+02;  0.0000000E+00; -3.4908852E+01;0;  6.6823001E+00;  8.5953467E+03;  0.0000000E+00;  7.1839136E-01;  4.0000000E+04;  0.0000000E+00;  3.9133773E+04;  7.0506940E+00;  0.0000000E+00; -3.6839411E-01;  1.0270617E+04;
  1.4016656E+00;  9.9999998E-03;  2.0238836E-01;8718;  8.2947105E-01;  0.0000000E+00; -5.6272596E-02;  9.9428265E+02;  2.0549260E-01; -4.7251494E+03;3; -1.4281046E+02;  0.0000000E+00; -5.0268505E+01;0;  6.1850271E+00;  9.5351846E+03;  0.0000000E+00;  6.7564017E-01;  4.0000000E+04;  0.0000000E+00;  3.9217539E+04;  6.5075846E+00;  0.0000000E+00; -3.2255763E-01;  1.1048278E+03;
  1.4018006E+00;  9.9999998E-03;  2.1242689E-01;8719;  8.0665570E-01;  0.0000000E+00; -5.9211180E-02;  9.9357574E+02;  2.0548338E-01; -5.3093574E+03;3; -1.4355632E+02;  0.0000000E+00; -5.0496597E+01;0;  6.1405745E+00;  9.5174434E+03;  0.0000000E+00;  5.3431731E-02;  4.0000000E+04;  0.0000000E+00;  3.9228277E+04;  6.4675617E+00;  0.0000000E+00; -3.2698748E-01;  3.1221707E+03;
  1.4018795E+00;  9.9999998E-03;  1.9232377E-01;8717;  8.5705686E-01;  0.0000000E+00; -5.2728876E-02;  9.9521539E+02;  2.0536174E-01; -3.9542356E+03;3; -1.4212115E+02;  0.0000000E+00; -4.9503704E+01;0;  6.2202449E+00;  9.5687168E+03;  0.0000000E+00;  9.7055465E-01;  4.0000000E+04;  0.0000000E+00;  3.9206293E+04;  6.5378599E+00;  0.0000000E+00; -3.1761485E-01;  1.9656472E+03;
  1.4022727E+00;  9.9999998E-03;  2.2247325E-01;8720;  7.8929526E-01;  0.0000000E+00; -6.1955322E-02;  9.9310187E+02;  2.0534326E-01; -5.7008799E+03;3; -1.4412326E+02;  0.0000000E+00; -5.1229256E+01;0;  6.0916405E+00;  9.5147793E+03;  0.0000000E+00; -1.1157526E+00;  4.0000000E+04;  0.0000000E+00;  3.9238961E+04;  6.4245672E+00;  0.0000000E+00; -3.3292699E-01;  7.0523799E+03;
  1.4023652E+00;  9.9999998E-03;  1.8222974E-01;8716;  8.8799047E-01;  0.0000000E+00; -4.8429288E-02;  9.9629364E+02;  2.0512821E-01; -3.0630593E+03;3; -1.4094131E+02;  0.0000000E+00; -4.8691273E+01;0;  6.2411942E+00;  9.6144072E+03;  0.0000000E+00;  1.0742270E+00;  4.0000000E+04;  0.0000000E+00;  3.9192441E+04;  6.5520368E+00;  0.0000000E+00; -3.1084266E-01;  3.8383696E+03;
  1.4029928E+00;  9.9999998E-03;  2.3255548E-01;8721;  7.7546859E-01;  0.0000000E+00; -6.4822599E-02;  9.9277142E+02;  2.0510723E-01; -5.9738169E+03;3; -1.4489847E+02;  0.0000000E+00; -5.2115013E+01;0;  6.0407705E+00;  9.5241094E+03;  0.0000000E+00; -3.1609340E+00;  4.0000000E+04;  0.0000000E+00;  3.9245594E+04;  6.3836040E+00;  0.0000000E+00; -3.4283364E-01;  1.3604601E+04;
  1.4030135E+00;  9.9999998E-03;  1.7211042E-01;8715;  9.2028451E-01;  0.0000000E+00; -4.3525569E-02;  9.9744855E+02;  2.0483360E-01; -2.1085549E+03;3; -1.3899681E+02;  0.0000000E+00; -4.7634914E+01;0;  6.2454424E+00;  9.6668662E+03;  0.0000000E+00;  1.0733050E+00;  4.0000000E+04;  0.0000000E+00;  3.9176375E+04;  6.5470700E+00;  0.0000000E+00; -3.0162776E-01;  5.9544526E+03;
  1.4036827E+00;  9.9999998E-03;  1.6196853E-01;8714;  9.5142931E-01;  0.0000000E+00; -3.8680922E-02;  9.9858270E+02;  2.0453295E-01; -1.1712369E+03;3; -1.3691463E+02;  0.0000000E+00; -4.6563690E+01;0;  6.2347484E+00;  9.7190557E+03;  0.0000000E+00;  1.0150989E+00;  4.0000000E+04;  0.0000000E+00;  3.9159699E+04;  6.5250001E+00;  0.0000000E+00; -2.9025155E-01;  8.0947769E+03;
  1.4042233E+00;  9.9999998E-03;  1.5181713E-01;8713;  9.7926569E-01;  0.0000000E+00; -3.4420956E-02;  9.9961389E+02;  2.0429616E-01; -3.1908142E+02;3; -1.3490327E+02;  0.0000000E+00; -4.5213955E+01;0;  6.2147055E+00;  9.7626631E+03;  0.0000000E+00;  9.1402537E-01;  4.0000000E+04;  0.0000000E+00;  3.9144895E+04;  6.4926057E+00;  0.0000000E+00; -2.7789998E-01;  1.0027515E+04;
  1.4045738E+00;  9.9999998E-03;  1.4166956E-01;8712;  1.0031495E+00;  0.0000000E+00; -3.0944610E-02;  1.0004833E+03;  2.0415595E-01;  3.9946216E+02;3; -1.3326662E+02;  0.0000000E+00; -4.3789299E+01;0;  6.1909294E+00;  9.7932920E+03;  0.0000000E+00;  7.7287042E-01;  4.0000000E+04;  0.0000000E+00;  3.9132754E+04;  6.4568639E+00;  0.0000000E+00; -2.6593426E-01;  1.1612688E+04;
  1.4046490E+00;  9.9999998E-03;  9.1227457E-02;8707;  1.0807593E+00;  0.0000000E+00; -1.8865911E-02;  1.0019940E+03;  2.0435168E-01;  1.6477888E+03;3; -1.2775406E+02;  0.0000000E+00; -3.4330067E+01;0;  6.0739417E+00;  9.8053975E+03;  0.0000000E+00;  1.3802762E-01;  4.0000000E+04;  0.0000000E+00;  3.9100637E+04;  6.2998052E+00;  0.0000000E+00; -2.2586358E-01;  1.5739703E+04;
  1.4046758E+00;  9.9999998E-03;  1.0130272E-01;8708;  1.0687026E+00;  0.0000000E+00; -2.1122972E-02;  1.0019664E+03;  2.0428790E-01;  1.6249327E+03;3; -1.2908208E+02;  0.0000000E+00; -3.6737537E+01;0;  6.0998383E+00;  9.8098848E+03;  0.0000000E+00;  2.0720097E-01;  4.0000000E+04;  0.0000000E+00;  3.9105574E+04;  6.3316360E+00;  0.0000000E+00; -2.3179784E-01;  1.5125479E+04;
  1.4046575E+00;  9.9999998E-03;  8.1130810E-02;8706;  1.0917070E+00;  0.0000000E+00; -1.6617222E-02;  1.0019903E+03;  2.0439686E-01;  1.6447346E+03;3; -1.2622470E+02;  0.0000000E+00; -3.1783030E+01;0;  6.0449710E+00;  9.8023506E+03;  0.0000000E+00;  9.3966573E-02;  4.0000000E+04;  0.0000000E+00;  3.9095484E+04;  6.2655826E+00;  0.0000000E+00; -2.2061144E-01;  1.6371318E+04;
  1.4047256E+00;  9.9999998E-03;  1.1137475E-01;8709;  1.0553758E+00;  0.0000000E+00; -2.3375655E-02;  1.0018511E+03;  2.0421378E-01;  1.5296700E+03;3; -1.3016736E+02;  0.0000000E+00; -3.8831085E+01;0;  6.1230850E+00;  9.8141396E+03;  0.0000000E+00;  3.0914980E-01;  4.0000000E+04;  0.0000000E+00;  3.9110602E+04;  6.3616061E+00;  0.0000000E+00; -2.3852129E-01;  1.4490940E+04;
  1.4047379E+00;  9.9999998E-03;  1.3154843E-01;8711;  1.0233046E+00;  0.0000000E+00; -2.8107235E-02;  1.0011465E+03;  2.0411511E-01;  9.4747296E+02;3; -1.3205376E+02;  0.0000000E+00; -4.2367775E+01;0;  6.1672535E+00;  9.8100361E+03;  0.0000000E+00;  6.0708082E-01;  4.0000000E+04;  0.0000000E+00;  3.9123570E+04;  6.4225674E+00;  0.0000000E+00; -2.5531384E-01;  1.2834202E+04;
  1.4046787E+00;  9.9999998E-03;  7.1010433E-02;8705;  1.1014060E+00;  0.0000000E+00; -1.4391926E-02;  1.0019748E+03;  2.0443177E-01;  1.6319268E+03;3; -1.2458128E+02;  0.0000000E+00; -2.8935543E+01;0;  6.0146575E+00;  9.8002920E+03;  0.0000000E+00;  6.6235118E-02;  4.0000000E+04;  0.0000000E+00;  3.9090102E+04;  6.2308545E+00;  0.0000000E+00; -2.1619689E-01;  1.7028064E+04;
  1.4047686E+00;  9.9999998E-03;  1.2145507E-01;8710;  1.0404794E+00;  0.0000000E+00; -2.5657684E-02;  1.0015874E+03;  2.0414402E-01;  1.3117627E+03;3; -1.3109155E+02;  0.0000000E+00; -4.0709587E+01;0;  6.1448421E+00;  9.8156582E+03;  0.0000000E+00;  4.4543743E-01;  4.0000000E+04;  0.0000000E+00;  3.9116227E+04;  6.3910775E+00;  0.0000000E+00; -2.4623513E-01;  1.3760757E+04;
  1.4216297E+00;  9.9999998E-03;  2.0234293E-01;8779;  1.0036719E+00;  0.0000000E+00; -1.7969467E-02;  9.9723901E+02;  1.9327737E-01; -2.2799258E+03;3; -1.2957332E+02;  0.0000000E+00; -5.3276169E+01;0;  5.9086189E+00;  1.0846718E+04;  0.0000000E+00;  8.8310009E-01;  4.0000000E+04;  0.0000000E+00;  3.9204535E+04;  6.1859956E+00;  0.0000000E+00; -2.7737668E-01;  3.0355237E+03;
  1.4215547E+00;  9.9999998E-03;  1.9228420E-01;8778;  1.0221604E+00;  0.0000000E+00; -1.5654970E-02;  9.9797394E+02;  1.9324990E-01; -1.6730607E+03;3; -1.2645035E+02;  0.0000000E+00; -5.2524525E+01;0;  5.8460274E+00;  1.0870540E+04;  0.0000000E+00;  1.2416795E+00;  4.0000000E+04;  0.0000000E+00;  3.9193172E+04;  6.1052976E+00;  0.0000000E+00; -2.5927001E-01;  4.5964814E+03;
  1.4220582E+00;  9.9999998E-03;  2.1238695E-01;8780;  9.9074119E-01;  0.0000000E+00; -2.0065948E-02;  9.9669519E+02;  1.9318411E-01; -2.7289429E+03;3; -1.3134644E+02;  0.0000000E+00; -5.4114754E+01;0;  5.9547071E+00;  1.0839514E+04;  0.0000000E+00;  2.9485835E-02;  4.0000000E+04;  0.0000000E+00;  3.9215352E+04;  6.2485309E+00;  0.0000000E+00; -2.9382387E-01;  2.8553152E+03;
  1.4218010E+00;  9.9999998E-03;  1.8219832E-01;8777;  1.0448205E+00;  0.0000000E+00; -1.2778467E-02;  9.9886945E+02;  1.9310974E-01; -9.3357935E+02;3; -1.2228705E+02;  0.0000000E+00; -5.1486488E+01;0;  5.7647080E+00;  1.0909657E+04;  0.0000000E+00;  1.3068093E+00;  4.0000000E+04;  0.0000000E+00;  3.9180648E+04;  6.0037928E+00;  0.0000000E+00; -2.3908493E-01;  6.2553960E+03;
  1.4227867E+00;  9.9999998E-03;  2.2244735E-01;8781;  9.8349053E-01;  0.0000000E+00; -2.2043742E-02;  9.9633356E+02;  1.9298990E-01; -3.0274387E+03;3; -1.3223442E+02;  0.0000000E+00; -5.5059864E+01;0;  5.9894485E+00;  1.0846211E+04;  0.0000000E+00; -1.6672759E+00;  4.0000000E+04;  0.0000000E+00;  3.9226344E+04;  6.2985902E+00;  0.0000000E+00; -3.0914161E-01;  7.3247417E+03;
  1.4222677E+00;  9.9999998E-03;  1.7208619E-01;8776;  1.0696592E+00;  0.0000000E+00; -9.4561921E-03;  9.9985034E+02;  1.9289953E-01; -1.2358518E+02;3; -1.1700146E+02;  0.0000000E+00; -5.0315716E+01;0;  5.6661615E+00;  1.0958207E+04;  0.0000000E+00;  1.2070308E+00;  4.0000000E+04;  0.0000000E+00;  3.9166039E+04;  5.8833113E+00;  0.0000000E+00; -2.1714988E-01;  8.0756807E+03;
  1.4236157E+00;  9.9999998E-03;  2.3254590E-01;8782;  9.7845662E-01;  0.0000000E+00; -2.4407605E-02;  9.9599298E+02;  1.9276406E-01; -3.3085225E+03;3; -1.3296191E+02;  0.0000000E+00; -5.5084831E+01;0;  6.0200377E+00;  1.0858541E+04;  0.0000000E+00; -4.7255731E+00;  4.0000000E+04;  0.0000000E+00;  3.9231977E+04;  6.3442054E+00;  0.0000000E+00; -3.2416776E-01;  1.6606115E+04;
  1.4227774E+00;  9.9999998E-03;  1.6194537E-01;8775;  1.0941268E+00;  0.0000000E+00; -6.1539127E-03;  1.0008369E+03;  1.9268954E-01;  6.9099640E+02;3; -1.1139059E+02;  0.0000000E+00; -4.9076382E+01;0;  5.5577378E+00;  1.1006220E+04;  0.0000000E+00;  1.0324548E+00;  4.0000000E+04;  0.0000000E+00;  3.9150902E+04;  5.7523546E+00;  0.0000000E+00; -1.9461663E-01;  9.9681279E+03;
  1.4231572E+00;  9.9999998E-03;  1.5178362E-01;8774;  1.1162318E+00;  0.0000000E+00; -3.3541045E-03;  1.0017466E+03;  1.9255184E-01;  1.4422059E+03;3; -1.0592284E+02;  0.0000000E+00; -4.7656807E+01;0;  5.4497938E+00;  1.1043588E+04;  0.0000000E+00;  8.3350587E-01;  4.0000000E+04;  0.0000000E+00;  3.9136984E+04;  5.6229582E+00;  0.0000000E+00; -1.7316422E-01;  1.1727214E+04;
  1.4234328E+00;  9.9999998E-03;  1.4164503E-01;8773;  1.1357981E+00;  0.0000000E+00; -1.0340187E-03;  1.0025222E+03;  1.9247393E-01;  2.0824685E+03;3; -1.0071850E+02;  0.0000000E+00; -4.6388477E+01;0;  5.3448267E+00;  1.1070780E+04;  0.0000000E+00;  6.2549555E-01;  4.0000000E+04;  0.0000000E+00;  3.9125543E+04;  5.4983358E+00;  0.0000000E+00; -1.5350893E-01;  1.3192378E+04;
  1.4236598E+00;  9.9999998E-03;  1.3153300E-01;8772;  1.1530408E+00;  0.0000000E+00;  9.6129021E-04;  1.0031246E+03;  1.9242530E-01;  2.5799006E+03;3; -9.5703941E+01;  0.0000000E+00; -4.5191917E+01;0;  5.2425270E+00;  1.1090191E+04;  0.0000000E+00;  4.1665587E-01;  4.0000000E+04;  0.0000000E+00;  3.9116621E+04;  5.3781471E+00;  0.0000000E+00; -1.3562001E-01;  1.4331465E+04;
  1.4238518E+00;  9.9999998E-03;  1.2144055E-01;8771;  1.1679820E+00;  0.0000000E+00;  2.6831212E-03;  1.0035373E+03;  1.9239618E-01;  2.9206304E+03;3; -9.0880859E+01;  0.0000000E+00; -4.4206001E+01;0;  5.1440864E+00;  1.1102857E+04;  0.0000000E+00;  2.2851868E-01;  4.0000000E+04;  0.0000000E+00;  3.9110102E+04;  5.2633896E+00;  0.0000000E+00; -1.1930344E-01;  1.5188417E+04;
  1.4239908E+00;  9.9999998E-03;  1.1135948E-01;8770;  1.1805569E+00;  0.0000000E+00;  4.1676438E-03;  1.0037654E+03;  1.9239481E-01;  3.1088999E+03;3; -8.6403229E+01;  0.0000000E+00; -4.3448563E+01;0;  5.0520201E+00;  1.1108663E+04;  0.0000000E+00;  8.0388099E-02;  4.0000000E+04;  0.0000000E+00;  3.9104996E+04;  5.1565537E+00;  0.0000000E+00; -1.0453386E-01;  1.5840059E+04;
  1.4240787E+00;  9.9999998E-03;  1.0127489E-01;8769;  1.1909919E+00;  0.0000000E+00;  5.4757237E-03;  1.0038315E+03;  1.9241136E-01;  3.1635122E+03;3; -8.2283989E+01;  0.0000000E+00; -4.2989914E+01;0;  4.9672766E+00;  1.1109118E+04;  0.0000000E+00; -1.9194571E-02;  4.0000000E+04;  0.0000000E+00;  3.9100496E+04;  5.0585113E+00;  0.0000000E+00; -9.1234781E-02;  1.6372467E+04;
  1.4241366E+00;  9.9999998E-03;  9.1177307E-02;8768;  1.1996464E+00;  0.0000000E+00;  6.7260652E-03;  1.0037892E+03;  1.9243747E-01;  3.1285620E+03;3; -7.8488754E+01;  0.0000000E+00; -4.2588326E+01;0;  4.8892326E+00;  1.1106607E+04;  0.0000000E+00; -7.2167277E-02;  4.0000000E+04;  0.0000000E+00;  3.9096699E+04;  4.9685340E+00;  0.0000000E+00; -7.9301186E-02;  1.6859281E+04;
  1.4241672E+00;  9.9999998E-03;  8.1065603E-02;8767;  1.2067882E+00;  0.0000000E+00;  7.9298485E-03;  1.0036877E+03;  1.9246818E-01;  3.0447969E+03;3; -7.5040947E+01;  0.0000000E+00; -4.1968056E+01;0;  4.8182049E+00;  1.1102391E+04;  0.0000000E+00; -8.8216856E-02;  4.0000000E+04;  0.0000000E+00;  3.9092488E+04;  4.8870330E+00;  0.0000000E+00; -6.8828262E-02;  1.7348738E+04;
  1.4241779E+00;  9.9999998E-03;  7.0942350E-02;8766;  1.2126875E+00;  0.0000000E+00;  8.8732336E-03;  1.0035681E+03;  1.9250196E-01;  2.9460742E+03;3; -7.1934860E+01;  0.0000000E+00; -3.9068291E+01;0;  4.7542028E+00;  1.1097973E+04;  0.0000000E+00; -8.0578752E-02;  4.0000000E+04;  0.0000000E+00;  3.9088047E+04;  4.8140721E+00;  0.0000000E+00; -5.9869394E-02;  1.7861723E+04;
  1.4399205E+00;  9.9999998E-03;  1.9222765E-01;8839;  1.1468092E+00;  0.0000000E+00;  1.4489823E-02;  1.0002878E+03;  1.8256441E-01;  2.3748283E+02;3; -9.8704620E+01;  0.0000000E+00; -5.0164951E+01;0;  5.0825763E+00;  1.2239136E+04;  0.0000000E+00;  1.2611721E+00;  4.0000000E+04;  0.0000000E+00;  3.9182508E+04;  5.2665663E+00;  0.0000000E+00; -1.8398979E-01;  6.3839551E+03;
  1.4399540E+00;  9.9999998E-03;  1.8215254E-01;8838;  1.1613815E+00;  0.0000000E+00;  1.5983097E-02;  1.0008818E+03;  1.8251085E-01;  7.2739404E+02;3; -9.2882866E+01;  0.0000000E+00; -4.9148609E+01;0;  4.9466710E+00;  1.2265620E+04;  0.0000000E+00;  1.2835952E+00;  4.0000000E+04;  0.0000000E+00;  3.9171172E+04;  5.1015878E+00;  0.0000000E+00; -1.5491663E-01;  7.7877842E+03;
  1.4402374E+00;  9.9999998E-03;  2.0228022E-01;8840;  1.1363300E+00;  0.0000000E+00;  1.3229401E-02;  9.9982532E+02;  1.8251422E-01; -1.4410930E+02;3; -1.0289552E+02;  0.0000000E+00; -5.1061317E+01;0;  5.1971831E+00;  1.2228957E+04;  0.0000000E+00;  9.0078586E-01;  4.0000000E+04;  0.0000000E+00;  3.9193289E+04;  5.4082961E+00;  0.0000000E+00; -2.1111315E-01;  4.8698179E+03;
  1.4402078E+00;  9.9999998E-03;  1.7204982E-01;8837;  1.1780007E+00;  0.0000000E+00;  1.7771771E-02;  1.0015696E+03;  1.8240282E-01;  1.2947737E+03;3; -8.5930351E+01;  0.0000000E+00; -4.7965870E+01;0;  4.7957673E+00;  1.2301232E+04;  0.0000000E+00;  1.1082911E+00;  4.0000000E+04;  0.0000000E+00;  3.9158199E+04;  4.9207768E+00;  0.0000000E+00; -1.2500966E-01;  9.2873145E+03;
  1.4409144E+00;  9.9999998E-03;  2.1233208E-01;8841;  1.1313993E+00;  0.0000000E+00;  1.1785238E-02;  9.9950568E+02;  1.8235935E-01; -4.0772629E+02;3; -1.0528972E+02;  0.0000000E+00; -5.2154797E+01;0;  5.2914906E+00;  1.2234896E+04;  0.0000000E+00; -3.7737098E-02;  4.0000000E+04;  0.0000000E+00;  3.9204645E+04;  5.5276833E+00;  0.0000000E+00; -2.3619291E-01;  3.9054089E+03;
  1.4405224E+00;  9.9999998E-03;  1.6191657E-01;8836;  1.1947739E+00;  0.0000000E+00;  1.9538555E-02;  1.0022796E+03;  1.8229920E-01;  1.8804171E+03;3; -7.8406052E+01;  0.0000000E+00; -4.6697475E+01;0;  4.6395187E+00;  1.2336425E+04;  0.0000000E+00;  8.5084492E-01;  4.0000000E+04;  0.0000000E+00;  3.9144613E+04;  4.7353611E+00;  0.0000000E+00; -9.5842473E-02;  1.0911366E+04;
  1.4408182E+00;  9.9999998E-03;  1.5176167E-01;8835;  1.2104198E+00;  0.0000000E+00;  2.1133052E-02;  1.0029636E+03;  1.8222001E-01;  2.4446033E+03;3; -7.0735413E+01;  0.0000000E+00; -4.5629436E+01;0;  4.4846125E+00;  1.2366742E+04;  0.0000000E+00;  5.9682155E-01;  4.0000000E+04;  0.0000000E+00;  3.9131504E+04;  4.5532575E+00;  0.0000000E+00; -6.8645008E-02;  1.2495662E+04;
  1.4411262E+00;  9.9999998E-03;  1.4160737E-01;8834;  1.2245412E+00;  0.0000000E+00;  2.2623785E-02;  1.0035719E+03;  1.8214634E-01;  2.9462278E+03;3; -6.3041767E+01;  0.0000000E+00; -4.4561356E+01;0;  4.3316364E+00;  1.2393970E+04;  0.0000000E+00;  3.7872583E-01;  4.0000000E+04;  0.0000000E+00;  3.9120730E+04;  4.3754010E+00;  0.0000000E+00; -4.3764785E-02;  1.3855876E+04;
  1.4418222E+00;  9.9999998E-03;  2.2241446E-01;8842;  1.1313593E+00;  0.0000000E+00;  1.0063915E-02;  9.9918451E+02;  1.8213813E-01; -6.7263696E+02;3; -1.0652323E+02;  0.0000000E+00; -5.3280518E+01;0;  5.3739843E+00;  1.2250589E+04;  0.0000000E+00; -2.0544314E+00;  4.0000000E+04;  0.0000000E+00;  3.9214527E+04;  5.6334281E+00;  0.0000000E+00; -2.5944400E-01;  7.8253818E+03;
  1.4414538E+00;  9.9999998E-03;  1.3147484E-01;8833;  1.2367710E+00;  0.0000000E+00;  2.3997558E-02;  1.0040612E+03;  1.8206827E-01;  3.3496978E+03;3; -5.5456165E+01;  0.0000000E+00; -4.3633041E+01;0;  4.1823349E+00;  1.2417682E+04;  0.0000000E+00;  1.9680047E-01;  4.0000000E+04;  0.0000000E+00;  3.9112402E+04;  4.2034955E+00;  0.0000000E+00; -2.1160787E-02;  1.4916074E+04;
  1.4417591E+00;  9.9999998E-03;  1.2136728E-01;8832;  1.2468383E+00;  0.0000000E+00;  2.5268506E-02;  1.0043829E+03;  1.8200462E-01;  3.6151069E+03;3; -4.8285961E+01;  0.0000000E+00; -4.2895435E+01;0;  4.0410113E+00;  1.2435464E+04;  0.0000000E+00;  5.5970866E-02;  4.0000000E+04;  0.0000000E+00;  3.9106188E+04;  4.0417337E+00;  0.0000000E+00; -7.2242075E-04;  1.5690565E+04;
  1.4426756E+00;  9.9999998E-03;  2.3252620E-01;8843;  1.1318022E+00;  0.0000000E+00;  8.3217360E-03;  9.9871716E+02;  1.8193062E-01; -1.0580082E+03;3; -1.0841260E+02;  0.0000000E+00; -5.4155334E+01;0;  5.4612527E+00;  1.2263510E+04;  0.0000000E+00; -5.9152899E+00;  4.0000000E+04;  0.0000000E+00;  3.9218707E+04;  5.7403612E+00;  0.0000000E+00; -2.7910858E-01;  1.8541141E+04;
  1.4420072E+00;  9.9999998E-03;  1.1127147E-01;8831;  1.2547656E+00;  0.0000000E+00;  2.6312631E-02;  1.0045466E+03;  1.8196210E-01;  3.7499468E+03;3; -4.1742352E+01;  0.0000000E+00; -4.1030952E+01;0;  3.9111266E+00;  1.2445983E+04;  0.0000000E+00; -3.8948275E-02;  4.0000000E+04;  0.0000000E+00;  3.9101711E+04;  3.8934593E+00;  0.0000000E+00;  1.7667312E-02;  1.6239207E+04;
  1.4421939E+00;  9.9999998E-03;  1.0117413E-01;8830;  1.2608312E+00;  0.0000000E+00;  2.6739521E-02;  1.0045628E+03;  1.8194216E-01;  3.7633704E+03;3; -3.5927605E+01;  0.0000000E+00; -3.6880138E+01;0;  3.7937729E+00;  1.2450346E+04;  0.0000000E+00; -9.0881579E-02;  4.0000000E+04;  0.0000000E+00;  3.9098289E+04;  3.7595820E+00;  0.0000000E+00;  3.4190986E-02;  1.6639186E+04;
  1.4423183E+00;  9.9999998E-03;  9.1071084E-02;8829;  1.2653662E+00;  0.0000000E+00;  2.5864106E-02;  1.0044629E+03;  1.8193761E-01;  3.6808477E+03;3; -3.0870335E+01;  0.0000000E+00; -3.0106710E+01;0;  3.6895239E+00;  1.2449866E+04;  0.0000000E+00; -1.0774589E-01;  4.0000000E+04;  0.0000000E+00;  3.9095234E+04;  3.6406274E+00;  0.0000000E+00;  4.8896529E-02;  1.6963260E+04;
  1.4423879E+00;  9.9999998E-03;  8.0963679E-02;8828;  1.2687048E+00;  0.0000000E+00;  2.3441564E-02;  1.0043050E+03;  1.8194577E-01;  3.5506538E+03;3; -2.6459400E+01;  0.0000000E+00; -2.4500166E+01;0;  3.5981374E+00;  1.2446202E+04;  0.0000000E+00; -1.0014288E-01;  4.0000000E+04;  0.0000000E+00;  3.9092809E+04;  3.5364070E+00;  0.0000000E+00;  6.1730504E-02;  1.7265574E+04;
  1.4424142E+00;  9.9999998E-03;  7.0853718E-02;8827;  1.2711312E+00;  0.0000000E+00;  2.0173278E-02;  1.0041128E+03;  1.8196395E-01;  3.3921550E+03;3; -2.2626278E+01;  0.0000000E+00; -2.1377497E+01;0;  3.5188665E+00;  1.2440859E+04;  0.0000000E+00; -7.9111740E-02;  4.0000000E+04;  0.0000000E+00;  3.9089934E+04;  3.4462919E+00;  0.0000000E+00;  7.2574630E-02;  1.7576277E+04;
  1.4571333E+00;  9.9999998E-03;  1.8212020E-01;8899;  1.2415440E+00;  0.0000000E+00;  3.7892330E-02;  1.0023402E+03;  1.7320767E-01;  1.9280090E+03;3; -5.8748230E+01;  0.0000000E+00; -4.5111210E+01;0;  4.0027094E+00;  1.3659181E+04;  0.0000000E+00;  1.1091236E+00;  4.0000000E+04;  0.0000000E+00;  3.9162395E+04;  4.0722675E+00;  0.0000000E+00; -6.9558270E-02;  8.5537090E+03;
  1.4571731E+00;  9.9999998E-03;  1.7202501E-01;8898;  1.2501897E+00;  0.0000000E+00;  3.8574487E-02;  1.0026788E+03;  1.7318743E-01;  2.2069253E+03;3; -5.1629692E+01;  0.0000000E+00; -4.4505093E+01;0;  3.8408866E+00;  1.3676489E+04;  0.0000000E+00;  8.8521582E-01;  4.0000000E+04;  0.0000000E+00;  3.9151707E+04;  3.8763595E+00;  0.0000000E+00; -3.5472944E-02;  9.7149922E+03;
  1.4573435E+00;  9.9999998E-03;  1.9219168E-01;8900;  1.2349836E+00;  0.0000000E+00;  3.7377734E-02;  1.0020648E+03;  1.7317176E-01;  1.7011084E+03;3; -6.4588272E+01;  0.0000000E+00; -4.5668808E+01;0;  4.1509418E+00;  1.3652225E+04;  0.0000000E+00;  1.1427739E+00;  4.0000000E+04;  0.0000000E+00;  3.9171652E+04;  4.2542896E+00;  0.0000000E+00; -1.0334786E-01;  7.4745840E+03;
  1.4573553E+00;  9.9999998E-03;  1.6189790E-01;8897;  1.2594588E+00;  0.0000000E+00;  3.9404418E-02;  1.0030612E+03;  1.7314602E-01;  2.5219517E+03;3; -4.3613560E+01;  0.0000000E+00; -4.3697594E+01;0;  3.6729360E+00;  1.3698465E+04;  0.0000000E+00;  5.7915610E-01;  4.0000000E+04;  0.0000000E+00;  3.9139719E+04;  3.6754997E+00;  0.0000000E+00; -2.5636964E-03;  1.1047229E+04;
  1.4576240E+00;  9.9999998E-03;  1.5173411E-01;8896;  1.2681841E+00;  0.0000000E+00;  4.0183749E-02;  1.0034609E+03;  1.7308688E-01;  2.8511880E+03;3; -3.5071564E+01;  0.0000000E+00; -4.1895744E+01;0;  3.5037446E+00;  1.3722868E+04;  0.0000000E+00;  2.9785997E-01;  4.0000000E+04;  0.0000000E+00;  3.9128199E+04;  3.4756665E+00;  0.0000000E+00;  2.8078079E-02;  1.2430531E+04;
  1.4578742E+00;  9.9999998E-03;  2.0224954E-01;8901;  1.2316887E+00;  0.0000000E+00;  3.6990006E-02;  1.0018566E+03;  1.7306319E-01;  1.5294664E+03;3; -6.8926292E+01;  0.0000000E+00; -4.6494373E+01;0;  4.2811699E+00;  1.3657905E+04;  0.0000000E+00;  8.7819260E-01;  4.0000000E+04;  0.0000000E+00;  3.9180434E+04;  4.4166718E+00;  0.0000000E+00; -1.3550162E-01;  6.2783540E+03;
  1.4579558E+00;  9.9999998E-03;  1.4155608E-01;8895;  1.2757819E+00;  0.0000000E+00;  4.0438898E-02;  1.0038483E+03;  1.7301509E-01;  3.1702771E+03;3; -2.6333195E+01;  0.0000000E+00; -3.8149925E+01;0;  3.3366654E+00;  1.3748287E+04;  0.0000000E+00;  9.7601742E-02;  4.0000000E+04;  0.0000000E+00;  3.9117812E+04;  3.2808511E+00;  0.0000000E+00;  5.5814348E-02;  1.3662807E+04;
  1.4583195E+00;  9.9999998E-03;  1.3139912E-01;8894;  1.2818816E+00;  0.0000000E+00;  3.9736446E-02;  1.0041728E+03;  1.7293552E-01;  3.4374878E+03;3; -1.7827574E+01;  0.0000000E+00; -3.3038979E+01;0;  3.1756849E+00;  1.3771933E+04;  0.0000000E+00; -2.1845168E-02;  4.0000000E+04;  0.0000000E+00;  3.9109871E+04;  3.0951810E+00;  0.0000000E+00;  8.0503963E-02;  1.4629906E+04;
  1.4586987E+00;  9.9999998E-03;  2.1231593E-01;8902;  1.2324063E+00;  0.0000000E+00;  3.6352571E-02;  1.0016231E+03;  1.7289001E-01;  1.3370851E+03;3; -7.1493980E+01;  0.0000000E+00; -4.7617538E+01;0;  4.3956132E+00;  1.3673457E+04;  0.0000000E+00;  5.4715201E-02;  4.0000000E+04;  0.0000000E+00;  3.9189273E+04;  4.5608888E+00;  0.0000000E+00; -1.6527580E-01;  5.2476650E+03;
  1.4586720E+00;  9.9999998E-03;  1.2127388E-01;8893;  1.2863424E+00;  0.0000000E+00;  3.8118377E-02;  1.0043909E+03;  1.7286192E-01;  3.6170908E+03;3; -9.8274889E+00;  0.0000000E+00; -2.9416761E+01;0;  3.0249789E+00;  1.3791110E+04;  0.0000000E+00; -7.6976694E-02;  4.0000000E+04;  0.0000000E+00;  3.9104078E+04;  2.9226098E+00;  0.0000000E+00;  1.0236905E-01;  1.5321164E+04;
  1.4589790E+00;  9.9999998E-03;  1.1116702E-01;8892;  1.2892610E+00;  0.0000000E+00;  3.5949200E-02;  1.0044924E+03;  1.7280509E-01;  3.7005618E+03;3; -2.8395319E+00;  0.0000000E+00; -2.7124582E+01;0;  2.8874114E+00;  1.3804150E+04;  0.0000000E+00; -8.3006963E-02;  4.0000000E+04;  0.0000000E+00;  3.9099945E+04;  2.7657232E+00;  0.0000000E+00;  1.2168810E-01;  1.5778845E+04;
  1.4592247E+00;  9.9999998E-03;  1.0106567E-01;8891;  1.2909425E+00;  0.0000000E+00;  3.3373687E-02;  1.0044712E+03;  1.7276631E-01;  3.6830056E+03;3;  2.7171481E+00;  0.0000000E+00; -2.5185585E+01;0;  2.7642612E+00;  1.3811191E+04;  0.0000000E+00; -5.9913069E-02;  4.0000000E+04;  0.0000000E+00;  3.9097340E+04;  2.6255968E+00;  0.0000000E+00;  1.3866460E-01;  1.6069991E+04;
  1.4596368E+00;  9.9999998E-03;  2.2240756E-01;8903;  1.2358190E+00;  0.0000000E+00;  3.5532642E-02;  1.0012054E+03;  1.7269851E-01;  9.9291418E+02;3; -7.3044502E+01;  0.0000000E+00; -4.9027573E+01;0;  4.5068092E+00;  1.3688847E+04;  0.0000000E+00; -1.9952855E+00;  4.0000000E+04;  0.0000000E+00;  3.9196496E+04;  4.6984758E+00;  0.0000000E+00; -1.9166651E-01;  7.7760308E+03;
  1.4594026E+00;  9.9999998E-03;  9.0969145E-02;8890;  1.2917353E+00;  0.0000000E+00;  3.0429253E-02;  1.0043638E+03;  1.7274103E-01;  3.5944766E+03;3;  6.8610024E+00;  0.0000000E+00; -2.3248489E+01;0;  2.6559563E+00;  1.3813099E+04;  0.0000000E+00; -2.5717124E-02;  4.0000000E+04;  0.0000000E+00;  3.9095422E+04;  2.5025926E+00;  0.0000000E+00;  1.5336363E-01;  1.6261319E+04;
  1.4595096E+00;  9.9999998E-03;  8.0876157E-02;8889;  1.2919409E+00;  0.0000000E+00;  2.7166232E-02;  1.0041857E+03;  1.7273194E-01;  3.4477437E+03;3;  9.8530931E+00;  0.0000000E+00; -2.1223988E+01;0;  2.5623960E+00;  1.3810893E+04;  0.0000000E+00;  6.8746256E-03;  4.0000000E+04;  0.0000000E+00;  3.9093953E+04;  2.3966355E+00;  0.0000000E+00;  1.6576053E-01;  1.6405012E+04;
  1.4595621E+00;  9.9999998E-03;  7.0779480E-02;8888;  1.2917948E+00;  0.0000000E+00;  2.3669772E-02;  1.0039805E+03;  1.7273270E-01;  3.2787393E+03;3;  1.2003655E+01;  0.0000000E+00; -1.9108782E+01;0;  2.4822602E+00;  1.3806188E+04;  0.0000000E+00;  3.0712992E-02;  4.0000000E+04;  0.0000000E+00;  3.9092590E+04;  2.3063438E+00;  0.0000000E+00;  1.7591634E-01;  1.6533160E+04;
  1.4603394E+00;  9.9999998E-03;  2.3251356E-01;8904;  1.2381577E+00;  0.0000000E+00;  3.4419205E-02;  1.0005096E+03;  1.7257403E-01;  4.1974384E+02;3; -7.5182137E+01;  0.0000000E+00; -4.9768158E+01;0;  4.6374321E+00;  1.3688299E+04;  0.0000000E+00; -6.1786180E+00;  4.0000000E+04;  0.0000000E+00;  3.9201789E+04;  4.8499064E+00;  0.0000000E+00; -2.1247430E-01;  1.7882775E+04;
  1.4733831E+00;  9.9999998E-03;  1.7200677E-01;8958;  1.2924451E+00;  0.0000000E+00;  5.4003682E-02;  1.0033596E+03;  1.6512766E-01;  2.7637036E+03;3; -1.9412901E+01;  0.0000000E+00; -3.5834743E+01;0;  2.9411042E+00;  1.5064849E+04;  0.0000000E+00;  6.2077218E-01;  4.0000000E+04;  0.0000000E+00;  3.9145199E+04;  2.8961828E+00;  0.0000000E+00;  4.4921439E-02;  9.5016680E+03;
  1.4734437E+00;  9.9999998E-03;  1.8209212E-01;8959;  1.2902820E+00;  0.0000000E+00;  5.4213680E-02;  1.0033474E+03;  1.6511311E-01;  2.7535857E+03;3; -2.5939207E+01;  0.0000000E+00; -3.7333607E+01;0;  3.0932269E+00;  1.5061660E+04;  0.0000000E+00;  8.9157134E-01;  4.0000000E+04;  0.0000000E+00;  3.9153258E+04;  3.0839679E+00;  0.0000000E+00;  9.2590135E-03;  8.7205000E+03;
  1.4735079E+00;  9.9999998E-03;  1.6188988E-01;8957;  1.2952070E+00;  0.0000000E+00;  5.3580724E-02;  1.0034178E+03;  1.6510585E-01;  2.8115210E+03;3; -1.1878757E+01;  0.0000000E+00; -3.3914268E+01;0;  2.7835925E+00;  1.5076143E+04;  0.0000000E+00;  2.9461861E-01;  4.0000000E+04;  0.0000000E+00;  3.9136012E+04;  2.7042515E+00;  0.0000000E+00;  7.9341024E-02;  1.0489245E+04;
  1.4737453E+00;  9.9999998E-03;  1.5172398E-01;8956;  1.2974401E+00;  0.0000000E+00;  5.1923551E-02;  1.0035044E+03;  1.6505656E-01;  2.8826414E+03;3; -3.8941936E+00;  0.0000000E+00; -3.1530331E+01;0;  2.6257305E+00;  1.5093014E+04;  0.0000000E+00;  8.8378917E-03;  4.0000000E+04;  0.0000000E+00;  3.9126031E+04;  2.5144920E+00;  0.0000000E+00;  1.1123852E-01;  1.1609718E+04;
  1.4737620E+00;  9.9999998E-03;  1.9216383E-01;8960;  1.2898113E+00;  0.0000000E+00;  5.4503582E-02;  1.0033491E+03;  1.6504729E-01;  2.7548655E+03;3; -3.0833370E+01;  0.0000000E+00; -3.9060184E+01;0;  3.2350430E+00;  1.5068842E+04;  0.0000000E+00;  1.0670395E+00;  4.0000000E+04;  0.0000000E+00;  3.9159746E+04;  3.2611897E+00;  0.0000000E+00; -2.6146716E-02;  8.0746426E+03;
  1.4740614E+00;  9.9999998E-03;  1.4153489E-01;8955;  1.2988874E+00;  0.0000000E+00;  4.8905939E-02;  1.0036406E+03;  1.6499385E-01;  2.9946221E+03;3;  3.4219306E+00;  0.0000000E+00; -2.9204679E+01;0;  2.4709604E+00;  1.5113041E+04;  0.0000000E+00; -1.6157688E-01;  4.0000000E+04;  0.0000000E+00;  3.9116855E+04;  2.3312004E+00;  0.0000000E+00;  1.3976011E-01;  1.2663438E+04;
  1.4744169E+00;  9.9999998E-03;  1.3136099E-01;8954;  1.2995909E+00;  0.0000000E+00;  4.5477651E-02;  1.0037739E+03;  1.6492414E-01;  3.1040327E+03;3;  9.1720772E+00;  0.0000000E+00; -2.7120392E+01;0;  2.3230903E+00;  1.5133196E+04;  0.0000000E+00; -2.1459585E-01;  4.0000000E+04;  0.0000000E+00;  3.9109223E+04;  2.1584802E+00;  0.0000000E+00;  1.6461007E-01;  1.3512225E+04;
  1.4743812E+00;  9.9999998E-03;  2.0222725E-01;8961;  1.2917739E+00;  0.0000000E+00;  5.5552382E-02;  1.0032911E+03;  1.6492420E-01;  2.7070303E+03;3; -3.4426327E+01;  0.0000000E+00; -4.0329021E+01;0;  3.3642218E+00;  1.5085034E+04;  0.0000000E+00;  1.1201894E+00;  4.0000000E+04;  0.0000000E+00;  3.9166000E+04;  3.4233108E+00;  0.0000000E+00; -5.9088975E-02;  7.3877852E+03;
  1.4747784E+00;  9.9999998E-03;  1.2121878E-01;8953;  1.2997165E+00;  0.0000000E+00;  4.2224757E-02;  1.0038852E+03;  1.6485649E-01;  3.1954890E+03;3;  1.3252749E+01;  0.0000000E+00; -2.5218466E+01;0;  2.1851771E+00;  1.5151301E+04;  0.0000000E+00; -1.8373194E-01;  4.0000000E+04;  0.0000000E+00;  3.9103672E+04;  1.9991618E+00;  0.0000000E+00;  1.8601525E-01;  1.4128662E+04;
  1.4751163E+00;  9.9999998E-03;  1.1109475E-01;8952;  1.2994082E+00;  0.0000000E+00;  3.9107975E-02;  1.0039289E+03;  1.6479509E-01;  3.2313547E+03;3;  1.6114710E+01;  0.0000000E+00; -2.3303461E+01;0;  2.0592144E+00;  1.5165658E+04;  0.0000000E+00; -1.0153068E-01;  4.0000000E+04;  0.0000000E+00;  3.9099707E+04;  1.8548672E+00;  0.0000000E+00;  2.0434715E-01;  1.4537711E+04;
  1.4752250E+00;  9.9999998E-03;  2.1230400E-01;8962;  1.2960646E+00;  0.0000000E+00;  5.7123434E-02;  1.0030258E+03;  1.6476566E-01;  2.4885393E+03;3; -3.7051125E+01;  0.0000000E+00; -4.2307903E+01;0;  3.4874375E+00;  1.5103252E+04;  0.0000000E+00;  7.6980329E-01;  4.0000000E+04;  0.0000000E+00;  3.9171957E+04;  3.5743451E+00;  0.0000000E+00; -8.6907677E-02;  6.4879062E+03;
  1.4753982E+00;  9.9999998E-03;  1.0099019E-01;8951;  1.2987968E+00;  0.0000000E+00;  3.5942797E-02;  1.0038990E+03;  1.6474602E-01;  3.2067456E+03;3;  1.8223270E+01;  0.0000000E+00; -2.1373726E+01;0;  1.9469534E+00;  1.5174925E+04;  0.0000000E+00; -3.1236513E-03;  4.0000000E+04;  0.0000000E+00;  3.9097156E+04;  1.7271216E+00;  0.0000000E+00;  2.1983185E-01;  1.4786414E+04;
  1.4756037E+00;  9.9999998E-03;  9.0900324E-02;8950;  1.2979819E+00;  0.0000000E+00;  3.2615189E-02;  1.0038002E+03;  1.6471240E-01;  3.1253013E+03;3;  1.9726410E+01;  0.0000000E+00; -1.9434431E+01;0;  1.8490428E+00;  1.5178674E+04;  0.0000000E+00;  8.3627626E-02;  4.0000000E+04;  0.0000000E+00;  3.9095477E+04;  1.6164014E+00;  0.0000000E+00;  2.3264132E-01;  1.4925040E+04;
  1.4757403E+00;  9.9999998E-03;  8.0811806E-02;8949;  1.2970611E+00;  0.0000000E+00;  2.9106595E-02;  1.0036470E+03;  1.6469145E-01;  2.9993740E+03;3;  2.0835159E+01;  0.0000000E+00; -1.7510958E+01;0;  1.7645787E+00;  1.5178303E+04;  0.0000000E+00;  1.4292748E-01;  4.0000000E+04;  0.0000000E+00;  3.9094941E+04;  1.5215899E+00;  0.0000000E+00;  2.4298880E-01;  1.4993568E+04;
  1.4760667E+00;  9.9999998E-03;  2.2239569E-01;8963;  1.3013151E+00;  0.0000000E+00;  5.7876714E-02;  1.0024102E+03;  1.6462843E-01;  1.9820609E+03;3; -3.9335461E+01;  0.0000000E+00; -4.4459888E+01;0;  3.6197491E+00;  1.5109326E+04;  0.0000000E+00; -8.1202596E-01;  4.0000000E+04;  0.0000000E+00;  3.9177980E+04;  3.7279727E+00;  0.0000000E+00; -1.0822369E-01;  6.2565542E+03;
  1.4758152E+00;  9.9999998E-03;  7.0719078E-02;8948;  1.2961037E+00;  0.0000000E+00;  2.5447104E-02;  1.0034544E+03;  1.6468368E-01;  2.8409214E+03;3;  2.1631947E+01;  0.0000000E+00; -1.5600946E+01;0;  1.6926798E+00;  1.5174870E+04;  0.0000000E+00;  1.6992779E-01;  4.0000000E+04;  0.0000000E+00;  3.9094320E+04;  1.4416356E+00;  0.0000000E+00;  2.5104415E-01;  1.5019279E+04;
  1.4765775E+00;  9.9999998E-03;  2.3249604E-01;8964;  1.3047836E+00;  0.0000000E+00;  5.7567537E-02;  1.0014520E+03;  1.6457616E-01;  1.1939927E+03;3; -4.2861294E+01;  0.0000000E+00; -4.6164558E+01;0;  3.7827454E+00;  1.5090600E+04;  0.0000000E+00; -4.6357045E+00;  4.0000000E+04;  0.0000000E+00;  3.9186168E+04;  3.9038367E+00;  0.0000000E+00; -1.2109139E-01;  1.2722592E+04;
  1.4889761E+00;  9.9999998E-03;  1.7200854E-01;9017;  1.3128535E+00;  0.0000000E+00;  6.4316399E-02;  1.0037726E+03;  1.5809950E-01;  3.0976619E+03;3;  5.2808776E+00;  0.0000000E+00; -2.9481144E+01;0;  2.1716726E+00;  1.6448047E+04;  0.0000000E+00;  4.0114465E-01;  4.0000000E+04;  0.0000000E+00;  3.9136762E+04;  2.0595851E+00;  0.0000000E+00;  1.1208741E-01;  8.9157393E+03;
  1.4890931E+00;  9.9999998E-03;  1.8207583E-01;9018;  1.3152932E+00;  0.0000000E+00;  6.5839119E-02;  1.0040211E+03;  1.5807098E-01;  3.3016938E+03;3;  7.6517379E-01;  0.0000000E+00; -3.1217323E+01;0;  2.3016980E+00;  1.6457242E+04;  0.0000000E+00;  7.7515370E-01;  4.0000000E+04;  0.0000000E+00;  3.9141328E+04;  2.2243328E+00;  0.0000000E+00;  7.7365272E-02;  8.6076777E+03;
  1.4890507E+00;  9.9999998E-03;  1.6191350E-01;9016;  1.3108428E+00;  0.0000000E+00;  6.2487688E-02;  1.0035371E+03;  1.5808943E-01;  2.9042190E+03;3;  9.9562721E+00;  0.0000000E+00; -2.7500143E+01;0;  2.0388558E+00;  1.6447686E+04;  0.0000000E+00;  6.1411746E-02;  4.0000000E+04;  0.0000000E+00;  3.9131129E+04;  1.8930061E+00;  0.0000000E+00;  1.4584970E-01;  9.4623350E+03;
  1.4894499E+00;  9.9999998E-03;  1.9213149E-01;9019;  1.3187288E+00;  0.0000000E+00;  6.7334004E-02;  1.0041964E+03;  1.5799735E-01;  3.4454141E+03;3; -2.7897792E+00;  0.0000000E+00; -3.3205624E+01;0;  2.4263976E+00;  1.6474244E+04;  0.0000000E+00;  1.2658256E+00;  4.0000000E+04;  0.0000000E+00;  3.9145078E+04;  2.3829494E+00;  0.0000000E+00;  4.3448165E-02;  8.4924854E+03;
  1.4892449E+00;  9.9999998E-03;  1.5176466E-01;9015;  1.3086728E+00;  0.0000000E+00;  5.8952022E-02;  1.0033389E+03;  1.5805294E-01;  2.7413728E+03;3;  1.3872197E+01;  0.0000000E+00; -2.4422884E+01;0;  1.9068592E+00;  1.6454629E+04;  0.0000000E+00; -2.1523984E-01;  4.0000000E+04;  0.0000000E+00;  3.9123730E+04;  1.7296532E+00;  0.0000000E+00;  1.7720595E-01;  1.0219429E+04;
  1.4900571E+00;  9.9999998E-03;  2.0218551E-01;9020;  1.3236622E+00;  0.0000000E+00;  6.9170021E-02;  1.0041861E+03;  1.5788956E-01;  3.4367170E+03;3; -5.7195458E+00;  0.0000000E+00; -3.4459099E+01;0;  2.5460813E+00;  1.6493543E+04;  0.0000000E+00;  1.9405118E+00;  4.0000000E+04;  0.0000000E+00;  3.9149719E+04;  2.5333292E+00;  0.0000000E+00;  1.2751983E-02;  8.5403389E+03;
  1.4895213E+00;  9.9999998E-03;  1.4158094E-01;9014;  1.3065842E+00;  0.0000000E+00;  5.3950932E-02;  1.0032151E+03;  1.5800127E-01;  2.6396777E+03;3;  1.6701117E+01;  0.0000000E+00; -2.2759048E+01;0;  1.7782012E+00;  1.6466842E+04;  0.0000000E+00; -3.5985178E-01;  4.0000000E+04;  0.0000000E+00;  3.9116570E+04;  1.5731564E+00;  0.0000000E+00;  2.0504490E-01;  1.1019039E+04;
  1.4898566E+00;  9.9999998E-03;  1.3139465E-01;9013;  1.3047615E+00;  0.0000000E+00;  4.9013671E-02;  1.0031558E+03;  1.5793782E-01;  2.5908198E+03;3;  1.8938599E+01;  0.0000000E+00; -2.1707684E+01;0;  1.6550374E+00;  1.6482344E+04;  0.0000000E+00; -3.6064231E-01;  4.0000000E+04;  0.0000000E+00;  3.9109816E+04;  1.4261650E+00;  0.0000000E+00;  2.2887245E-01;  1.1709156E+04;
  1.4908047E+00;  9.9999998E-03;  2.1225742E-01;9021;  1.3300929E+00;  0.0000000E+00;  7.1208268E-02;  1.0038177E+03;  1.5777250E-01;  3.1338911E+03;3; -8.4903440E+00;  0.0000000E+00; -3.5576107E+01;0;  2.6691284E+00;  1.6504242E+04;  0.0000000E+00;  2.4715433E+00;  4.0000000E+04;  0.0000000E+00;  3.9156953E+04;  2.6808729E+00;  0.0000000E+00; -1.1744538E-02;  8.5035781E+03;
  1.4914820E+00;  9.9999998E-03;  2.2234987E-01;9022;  1.3368458E+00;  0.0000000E+00;  7.2944902E-02;  1.0029755E+03;  1.5769285E-01;  2.4423984E+03;3; -1.1846797E+01;  0.0000000E+00; -3.6591869E+01;0;  2.8105633E+00;  1.6493455E+04;  0.0000000E+00;  1.8286275E+00;  4.0000000E+04;  0.0000000E+00;  3.9166895E+04;  2.8372083E+00;  0.0000000E+00; -2.6645055E-02;  6.8178999E+03;
  1.4902186E+00;  9.9999998E-03;  1.2122692E-01;9012;  1.3031638E+00;  0.0000000E+00;  4.4694953E-02;  1.0031359E+03;  1.5787098E-01;  2.5744478E+03;3;  2.0658278E+01;  0.0000000E+00; -2.0606035E+01;0;  1.5398004E+00;  1.6498705E+04;  0.0000000E+00; -2.6522648E-01;  4.0000000E+04;  0.0000000E+00;  3.9104230E+04;  1.2910159E+00;  0.0000000E+00;  2.4878456E-01;  1.2250570E+04;
  1.4917939E+00;  9.9999998E-03;  2.3246139E-01;9023;  1.3421885E+00;  0.0000000E+00;  7.3221676E-02;  1.0017714E+03;  1.5770213E-01;  1.4538695E+03;3; -1.6047005E+01;  0.0000000E+00; -3.8518955E+01;0;  2.9876943E+00;  1.6453166E+04;  0.0000000E+00; -1.0680530E+00;  4.0000000E+04;  0.0000000E+00;  3.9179117E+04;  3.0190423E+00;  0.0000000E+00; -3.1347897E-02;  4.4722578E+03;
  1.4905571E+00;  9.9999998E-03;  1.1108892E-01;9011;  1.3017048E+00;  0.0000000E+00;  4.0817171E-02;  1.0031179E+03;  1.5781184E-01;  2.5595527E+03;3;  2.2013279E+01;  0.0000000E+00; -1.9296766E+01;0;  1.4350742E+00;  1.6512623E+04;  0.0000000E+00; -1.1969376E-01;  4.0000000E+04;  0.0000000E+00;  3.9099855E+04;  1.1699725E+00;  0.0000000E+00;  2.6510167E-01;  1.2649558E+04;
  1.4908391E+00;  9.9999998E-03;  1.0097757E-01;9010;  1.3003165E+00;  0.0000000E+00;  3.7130296E-02;  1.0030760E+03;  1.5776660E-01;  2.5250090E+03;3;  2.3125381E+01;  0.0000000E+00; -1.7869682E+01;0;  1.3421113E+00;  1.6522438E+04;  0.0000000E+00;  3.3700969E-02;  4.0000000E+04;  0.0000000E+00;  3.9096898E+04;  1.0639118E+00;  0.0000000E+00;  2.7819958E-01;  1.2924275E+04;
  1.4910631E+00;  9.9999998E-03;  9.0874307E-02;9009;  1.2989684E+00;  0.0000000E+00;  3.3466116E-02;  1.0029971E+03;  1.5773119E-01;  2.4602502E+03;3;  2.3954512E+01;  0.0000000E+00; -1.6378176E+01;0;  1.2605765E+00;  1.6528094E+04;  0.0000000E+00;  1.6078976E-01;  4.0000000E+04;  0.0000000E+00;  3.9095117E+04;  9.7209936E-01;  0.0000000E+00;  2.8847706E-01;  1.3097435E+04;
  1.4912257E+00;  9.9999998E-03;  8.0774494E-02;9008;  1.2976507E+00;  0.0000000E+00;  2.9741744E-02;  1.0028836E+03;  1.5770413E-01;  2.3669426E+03;3;  2.4742262E+01;  0.0000000E+00; -1.4839300E+01;0;  1.1901331E+00;  1.6530104E+04;  0.0000000E+00;  2.4290055E-01;  4.0000000E+04;  0.0000000E+00;  3.9094078E+04;  8.9390033E-01;  0.0000000E+00;  2.9623279E-01;  1.3188704E+04;
  1.4913207E+00;  9.9999998E-03;  7.0680328E-02;9007;  1.2963969E+00;  0.0000000E+00;  2.5953280E-02;  1.0027452E+03;  1.5769170E-01;  2.2533069E+03;3;  2.5288561E+01;  0.0000000E+00; -1.3250676E+01;0;  1.1304452E+00;  1.6528406E+04;  0.0000000E+00;  2.7589121E-01;  4.0000000E+04;  0.0000000E+00;  3.9093629E+04;  8.2871205E-01;  0.0000000E+00;  3.0173323E-01;  1.3213311E+04;
  1.5040247E+00;  9.9999998E-03;  1.7201297E-01;9076;  1.3214273E+00;  0.0000000E+00;  6.9958024E-02;  1.0040235E+03;  1.5199190E-01;  3.2963423E+03;3;  1.7530571E+01;  0.0000000E+00; -2.2522884E+01;0;  1.5619873E+00;  1.7808445E+04;  0.0000000E+00;  3.5193065E-01;  4.0000000E+04;  0.0000000E+00;  3.9124066E+04;  1.3976001E+00;  0.0000000E+00;  1.6438724E-01;  8.2819912E+03;
  1.5040623E+00;  9.9999998E-03;  1.6195007E-01;9075;  1.3169129E+00;  0.0000000E+00;  6.7123935E-02;  1.0035677E+03;  1.5198793E-01;  2.9228584E+03;3;  1.9485462E+01;  0.0000000E+00; -1.9865574E+01;0;  1.4581279E+00;  1.7797289E+04;  0.0000000E+00; -5.8088079E-02;  4.0000000E+04;  0.0000000E+00;  3.9122520E+04;  1.2624321E+00;  0.0000000E+00;  1.9569580E-01;  8.2962207E+03;
  1.5041523E+00;  9.9999998E-03;  1.8205300E-01;9077;  1.3264409E+00;  0.0000000E+00;  7.2166562E-02;  1.0044218E+03;  1.5196264E-01;  3.6224624E+03;3;  1.4533976E+01;  0.0000000E+00; -2.4315920E+01;0;  1.6661333E+00;  1.7826307E+04;  0.0000000E+00;  9.8981428E-01;  4.0000000E+04;  0.0000000E+00;  3.9124766E+04;  1.5336380E+00;  0.0000000E+00;  1.3249531E-01;  8.5448281E+03;
  1.5042191E+00;  9.9999998E-03;  1.5183841E-01;9074;  1.3128341E+00;  0.0000000E+00;  6.2687159E-02;  1.0031392E+03;  1.5196064E-01;  2.5717910E+03;3;  2.1299692E+01;  0.0000000E+00; -1.8181335E+01;0;  1.3559468E+00;  1.7793709E+04;  0.0000000E+00; -3.3764574E-01;  4.0000000E+04;  0.0000000E+00;  3.9119168E+04;  1.1309202E+00;  0.0000000E+00;  2.2502658E-01;  8.5774199E+03;
  1.5044950E+00;  9.9999998E-03;  1.9208470E-01;9078;  1.3321613E+00;  0.0000000E+00;  7.4225426E-02;  1.0046677E+03;  1.5189773E-01;  3.8238186E+03;3;  1.1752781E+01;  0.0000000E+00; -2.5396627E+01;0;  1.7691661E+00;  1.7847408E+04;  0.0000000E+00;  2.0854547E+00;  4.0000000E+04;  0.0000000E+00;  3.9126719E+04;  1.6673064E+00;  0.0000000E+00;  1.0185970E-01;  9.2324717E+03;
  1.5044525E+00;  9.9999998E-03;  1.4167218E-01;9073;  1.3091565E+00;  0.0000000E+00;  5.6798406E-02;  1.0027841E+03;  1.5191790E-01;  2.2807722E+03;3;  2.2566021E+01;  0.0000000E+00; -1.7465887E+01;0;  1.2568629E+00;  1.7796826E+04;  0.0000000E+00; -4.7142330E-01;  4.0000000E+04;  0.0000000E+00;  3.9114215E+04;  1.0057107E+00;  0.0000000E+00;  2.5115219E-01;  9.0256787E+03;
  1.5050400E+00;  9.9999998E-03;  2.0212796E-01;9079;  1.3389281E+00;  0.0000000E+00;  7.6411530E-02;  1.0046022E+03;  1.5181056E-01;  3.7697651E+03;3;  9.8753653E+00;  0.0000000E+00; -2.6386044E+01;0;  1.8732007E+00;  1.7863154E+04;  0.0000000E+00;  3.7502310E+00;  4.0000000E+04;  0.0000000E+00;  3.9132801E+04;  1.7983115E+00;  0.0000000E+00;  7.4889176E-02;  1.0886371E+04;
  1.5047438E+00;  9.9999998E-03;  1.3148431E-01;9072;  1.3061043E+00;  0.0000000E+00;  5.1104262E-02;  1.0025171E+03;  1.5186261E-01;  2.0619211E+03;3;  2.3436924E+01;  0.0000000E+00; -1.7343849E+01;0;  1.1620309E+00;  1.7805125E+04;  0.0000000E+00; -4.4847247E-01;  4.0000000E+04;  0.0000000E+00;  3.9108992E+04;  8.8878340E-01;  0.0000000E+00;  2.7324760E-01;  9.4966553E+03;
  1.5050611E+00;  9.9999998E-03;  1.2130728E-01;9071;  1.3036221E+00;  0.0000000E+00;  4.6089277E-02;  1.0023521E+03;  1.5180795E-01;  1.9265712E+03;3;  2.4236382E+01;  0.0000000E+00; -1.6934166E+01;0;  1.0732617E+00;  1.7816156E+04;  0.0000000E+00; -3.1694230E-01;  4.0000000E+04;  0.0000000E+00;  3.9103863E+04;  7.8209168E-01;  0.0000000E+00;  2.9117009E-01;  9.9324717E+03;
  1.5053666E+00;  9.9999998E-03;  1.1115216E-01;9070;  1.3015481E+00;  0.0000000E+00;  4.1630317E-02;  1.0022539E+03;  1.5175870E-01;  1.8461132E+03;3;  2.5054949E+01;  0.0000000E+00; -1.6163408E+01;0;  9.9222291E-01;  1.7827221E+04;  0.0000000E+00; -1.4055295E-01;  4.0000000E+04;  0.0000000E+00;  3.9099410E+04;  6.8695247E-01;  0.0000000E+00;  3.0527043E-01;  1.0323776E+04;
  1.5056818E+00;  9.9999998E-03;  2.1220225E-01;9080;  1.3468224E+00;  0.0000000E+00;  7.8519307E-02;  1.0040320E+03;  1.5172881E-01;  3.3023625E+03;3;  7.7116461E+00;  0.0000000E+00; -2.7785978E+01;0;  1.9858292E+00;  1.7861207E+04;  0.0000000E+00;  5.4711585E+00;  4.0000000E+04;  0.0000000E+00;  3.9143664E+04;  1.9313723E+00;  0.0000000E+00;  5.4456931E-02;  1.3333961E+04;
  1.5056518E+00;  9.9999998E-03;  1.0100921E-01;9069;  1.2997230E+00;  0.0000000E+00;  3.7512060E-02;  1.0021816E+03;  1.5171365E-01;  1.7867587E+03;3;  2.5677935E+01;  0.0000000E+00; -1.5171188E+01;0;  9.1928566E-01;  1.7837312E+04;  0.0000000E+00;  3.8366280E-02;  4.0000000E+04;  0.0000000E+00;  3.9095793E+04;  6.0323268E-01;  0.0000000E+00;  3.1605300E-01;  1.0654562E+04;
  1.5058942E+00;  9.9999998E-03;  9.0884626E-02;9068;  1.2980590E+00;  0.0000000E+00;  3.3560585E-02;  1.0021212E+03;  1.5167755E-01;  1.7372828E+03;3;  2.6229088E+01;  0.0000000E+00; -1.4016912E+01;0;  8.5499978E-01;  1.7845068E+04;  0.0000000E+00;  1.8480930E-01;  4.0000000E+04;  0.0000000E+00;  3.9093148E+04;  5.3108358E-01;  0.0000000E+00;  3.2391620E-01;  1.0914209E+04;
  1.5060717E+00;  9.9999998E-03;  8.0776349E-02;9067;  1.2965343E+00;  0.0000000E+00;  2.9697714E-02;  1.0020450E+03;  1.5165024E-01;  1.6748450E+03;3;  2.6855196E+01;  0.0000000E+00; -1.2845654E+01;0;  7.9952455E-01;  1.7848996E+04;  0.0000000E+00;  2.7936965E-01;  4.0000000E+04;  0.0000000E+00;  3.9090895E+04;  4.7029305E-01;  0.0000000E+00;  3.2923147E-01;  1.1099292E+04;
  1.5062250E+00;  9.9999998E-03;  2.2231019E-01;9081;  1.3549685E+00;  0.0000000E+00;  8.0053210E-02;  1.0028889E+03;  1.5168932E-01;  2.3658096E+03;3;  4.9876318E+00;  0.0000000E+00; -2.9174629E+01;0;  2.1192410E+00;  1.7830373E+04;  0.0000000E+00;  5.8500056E+00;  4.0000000E+04;  0.0000000E+00;  3.9158125E+04;  2.0761487E+00;  0.0000000E+00;  4.3092255E-02;  1.3923810E+04;
  1.5061852E+00;  9.9999998E-03;  7.0676424E-02;9066;  1.2951230E+00;  0.0000000E+00;  2.5858205E-02;  1.0019640E+03;  1.5163542E-01;  1.6084254E+03;3;  2.7425852E+01;  0.0000000E+00; -1.1526597E+01;0;  7.5235343E-01;  1.7849479E+04;  0.0000000E+00;  3.1815195E-01;  4.0000000E+04;  0.0000000E+00;  3.9089719E+04;  4.1995817E-01;  0.0000000E+00;  3.3239523E-01;  1.1208740E+04;
  1.5063882E+00;  9.9999998E-03;  2.3244412E-01;9082;  1.3619051E+00;  0.0000000E+00;  8.0340065E-02;  1.0013858E+03;  1.5173219E-01;  1.1348890E+03;3;  1.7054759E+00;  0.0000000E+00; -3.0597471E+01;0;  2.2876074E+00;  1.7768541E+04;  0.0000000E+00;  3.7094429E+00;  4.0000000E+04;  0.0000000E+00;  3.9173129E+04;  2.2466733E+00;  0.0000000E+00;  4.0934056E-02;  9.8428887E+03;
  1.5185602E+00;  9.9999998E-03;  1.7199863E-01;9135;  1.3250562E+00;  0.0000000E+00;  7.0823349E-02;  1.0041464E+03;  1.4669012E-01;  3.3878813E+03;3;  2.3089266E+01;  0.0000000E+00; -1.5644835E+01;0;  1.1040241E+00;  1.9132414E+04;  0.0000000E+00;  6.7644739E-01;  4.0000000E+04;  0.0000000E+00;  3.9104000E+04;  9.0191716E-01;  0.0000000E+00;  2.0210688E-01;  7.9404009E+03;
  1.5186601E+00;  9.9999998E-03;  1.8200950E-01;9136;  1.3313849E+00;  0.0000000E+00;  7.3491089E-02;  1.0045967E+03;  1.4666970E-01;  3.7557947E+03;3;  2.1614941E+01;  0.0000000E+00; -1.7335915E+01;0;  1.1834015E+00;  1.9153455E+04;  0.0000000E+00;  1.8640541E+00;  4.0000000E+04;  0.0000000E+00;  3.9101973E+04;  1.0090243E+00;  0.0000000E+00;  1.7437723E-01;  9.0295850E+03;
  1.5185994E+00;  9.9999998E-03;  1.6196966E-01;9134;  1.3193476E+00;  0.0000000E+00;  6.7656949E-02;  1.0035811E+03;  1.4668596E-01;  2.9259717E+03;3;  2.4628311E+01;  0.0000000E+00; -1.4427538E+01;0;  1.0267183E+00;  1.9113863E+04;  0.0000000E+00;  3.6748987E-02;  4.0000000E+04;  0.0000000E+00;  3.9106699E+04;  7.9704976E-01;  0.0000000E+00;  2.2966851E-01;  7.3410249E+03;
  1.5189388E+00;  9.9999998E-03;  1.9202258E-01;9137;  1.3384340E+00;  0.0000000E+00;  7.5663932E-02;  1.0048099E+03;  1.4662603E-01;  3.9297246E+03;3;  1.9758911E+01;  0.0000000E+00; -1.9335178E+01;0;  1.2647425E+00;  1.9170756E+04;  0.0000000E+00;  3.9619200E+00;  4.0000000E+04;  0.0000000E+00;  3.9104914E+04;  1.1167803E+00;  0.0000000E+00;  1.4796226E-01;  1.1362665E+04;
  1.5187337E+00;  9.9999998E-03;  1.5190133E-01;9133;  1.3141634E+00;  0.0000000E+00;  6.3592926E-02;  1.0029866E+03;  1.4666697E-01;  2.4402556E+03;3;  2.5439938E+01;  0.0000000E+00; -1.3103008E+01;0;  9.5189065E-01;  1.9100199E+04;  0.0000000E+00; -3.1790900E-01;  4.0000000E+04;  0.0000000E+00;  3.9107977E+04;  6.9613373E-01;  0.0000000E+00;  2.5575691E-01;  7.0672959E+03;
  1.5189251E+00;  9.9999998E-03;  1.4177510E-01;9132;  1.3096311E+00;  0.0000000E+00;  5.7994664E-02;  1.0024434E+03;  1.4663246E-01;  1.9962292E+03;3;  2.5855532E+01;  0.0000000E+00; -1.3268897E+01;0;  8.7999094E-01;  1.9092305E+04;  0.0000000E+00; -4.7992495E-01;  4.0000000E+04;  0.0000000E+00;  3.9106918E+04;  6.0070896E-01;  0.0000000E+00;  2.7928194E-01;  7.0684600E+03;
  1.5193814E+00;  9.9999998E-03;  2.0206936E-01;9138;  1.3464485E+00;  0.0000000E+00;  7.7747554E-02;  1.0046033E+03;  1.4656910E-01;  3.7605959E+03;3;  1.8532516E+01;  0.0000000E+00; -2.0311993E+01;0;  1.3506086E+00;  1.9174818E+04;  0.0000000E+00;  7.0324206E+00;  4.0000000E+04;  0.0000000E+00;  3.9114875E+04;  1.2257655E+00;  0.0000000E+00;  1.2484314E-01;  1.5958993E+04;
  1.5191504E+00;  9.9999998E-03;  1.3160604E-01;9131;  1.3058940E+00;  0.0000000E+00;  5.2172873E-02;  1.0019882E+03;  1.4659430E-01;  1.6242961E+03;3;  2.5942648E+01;  0.0000000E+00; -1.3742365E+01;0;  8.1142634E-01;  1.9089975E+04;  0.0000000E+00; -4.7067490E-01;  4.0000000E+04;  0.0000000E+00;  3.9104000E+04;  5.1217586E-01;  0.0000000E+00;  2.9925048E-01;  7.2374370E+03;
  1.5193987E+00;  9.9999998E-03;  1.2142780E-01;9130;  1.3028734E+00;  0.0000000E+00;  4.6788186E-02;  1.0016629E+03;  1.4655495E-01;  1.3584452E+03;3;  2.6450399E+01;  0.0000000E+00; -1.3899084E+01;0;  7.4689603E-01;  1.9092338E+04;  0.0000000E+00; -3.3835113E-01;  4.0000000E+04;  0.0000000E+00;  3.9100371E+04;  4.3164375E-01;  0.0000000E+00;  3.1525230E-01;  7.4974429E+03;
  1.5199138E+00;  9.9999998E-03;  2.1216980E-01;9139;  1.3553604E+00;  0.0000000E+00;  7.9938933E-02;  1.0037648E+03;  1.4652179E-01;  3.0753350E+03;3;  1.6926367E+01;  0.0000000E+00; -2.0882618E+01;0;  1.4473052E+00;  1.9154078E+04;  0.0000000E+00;  1.0171662E+01;  4.0000000E+04;  0.0000000E+00;  3.9129465E+04;  1.3392602E+00;  0.0000000E+00;  1.0804494E-01;  2.1726514E+04;
  1.5196582E+00;  9.9999998E-03;  1.1125071E-01;9129;  1.3003660E+00;  0.0000000E+00;  4.1913230E-02;  1.0014583E+03;  1.4651714E-01;  1.1912661E+03;3;  2.6793655E+01;  0.0000000E+00; -1.3659681E+01;0;  6.8717253E-01;  1.9098084E+04;  0.0000000E+00; -1.6084176E-01;  4.0000000E+04;  0.0000000E+00;  3.9095848E+04;  3.5969067E-01;  0.0000000E+00;  3.2748184E-01;  7.8258442E+03;
  1.5199207E+00;  9.9999998E-03;  1.0108681E-01;9128;  1.2982575E+00;  0.0000000E+00;  3.7434388E-02;  1.0013314E+03;  1.4647862E-01;  1.0874958E+03;3;  2.7231646E+01;  0.0000000E+00; -1.3032648E+01;0;  6.3284338E-01;  1.9106000E+04;  0.0000000E+00;  1.3192591E-02;  4.0000000E+04;  0.0000000E+00;  3.9091902E+04;  2.9647976E-01;  0.0000000E+00;  3.3636358E-01;  8.1823208E+03;
  1.5203906E+00;  9.9999998E-03;  2.3246734E-01;9141;  1.3723631E+00;  0.0000000E+00;  8.1850111E-02;  1.0004287E+03;  1.4657408E-01;  3.5013007E+02;3;  1.3353203E+01;  0.0000000E+00; -2.3366259E+01;0;  1.7111468E+00;  1.9018355E+04;  0.0000000E+00;  9.5984211E+00;  4.0000000E+04;  0.0000000E+00;  3.9161066E+04;  1.6142693E+00;  0.0000000E+00;  9.6877605E-02;  2.2213936E+04;
  1.5203422E+00;  9.9999998E-03;  2.2231033E-01;9140;  1.3643997E+00;  0.0000000E+00;  8.1504174E-02;  1.0022341E+03;  1.4651206E-01;  1.8247646E+03;3;  1.5472292E+01;  0.0000000E+00; -2.2189266E+01;0;  1.5642455E+00;  1.9100258E+04;  0.0000000E+00;  1.1428946E+01;  4.0000000E+04;  0.0000000E+00;  3.9145398E+04;  1.4650282E+00;  0.0000000E+00;  9.9217303E-02;  2.4740318E+04;
  1.5201532E+00;  9.9999998E-03;  9.0944916E-02;9127;  1.2963874E+00;  0.0000000E+00;  3.3234157E-02;  1.0012616E+03;  1.4644723E-01;  1.0304811E+03;3;  2.7620550E+01;  0.0000000E+00; -1.2375836E+01;0;  5.8459407E-01;  1.9113426E+04;  0.0000000E+00;  1.5582541E-01;  4.0000000E+04;  0.0000000E+00;  3.9087898E+04;  2.4227162E-01;  0.0000000E+00;  3.4232247E-01;  8.5253096E+03;
  1.5203393E+00;  9.9999998E-03;  8.0818646E-02;9126;  1.2947186E+00;  0.0000000E+00;  2.9235126E-02;  1.0012153E+03;  1.4642262E-01;  9.9266248E+02;3;  2.8230196E+01;  0.0000000E+00; -1.1392897E+01;0;  5.4250246E-01;  1.9118768E+04;  0.0000000E+00;  2.4970415E-01;  4.0000000E+04;  0.0000000E+00;  3.9084742E+04;  1.9670393E-01;  0.0000000E+00;  3.4579855E-01;  8.8261211E+03;
  1.5204796E+00;  9.9999998E-03;  7.0704028E-02;9125;  1.2931963E+00;  0.0000000E+00;  2.5341764E-02;  1.0011721E+03;  1.4640383E-01;  9.5728998E+02;3;  2.8723469E+01;  0.0000000E+00; -1.0272614E+01;0;  5.0627232E-01;  1.9122281E+04;  0.0000000E+00;  2.9090962E-01;  4.0000000E+04;  0.0000000E+00;  3.9082238E+04;  1.5903972E-01;  0.0000000E+00;  3.4723261E-01;  9.0658730E+03;
  1.5326979E+00;  9.9999998E-03;  1.8192990E-01;9194;  1.3333534E+00;  0.0000000E+00;  7.0834860E-02;  1.0045639E+03;  1.4209217E-01;  3.7172102E+03;3;  2.6050829E+01;  0.0000000E+00; -1.2883435E+01;0;  8.3225185E-01;  2.0421824E+04;  0.0000000E+00;  3.8045805E+00;  4.0000000E+04;  0.0000000E+00;  3.9074402E+04;  6.2799078E-01;  0.0000000E+00;  2.0426105E-01;  1.0980431E+04;
  1.5326488E+00;  9.9999998E-03;  1.7194115E-01;9193;  1.3263146E+00;  0.0000000E+00;  6.8413526E-02;  1.0041465E+03;  1.4209898E-01;  3.3773289E+03;3;  2.6736809E+01;  0.0000000E+00; -1.2104027E+01;0;  7.7464449E-01;  2.0403977E+04;  0.0000000E+00;  1.6655220E+00;  4.0000000E+04;  0.0000000E+00;  3.9075648E+04;  5.4745829E-01;  0.0000000E+00;  2.2718622E-01;  8.3713779E+03;
  1.5327067E+00;  9.9999998E-03;  1.6194555E-01;9192;  1.3199308E+00;  0.0000000E+00;  6.5566525E-02;  1.0035601E+03;  1.4209405E-01;  2.8995828E+03;3;  2.7549799E+01;  0.0000000E+00; -1.0837182E+01;0;  7.1974164E-01;  2.0382025E+04;  0.0000000E+00;  5.1374060E-01;  4.0000000E+04;  0.0000000E+00;  3.9080793E+04;  4.6968961E-01;  0.0000000E+00;  2.5005203E-01;  6.9494990E+03;
  1.5328890E+00;  9.9999998E-03;  1.9194353E-01;9195;  1.3412973E+00;  0.0000000E+00;  7.3224396E-02;  1.0046669E+03;  1.4207122E-01;  3.8009177E+03;3;  2.4650047E+01;  0.0000000E+00; -1.3979855E+01;0;  8.9352363E-01;  2.0428887E+04;  0.0000000E+00;  7.3559508E+00;  4.0000000E+04;  0.0000000E+00;  3.9081852E+04;  7.1097273E-01;  0.0000000E+00;  1.8255092E-01;  1.6114087E+04;
  1.5328254E+00;  9.9999998E-03;  1.5192232E-01;9191;  1.3142061E+00;  0.0000000E+00;  6.2039606E-02;  1.0028909E+03;  1.4207822E-01;  2.3545305E+03;3;  2.7736460E+01;  0.0000000E+00; -1.0042554E+01;0;  6.6749775E-01;  2.0360408E+04;  0.0000000E+00; -8.1213459E-02;  4.0000000E+04;  0.0000000E+00;  3.9086555E+04;  3.9552268E-01;  0.0000000E+00;  2.7197510E-01;  6.0590869E+03;
  1.5332277E+00;  9.9999998E-03;  2.0202261E-01;9196;  1.3501428E+00;  0.0000000E+00;  7.5656921E-02;  1.0042445E+03;  1.4204459E-01;  3.4566401E+03;3;  2.3473822E+01;  0.0000000E+00; -1.4973939E+01;0;  9.6107006E-01;  2.0415180E+04;  0.0000000E+00;  1.2147885E+01;  4.0000000E+04;  0.0000000E+00;  3.9097086E+04;  7.9715282E-01;  0.0000000E+00;  1.6391724E-01;  2.4264469E+04;
  1.5329752E+00;  9.9999998E-03;  1.4185168E-01;9190;  1.3091890E+00;  0.0000000E+00;  5.7580147E-02;  1.0022310E+03;  1.4205737E-01;  1.8169722E+03;3;  2.7713417E+01;  0.0000000E+00; -9.9692211E+00;0;  6.1773300E-01;  2.0341662E+04;  0.0000000E+00; -3.6087829E-01;  4.0000000E+04;  0.0000000E+00;  3.9089875E+04;  3.2561329E-01;  0.0000000E+00;  2.9211968E-01;  5.5414443E+03;
  1.5331349E+00;  9.9999998E-03;  1.3172473E-01;9189;  1.3050144E+00;  0.0000000E+00;  5.2252818E-02;  1.0016362E+03;  1.4203511E-01;  1.3324576E+03;3;  2.7658632E+01;  0.0000000E+00; -1.0810011E+01;0;  5.7037407E-01;  2.0327260E+04;  0.0000000E+00; -4.2327821E-01;  4.0000000E+04;  0.0000000E+00;  3.9090785E+04;  2.6074576E-01;  0.0000000E+00;  3.0962831E-01;  5.3163232E+03;
  1.5336517E+00;  9.9999998E-03;  2.1217418E-01;9197;  1.3598793E+00;  0.0000000E+00;  7.8067042E-02;  1.0030269E+03;  1.4202809E-01;  2.4647991E+03;3;  2.3148390E+01;  0.0000000E+00; -1.5768909E+01;0;  1.0402533E+00;  2.0370148E+04;  0.0000000E+00;  1.6623329E+01;  4.0000000E+04;  0.0000000E+00;  3.9113668E+04;  8.8930511E-01;  0.0000000E+00;  1.5094812E-01;  3.2838938E+04;
  1.5333010E+00;  9.9999998E-03;  1.2155978E-01;9188;  1.3015797E+00;  0.0000000E+00;  4.6918247E-02;  1.0011597E+03;  1.4201343E-01;  9.4447650E+02;3;  2.7944298E+01;  0.0000000E+00; -1.1464602E+01;0;  5.2552652E-01;  2.0317945E+04;  0.0000000E+00; -3.3478567E-01;  4.0000000E+04;  0.0000000E+00;  3.9089395E+04;  2.0165849E-01;  0.0000000E+00;  3.2386807E-01;  5.3031348E+03;
  1.5338501E+00;  9.9999998E-03;  2.3253216E-01;9199;  1.3781109E+00;  0.0000000E+00;  8.0423266E-02;  9.9912622E+02;  1.4212486E-01; -7.1148663E+02;3;  2.1331602E+01;  0.0000000E+00; -1.7832008E+01;0;  1.2616795E+00;  2.0192502E+04;  0.0000000E+00;  1.6523655E+01;  4.0000000E+04;  0.0000000E+00;  3.9143430E+04;  1.1203567E+00;  0.0000000E+00;  1.4132288E-01;  3.5420156E+04;
  1.5339514E+00;  9.9999998E-03;  2.2235391E-01;9198;  1.3695557E+00;  0.0000000E+00;  7.9783984E-02;  1.0011024E+03;  1.4204669E-01;  8.9763434E+02;3;  2.2532877E+01;  0.0000000E+00; -1.6630049E+01;0;  1.1382101E+00;  2.0290607E+04;  0.0000000E+00;  1.8312992E+01;  4.0000000E+04;  0.0000000E+00;  3.9128711E+04;  9.9402159E-01;  0.0000000E+00;  1.4418849E-01;  3.7104301E+04;
  1.5334976E+00;  9.9999998E-03;  1.1137895E-01;9187;  1.2987723E+00;  0.0000000E+00;  4.1884497E-02;  1.0008220E+03;  1.4198948E-01;  6.6942010E+02;3;  2.7882639E+01;  0.0000000E+00; -1.1576342E+01;0;  4.8329991E-01;  2.0315107E+04;  0.0000000E+00; -1.8186145E-01;  4.0000000E+04;  0.0000000E+00;  3.9086695E+04;  1.4861499E-01;  0.0000000E+00;  3.3468494E-01;  5.4606724E+03;
  1.5337117E+00;  9.9999998E-03;  1.0120342E-01;9186;  1.2964352E+00;  0.0000000E+00;  3.7175339E-02;  1.0006080E+03;  1.4196180E-01;  4.9504898E+02;3;  2.8434050E+01;  0.0000000E+00; -1.1309205E+01;0;  4.4432625E-01;  2.0317393E+04;  0.0000000E+00; -3.4216292E-02;  4.0000000E+04;  0.0000000E+00;  3.9082699E+04;  1.0203195E-01;  0.0000000E+00;  3.4229431E-01;  5.7500156E+03;
  1.5339214E+00;  9.9999998E-03;  9.1040164E-02;9185;  1.2943802E+00;  0.0000000E+00;  3.2763194E-02;  1.0004955E+03;  1.4193667E-01;  4.0339499E+02;3;  2.8954630E+01;  0.0000000E+00; -1.0861908E+01;0;  4.0908936E-01;  2.0322453E+04;  0.0000000E+00;  8.4624358E-02;  4.0000000E+04;  0.0000000E+00;  3.9078422E+04;  6.2006187E-02;  0.0000000E+00;  3.4708318E-01;  6.1120396E+03;
  1.5341115E+00;  9.9999998E-03;  8.0894478E-02;9184;  1.2925620E+00;  0.0000000E+00;  2.8616717E-02;  1.0004437E+03;  1.4191340E-01;  3.6125208E+02;3;  2.9192825E+01;  0.0000000E+00; -1.0157923E+01;0;  3.7779298E-01;  2.0328293E+04;  0.0000000E+00;  1.6489057E-01;  4.0000000E+04;  0.0000000E+00;  3.9074141E+04;  2.8319156E-02;  0.0000000E+00;  3.4947383E-01;  6.4935181E+03;
  1.5342702E+00;  9.9999998E-03;  7.0764020E-02;9183;  1.2909628E+00;  0.0000000E+00;  2.4663415E-02;  1.0004324E+03;  1.4189680E-01;  3.5201730E+02;3;  2.9504398E+01;  0.0000000E+00; -9.2291918E+00;0;  3.5045445E-01;  2.0333648E+04;  0.0000000E+00;  2.0366833E-01;  4.0000000E+04;  0.0000000E+00;  3.9070348E+04;  5.4355740E-04;  0.0000000E+00;  3.4991089E-01;  6.8585317E+03;
  1.5463114E+00;  9.9999998E-03;  1.8181551E-01;9251;  1.3336676E+00;  0.0000000E+00;  6.6086613E-02;  1.0043075E+03;  1.3814449E-01;  3.4952637E+03;3;  2.8199331E+01;  0.0000000E+00; -9.9692240E+00;0;  5.8385289E-01;  2.1615172E+04;  0.0000000E+00;  7.2828321E+00;  4.0000000E+04;  0.0000000E+00;  3.9044980E+04;  3.5976261E-01;  0.0000000E+00;  2.2409028E-01;  1.5444169E+04;
  1.5463283E+00;  9.9999998E-03;  1.7183031E-01;9250;  1.3262733E+00;  0.0000000E+00;  6.3928366E-02;  1.0039893E+03;  1.3814031E-01;  3.2369763E+03;3;  2.8589792E+01;  0.0000000E+00; -9.6600494E+00;0;  5.4394150E-01;  2.1605703E+04;  0.0000000E+00;  3.7025030E+00;  4.0000000E+04;  0.0000000E+00;  3.9039914E+04;  3.0194584E-01;  0.0000000E+00;  2.4199565E-01;  1.0366985E+04;
  1.5464035E+00;  9.9999998E-03;  1.9186622E-01;9252;  1.3422773E+00;  0.0000000E+00;  6.8812661E-02;  1.0042545E+03;  1.3814312E-01;  3.4521223E+03;3;  2.7812000E+01;  0.0000000E+00; -9.9446144E+00;0;  6.2829602E-01;  2.1606150E+04;  0.0000000E+00;  1.2728917E+01;  4.0000000E+04;  0.0000000E+00;  3.9060273E+04;  4.2094013E-01;  0.0000000E+00;  2.0735590E-01;  2.4071342E+04;
  1.5464113E+00;  9.9999998E-03;  1.6186330E-01;9249;  1.3196067E+00;  0.0000000E+00;  6.1571740E-02;  1.0034625E+03;  1.3813198E-01;  2.8095520E+03;3;  2.9104774E+01;  0.0000000E+00; -8.7159319E+00;0;  5.0663799E-01;  2.1585410E+04;  0.0000000E+00;  1.6316565E+00;  4.0000000E+04;  0.0000000E+00;  3.9044355E+04;  2.4688432E-01;  0.0000000E+00;  2.5975367E-01;  7.5814517E+03;
  1.5465274E+00;  9.9999998E-03;  1.5188324E-01;9248;  1.3136122E+00;  0.0000000E+00;  5.8768637E-02;  1.0028087E+03;  1.3812023E-01;  2.2789209E+03;3;  2.9213104E+01;  0.0000000E+00; -8.3424883E+00;0;  4.7140270E-01;  2.1559715E+04;  0.0000000E+00;  5.1532632E-01;  4.0000000E+04;  0.0000000E+00;  3.9052543E+04;  1.9443296E-01;  0.0000000E+00;  2.7696976E-01;  5.8839482E+03;
  1.5466415E+00;  9.9999998E-03;  2.0201974E-01;9253;  1.3520708E+00;  0.0000000E+00;  7.1807086E-02;  1.0035093E+03;  1.3814393E-01;  2.8472710E+03;3;  2.7414568E+01;  0.0000000E+00; -1.1349231E+01;0;  6.8026471E-01;  2.1569184E+04;  0.0000000E+00;  1.9344038E+01;  4.0000000E+04;  0.0000000E+00;  3.9079199E+04;  4.8644635E-01;  0.0000000E+00;  1.9381838E-01;  3.5506359E+04;
  1.5466479E+00;  9.9999998E-03;  1.4186740E-01;9247;  1.3083055E+00;  0.0000000E+00;  5.5394758E-02;  1.0021086E+03;  1.3810694E-01;  1.7108933E+03;3;  2.8917297E+01;  0.0000000E+00; -7.9148812E+00;0;  4.3794590E-01;  2.1532873E+04;  0.0000000E+00; -4.9546011E-02;  4.0000000E+04;  0.0000000E+00;  3.9060242E+04;  1.4476423E-01;  0.0000000E+00;  2.9318169E-01;  4.7625225E+03;
  1.5467629E+00;  9.9999998E-03;  1.3179687E-01;9246;  1.3037964E+00;  0.0000000E+00;  5.1216841E-02;  1.0014313E+03;  1.3809499E-01;  1.1612855E+03;3;  2.9075541E+01;  0.0000000E+00; -8.5263128E+00;0;  4.0600148E-01;  2.1508234E+04;  0.0000000E+00; -2.8082526E-01;  4.0000000E+04;  0.0000000E+00;  3.9065602E+04;  9.8190427E-02;  0.0000000E+00;  3.0781105E-01;  4.0546892E+03;
  1.5468973E+00;  9.9999998E-03;  2.3264232E-01;9256;  1.3811206E+00;  0.0000000E+00;  7.7065758E-02;  9.9759204E+02;  1.3828607E-01; -1.9535625E+03;3;  2.5846766E+01;  0.0000000E+00; -1.3526252E+01;0;  9.2026091E-01;  2.1285820E+04;  0.0000000E+00;  2.3414024E+01;  4.0000000E+04;  0.0000000E+00;  3.9117539E+04;  7.4576086E-01;  0.0000000E+00;  1.7450006E-01;  4.6933648E+04;
  1.5469719E+00;  9.9999998E-03;  2.1223982E-01;9254;  1.3623906E+00;  0.0000000E+00;  7.4460417E-02;  1.0018093E+03;  1.3815632E-01;  1.4678828E+03;3;  2.7118963E+01;  0.0000000E+00; -1.1793052E+01;0;  7.4324441E-01;  2.1495834E+04;  0.0000000E+00;  2.4608635E+01;  4.0000000E+04;  0.0000000E+00;  3.9091891E+04;  5.5839050E-01;  0.0000000E+00;  1.8485390E-01;  4.5477262E+04;
  1.5468835E+00;  9.9999998E-03;  1.2166735E-01;9245;  1.3000326E+00;  0.0000000E+00;  4.6418257E-02;  1.0008296E+03;  1.3808213E-01;  6.7303149E+02;3;  2.8820023E+01;  0.0000000E+00; -9.3640871E+00;0;  3.7539232E-01;  2.1488734E+04;  0.0000000E+00; -3.0086547E-01;  4.0000000E+04;  0.0000000E+00;  3.9068145E+04;  5.5157904E-02;  0.0000000E+00;  3.2023442E-01;  3.6637671E+03;
  1.5471463E+00;  9.9999998E-03;  2.2245003E-01;9255;  1.3723041E+00;  0.0000000E+00;  7.6267034E-02;  9.9953973E+02;  1.3819982E-01; -3.7338214E+02;3;  2.6824024E+01;  0.0000000E+00; -1.2575074E+01;0;  8.2206136E-01;  2.1391459E+04;  0.0000000E+00;  2.5836296E+01;  4.0000000E+04;  0.0000000E+00;  3.9104602E+04;  6.4248341E-01;  0.0000000E+00;  1.7957793E-01;  4.9163355E+04;
  1.5470202E+00;  9.9999998E-03;  1.1149997E-01;9244;  1.2969621E+00;  0.0000000E+00;  4.1519031E-02;  1.0003632E+03;  1.3806808E-01;  2.9457800E+02;3;  2.9175827E+01;  0.0000000E+00; -9.7390070E+00;0;  3.4624824E-01;  2.1475908E+04;  0.0000000E+00; -2.1023542E-01;  4.0000000E+04;  0.0000000E+00;  3.9068004E+04;  1.6287463E-02;  0.0000000E+00;  3.2996076E-01;  3.5282786E+03;
  1.5471722E+00;  9.9999998E-03;  1.0132256E-01;9243;  1.2943726E+00;  0.0000000E+00;  3.6763985E-02;  1.0000372E+03;  1.3805297E-01;  3.0172054E+01;3;  2.9534279E+01;  0.0000000E+00; -9.7631855E+00;0;  3.1893155E-01;  2.1469459E+04;  0.0000000E+00; -9.8355517E-02;  4.0000000E+04;  0.0000000E+00;  3.9065742E+04; -1.7941859E-02;  0.0000000E+00;  3.3687341E-01;  3.6180012E+03;
  1.5473356E+00;  9.9999998E-03;  9.1150992E-02;9242;  1.2921356E+00;  0.0000000E+00;  3.2242812E-02;  9.9985052E+02;  1.3803683E-01; -1.2126238E+02;3;  2.9772398E+01;  0.0000000E+00; -9.4902353E+00;0;  2.9372537E-01;  2.1468750E+04;  0.0000000E+00; -1.1835707E-02;  4.0000000E+04;  0.0000000E+00;  3.9062305E+04; -4.7450006E-02;  0.0000000E+00;  3.4117538E-01;  3.8846069E+03;
  1.5475029E+00;  9.9999998E-03;  8.0991164E-02;9241;  1.2902031E+00;  0.0000000E+00;  2.7981969E-02;  9.9975604E+02;  1.3802095E-01; -1.9788734E+02;3;  3.0178276E+01;  0.0000000E+00; -8.9026203E+00;0;  2.7080977E-01;  2.1471904E+04;  0.0000000E+00;  4.5989919E-02;  4.0000000E+04;  0.0000000E+00;  3.9057621E+04; -7.2397217E-02;  0.0000000E+00;  3.4320697E-01;  4.2620312E+03;
  1.5476608E+00;  9.9999998E-03;  7.0843987E-02;9240;  1.2885102E+00;  0.0000000E+00;  2.3958977E-02;  9.9973535E+02;  1.3800746E-01; -2.1465359E+02;3;  3.0702040E+01;  0.0000000E+00; -8.1302233E+00;0;  2.5031060E-01;  2.1476984E+04;  0.0000000E+00;  7.8201391E-02;  4.0000000E+04;  0.0000000E+00;  3.9052781E+04; -9.3061380E-02;  0.0000000E+00;  3.4337199E-01;  4.6940469E+03;
  1.5595744E+00;  9.9999998E-03;  2.3280130E-01;9313;  1.3825343E+00;  0.0000000E+00;  7.2470613E-02;  9.9601599E+02;  1.3496976E-01; -3.2185869E+03;3;  2.8843426E+01;  0.0000000E+00; -1.0786873E+01;0;  6.6541994E-01;  2.2302838E+04;  0.0000000E+00;  2.9389503E+01;  4.0000000E+04;  0.0000000E+00;  3.9080121E+04;  4.6892798E-01;  0.0000000E+00;  1.9649199E-01;  5.5594984E+04;
  1.5594710E+00;  9.9999998E-03;  1.9185701E-01;9309;  1.3426329E+00;  0.0000000E+00;  6.3742273E-02;  1.0035621E+03;  1.3477612E-01;  2.8778206E+03;3;  3.0266102E+01;  0.0000000E+00; -8.0743256E+00;0;  4.4341767E-01;  2.2688072E+04;  0.0000000E+00;  2.0537880E+01;  4.0000000E+04;  0.0000000E+00;  3.9038000E+04;  2.1881036E-01;  0.0000000E+00;  2.2460732E-01;  3.5235809E+04;
  1.5594646E+00;  9.9999998E-03;  1.8172020E-01;9308;  1.3333427E+00;  0.0000000E+00;  6.0622979E-02;  1.0038620E+03;  1.3475856E-01;  3.1201423E+03;3;  2.9705370E+01;  0.0000000E+00; -8.0730600E+00;0;  4.1204393E-01;  2.2717014E+04;  0.0000000E+00;  1.2852837E+01;  4.0000000E+04;  0.0000000E+00;  3.9015805E+04;  1.7590100E-01;  0.0000000E+00;  2.3614293E-01;  2.3038494E+04;
  1.5596762E+00;  9.9999998E-03;  2.0211075E-01;9310;  1.3531493E+00;  0.0000000E+00;  6.7204446E-02;  1.0023188E+03;  1.3479522E-01;  1.8731741E+03;3;  3.0199541E+01;  0.0000000E+00; -8.5348921E+00;0;  4.8244733E-01;  2.2624881E+04;  0.0000000E+00;  2.8490652E+01;  4.0000000E+04;  0.0000000E+00;  3.9052707E+04;  2.6596585E-01;  0.0000000E+00;  2.1648148E-01;  4.8636848E+04;
  1.5599900E+00;  9.9999998E-03;  2.2260267E-01;9312;  1.3737221E+00;  0.0000000E+00;  7.1652561E-02;  9.9762646E+02;  1.3488369E-01; -1.9172054E+03;3;  2.9774668E+01;  0.0000000E+00; -9.7627373E+00;0;  5.9181207E-01;  2.2400547E+04;  0.0000000E+00;  3.2756908E+01;  4.0000000E+04;  0.0000000E+00;  3.9070422E+04;  3.8591215E-01;  0.0000000E+00;  2.0589994E-01;  5.8927277E+04;
  1.5595812E+00;  9.9999998E-03;  1.7169772E-01;9307;  1.3255525E+00;  0.0000000E+00;  5.8390774E-02;  1.0036653E+03;  1.3474128E-01;  2.9611060E+03;3;  2.9822241E+01;  0.0000000E+00; -7.8917346E+00;0;  3.8531232E-01;  2.2721930E+04;  0.0000000E+00;  7.2654271E+00;  4.0000000E+04;  0.0000000E+00;  3.9001309E+04;  1.3626479E-01;  0.0000000E+00;  2.4904752E-01;  1.4725021E+04;
  1.5599588E+00;  9.9999998E-03;  2.1238042E-01;9311;  1.3637744E+00;  0.0000000E+00;  6.9927305E-02;  1.0000677E+03;  1.3482633E-01;  5.4694016E+01;3;  3.0214594E+01;  0.0000000E+00; -8.7344627E+00;0;  5.3093851E-01;  2.2522084E+04;  0.0000000E+00;  3.3133736E+01;  4.0000000E+04;  0.0000000E+00;  3.9058988E+04;  3.1975293E-01;  0.0000000E+00;  2.1118554E-01;  5.7524414E+04;
  1.5597376E+00;  9.9999998E-03;  1.6173473E-01;9306;  1.3187630E+00;  0.0000000E+00;  5.6439698E-02;  1.0032402E+03;  1.3472547E-01;  2.6175317E+03;3;  3.0216160E+01;  0.0000000E+00; -7.4450336E+00;0;  3.6073136E-01;  2.2710301E+04;  0.0000000E+00;  3.7537858E+00;  4.0000000E+04;  0.0000000E+00;  3.8999125E+04;  9.8960534E-02;  0.0000000E+00;  2.6177081E-01;  9.7999795E+03;
  1.5598927E+00;  9.9999998E-03;  1.5178306E-01;9305;  1.3126059E+00;  0.0000000E+00;  5.4349363E-02;  1.0026720E+03;  1.3471195E-01;  2.1583472E+03;3;  3.0285065E+01;  0.0000000E+00; -7.3472023E+00;0;  3.3740693E-01;  2.2687557E+04;  0.0000000E+00;  1.7142612E+00;  4.0000000E+04;  0.0000000E+00;  3.9005723E+04;  6.3299596E-02;  0.0000000E+00;  2.7410734E-01;  6.8674175E+03;
  1.5600283E+00;  9.9999998E-03;  1.4181009E-01;9304;  1.3071274E+00;  0.0000000E+00;  5.1852643E-02;  1.0020140E+03;  1.3469979E-01;  1.6268167E+03;3;  3.0092333E+01;  0.0000000E+00; -7.0610027E+00;0;  3.1503028E-01;  2.2658711E+04;  0.0000000E+00;  5.9489655E-01;  4.0000000E+04;  0.0000000E+00;  3.9015609E+04;  2.9004343E-02;  0.0000000E+00;  2.8602594E-01;  4.9583242E+03;
  1.5601325E+00;  9.9999998E-03;  1.3179165E-01;9303;  1.3023624E+00;  0.0000000E+00;  4.8818912E-02;  1.0013231E+03;  1.3469152E-01;  1.0686801E+03;3;  2.9989807E+01;  0.0000000E+00; -7.2720070E+00;0;  2.9350910E-01;  2.2627980E+04;  0.0000000E+00;  3.0994656E-02;  4.0000000E+04;  0.0000000E+00;  3.9025441E+04; -3.8213097E-03;  0.0000000E+00;  2.9733041E-01;  3.6575757E+03;
  1.5602146E+00;  9.9999998E-03;  1.2171279E-01;9302;  1.2983317E+00;  0.0000000E+00;  4.5048576E-02;  1.0006631E+03;  1.3468410E-01;  5.3552747E+02;3;  2.9942638E+01;  0.0000000E+00; -7.6046000E+00;0;  2.7275613E-01;  2.2599305E+04;  0.0000000E+00; -1.9643822E-01;  4.0000000E+04;  0.0000000E+00;  3.9032621E+04; -3.4830946E-02;  0.0000000E+00;  3.0758709E-01;  2.8005125E+03;
  1.5602888E+00;  9.9999998E-03;  1.1158213E-01;9301;  1.2949804E+00;  0.0000000E+00;  4.0668510E-02;  1.0000926E+03;  1.3467978E-01;  7.4810059E+01;3;  3.0215809E+01;  0.0000000E+00; -8.0541134E+00;0;  2.5278237E-01;  2.2575512E+04;  0.0000000E+00; -2.2847956E-01;  4.0000000E+04;  0.0000000E+00;  3.9036398E+04; -6.3433729E-02;  0.0000000E+00;  3.1621611E-01;  2.2866213E+03;
  1.5603675E+00;  9.9999998E-03;  1.0142518E-01;9300;  1.2921379E+00;  0.0000000E+00;  3.6095232E-02;  9.9964508E+02;  1.3467561E-01; -2.8666733E+02;3;  3.0532198E+01;  0.0000000E+00; -8.2168360E+00;0;  2.3371810E-01;  2.2558379E+04;  0.0000000E+00; -1.7620313E-01;  4.0000000E+04;  0.0000000E+00;  3.9037613E+04; -8.9048214E-02;  0.0000000E+00;  3.2276630E-01;  2.0591929E+03;
  1.5604668E+00;  9.9999998E-03;  9.1257945E-02;9299;  1.2897229E+00;  0.0000000E+00;  3.1603821E-02;  9.9935779E+02;  1.3467078E-01; -5.1867804E+02;3;  3.0915487E+01;  0.0000000E+00; -8.0297813E+00;0;  2.1568350E-01;  2.2548713E+04;  0.0000000E+00; -1.1677708E-01;  4.0000000E+04;  0.0000000E+00;  3.9036074E+04; -1.1141481E-01;  0.0000000E+00;  3.2709831E-01;  2.0914917E+03;
  1.5605853E+00;  9.9999998E-03;  8.1090666E-02;9298;  1.2876346E+00;  0.0000000E+00;  2.7301069E-02;  9.9918408E+02;  1.3466427E-01; -6.5892096E+02;3;  3.1379560E+01;  0.0000000E+00; -7.6749339E+00;0;  1.9883630E-01;  2.2545652E+04;  0.0000000E+00; -7.8111582E-02;  4.0000000E+04;  0.0000000E+00;  3.9032711E+04; -1.3053480E-01;  0.0000000E+00;  3.2937109E-01;  2.3376377E+03;
  1.5607185E+00;  9.9999998E-03;  7.0930228E-02;9297;  1.2858261E+00;  0.0000000E+00;  2.3247901E-02;  9.9911920E+02;  1.3465723E-01; -7.1125702E+02;3;  3.1922985E+01;  0.0000000E+00; -7.1113424E+00;0;  1.8331385E-01;  2.2547418E+04;  0.0000000E+00; -5.4189388E-02;  4.0000000E+04;  0.0000000E+00;  3.9028020E+04; -1.4656642E-01;  0.0000000E+00;  3.2988027E-01;  2.7297664E+03;
  1.5719131E+00;  9.9999998E-03;  2.3300382E-01;9369;  1.3831911E+00;  0.0000000E+00;  6.7526646E-02;  9.9476642E+02;  1.3211074E-01; -4.2074443E+03;3;  3.0951456E+01;  0.0000000E+00; -8.8975639E+00;0;  4.8185629E-01;  2.3255584E+04;  0.0000000E+00;  3.3880398E+01;  4.0000000E+04;  0.0000000E+00;  3.9029555E+04;  2.7114755E-01;  0.0000000E+00;  2.1070872E-01;  6.0574980E+04;
  1.5722296E+00;  9.9999998E-03;  1.9196501E-01;9365;  1.3428687E+00;  0.0000000E+00;  5.8871288E-02;  1.0024882E+03;  1.3188729E-01;  2.0000179E+03;3;  3.1966204E+01;  0.0000000E+00; -6.3857255E+00;0;  3.1578115E-01;  2.3668703E+04;  0.0000000E+00;  3.0617079E+01;  4.0000000E+04;  0.0000000E+00;  3.9008914E+04;  7.8640305E-02;  0.0000000E+00;  2.3714085E-01;  4.8406105E+04;
  1.5724783E+00;  9.9999998E-03;  2.2280487E-01;9368;  1.3744533E+00;  0.0000000E+00;  6.6733785E-02;  9.9568286E+02;  1.3203079E-01; -3.4698567E+03;3;  3.1844921E+01;  0.0000000E+00; -7.8092246E+00;0;  4.2999625E-01;  2.3325146E+04;  0.0000000E+00;  3.8452991E+01;  4.0000000E+04;  0.0000000E+00;  3.9025355E+04;  2.0454922E-01;  0.0000000E+00;  2.2544703E-01;  6.5615922E+04;
  1.5722455E+00;  9.9999998E-03;  1.8170229E-01;9364;  1.3328956E+00;  0.0000000E+00;  5.5205058E-02;  1.0032102E+03;  1.3185760E-01;  2.5804001E+03;3;  3.1178616E+01;  0.0000000E+00; -6.9355087E+00;0;  2.9318681E-01;  2.3720713E+04;  0.0000000E+00;  2.0953491E+01;  4.0000000E+04;  0.0000000E+00;  3.8988387E+04;  5.0271396E-02;  0.0000000E+00;  2.4291542E-01;  3.3603098E+04;
  1.5724509E+00;  9.9999998E-03;  2.0230189E-01;9366;  1.3538474E+00;  0.0000000E+00;  6.2410865E-02;  1.0005580E+03;  1.3192029E-01;  4.4850452E+02;3;  3.2276051E+01;  0.0000000E+00; -6.5948400E+00;0;  3.4552765E-01;  2.3575125E+04;  0.0000000E+00;  3.8369663E+01;  4.0000000E+04;  0.0000000E+00;  3.9012234E+04;  1.1139019E-01;  0.0000000E+00;  2.3413748E-01;  6.1197949E+04;
  1.5726430E+00;  9.9999998E-03;  2.1258311E-01;9367;  1.3645357E+00;  0.0000000E+00;  6.4992294E-02;  9.9790363E+02;  1.3196445E-01; -1.6847936E+03;3;  3.2525566E+01;  0.0000000E+00; -6.7446556E+00;0;  3.8304293E-01;  2.3446709E+04;  0.0000000E+00;  4.0789776E+01;  4.0000000E+04;  0.0000000E+00;  3.9015281E+04;  1.5170243E-01;  0.0000000E+00;  2.3134048E-01;  6.6798805E+04;
  1.5724617E+00;  9.9999998E-03;  1.7159048E-01;9363;  1.3245608E+00;  0.0000000E+00;  5.2584250E-02;  1.0031736E+03;  1.3182715E-01;  2.5507437E+03;3;  3.0844177E+01;  0.0000000E+00; -6.8233709E+00;0;  2.7552515E-01;  2.3743629E+04;  0.0000000E+00;  1.2874521E+01;  4.0000000E+04;  0.0000000E+00;  3.8963496E+04;  2.4767559E-02;  0.0000000E+00;  2.5075760E-01;  2.1760850E+04;
  1.5727254E+00;  9.9999998E-03;  1.6158935E-01;9362;  1.3175529E+00;  0.0000000E+00;  5.0765596E-02;  1.0028559E+03;  1.3180088E-01;  2.2951379E+03;3;  3.0950701E+01;  0.0000000E+00; -6.8279996E+00;0;  2.5979879E-01;  2.3746049E+04;  0.0000000E+00;  7.3342795E+00;  4.0000000E+04;  0.0000000E+00;  3.8949875E+04;  1.0980383E-03;  0.0000000E+00;  2.5870076E-01;  1.4000159E+04;
  1.5729560E+00;  9.9999998E-03;  1.5163769E-01;9361;  1.3112944E+00;  0.0000000E+00;  4.9155820E-02;  1.0024132E+03;  1.3178265E-01;  1.9391331E+03;3;  3.1008303E+01;  0.0000000E+00; -6.8523722E+00;0;  2.4456815E-01;  2.3732773E+04;  0.0000000E+00;  3.8682144E+00;  4.0000000E+04;  0.0000000E+00;  3.8949391E+04; -2.1732438E-02;  0.0000000E+00;  2.6630059E-01;  9.2581846E+03;
  1.5731319E+00;  9.9999998E-03;  1.4168926E-01;9360;  1.3057431E+00;  0.0000000E+00;  4.7478490E-02;  1.0018585E+03;  1.3176768E-01;  1.4932943E+03;3;  3.0846558E+01;  0.0000000E+00; -6.6628942E+00;0;  2.2954133E-01;  2.3708072E+04;  0.0000000E+00;  1.8158159E+00;  4.0000000E+04;  0.0000000E+00;  3.8957582E+04; -4.4297639E-02;  0.0000000E+00;  2.7383897E-01;  6.2662466E+03;
  1.5732473E+00;  9.9999998E-03;  1.3171202E-01;9359;  1.3008008E+00;  0.0000000E+00;  4.5350961E-02;  1.0012454E+03;  1.3176180E-01;  1.0006193E+03;3;  3.0946999E+01;  0.0000000E+00; -6.6912699E+00;0;  2.1473944E-01;  2.3676533E+04;  0.0000000E+00;  6.6332430E-01;  4.0000000E+04;  0.0000000E+00;  3.8969434E+04; -6.6754483E-02;  0.0000000E+00;  2.8149393E-01;  4.2354287E+03;
  1.5733126E+00;  9.9999998E-03;  1.2168444E-01;9358;  1.2965208E+00;  0.0000000E+00;  4.2615224E-02;  1.0005886E+03;  1.3175744E-01;  4.7295084E+02;3;  3.0968761E+01;  0.0000000E+00; -6.5578070E+00;0;  2.0025133E-01;  2.3642514E+04;  0.0000000E+00;  7.0878737E-02;  4.0000000E+04;  0.0000000E+00;  3.8980648E+04; -8.8875845E-02;  0.0000000E+00;  2.8912717E-01;  2.8144480E+03;
  1.5733440E+00;  9.9999998E-03;  1.1160560E-01;9357;  1.2928627E+00;  0.0000000E+00;  3.9098620E-02;  9.9997699E+02;  1.3175899E-01; -1.8484861E+01;3;  3.1288410E+01;  0.0000000E+00; -6.6284041E+00;0;  1.8615353E-01;  2.3610215E+04;  0.0000000E+00; -1.7875570E-01;  4.0000000E+04;  0.0000000E+00;  3.8989441E+04; -1.1013343E-01;  0.0000000E+00;  2.9628697E-01;  1.8531996E+03;
  1.5733632E+00;  9.9999998E-03;  1.0148419E-01;9356;  1.2897620E+00;  0.0000000E+00;  3.5003327E-02;  9.9945367E+02;  1.3176344E-01; -4.3893994E+02;3;  3.1576586E+01;  0.0000000E+00; -6.8341522E+00;0;  1.7248777E-01;  2.3582955E+04;  0.0000000E+00; -2.3969680E-01;  4.0000000E+04;  0.0000000E+00;  3.8994824E+04; -1.2989759E-01;  0.0000000E+00;  3.0238536E-01;  1.2590559E+03;
  1.5733941E+00;  9.9999998E-03;  9.1334388E-02;9355;  1.2871296E+00;  0.0000000E+00;  3.0735573E-02;  9.9904803E+02;  1.3176675E-01; -7.6480627E+02;3;  3.2054867E+01;  0.0000000E+00; -6.8078904E+00;0;  1.5929626E-01;  2.3562914E+04;  0.0000000E+00; -2.2190531E-01;  4.0000000E+04;  0.0000000E+00;  3.8996887E+04; -1.4765911E-01;  0.0000000E+00;  3.0695537E-01;  9.7061328E+02;
  1.5734496E+00;  9.9999998E-03;  8.1170730E-02;9354;  1.2848741E+00;  0.0000000E+00;  2.6542371E-02;  9.9876953E+02;  1.3176820E-01; -9.8855902E+02;3;  3.2527447E+01;  0.0000000E+00; -6.5669255E+00;0;  1.4666939E-01;  2.3550631E+04;  0.0000000E+00; -1.9036624E-01;  4.0000000E+04;  0.0000000E+00;  3.8996293E+04; -1.6315654E-01;  0.0000000E+00;  3.0982593E-01;  9.5067926E+02;
  1.5735317E+00;  9.9999998E-03;  7.1004063E-02;9353;  1.2829427E+00;  0.0000000E+00;  2.2540638E-02;  9.9861639E+02;  1.3176845E-01; -1.1115380E+03;3;  3.3024506E+01;  0.0000000E+00; -6.1393495E+00;0;  1.3472287E-01;  2.3545572E+04;  0.0000000E+00; -1.6451113E-01;  4.0000000E+04;  0.0000000E+00;  3.8993051E+04; -1.7638548E-01;  0.0000000E+00;  3.1110835E-01;  1.1591570E+03;
  1.5839510E+00;  9.9999998E-03;  2.3324551E-01;9424;  1.3834955E+00;  0.0000000E+00;  6.2705085E-02;  9.9421899E+02;  1.2964381E-01; -4.6214258E+03;3;  3.2349274E+01;  0.0000000E+00; -7.5224028E+00;0;  3.5379520E-01;  2.4164262E+04;  0.0000000E+00;  3.6297737E+01;  4.0000000E+04;  0.0000000E+00;  3.8964445E+04;  1.3389690E-01;  0.0000000E+00;  2.1989830E-01;  6.1089973E+04;
  1.5846286E+00;  9.9999998E-03;  2.2305366E-01;9423;  1.3748764E+00;  0.0000000E+00;  6.1955057E-02;  9.9410669E+02;  1.2957934E-01; -4.7095718E+03;3;  3.3310959E+01;  0.0000000E+00; -6.3480926E+00;0;  3.1947872E-01;  2.4184088E+04;  0.0000000E+00;  4.2469574E+01;  4.0000000E+04;  0.0000000E+00;  3.8966355E+04;  7.9169177E-02;  0.0000000E+00;  2.4030955E-01;  6.8592227E+04;
  1.5847728E+00;  9.9999998E-03;  1.9221906E-01;9420;  1.3431830E+00;  0.0000000E+00;  5.4320306E-02;  1.0008369E+03;  1.2941924E-01;  6.6880658E+02;3;  3.3549335E+01;  0.0000000E+00; -5.1021342E+00;0;  2.2709078E-01;  2.4541121E+04;  0.0000000E+00;  4.1792095E+01;  4.0000000E+04;  0.0000000E+00;  3.8960418E+04; -1.9949472E-02;  0.0000000E+00;  2.4704024E-01;  6.1191285E+04;
  1.5847054E+00;  9.9999998E-03;  1.8183655E-01;9419;  1.3325999E+00;  0.0000000E+00;  5.0385449E-02;  1.0022798E+03;  1.2938294E-01;  1.8218728E+03;3;  3.2496647E+01;  0.0000000E+00; -5.8805652E+00;0;  2.0952851E-01;  2.4621768E+04;  0.0000000E+00;  3.1734083E+01;  4.0000000E+04;  0.0000000E+00;  3.8953863E+04; -3.7360288E-02;  0.0000000E+00;  2.4688879E-01;  4.6348527E+04;
  1.5849992E+00;  9.9999998E-03;  2.1283957E-01;9422;  1.3649720E+00;  0.0000000E+00;  6.0075745E-02;  9.9565106E+02;  1.2951399E-01; -3.4747524E+03;3;  3.4106697E+01;  0.0000000E+00; -5.3858714E+00;0;  2.8186029E-01;  2.4280188E+04;  0.0000000E+00;  4.6583214E+01;  4.0000000E+04;  0.0000000E+00;  3.8959125E+04;  3.5077706E-02;  0.0000000E+00;  2.4678259E-01;  7.2118016E+04;
  1.5849909E+00;  9.9999998E-03;  2.0257683E-01;9421;  1.3542734E+00;  0.0000000E+00;  5.7525963E-02;  9.9825153E+02;  1.2945971E-01; -1.3970409E+03;3;  3.3924904E+01;  0.0000000E+00; -5.1597323E+00;0;  2.5068837E-01;  2.4416338E+04;  0.0000000E+00;  4.7076363E+01;  4.0000000E+04;  0.0000000E+00;  3.8954840E+04;  2.9315527E-03;  0.0000000E+00;  2.4775682E-01;  7.0383102E+04;
  1.5849323E+00;  9.9999998E-03;  1.7158800E-01;9418;  1.3236041E+00;  0.0000000E+00;  4.7188371E-02;  1.0025793E+03;  1.2934694E-01;  2.0609294E+03;3;  3.1787807E+01;  0.0000000E+00; -6.1422715E+00;0;  1.9744131E-01;  2.4663094E+04;  0.0000000E+00;  2.1165426E+01;  4.0000000E+04;  0.0000000E+00;  3.8927121E+04; -5.1883984E-02;  0.0000000E+00;  2.4932529E-01;  3.1575453E+04;
  1.5852927E+00;  9.9999998E-03;  1.6150053E-01;9417;  1.3162524E+00;  0.0000000E+00;  4.5164909E-02;  1.0023824E+03;  1.2931447E-01;  1.9032230E+03;3;  3.1577618E+01;  0.0000000E+00; -6.4272852E+00;0;  1.8763377E-01;  2.4681090E+04;  0.0000000E+00;  1.2991722E+01;  4.0000000E+04;  0.0000000E+00;  3.8901207E+04; -6.5058663E-02;  0.0000000E+00;  2.5269243E-01;  2.0535924E+04;
  1.5856334E+00;  9.9999998E-03;  1.5150622E-01;9416;  1.3098881E+00;  0.0000000E+00;  4.3774609E-02;  1.0020257E+03;  1.2928599E-01;  1.6180021E+03;3;  3.1720865E+01;  0.0000000E+00; -6.3299727E+00;0;  1.7778532E-01;  2.4681893E+04;  0.0000000E+00;  7.4844255E+00;  4.0000000E+04;  0.0000000E+00;  3.8889031E+04; -7.8147635E-02;  0.0000000E+00;  2.5593296E-01;  1.3324624E+04;
  1.5858982E+00;  9.9999998E-03;  1.4154749E-01;9415;  1.3041968E+00;  0.0000000E+00;  4.2487051E-02;  1.0016085E+03;  1.2926708E-01;  1.2845702E+03;3;  3.1617510E+01;  0.0000000E+00; -6.3232236E+00;0;  1.6741356E-01;  2.4668045E+04;  0.0000000E+00;  3.9947696E+00;  4.0000000E+04;  0.0000000E+00;  3.8890375E+04; -9.1858953E-02;  0.0000000E+00;  2.5927252E-01;  8.7622002E+03;
  1.5860753E+00;  9.9999998E-03;  1.3158572E-01;9414;  1.2991372E+00;  0.0000000E+00;  4.1114334E-02;  1.0011133E+03;  1.2925544E-01;  8.8901611E+02;3;  3.1734818E+01;  0.0000000E+00; -6.1509295E+00;0;  1.5670252E-01;  2.4642781E+04;  0.0000000E+00;  1.8772696E+00;  4.0000000E+04;  0.0000000E+00;  3.8899926E+04; -1.0645904E-01;  0.0000000E+00;  2.6316157E-01;  5.7687690E+03;
  1.5861745E+00;  9.9999998E-03;  1.2159463E-01;9413;  1.2946317E+00;  0.0000000E+00;  3.9229289E-02;  1.0005544E+03;  1.2925074E-01;  4.4262888E+02;3;  3.2007641E+01;  0.0000000E+00; -5.7802968E+00;0;  1.4589319E-01;  2.4610461E+04;  0.0000000E+00;  6.6668880E-01;  4.0000000E+04;  0.0000000E+00;  3.8912828E+04; -1.2185776E-01;  0.0000000E+00;  2.6775095E-01;  3.6940615E+03;
  1.5862169E+00;  9.9999998E-03;  1.1156087E-01;9412;  1.2906803E+00;  0.0000000E+00;  3.6628354E-02;  9.9995996E+02;  1.2924951E-01; -3.1982798E+01;3;  3.2304329E+01;  0.0000000E+00; -5.5253158E+00;0;  1.3521622E-01;  2.4575596E+04;  0.0000000E+00;  4.1283779E-02;  4.0000000E+04;  0.0000000E+00;  3.8925301E+04; -1.3762875E-01;  0.0000000E+00;  2.7284497E-01;  2.2216328E+03;
  1.5861884E+00;  9.9999998E-03;  8.1216514E-02;9409;  1.2819766E+00;  0.0000000E+00;  2.5587315E-02;  9.9853400E+02;  1.2926780E-01; -1.1705782E+03;3;  3.3603458E+01;  0.0000000E+00; -5.4354773E+00;0;  1.0498565E-01;  2.4490979E+04;  0.0000000E+00; -2.9167363E-01;  4.0000000E+04;  0.0000000E+00;  3.8945156E+04; -1.8102080E-01;  0.0000000E+00;  2.8600645E-01;  3.8703452E+02;
  1.5862004E+00;  9.9999998E-03;  7.1055420E-02;9408;  1.2799087E+00;  0.0000000E+00;  2.1739509E-02;  9.9827100E+02;  1.2927476E-01; -1.3806027E+03;3;  3.4087120E+01;  0.0000000E+00; -5.1106920E+00;0;  9.5623657E-02;  2.4476443E+04;  0.0000000E+00; -2.5441879E-01;  4.0000000E+04;  0.0000000E+00;  3.8945227E+04; -1.9262521E-01;  0.0000000E+00;  2.8824887E-01;  3.3307458E+02;
  1.5862012E+00;  9.9999998E-03;  9.1362841E-02;9410;  1.2844143E+00;  0.0000000E+00;  2.9509798E-02;  9.9891321E+02;  1.2925979E-01; -8.6777838E+02;3;  3.3113422E+01;  0.0000000E+00; -5.5774908E+00;0;  1.1472955E-01;  2.4513314E+04;  0.0000000E+00; -3.0239743E-01;  4.0000000E+04;  0.0000000E+00;  3.8942035E+04; -1.6777515E-01;  0.0000000E+00;  2.8250471E-01;  6.1371155E+02;
  1.5862201E+00;  9.9999998E-03;  1.0148162E-01;9411;  1.2872906E+00;  0.0000000E+00;  3.3305854E-02;  9.9939569E+02;  1.2925360E-01; -4.8254919E+02;3;  3.2654617E+01;  0.0000000E+00; -5.5423603E+00;0;  1.2480919E-01;  2.4542174E+04;  0.0000000E+00; -2.2752462E-01;  4.0000000E+04;  0.0000000E+00;  3.8935367E+04; -1.5314777E-01;  0.0000000E+00;  2.7795696E-01;  1.2115510E+03;
  1.5957494E+00;  9.9999998E-03;  2.3351701E-01;9478;  1.3835903E+00;  0.0000000E+00;  5.8164492E-02;  9.9472412E+02;  1.2751074E-01; -4.1904351E+03;3;  3.3374790E+01;  0.0000000E+00; -6.4311609E+00;0;  2.6927137E-01;  2.5050945E+04;  0.0000000E+00;  3.5422543E+01;  4.0000000E+04;  0.0000000E+00;  3.8885785E+04;  4.3748308E-02;  0.0000000E+00;  2.2552305E-01;  5.6087578E+04;
  1.5964954E+00;  9.9999998E-03;  2.2333784E-01;9477;  1.3750820E+00;  0.0000000E+00;  5.7405487E-02;  9.9335223E+02;  1.2746884E-01; -5.2777031E+03;3;  3.4408146E+01;  0.0000000E+00; -5.2936826E+00;0;  2.4709180E-01;  2.5002785E+04;  0.0000000E+00;  4.3914505E+01;  4.0000000E+04;  0.0000000E+00;  3.8893062E+04; -4.1116746E-03;  0.0000000E+00;  2.5120348E-01;  6.6899008E+04;
  1.5970281E+00;  9.9999998E-03;  2.1313730E-01;9476;  1.3651953E+00;  0.0000000E+00;  5.5413365E-02;  9.9378381E+02;  1.2741427E-01; -4.9334771E+03;3;  3.5267876E+01;  0.0000000E+00; -4.4190426E+00;0;  2.1498202E-01;  2.5047520E+04;  0.0000000E+00;  4.9919579E+01;  4.0000000E+04;  0.0000000E+00;  3.8889730E+04; -4.3788627E-02;  0.0000000E+00;  2.5877064E-01;  7.3062414E+04;
  1.5970012E+00;  9.9999998E-03;  1.8215403E-01;9473;  1.3325541E+00;  0.0000000E+00;  4.6142127E-02;  1.0008340E+03;  1.2727383E-01;  6.6190747E+02;3;  3.3831741E+01;  0.0000000E+00; -4.8110862E+00;0;  1.4888313E-01;  2.5417139E+04;  0.0000000E+00;  4.4040852E+01;  4.0000000E+04;  0.0000000E+00;  3.8897965E+04; -1.0112593E-01;  0.0000000E+00;  2.5000906E-01;  5.8945035E+04;
  1.5972565E+00;  9.9999998E-03;  2.0290025E-01;9475;  1.3544805E+00;  0.0000000E+00;  5.2764215E-02;  9.9573999E+02;  1.2735927E-01; -3.3804963E+03;3;  3.5261719E+01;  0.0000000E+00; -4.1074438E+00;0;  1.8577184E-01;  2.5161383E+04;  0.0000000E+00;  5.2960331E+01;  4.0000000E+04;  0.0000000E+00;  3.8883809E+04; -7.2509632E-02;  0.0000000E+00;  2.5828147E-01;  7.4506836E+04;
  1.5971656E+00;  9.9999998E-03;  1.9258028E-01;9474;  1.3434373E+00;  0.0000000E+00;  4.9807701E-02;  9.9849731E+02;  1.2731166E-01; -1.1925168E+03;3;  3.4938339E+01;  0.0000000E+00; -4.0841184E+00;0;  1.6432609E-01;  2.5302047E+04;  0.0000000E+00;  5.1537823E+01;  4.0000000E+04;  0.0000000E+00;  3.8888633E+04; -9.0578601E-02;  0.0000000E+00;  2.5490469E-01;  7.0204359E+04;
  1.5970922E+00;  9.9999998E-03;  1.7175718E-01;9472;  1.3229260E+00;  0.0000000E+00;  4.2625956E-02;  1.0018360E+03;  1.2723908E-01;  1.4570438E+03;3;  3.2880165E+01;  0.0000000E+00; -5.4329405E+00;0;  1.3933098E-01;  2.5484053E+04;  0.0000000E+00;  3.2543274E+01;  4.0000000E+04;  0.0000000E+00;  3.8885281E+04; -1.0758453E-01;  0.0000000E+00;  2.4691550E-01;  4.3669223E+04;
  1.5974636E+00;  9.9999998E-03;  1.6152474E-01;9471;  1.3150102E+00;  0.0000000E+00;  4.0050440E-02;  1.0018640E+03;  1.2720142E-01;  1.4789445E+03;3;  3.2398804E+01;  0.0000000E+00; -5.9582505E+00;0;  1.3272804E-01;  2.5517223E+04;  0.0000000E+00;  2.1550692E+01;  4.0000000E+04;  0.0000000E+00;  3.8855223E+04; -1.1278168E-01;  0.0000000E+00;  2.4550971E-01;  2.9688059E+04;
  1.5979174E+00;  9.9999998E-03;  1.5143877E-01;9470;  1.3084043E+00;  0.0000000E+00;  3.8533110E-02;  1.0015763E+03;  1.2716691E-01;  1.2503639E+03;3;  3.2222263E+01;  0.0000000E+00; -6.0256968E+00;0;  1.2637855E-01;  2.5531992E+04;  0.0000000E+00;  1.3305954E+01;  4.0000000E+04;  0.0000000E+00;  3.8830488E+04; -1.1834297E-01;  0.0000000E+00;  2.4472152E-01;  1.9473025E+04;
  1.5983150E+00;  9.9999998E-03;  1.4142922E-01;9469;  1.3025764E+00;  0.0000000E+00;  3.7386224E-02;  1.0012572E+03;  1.2714107E-01;  9.9698511E+02;3;  3.2424698E+01;  0.0000000E+00; -5.8910651E+00;0;  1.1902474E-01;  2.5532475E+04;  0.0000000E+00;  7.7173347E+00;  4.0000000E+04;  0.0000000E+00;  3.8819922E+04; -1.2515479E-01;  0.0000000E+00;  2.4417953E-01;  1.2683593E+04;
  1.5986079E+00;  9.9999998E-03;  1.3144648E-01;9468;  1.2973547E+00;  0.0000000E+00;  3.6318917E-02;  1.0008948E+03;  1.2712169E-01;  7.0946570E+02;3;  3.2585793E+01;  0.0000000E+00; -5.6954002E+00;0;  1.1085135E-01;  2.5519654E+04;  0.0000000E+00;  4.1039729E+00;  4.0000000E+04;  0.0000000E+00;  3.8822402E+04; -1.3353951E-01;  0.0000000E+00;  2.4439086E-01;  8.2608574E+03;
  1.5987922E+00;  9.9999998E-03;  1.2146392E-01;9467;  1.2926483E+00;  0.0000000E+00;  3.5035465E-02;  1.0004524E+03;  1.2710901E-01;  3.5866196E+02;3;  3.2964058E+01;  0.0000000E+00; -5.2099800E+00;0;  1.0223585E-01;  2.5495971E+04;  0.0000000E+00;  1.8786384E+00;  4.0000000E+04;  0.0000000E+00;  3.8832590E+04; -1.4349078E-01;  0.0000000E+00;  2.4572663E-01;  5.3225562E+03;
  1.5988833E+00;  9.9999998E-03;  1.1146285E-01;9466;  1.2884544E+00;  0.0000000E+00;  3.3251461E-02;  9.9997015E+02;  1.2710576E-01; -2.3673195E+01;3;  3.3341808E+01;  0.0000000E+00; -4.7028794E+00;0;  9.3570203E-02;  2.5464688E+04;  0.0000000E+00;  6.0332519E-01;  4.0000000E+04;  0.0000000E+00;  3.8845855E+04; -1.5468380E-01;  0.0000000E+00;  2.4825400E-01;  3.2887434E+03;
  1.5987718E+00;  9.9999998E-03;  7.1075365E-02;9462;  1.2767830E+00;  0.0000000E+00;  2.0700261E-02;  9.9813672E+02;  1.2713213E-01; -1.4772427E+03;3;  3.5109791E+01;  0.0000000E+00; -4.0365071E+00;0;  6.1643645E-02;  2.5343256E+04;  0.0000000E+00; -3.4506255E-01;  4.0000000E+04;  0.0000000E+00;  3.8881391E+04; -2.0062961E-01;  0.0000000E+00;  2.6227325E-01;  4.6645117E+02;
  1.5989108E+00;  9.9999998E-03;  1.0142210E-01;9465;  1.2847818E+00;  0.0000000E+00;  3.0782694E-02;  9.9944690E+02;  1.2710561E-01; -4.3844281E+02;3;  3.3729816E+01;  0.0000000E+00; -4.4534574E+00;0;  8.5079148E-02;  2.5430559E+04;  0.0000000E+00; -4.6858609E-02;  4.0000000E+04;  0.0000000E+00;  3.8859023E+04; -1.6661187E-01;  0.0000000E+00;  2.5169101E-01;  1.8404414E+03;
  1.5988261E+00;  9.9999998E-03;  8.1219934E-02;9463;  1.2790060E+00;  0.0000000E+00;  2.4251591E-02;  9.9849243E+02;  1.2712012E-01; -1.1951841E+03;3;  3.4630974E+01;  0.0000000E+00; -4.2398677E+00;0;  6.9117486E-02;  2.5367152E+04;  0.0000000E+00; -3.7783509E-01;  4.0000000E+04;  0.0000000E+00;  3.8877414E+04; -1.9012591E-01;  0.0000000E+00;  2.5924340E-01;  3.7278015E+02;
  1.5988834E+00;  9.9999998E-03;  9.1338851E-02;9464;  1.2816466E+00;  0.0000000E+00;  2.7697124E-02;  9.9893921E+02;  1.2711079E-01; -8.4094177E+02;3;  3.4169704E+01;  0.0000000E+00; -4.3316965E+00;0;  7.6922044E-02;  2.5396986E+04;  0.0000000E+00; -3.1591868E-01;  4.0000000E+04;  0.0000000E+00;  3.8869879E+04; -1.7862923E-01;  0.0000000E+00;  2.5555128E-01;  8.4613617E+02;
  1.6073858E+00;  9.9999998E-03;  2.3380826E-01;9531;  1.3834838E+00;  0.0000000E+00;  5.3860955E-02;  9.9637341E+02;  1.2566526E-01; -2.8590911E+03;3;  3.4333790E+01;  0.0000000E+00; -5.3408861E+00;0;  2.1708861E-01;  2.5928094E+04;  0.0000000E+00;  2.9487749E+01;  4.0000000E+04;  0.0000000E+00;  3.8796254E+04; -1.0423228E-02;  0.0000000E+00;  2.2751184E-01;  4.4517559E+04;
  1.6081357E+00;  9.9999998E-03;  2.2364682E-01;9530;  1.3750758E+00;  0.0000000E+00;  5.3013157E-02;  9.9378394E+02;  1.2564558E-01; -4.8980044E+03;3;  3.5358997E+01;  0.0000000E+00; -4.2900257E+00;0;  2.0165585E-01;  2.5809857E+04;  0.0000000E+00;  4.1650997E+01;  4.0000000E+04;  0.0000000E+00;  3.8805914E+04; -5.5752769E-02;  0.0000000E+00;  2.5740862E-01;  5.9758570E+04;
  1.6087620E+00;  9.9999998E-03;  2.1346512E-01;9529;  1.3652494E+00;  0.0000000E+00;  5.0938878E-02;  9.9286481E+02;  1.2561065E-01; -5.6198120E+03;3;  3.6241791E+01;  0.0000000E+00; -3.5406599E+00;0;  1.7186388E-01;  2.5783738E+04;  0.0000000E+00;  5.0367550E+01;  4.0000000E+04;  0.0000000E+00;  3.8805586E+04; -9.4936423E-02;  0.0000000E+00;  2.6680031E-01;  6.9411922E+04;
  1.6091447E+00;  9.9999998E-03;  1.7213447E-01;9525;  1.3225759E+00;  0.0000000E+00;  3.8757041E-02;  1.0006344E+03;  1.2544225E-01;  4.9955472E+02;3;  3.4108795E+01;  0.0000000E+00; -4.6039820E+00;0;  9.3454197E-02;  2.6207096E+04;  0.0000000E+00;  4.5940369E+01;  4.0000000E+04;  0.0000000E+00;  3.8821609E+04; -1.5160131E-01;  0.0000000E+00;  2.4505551E-01;  5.5900211E+04;
  1.6091830E+00;  9.9999998E-03;  2.0325427E-01;9528;  1.3545177E+00;  0.0000000E+00;  4.8196476E-02;  9.9368304E+02;  1.2556617E-01; -4.9738711E+03;3;  3.6411251E+01;  0.0000000E+00; -3.2095294E+00;0;  1.4159390E-01;  2.5844840E+04;  0.0000000E+00;  5.5865364E+01;  4.0000000E+04;  0.0000000E+00;  3.8799656E+04; -1.2414333E-01;  0.0000000E+00;  2.6573724E-01;  7.3970227E+04;
  1.6092174E+00;  9.9999998E-03;  1.8260874E-01;9526;  1.3326089E+00;  0.0000000E+00;  4.2062499E-02;  9.9861121E+02;  1.2547655E-01; -1.0934827E+03;3;  3.5161758E+01;  0.0000000E+00; -3.7535801E+00;0;  1.0273543E-01;  2.6104379E+04;  0.0000000E+00;  5.4946941E+01;  4.0000000E+04;  0.0000000E+00;  3.8811629E+04; -1.4997041E-01;  0.0000000E+00;  2.5270584E-01;  6.7841133E+04;
  1.6093204E+00;  9.9999998E-03;  1.9298677E-01;9527;  1.3434800E+00;  0.0000000E+00;  4.5237254E-02;  9.9586206E+02;  1.2551846E-01; -3.2578254E+03;3;  3.6101440E+01;  0.0000000E+00; -3.2225895E+00;0;  1.1833307E-01;  2.5967125E+04;  0.0000000E+00;  5.7913410E+01;  4.0000000E+04;  0.0000000E+00;  3.8798598E+04; -1.4196396E-01;  0.0000000E+00;  2.6029703E-01;  7.3740648E+04;
  1.6093686E+00;  9.9999998E-03;  1.6172770E-01;9524;  1.3140218E+00;  0.0000000E+00;  3.5776213E-02;  1.0012896E+03;  1.2540632E-01;  1.0152819E+03;3;  3.3389587E+01;  0.0000000E+00; -5.2639952E+00;0;  8.7857634E-02;  2.6262449E+04;  0.0000000E+00;  3.3630428E+01;  4.0000000E+04;  0.0000000E+00;  3.8805699E+04; -1.5084331E-01;  0.0000000E+00;  2.3870094E-01;  4.1176383E+04;
  1.6098537E+00;  9.9999998E-03;  1.5148845E-01;9523;  1.3069782E+00;  0.0000000E+00;  3.3789478E-02;  1.0011570E+03;  1.2537034E-01;  9.1060632E+02;3;  3.3013023E+01;  0.0000000E+00; -5.5537262E+00;0;  8.3407685E-02;  2.6288787E+04;  0.0000000E+00;  2.2327938E+01;  4.0000000E+04;  0.0000000E+00;  3.8776109E+04; -1.5040858E-01;  0.0000000E+00;  2.3381627E-01;  2.8138549E+04;
  1.6103861E+00;  9.9999998E-03;  1.4138009E-01;9522;  1.3009343E+00;  0.0000000E+00;  3.2504700E-02;  1.0008500E+03;  1.2533568E-01;  6.6867499E+02;3;  3.3187031E+01;  0.0000000E+00; -5.4042134E+00;0;  7.8109577E-02;  2.6301697E+04;  0.0000000E+00;  1.3858845E+01;  4.0000000E+04;  0.0000000E+00;  3.8753164E+04; -1.5155809E-01;  0.0000000E+00;  2.2966766E-01;  1.8551219E+04;
  1.6108330E+00;  9.9999998E-03;  1.3134074E-01;9521;  1.2955171E+00;  0.0000000E+00;  3.1443063E-02;  1.0005549E+03;  1.2530781E-01;  4.3642130E+02;3;  3.3485229E+01;  0.0000000E+00; -5.1183515E+00;0;  7.1675405E-02;  2.6303244E+04;  0.0000000E+00;  8.0256643E+00;  4.0000000E+04;  0.0000000E+00;  3.8743473E+04; -1.5472303E-01;  0.0000000E+00;  2.2639844E-01;  1.2035116E+04;
  1.6111552E+00;  9.9999998E-03;  1.2133259E-01;9520;  1.2906286E+00;  0.0000000E+00;  3.0403890E-02;  1.0002498E+03;  1.2528841E-01;  1.9646117E+02;3;  3.3831051E+01;  0.0000000E+00; -4.7036319E+00;0;  6.4550921E-02;  2.6293154E+04;  0.0000000E+00;  4.1965942E+00;  4.0000000E+04;  0.0000000E+00;  3.8745543E+04; -1.5992837E-01;  0.0000000E+00;  2.2447929E-01;  7.7333638E+03;
  1.6113477E+00;  9.9999998E-03;  1.1133265E-01;9519;  1.2862101E+00;  0.0000000E+00;  2.9145278E-02;  9.9988971E+02;  1.2527698E-01; -8.6689537E+01;3;  3.4257076E+01;  0.0000000E+00; -4.1797600E+00;0;  5.7196870E-02;  2.6272146E+04;  0.0000000E+00;  1.8210828E+00;  4.0000000E+04;  0.0000000E+00;  3.8755289E+04; -1.6695790E-01;  0.0000000E+00;  2.2415477E-01;  4.8950923E+03;
  1.6112663E+00;  9.9999998E-03;  7.1062550E-02;9515;  1.2736477E+00;  0.0000000E+00;  1.9305442E-02;  9.9815546E+02;  1.2529382E-01; -1.4501904E+03;3;  3.5997284E+01;  0.0000000E+00; -3.1524467E+00;0;  3.0604795E-02;  2.6147125E+04;  0.0000000E+00; -4.6209347E-01;  4.0000000E+04;  0.0000000E+00;  3.8800188E+04; -2.0357534E-01;  0.0000000E+00;  2.3418014E-01;  3.6039972E+02;
  1.6114274E+00;  9.9999998E-03;  1.0132043E-01;9518;  1.2822918E+00;  0.0000000E+00;  2.7440822E-02;  9.9948938E+02;  1.2527594E-01; -4.0141968E+02;3;  3.4659180E+01;  0.0000000E+00; -3.7341449E+00;0;  4.9982160E-02;  2.6243334E+04;  0.0000000E+00;  4.7231081E-01;  4.0000000E+04;  0.0000000E+00;  3.8768051E+04; -1.7539611E-01;  0.0000000E+00;  2.2537827E-01;  2.9721885E+03;
  1.6113671E+00;  9.9999998E-03;  8.1182435E-02;9516;  1.2760388E+00;  0.0000000E+00;  2.2376224E-02;  9.9857465E+02;  1.2528457E-01; -1.1205284E+03;3;  3.5548931E+01;  0.0000000E+00; -3.2383530E+00;0;  3.6631644E-02;  2.6177492E+04;  0.0000000E+00; -4.3916756E-01;  4.0000000E+04;  0.0000000E+00;  3.8792266E+04; -1.9429821E-01;  0.0000000E+00;  2.3092985E-01;  6.9517993E+02;
  1.6114298E+00;  9.9999998E-03;  9.1270901E-02;9517;  1.2789022E+00;  0.0000000E+00;  2.5168270E-02;  9.9903131E+02;  1.2527734E-01; -7.6151050E+02;3;  3.5093353E+01;  0.0000000E+00; -3.4161680E+00;0;  4.3087736E-02;  2.6210611E+04;  0.0000000E+00; -1.9194491E-01;  4.0000000E+04;  0.0000000E+00;  3.8781016E+04; -1.8471420E-01;  0.0000000E+00;  2.2780193E-01;  1.6206720E+03;
  1.6189572E+00;  9.9999998E-03;  2.3410590E-01;9583;  1.3832141E+00;  0.0000000E+00;  4.9831282E-02;  9.9884045E+02;  1.2407360E-01; -9.0634314E+02;3;  3.5327961E+01;  0.0000000E+00; -4.0633650E+00;0;  1.9146715E-01;  2.6782625E+04;  0.0000000E+00;  1.7405207E+01;  4.0000000E+04;  0.0000000E+00;  3.8702832E+04; -3.5559032E-02;  0.0000000E+00;  2.2702618E-01;  2.6728809E+04;
  1.6196339E+00;  9.9999998E-03;  2.2396596E-01;9582;  1.3748947E+00;  0.0000000E+00;  4.8790507E-02;  9.9556360E+02;  1.2406993E-01; -3.4657458E+03;3;  3.6310986E+01;  0.0000000E+00; -3.3174546E+00;0;  1.7705081E-01;  2.6619844E+04;  0.0000000E+00;  3.3778450E+01;  4.0000000E+04;  0.0000000E+00;  3.8709984E+04; -8.1983879E-02;  0.0000000E+00;  2.5903469E-01;  4.6320723E+04;
  1.6202831E+00;  9.9999998E-03;  2.1380682E-01;9581;  1.3651730E+00;  0.0000000E+00;  4.6679296E-02;  9.9332428E+02;  1.2405628E-01; -5.2124194E+03;3;  3.7200699E+01;  0.0000000E+00; -2.6207917E+00;0;  1.4676934E-01;  2.6519156E+04;  0.0000000E+00;  4.6524715E+01;  4.0000000E+04;  0.0000000E+00;  3.8709641E+04; -1.2408767E-01;  0.0000000E+00;  2.7085701E-01;  6.0307902E+04;
  1.6208100E+00;  9.9999998E-03;  2.0362388E-01;9580;  1.3544911E+00;  0.0000000E+00;  4.3907538E-02;  9.9271924E+02;  1.2402872E-01; -5.6824087E+03;3;  3.7487789E+01;  0.0000000E+00; -2.2583270E+00;0;  1.1309813E-01;  2.6508072E+04;  0.0000000E+00;  5.5511162E+01;  4.0000000E+04;  0.0000000E+00;  3.8703145E+04; -1.5719537E-01;  0.0000000E+00;  2.7029350E-01;  6.8908039E+04;
  1.6211474E+00;  9.9999998E-03;  1.9339886E-01;9579;  1.3434049E+00;  0.0000000E+00;  4.0869366E-02;  9.9374316E+02;  1.2398926E-01; -4.8819043E+03;3;  3.7186600E+01;  0.0000000E+00; -2.2618470E+00;0;  8.4748119E-02;  2.6577639E+04;  0.0000000E+00;  6.0856163E+01;  4.0000000E+04;  0.0000000E+00;  3.8698301E+04; -1.7870218E-01;  0.0000000E+00;  2.6345029E-01;  7.2460570E+04;
  1.6212586E+00;  9.9999998E-03;  1.8309638E-01;9578;  1.3324947E+00;  0.0000000E+00;  3.7808977E-02;  9.9596619E+02;  1.2394705E-01; -3.1471030E+03;3;  3.6425827E+01;  0.0000000E+00; -2.7699842E+00;0;  6.5223008E-02;  2.6698092E+04;  0.0000000E+00;  6.1999699E+01;  4.0000000E+04;  0.0000000E+00;  3.8704270E+04; -1.8855643E-01;  0.0000000E+00;  2.5377944E-01;  7.1060688E+04;
  1.6212083E+00;  9.9999998E-03;  1.7266364E-01;9577;  1.3223735E+00;  0.0000000E+00;  3.5031930E-02;  9.9854285E+02;  1.2390927E-01; -1.1368933E+03;3;  3.5428516E+01;  0.0000000E+00; -3.5790656E+00;0;  5.4798067E-02;  2.6825117E+04;  0.0000000E+00;  5.7932674E+01;  4.0000000E+04;  0.0000000E+00;  3.8724098E+04; -1.8893655E-01;  0.0000000E+00;  2.4373461E-01;  6.4484188E+04;
  1.6212503E+00;  9.9999998E-03;  1.6214989E-01;9576;  1.3133550E+00;  0.0000000E+00;  3.2233845E-02;  1.0002578E+03;  1.2387571E-01;  2.0117119E+02;3;  3.4453289E+01;  0.0000000E+00; -4.3880758E+00;0;  4.8876271E-02;  2.6915438E+04;  0.0000000E+00;  4.8041267E+01;  4.0000000E+04;  0.0000000E+00;  3.8734980E+04; -1.8447512E-01;  0.0000000E+00;  2.3335139E-01;  5.2814227E+04;
  1.6215922E+00;  9.9999998E-03;  1.5172254E-01;9575;  1.3057460E+00;  0.0000000E+00;  2.9806703E-02;  1.0007064E+03;  1.2384204E-01;  5.5090369E+02;3;  3.3898617E+01;  0.0000000E+00; -4.9109931E+00;0;  4.4942304E-02;  2.6961131E+04;  0.0000000E+00;  3.5214569E+01;  4.0000000E+04;  0.0000000E+00;  3.8719422E+04; -1.7917046E-01;  0.0000000E+00;  2.2411276E-01;  3.9024297E+04;
  1.6221609E+00;  9.9999998E-03;  1.4145720E-01;9574;  1.2993301E+00;  0.0000000E+00;  2.8097063E-02;  1.0004855E+03;  1.2380645E-01;  3.7843484E+02;3;  3.3971703E+01;  0.0000000E+00; -4.8305764E+00;0;  4.0934592E-02;  2.6982873E+04;  0.0000000E+00;  2.3522064E+01;  4.0000000E+04;  0.0000000E+00;  3.8691695E+04; -1.7537746E-01;  0.0000000E+00;  2.1631205E-01;  2.6838994E+04;
  1.6227602E+00;  9.9999998E-03;  1.3131839E-01;9573;  1.2936883E+00;  0.0000000E+00;  2.6834797E-02;  1.0001732E+03;  1.2377360E-01;  1.3496855E+02;3;  3.4265289E+01;  0.0000000E+00; -4.5372381E+00;0;  3.5878509E-02;  2.6994902E+04;  0.0000000E+00;  1.4626506E+01;  4.0000000E+04;  0.0000000E+00;  3.8669289E+04; -1.7386054E-01;  0.0000000E+00;  2.0973904E-01;  1.7697689E+04;
  1.6232558E+00;  9.9999998E-03;  1.2125263E-01;9572;  1.2886087E+00;  0.0000000E+00;  2.5762787E-02;  9.9993127E+02;  1.2374833E-01; -5.3528622E+01;3;  3.4636612E+01;  0.0000000E+00; -4.1681337E+00;0;  3.0002058E-02;  2.6998865E+04;  0.0000000E+00;  8.3988285E+00;  4.0000000E+04;  0.0000000E+00;  3.8658891E+04; -1.7466883E-01;  0.0000000E+00;  2.0467089E-01;  1.1364442E+04;
  1.6236027E+00;  9.9999998E-03;  1.1122354E-01;9571;  1.2840171E+00;  0.0000000E+00;  2.4706097E-02;  9.9968640E+02;  1.2372894E-01; -2.4417336E+02;3;  3.5062004E+01;  0.0000000E+00; -3.7337334E+00;0;  2.3764417E-02;  2.6992582E+04;  0.0000000E+00;  4.2708755E+00;  4.0000000E+04;  0.0000000E+00;  3.8659410E+04; -1.7765586E-01;  0.0000000E+00;  2.0142028E-01;  7.1698530E+03;
  1.6237963E+00;  9.9999998E-03;  1.0120752E-01;9570;  1.2799017E+00;  0.0000000E+00;  2.3509547E-02;  9.9940460E+02;  1.2371820E-01; -4.6353336E+02;3;  3.5493397E+01;  0.0000000E+00; -3.2312431E+00;0;  1.7582923E-02;  2.6975982E+04;  0.0000000E+00;  1.7131566E+00;  4.0000000E+04;  0.0000000E+00;  3.8667395E+04; -1.8251063E-01;  0.0000000E+00;  2.0009355E-01;  4.4657900E+03;
  1.6237173E+00;  9.9999998E-03;  7.1031772E-02;9567;  1.2706206E+00;  0.0000000E+00;  1.7526614E-02;  9.9829077E+02;  1.2372877E-01; -1.3307809E+03;3;  3.6689842E+01;  0.0000000E+00; -2.5099101E+00;0;  1.4839023E-03;  2.6888270E+04;  0.0000000E+00; -6.0269058E-01;  4.0000000E+04;  0.0000000E+00;  3.8702078E+04; -2.0355520E-01;  0.0000000E+00;  2.0503910E-01;  6.9028400E+02;
  1.6238574E+00;  9.9999998E-03;  9.1182105E-02;9569;  1.2762866E+00;  0.0000000E+00;  2.1953681E-02;  9.9907825E+02;  1.2371697E-01; -7.1756030E+02;3;  3.5906517E+01;  0.0000000E+00; -2.8030741E+00;0;  1.1736885E-02;  2.6950654E+04;  0.0000000E+00;  2.8269860E-01;  4.0000000E+04;  0.0000000E+00;  3.8679117E+04; -1.8879837E-01;  0.0000000E+00;  2.0053525E-01;  2.7081499E+03;
  1.6238219E+00;  9.9999998E-03;  8.1125371E-02;9568;  1.2731891E+00;  0.0000000E+00;  1.9926932E-02;  9.9869946E+02;  1.2372030E-01; -1.0124754E+03;3;  3.6326893E+01;  0.0000000E+00; -2.5619593E+00;0;  6.3579232E-03;  2.6920182E+04;  0.0000000E+00; -3.9055747E-01;  4.0000000E+04;  0.0000000E+00;  3.8691211E+04; -1.9600061E-01;  0.0000000E+00;  2.0235853E-01;  1.5122018E+03;
  1.6305585E+00;  9.9999998E-03;  2.3439935E-01;9633;  1.3828964E+00;  0.0000000E+00;  4.6132687E-02;  1.0012175E+03;  1.2271046E-01;  9.4222693E+02;3;  3.6541500E+01;  0.0000000E+00; -2.5220428E+00;0;  1.9103515E-01;  2.7566877E+04;  0.0000000E+00;  3.0868502E+00;  4.0000000E+04;  0.0000000E+00;  3.8611977E+04; -3.4978427E-02;  0.0000000E+00;  2.2601359E-01;  7.8408013E+03;
  1.6310952E+00;  9.9999998E-03;  2.2428158E-01;9632;  1.3744781E+00;  0.0000000E+00;  4.4654869E-02;  9.9825128E+02;  1.2271085E-01; -1.3527047E+03;3;  3.7436085E+01;  0.0000000E+00; -1.9817151E+00;0;  1.6873187E-01;  2.7415814E+04;  0.0000000E+00;  1.9101089E+01;  4.0000000E+04;  0.0000000E+00;  3.8613273E+04; -8.6639851E-02;  0.0000000E+00;  2.5537172E-01;  2.7110762E+04;
  1.6316853E+00;  9.9999998E-03;  2.1414608E-01;9631;  1.3648987E+00;  0.0000000E+00;  4.2448156E-02;  9.9522803E+02;  1.2271177E-01; -3.6892319E+03;3;  3.8273132E+01;  0.0000000E+00; -1.4633592E+00;0;  1.3487323E-01;  2.7267229E+04;  0.0000000E+00;  3.6481495E+01;  4.0000000E+04;  0.0000000E+00;  3.8608980E+04; -1.3411708E-01;  0.0000000E+00;  2.6899031E-01;  4.5303832E+04;
  1.6322414E+00;  9.9999998E-03;  2.0399094E-01;9630;  1.3543459E+00;  0.0000000E+00;  3.9727278E-02;  9.9325238E+02;  1.2270337E-01; -5.2139219E+03;3;  3.8615421E+01;  0.0000000E+00; -1.1720407E+00;0;  9.6597821E-02;  2.7180941E+04;  0.0000000E+00;  5.0312607E+01;  4.0000000E+04;  0.0000000E+00;  3.8599004E+04; -1.7386365E-01;  0.0000000E+00;  2.7046147E-01;  5.8564555E+04;
  1.6326972E+00;  9.9999998E-03;  1.9380486E-01;9629;  1.3432534E+00;  0.0000000E+00;  3.6684226E-02;  9.9280566E+02;  1.2268212E-01; -5.5567422E+03;3;  3.8349613E+01;  0.0000000E+00; -1.2219679E+00;0;  6.1245069E-02;  2.7176029E+04;  0.0000000E+00;  5.9791538E+01;  4.0000000E+04;  0.0000000E+00;  3.8589062E+04; -2.0240922E-01;  0.0000000E+00;  2.6365429E-01;  6.6438680E+04;
  1.6330063E+00;  9.9999998E-03;  1.8356280E-01;9628;  1.3322302E+00;  0.0000000E+00;  3.3608243E-02;  9.9383130E+02;  1.2264818E-01; -4.7631914E+03;3;  3.7616112E+01;  0.0000000E+00; -1.8050239E+00;0;  3.4705877E-02;  2.7242406E+04;  0.0000000E+00;  6.4880974E+01;  4.0000000E+04;  0.0000000E+00;  3.8587547E+04; -2.1799111E-01;  0.0000000E+00;  2.5269699E-01;  6.9166922E+04;
  1.6331514E+00;  9.9999998E-03;  1.7322345E-01;9627;  1.3220201E+00;  0.0000000E+00;  3.1003056E-02;  9.9591290E+02;  1.2261032E-01; -3.1554219E+03;3;  3.6641331E+01;  0.0000000E+00; -2.5739334E+00;0;  2.0097256E-02;  2.7352053E+04;  0.0000000E+00;  6.5361664E+01;  4.0000000E+04;  0.0000000E+00;  3.8600996E+04; -2.2104084E-01;  0.0000000E+00;  2.4113810E-01;  6.7154922E+04;
  1.6331997E+00;  9.9999998E-03;  1.6274613E-01;9626;  1.3128601E+00;  0.0000000E+00;  2.8765777E-02;  9.9823541E+02;  1.2257376E-01; -1.3622867E+03;3;  3.5663975E+01;  0.0000000E+00; -3.4026325E+00;0;  1.3206720E-02;  2.7465922E+04;  0.0000000E+00;  6.0612186E+01;  4.0000000E+04;  0.0000000E+00;  3.8626281E+04; -2.1574137E-01;  0.0000000E+00;  2.2894809E-01;  6.0556996E+04;
  1.6333599E+00;  9.9999998E-03;  1.5220264E-01;9625;  1.3048117E+00;  0.0000000E+00;  2.6459493E-02;  9.9972375E+02;  1.2254141E-01; -2.1324915E+02;3;  3.4958939E+01;  0.0000000E+00; -3.9834113E+00;0;  9.0238303E-03;  2.7545734E+04;  0.0000000E+00;  5.0273426E+01;  4.0000000E+04;  0.0000000E+00;  3.8638633E+04; -2.0713791E-01;  0.0000000E+00;  2.1616174E-01;  4.9659562E+04;
  1.6337855E+00;  9.9999998E-03;  1.4174922E-01;9624;  1.2979183E+00;  0.0000000E+00;  2.4377145E-02;  1.0000719E+03;  1.2250968E-01;  5.5463749E+01;3;  3.4828888E+01;  0.0000000E+00; -4.1172876E+00;0;  5.5785179E-03;  2.7585461E+04;  0.0000000E+00;  3.7145683E+01;  4.0000000E+04;  0.0000000E+00;  3.8625238E+04; -1.9895075E-01;  0.0000000E+00;  2.0452927E-01;  3.6991066E+04;
  1.6344141E+00;  9.9999998E-03;  1.3145281E-01;9623;  1.2919397E+00;  0.0000000E+00;  2.2716014E-02;  9.9981927E+02;  1.2247738E-01; -1.3935739E+02;3;  3.5054707E+01;  0.0000000E+00; -3.8926764E+00;0;  1.6168356E-03;  2.7603896E+04;  0.0000000E+00;  2.4998699E+01;  4.0000000E+04;  0.0000000E+00;  3.8599012E+04; -1.9297993E-01;  0.0000000E+00;  1.9459677E-01;  2.5607949E+04;
  1.6350632E+00;  9.9999998E-03;  1.2128491E-01;9622;  1.2866576E+00;  0.0000000E+00;  2.1447182E-02;  9.9950568E+02;  1.2244657E-01; -3.8092618E+02;3;  3.5381767E+01;  0.0000000E+00; -3.6034992E+00;0; -3.0264258E-03;  2.7615412E+04;  0.0000000E+00;  1.5554966E+01;  4.0000000E+04;  0.0000000E+00;  3.8576715E+04; -1.8953192E-01;  0.0000000E+00;  1.8650550E-01;  1.6855168E+04;
  1.6355903E+00;  9.9999998E-03;  1.1119527E-01;9621;  1.2819096E+00;  0.0000000E+00;  2.0387849E-02;  9.9928662E+02;  1.2242077E-01; -5.4949640E+02;3;  3.5781860E+01;  0.0000000E+00; -3.2115376E+00;0; -8.0934763E-03;  2.7622271E+04;  0.0000000E+00;  8.8511667E+00;  4.0000000E+04;  0.0000000E+00;  3.8564719E+04; -1.8850431E-01;  0.0000000E+00;  1.8041083E-01;  1.0692748E+04;
  1.6359514E+00;  9.9999998E-03;  1.0114642E-01;9620;  1.2776426E+00;  0.0000000E+00;  1.9361081E-02;  9.9912878E+02;  1.2240399E-01; -6.7082965E+02;3;  3.6221676E+01;  0.0000000E+00; -2.8264143E+00;0; -1.3215959E-02;  2.7621105E+04;  0.0000000E+00;  4.3801389E+00;  4.0000000E+04;  0.0000000E+00;  3.8562867E+04; -1.8965127E-01;  0.0000000E+00;  1.7643531E-01;  6.6113711E+03;
  1.6361423E+00;  9.9999998E-03;  9.1112874E-02;9619;  1.2738541E+00;  0.0000000E+00;  1.8283360E-02;  9.9895691E+02;  1.2239644E-01; -8.0299158E+02;3;  3.6595432E+01;  0.0000000E+00; -2.4730046E+00;0; -1.8059209E-02;  2.7609963E+04;  0.0000000E+00;  1.6139570E+00;  4.0000000E+04;  0.0000000E+00;  3.8568434E+04; -1.9261959E-01;  0.0000000E+00;  1.7456038E-01;  4.0528882E+03;
  1.6361020E+00;  9.9999998E-03;  7.1006559E-02;9617;  1.2678125E+00;  0.0000000E+00;  1.5287136E-02;  9.9839471E+02;  1.2240063E-01; -1.2358298E+03;3;  3.7399715E+01;  0.0000000E+00; -1.7814074E+00;0; -2.6256070E-02;  2.7562576E+04;  0.0000000E+00; -6.0348392E-01;  4.0000000E+04;  0.0000000E+00;  3.8588910E+04; -2.0223700E-01;  0.0000000E+00;  1.7598093E-01;  1.4858353E+03;
  1.6361793E+00;  9.9999998E-03;  8.1073359E-02;9618;  1.2705740E+00;  0.0000000E+00;  1.6963752E-02;  9.9870941E+02;  1.2239575E-01; -9.9347089E+02;3;  3.7008842E+01;  0.0000000E+00; -2.0699251E+00;0; -2.2426501E-02;  2.7589570E+04;  0.0000000E+00;  8.6060904E-02;  4.0000000E+04;  0.0000000E+00;  3.8577820E+04; -1.9697517E-01;  0.0000000E+00;  1.7454867E-01;  2.4891699E+03;
  1.6421770E+00;  9.9999998E-03;  2.3468427E-01;9681;  1.3823978E+00;  0.0000000E+00;  4.2287458E-02;  1.0028755E+03;  1.2155262E-01;  2.2000808E+03;3;  3.7910549E+01;  0.0000000E+00; -6.3643932E-01;0;  2.0642896E-01;  2.8247408E+04;  0.0000000E+00;  9.3344575E-01;  4.0000000E+04;  0.0000000E+00;  3.8522219E+04; -1.2363550E-02;  0.0000000E+00;  2.1879251E-01;  2.6420908E+03;
  1.6426094E+00;  9.9999998E-03;  2.2458653E-01;9680;  1.3738596E+00;  0.0000000E+00;  4.0521272E-02;  1.0008268E+03;  1.2155095E-01;  6.3234589E+02;3;  3.8784023E+01;  0.0000000E+00; -2.2022492E-01;0;  1.7457744E-01;  2.8144377E+04;  0.0000000E+00;  2.3185914E+00;  4.0000000E+04;  0.0000000E+00;  3.8519398E+04; -7.1408525E-02;  0.0000000E+00;  2.4598597E-01;  7.4475474E+03;
  1.6430780E+00;  9.9999998E-03;  2.1447150E-01;9679;  1.3643997E+00;  0.0000000E+00;  3.8236436E-02;  9.9805927E+02;  1.2155595E-01; -1.4834897E+03;3;  3.9512871E+01;  0.0000000E+00;  6.6182077E-02;0;  1.3474178E-01;  2.8004572E+04;  0.0000000E+00;  1.9278288E+01;  4.0000000E+04;  0.0000000E+00;  3.8510957E+04; -1.2621459E-01;  0.0000000E+00;  2.6095638E-01;  2.5333184E+04;
  1.6435888E+00;  9.9999998E-03;  2.0434104E-01;9678;  1.3539768E+00;  0.0000000E+00;  3.5480842E-02;  9.9526178E+02;  1.2155974E-01; -3.6199148E+03;3;  3.9793438E+01;  0.0000000E+00;  1.4986342E-01;0;  8.9340359E-02;  2.7870266E+04;  0.0000000E+00;  3.7973003E+01;  4.0000000E+04;  0.0000000E+00;  3.8495379E+04; -1.7479932E-01;  0.0000000E+00;  2.6413968E-01;  4.2459453E+04;
  1.6440766E+00;  9.9999998E-03;  1.9418961E-01;9677;  1.3429166E+00;  0.0000000E+00;  3.2392897E-02;  9.9340820E+02;  1.2155503E-01; -5.0333945E+03;3;  3.9527790E+01;  0.0000000E+00; -4.3454409E-02;0;  4.4945791E-02;  2.7791693E+04;  0.0000000E+00;  5.2937706E+01;  4.0000000E+04;  0.0000000E+00;  3.8477305E+04; -2.1316986E-01;  0.0000000E+00;  2.5811565E-01;  5.5075043E+04;
  1.6444930E+00;  9.9999998E-03;  1.8400009E-01;9676;  1.3318188E+00;  0.0000000E+00;  2.9309850E-02;  9.9296185E+02;  1.2153836E-01; -5.3718350E+03;3;  3.8772381E+01;  0.0000000E+00; -7.5779182E-01;0;  9.5369518E-03;  2.7785139E+04;  0.0000000E+00;  6.2902180E+01;  4.0000000E+04;  0.0000000E+00;  3.8464977E+04; -2.3772711E-01;  0.0000000E+00;  2.4726406E-01;  6.2341500E+04;
  1.6448051E+00;  9.9999998E-03;  1.7374159E-01;9675;  1.3214964E+00;  0.0000000E+00;  2.6786260E-02;  9.9385767E+02;  1.2150794E-01; -4.6864980E+03;3;  3.7751701E+01;  0.0000000E+00; -1.5881128E+00;0; -1.1300713E-02;  2.7842250E+04;  0.0000000E+00;  6.7877815E+01;  4.0000000E+04;  0.0000000E+00;  3.8466973E+04; -2.4688137E-01;  0.0000000E+00;  2.3558065E-01;  6.4577543E+04;
  1.6450109E+00;  9.9999998E-03;  1.6337214E-01;9674;  1.3122447E+00;  0.0000000E+00;  2.4827559E-02;  9.9571008E+02;  1.2147415E-01; -3.2724197E+03;3;  3.6730999E+01;  0.0000000E+00; -2.4221697E+00;0; -2.1139443E-02;  2.7937439E+04;  0.0000000E+00;  6.7908630E+01;  4.0000000E+04;  0.0000000E+00;  3.8485965E+04; -2.4409832E-01;  0.0000000E+00;  2.2295888E-01;  6.2338652E+04;
  1.6451712E+00;  9.9999998E-03;  1.5286970E-01;9673;  1.3040303E+00;  0.0000000E+00;  2.3050243E-02;  9.9775305E+02;  1.2144108E-01; -1.7137289E+03;3;  3.5934662E+01;  0.0000000E+00; -3.0921526E+00;0; -2.5726169E-02;  2.8036438E+04;  0.0000000E+00;  6.2696880E+01;  4.0000000E+04;  0.0000000E+00;  3.8513883E+04; -2.3462375E-01;  0.0000000E+00;  2.0889758E-01;  5.6031281E+04;
  1.6454343E+00;  9.9999998E-03;  1.4231285E-01;9672;  1.2967675E+00;  0.0000000E+00;  2.1122379E-02;  9.9905188E+02;  1.2140920E-01; -7.2291583E+02;3;  3.5753735E+01;  0.0000000E+00; -3.2615509E+00;0; -2.8945297E-02;  2.8107207E+04;  0.0000000E+00;  5.2267578E+01;  4.0000000E+04;  0.0000000E+00;  3.8527961E+04; -2.2327481E-01;  0.0000000E+00;  1.9432952E-01;  4.6182367E+04;
  1.6459091E+00;  9.9999998E-03;  1.3183823E-01;9671;  1.2904246E+00;  0.0000000E+00;  1.9262252E-02;  9.9937469E+02;  1.2138073E-01; -4.7653082E+02;3;  3.5802074E+01;  0.0000000E+00; -3.2271080E+00;0; -3.1962976E-02;  2.8143158E+04;  0.0000000E+00;  3.9114349E+01;  4.0000000E+04;  0.0000000E+00;  3.8517867E+04; -2.1308994E-01;  0.0000000E+00;  1.8112697E-01;  3.4795539E+04;
  1.6465536E+00;  9.9999998E-03;  1.2151323E-01;9670;  1.2848603E+00;  0.0000000E+00;  1.7676918E-02;  9.9913495E+02;  1.2135282E-01; -6.5875427E+02;3;  3.6069778E+01;  0.0000000E+00; -2.9793425E+00;0; -3.5401478E-02;  2.8159064E+04;  0.0000000E+00;  2.6620052E+01;  4.0000000E+04;  0.0000000E+00;  3.8494516E+04; -2.0542085E-01;  0.0000000E+00;  1.7001937E-01;  2.4309492E+04;
  1.6472110E+00;  9.9999998E-03;  1.1131675E-01;9669;  1.2799363E+00;  0.0000000E+00;  1.6444579E-02;  9.9883557E+02;  1.2132716E-01; -8.8610577E+02;3;  3.6469975E+01;  0.0000000E+00; -2.6668165E+00;0; -3.9185792E-02;  2.8169551E+04;  0.0000000E+00;  1.6657591E+01;  4.0000000E+04;  0.0000000E+00;  3.8472449E+04; -2.0038624E-01;  0.0000000E+00;  1.6120045E-01;  1.6030816E+04;
  1.6477453E+00;  9.9999998E-03;  1.0120027E-01;9668;  1.2755504E+00;  0.0000000E+00;  1.5458915E-02;  9.9863959E+02;  1.2130420E-01; -1.0346249E+03;3;  3.6881027E+01;  0.0000000E+00; -2.3468049E+00;0; -4.3062776E-02;  2.8177805E+04;  0.0000000E+00;  9.4703150E+00;  4.0000000E+04;  0.0000000E+00;  3.8458770E+04; -1.9775753E-01;  0.0000000E+00;  1.5469475E-01;  1.0092855E+04;
  1.6481028E+00;  9.9999998E-03;  9.1127083E-02;9667;  1.2716460E+00;  0.0000000E+00;  1.4553706E-02;  9.9853723E+02;  1.2128988E-01; -1.1120117E+03;3;  3.7305500E+01;  0.0000000E+00; -1.9786844E+00;0; -4.6785608E-02;  2.8180621E+04;  0.0000000E+00;  4.6396475E+00;  4.0000000E+04;  0.0000000E+00;  3.8454133E+04; -1.9724223E-01;  0.0000000E+00;  1.5045662E-01;  6.1423149E+03;
  1.6482785E+00;  9.9999998E-03;  8.1071801E-02;9666;  1.2682139E+00;  0.0000000E+00;  1.3648600E-02;  9.9844098E+02;  1.2128393E-01; -1.1849572E+03;3;  3.7688152E+01;  0.0000000E+00; -1.6531025E+00;0; -5.0125092E-02;  2.8174676E+04;  0.0000000E+00;  1.6472591E+00;  4.0000000E+04;  0.0000000E+00;  3.8456910E+04; -1.9847639E-01;  0.0000000E+00;  1.4835130E-01;  3.7247939E+03;
  1.6482878E+00;  9.9999998E-03;  7.1012802E-02;9665;  1.2652740E+00;  0.0000000E+00;  1.2560976E-02;  9.9828003E+02;  1.2128429E-01; -1.3072628E+03;3;  3.8071785E+01;  0.0000000E+00; -1.2855942E+00;0; -5.2963316E-02;  2.8159781E+04;  0.0000000E+00;  7.7476637E-03;  4.0000000E+04;  0.0000000E+00;  3.8463828E+04; -2.0103820E-01;  0.0000000E+00;  1.4807488E-01;  2.3524109E+03;
  1.6536173E+00;  9.9999998E-03;  2.3495553E-01;9728;  1.3817431E+00;  0.0000000E+00;  3.7922360E-02;  1.0051369E+03;  1.2056225E-01;  3.8802568E+03;3;  3.9278263E+01;  0.0000000E+00;  1.0976868E+00;0;  2.2910964E-01;  2.8900580E+04;  0.0000000E+00;  2.4848967E+01;  4.0000000E+04;  0.0000000E+00;  3.8429094E+04;  2.9053617E-02;  0.0000000E+00;  2.0005603E-01;  7.1571616E+03;
  1.6541547E+00;  9.9999998E-03;  2.2487928E-01;9727;  1.3729988E+00;  0.0000000E+00;  3.6055222E-02;  1.0026035E+03;  1.2057112E-01;  1.9652930E+03;3;  4.0200424E+01;  0.0000000E+00;  1.7285700E+00;0;  1.8893898E-01;  2.8769508E+04;  0.0000000E+00; -3.9836434E-01;  4.0000000E+04;  0.0000000E+00;  3.8424387E+04; -3.8223732E-02;  0.0000000E+00;  2.2716270E-01;  1.6318051E+03;
  1.6545390E+00;  9.9999998E-03;  2.1478218E-01;9726;  1.3634861E+00;  0.0000000E+00;  3.3497188E-02;  1.0006710E+03;  1.2057285E-01;  5.0631992E+02;3;  4.0874916E+01;  0.0000000E+00;  1.9158540E+00;0;  1.3810042E-01;  2.8673744E+04;  0.0000000E+00;  7.8557700E-01;  4.0000000E+04;  0.0000000E+00;  3.8414562E+04; -1.0242704E-01;  0.0000000E+00;  2.4052745E-01;  6.0654419E+03;
  1.6549459E+00;  9.9999998E-03;  2.0467077E-01;9725;  1.3532156E+00;  0.0000000E+00;  3.0730974E-02;  9.9811554E+02;  1.2057874E-01; -1.4212068E+03;3;  4.1070389E+01;  0.0000000E+00;  1.7463698E+00;0;  8.5457280E-02;  2.8549521E+04;  0.0000000E+00;  1.8243412E+01;  4.0000000E+04;  0.0000000E+00;  3.8395344E+04; -1.6065440E-01;  0.0000000E+00;  2.4611168E-01;  2.2272717E+04;
  1.6553915E+00;  9.9999998E-03;  1.9454542E-01;9724;  1.3422955E+00;  0.0000000E+00;  2.7743338E-02;  9.9550421E+02;  1.2058435E-01; -3.3887722E+03;3;  4.0709637E+01;  0.0000000E+00;  1.2331043E+00;0;  3.3290908E-02;  2.8428598E+04;  0.0000000E+00;  3.8048382E+01;  4.0000000E+04;  0.0000000E+00;  3.8369141E+04; -2.0999697E-01;  0.0000000E+00;  2.4328788E-01;  3.8214020E+04;
  1.6558291E+00;  9.9999998E-03;  1.8439670E-01;9723;  1.3312036E+00;  0.0000000E+00;  2.4725525E-02;  9.9372040E+02;  1.2058219E-01; -4.7308022E+03;3;  3.9879684E+01;  0.0000000E+00;  3.5377127E-01;0; -1.1520028E-02;  2.8355162E+04;  0.0000000E+00;  5.3942856E+01;  4.0000000E+04;  0.0000000E+00;  3.8344117E+04; -2.4596193E-01;  0.0000000E+00;  2.3444191E-01;  5.0022695E+04;
  1.6562215E+00;  9.9999998E-03;  1.7420241E-01;9722;  1.3208289E+00;  0.0000000E+00;  2.2303002E-02;  9.9320953E+02;  1.2056836E-01; -5.1132153E+03;3;  3.8753265E+01;  0.0000000E+00; -6.0536844E-01;0; -3.9713055E-02;  2.8344777E+04;  0.0000000E+00;  6.4322220E+01;  4.0000000E+04;  0.0000000E+00;  3.8329914E+04; -2.6415595E-01;  0.0000000E+00;  2.2444290E-01;  5.6724215E+04;
  1.6565497E+00;  9.9999998E-03;  1.6392893E-01;9721;  1.3114870E+00;  0.0000000E+00;  2.0522760E-02;  9.9393445E+02;  1.2054384E-01; -4.5655146E+03;3;  3.7690353E+01;  0.0000000E+00; -1.5012093E+00;0; -5.4025441E-02;  2.8389902E+04;  0.0000000E+00;  6.9230820E+01;  4.0000000E+04;  0.0000000E+00;  3.8334031E+04; -2.6705807E-01;  0.0000000E+00;  2.1303263E-01;  5.8639836E+04;
  1.6568220E+00;  9.9999998E-03;  1.5353973E-01;9720;  1.3031844E+00;  0.0000000E+00;  1.9140309E-02;  9.9548431E+02;  1.2051284E-01; -3.3978147E+03;3;  3.6914860E+01;  0.0000000E+00; -2.1388230E+00;0; -6.0140520E-02;  2.8467455E+04;  0.0000000E+00;  6.8996086E+01;  4.0000000E+04;  0.0000000E+00;  3.8356395E+04; -2.5972074E-01;  0.0000000E+00;  1.9958022E-01;  5.6452117E+04;
  1.6570858E+00;  9.9999998E-03;  1.4303379E-01;9719;  1.2957770E+00;  0.0000000E+00;  1.7727859E-02;  9.9718658E+02;  1.2048406E-01; -2.1162332E+03;3;  3.6557560E+01;  0.0000000E+00; -2.3927574E+00;0; -6.3176736E-02;  2.8549125E+04;  0.0000000E+00;  6.3582138E+01;  4.0000000E+04;  0.0000000E+00;  3.8384500E+04; -2.4745356E-01;  0.0000000E+00;  1.8427682E-01;  5.0689727E+04;
  1.6574235E+00;  9.9999998E-03;  1.3248593E-01;9718;  1.2891548E+00;  0.0000000E+00;  1.6096596E-02;  9.9834125E+02;  1.2045749E-01; -1.2471764E+03;3;  3.6495586E+01;  0.0000000E+00; -2.5369654E+00;0; -6.5546528E-02;  2.8610893E+04;  0.0000000E+00;  5.3429054E+01;  4.0000000E+04;  0.0000000E+00;  3.8399109E+04; -2.3435065E-01;  0.0000000E+00;  1.6880412E-01;  4.2077008E+04;
  1.6578965E+00;  9.9999998E-03;  1.2200275E-01;9717;  1.2833141E+00;  0.0000000E+00;  1.4465812E-02;  9.9870038E+02;  1.2043195E-01; -9.7658582E+02;3;  3.6760147E+01;  0.0000000E+00; -2.3123782E+00;0; -6.7743644E-02;  2.8645641E+04;  0.0000000E+00;  4.0726048E+01;  4.0000000E+04;  0.0000000E+00;  3.8392793E+04; -2.2274813E-01;  0.0000000E+00;  1.5500449E-01;  3.2199480E+04;
  1.6584935E+00;  9.9999998E-03;  1.1165025E-01;9716;  1.2781706E+00;  0.0000000E+00;  1.3060421E-02;  9.9852246E+02;  1.2040965E-01; -1.1094514E+03;3;  3.7099388E+01;  0.0000000E+00; -2.1126699E+00;0; -7.0077956E-02;  2.8660182E+04;  0.0000000E+00;  2.8267324E+01;  4.0000000E+04;  0.0000000E+00;  3.8373703E+04; -2.1371432E-01;  0.0000000E+00;  1.4363636E-01;  2.2850230E+04;
  1.6591094E+00;  9.9999998E-03;  1.0142007E-01;9715;  1.2736391E+00;  0.0000000E+00;  1.1969811E-02;  9.9821674E+02;  1.2038921E-01; -1.3379641E+03;3;  3.7490669E+01;  0.0000000E+00; -1.8176925E+00;0; -7.2535560E-02;  2.8667154E+04;  0.0000000E+00;  1.7971928E+01;  4.0000000E+04;  0.0000000E+00;  3.8352973E+04; -2.0731576E-01;  0.0000000E+00;  1.3478020E-01;  1.5216649E+04;
  1.6596224E+00;  9.9999998E-03;  9.1271318E-02;9714;  1.2696185E+00;  0.0000000E+00;  1.1093297E-02;  9.9798804E+02;  1.2037078E-01; -1.5085762E+03;3;  3.7898880E+01;  0.0000000E+00; -1.5361603E+00;0; -7.4992776E-02;  2.8673256E+04;  0.0000000E+00;  1.0369944E+01;  4.0000000E+04;  0.0000000E+00;  3.8338277E+04; -2.0330721E-01;  0.0000000E+00;  1.2831444E-01;  9.6076367E+03;
  1.6599717E+00;  9.9999998E-03;  8.1168510E-02;9713;  1.2660855E+00;  0.0000000E+00;  1.0353870E-02;  9.9788318E+02;  1.2035955E-01; -1.5864829E+03;3;  3.8276470E+01;  0.0000000E+00; -1.2869792E+00;0; -7.7210553E-02;  2.8676520E+04;  0.0000000E+00;  5.2042990E+00;  4.0000000E+04;  0.0000000E+00;  3.8331355E+04; -2.0132230E-01;  0.0000000E+00;  1.2411175E-01;  5.8375210E+03;
  1.6601393E+00;  9.9999998E-03;  7.1085207E-02;9712;  1.2630162E+00;  0.0000000E+00;  9.6023399E-03;  9.9781848E+02;  1.2035391E-01; -1.6346464E+03;3;  3.8659393E+01;  0.0000000E+00; -9.7363073E-01;0; -7.9074092E-02;  2.8674227E+04;  0.0000000E+00;  1.9960191E+00;  4.0000000E+04;  0.0000000E+00;  3.8330914E+04; -2.0099796E-01;  0.0000000E+00;  1.2192387E-01;  3.5613809E+03;
  1.6655352E+00;  9.9999998E-03;  2.2515033E-01;9773;  1.3719667E+00;  0.0000000E+00;  3.1082598E-02;  1.0049493E+03;  1.1973476E-01;  3.6823535E+03;3;  4.1480965E+01;  0.0000000E+00;  3.3744063E+00;0;  2.0708245E-01;  2.9371150E+04;  0.0000000E+00;  2.7101677E+01;  4.0000000E+04;  0.0000000E+00;  3.8328465E+04;  1.0464730E-02;  0.0000000E+00;  1.9661772E-01;  7.8680146E+03;
  1.6660273E+00;  9.9999998E-03;  2.1507640E-01;9772;  1.3622779E+00;  0.0000000E+00;  2.8252603E-02;  1.0024695E+03;  1.1974665E-01;  1.8361373E+03;3;  4.2191425E+01;  0.0000000E+00;  3.6754372E+00;0;  1.4430547E-01;  2.9244605E+04;  0.0000000E+00; -9.7377986E-01;  4.0000000E+04;  0.0000000E+00;  3.8315328E+04; -6.3290365E-02;  0.0000000E+00;  2.0759584E-01;  1.5178959E+03;
  1.6663743E+00;  9.9999998E-03;  2.0497991E-01;9771;  1.3520442E+00;  0.0000000E+00;  2.5387900E-02;  1.0006705E+03;  1.1974981E-01;  4.9824078E+02;3;  4.2388550E+01;  0.0000000E+00;  3.4287601E+00;0;  8.2441285E-02;  2.9159430E+04;  0.0000000E+00; -1.2465444E+00;  4.0000000E+04;  0.0000000E+00;  3.8297062E+04; -1.3175093E-01;  0.0000000E+00;  2.1419221E-01;  4.2112593E+03;
  1.6667327E+00;  9.9999998E-03;  1.9486935E-01;9770;  1.3412840E+00;  0.0000000E+00;  2.2522490E-02;  9.9836823E+02;  1.1975574E-01; -1.2120963E+03;3;  4.1920376E+01;  0.0000000E+00;  2.6242423E+00;0;  2.3182228E-02;  2.9052707E+04;  0.0000000E+00;  1.5749829E+01;  4.0000000E+04;  0.0000000E+00;  3.8268746E+04; -1.9226919E-01;  0.0000000E+00;  2.1545142E-01;  1.8213938E+04;
  1.6671271E+00;  9.9999998E-03;  1.8474410E-01;9769;  1.3302951E+00;  0.0000000E+00;  1.9678520E-02;  9.9597644E+02;  1.1976238E-01; -2.9870728E+03;3;  4.0983727E+01;  0.0000000E+00;  1.5518950E+00;0; -2.9836223E-02;  2.8946863E+04;  0.0000000E+00;  3.5947613E+01;  4.0000000E+04;  0.0000000E+00;  3.8234289E+04; -2.4060296E-01;  0.0000000E+00;  2.1076673E-01;  3.2544877E+04;
  1.6675268E+00;  9.9999998E-03;  1.7459269E-01;9768;  1.3199399E+00;  0.0000000E+00;  1.7416781E-02;  9.9427594E+02;  1.1976159E-01; -4.2471943E+03;3;  3.9723442E+01;  0.0000000E+00;  3.7755585E-01;0; -6.5557450E-02;  2.8879109E+04;  0.0000000E+00;  5.2288765E+01;  4.0000000E+04;  0.0000000E+00;  3.8203453E+04; -2.7003518E-01;  0.0000000E+00;  2.0447773E-01;  4.3262855E+04;
  1.6679071E+00;  9.9999998E-03;  1.6439016E-01;9767;  1.3105688E+00;  0.0000000E+00;  1.5829980E-02;  9.9368176E+02;  1.1975108E-01; -4.6855737E+03;3;  3.8561111E+01;  0.0000000E+00; -5.8693898E-01;0; -8.5090265E-02;  2.8863549E+04;  0.0000000E+00;  6.2856888E+01;  4.0000000E+04;  0.0000000E+00;  3.8187414E+04; -2.8137285E-01;  0.0000000E+00;  1.9628258E-01;  4.9328715E+04;
  1.6682559E+00;  9.9999998E-03;  1.5410531E-01;9766;  1.3021903E+00;  0.0000000E+00;  1.4711475E-02;  9.9415778E+02;  1.1973241E-01; -4.3304736E+03;3;  3.7698277E+01;  0.0000000E+00; -1.2917871E+00;0; -9.4090328E-02;  2.8894381E+04;  0.0000000E+00;  6.7794601E+01;  4.0000000E+04;  0.0000000E+00;  3.8191527E+04; -2.7927959E-01;  0.0000000E+00;  1.8518926E-01;  5.1088457E+04;
  1.6685791E+00;  9.9999998E-03;  1.4371389E-01;9765;  1.2947121E+00;  0.0000000E+00;  1.3741517E-02;  9.9535718E+02;  1.1970707E-01; -3.4399087E+03;3;  3.7243164E+01;  0.0000000E+00; -1.6565648E+00;0; -9.7728983E-02;  2.8953578E+04;  0.0000000E+00;  6.7598442E+01;  4.0000000E+04;  0.0000000E+00;  3.8212137E+04; -2.6898080E-01;  0.0000000E+00;  1.7125182E-01;  4.9230930E+04;
  1.6689039E+00;  9.9999998E-03;  1.3322553E-01;9764;  1.2879845E+00;  0.0000000E+00;  1.2623070E-02;  9.9671246E+02;  1.1968134E-01; -2.4346614E+03;3;  3.7307995E+01;  0.0000000E+00; -1.6599188E+00;0; -9.9567339E-02;  2.9018945E+04;  0.0000000E+00;  6.2522060E+01;  4.0000000E+04;  0.0000000E+00;  3.8237203E+04; -2.5522104E-01;  0.0000000E+00;  1.5565370E-01;  4.4368398E+04;
  1.6692733E+00;  9.9999998E-03;  1.2269942E-01;9763;  1.2819785E+00;  0.0000000E+00;  1.1367697E-02;  9.9771283E+02;  1.1965851E-01; -1.6929160E+03;3;  3.7414101E+01;  0.0000000E+00; -1.6628056E+00;0; -1.0057299E-01;  2.9072000E+04;  0.0000000E+00;  5.3237095E+01;  4.0000000E+04;  0.0000000E+00;  3.8251723E+04; -2.4105835E-01;  0.0000000E+00;  1.4048536E-01;  3.7246895E+04;
  1.6697130E+00;  9.9999998E-03;  1.1221660E-01;9762;  1.2766454E+00;  0.0000000E+00;  1.0074971E-02;  9.9810828E+02;  1.1963650E-01; -1.3993671E+03;3;  3.7714748E+01;  0.0000000E+00; -1.5202488E+00;0; -1.0143895E-01;  2.9104900E+04;  0.0000000E+00;  4.1538219E+01;  4.0000000E+04;  0.0000000E+00;  3.8249945E+04; -2.2854690E-01;  0.0000000E+00;  1.2710795E-01;  2.9054930E+04;
  1.6702355E+00;  9.9999998E-03;  1.0183999E-01;9761;  1.2719396E+00;  0.0000000E+00;  8.9497725E-03;  9.9803760E+02;  1.1962519E-01; -1.4505868E+03;3;  3.8058346E+01;  0.0000000E+00; -1.3394687E+00;0; -1.0232539E-01;  2.9117326E+04;  0.0000000E+00;  2.9607962E+01;  4.0000000E+04;  0.0000000E+00;  3.8235082E+04; -2.1853733E-01;  0.0000000E+00;  1.1621194E-01;  2.1052174E+04;
  1.6707598E+00;  9.9999998E-03;  9.1569714E-02;9760;  1.2677932E+00;  0.0000000E+00;  8.0535859E-03;  9.9770508E+02;  1.1960618E-01; -1.6950819E+03;3;  3.8431198E+01;  0.0000000E+00; -1.1462901E+00;0; -1.0326754E-01;  2.9121004E+04;  0.0000000E+00;  1.9384007E+01;  4.0000000E+04;  0.0000000E+00;  3.8216762E+04; -2.1109377E-01;  0.0000000E+00;  1.0782623E-01;  1.4304631E+04;
  1.6712261E+00;  9.9999998E-03;  8.1376374E-02;9759;  1.2641605E+00;  0.0000000E+00;  7.3637967E-03;  9.9740558E+02;  1.1959438E-01; -1.9150353E+03;3;  3.8812187E+01;  0.0000000E+00; -9.0336949E-01;0; -1.0420158E-01;  2.9120807E+04;  0.0000000E+00;  1.1586420E+01;  4.0000000E+04;  0.0000000E+00;  3.8202004E+04; -2.0594142E-01;  0.0000000E+00;  1.0173985E-01;  9.1902480E+03;
  1.6715624E+00;  9.9999998E-03;  7.1227647E-02;9758;  1.2609901E+00;  0.0000000E+00;  6.7769312E-03;  9.9724091E+02;  1.1958767E-01; -2.0356151E+03;3;  3.9171707E+01;  0.0000000E+00; -6.8698901E-01;0; -1.0501942E-01;  2.9119938E+04;  0.0000000E+00;  6.1937881E+00;  4.0000000E+04;  0.0000000E+00;  3.8193648E+04; -2.0273399E-01;  0.0000000E+00;  9.7714573E-02;  5.6850205E+03;
  1.6773497E+00;  9.9999998E-03;  2.1534054E-01;9816;  1.3610501E+00;  0.0000000E+00;  2.2731435E-02;  1.0049312E+03;  1.1904271E-01;  3.6071787E+03;3;  4.3227436E+01;  0.0000000E+00;  5.0549493E+00;0;  1.5611567E-01;  2.9802336E+04;  0.0000000E+00;  3.1327278E+01;  4.0000000E+04;  0.0000000E+00;  3.8216551E+04; -9.1444962E-03;  0.0000000E+00;  1.6526017E-01;  9.1745361E+03;
  1.6778132E+00;  9.9999998E-03;  2.0526895E-01;9815;  1.3505708E+00;  0.0000000E+00;  1.9368442E-02;  1.0024221E+03;  1.1905276E-01;  1.7705115E+03;3;  4.3471058E+01;  0.0000000E+00;  4.7901287E+00;0;  7.7812016E-02;  2.9679742E+04;  0.0000000E+00; -2.8136176E-01;  4.0000000E+04;  0.0000000E+00;  3.8192992E+04; -8.8959694E-02;  0.0000000E+00;  1.6677171E-01;  1.8488083E+03;
  1.6781394E+00;  9.9999998E-03;  1.9516915E-01;9814;  1.3398809E+00;  0.0000000E+00;  1.6596820E-02;  1.0007909E+03;  1.1906074E-01;  5.7779883E+02;3;  4.2983997E+01;  0.0000000E+00;  3.8474979E+00;0;  1.1644155E-02;  2.9605266E+04;  0.0000000E+00; -3.6727405E+00;  4.0000000E+04;  0.0000000E+00;  3.8168070E+04; -1.6016775E-01;  0.0000000E+00;  1.7181191E-01;  2.2645784E+03;
  1.6784613E+00;  9.9999998E-03;  1.8505077E-01;9813;  1.3290744E+00;  0.0000000E+00;  1.4063767E-02;  9.9882251E+02;  1.1906488E-01; -8.5987238E+02;3;  4.1978294E+01;  0.0000000E+00;  2.6254549E+00;0; -4.6598017E-02;  2.9519895E+04;  0.0000000E+00;  1.1366296E+01;  4.0000000E+04;  0.0000000E+00;  3.8134480E+04; -2.2001337E-01;  0.0000000E+00;  1.7341535E-01;  1.3295603E+04;
  1.6788173E+00;  9.9999998E-03;  1.7491637E-01;9812;  1.3187870E+00;  0.0000000E+00;  1.2032774E-02;  9.9671326E+02;  1.1906882E-01; -2.3988428E+03;3;  4.0565857E+01;  0.0000000E+00;  1.3403816E+00;0; -8.9046478E-02;  2.9431900E+04;  0.0000000E+00;  3.0777332E+01;  4.0000000E+04;  0.0000000E+00;  3.8094875E+04; -2.6164672E-01;  0.0000000E+00;  1.7260024E-01;  2.5486904E+04;
  1.6791915E+00;  9.9999998E-03;  1.6475472E-01;9811;  1.3094186E+00;  0.0000000E+00;  1.0635167E-02;  9.9511340E+02;  1.1907052E-01; -3.5644480E+03;3;  3.9223076E+01;  0.0000000E+00;  1.7194051E-01;0; -1.1436357E-01;  2.9369959E+04;  0.0000000E+00;  4.6857616E+01;  4.0000000E+04;  0.0000000E+00;  3.8060074E+04; -2.8366506E-01;  0.0000000E+00;  1.6930149E-01;  3.4802871E+04;
  1.6795626E+00;  9.9999998E-03;  1.5454313E-01;9810;  1.3010317E+00;  0.0000000E+00;  9.7554782E-03;  9.9441107E+02;  1.1906427E-01; -4.0744502E+03;3;  3.8429398E+01;  0.0000000E+00; -4.6693334E-01;0; -1.2702553E-01;  2.9349326E+04;  0.0000000E+00;  5.7438999E+01;  4.0000000E+04;  0.0000000E+00;  3.8040176E+04; -2.8952906E-01;  0.0000000E+00;  1.6250353E-01;  4.0229070E+04;
  1.6799206E+00;  9.9999998E-03;  1.4425509E-01;9809;  1.2935055E+00;  0.0000000E+00;  9.1232574E-03;  9.9460626E+02;  1.1904892E-01; -3.9299563E+03;3;  3.8006737E+01;  0.0000000E+00; -8.5100722E-01;0; -1.3245670E-01;  2.9366799E+04;  0.0000000E+00;  6.2629982E+01;  4.0000000E+04;  0.0000000E+00;  3.8040098E+04; -2.8437513E-01;  0.0000000E+00;  1.5191843E-01;  4.2031980E+04;
  1.6802694E+00;  9.9999998E-03;  1.3387457E-01;9808;  1.2867537E+00;  0.0000000E+00;  8.5315173E-03;  9.9543030E+02;  1.1902995E-01; -3.3277437E+03;3;  3.7897602E+01;  0.0000000E+00; -9.8090088E-01;0; -1.3409546E-01;  2.9407906E+04;  0.0000000E+00;  6.2927223E+01;  4.0000000E+04;  0.0000000E+00;  3.8055215E+04; -2.7272210E-01;  0.0000000E+00;  1.3862664E-01;  4.0788777E+04;
  1.6806191E+00;  9.9999998E-03;  1.2341029E-01;9807;  1.2806885E+00;  0.0000000E+00;  7.8195063E-03;  9.9644116E+02;  1.1900757E-01; -2.5901755E+03;3;  3.8027130E+01;  0.0000000E+00; -9.8832053E-01;0; -1.3416594E-01;  2.9457607E+04;  0.0000000E+00;  5.8856701E+01;  4.0000000E+04;  0.0000000E+00;  3.8075605E+04; -2.5834590E-01;  0.0000000E+00;  1.2417995E-01;  3.7125559E+04;
  1.6809899E+00;  9.9999998E-03;  1.1290934E-01;9806;  1.2752652E+00;  0.0000000E+00;  6.9925017E-03;  9.9724750E+02;  1.1898915E-01; -2.0021464E+03;3;  3.8236382E+01;  0.0000000E+00; -9.7780937E-01;0; -1.3359807E-01;  2.9499971E+04;  0.0000000E+00;  5.1026154E+01;  4.0000000E+04;  0.0000000E+00;  3.8089098E+04; -2.4390331E-01;  0.0000000E+00;  1.1030523E-01;  3.1643604E+04;
  1.6813937E+00;  9.9999998E-03;  1.0243797E-01;9805;  1.2704387E+00;  0.0000000E+00;  6.1195605E-03;  9.9761432E+02;  1.1897331E-01; -1.7342291E+03;3;  3.8577278E+01;  0.0000000E+00; -8.4317088E-01;0; -1.3294807E-01;  2.9527121E+04;  0.0000000E+00;  4.0780842E+01;  4.0000000E+04;  0.0000000E+00;  3.8089191E+04; -2.3108158E-01;  0.0000000E+00;  9.8133512E-02;  2.5174906E+04;
  1.6818231E+00;  9.9999998E-03;  9.2043199E-02;9804;  1.2661817E+00;  0.0000000E+00;  5.3441897E-03;  9.9757953E+02;  1.1896282E-01; -1.7583392E+03;3;  3.8930946E+01;  0.0000000E+00; -7.0209420E-01;0; -1.3228206E-01;  2.9538711E+04;  0.0000000E+00;  3.0016644E+01;  4.0000000E+04;  0.0000000E+00;  3.8078293E+04; -2.2054775E-01;  0.0000000E+00;  8.8265687E-02;  1.8707887E+04;
  1.6822501E+00;  9.9999998E-03;  8.1715479E-02;9803;  1.2624354E+00;  0.0000000E+00;  4.7322325E-03;  9.9731793E+02;  1.1895382E-01; -1.9470603E+03;3;  3.9290363E+01;  0.0000000E+00; -5.4165202E-01;0; -1.3171729E-01;  2.9538844E+04;  0.0000000E+00;  2.0512083E+01;  4.0000000E+04;  0.0000000E+00;  3.8064500E+04; -2.1241683E-01;  0.0000000E+00;  8.0699541E-02;  1.3103092E+04;
  1.6826377E+00;  9.9999998E-03;  7.1429722E-02;9802;  1.2591560E+00;  0.0000000E+00;  4.2445529E-03;  9.9701074E+02;  1.1894733E-01; -2.1686917E+03;3;  3.9635330E+01;  0.0000000E+00; -3.8371646E-01;0; -1.3129242E-01;  2.9532971E+04;  0.0000000E+00;  1.3077910E+01;  4.0000000E+04;  0.0000000E+00;  3.8053406E+04; -2.0646033E-01;  0.0000000E+00;  7.5167909E-02;  8.7310811E+03;
  1.6890725E+00;  9.9999998E-03;  2.0551716E-01;9857;  1.3494503E+00;  0.0000000E+00;  1.3715149E-02;  1.0051031E+03;  1.1846247E-01;  3.6634009E+03;3;  4.4186657E+01;  0.0000000E+00;  5.8232198E+00;0;  8.8918284E-02;  3.0203818E+04;  0.0000000E+00;  3.8536934E+01;  4.0000000E+04;  0.0000000E+00;  3.8093090E+04; -2.8411318E-02;  0.0000000E+00;  1.1732960E-01;  1.1133284E+04;
  1.6895280E+00;  9.9999998E-03;  1.9544666E-01;9856;  1.3385137E+00;  0.0000000E+00;  1.0469791E-02;  1.0025023E+03;  1.1847763E-01;  1.7949727E+03;3;  4.3741104E+01;  0.0000000E+00;  4.6455212E+00;0;  6.1366707E-03;  3.0080893E+04;  0.0000000E+00;  2.6892552E+00;  4.0000000E+04;  0.0000000E+00;  3.8057516E+04; -1.1144443E-01;  0.0000000E+00;  1.1758110E-01;  2.1221438E+03;
  1.6898475E+00;  9.9999998E-03;  1.8533532E-01;9855;  1.3277118E+00;  0.0000000E+00;  8.0198832E-03;  1.0010141E+03;  1.1848192E-01;  7.2705225E+02;3;  4.2697083E+01;  0.0000000E+00;  3.5395453E+00;0; -6.0144238E-02;  3.0017848E+04;  0.0000000E+00; -5.8641396E+00;  4.0000000E+04;  0.0000000E+00;  3.8029145E+04; -1.8271315E-01;  0.0000000E+00;  1.2256891E-01;  1.5935483E+03;
  1.6901529E+00;  9.9999998E-03;  1.7520016E-01;9854;  1.3174399E+00;  0.0000000E+00;  6.1003622E-03;  9.9939648E+02;  1.1848547E-01; -4.3244263E+02;3;  4.1268665E+01;  0.0000000E+00;  2.2308333E+00;0; -1.1033107E-01;  2.9951879E+04;  0.0000000E+00;  4.8887491E+00;  4.0000000E+04;  0.0000000E+00;  3.7994039E+04; -2.3680703E-01;  0.0000000E+00;  1.2647596E-01;  7.8292866E+03;
  1.6904825E+00;  9.9999998E-03;  1.6504726E-01;9853;  1.3081090E+00;  0.0000000E+00;  4.9268021E-03;  9.9763776E+02;  1.1848860E-01; -1.6917457E+03;3;  3.9890911E+01;  0.0000000E+00;  9.8518753E-01;0; -1.4095747E-01;  2.9883219E+04;  0.0000000E+00;  2.1908068E+01;  4.0000000E+04;  0.0000000E+00;  3.7952906E+04; -2.7043104E-01;  0.0000000E+00;  1.2947357E-01;  1.7360273E+04;
  1.6908324E+00;  9.9999998E-03;  1.5486699E-01;9852;  1.2997351E+00;  0.0000000E+00;  4.3460499E-03;  9.9620697E+02;  1.1848907E-01; -2.7147629E+03;3;  3.8939804E+01;  0.0000000E+00;  1.6509128E-01;0; -1.5721695E-01;  2.9831287E+04;  0.0000000E+00;  3.7219471E+01;  4.0000000E+04;  0.0000000E+00;  3.7916020E+04; -2.8637648E-01;  0.0000000E+00;  1.2915953E-01;  2.5209779E+04;
  1.6911898E+00;  9.9999998E-03;  1.4464180E-01;9851;  1.2921995E+00;  0.0000000E+00;  4.0531899E-03;  9.9543005E+02;  1.1848583E-01; -3.2688401E+03;3;  3.8580288E+01;  0.0000000E+00; -1.5272668E-01;0; -1.6520038E-01;  2.9807645E+04;  0.0000000E+00;  4.7876156E+01;  4.0000000E+04;  0.0000000E+00;  3.7892297E+04; -2.8922564E-01;  0.0000000E+00;  1.2402526E-01;  3.0127762E+04;
  1.6915452E+00;  9.9999998E-03;  1.3434954E-01;9850;  1.2854221E+00;  0.0000000E+00;  3.8739659E-03;  9.9534906E+02;  1.1847465E-01; -3.3247441E+03;3;  3.8495518E+01;  0.0000000E+00; -2.6914558E-01;0; -1.6806336E-01;  2.9812641E+04;  0.0000000E+00;  5.3645969E+01;  4.0000000E+04;  0.0000000E+00;  3.7886449E+04; -2.8299868E-01;  0.0000000E+00;  1.1493532E-01;  3.2156666E+04;
  1.6918993E+00;  9.9999998E-03;  1.2397779E-01;9849;  1.2793490E+00;  0.0000000E+00;  3.7017663E-03;  9.9579480E+02;  1.1846095E-01; -3.0042803E+03;3;  3.8546127E+01;  0.0000000E+00; -3.4053731E-01;0; -1.6781412E-01;  2.9836736E+04;  0.0000000E+00;  5.4946144E+01;  4.0000000E+04;  0.0000000E+00;  3.7894629E+04; -2.7128479E-01;  0.0000000E+00;  1.0347067E-01;  3.1714482E+04;
  1.6922550E+00;  9.9999998E-03;  1.1353808E-01;9848;  1.2738831E+00;  0.0000000E+00;  3.4085729E-03;  9.9641754E+02;  1.1844548E-01; -2.5578018E+03;3;  3.8803215E+01;  0.0000000E+00; -3.0373853E-01;0; -1.6645326E-01;  2.9867846E+04;  0.0000000E+00;  5.2217602E+01;  4.0000000E+04;  0.0000000E+00;  3.7907820E+04; -2.5746059E-01;  0.0000000E+00;  9.1007337E-02;  2.9271246E+04;
  1.6926155E+00;  9.9999998E-03;  1.0306730E-01;9847;  1.2690002E+00;  0.0000000E+00;  3.0014522E-03;  9.9693835E+02;  1.1843178E-01; -2.1845759E+03;3;  3.9100861E+01;  0.0000000E+00; -2.7813983E-01;0; -1.6455370E-01;  2.9895848E+04;  0.0000000E+00;  4.6094032E+01;  4.0000000E+04;  0.0000000E+00;  3.7916535E+04; -2.4359398E-01;  0.0000000E+00;  7.9040267E-02;  2.5337375E+04;
  1.6929781E+00;  9.9999998E-03;  9.2614710E-02;9846;  1.2646741E+00;  0.0000000E+00;  2.5785509E-03;  9.9717999E+02;  1.1842170E-01; -2.0108894E+03;3;  3.9409073E+01;  0.0000000E+00; -2.4418603E-01;0; -1.6243055E-01;  2.9914916E+04;  0.0000000E+00;  3.7697193E+01;  4.0000000E+04;  0.0000000E+00;  3.7915660E+04; -2.3105593E-01;  0.0000000E+00;  6.8625383E-02;  2.0546887E+04;
  1.6933296E+00;  9.9999998E-03;  8.2190424E-02;9845;  1.2608553E+00;  0.0000000E+00;  2.2172811E-03;  9.9718030E+02;  1.1841249E-01; -2.0094425E+03;3;  3.9743458E+01;  0.0000000E+00; -1.6871437E-01;0; -1.6035828E-01;  2.9924602E+04;  0.0000000E+00;  2.8856035E+01;  4.0000000E+04;  0.0000000E+00;  3.7909422E+04; -2.2052287E-01;  0.0000000E+00;  6.0164586E-02;  1.5736402E+04;
  1.6936665E+00;  9.9999998E-03;  7.1761318E-02;9844;  1.2574834E+00;  0.0000000E+00;  1.9273416E-03;  9.9706274E+02;  1.1840903E-01; -2.0919705E+03;3;  4.0072697E+01;  0.0000000E+00; -5.9346832E-02;0; -1.5856948E-01;  2.9923332E+04;  0.0000000E+00;  2.1087410E+01;  4.0000000E+04;  0.0000000E+00;  3.7904316E+04; -2.1215598E-01;  0.0000000E+00;  5.3586498E-02;  1.1538848E+04;
  1.7011796E+00;  9.9999998E-03;  1.8559055E-01;9894;  1.3266988E+00;  0.0000000E+00;  2.1724394E-03;  1.0027526E+03;  1.1799810E-01;  1.9340216E+03;3;  4.3398354E+01;  0.0000000E+00;  4.4144201E+00;0; -6.0394868E-02;  3.0456043E+04;  0.0000000E+00;  9.8947306E+00;  4.0000000E+04;  0.0000000E+00;  3.7913793E+04; -1.2560168E-01;  0.0000000E+00;  6.5206811E-02;  3.1055850E+03;
  1.7015133E+00;  9.9999998E-03;  1.7546476E-01;9893;  1.3163487E+00;  0.0000000E+00;  2.5908896E-04;  1.0012905E+03;  1.1800252E-01;  9.0609991E+02;3;  4.1911369E+01;  0.0000000E+00;  2.8329382E+00;0; -1.1972453E-01;  3.0396812E+04;  0.0000000E+00; -6.1256294E+00;  4.0000000E+04;  0.0000000E+00;  3.7881484E+04; -1.9136582E-01;  0.0000000E+00;  7.1641296E-02;  2.5136572E+03;
  1.7018142E+00;  9.9999998E-03;  1.6530596E-01;9892;  1.3069807E+00;  0.0000000E+00; -7.3492789E-04;  1.0000244E+03;  1.1800554E-01;  1.7149740E+01;3;  4.0565887E+01;  0.0000000E+00;  1.6209317E+00;0; -1.5679668E-01;  3.0348676E+04;  0.0000000E+00; -2.1857657E+00;  4.0000000E+04;  0.0000000E+00;  3.7848234E+04; -2.3708713E-01;  0.0000000E+00;  8.0290452E-02;  3.0351873E+03;
  1.7021247E+00;  9.9999998E-03;  1.5512364E-01;9891;  1.2985370E+00;  0.0000000E+00; -1.1113569E-03;  9.9867841E+02;  1.1800555E-01; -9.2692645E+02;3;  3.9593479E+01;  0.0000000E+00;  8.9966398E-01;0; -1.7886382E-01;  3.0300572E+04;  0.0000000E+00;  1.0785707E+01;  4.0000000E+04;  0.0000000E+00;  3.7810867E+04; -2.6516676E-01;  0.0000000E+00;  8.6302944E-02;  9.4673262E+03;
  1.7024553E+00;  9.9999998E-03;  1.4491598E-01;9890;  1.2909114E+00;  0.0000000E+00; -1.1863959E-03;  9.9745648E+02;  1.1800634E-01; -1.7828062E+03;3;  3.9140194E+01;  0.0000000E+00;  5.6301951E-01;0; -1.9189265E-01;  3.0258629E+04;  0.0000000E+00;  2.4416874E+01;  4.0000000E+04;  0.0000000E+00;  3.7775086E+04; -2.7903655E-01;  0.0000000E+00;  8.7143898E-02;  1.5700574E+04;
  1.7027948E+00;  9.9999998E-03;  1.3466993E-01;9889;  1.2840999E+00;  0.0000000E+00; -1.0644053E-03;  9.9664508E+02;  1.1800223E-01; -2.3500308E+03;3;  3.8984039E+01;  0.0000000E+00;  3.8015756E-01;0; -1.9775753E-01;  3.0234795E+04;  0.0000000E+00;  3.4910255E+01;  4.0000000E+04;  0.0000000E+00;  3.7748449E+04; -2.8124005E-01;  0.0000000E+00;  8.3482519E-02;  2.0073117E+04;
  1.7031387E+00;  9.9999998E-03;  1.2436932E-01;9888;  1.2779688E+00;  0.0000000E+00; -8.8913093E-04;  9.9631995E+02;  1.1799554E-01; -2.5761108E+03;3;  3.9076050E+01;  0.0000000E+00;  3.2788941E-01;0; -1.9957742E-01;  3.0229328E+04;  0.0000000E+00;  4.1243168E+01;  4.0000000E+04;  0.0000000E+00;  3.7735281E+04; -2.7583084E-01;  0.0000000E+00;  7.6253407E-02;  2.2275691E+04;
  1.7034825E+00;  9.9999998E-03;  1.1400771E-01;9887;  1.2724714E+00;  0.0000000E+00; -7.4140501E-04;  9.9637567E+02;  1.1798681E-01; -2.5354470E+03;3;  3.9252979E+01;  0.0000000E+00;  2.5600126E-01;0; -1.9875148E-01;  3.0237490E+04;  0.0000000E+00;  4.3530888E+01;  4.0000000E+04;  0.0000000E+00;  3.7733562E+04; -2.6569131E-01;  0.0000000E+00;  6.6939838E-02;  2.2512713E+04;
  1.7038211E+00;  9.9999998E-03;  1.0359415E-01;9886;  1.2675648E+00;  0.0000000E+00; -6.6062686E-04;  9.9661359E+02;  1.1797775E-01; -2.3675105E+03;3;  3.9555107E+01;  0.0000000E+00;  2.9903591E-01;0; -1.9642997E-01;  3.0252609E+04;  0.0000000E+00;  4.2238514E+01;  4.0000000E+04;  0.0000000E+00;  3.7736727E+04; -2.5336459E-01;  0.0000000E+00;  5.6934625E-02;  2.1154945E+04;
  1.7041526E+00;  9.9999998E-03;  9.3156189E-02;9885;  1.2631954E+00;  0.0000000E+00; -6.5071770E-04;  9.9682080E+02;  1.1796816E-01; -2.2212202E+03;3;  3.9869785E+01;  0.0000000E+00;  3.1128973E-01;0; -1.9350268E-01;  3.0267189E+04;  0.0000000E+00;  3.7941574E+01;  4.0000000E+04;  0.0000000E+00;  3.7738105E+04; -2.4086273E-01;  0.0000000E+00;  4.7360048E-02;  1.8594260E+04;
  1.7044683E+00;  9.9999998E-03;  8.2702249E-02;9884;  1.2593228E+00;  0.0000000E+00; -6.5370300E-04;  9.9694989E+02;  1.1796182E-01; -2.1297351E+03;3;  4.0178886E+01;  0.0000000E+00;  3.2085904E-01;0; -1.9038253E-01;  3.0277941E+04;  0.0000000E+00;  3.2027695E+01;  4.0000000E+04;  0.0000000E+00;  3.7737871E+04; -2.2936247E-01;  0.0000000E+00;  3.8979948E-02;  1.5455804E+04;
  1.7047591E+00;  9.9999998E-03;  7.2210267E-02;9883;  1.2558937E+00;  0.0000000E+00; -6.3397712E-04;  9.9703052E+02;  1.1795703E-01; -2.0723127E+03;3;  4.0467754E+01;  0.0000000E+00;  3.0998078E-01;0; -1.8743017E-01;  3.0283492E+04;  0.0000000E+00;  2.6068731E+01;  4.0000000E+04;  0.0000000E+00;  3.7739855E+04; -2.1950644E-01;  0.0000000E+00;  3.2076266E-02;  1.2362956E+04;
  1.7127682E+00;  9.9999998E-03;  1.7568320E-01;9929;  1.3157469E+00;  0.0000000E+00; -4.9232147E-03;  1.0032542E+03;  1.1759629E-01;  2.2354165E+03;3;  4.2691994E+01;  0.0000000E+00;  3.5269442E+00;0; -1.1004758E-01;  3.0812600E+04;  0.0000000E+00;  2.3939741E+01;  4.0000000E+04;  0.0000000E+00;  3.7766562E+04; -1.2582709E-01;  0.0000000E+00;  1.5779506E-02;  6.0524888E+03;
  1.7131281E+00;  9.9999998E-03;  1.6554709E-01;9928;  1.3062563E+00;  0.0000000E+00; -6.0608052E-03;  1.0016476E+03;  1.1760376E-01;  1.1309677E+03;3;  4.1219299E+01;  0.0000000E+00;  2.2373607E+00;0; -1.5707079E-01;  3.0749662E+04;  0.0000000E+00; -1.0908420E+00;  4.0000000E+04;  0.0000000E+00;  3.7726551E+04; -1.8258502E-01;  0.0000000E+00;  2.5514225E-02;  2.6842891E+03;
  1.7134345E+00;  9.9999998E-03;  1.5536496E-01;9927;  1.2976776E+00;  0.0000000E+00; -6.3974131E-03;  1.0006088E+03;  1.1760538E-01;  4.1764389E+02;3;  4.0244900E+01;  0.0000000E+00;  1.4922798E+00;0; -1.8694636E-01;  3.0714018E+04;  0.0000000E+00; -6.3604155E+00;  4.0000000E+04;  0.0000000E+00;  3.7695527E+04; -2.2299391E-01;  0.0000000E+00;  3.6047544E-02;  2.0122799E+03;
  1.7137372E+00;  9.9999998E-03;  1.4515112E-01;9926;  1.2899365E+00;  0.0000000E+00; -6.3175671E-03;  9.9959827E+02;  1.1760405E-01; -2.7542435E+02;3;  3.9647442E+01;  0.0000000E+00;  1.0514022E+00;0; -2.0616910E-01;  3.0680803E+04;  0.0000000E+00;  1.5974213E-01;  4.0000000E+04;  0.0000000E+00;  3.7663805E+04; -2.4894413E-01;  0.0000000E+00;  4.2775042E-02;  3.3710796E+03;
  1.7140516E+00;  9.9999998E-03;  1.3491051E-01;9925;  1.2829808E+00;  0.0000000E+00; -5.9756590E-03;  9.9860706E+02;  1.1760401E-01; -9.5438257E+02;3;  3.9438538E+01;  0.0000000E+00;  8.4636188E-01;0; -2.1766260E-01;  3.0648637E+04;  0.0000000E+00;  1.0455503E+01;  4.0000000E+04;  0.0000000E+00;  3.7631578E+04; -2.6261410E-01;  0.0000000E+00;  4.4951499E-02;  7.5213608E+03;
  1.7143736E+00;  9.9999998E-03;  1.2463969E-01;9924;  1.2767769E+00;  0.0000000E+00; -5.4948204E-03;  9.9780811E+02;  1.1760233E-01; -1.5007859E+03;3;  3.9460037E+01;  0.0000000E+00;  6.9522786E-01;0; -2.2318222E-01;  3.0625242E+04;  0.0000000E+00;  1.9691448E+01;  4.0000000E+04;  0.0000000E+00;  3.7603371E+04; -2.6624241E-01;  0.0000000E+00;  4.3060202E-02;  1.1000879E+04;
  1.7146964E+00;  9.9999998E-03;  1.1433034E-01;9923;  1.2712523E+00;  0.0000000E+00; -4.9491203E-03;  9.9729620E+02;  1.1759968E-01; -1.8500469E+03;3;  3.9666122E+01;  0.0000000E+00;  6.6113037E-01;0; -2.2453696E-01;  3.0613160E+04;  0.0000000E+00;  2.5951033E+01;  4.0000000E+04;  0.0000000E+00;  3.7582875E+04; -2.6276541E-01;  0.0000000E+00;  3.8228460E-02;  1.3086754E+04;
  1.7150156E+00;  9.9999998E-03;  1.0397650E-01;9922;  1.2662834E+00;  0.0000000E+00; -4.4560963E-03;  9.9704462E+02;  1.1759535E-01; -2.0208710E+03;3;  3.9935074E+01;  0.0000000E+00;  6.6342956E-01;0; -2.2396642E-01;  3.0609930E+04;  0.0000000E+00;  2.8960659E+01;  4.0000000E+04;  0.0000000E+00;  3.7570816E+04; -2.5540707E-01;  0.0000000E+00;  3.1440645E-02;  1.3768986E+04;
  1.7153231E+00;  9.9999998E-03;  9.3579359E-02;9921;  1.2618684E+00;  0.0000000E+00; -4.0039704E-03;  9.9698407E+02;  1.1759022E-01; -2.0609761E+03;3;  4.0247093E+01;  0.0000000E+00;  6.5409809E-01;0; -2.2175166E-01;  3.0612779E+04;  0.0000000E+00;  2.9147493E+01;  4.0000000E+04;  0.0000000E+00;  3.7564926E+04; -2.4579218E-01;  0.0000000E+00;  2.4040518E-02;  1.3306400E+04;
  1.7156128E+00;  9.9999998E-03;  8.3136529E-02;9920;  1.2579361E+00;  0.0000000E+00; -3.5902546E-03;  9.9702582E+02;  1.1758480E-01; -2.0312096E+03;3;  4.0533604E+01;  0.0000000E+00;  6.0519445E-01;0; -2.1886592E-01;  3.0618135E+04;  0.0000000E+00;  2.7410486E+01;  4.0000000E+04;  0.0000000E+00;  3.7564656E+04; -2.3574731E-01;  0.0000000E+00;  1.6881388E-02;  1.2092235E+04;
  1.7158780E+00;  9.9999998E-03;  7.2650529E-02;9919;  1.2544689E+00;  0.0000000E+00; -3.1862739E-03;  9.9711029E+02;  1.1758043E-01; -1.9724469E+03;3;  4.0796215E+01;  0.0000000E+00;  5.4120994E-01;0; -2.1566381E-01;  3.0622936E+04;  0.0000000E+00;  2.4504351E+01;  4.0000000E+04;  0.0000000E+00;  3.7567809E+04; -2.2618291E-01;  0.0000000E+00;  1.0519096E-02;  1.0456437E+04;
  1.7242920E+00;  9.9999998E-03;  1.6571014E-01;9962;  1.3056557E+00;  0.0000000E+00; -1.0708862E-02;  1.0040918E+03;  1.1726160E-01;  2.7435222E+03;3;  4.2010887E+01;  0.0000000E+00;  2.9401495E+00;0; -1.4567354E-01;  3.1154174E+04;  0.0000000E+00;  4.6587105E+01;  4.0000000E+04;  0.0000000E+00;  3.7623832E+04; -1.1624307E-01;  0.0000000E+00; -2.9430475E-02;  1.0976886E+04;
  1.7246814E+00;  9.9999998E-03;  1.5557249E-01;9961;  1.2971811E+00;  0.0000000E+00; -1.1087531E-02;  1.0021595E+03;  1.1727356E-01;  1.4467076E+03;3;  4.0919704E+01;  0.0000000E+00;  2.0903013E+00;0; -1.7937575E-01;  3.1082436E+04;  0.0000000E+00;  1.2575433E+01;  4.0000000E+04;  0.0000000E+00;  3.7569262E+04; -1.6296506E-01;  0.0000000E+00; -1.6410699E-02;  3.6855042E+03;
  1.7250077E+00;  9.9999998E-03;  1.4537832E-01;9960;  1.2893734E+00;  0.0000000E+00; -1.0989336E-02;  1.0010458E+03;  1.1727782E-01;  7.0013440E+02;3;  4.0250069E+01;  0.0000000E+00;  1.5645390E+00;0; -2.0454966E-01;  3.1045312E+04;  0.0000000E+00; -3.4461322E+00;  4.0000000E+04;  0.0000000E+00;  3.7533359E+04; -1.9895235E-01;  0.0000000E+00; -5.5973115E-03;  2.5602329E+03;
  1.7253103E+00;  9.9999998E-03;  1.3514048E-01;9959;  1.2823365E+00;  0.0000000E+00; -1.0498787E-02;  1.0002200E+03;  1.1727733E-01;  1.4714398E+02;3;  3.9876614E+01;  0.0000000E+00;  1.2002841E+00;0; -2.2114860E-01;  3.1020221E+04;  0.0000000E+00; -5.9345355E+00;  4.0000000E+04;  0.0000000E+00;  3.7504348E+04; -2.2315837E-01;  0.0000000E+00;  2.0097732E-03;  1.8690569E+03;
  1.7256103E+00;  9.9999998E-03;  1.2486925E-01;9958;  1.2760549E+00;  0.0000000E+00; -9.7441394E-03;  9.9945380E+02;  1.1727709E-01; -3.6518759E+02;3;  3.9873856E+01;  0.0000000E+00;  1.0328497E+00;0; -2.3098820E-01;  3.0997377E+04;  0.0000000E+00; -1.4381258E+00;  4.0000000E+04;  0.0000000E+00;  3.7476488E+04; -2.3685730E-01;  0.0000000E+00;  5.8690915E-03;  2.0716772E+03;
  1.7259090E+00;  9.9999998E-03;  1.1456532E-01;9957;  1.2703955E+00;  0.0000000E+00; -8.8863298E-03;  9.9878479E+02;  1.1727528E-01; -8.1193457E+02;3;  4.0063850E+01;  0.0000000E+00;  1.0062612E+00;0; -2.3708729E-01;  3.0978650E+04;  0.0000000E+00;  5.0417209E+00;  4.0000000E+04;  0.0000000E+00;  3.7451414E+04; -2.4309848E-01;  0.0000000E+00;  6.0111936E-03;  4.0529702E+03;
  1.7262046E+00;  9.9999998E-03;  1.0423086E-01;9956;  1.2653012E+00;  0.0000000E+00; -8.0538420E-03;  9.9824139E+02;  1.1727409E-01; -1.1742487E+03;3;  4.0307014E+01;  0.0000000E+00;  9.5994180E-01;0; -2.4075805E-01;  3.0964232E+04;  0.0000000E+00;  1.0574535E+01;  4.0000000E+04;  0.0000000E+00;  3.7430105E+04; -2.4395236E-01;  0.0000000E+00;  3.1943128E-03;  5.7314004E+03;
  1.7264889E+00;  9.9999998E-03;  9.3855992E-02;9955;  1.2607833E+00;  0.0000000E+00; -7.2216215E-03;  9.9789642E+02;  1.1727262E-01; -1.4036833E+03;3;  4.0594959E+01;  0.0000000E+00;  9.0908217E-01;0; -2.4171354E-01;  3.0956389E+04;  0.0000000E+00;  1.4334086E+01;  4.0000000E+04;  0.0000000E+00;  3.7415785E+04; -2.4056379E-01;  0.0000000E+00; -1.1497420E-03;  6.6977739E+03;
  1.7267572E+00;  9.9999998E-03;  8.3436385E-02;9954;  1.2567698E+00;  0.0000000E+00; -6.4118486E-03;  9.9772101E+02;  1.1726958E-01; -1.5198383E+03;3;  4.0863762E+01;  0.0000000E+00;  8.3863997E-01;0; -2.4110852E-01;  3.0952656E+04;  0.0000000E+00;  1.6275984E+01;  4.0000000E+04;  0.0000000E+00;  3.7408559E+04; -2.3494619E-01;  0.0000000E+00; -6.1623300E-03;  6.9690537E+03;
  1.7270030E+00;  9.9999998E-03;  7.2978787E-02;9953;  1.2532492E+00;  0.0000000E+00; -5.6245322E-03;  9.9765039E+02;  1.1726646E-01; -1.5660923E+03;3;  4.1110764E+01;  0.0000000E+00;  7.5044745E-01;0; -2.3937656E-01;  3.0951959E+04;  0.0000000E+00;  1.6527899E+01;  4.0000000E+04;  0.0000000E+00;  3.7406219E+04; -2.2820219E-01;  0.0000000E+00; -1.1174365E-02;  6.6462925E+03;
  1.7361674E+00;  9.9999998E-03;  1.4552288E-01;9991;  1.2888261E+00;  0.0000000E+00; -1.5160425E-02;  1.0029188E+03;  1.1699862E-01;  1.9055454E+03;3;  4.0790882E+01;  0.0000000E+00;  2.0432198E+00;0; -1.9628814E-01;  3.1396562E+04;  0.0000000E+00;  3.6749157E+01;  4.0000000E+04;  0.0000000E+00;  3.7420094E+04; -1.4003903E-01;  0.0000000E+00; -5.6249116E-02;  8.0888525E+03;
  1.7365143E+00;  9.9999998E-03;  1.3532870E-01;9990;  1.2819208E+00;  0.0000000E+00; -1.4528467E-02;  1.0015132E+03;  1.1700567E-01;  9.8715924E+02;3;  4.0329700E+01;  0.0000000E+00;  1.5866696E+00;0; -2.1290496E-01;  3.1351814E+04;  0.0000000E+00;  1.0692573E+01;  4.0000000E+04;  0.0000000E+00;  3.7371168E+04; -1.6939986E-01;  0.0000000E+00; -4.3505095E-02;  3.3325779E+03;
  1.7368224E+00;  9.9999998E-03;  1.2507790E-01;9989;  1.2756330E+00;  0.0000000E+00; -1.3606559E-02;  1.0006475E+03;  1.1700919E-01;  4.2212280E+02;3;  4.0287483E+01;  0.0000000E+00;  1.4141773E+00;0; -2.2531116E-01;  3.1326600E+04;  0.0000000E+00; -2.0660162E+00;  4.0000000E+04;  0.0000000E+00;  3.7338621E+04; -1.9091766E-01;  0.0000000E+00; -3.4393504E-02;  2.3634773E+03;
  1.7371105E+00;  9.9999998E-03;  1.1478216E-01;9988;  1.2698814E+00;  0.0000000E+00; -1.2544145E-02;  1.0000085E+03;  1.1700855E-01;  5.5137529E+00;3;  4.0431709E+01;  0.0000000E+00;  1.3380002E+00;0; -2.3561567E-01;  3.1308916E+04;  0.0000000E+00; -5.5934463E+00;  4.0000000E+04;  0.0000000E+00;  3.7313797E+04; -2.0632786E-01;  0.0000000E+00; -2.9287813E-02;  2.0140085E+03;
  1.7373853E+00;  9.9999998E-03;  1.0444508E-01;9987;  1.2646719E+00;  0.0000000E+00; -1.1411721E-02;  9.9951129E+02;  1.1700632E-01; -3.1815805E+02;3;  4.0657787E+01;  0.0000000E+00;  1.2650280E+00;0; -2.4369618E-01;  3.1295938E+04;  0.0000000E+00; -4.1213970E+00;  4.0000000E+04;  0.0000000E+00;  3.7294645E+04; -2.1622236E-01;  0.0000000E+00; -2.7473815E-02;  1.5158402E+03;
  1.7376491E+00;  9.9999998E-03;  9.4072945E-02;9986;  1.2600167E+00;  0.0000000E+00; -1.0273376E-02;  9.9909436E+02;  1.1700500E-01; -5.8923431E+02;3;  4.0911121E+01;  0.0000000E+00;  1.1770890E+00;0; -2.4936453E-01;  3.1284316E+04;  0.0000000E+00; -8.4728765E-01;  4.0000000E+04;  0.0000000E+00;  3.7278477E+04; -2.2120917E-01;  0.0000000E+00; -2.8155359E-02;  1.6346378E+03;
  1.7378972E+00;  9.9999998E-03;  8.3670720E-02;9985;  1.2559083E+00;  0.0000000E+00; -9.1300914E-03;  9.9876166E+02;  1.1700387E-01; -8.0524347E+02;3;  4.1157276E+01;  0.0000000E+00;  1.0741266E+00;0; -2.5260660E-01;  3.1275584E+04;  0.0000000E+00;  2.2711568E+00;  4.0000000E+04;  0.0000000E+00;  3.7265086E+04; -2.2228038E-01;  0.0000000E+00; -3.0326230E-02;  2.1292288E+03;
  1.7381259E+00;  9.9999998E-03;  7.3237672E-02;9984;  1.2523034E+00;  0.0000000E+00; -7.9929922E-03;  9.9852716E+02;  1.1700378E-01; -9.5720892E+02;3;  4.1402737E+01;  0.0000000E+00;  9.6382195E-01;0; -2.5415680E-01;  3.1269354E+04;  0.0000000E+00;  4.4506569E+00;  4.0000000E+04;  0.0000000E+00;  3.7255422E+04; -2.2090396E-01;  0.0000000E+00; -3.3252843E-02;  2.4659272E+03;
  1.7479414E+00;  9.9999998E-03;  1.2518871E-01;10016;  1.2750593E+00;  0.0000000E+00; -1.7033974E-02;  1.0022885E+03;  1.1677972E-01;  1.4530210E+03;3;  4.0650795E+01;  0.0000000E+00;  1.8477052E+00;0; -2.1805456E-01;  3.1641896E+04;  0.0000000E+00;  3.6924709E+01;  4.0000000E+04;  0.0000000E+00;  3.7224648E+04; -1.4127387E-01;  0.0000000E+00; -7.6780684E-02;  7.6310854E+03;
  1.7482538E+00;  9.9999998E-03;  1.1494074E-01;10015;  1.2694690E+00;  0.0000000E+00; -1.5785092E-02;  1.0011801E+03;  1.1678444E-01;  7.4868933E+02;3;  4.0765034E+01;  0.0000000E+00;  1.7182506E+00;0; -2.2661167E-01;  3.1611564E+04;  0.0000000E+00;  1.5124422E+01;  4.0000000E+04;  0.0000000E+00;  3.7179637E+04; -1.6012923E-01;  0.0000000E+00; -6.6482432E-02;  3.8723391E+03;
  1.7485328E+00;  9.9999998E-03;  1.0464005E-01;10014;  1.2642933E+00;  0.0000000E+00; -1.4470551E-02;  1.0004734E+03;  1.1678702E-01;  3.0013513E+02;3;  4.0941975E+01;  0.0000000E+00;  1.5893598E+00;0; -2.3595101E-01;  3.1593912E+04;  0.0000000E+00;  2.7508304E+00;  4.0000000E+04;  0.0000000E+00;  3.7149371E+04; -1.7581618E-01;  0.0000000E+00; -6.0134828E-02;  2.4278391E+03;
  1.7487882E+00;  9.9999998E-03;  9.4291635E-02;10013;  1.2596271E+00;  0.0000000E+00; -1.3095779E-02;  9.9999805E+02;  1.1678755E-01; -1.2463274E+00;3;  4.1171688E+01;  0.0000000E+00;  1.4616126E+00;0; -2.4391466E-01;  3.1581898E+04;  0.0000000E+00; -2.8997886E+00;  4.0000000E+04;  0.0000000E+00;  3.7128809E+04; -1.8715517E-01;  0.0000000E+00; -5.6759488E-02;  2.1228945E+03;
  1.7490234E+00;  9.9999998E-03;  8.3904743E-02;10012;  1.2554417E+00;  0.0000000E+00; -1.1653116E-02;  9.9964185E+02;  1.1678866E-01; -2.2681548E+02;3;  4.1413574E+01;  0.0000000E+00;  1.3272393E+00;0; -2.5056216E-01;  3.1572613E+04;  0.0000000E+00; -4.5383120E+00;  4.0000000E+04;  0.0000000E+00;  3.7113402E+04; -1.9513436E-01;  0.0000000E+00; -5.5427816E-02;  1.9291531E+03;
  1.7492369E+00;  9.9999998E-03;  7.3489994E-02;10011;  1.2517397E+00;  0.0000000E+00; -1.0212786E-02;  9.9935492E+02;  1.1678807E-01; -4.0831290E+02;3;  4.1643070E+01;  0.0000000E+00;  1.1825886E+00;0; -2.5600100E-01;  3.1565697E+04;  0.0000000E+00; -4.2754145E+00;  4.0000000E+04;  0.0000000E+00;  3.7100914E+04; -2.0033923E-01;  0.0000000E+00; -5.5661753E-02;  1.6878372E+03;
  1.7598708E+00;  9.9999998E-03;  9.4414130E-02;10035;  1.2591345E+00;  0.0000000E+00; -1.5555374E-02;  1.0010938E+03;  1.1660632E-01;  6.7437671E+02;3;  4.1384159E+01;  0.0000000E+00;  1.7875652E+00;0; -2.3639676E-01;  3.1857973E+04;  0.0000000E+00;  2.4527531E+01;  4.0000000E+04;  0.0000000E+00;  3.6996074E+04; -1.5003304E-01;  0.0000000E+00; -8.6363718E-02;  5.1311582E+03;
  1.7601085E+00;  9.9999998E-03;  8.4072135E-02;10034;  1.2550442E+00;  0.0000000E+00; -1.3875610E-02;  1.0004910E+03;  1.1660927E-01;  3.0257336E+02;3;  4.1602848E+01;  0.0000000E+00;  1.6011583E+00;0; -2.4221921E-01;  3.1845158E+04;  0.0000000E+00;  1.1983439E+01;  4.0000000E+04;  0.0000000E+00;  3.6966961E+04; -1.6105613E-01;  0.0000000E+00; -8.1163086E-02;  3.2913018E+03;
  1.7603184E+00;  9.9999998E-03;  7.3692665E-02;10033;  1.2513759E+00;  0.0000000E+00; -1.2183675E-02;  1.0000726E+03;  1.1661140E-01;  4.4712440E+01;3;  4.1822353E+01;  0.0000000E+00;  1.4168601E+00;0; -2.4842894E-01;  3.1836285E+04;  0.0000000E+00;  4.4717469E+00;  4.0000000E+04;  0.0000000E+00;  3.6946266E+04; -1.7018160E-01;  0.0000000E+00; -7.8247346E-02;  2.4199988E+03;
  2.1422275E-03;  9.9999998E-03;  2.3992231E-01;2501;  8.3087321E-04;  0.0000000E+00;  5.9320981E-04;  9.9075000E+02;  1.0000000E-01; -7.6634375E+03;3;  6.2332298E+01;  0.0000000E+00; -2.1697975E+01;0; -1.3883259E-02;  3.9249305E+04;  0.0000000E+00; -6.7212349E-01;  4.0000000E+04;  0.0000000E+00;  4.0020492E+04; -1.3926188E-02;  0.0000000E+00;  4.2928616E-05;  3.4739329E+03;
  1.7784267E-03;  9.9999998E-03;  2.4989450E-01;2502;  7.4229384E-04;  0.0000000E+00;  6.1234424E-04;  9.9180975E+02;  1.0000000E-01; -6.7854873E+03;3;  5.4442894E+01;  0.0000000E+00; -2.2503860E+01;0; -1.2815518E-02;  3.9332820E+04;  0.0000000E+00; -6.2483251E-01;  4.0000000E+04;  0.0000000E+00;  4.0019379E+04; -1.2726724E-02;  0.0000000E+00; -8.8794040E-05;  3.1553567E+03;
  1.3795283E-03;  9.9999998E-03;  2.5986698E-01;2503;  5.8213132E-04;  0.0000000E+00;  6.1968243E-04;  9.9290448E+02;  1.0000000E-01; -5.8785005E+03;3;  4.5396076E+01;  0.0000000E+00; -2.2863291E+01;0; -1.1712825E-02;  3.9421824E+04;  0.0000000E+00; -5.6814313E-01;  4.0000000E+04;  0.0000000E+00;  4.0013637E+04; -1.1472496E-02;  0.0000000E+00; -2.4032884E-04;  2.5563083E+03;
  9.6051616E-04;  9.9999998E-03;  2.6985204E-01;2504;  3.6532772E-04;  0.0000000E+00;  6.1315967E-04;  9.9400549E+02;  1.0000000E-01; -4.9663286E+03;3;  3.5882137E+01;  0.0000000E+00; -2.2913374E+01;0; -1.0591273E-02;  3.9512699E+04;  0.0000000E+00; -5.0955153E-01;  4.0000000E+04;  0.0000000E+00;  4.0008473E+04; -1.0189790E-02;  0.0000000E+00; -4.0148292E-04;  1.7494332E+03;
  5.5659749E-04;  9.9999998E-03;  2.7985930E-01;2505;  1.2025457E-04;  0.0000000E+00;  6.0259347E-04;  9.9506085E+02;  1.0000000E-01; -4.0919832E+03;3;  2.6790461E+01;  0.0000000E+00; -2.2802528E+01;0; -9.4634639E-03;  3.9601930E+04;  0.0000000E+00; -4.5307985E-01;  4.0000000E+04;  0.0000000E+00;  4.0001957E+04; -8.9042196E-03;  0.0000000E+00; -5.5924430E-04;  9.0648999E+02;
  2.0034719E-04;  9.9999998E-03;  2.8989339E-01;2506; -1.0965086E-04;  0.0000000E+00;  6.1393698E-04;  9.9604449E+02;  1.0000000E-01; -3.2770432E+03;3;  1.8770555E+01;  0.0000000E+00; -2.2431877E+01;0; -8.3354581E-03;  3.9685824E+04;  0.0000000E+00; -3.9830771E-01;  4.0000000E+04;  0.0000000E+00;  3.9994945E+04; -7.6379734E-03;  0.0000000E+00; -6.9748424E-04;  6.4192206E+02;
  1.2016778E-02;  9.9999998E-03;  2.3993854E-01;2561;  8.1211751E-05;  0.0000000E+00;  3.0337859E-04;  9.9248834E+02;  1.0000000E-01; -6.2232808E+03;3;  4.3996288E+01;  0.0000000E+00; -1.7171602E+01;0; -1.5348621E-02;  3.9383434E+04;  0.0000000E+00; -8.3261973E-01;  4.0000000E+04;  0.0000000E+00;  4.0023148E+04; -1.5412974E-02;  0.0000000E+00;  6.4353517E-05;  3.6328630E+03;
  1.1692230E-02;  9.9999998E-03;  2.4989924E-01;2562;  8.8188281E-05;  0.0000000E+00;  3.2605720E-04;  9.9330096E+02;  1.0000000E-01; -5.5500161E+03;3;  3.9124413E+01;  0.0000000E+00; -1.7726191E+01;0; -1.4192783E-02;  3.9447301E+04;  0.0000000E+00; -7.6682371E-01;  4.0000000E+04;  0.0000000E+00;  4.0021312E+04; -1.4136012E-02;  0.0000000E+00; -5.6771562E-05;  3.4062148E+03;
  1.1323391E-02;  9.9999998E-03;  2.5985649E-01;2563;  4.0039798E-05;  0.0000000E+00;  3.4045835E-04;  9.9415649E+02;  1.0000000E-01; -4.8412456E+03;3;  3.2716614E+01;  0.0000000E+00; -1.8059893E+01;0; -1.2984471E-02;  3.9516867E+04;  0.0000000E+00; -6.9507295E-01;  4.0000000E+04;  0.0000000E+00;  4.0016699E+04; -1.2780178E-02;  0.0000000E+00; -2.0429282E-04;  2.8640278E+03;
  1.0917610E-02;  9.9999998E-03;  2.6982313E-01;2564; -5.1914958E-05;  0.0000000E+00;  3.5164881E-04;  9.9501263E+02;  1.0000000E-01; -4.1319326E+03;3;  2.5478889E+01;  0.0000000E+00; -1.8521708E+01;0; -1.1742864E-02;  3.9589609E+04;  0.0000000E+00; -6.2770259E-01;  4.0000000E+04;  0.0000000E+00;  4.0011211E+04; -1.1374079E-02;  0.0000000E+00; -3.6878558E-04;  2.0681609E+03;
  1.0517363E-02;  9.9999998E-03;  2.7980587E-01;2565; -1.7017084E-04;  0.0000000E+00;  3.7020288E-04;  9.9584937E+02;  1.0000000E-01; -3.4387175E+03;3;  1.8207682E+01;  0.0000000E+00; -1.9232498E+01;0; -1.0484955E-02;  3.9662090E+04;  0.0000000E+00; -5.6860119E-01;  4.0000000E+04;  0.0000000E+00;  4.0004344E+04; -9.9487500E-03;  0.0000000E+00; -5.3620560E-04;  1.1853467E+03;
  1.0172280E-02;  9.9999998E-03;  2.8980237E-01;2566; -3.0629628E-04;  0.0000000E+00;  4.0939252E-04;  9.9663416E+02;  1.0000000E-01; -2.7885630E+03;3;  1.1904914E+01;  0.0000000E+00; -2.0002518E+01;0; -9.2213713E-03;  3.9731758E+04;  0.0000000E+00; -5.1405203E-01;  4.0000000E+04;  0.0000000E+00;  3.9996727E+04; -8.5337767E-03;  0.0000000E+00; -6.8759499E-04;  7.4696747E+02;
  9.8951887E-03;  9.9999998E-03;  2.9982534E-01;2567; -4.6394605E-04;  0.0000000E+00;  4.8013616E-04;  9.9734216E+02;  1.0000000E-01; -2.2019624E+03;3;  7.3309846E+00;  0.0000000E+00; -2.0368179E+01;0; -7.9540471E-03;  3.9794656E+04;  0.0000000E+00; -4.5539656E-01;  4.0000000E+04;  0.0000000E+00;  3.9989738E+04; -7.1547129E-03;  0.0000000E+00; -7.9933438E-04;  1.2413112E+03;
  2.1845831E-02;  9.9999998E-03;  2.3999730E-01;2622; -4.5159724E-04;  0.0000000E+00;  1.3373734E-04;  9.9457312E+02;  1.0000000E-01; -4.4960703E+03;3;  2.1506300E+01;  0.0000000E+00; -1.0995034E+01;0; -1.6178248E-02;  3.9545762E+04;  0.0000000E+00; -9.5511800E-01;  4.0000000E+04;  0.0000000E+00;  4.0023059E+04; -1.6240627E-02;  0.0000000E+00;  6.2378211E-05;  3.6460649E+03;
  2.1555703E-02;  9.9999998E-03;  2.4995801E-01;2623; -3.9581087E-04;  0.0000000E+00;  1.4868582E-04;  9.9510480E+02;  1.0000000E-01; -4.0555891E+03;3;  2.0340792E+01;  0.0000000E+00; -1.0814284E+01;0; -1.4977109E-02;  3.9587047E+04;  0.0000000E+00; -8.8352734E-01;  4.0000000E+04;  0.0000000E+00;  4.0023207E+04; -1.4934863E-02;  0.0000000E+00; -4.2245956E-05;  3.5425757E+03;
  2.1217091E-02;  9.9999998E-03;  2.5991085E-01;2624; -3.7967341E-04;  0.0000000E+00;  1.6543470E-04;  9.9567261E+02;  1.0000000E-01; -3.5851826E+03;3;  1.7503582E+01;  0.0000000E+00; -1.0832082E+01;0; -1.3712967E-02;  3.9634074E+04;  0.0000000E+00; -8.0849397E-01;  4.0000000E+04;  0.0000000E+00;  4.0019824E+04; -1.3533467E-02;  0.0000000E+00; -1.7949971E-04;  3.1021204E+03;
  2.0830128E-02;  9.9999998E-03;  2.6987112E-01;2625; -4.0400607E-04;  0.0000000E+00;  1.8516608E-04;  9.9625354E+02;  1.0000000E-01; -3.1038628E+03;3;  1.3550720E+01;  0.0000000E+00; -1.1466409E+01;0; -1.2403362E-02;  3.9684660E+04;  0.0000000E+00; -7.4173874E-01;  4.0000000E+04;  0.0000000E+00;  4.0014332E+04; -1.2063703E-02;  0.0000000E+00; -3.3965852E-04;  2.3728899E+03;
  2.0432567E-02;  9.9999998E-03;  2.7984717E-01;2626; -4.6534205E-04;  0.0000000E+00;  2.1161466E-04;  9.9682721E+02;  1.0000000E-01; -2.6286169E+03;3;  9.2679634E+00;  0.0000000E+00; -1.2870790E+01;0; -1.1064583E-02;  3.9736789E+04;  0.0000000E+00; -6.8618357E-01;  4.0000000E+04;  0.0000000E+00;  4.0007223E+04; -1.0557068E-02;  0.0000000E+00; -5.0751521E-04;  1.5057365E+03;
  2.0084566E-02;  9.9999998E-03;  2.8983071E-01;2627; -5.5516086E-04;  0.0000000E+00;  2.5480372E-04;  9.9738245E+02;  1.0000000E-01; -2.1685806E+03;3;  5.4263635E+00;  0.0000000E+00; -1.4747140E+01;0; -9.7130025E-03;  3.9788148E+04;  0.0000000E+00; -6.3500267E-01;  4.0000000E+04;  0.0000000E+00;  3.9998840E+04; -9.0497611E-03;  0.0000000E+00; -6.6324120E-04;  9.0527826E+02;
  1.9819377E-02;  9.9999998E-03;  2.9982245E-01;2628; -6.6686911E-04;  0.0000000E+00;  3.2570583E-04;  9.9789172E+02;  1.0000000E-01; -1.7466666E+03;3;  2.6816652E+00;  0.0000000E+00; -1.6537941E+01;0; -8.3619589E-03;  3.9836473E+04;  0.0000000E+00; -5.7506174E-01;  4.0000000E+04;  0.0000000E+00;  3.9991617E+04; -7.5781210E-03;  0.0000000E+00; -7.8383775E-04;  1.1905546E+03;
  3.1680197E-02;  9.9999998E-03;  2.4003914E-01;2683; -9.3953323E-04;  0.0000000E+00;  4.2278556E-05;  9.9671838E+02;  1.0000000E-01; -2.7187380E+03;3;  2.3535762E+00;  0.0000000E+00; -4.0593100E+00;0; -1.6228709E-02;  3.9715582E+04;  0.0000000E+00; -9.8206735E-01;  4.0000000E+04;  0.0000000E+00;  4.0023355E+04; -1.6284658E-02;  0.0000000E+00;  5.5947792E-05;  3.4665374E+03;
  3.1422894E-02;  9.9999998E-03;  2.5000581E-01;2684; -8.3863636E-04;  0.0000000E+00;  4.5753171E-05;  9.9696344E+02;  1.0000000E-01; -2.5157312E+03;3;  4.1994243E+00;  0.0000000E+00; -2.8864622E+00;0; -1.5043912E-02;  3.9733305E+04;  0.0000000E+00; -9.2459261E-01;  4.0000000E+04;  0.0000000E+00;  4.0024125E+04; -1.5013583E-02;  0.0000000E+00; -3.0328636E-05;  3.5073696E+03;
  3.1109452E-02;  9.9999998E-03;  2.5996315E-01;2685; -7.7857525E-04;  0.0000000E+00;  5.1311388E-05;  9.9723914E+02;  1.0000000E-01; -2.2873428E+03;3;  4.5561881E+00;  0.0000000E+00; -2.2623744E+00;0; -1.3787634E-02;  3.9756719E+04;  0.0000000E+00; -8.6703151E-01;  4.0000000E+04;  0.0000000E+00;  4.0021738E+04; -1.3632398E-02;  0.0000000E+00; -1.5523561E-04;  3.2022605E+03;
  3.0737981E-02;  9.9999998E-03;  2.6992825E-01;2686; -7.6118595E-04;  0.0000000E+00;  6.0155289E-05;  9.9753821E+02;  1.0000000E-01; -2.0395472E+03;3;  3.7085006E+00;  0.0000000E+00; -2.7624450E+00;0; -1.2477497E-02;  3.9784219E+04;  0.0000000E+00; -8.1972969E-01;  4.0000000E+04;  0.0000000E+00;  4.0016105E+04; -1.2168922E-02;  0.0000000E+00; -3.0857464E-04;  2.5808149E+03;
  3.0342240E-02;  9.9999998E-03;  2.7990964E-01;2687; -7.8410684E-04;  0.0000000E+00;  7.8412064E-05;  9.9784705E+02;  1.0000000E-01; -1.7837026E+03;3;  2.2085156E+00;  0.0000000E+00; -4.6455050E+00;0; -1.1128958E-02;  3.9814785E+04;  0.0000000E+00; -7.8244412E-01;  4.0000000E+04;  0.0000000E+00;  4.0009473E+04; -1.0654866E-02;  0.0000000E+00; -4.7409302E-04;  1.7775304E+03;
  2.9984569E-02;  9.9999998E-03;  2.8989828E-01;2688; -8.3758112E-04;  0.0000000E+00;  1.1433665E-04;  9.9815735E+02;  1.0000000E-01; -1.5266235E+03;3;  6.6186458E-01;  0.0000000E+00; -7.6296787E+00;0; -9.7594466E-03;  3.9847246E+04;  0.0000000E+00; -7.4401617E-01;  4.0000000E+04;  0.0000000E+00;  4.0001395E+04; -9.1282465E-03;  0.0000000E+00; -6.3120062E-04;  1.1137704E+03;
  2.9721931E-02;  9.9999998E-03;  2.9988846E-01;2689; -9.0710382E-04;  0.0000000E+00;  1.8992912E-04;  9.9846210E+02;  1.0000000E-01; -1.2741368E+03;3; -4.6427631E-01;  0.0000000E+00; -1.0887768E+01;0; -8.3887307E-03;  3.9879445E+04;  0.0000000E+00; -6.8741524E-01;  4.0000000E+04;  0.0000000E+00;  3.9994230E+04; -7.6314462E-03;  0.0000000E+00; -7.5728470E-04;  1.1532058E+03;
  4.1528665E-02;  9.9999998E-03;  2.4005732E-01;2744; -1.3746546E-03;  0.0000000E+00; -2.1615009E-05;  9.9867206E+02;  1.0000000E-01; -1.1001664E+03;3; -1.0096272E+01;  0.0000000E+00;  2.9294269E+00;0; -1.5482806E-02;  3.9873160E+04;  0.0000000E+00; -8.6163479E-01;  4.0000000E+04;  0.0000000E+00;  4.0022328E+04; -1.5544754E-02;  0.0000000E+00;  6.1948464E-05;  3.1076890E+03;
  4.1302972E-02;  9.9999998E-03;  2.5003242E-01;2745; -1.2360014E-03;  0.0000000E+00; -2.4256446E-05;  9.9866461E+02;  1.0000000E-01; -1.1063391E+03;3; -6.3806958E+00;  0.0000000E+00;  5.1965203E+00;0; -1.4376670E-02;  3.9869309E+04;  0.0000000E+00; -8.4131271E-01;  4.0000000E+04;  0.0000000E+00;  4.0023375E+04; -1.4368823E-02;  0.0000000E+00; -7.8477533E-06;  3.3036572E+03;
  4.1015904E-02;  9.9999998E-03;  2.5999683E-01;2746; -1.1413144E-03;  0.0000000E+00; -2.7854929E-05;  9.9867444E+02;  1.0000000E-01; -1.0981912E+03;3; -3.8637714E+00;  0.0000000E+00;  6.5863709E+00;0; -1.3197570E-02;  3.9870219E+04;  0.0000000E+00; -8.2831049E-01;  4.0000000E+04;  0.0000000E+00;  4.0022711E+04; -1.3073932E-02;  0.0000000E+00; -1.2363783E-04;  3.1522285E+03;
  4.0663838E-02;  9.9999998E-03;  2.6996720E-01;2747; -1.0932669E-03;  0.0000000E+00; -3.0283751E-05;  9.9870679E+02;  1.0000000E-01; -1.0714265E+03;3; -2.4790533E+00;  0.0000000E+00;  6.3356843E+00;0; -1.1961490E-02;  3.9875992E+04;  0.0000000E+00; -8.2749361E-01;  4.0000000E+04;  0.0000000E+00;  4.0018309E+04; -1.1687638E-02;  0.0000000E+00; -2.7385185E-04;  2.6626719E+03;
  4.0276386E-02;  9.9999998E-03;  2.7995437E-01;2748; -1.0881518E-03;  0.0000000E+00; -2.5650179E-05;  9.9876703E+02;  1.0000000E-01; -1.0215020E+03;3; -1.9276990E+00;  0.0000000E+00;  4.0850511E+00;0; -1.0680788E-02;  3.9886180E+04;  0.0000000E+00; -8.3190811E-01;  4.0000000E+04;  0.0000000E+00;  4.0011504E+04; -1.0240604E-02;  0.0000000E+00; -4.4018446E-04;  1.9535731E+03;
  3.9909355E-02;  9.9999998E-03;  2.8995585E-01;2749; -1.1152506E-03;  0.0000000E+00;  1.1980919E-06;  9.9885602E+02;  1.0000000E-01; -9.4777563E+02;3; -1.8136212E+00;  0.0000000E+00;  1.4420462E-01;0; -9.3701705E-03;  3.9900711E+04;  0.0000000E+00; -8.2360190E-01;  4.0000000E+04;  0.0000000E+00;  4.0003422E+04; -8.7695122E-03;  0.0000000E+00; -6.0065807E-04;  1.3011328E+03;
  3.9641224E-02;  9.9999998E-03;  2.9996112E-01;2750; -1.1555337E-03;  0.0000000E+00;  7.5092663E-05;  9.9896533E+02;  1.0000000E-01; -8.5721033E+02;3; -1.8199074E+00;  0.0000000E+00; -4.5549631E+00;0; -8.0503561E-03;  3.9917031E+04;  0.0000000E+00; -7.8122884E-01;  4.0000000E+04;  0.0000000E+00;  3.9996227E+04; -7.3178494E-03;  0.0000000E+00; -7.3250663E-04;  1.1730486E+03;
  5.1390242E-02;  9.9999998E-03;  2.4006119E-01;2805; -1.7327557E-03;  0.0000000E+00; -7.7968878E-05;  1.0002745E+03;  1.0000000E-01;  2.2745036E+02;3; -1.5680886E+01;  0.0000000E+00;  9.1143274E+00;0; -1.4038180E-02;  4.0003508E+04;  0.0000000E+00; -5.7099402E-01;  4.0000000E+04;  0.0000000E+00;  4.0020512E+04; -1.4130536E-02;  0.0000000E+00;  9.2356087E-05;  2.6459243E+03;
  5.1196206E-02;  9.9999998E-03;  2.5004479E-01;2806; -1.5624657E-03;  0.0000000E+00; -7.2675793E-05;  1.0000488E+03;  1.0000000E-01;  4.0393921E+01;3; -1.1161536E+01;  0.0000000E+00;  1.2364250E+01;0; -1.3066556E-02;  3.9981461E+04;  0.0000000E+00; -6.0856187E-01;  4.0000000E+04;  0.0000000E+00;  4.0023039E+04; -1.3101266E-02;  0.0000000E+00;  3.4709054E-05;  2.9905962E+03;
  5.0937023E-02;  9.9999998E-03;  2.6001686E-01;2807; -1.4403024E-03;  0.0000000E+00; -7.5751253E-05;  9.9983606E+02;  1.0000000E-01; -1.3579863E+02;3; -7.5631075E+00;  0.0000000E+00;  1.4475701E+01;0; -1.2026840E-02;  3.9963590E+04;  0.0000000E+00; -6.6822189E-01;  4.0000000E+04;  0.0000000E+00;  4.0022367E+04; -1.1948371E-02;  0.0000000E+00; -7.8468205E-05;  2.9855486E+03;
  5.0610032E-02;  9.9999998E-03;  2.6999035E-01;2808; -1.3704158E-03;  0.0000000E+00; -8.4041974E-05;  9.9964948E+02;  1.0000000E-01; -2.9041153E+02;3; -4.9575400E+00;  0.0000000E+00;  1.4518986E+01;0; -1.0931730E-02;  3.9950730E+04;  0.0000000E+00; -7.4436766E-01;  4.0000000E+04;  0.0000000E+00;  4.0018609E+04; -1.0698453E-02;  0.0000000E+00; -2.3327756E-04;  2.6244846E+03;
  5.0236855E-02;  9.9999998E-03;  2.7998212E-01;2809; -1.3475035E-03;  0.0000000E+00; -8.9160138E-05;  9.9949908E+02;  1.0000000E-01; -4.1500061E+02;3; -3.2103491E+00;  0.0000000E+00;  1.1998919E+01;0; -9.7891260E-03;  3.9943535E+04;  0.0000000E+00; -8.1844610E-01;  4.0000000E+04;  0.0000000E+00;  4.0013383E+04; -9.3809348E-03;  0.0000000E+00; -4.0819088E-04;  2.0147344E+03;
  4.9866647E-02;  9.9999998E-03;  2.8999531E-01;2810; -1.3596684E-03;  0.0000000E+00; -7.4736512E-05;  9.9939081E+02;  1.0000000E-01; -5.0472647E+02;3; -2.1138694E+00;  0.0000000E+00;  7.1855884E+00;0; -8.6091990E-03;  3.9941957E+04;  0.0000000E+00; -8.6279893E-01;  4.0000000E+04;  0.0000000E+00;  4.0005066E+04; -8.0306334E-03;  0.0000000E+00; -5.7856541E-04;  1.4131433E+03;
  4.9596999E-02;  9.9999998E-03;  3.0000788E-01;2811; -1.3817754E-03;  0.0000000E+00; -2.9000362E-06;  9.9934180E+02;  1.0000000E-01; -5.4531793E+02;3; -1.5671976E+00;  0.0000000E+00;  1.1804564E+00;0; -7.4096741E-03;  3.9945645E+04;  0.0000000E+00; -8.5075110E-01;  4.0000000E+04;  0.0000000E+00;  3.9997602E+04; -6.6894265E-03;  0.0000000E+00; -7.2024786E-04;  1.2291154E+03;
  6.1266102E-02;  9.9999998E-03;  2.4006343E-01;2866; -1.9987714E-03;  0.0000000E+00; -1.2918371E-04;  1.0014214E+03;  1.0000000E-01;  1.1776458E+03;3; -1.5786519E+01;  0.0000000E+00;  1.4006234E+01;0; -1.2088136E-02;  4.0098324E+04;  0.0000000E+00; -1.2947130E-01;  4.0000000E+04;  0.0000000E+00;  4.0018609E+04; -1.2243904E-02;  0.0000000E+00;  1.5576881E-04;  2.2514377E+03;
  6.1100475E-02;  9.9999998E-03;  2.5005376E-01;2867; -1.8093440E-03;  0.0000000E+00; -1.0859470E-04;  1.0010342E+03;  1.0000000E-01;  8.5686469E+02;3; -1.1349897E+01;  0.0000000E+00;  1.8027515E+01;0; -1.1294710E-02;  4.0062383E+04;  0.0000000E+00; -2.3722936E-01;  4.0000000E+04;  0.0000000E+00;  4.0022012E+04; -1.1398674E-02;  0.0000000E+00;  1.0396377E-04;  2.6956797E+03;
  6.0870230E-02;  9.9999998E-03;  2.6003280E-01;2868; -1.6662091E-03;  0.0000000E+00; -9.5284813E-05;  1.0006539E+03;  1.0000000E-01;  5.4171307E+02;3; -7.5554242E+00;  0.0000000E+00;  2.0708637E+01;0; -1.0442370E-02;  4.0030023E+04;  0.0000000E+00; -3.8747007E-01;  4.0000000E+04;  0.0000000E+00;  4.0021840E+04; -1.0427602E-02;  0.0000000E+00; -1.4767924E-05;  2.7836125E+03;
  6.0572442E-02;  9.9999998E-03;  2.7000841E-01;2869; -1.5815098E-03;  0.0000000E+00; -9.8580516E-05;  1.0002941E+03;  1.0000000E-01;  2.4364743E+02;3; -4.5466461E+00;  0.0000000E+00;  2.0909704E+01;0; -9.5397299E-03;  4.0002605E+04;  0.0000000E+00; -5.6018716E-01;  4.0000000E+04;  0.0000000E+00;  4.0019426E+04; -9.3556279E-03;  0.0000000E+00; -1.8410181E-04;  2.5000730E+03;
  6.0218390E-02;  9.9999998E-03;  2.8000137E-01;2870; -1.5483914E-03;  0.0000000E+00; -1.0739698E-04;  9.9997577E+02;  1.0000000E-01; -2.0098198E+01;3; -2.3253105E+00;  0.0000000E+00;  1.8033966E+01;0; -8.5902838E-03;  3.9981879E+04;  0.0000000E+00; -7.2313064E-01;  4.0000000E+04;  0.0000000E+00;  4.0012602E+04; -8.2121324E-03;  0.0000000E+00; -3.7815154E-04;  1.9493070E+03;
  5.9857488E-02;  9.9999998E-03;  2.9001647E-01;2871; -1.5532699E-03;  0.0000000E+00; -1.0079940E-04;  9.9972327E+02;  1.0000000E-01; -2.2927747E+02;3; -8.6559600E-01;  0.0000000E+00;  1.2434089E+01;0; -7.5980974E-03;  3.9968219E+04;  0.0000000E+00; -8.3829927E-01;  4.0000000E+04;  0.0000000E+00;  4.0005512E+04; -7.0300945E-03;  0.0000000E+00; -5.6800310E-04;  1.3971301E+03;
  5.9585169E-02;  9.9999998E-03;  3.0003971E-01;2872; -1.5660638E-03;  0.0000000E+00; -3.4879424E-05;  9.9954620E+02;  1.0000000E-01; -3.7593997E+02;3; -1.7418285E-01;  0.0000000E+00;  5.2362709E+00;0; -6.5744142E-03;  3.9961520E+04;  0.0000000E+00; -8.7336683E-01;  4.0000000E+04;  0.0000000E+00;  3.9997953E+04; -5.8474457E-03;  0.0000000E+00; -7.2696840E-04;  1.2567458E+03;
  7.1161196E-02;  9.9999998E-03;  2.4007429E-01;2927; -2.1348288E-03;  0.0000000E+00; -1.2914385E-04;  1.0020979E+03;  1.0000000E-01;  1.7380249E+03;3; -1.2542623E+01;  0.0000000E+00;  1.7544901E+01;0; -9.8926481E-03;  4.0154758E+04;  0.0000000E+00;  4.1297752E-01;  4.0000000E+04;  0.0000000E+00;  4.0018148E+04; -1.0151982E-02;  0.0000000E+00;  2.5933443E-04;  2.1764517E+03;
  7.1019076E-02;  9.9999998E-03;  2.5007173E-01;2928; -1.9398992E-03;  0.0000000E+00; -9.6743875E-05;  1.0016072E+03;  1.0000000E-01;  1.3315179E+03;3; -8.7069454E+00;  0.0000000E+00;  2.2085344E+01;0; -9.3071414E-03;  4.0109688E+04;  0.0000000E+00;  2.4991801E-01;  4.0000000E+04;  0.0000000E+00;  4.0021426E+04; -9.5126778E-03;  0.0000000E+00;  2.0553652E-04;  2.5977197E+03;
  7.0817232E-02;  9.9999998E-03;  2.6005471E-01;2929; -1.7960184E-03;  0.0000000E+00; -6.9581351E-05;  1.0011083E+03;  1.0000000E-01;  9.1819623E+02;3; -5.2916427E+00;  0.0000000E+00;  2.5068491E+01;0; -8.6732656E-03;  4.0067488E+04;  0.0000000E+00;  2.3811484E-02;  4.0000000E+04;  0.0000000E+00;  4.0022156E+04; -8.7449644E-03;  0.0000000E+00;  7.1698742E-05;  2.6654209E+03;
  7.0550129E-02;  9.9999998E-03;  2.7002969E-01;2930; -1.7105034E-03;  0.0000000E+00; -6.5343367E-05;  1.0006266E+03;  1.0000000E-01;  5.1909644E+02;3; -2.4508617E+00;  0.0000000E+00;  2.5204933E+01;0; -7.9956884E-03;  4.0030211E+04;  0.0000000E+00; -2.3428433E-01;  4.0000000E+04;  0.0000000E+00;  4.0019523E+04; -7.8727435E-03;  0.0000000E+00; -1.2294465E-04;  2.3460217E+03;
  7.0224471E-02;  9.9999998E-03;  2.8001440E-01;2931; -1.6789581E-03;  0.0000000E+00; -7.6613884E-05;  1.0001906E+03;  1.0000000E-01;  1.5782269E+02;3; -2.6715106E-01;  0.0000000E+00;  2.1811897E+01;0; -7.2736046E-03;  3.9999973E+04;  0.0000000E+00; -4.8213395E-01;  4.0000000E+04;  0.0000000E+00;  4.0013156E+04; -6.9259768E-03;  0.0000000E+00; -3.4762773E-04;  1.7386897E+03;
  6.9881760E-02;  9.9999998E-03;  2.9002455E-01;2932; -1.6821014E-03;  0.0000000E+00; -7.6687516E-05;  9.9983276E+02;  1.0000000E-01; -1.3856398E+02;3;  1.1831334E+00;  0.0000000E+00;  1.5283618E+01;0; -6.5049301E-03;  3.9977812E+04;  0.0000000E+00; -6.7422998E-01;  4.0000000E+04;  0.0000000E+00;  4.0004840E+04; -5.9368946E-03;  0.0000000E+00; -5.6803564E-04;  1.1498885E+03;
  6.9606334E-02;  9.9999998E-03;  3.0006409E-01;2933; -1.6865766E-03;  0.0000000E+00; -1.1270912E-05;  9.9956970E+02;  1.0000000E-01; -3.5648373E+02;3;  1.7645519E+00;  0.0000000E+00;  6.8992887E+00;0; -5.6926683E-03;  3.9964301E+04;  0.0000000E+00; -7.7329135E-01;  4.0000000E+04;  0.0000000E+00;  3.9996715E+04; -4.9397098E-03;  0.0000000E+00; -7.5295847E-04;  1.1543036E+03;
  8.1080094E-02;  9.9999998E-03;  2.4009652E-01;2988; -2.1209498E-03;  0.0000000E+00; -6.0834289E-05;  1.0023504E+03;  1.0000000E-01;  1.9473030E+03;3; -8.0664310E+00;  0.0000000E+00;  1.9850195E+01;0; -7.7376422E-03;  4.0175684E+04;  0.0000000E+00;  1.0178099E+00;  4.0000000E+04;  0.0000000E+00;  4.0018438E+04; -8.1421249E-03;  0.0000000E+00;  4.0448294E-04;  2.5611943E+03;
  8.0957487E-02;  9.9999998E-03;  2.5010002E-01;2989; -1.9304311E-03;  0.0000000E+00; -3.8993999E-06;  1.0017988E+03;  1.0000000E-01;  1.4902295E+03;3; -5.0283313E+00;  0.0000000E+00;  2.4705887E+01;0; -7.3723574E-03;  4.0125969E+04;  0.0000000E+00;  8.5727590E-01;  4.0000000E+04;  0.0000000E+00;  4.0021500E+04; -7.7150399E-03;  0.0000000E+00;  3.4268250E-04;  2.8701250E+03;
  8.0784798E-02;  9.9999998E-03;  2.6008281E-01;2990; -1.7952127E-03;  0.0000000E+00;  3.5517372E-05;  1.0012336E+03;  1.0000000E-01;  1.0220945E+03;3; -2.2295737E+00;  0.0000000E+00;  2.7781042E+01;0; -6.9694584E-03;  4.0077965E+04;  0.0000000E+00;  6.1732817E-01;  4.0000000E+04;  0.0000000E+00;  4.0022496E+04; -7.1553066E-03;  0.0000000E+00;  1.8584804E-04;  2.8153621E+03;
  8.0551229E-02;  9.9999998E-03;  2.7005166E-01;2991; -1.7221464E-03;  0.0000000E+00;  4.0121420E-05;  1.0006760E+03;  1.0000000E-01;  5.5998419E+02;3;  1.8690592E-01;  0.0000000E+00;  2.7596951E+01;0; -6.5293945E-03;  4.0034887E+04;  0.0000000E+00;  3.2814276E-01;  4.0000000E+04;  0.0000000E+00;  4.0018969E+04; -6.4857900E-03;  0.0000000E+00; -4.3604348E-05;  2.3329556E+03;
  8.0261312E-02;  9.9999998E-03;  2.8002247E-01;2992; -1.7035827E-03;  0.0000000E+00;  1.8782403E-05;  1.0001650E+03;  1.0000000E-01;  1.3668748E+02;3;  2.1016724E+00;  0.0000000E+00;  2.3393625E+01;0; -6.0469462E-03;  3.9999031E+04;  0.0000000E+00;  3.1320617E-02;  4.0000000E+04;  0.0000000E+00;  4.0011863E+04; -5.7372916E-03;  0.0000000E+00; -3.0965448E-04;  1.4834543E+03;
  7.9940543E-02;  9.9999998E-03;  2.9002663E-01;2993; -1.7155242E-03;  0.0000000E+00;  5.3307108E-06;  9.9973975E+02;  1.0000000E-01; -2.1559885E+02;3;  3.3623152E+00;  0.0000000E+00;  1.5649075E+01;0; -5.5151768E-03;  3.9972547E+04;  0.0000000E+00; -2.2698250E-01;  4.0000000E+04;  0.0000000E+00;  4.0003348E+04; -4.9434621E-03;  0.0000000E+00; -5.7171466E-04;  5.2452454E+02;
  7.9664461E-02;  9.9999998E-03;  3.0008137E-01;2994; -1.7176418E-03;  0.0000000E+00;  5.8908048E-05;  9.9942603E+02;  1.0000000E-01; -4.7554211E+02;3;  3.7758975E+00;  0.0000000E+00;  5.9568176E+00;0; -4.9281535E-03;  3.9956125E+04;  0.0000000E+00; -4.0630800E-01;  4.0000000E+04;  0.0000000E+00;  3.9994027E+04; -4.1361097E-03;  0.0000000E+00; -7.9204381E-04;  9.0607422E+02;
  9.1025092E-02;  9.9999998E-03;  2.4011789E-01;3049; -1.9667470E-03;  0.0000000E+00;  8.9666661E-05;  1.0022589E+03;  1.0000000E-01;  1.8714532E+03;3; -3.9261360E+00;  0.0000000E+00;  2.1252785E+01;0; -5.8878544E-03;  4.0167895E+04;  0.0000000E+00;  1.6807363E+00;  4.0000000E+04;  0.0000000E+00;  4.0020023E+04; -6.4745424E-03;  0.0000000E+00;  5.8668817E-04;  3.3288000E+03;
  9.0921186E-02;  9.9999998E-03;  2.5012490E-01;3050; -1.7880508E-03;  0.0000000E+00;  1.7544729E-04;  1.0016953E+03;  1.0000000E-01;  1.4045035E+03;3; -1.6677494E+00;  0.0000000E+00;  2.6334936E+01;0; -5.7360386E-03;  4.0116668E+04;  0.0000000E+00;  1.6263138E+00;  4.0000000E+04;  0.0000000E+00;  4.0023223E+04; -6.2507340E-03;  0.0000000E+00;  5.1469530E-04;  3.6121294E+03;
  9.0775736E-02;  9.9999998E-03;  2.6010609E-01;3051; -1.6632300E-03;  0.0000000E+00;  2.2522827E-04;  1.0010930E+03;  1.0000000E-01;  9.0545587E+02;3;  5.1985854E-01;  0.0000000E+00;  2.9294777E+01;0; -5.5566058E-03;  4.0066859E+04;  0.0000000E+00;  1.4845524E+00;  4.0000000E+04;  0.0000000E+00;  4.0022758E+04; -5.8885701E-03;  0.0000000E+00;  3.3196458E-04;  3.4954856E+03;
  9.0575121E-02;  9.9999998E-03;  2.7006701E-01;3052; -1.6030468E-03;  0.0000000E+00;  2.2010865E-04;  1.0004948E+03;  1.0000000E-01;  4.0986496E+02;3;  2.5018630E+00;  0.0000000E+00;  2.8534777E+01;0; -5.3459820E-03;  4.0021137E+04;  0.0000000E+00;  1.2657514E+00;  4.0000000E+04;  0.0000000E+00;  4.0018250E+04; -5.4086931E-03;  0.0000000E+00;  6.2711071E-05;  2.9127576E+03;
  9.0325147E-02;  9.9999998E-03;  2.8002325E-01;3053; -1.6013071E-03;  0.0000000E+00;  1.7345921E-04;  9.9993951E+02;  1.0000000E-01; -5.0122040E+01;3;  4.1415744E+00;  0.0000000E+00;  2.3203815E+01;0; -5.0955703E-03;  3.9983168E+04;  0.0000000E+00;  9.9325603E-01;  4.0000000E+04;  0.0000000E+00;  4.0010398E+04; -4.8430674E-03;  0.0000000E+00; -2.5250274E-04;  1.9499501E+03;
  9.0032622E-02;  9.9999998E-03;  2.9001835E-01;3054; -1.6257379E-03;  0.0000000E+00;  1.2971259E-04;  9.9948151E+02;  1.0000000E-01; -4.2956808E+02;3;  5.2422132E+00;  0.0000000E+00;  1.3936005E+01;0; -4.7935587E-03;  3.9955172E+04;  0.0000000E+00;  7.0222551E-01;  4.0000000E+04;  0.0000000E+00;  4.0000133E+04; -4.2276550E-03;  0.0000000E+00; -5.6590361E-04;  1.0195929E+03;
  8.9764699E-02;  9.9999998E-03;  3.0008584E-01;3055; -1.6228437E-03;  0.0000000E+00;  1.6912555E-04;  9.9914960E+02;  1.0000000E-01; -7.0452325E+02;3;  5.5681386E+00;  0.0000000E+00;  2.6568663E+00;0; -4.4205636E-03;  3.9938113E+04;  0.0000000E+00;  4.3151012E-01;  4.0000000E+04;  0.0000000E+00;  3.9989406E+04; -3.5911826E-03;  0.0000000E+00; -8.2938082E-04;  1.3833096E+03;
  1.0100586E-01;  9.9999998E-03;  2.4011597E-01;3110; -1.7525114E-03;  0.0000000E+00;  2.9615336E-04;  1.0019443E+03;  1.0000000E-01;  1.6108186E+03;3; -9.6034819E-01;  0.0000000E+00;  2.2182293E+01;0; -4.5381743E-03;  4.0140215E+04;  0.0000000E+00;  2.4274201E+00;  4.0000000E+04;  0.0000000E+00;  4.0022637E+04; -5.3345226E-03;  0.0000000E+00;  7.9634832E-04;  4.3894673E+03;
  1.0092030E-01;  9.9999998E-03;  2.5012311E-01;3111; -1.5856210E-03;  0.0000000E+00;  4.1025566E-04;  1.0013826E+03;  1.0000000E-01;  1.1454491E+03;3;  6.8970740E-01;  0.0000000E+00;  2.7442379E+01;0; -4.5745284E-03;  4.0090145E+04;  0.0000000E+00;  2.6182883E+00;  4.0000000E+04;  0.0000000E+00;  4.0025613E+04; -5.2936138E-03;  0.0000000E+00;  7.1908534E-04;  4.8583062E+03;
  1.0079507E-01;  9.9999998E-03;  2.6010224E-01;3112; -1.4624096E-03;  0.0000000E+00;  4.5821414E-04;  1.0007711E+03;  1.0000000E-01;  6.3879675E+02;3;  2.4079394E+00;  0.0000000E+00;  3.0228329E+01;0; -4.5930813E-03;  4.0040246E+04;  0.0000000E+00;  2.7285368E+00;  4.0000000E+04;  0.0000000E+00;  4.0024051E+04; -5.1076058E-03;  0.0000000E+00;  5.1452452E-04;  4.9277632E+03;
  1.0062661E-01;  9.9999998E-03;  2.7005294E-01;3113; -1.3934087E-03;  0.0000000E+00;  4.3599919E-04;  1.0001523E+03;  1.0000000E-01;  1.2611989E+02;3;  4.0932927E+00;  0.0000000E+00;  2.8715702E+01;0; -4.5839013E-03;  3.9994336E+04;  0.0000000E+00;  2.7270997E+00;  4.0000000E+04;  0.0000000E+00;  4.0018801E+04; -4.7916304E-03;  0.0000000E+00;  2.0772917E-04;  4.5646221E+03;
  1.0041394E-01;  9.9999998E-03;  2.7999702E-01;3114; -1.3749547E-03;  0.0000000E+00;  3.6462993E-04;  9.9957709E+02;  1.0000000E-01; -3.5036047E+02;3;  5.5934610E+00;  0.0000000E+00;  2.1989361E+01;0; -4.5352923E-03;  3.9956156E+04;  0.0000000E+00;  2.5936136E+00;  4.0000000E+04;  0.0000000E+00;  4.0009113E+04; -4.3774485E-03;  0.0000000E+00; -1.5784381E-04;  3.9170608E+03;
  1.0016017E-01;  9.9999998E-03;  2.8998137E-01;3115; -1.3808369E-03;  0.0000000E+00;  2.9378603E-04;  9.9909882E+02;  1.0000000E-01; -7.4659619E+02;3;  6.6886139E+00;  0.0000000E+00;  1.0802401E+01;0; -4.4296170E-03;  3.9928664E+04;  0.0000000E+00;  2.3347232E+00;  4.0000000E+04;  0.0000000E+00;  3.9997262E+04; -3.9022483E-03;  0.0000000E+00; -5.2736851E-04;  3.3790793E+03;
  9.9914365E-02;  9.9999998E-03;  3.0006063E-01;3116; -1.3522054E-03;  0.0000000E+00;  3.2040558E-04;  9.9876196E+02;  1.0000000E-01; -1.0256993E+03;3;  7.1149530E+00;  0.0000000E+00; -2.4786584E+00;0; -4.2301249E-03;  3.9913188E+04;  0.0000000E+00;  1.9748974E+00;  4.0000000E+04;  0.0000000E+00;  3.9983895E+04; -3.3905918E-03;  0.0000000E+00; -8.3953294E-04;  3.4219404E+03;
  1.1103304E-01;  9.9999998E-03;  2.4007335E-01;3171; -1.6117055E-03;  0.0000000E+00;  4.1976685E-04;  1.0015213E+03;  1.0000000E-01;  1.2604088E+03;3;  7.3313653E-01;  0.0000000E+00;  2.2810049E+01;0; -3.7890454E-03;  4.0102406E+04;  0.0000000E+00;  3.2886512E+00;  4.0000000E+04;  0.0000000E+00;  4.0027336E+04; -4.8045469E-03;  0.0000000E+00;  1.0155017E-03;  5.7147700E+03;
  1.1094791E-01;  9.9999998E-03;  2.5007588E-01;3172; -1.4572138E-03;  0.0000000E+00;  5.2751246E-04;  1.0009725E+03;  1.0000000E-01;  8.0570563E+02;3;  2.0010886E+00;  0.0000000E+00;  2.8160515E+01;0; -3.9839777E-03;  4.0054051E+04;  0.0000000E+00;  3.8797848E+00;  4.0000000E+04;  0.0000000E+00;  4.0029031E+04; -4.9232803E-03;  0.0000000E+00;  9.3930261E-04;  6.6229663E+03;
  1.1083151E-01;  9.9999998E-03;  2.6004973E-01;3173; -1.3231322E-03;  0.0000000E+00;  5.7242298E-04;  1.0003619E+03;  1.0000000E-01;  2.9984338E+02;3;  3.4635057E+00;  0.0000000E+00;  3.0754335E+01;0; -4.1669644E-03;  4.0005062E+04;  0.0000000E+00;  4.4226956E+00;  4.0000000E+04;  0.0000000E+00;  4.0027297E+04; -4.8893974E-03;  0.0000000E+00;  7.2243321E-04;  7.2031948E+03;
  1.1068795E-01;  9.9999998E-03;  2.6999056E-01;3174; -1.2118819E-03;  0.0000000E+00;  5.4977334E-04;  9.9973163E+02;  1.0000000E-01; -2.2236407E+02;3;  5.0469112E+00;  0.0000000E+00;  2.8594347E+01;0; -4.3189088E-03;  3.9959895E+04;  0.0000000E+00;  4.8242364E+00;  4.0000000E+04;  0.0000000E+00;  4.0020102E+04; -4.7067218E-03;  0.0000000E+00;  3.8781296E-04;  7.4106631E+03;
  1.1051592E-01;  9.9999998E-03;  2.7991879E-01;3175; -1.1243155E-03;  0.0000000E+00;  4.7620782E-04;  9.9913367E+02;  1.0000000E-01; -7.1775751E+02;3;  6.5981374E+00;  0.0000000E+00;  2.0604601E+01;0; -4.4198297E-03;  3.9922027E+04;  0.0000000E+00;  4.9955535E+00;  4.0000000E+04;  0.0000000E+00;  4.0008668E+04; -4.3987189E-03;  0.0000000E+00; -2.1110754E-05;  7.3089790E+03;
  1.1031914E-01;  9.9999998E-03;  2.8988212E-01;3176; -1.0533542E-03;  0.0000000E+00;  4.1419730E-04;  9.9863403E+02;  1.0000000E-01; -1.1316718E+03;3;  7.8233595E+00;  0.0000000E+00;  7.6080365E+00;0; -4.4413409E-03;  3.9894777E+04;  0.0000000E+00;  4.8817134E+00;  4.0000000E+04;  0.0000000E+00;  3.9994422E+04; -4.0006912E-03;  0.0000000E+00; -4.4064969E-04;  7.0677007E+03;
  1.1011812E-01;  9.9999998E-03;  2.9996654E-01;3177; -9.5640874E-04;  0.0000000E+00;  4.4494547E-04;  9.9827747E+02;  1.0000000E-01; -1.4270708E+03;3;  8.4710903E+00;  0.0000000E+00; -8.0802088E+00;0; -4.3323589E-03;  3.9880562E+04;  0.0000000E+00;  4.4602189E+00;  4.0000000E+04;  0.0000000E+00;  3.9978754E+04; -3.5323719E-03;  0.0000000E+00; -7.9998723E-04;  6.9004619E+03;
  1.2105735E-01;  9.9999998E-03;  2.4000458E-01;3232; -1.5998812E-03;  0.0000000E+00;  3.6806171E-04;  1.0010945E+03;  1.0000000E-01;  9.0673981E+02;3;  1.4781861E+00;  0.0000000E+00;  2.3204983E+01;0; -3.6299091E-03;  4.0063090E+04;  0.0000000E+00;  4.2672062E+00;  4.0000000E+04;  0.0000000E+00;  4.0031980E+04; -4.8492416E-03;  0.0000000E+00;  1.2193325E-03;  7.2708950E+03;
  1.2095280E-01;  9.9999998E-03;  2.4999754E-01;3233; -1.4557987E-03;  0.0000000E+00;  4.6880683E-04;  1.0005598E+03;  1.0000000E-01;  4.6378934E+02;3;  2.5737143E+00;  0.0000000E+00;  2.8664036E+01;0; -3.9553149E-03;  4.0016359E+04;  0.0000000E+00;  5.4060183E+00;  4.0000000E+04;  0.0000000E+00;  4.0033707E+04; -5.1074270E-03;  0.0000000E+00;  1.1521119E-03;  8.8703428E+03;
  1.2082664E-01;  9.9999998E-03;  2.5996122E-01;3234; -1.3130872E-03;  0.0000000E+00;  5.1117828E-04;  9.9995135E+02;  1.0000000E-01; -4.0295158E+01;3;  3.9923105E+00;  0.0000000E+00;  3.1210285E+01;0; -4.2802640E-03;  3.9968590E+04;  0.0000000E+00;  6.5740862E+00;  4.0000000E+04;  0.0000000E+00;  4.0031273E+04; -5.2118199E-03;  0.0000000E+00;  9.3155587E-04;  1.0294531E+04;
  1.2068907E-01;  9.9999998E-03;  2.6989374E-01;3235; -1.1610027E-03;  0.0000000E+00;  4.9166137E-04;  9.9931360E+02;  1.0000000E-01; -5.6867529E+02;3;  5.6725440E+00;  0.0000000E+00;  2.8739326E+01;0; -4.5703622E-03;  3.9923699E+04;  0.0000000E+00;  7.6037035E+00;  4.0000000E+04;  0.0000000E+00;  4.0023738E+04; -5.1468932E-03;  0.0000000E+00;  5.7653082E-04;  1.1419098E+04;
  1.2055518E-01;  9.9999998E-03;  2.7980691E-01;3236; -1.0004957E-03;  0.0000000E+00;  4.3613551E-04;  9.9870099E+02;  1.0000000E-01; -1.0762164E+03;3;  7.4065037E+00;  0.0000000E+00;  2.0179255E+01;0; -4.7827028E-03;  3.9885613E+04;  0.0000000E+00;  8.3162823E+00;  4.0000000E+04;  0.0000000E+00;  4.0011449E+04; -4.9166279E-03;  0.0000000E+00;  1.3392535E-04;  1.2142964E+04;
  1.2042622E-01;  9.9999998E-03;  2.8974831E-01;3237; -8.2637183E-04;  0.0000000E+00;  3.9925214E-04;  9.9816248E+02;  1.0000000E-01; -1.5223767E+03;3;  8.8399715E+00;  0.0000000E+00;  5.9867859E+00;0; -4.8604398E-03;  3.9857531E+04;  0.0000000E+00;  8.5469561E+00;  4.0000000E+04;  0.0000000E+00;  3.9995137E+04; -4.5347717E-03;  0.0000000E+00; -3.2566814E-04;  1.2375633E+04;
  1.2032432E-01;  9.9999998E-03;  2.9980487E-01;3238; -6.0085283E-04;  0.0000000E+00;  4.5593665E-04;  9.9772791E+02;  1.0000000E-01; -1.8823665E+03;3;  9.7500753E+00;  0.0000000E+00; -1.1904593E+01;0; -4.7111772E-03;  3.9840000E+04;  0.0000000E+00;  8.1476545E+00;  4.0000000E+04;  0.0000000E+00;  3.9977031E+04; -3.9928914E-03;  0.0000000E+00; -7.1828556E-04;  1.2066648E+04;
  1.3105063E-01;  9.9999998E-03;  2.3993164E-01;3293; -1.7057422E-03;  0.0000000E+00;  2.0124909E-04;  1.0007487E+03;  1.0000000E-01;  6.2022937E+02;3;  1.6630294E+00;  0.0000000E+00;  2.3664623E+01;0; -3.9425232E-03;  4.0029770E+04;  0.0000000E+00;  5.3087959E+00;  4.0000000E+04;  0.0000000E+00;  4.0037145E+04; -5.3274208E-03;  0.0000000E+00;  1.3848976E-03;  8.9600508E+03;
  1.3092799E-01;  9.9999998E-03;  2.4990875E-01;3294; -1.5721521E-03;  0.0000000E+00;  3.0101973E-04;  1.0002231E+03;  1.0000000E-01;  1.8488367E+02;3;  2.8018055E+00;  0.0000000E+00;  2.9505108E+01;0; -4.3848776E-03;  3.9983277E+04;  0.0000000E+00;  7.1100416E+00;  4.0000000E+04;  0.0000000E+00;  4.0040758E+04; -5.7183732E-03;  0.0000000E+00;  1.3334955E-03;  1.1472934E+04;
  1.3078597E-01;  9.9999998E-03;  2.5985765E-01;3295; -1.4299507E-03;  0.0000000E+00;  3.3690908E-04;  9.9962219E+02;  1.0000000E-01; -3.1302820E+02;3;  4.4508624E+00;  0.0000000E+00;  3.2520573E+01;0; -4.8547550E-03;  3.9935617E+04;  0.0000000E+00;  9.0928669E+00;  4.0000000E+04;  0.0000000E+00;  4.0038086E+04; -5.9680510E-03;  0.0000000E+00;  1.1132961E-03;  1.4064901E+04;
  1.3064648E-01;  9.9999998E-03;  2.6977536E-01;3296; -1.2628293E-03;  0.0000000E+00;  3.1545170E-04;  9.9899042E+02;  1.0000000E-01; -8.3642078E+02;3;  6.5394201E+00;  0.0000000E+00;  3.0645557E+01;0; -5.3016762E-03;  3.9891352E+04;  0.0000000E+00;  1.1032624E+01;  4.0000000E+04;  0.0000000E+00;  4.0030633E+04; -6.0404288E-03;  0.0000000E+00;  7.3875254E-04;  1.6525633E+04;
  1.3052438E-01;  9.9999998E-03;  2.7967960E-01;3297; -1.0538538E-03;  0.0000000E+00;  2.7158216E-04;  9.9837537E+02;  1.0000000E-01; -1.3459866E+03;3;  8.7675543E+00;  0.0000000E+00;  2.2576147E+01;0; -5.6387465E-03;  3.9853320E+04;  0.0000000E+00;  1.2631608E+01;  4.0000000E+04;  0.0000000E+00;  4.0018902E+04; -5.9010726E-03;  0.0000000E+00;  2.6232586E-04;  1.8528566E+04;
  1.3044481E-01;  9.9999998E-03;  2.8960231E-01;3298; -7.7304646E-04;  0.0000000E+00;  2.6688431E-04;  9.9780054E+02;  1.0000000E-01; -1.8222201E+03;3;  1.0624146E+01;  0.0000000E+00;  8.3545256E+00;0; -5.7265493E-03;  3.9822793E+04;  0.0000000E+00;  1.3554302E+01;  4.0000000E+04;  0.0000000E+00;  4.0002754E+04; -5.4994822E-03;  0.0000000E+00; -2.2706727E-04;  1.9675578E+04;
  1.3043603E-01;  9.9999998E-03;  2.9964653E-01;3299; -3.6409992E-04;  0.0000000E+00;  3.7697563E-04;  9.9723444E+02;  1.0000000E-01; -2.2911946E+03;3;  1.1777131E+01;  0.0000000E+00; -1.1607322E+01;0; -5.3487392E-03;  3.9797414E+04;  0.0000000E+00;  1.3353140E+01;  4.0000000E+04;  0.0000000E+00;  3.9982211E+04; -4.7242898E-03;  0.0000000E+00; -6.2444923E-04;  1.9437727E+04;
  1.4103143E-01;  9.9999998E-03;  2.3987702E-01;3354; -1.8945063E-03;  0.0000000E+00;  1.0327706E-05;  1.0005367E+03;  1.0000000E-01;  4.4462939E+02;3;  1.5757048E+00;  0.0000000E+00;  2.4339455E+01;0; -4.5475150E-03;  4.0006441E+04;  0.0000000E+00;  6.2911181E+00;  4.0000000E+04;  0.0000000E+00;  4.0042719E+04; -6.0419650E-03;  0.0000000E+00;  1.4944498E-03;  1.0587394E+04;
  1.4090952E-01;  9.9999998E-03;  2.4982925E-01;3355; -1.7818453E-03;  0.0000000E+00;  9.1823458E-05;  1.0000122E+03;  1.0000000E-01;  1.0073790E+01;3;  2.9949501E+00;  0.0000000E+00;  3.0963816E+01;0; -5.1231524E-03;  3.9958648E+04;  0.0000000E+00;  8.8062010E+00;  4.0000000E+04;  0.0000000E+00;  4.0048242E+04; -6.5790089E-03;  0.0000000E+00;  1.4558565E-03;  1.4170031E+04;
  1.4076051E-01;  9.9999998E-03;  2.5975537E-01;3356; -1.6517685E-03;  0.0000000E+00;  1.2972609E-04;  9.9942004E+02;  1.0000000E-01; -4.8048022E+02;3;  5.2524924E+00;  0.0000000E+00;  3.5373394E+01;0; -5.7676621E-03;  3.9910008E+04;  0.0000000E+00;  1.1781493E+01;  4.0000000E+04;  0.0000000E+00;  4.0048488E+04; -7.0074028E-03;  0.0000000E+00;  1.2397410E-03;  1.8250938E+04;
  1.4059648E-01;  9.9999998E-03;  2.6966295E-01;3357; -1.4886683E-03;  0.0000000E+00;  1.1527671E-04;  9.9881598E+02;  1.0000000E-01; -9.8095990E+02;3;  8.3192863E+00;  0.0000000E+00;  3.5459763E+01;0; -6.4231418E-03;  3.9865641E+04;  0.0000000E+00;  1.4984154E+01;  4.0000000E+04;  0.0000000E+00;  4.0043340E+04; -7.2705867E-03;  0.0000000E+00;  8.4744487E-04;  2.2569732E+04;
  1.4046967E-01;  9.9999998E-03;  2.7955449E-01;3358; -1.2627424E-03;  0.0000000E+00;  8.5182917E-05;  9.9822681E+02;  1.0000000E-01; -1.4690449E+03;3;  1.1798404E+01;  0.0000000E+00;  2.9762543E+01;0; -6.9536306E-03;  3.9827824E+04;  0.0000000E+00;  1.7986080E+01;  4.0000000E+04;  0.0000000E+00;  4.0033457E+04; -7.2914269E-03;  0.0000000E+00;  3.3779640E-04;  2.6584402E+04;
  1.4041373E-01;  9.9999998E-03;  2.8946641E-01;3359; -9.0892200E-04;  0.0000000E+00;  1.0979795E-04;  9.9763586E+02;  1.0000000E-01; -1.9586606E+03;3;  1.4818759E+01;  0.0000000E+00;  1.7178308E+01;0; -7.0832861E-03;  3.9794930E+04;  0.0000000E+00;  2.0152039E+01;  4.0000000E+04;  0.0000000E+00;  4.0018449E+04; -6.9100219E-03;  0.0000000E+00; -1.7326407E-04;  2.9409738E+04;
  1.4048633E-01;  9.9999998E-03;  2.9949784E-01;3360; -2.9500353E-04;  0.0000000E+00;  3.1155115E-04;  9.9688153E+02;  1.0000000E-01; -2.5835813E+03;3;  1.6461880E+01;  0.0000000E+00; -4.2661047E+00;0; -6.2583722E-03;  3.9756453E+04;  0.0000000E+00;  2.0475662E+01;  4.0000000E+04;  0.0000000E+00;  3.9997301E+04; -5.7468284E-03;  0.0000000E+00; -5.1154406E-04;  2.9666977E+04;
  1.5103224E-01;  9.9999998E-03;  2.3985949E-01;3415; -2.1172413E-03;  0.0000000E+00; -1.1012849E-04;  1.0004570E+03;  1.0000000E-01;  3.7865594E+02;3;  1.3428084E+00;  0.0000000E+00;  2.4946243E+01;0; -5.2208016E-03;  3.9995375E+04;  0.0000000E+00;  7.0362239E+00;  4.0000000E+04;  0.0000000E+00;  4.0046773E+04; -6.7745917E-03;  0.0000000E+00;  1.5537899E-03;  1.1849957E+04;
  1.5092051E-01;  9.9999998E-03;  2.4979091E-01;3416; -2.0351275E-03;  0.0000000E+00; -4.9814858E-05;  9.9992871E+02;  1.0000000E-01; -5.9060059E+01;3;  3.2426789E+00;  0.0000000E+00;  3.2637581E+01;0; -5.9520621E-03;  3.9944680E+04;  0.0000000E+00;  1.0214351E+01;  4.0000000E+04;  0.0000000E+00;  4.0055023E+04; -7.4799443E-03;  0.0000000E+00;  1.5278821E-03;  1.6517061E+04;
  1.5077733E-01;  9.9999998E-03;  2.5969741E-01;3417; -1.9252320E-03;  0.0000000E+00;  1.7073027E-06;  9.9934149E+02;  1.0000000E-01; -5.4556482E+02;3;  6.5293922E+00;  0.0000000E+00;  3.9158318E+01;0; -6.8033375E-03;  3.9892180E+04;  0.0000000E+00;  1.4265941E+01;  4.0000000E+04;  0.0000000E+00;  4.0059227E+04; -8.1340540E-03;  0.0000000E+00;  1.3307163E-03;  2.2286178E+04;
  1.5060088E-01;  9.9999998E-03;  2.6958963E-01;3418; -1.7706410E-03;  0.0000000E+00;  3.5362049E-05;  9.9876953E+02;  1.0000000E-01; -1.0194280E+03;3;  1.1368507E+01;  0.0000000E+00;  4.2610020E+01;0; -7.6949443E-03;  3.9845938E+04;  0.0000000E+00;  1.9082899E+01;  4.0000000E+04;  0.0000000E+00;  4.0059488E+04; -8.6595640E-03;  0.0000000E+00;  9.6461963E-04;  2.9026012E+04;
  1.5043144E-01;  9.9999998E-03;  2.7948695E-01;3419; -1.5256103E-03;  0.0000000E+00;  7.3420655E-05;  9.9825598E+02;  1.0000000E-01; -1.4448975E+03;3;  1.7242123E+01;  0.0000000E+00;  4.0693035E+01;0; -8.4229084E-03;  3.9809613E+04;  0.0000000E+00;  2.4133598E+01;  4.0000000E+04;  0.0000000E+00;  4.0053461E+04; -8.9114541E-03;  0.0000000E+00;  4.8854615E-04;  3.5971137E+04;
  1.5037656E-01;  9.9999998E-03;  2.8941140E-01;3420; -1.0863973E-03;  0.0000000E+00;  2.0190717E-04;  9.9766040E+02;  1.0000000E-01; -1.9383156E+03;3;  2.2743139E+01;  0.0000000E+00;  3.0713190E+01;0; -8.4889401E-03;  3.9774828E+04;  0.0000000E+00;  2.8205811E+01;  4.0000000E+04;  0.0000000E+00;  4.0041840E+04; -8.5565960E-03;  0.0000000E+00;  6.7656161E-05;  4.1407715E+04;
  1.5051904E-01;  9.9999998E-03;  2.9945374E-01;3421; -3.3068736E-04;  0.0000000E+00;  4.4240107E-04;  9.9662457E+02;  1.0000000E-01; -2.7964641E+03;3;  2.5910738E+01;  0.0000000E+00;  7.0899572E+00;0; -7.1534477E-03;  3.9716578E+04;  0.0000000E+00;  2.9202818E+01;  4.0000000E+04;  0.0000000E+00;  4.0018281E+04; -6.9691292E-03;  0.0000000E+00; -1.8431852E-04;  4.2369109E+04;
  1.6106348E-01;  9.9999998E-03;  2.3989284E-01;3476; -2.3650709E-03;  0.0000000E+00; -1.6391365E-04;  1.0004752E+03;  1.0000000E-01;  3.9366788E+02;3;  9.3493021E-01;  0.0000000E+00;  2.4775391E+01;0; -5.7582590E-03;  3.9995875E+04;  0.0000000E+00;  7.3512111E+00;  4.0000000E+04;  0.0000000E+00;  4.0047406E+04; -7.3228488E-03;  0.0000000E+00;  1.5645898E-03;  1.2371510E+04;
  1.6100404E-01;  9.9999998E-03;  2.4981573E-01;3477; -2.3168251E-03;  0.0000000E+00; -8.1917118E-05;  9.9990765E+02;  1.0000000E-01; -7.6491661E+01;3;  3.3449433E+00;  0.0000000E+00;  3.3258896E+01;0; -6.6359201E-03;  3.9938598E+04;  0.0000000E+00;  1.0921922E+01;  4.0000000E+04;  0.0000000E+00;  4.0058879E+04; -8.2200794E-03;  0.0000000E+00;  1.5841590E-03;  1.7808135E+04;
  1.6087227E-01;  9.9999998E-03;  2.5971544E-01;3478; -2.2271865E-03;  0.0000000E+00;  2.9940084E-05;  9.9929980E+02;  1.0000000E-01; -5.8008234E+02;3;  7.8695416E+00;  0.0000000E+00;  4.1736610E+01;0; -7.6672304E-03;  3.9879656E+04;  0.0000000E+00;  1.5855474E+01;  4.0000000E+04;  0.0000000E+00;  4.0068207E+04; -9.1464100E-03;  0.0000000E+00;  1.4791796E-03;  2.5062865E+04;
  1.6068619E-01;  9.9999998E-03;  2.6960674E-01;3479; -2.0632362E-03;  0.0000000E+00;  1.8682858E-04;  9.9873438E+02;  1.0000000E-01; -1.0485630E+03;3;  1.5066833E+01;  0.0000000E+00;  4.8503796E+01;0; -8.6934194E-03;  3.9827938E+04;  0.0000000E+00;  2.2327621E+01;  4.0000000E+04;  0.0000000E+00;  4.0073781E+04; -9.9879978E-03;  0.0000000E+00;  1.2945785E-03;  3.4340629E+04;
  1.6049516E-01;  9.9999998E-03;  2.7953127E-01;3480; -1.7435809E-03;  0.0000000E+00;  4.0559354E-04;  9.9822528E+02;  1.0000000E-01; -1.4703287E+03;3;  2.4286993E+01;  0.0000000E+00;  4.9335979E+01;0; -9.3480013E-03;  3.9789492E+04;  0.0000000E+00;  2.9672281E+01;  4.0000000E+04;  0.0000000E+00;  4.0071230E+04; -1.0460415E-02;  0.0000000E+00;  1.1124136E-03;  4.4562500E+04;
  1.6042995E-01;  9.9999998E-03;  2.8952396E-01;3481; -1.1167041E-03;  0.0000000E+00;  6.8214728E-04;  9.9751727E+02;  1.0000000E-01; -2.0568801E+03;3;  3.2981602E+01;  0.0000000E+00;  3.7671700E+01;0; -8.8807102E-03;  3.9748723E+04;  0.0000000E+00;  3.5527424E+01;  4.0000000E+04;  0.0000000E+00;  4.0055977E+04; -9.8851603E-03;  0.0000000E+00;  1.0044496E-03;  5.2342555E+04;
  1.6065487E-01;  9.9999998E-03;  2.9962379E-01;3482; -2.2539472E-04;  0.0000000E+00;  8.0246566E-04;  9.9591010E+02;  1.0000000E-01; -3.3883979E+03;3;  3.7542652E+01;  0.0000000E+00;  4.7475286E+00;0; -6.9663995E-03;  3.9653656E+04;  0.0000000E+00;  3.5794598E+01;  4.0000000E+04;  0.0000000E+00;  4.0023594E+04; -7.6504992E-03;  0.0000000E+00;  6.8409974E-04;  5.1999988E+04;
  1.7108144E-01;  9.9999998E-03;  2.3998618E-01;3537; -2.6173866E-03;  0.0000000E+00; -1.6283074E-04;  1.0005239E+03;  1.0000000E-01;  4.3396304E+02;3;  1.7040576E-01;  0.0000000E+00;  2.2991911E+01;0; -5.9826272E-03;  4.0005695E+04;  0.0000000E+00;  7.1353965E+00;  4.0000000E+04;  0.0000000E+00;  4.0041270E+04; -7.5167404E-03;  0.0000000E+00;  1.5341132E-03;  1.1839633E+04;
  1.7108878E-01;  9.9999998E-03;  2.4992336E-01;3538; -2.6054455E-03;  0.0000000E+00; -4.3184067E-05;  9.9987836E+02;  1.0000000E-01; -1.0078727E+02;3;  2.7516577E+00;  0.0000000E+00;  3.0876837E+01;0; -6.9748885E-03;  3.9941500E+04;  0.0000000E+00;  1.0579356E+01;  4.0000000E+04;  0.0000000E+00;  4.0053055E+04; -8.6124847E-03;  0.0000000E+00;  1.6375962E-03;  1.7275084E+04;
  1.7101564E-01;  9.9999998E-03;  2.5983259E-01;3539; -2.5409493E-03;  0.0000000E+00;  1.6620396E-04;  9.9917114E+02;  1.0000000E-01; -6.8669666E+02;3;  8.0104332E+00;  0.0000000E+00;  3.9414211E+01;0; -8.0974111E-03;  3.9871852E+04;  0.0000000E+00;  1.5607033E+01;  4.0000000E+04;  0.0000000E+00;  4.0065367E+04; -9.8454542E-03;  0.0000000E+00;  1.7480430E-03;  2.4934152E+04;
  1.7086445E-01;  9.9999998E-03;  2.6974621E-01;3540; -2.3387091E-03;  0.0000000E+00;  4.9009389E-04;  9.9848352E+02;  1.0000000E-01; -1.2563595E+03;3;  1.6874334E+01;  0.0000000E+00;  4.6341717E+01;0; -9.0208938E-03;  3.9807484E+04;  0.0000000E+00;  2.2769419E+01;  4.0000000E+04;  0.0000000E+00;  4.0073535E+04; -1.1011275E-02;  0.0000000E+00;  1.9903809E-03;  3.5412602E+04;
  1.7070393E-01;  9.9999998E-03;  2.7971718E-01;3541; -1.8736921E-03;  0.0000000E+00;  8.2567509E-04;  9.9775421E+02;  1.0000000E-01; -1.8605894E+03;3;  2.8624424E+01;  0.0000000E+00;  4.4187069E+01;0; -9.3145035E-03;  3.9753316E+04;  0.0000000E+00;  3.1128641E+01;  4.0000000E+04;  0.0000000E+00;  4.0068625E+04; -1.1575066E-02;  0.0000000E+00;  2.2605620E-03;  4.7123875E+04;
  1.7069903E-01;  9.9999998E-03;  2.8978464E-01;3542; -1.0174586E-03;  0.0000000E+00;  1.0138144E-03;  9.9651996E+02;  1.0000000E-01; -2.8831284E+03;3;  3.8291580E+01;  0.0000000E+00;  2.0716425E+01;0; -8.2661714E-03;  3.9681734E+04;  0.0000000E+00;  3.6333092E+01;  4.0000000E+04;  0.0000000E+00;  4.0040891E+04; -1.0491370E-02;  0.0000000E+00;  2.2251992E-03;  5.3839270E+04;
  1.7105204E-01;  9.9999998E-03;  2.9992983E-01;3543; -1.1780818E-04;  0.0000000E+00;  6.6675968E-04;  9.9376093E+02;  1.0000000E-01; -5.1689404E+03;3;  3.8449741E+01;  0.0000000E+00; -3.1464373E+01;0; -6.8387040E-03;  3.9509051E+04;  0.0000000E+00;  3.1788334E+01;  4.0000000E+04;  0.0000000E+00;  3.9995133E+04; -7.7820285E-03;  0.0000000E+00;  9.4332453E-04;  4.6480594E+04;
  1.8102418E-01;  9.9999998E-03;  2.4011682E-01;3598; -2.8426051E-03;  0.0000000E+00; -1.4132215E-04;  1.0005593E+03;  1.0000000E-01;  4.6329553E+02;3; -1.1515050E+00;  0.0000000E+00;  1.9291664E+01;0; -5.7909982E-03;  4.0023656E+04;  0.0000000E+00;  6.5509400E+00;  4.0000000E+04;  0.0000000E+00;  4.0025625E+04; -7.2453171E-03;  0.0000000E+00;  1.4543189E-03;  1.0456923E+04;
  1.8106908E-01;  9.9999998E-03;  2.5007799E-01;3599; -2.8470445E-03;  0.0000000E+00; -1.4374000E-05;  9.9985199E+02;  1.0000000E-01; -1.2261382E+02;3;  9.1162634E-01;  0.0000000E+00;  2.4871979E+01;0; -6.8690367E-03;  3.9957781E+04;  0.0000000E+00;  9.4402418E+00;  4.0000000E+04;  0.0000000E+00;  4.0034320E+04; -8.4977970E-03;  0.0000000E+00;  1.6287602E-03;  1.5149378E+04;
  1.8106782E-01;  9.9999998E-03;  2.6000971E-01;3600; -2.7844142E-03;  0.0000000E+00;  2.2129533E-04;  9.9901361E+02;  1.0000000E-01; -8.1721143E+02;3;  5.6608090E+00;  0.0000000E+00;  3.0430086E+01;0; -8.0558592E-03;  3.9879602E+04;  0.0000000E+00;  1.3619661E+01;  4.0000000E+04;  0.0000000E+00;  4.0044453E+04; -9.9798180E-03;  0.0000000E+00;  1.9239585E-03;  2.1793268E+04;
  1.8102352E-01;  9.9999998E-03;  2.6995093E-01;3601; -2.5317823E-03;  0.0000000E+00;  5.3068687E-04;  9.9804980E+02;  1.0000000E-01; -1.6157074E+03;3;  1.4084728E+01;  0.0000000E+00;  3.2563236E+01;0; -9.0032276E-03;  3.9795215E+04;  0.0000000E+00;  1.9509378E+01;  4.0000000E+04;  0.0000000E+00;  4.0050477E+04; -1.1394969E-02;  0.0000000E+00;  2.3917411E-03;  3.0735332E+04;
  1.8100512E-01;  9.9999998E-03;  2.7993989E-01;3602; -1.9582934E-03;  0.0000000E+00;  7.1191287E-04;  9.9678455E+02;  1.0000000E-01; -2.6639246E+03;3;  2.5147736E+01;  0.0000000E+00;  2.2044373E+01;0; -9.4461581E-03;  3.9701172E+04;  0.0000000E+00;  2.5543350E+01;  4.0000000E+04;  0.0000000E+00;  4.0041660E+04; -1.2008641E-02;  0.0000000E+00;  2.5624828E-03;  3.9436359E+04;
  1.8115133E-01;  9.9999998E-03;  2.8998354E-01;3603; -1.3218486E-03;  0.0000000E+00;  4.7026880E-04;  9.9468738E+02;  1.0000000E-01; -4.4014062E+03;3;  3.2240589E+01;  0.0000000E+00; -1.0943086E+01;0; -1.0297727E-02;  3.9560699E+04;  0.0000000E+00;  2.6385489E+01;  4.0000000E+04;  0.0000000E+00;  4.0014203E+04; -1.1711714E-02;  0.0000000E+00;  1.4139875E-03;  4.0137375E+04;
  1.8153979E-01;  9.9999998E-03;  2.9999042E-01;3604; -1.4850406E-03;  0.0000000E+00; -4.4954254E-04;  9.9124945E+02;  1.0000000E-01; -7.2496714E+03;3;  3.2594486E+01;  0.0000000E+00; -5.0889278E+01;0; -1.5865436E-02;  3.9308719E+04;  0.0000000E+00;  1.8572609E+01;  4.0000000E+04;  0.0000000E+00;  3.9993094E+04; -1.3778005E-02;  0.0000000E+00; -2.0874310E-03;  2.7619727E+04;
  1.9090016E-01;  9.9999998E-03;  2.4023286E-01;3659; -3.0101079E-03;  0.0000000E+00; -1.6543026E-04;  1.0005627E+03;  1.0000000E-01;  4.6615967E+02;3; -2.9122298E+00;  0.0000000E+00;  1.4429925E+01;0; -5.2221199E-03;  4.0045578E+04;  0.0000000E+00;  5.9675593E+00;  4.0000000E+04;  0.0000000E+00;  4.0004031E+04; -6.4737964E-03;  0.0000000E+00;  1.2516767E-03;  9.2170596E+03;
  1.9095679E-01;  9.9999998E-03;  2.5020239E-01;3660; -2.9951567E-03;  0.0000000E+00; -9.7972908E-05;  9.9986810E+02;  1.0000000E-01; -1.0928086E+02;3; -1.8693107E+00;  0.0000000E+00;  1.7110048E+01;0; -6.4315521E-03;  3.9984719E+04;  0.0000000E+00;  8.2709455E+00;  4.0000000E+04;  0.0000000E+00;  4.0008531E+04; -7.7852164E-03;  0.0000000E+00;  1.3536644E-03;  1.3035328E+04;
  1.9099504E-01;  9.9999998E-03;  2.6014271E-01;3661; -2.8676679E-03;  0.0000000E+00;  7.3704374E-05;  9.9901257E+02;  1.0000000E-01; -8.1805096E+02;3;  1.5502682E+00;  0.0000000E+00;  1.9046747E+01;0; -7.7202041E-03;  3.9907797E+04;  0.0000000E+00;  1.1436376E+01;  4.0000000E+04;  0.0000000E+00;  4.0016020E+04; -9.3172975E-03;  0.0000000E+00;  1.5970937E-03;  1.8304709E+04;
  1.9103870E-01;  9.9999998E-03;  2.7009538E-01;3662; -2.5036118E-03;  0.0000000E+00;  2.8192176E-04;  9.9788824E+02;  1.0000000E-01; -1.7495308E+03;3;  8.0242186E+00;  0.0000000E+00;  1.6204355E+01;0; -8.7209791E-03;  3.9812195E+04;  0.0000000E+00;  1.5281398E+01;  4.0000000E+04;  0.0000000E+00;  4.0019828E+04; -1.0669704E-02;  0.0000000E+00;  1.9487244E-03;  2.4551160E+04;
  1.9119225E-01;  9.9999998E-03;  2.8006485E-01;3663; -2.0720491E-03;  0.0000000E+00;  2.5432184E-04;  9.9614319E+02;  1.0000000E-01; -3.1953171E+03;3;  1.6115665E+01;  0.0000000E+00;  2.6279111E+00;0; -1.0251483E-02;  3.9674742E+04;  0.0000000E+00;  1.6659742E+01;  4.0000000E+04;  0.0000000E+00;  4.0015848E+04; -1.1740595E-02;  0.0000000E+00;  1.4891124E-03;  2.6928611E+04;
  1.9152556E-01;  9.9999998E-03;  2.8999382E-01;3664; -2.3684003E-03;  0.0000000E+00; -1.3688709E-04;  9.9342688E+02;  1.0000000E-01; -5.4457227E+03;3;  2.2969252E+01;  0.0000000E+00; -1.3397151E+01;0; -1.5729038E-02;  3.9450617E+04;  0.0000000E+00;  1.1262475E+01;  4.0000000E+04;  0.0000000E+00;  4.0021527E+04; -1.5125118E-02;  0.0000000E+00; -6.0391927E-04;  1.8853656E+04;
  1.9184604E-01;  9.9999998E-03;  2.9986247E-01;3665; -4.0104170E-03;  0.0000000E+00; -2.4820914E-04;  9.9014227E+02;  1.0000000E-01; -8.1669297E+03;3;  3.1095869E+01;  0.0000000E+00; -1.3294996E+01;0; -2.7851146E-02;  3.9158312E+04;  0.0000000E+00;  4.9348249E+00;  4.0000000E+04;  0.0000000E+00;  4.0051637E+04; -2.6167324E-02;  0.0000000E+00; -1.6838221E-03;  1.0250109E+04;
  2.0075420E-01;  9.9999998E-03;  2.4028049E-01;3720; -3.0970415E-03;  0.0000000E+00; -2.3264937E-04;  1.0005605E+03;  1.0000000E-01;  4.6438193E+02;3; -4.5629764E+00;  0.0000000E+00;  1.0198240E+01;0; -4.3458957E-03;  4.0065047E+04;  0.0000000E+00;  5.7195101E+00;  4.0000000E+04;  0.0000000E+00;  3.9984609E+04; -5.2405186E-03;  0.0000000E+00;  8.9462299E-04;  9.0817080E+03;
  2.0080726E-01;  9.9999998E-03;  2.5024363E-01;3721; -3.0420155E-03;  0.0000000E+00; -2.2606153E-04;  9.9997235E+02;  1.0000000E-01; -2.2912931E+01;3; -4.4891748E+00;  0.0000000E+00;  1.1090456E+01;0; -5.6696385E-03;  4.0014578E+04;  0.0000000E+00;  7.8024278E+00;  4.0000000E+04;  0.0000000E+00;  3.9987672E+04; -6.4963736E-03;  0.0000000E+00;  8.2673482E-04;  1.2465813E+04;
  2.0086105E-01;  9.9999998E-03;  2.6018628E-01;3722; -2.8101089E-03;  0.0000000E+00; -6.4174841E-05;  9.9923883E+02;  1.0000000E-01; -6.3059943E+02;3; -2.4041946E+00;  0.0000000E+00;  1.1071069E+01;0; -6.8051354E-03;  3.9946918E+04;  0.0000000E+00;  1.0462620E+01;  4.0000000E+04;  0.0000000E+00;  3.9995191E+04; -7.8729447E-03;  0.0000000E+00;  1.0678093E-03;  1.6901033E+04;
  2.0095617E-01;  9.9999998E-03;  2.7014869E-01;3723; -2.3006934E-03;  0.0000000E+00;  1.4898097E-04;  9.9812341E+02;  1.0000000E-01; -1.5547214E+03;3;  1.8113583E+00;  0.0000000E+00;  5.7871256E+00;0; -7.3068766E-03;  3.9852707E+04;  0.0000000E+00;  1.2739277E+01;  4.0000000E+04;  0.0000000E+00;  3.9997645E+04; -8.8656563E-03;  0.0000000E+00;  1.5587796E-03;  2.0892867E+04;
  2.0119828E-01;  9.9999998E-03;  2.8010863E-01;3724; -2.1230599E-03;  0.0000000E+00;  2.6289970E-05;  9.9626440E+02;  1.0000000E-01; -3.0948755E+03;3;  6.4862695E+00;  0.0000000E+00; -5.4935622E+00;0; -9.9081434E-03;  3.9697453E+04;  0.0000000E+00;  1.0176701E+01;  4.0000000E+04;  0.0000000E+00;  4.0001895E+04; -1.0525675E-02;  0.0000000E+00;  6.1753235E-04;  1.7445057E+04;
  2.0156066E-01;  9.9999998E-03;  2.9000351E-01;3725; -3.3538258E-03;  0.0000000E+00;  3.1895965E-05;  9.9360187E+02;  1.0000000E-01; -5.3007388E+03;3;  1.0510324E+01;  0.0000000E+00; -1.8884771E+00;0; -1.7767163E-02;  3.9450375E+04;  0.0000000E+00;  9.7748005E-01;  4.0000000E+04;  0.0000000E+00;  4.0034285E+04; -1.7874230E-02;  0.0000000E+00;  1.0706608E-04;  5.7128999E+03;
  2.0168492E-01;  9.9999998E-03;  2.9991806E-01;3726; -5.0770547E-03;  0.0000000E+00;  4.9176801E-04;  9.9104327E+02;  1.0000000E-01; -7.4204814E+03;3;  1.7260756E+01;  0.0000000E+00;  5.1132789E+00;0; -2.9058713E-02;  3.9211840E+04;  0.0000000E+00; -2.9461902E-01;  4.0000000E+04;  0.0000000E+00;  4.0066859E+04; -3.1254664E-02;  0.0000000E+00;  2.1959504E-03;  9.6801289E+03;
  2.1063685E-01;  9.9999998E-03;  2.4025342E-01;3781; -3.1003945E-03;  0.0000000E+00; -2.7985408E-04;  1.0005704E+03;  1.0000000E-01;  4.7257922E+02;3; -5.5746422E+00;  0.0000000E+00;  7.7781067E+00;0; -3.1809255E-03;  4.0075613E+04;  0.0000000E+00;  5.7479753E+00;  4.0000000E+04;  0.0000000E+00;  3.9975406E+04; -3.6640218E-03;  0.0000000E+00;  4.8309634E-04;  9.4237803E+03;
  2.1067369E-01;  9.9999998E-03;  2.5021487E-01;3782; -3.0127426E-03;  0.0000000E+00; -2.7262711E-04;  1.0001512E+03;  1.0000000E-01;  1.2532979E+02;3; -6.1820168E+00;  0.0000000E+00;  8.2858124E+00;0; -4.4283289E-03;  4.0038160E+04;  0.0000000E+00;  7.9996476E+00;  4.0000000E+04;  0.0000000E+00;  3.9978777E+04; -4.7805435E-03;  0.0000000E+00;  3.5221435E-04;  1.2875444E+04;
  2.1072839E-01;  9.9999998E-03;  2.6017120E-01;3783; -2.6417112E-03;  0.0000000E+00; -5.3071493E-05;  9.9958057E+02;  1.0000000E-01; -3.4749634E+02;3; -5.2603102E+00;  0.0000000E+00;  7.4756336E+00;0; -4.9501685E-03;  3.9984742E+04;  0.0000000E+00;  1.0690256E+01;  4.0000000E+04;  0.0000000E+00;  3.9985715E+04; -5.8268514E-03;  0.0000000E+00;  8.7668293E-04;  1.7222654E+04;
  2.1086581E-01;  9.9999998E-03;  2.7014989E-01;3784; -1.9771641E-03;  0.0000000E+00;  2.0617199E-04;  9.9853931E+02;  1.0000000E-01; -1.2101387E+03;3; -3.1426725E+00;  0.0000000E+00;  9.0081882E-01;0; -4.4438201E-03;  3.9898164E+04;  0.0000000E+00;  1.1746248E+01;  4.0000000E+04;  0.0000000E+00;  3.9986527E+04; -6.2783100E-03;  0.0000000E+00;  1.8344900E-03;  1.9358430E+04;
  2.1115942E-01;  9.9999998E-03;  2.8010780E-01;3785; -2.1281817E-03;  0.0000000E+00;  2.1168922E-05;  9.9676996E+02;  1.0000000E-01; -2.6760232E+03;3; -1.5410682E+00;  0.0000000E+00; -6.2344875E+00;0; -8.0304407E-03;  3.9742215E+04;  0.0000000E+00;  6.0116997E+00;  4.0000000E+04;  0.0000000E+00;  3.9997781E+04; -8.5530542E-03;  0.0000000E+00;  5.2261399E-04;  1.0952273E+04;
  2.1142052E-01;  9.9999998E-03;  2.9003552E-01;3786; -3.4704080E-03;  0.0000000E+00;  1.9557562E-04;  9.9458508E+02;  1.0000000E-01; -4.4861445E+03;3; -1.8007911E+00;  0.0000000E+00; -7.8294760E-01;0; -1.5127338E-02;  3.9533508E+04;  0.0000000E+00; -2.4794023E+00;  4.0000000E+04;  0.0000000E+00;  4.0028203E+04; -1.6315037E-02;  0.0000000E+00;  1.1876998E-03;  5.2516313E+03;
  2.1148841E-01;  9.9999998E-03;  2.9998788E-01;3787; -4.7646244E-03;  0.0000000E+00;  5.2098715E-04;  9.9242365E+02;  1.0000000E-01; -6.2768594E+03;3; -1.1973252E-02;  0.0000000E+00;  1.0354260E+00;0; -2.4506584E-02;  3.9334176E+04;  0.0000000E+00; -3.0900815E+00;  4.0000000E+04;  0.0000000E+00;  4.0052766E+04; -2.7591588E-02;  0.0000000E+00;  3.0850042E-03;  1.0746552E+04;
  2.2058672E-01;  9.9999998E-03;  2.4018493E-01;3842; -3.0445522E-03;  0.0000000E+00; -2.5055060E-04;  1.0005578E+03;  1.0000000E-01;  4.6211038E+02;3; -5.8313580E+00;  0.0000000E+00;  6.8548150E+00;0; -1.7356389E-03;  4.0074105E+04;  0.0000000E+00;  5.6155415E+00;  4.0000000E+04;  0.0000000E+00;  3.9976219E+04; -1.9341582E-03;  0.0000000E+00;  1.9851919E-04;  9.1522422E+03;
  2.2061114E-01;  9.9999998E-03;  2.5015968E-01;3843; -2.9263049E-03;  0.0000000E+00; -2.2333986E-04;  1.0002828E+03;  1.0000000E-01;  2.3436374E+02;3; -6.9657655E+00;  0.0000000E+00;  7.4225039E+00;0; -2.7244268E-03;  4.0048887E+04;  0.0000000E+00;  7.9317064E+00;  4.0000000E+04;  0.0000000E+00;  3.9980406E+04; -2.8450093E-03;  0.0000000E+00;  1.2058241E-04;  1.2635778E+04;
  2.2067882E-01;  9.9999998E-03;  2.6013705E-01;3844; -2.3746530E-03;  0.0000000E+00;  1.0452179E-04;  9.9982312E+02;  1.0000000E-01; -1.4656375E+02;3; -7.2065072E+00;  0.0000000E+00;  6.1377840E+00;0; -2.0844187E-03;  4.0006773E+04;  0.0000000E+00;  1.0265408E+01;  4.0000000E+04;  0.0000000E+00;  3.9984406E+04; -3.4277574E-03;  0.0000000E+00;  1.3433386E-03;  1.6422273E+04;
  2.2086369E-01;  9.9999998E-03;  2.7012539E-01;3845; -1.8067193E-03;  0.0000000E+00;  2.9847887E-04;  9.9886560E+02;  1.0000000E-01; -9.3982526E+02;3; -6.9381857E+00;  0.0000000E+00;  2.8294373E-01;0; -1.3902595E-03;  3.9927023E+04;  0.0000000E+00;  9.4859753E+00;  4.0000000E+04;  0.0000000E+00;  3.9985711E+04; -3.7845757E-03;  0.0000000E+00;  2.3943163E-03;  1.5792769E+04;
  2.2114311E-01;  9.9999998E-03;  2.8009248E-01;3846; -2.1955322E-03;  0.0000000E+00;  7.6762248E-05;  9.9734961E+02;  1.0000000E-01; -2.1957898E+03;3; -8.0144167E+00;  0.0000000E+00; -4.1671367E+00;0; -5.5791060E-03;  3.9789262E+04;  0.0000000E+00;  2.3158062E+00;  4.0000000E+04;  0.0000000E+00;  3.9998820E+04; -6.3927677E-03;  0.0000000E+00;  8.1366143E-04;  5.1025498E+03;
  2.2132592E-01;  9.9999998E-03;  2.9004797E-01;3847; -3.4342550E-03;  0.0000000E+00;  3.0799699E-04;  9.9560858E+02;  1.0000000E-01; -3.6382180E+03;3; -1.1519709E+01;  0.0000000E+00; -1.5217879E+00;0; -1.1093257E-02;  3.9622996E+04;  0.0000000E+00; -4.7060337E+00;  4.0000000E+04;  0.0000000E+00;  4.0021676E+04; -1.3398409E-02;  0.0000000E+00;  2.3051521E-03;  7.6005269E+03;
  2.2137819E-01;  9.9999998E-03;  3.0001509E-01;3848; -4.4970461E-03;  0.0000000E+00;  6.1478524E-04;  9.9379510E+02;  1.0000000E-01; -5.1406445E+03;3; -1.3415653E+01;  0.0000000E+00; -2.2594841E+00;0; -1.8221825E-02;  3.9455953E+04;  0.0000000E+00; -5.4858027E+00;  4.0000000E+04;  0.0000000E+00;  4.0041113E+04; -2.2900280E-02;  0.0000000E+00;  4.6784533E-03;  1.2729494E+04;
  2.3060374E-01;  9.9999998E-03;  2.4010558E-01;3903; -2.9403598E-03;  0.0000000E+00; -1.1580402E-04;  1.0005070E+03;  1.0000000E-01;  4.2003751E+02;3; -5.4745536E+00;  0.0000000E+00;  6.5393581E+00;0; -1.6618520E-05;  4.0062074E+04;  0.0000000E+00;  4.9992161E+00;  4.0000000E+04;  0.0000000E+00;  3.9984758E+04; -2.4988479E-04;  0.0000000E+00;  2.3326627E-04;  7.9334604E+03;
  2.3062500E-01;  9.9999998E-03;  2.5010395E-01;3904; -2.7977265E-03;  0.0000000E+00; -7.3623269E-05;  1.0003188E+03;  1.0000000E-01;  2.6409131E+02;3; -7.0581026E+00;  0.0000000E+00;  7.1467562E+00;0; -5.8579154E-04;  4.0046238E+04;  0.0000000E+00;  6.9617271E+00;  4.0000000E+04;  0.0000000E+00;  3.9986398E+04; -9.1667345E-04;  0.0000000E+00;  3.3088189E-04;  1.0982808E+04;
  2.3071070E-01;  9.9999998E-03;  2.6010054E-01;3905; -2.1477509E-03;  0.0000000E+00;  3.0276555E-04;  9.9993549E+02;  1.0000000E-01; -5.3430588E+01;3; -8.2584114E+00;  0.0000000E+00;  5.8852415E+00;0;  1.0902120E-03;  4.0013961E+04;  0.0000000E+00;  8.3011169E+00;  4.0000000E+04;  0.0000000E+00;  3.9988219E+04; -1.1492742E-03;  0.0000000E+00;  2.2394862E-03;  1.3328786E+04;
  2.3088640E-01;  9.9999998E-03;  2.7009720E-01;3906; -1.7801223E-03;  0.0000000E+00;  3.1613768E-04;  9.9916260E+02;  1.0000000E-01; -6.9375818E+02;3; -9.4839106E+00;  0.0000000E+00;  1.1727160E+00;0;  9.8401704E-04;  3.9950262E+04;  0.0000000E+00;  6.5825505E+00;  4.0000000E+04;  0.0000000E+00;  3.9988488E+04; -1.6186459E-03;  0.0000000E+00;  2.6026629E-03;  1.1271887E+04;
  2.3111080E-01;  9.9999998E-03;  2.8007662E-01;3907; -2.1528010E-03;  0.0000000E+00;  9.5184849E-05;  9.9799652E+02;  1.0000000E-01; -1.6598542E+03;3; -1.2203377E+01;  0.0000000E+00; -2.7407444E+00;0; -2.9171167E-03;  3.9844270E+04;  0.0000000E+00;  6.8735950E-02;  4.0000000E+04;  0.0000000E+00;  3.9997957E+04; -3.8370271E-03;  0.0000000E+00;  9.1991044E-04;  1.5935280E+03;
  2.3125820E-01;  9.9999998E-03;  2.9004762E-01;3908; -3.2915731E-03;  0.0000000E+00;  3.0417973E-04;  9.9663098E+02;  1.0000000E-01; -2.7911804E+03;3; -1.7409330E+01;  0.0000000E+00; -2.3723264E+00;0; -7.1135270E-03;  3.9713738E+04;  0.0000000E+00; -6.1313915E+00;  4.0000000E+04;  0.0000000E+00;  4.0015113E+04; -9.7623151E-03;  0.0000000E+00;  2.6487880E-03;  9.0811943E+03;
  2.3130862E-01;  9.9999998E-03;  3.0002356E-01;3909; -4.2152600E-03;  0.0000000E+00;  5.9642881E-04;  9.9514307E+02;  1.0000000E-01; -4.0238862E+03;3; -2.1566568E+01;  0.0000000E+00; -4.4255567E+00;0; -1.2149271E-02;  3.9576477E+04;  0.0000000E+00; -7.3916602E+00;  4.0000000E+04;  0.0000000E+00;  4.0030477E+04; -1.7612394E-02;  0.0000000E+00;  5.4631233E-03;  1.3877300E+04;
  2.4062900E-01;  9.9999998E-03;  2.4004857E-01;3964; -2.7571474E-03;  0.0000000E+00;  5.8448750E-05;  1.0003956E+03;  1.0000000E-01;  3.2769443E+02;3; -4.8190856E+00;  0.0000000E+00;  5.8471227E+00;0;  1.7357226E-03;  4.0045512E+04;  0.0000000E+00;  4.1207352E+00;  4.0000000E+04;  0.0000000E+00;  3.9992930E+04;  1.2305714E-03;  0.0000000E+00;  5.0515117E-04;  6.4206812E+03;
  2.4068998E-01;  9.9999998E-03;  2.5006118E-01;3965; -2.5810532E-03;  0.0000000E+00;  1.6596871E-04;  1.0002625E+03;  1.0000000E-01;  2.1747533E+02;3; -6.6601720E+00;  0.0000000E+00;  6.5766978E+00;0;  1.9732062E-03;  4.0035824E+04;  0.0000000E+00;  5.1599197E+00;  4.0000000E+04;  0.0000000E+00;  3.9993316E+04;  8.5048587E-04;  0.0000000E+00;  1.1227204E-03;  8.1724038E+03;
  2.4077959E-01;  9.9999998E-03;  2.6006982E-01;3966; -2.0912641E-03;  0.0000000E+00;  3.7657371E-04;  9.9997485E+02;  1.0000000E-01; -2.0838917E+01;3; -8.4614763E+00;  0.0000000E+00;  5.7190437E+00;0;  3.3036927E-03;  4.0014164E+04;  0.0000000E+00;  5.3662863E+00;  4.0000000E+04;  0.0000000E+00;  3.9992566E+04;  6.5219286E-04;  0.0000000E+00;  2.6514998E-03;  8.8615381E+03;
  2.4089925E-01;  9.9999998E-03;  2.7007216E-01;3967; -1.8201807E-03;  0.0000000E+00;  2.6502414E-04;  9.9945703E+02;  1.0000000E-01; -4.4986383E+02;3; -1.0626149E+01;  0.0000000E+00;  2.2124774E+00;0;  2.5168885E-03;  3.9973234E+04;  0.0000000E+00;  3.9211221E+00;  4.0000000E+04;  0.0000000E+00;  3.9991164E+04;  2.2017350E-04;  0.0000000E+00;  2.2967150E-03;  7.1626270E+03;
  2.4106243E-01;  9.9999998E-03;  2.8006119E-01;3968; -1.9817105E-03;  0.0000000E+00;  9.5837240E-05;  9.9865845E+02;  1.0000000E-01; -1.1114747E+03;3; -1.3987632E+01;  0.0000000E+00; -1.5790542E+00;0; -2.4901488E-04;  3.9900797E+04;  0.0000000E+00; -8.9318311E-01;  4.0000000E+04;  0.0000000E+00;  3.9996555E+04; -1.1680294E-03;  0.0000000E+00;  9.1901451E-04;  2.7860672E+02;
  2.4118823E-01;  9.9999998E-03;  2.9004294E-01;3969; -2.8920444E-03;  0.0000000E+00;  1.5443971E-04;  9.9763867E+02;  1.0000000E-01; -1.9563397E+03;3; -1.9442810E+01;  0.0000000E+00; -3.2158561E+00;0; -4.0331269E-03;  3.9803812E+04;  0.0000000E+00; -6.1534753E+00;  4.0000000E+04;  0.0000000E+00;  4.0008719E+04; -5.4426165E-03;  0.0000000E+00;  1.4094895E-03;  8.4640449E+03;
  2.4124914E-01;  9.9999998E-03;  3.0002519E-01;3970; -3.7974706E-03;  0.0000000E+00;  4.8253848E-04;  9.9644159E+02;  1.0000000E-01; -2.9480647E+03;3; -2.4946077E+01;  0.0000000E+00; -5.4029279E+00;0; -6.7604240E-03;  3.9692438E+04;  0.0000000E+00; -8.3372679E+00;  4.0000000E+04;  0.0000000E+00;  4.0021445E+04; -1.1867501E-02;  0.0000000E+00;  5.1070768E-03;  1.3573993E+04;
  2.5063479E-01;  9.9999998E-03;  2.4001503E-01;4025; -2.3928059E-03;  0.0000000E+00;  2.5903553E-04;  1.0002346E+03;  1.0000000E-01;  1.9436487E+02;3; -3.8913198E+00;  0.0000000E+00;  4.7849512E+00;0;  3.4467136E-03;  4.0027414E+04;  0.0000000E+00;  3.2100275E+00;  4.0000000E+04;  0.0000000E+00;  3.9998230E+04;  2.4349471E-03;  0.0000000E+00;  1.0117665E-03;  4.9753745E+03;
  2.5071713E-01;  9.9999998E-03;  2.5003457E-01;4026; -2.2999968E-03;  0.0000000E+00;  3.3646415E-04;  1.0001815E+03;  1.0000000E-01;  1.5041550E+02;3; -5.7549043E+00;  0.0000000E+00;  5.5359721E+00;0;  4.0984317E-03;  4.0025883E+04;  0.0000000E+00;  3.6590042E+00;  4.0000000E+04;  0.0000000E+00;  3.9997414E+04;  2.2773731E-03;  0.0000000E+00;  1.8210585E-03;  5.8493745E+03;
  2.5080922E-01;  9.9999998E-03;  2.6004693E-01;4027; -2.0807886E-03;  0.0000000E+00;  3.3221047E-04;  1.0000162E+03;  1.0000000E-01;  1.3431719E+01;3; -7.8552237E+00;  0.0000000E+00;  5.1461844E+00;0;  4.4346140E-03;  4.0015977E+04;  0.0000000E+00;  3.1838639E+00;  4.0000000E+04;  0.0000000E+00;  3.9995367E+04;  2.0596187E-03;  0.0000000E+00;  2.3749953E-03;  5.4998311E+03;
  2.5088504E-01;  9.9999998E-03;  2.7005187E-01;4028; -1.8621512E-03;  0.0000000E+00;  1.9986281E-04;  9.9973706E+02;  1.0000000E-01; -2.1782100E+02;3; -1.0456985E+01;  0.0000000E+00;  2.8925369E+00;0;  3.5515111E-03;  3.9995152E+04;  0.0000000E+00;  2.1391921E+00;  4.0000000E+04;  0.0000000E+00;  3.9993641E+04;  1.7503053E-03;  0.0000000E+00;  1.8012058E-03;  4.3570518E+03;
  2.5099418E-01;  9.9999998E-03;  2.8004777E-01;4029; -1.7695697E-03;  0.0000000E+00;  1.0026842E-04;  9.9926221E+02;  1.0000000E-01; -6.1124194E+02;3; -1.3891967E+01;  0.0000000E+00; -4.5171019E-01;0;  2.1591084E-03;  3.9953039E+04;  0.0000000E+00; -6.8416959E-01;  4.0000000E+04;  0.0000000E+00;  3.9995988E+04;  1.1503838E-03;  0.0000000E+00;  1.0087246E-03;  5.5227081E+02;
  2.5110850E-01;  9.9999998E-03;  2.9003739E-01;4030; -2.2717945E-03;  0.0000000E+00;  2.0018029E-05;  9.9855377E+02;  1.0000000E-01; -1.1981884E+03;3; -1.8879080E+01;  0.0000000E+00; -3.2517884E+00;0; -1.1283535E-03;  3.9885852E+04;  0.0000000E+00; -4.9989557E+00;  4.0000000E+04;  0.0000000E+00;  4.0003488E+04; -1.1734255E-03;  0.0000000E+00;  4.5071927E-05;  6.3034272E+03;
  2.5118273E-01;  9.9999998E-03;  3.0002514E-01;4031; -3.1176505E-03;  0.0000000E+00;  2.3480374E-04;  9.9764404E+02;  1.0000000E-01; -1.9518461E+03;3; -2.4583216E+01;  0.0000000E+00; -5.4957714E+00;0; -3.1813942E-03;  3.9799824E+04;  0.0000000E+00; -7.9626827E+00;  4.0000000E+04;  0.0000000E+00;  4.0012906E+04; -5.8895717E-03;  0.0000000E+00;  2.7081775E-03;  1.1671488E+04;
  2.6062489E-01;  9.9999998E-03;  2.3999314E-01;4086; -2.1998519E-03;  0.0000000E+00;  2.9255453E-04;  1.0000622E+03;  1.0000000E-01;  5.1554096E+01;3; -2.7628410E+00;  0.0000000E+00;  3.6903443E+00;0;  4.1853860E-03;  4.0009574E+04;  0.0000000E+00;  2.3537672E+00;  4.0000000E+04;  0.0000000E+00;  4.0002223E+04;  3.1649019E-03;  0.0000000E+00;  1.0204844E-03;  3.6796147E+03;
  2.6069784E-01;  9.9999998E-03;  2.5001627E-01;4087; -2.1801048E-03;  0.0000000E+00;  3.0817275E-04;  1.0000922E+03;  1.0000000E-01;  7.6442284E+01;3; -4.5268416E+00;  0.0000000E+00;  4.4025817E+00;0;  4.7954805E-03;  4.0016273E+04;  0.0000000E+00;  2.6384504E+00;  4.0000000E+04;  0.0000000E+00;  4.0000398E+04;  3.1843921E-03;  0.0000000E+00;  1.6110884E-03;  4.2473750E+03;
  2.6078188E-01;  9.9999998E-03;  2.6003009E-01;4088; -2.0613070E-03;  0.0000000E+00;  2.4305454E-04;  1.0000591E+03;  1.0000000E-01;  4.8986267E+01;3; -6.6350703E+00;  0.0000000E+00;  4.3437805E+00;0;  4.8643546E-03;  4.0017996E+04;  0.0000000E+00;  2.1330426E+00;  4.0000000E+04;  0.0000000E+00;  3.9998090E+04;  3.1055803E-03;  0.0000000E+00;  1.7587742E-03;  3.7775183E+03;
  2.6083678E-01;  9.9999998E-03;  2.7003640E-01;4089; -1.8834425E-03;  0.0000000E+00;  1.2962159E-04;  9.9996667E+02;  1.0000000E-01; -2.7604158E+01;3; -9.2830248E+00;  0.0000000E+00;  3.0698388E+00;0;  4.1754646E-03;  4.0013715E+04;  0.0000000E+00;  1.4276567E+00;  4.0000000E+04;  0.0000000E+00;  3.9995754E+04;  2.9532327E-03;  0.0000000E+00;  1.2222320E-03;  3.0805254E+03;
  2.6090986E-01;  9.9999998E-03;  2.8003651E-01;4090; -1.6627123E-03;  0.0000000E+00;  6.5240871E-05;  9.9975275E+02;  1.0000000E-01; -2.0483371E+02;3; -1.2637392E+01;  0.0000000E+00;  6.2798876E-01;0;  3.5266466E-03;  3.9995570E+04;  0.0000000E+00; -3.1437536E-03;  4.0000000E+04;  0.0000000E+00;  3.9995414E+04;  2.7743240E-03;  0.0000000E+00;  7.5232273E-04;  1.2831014E+03;
  2.6101321E-01;  9.9999998E-03;  2.9003200E-01;4091; -1.6777237E-03;  0.0000000E+00;  6.4877786E-06;  9.9932477E+02;  1.0000000E-01; -5.5944098E+02;3; -1.6814528E+01;  0.0000000E+00; -2.2793581E+00;0;  2.1400927E-03;  3.9955121E+04;  0.0000000E+00; -3.1657026E+00;  4.0000000E+04;  0.0000000E+00;  3.9999098E+04;  2.0457737E-03;  0.0000000E+00;  9.4318879E-05;  3.4447036E+03;
  2.6109952E-01;  9.9999998E-03;  3.0002475E-01;4092; -2.1427840E-03;  0.0000000E+00; -3.8826645E-05;  9.9868231E+02;  1.0000000E-01; -1.0916729E+03;3; -2.1892321E+01;  0.0000000E+00; -4.8612494E+00;0; -8.5652317E-04;  3.9894270E+04;  0.0000000E+00; -6.4250660E+00;  4.0000000E+04;  0.0000000E+00;  4.0005902E+04; -2.9649306E-04;  0.0000000E+00; -5.6003011E-04;  8.5676904E+03;
  2.7061629E-01;  9.9999998E-03;  2.3997997E-01;4147; -2.1461423E-03;  0.0000000E+00;  2.3646148E-04;  9.9988971E+02;  1.0000000E-01; -9.1355438E+01;3; -1.7753284E+00;  0.0000000E+00;  2.6554105E+00;0;  4.2565521E-03;  3.9992520E+04;  0.0000000E+00;  1.5721601E+00;  4.0000000E+04;  0.0000000E+00;  4.0005738E+04;  3.5308225E-03;  0.0000000E+00;  7.2572968E-04;  2.5822800E+03;
  2.7065498E-01;  9.9999998E-03;  2.5000390E-01;4148; -2.1402028E-03;  0.0000000E+00;  2.1479784E-04;  9.9998474E+02;  1.0000000E-01; -1.2641618E+01;3; -3.2770603E+00;  0.0000000E+00;  3.2887325E+00;0;  4.7818255E-03;  4.0005395E+04;  0.0000000E+00;  1.8740342E+00;  4.0000000E+04;  0.0000000E+00;  4.0002840E+04;  3.7152320E-03;  0.0000000E+00;  1.0665932E-03;  3.0552375E+03;
  2.7071491E-01;  9.9999998E-03;  2.6001796E-01;4149; -2.0541137E-03;  0.0000000E+00;  1.4794142E-04;  1.0000599E+03;  1.0000000E-01;  4.9578846E+01;3; -5.1150227E+00;  0.0000000E+00;  3.4611089E+00;0;  4.8872600E-03;  4.0017047E+04;  0.0000000E+00;  1.7247099E+00;  4.0000000E+04;  0.0000000E+00;  4.0000016E+04;  3.8032928E-03;  0.0000000E+00;  1.0839674E-03;  2.9988860E+03;
  2.7076137E-01;  9.9999998E-03;  2.7002507E-01;4150; -1.8994957E-03;  0.0000000E+00;  6.2719388E-05;  1.0001108E+03;  1.0000000E-01;  9.1849251E+01;3; -7.5038128E+00;  0.0000000E+00;  2.8800094E+00;0;  4.5033135E-03;  4.0025117E+04;  0.0000000E+00;  1.3461527E+00;  4.0000000E+04;  0.0000000E+00;  3.9997148E+04;  3.8171900E-03;  0.0000000E+00;  6.8612362E-04;  2.6984192E+03;
  2.7081332E-01;  9.9999998E-03;  2.8002757E-01;4151; -1.6582368E-03;  0.0000000E+00;  1.0599000E-05;  1.0000900E+03;  1.0000000E-01;  7.4565796E+01;3; -1.0565297E+01;  0.0000000E+00;  1.3850731E+00;0;  4.1540782E-03;  4.0024676E+04;  0.0000000E+00;  6.9853145E-01;  4.0000000E+04;  0.0000000E+00;  3.9995656E+04;  3.8273081E-03;  0.0000000E+00;  3.2677024E-04;  2.0181722E+03;
  2.7089587E-01;  9.9999998E-03;  2.9002708E-01;4152; -1.4170454E-03;  0.0000000E+00; -1.6909675E-05;  9.9991223E+02;  1.0000000E-01; -7.2738686E+01;3; -1.4283366E+01;  0.0000000E+00; -8.7644869E-01;0;  3.8948494E-03;  4.0008328E+04;  0.0000000E+00; -1.1080649E+00;  4.0000000E+04;  0.0000000E+00;  3.9996422E+04;  3.7856237E-03;  0.0000000E+00;  1.0922585E-04;  6.9709637E+02;
  2.7098921E-01;  9.9999998E-03;  3.0002400E-01;4153; -1.4047546E-03;  0.0000000E+00; -8.0498437E-05;  9.9952411E+02;  1.0000000E-01; -3.9426047E+02;3; -1.8533155E+01;  0.0000000E+00; -3.2719071E+00;0;  2.4483930E-03;  3.9971957E+04;  0.0000000E+00; -4.1398849E+00;  4.0000000E+04;  0.0000000E+00;  3.9999805E+04;  3.1895561E-03;  0.0000000E+00; -7.4116292E-04;  4.9058286E+03;
  2.8064290E-01;  9.9999998E-03;  2.3997478E-01;4208; -2.1290781E-03;  0.0000000E+00;  1.5049560E-04;  9.9972522E+02;  1.0000000E-01; -2.2764789E+02;3; -9.2170513E-01;  0.0000000E+00;  1.7792699E+00;0;  4.0047877E-03;  3.9977449E+04;  0.0000000E+00;  8.9253348E-01;  4.0000000E+04;  0.0000000E+00;  4.0007789E+04;  3.6703930E-03;  0.0000000E+00;  3.3439466E-04;  1.7470336E+03;
  2.8062734E-01;  9.9999998E-03;  2.4999689E-01;4209; -2.1205512E-03;  0.0000000E+00;  1.1009849E-04;  9.9984955E+02;  1.0000000E-01; -1.2463845E+02;3; -2.0610940E+00;  0.0000000E+00;  2.2929707E+00;0;  4.4690920E-03;  3.9993191E+04;  0.0000000E+00;  1.1362838E+00;  4.0000000E+04;  0.0000000E+00;  4.0004508E+04;  3.9925715E-03;  0.0000000E+00;  4.7652062E-04;  1.9637990E+03;
  2.8064540E-01;  9.9999998E-03;  2.6001000E-01;4210; -2.0613659E-03;  0.0000000E+00;  4.4440487E-05;  9.9999841E+02;  1.0000000E-01; -1.3332956E+00;3; -3.5447917E+00;  0.0000000E+00;  2.5738947E+00;0;  4.5884121E-03;  4.0010738E+04;  0.0000000E+00;  1.2893652E+00;  4.0000000E+04;  0.0000000E+00;  4.0001551E+04;  4.2272224E-03;  0.0000000E+00;  3.6118971E-04;  2.2233135E+03;
  2.8067523E-01;  9.9999998E-03;  2.7001715E-01;4211; -1.9333434E-03;  0.0000000E+00; -1.8079132E-05;  1.0001458E+03;  1.0000000E-01;  1.2078671E+02;3; -5.4908276E+00;  0.0000000E+00;  2.4254546E+00;0;  4.4418653E-03;  4.0027082E+04;  0.0000000E+00;  1.2872562E+00;  4.0000000E+04;  0.0000000E+00;  3.9998512E+04;  4.3852977E-03;  0.0000000E+00;  5.6567802E-05;  2.3741824E+03;
  2.8071678E-01;  9.9999998E-03;  2.8002083E-01;4212; -1.7292714E-03;  0.0000000E+00; -6.3081898E-05;  1.0002549E+03;  1.0000000E-01;  2.1125328E+02;3; -8.0412741E+00;  0.0000000E+00;  1.6831397E+00;0;  4.2245653E-03;  4.0038527E+04;  0.0000000E+00;  1.0020475E+00;  4.0000000E+04;  0.0000000E+00;  3.9996324E+04;  4.4983854E-03;  0.0000000E+00; -2.7381981E-04;  2.1687161E+03;
  2.8077519E-01;  9.9999998E-03;  2.9002258E-01;4213; -1.4346659E-03;  0.0000000E+00; -8.6881235E-05;  1.0002712E+03;  1.0000000E-01;  2.2468500E+02;3; -1.1223252E+01;  0.0000000E+00;  2.9389089E-01;0;  4.1899942E-03;  4.0040930E+04;  0.0000000E+00;  8.2730718E-02;  4.0000000E+04;  0.0000000E+00;  3.9995312E+04;  4.6350756E-03;  0.0000000E+00; -4.4508150E-04;  1.1229501E+03;
  2.8085056E-01;  9.9999998E-03;  3.0002257E-01;4214; -1.1474246E-03;  0.0000000E+00; -1.0681659E-04;  1.0001326E+03;  1.0000000E-01;  1.0982405E+02;3; -1.4962100E+01;  0.0000000E+00; -1.4742781E+00;0;  4.1337768E-03;  4.0028816E+04;  0.0000000E+00; -1.9951117E+00;  4.0000000E+04;  0.0000000E+00;  3.9996004E+04;  4.7369706E-03;  0.0000000E+00; -6.0319365E-04;  1.9440830E+03;
  2.9072425E-01;  9.9999998E-03;  2.3997645E-01;4269; -2.1290493E-03;  0.0000000E+00;  4.4555847E-05;  9.9958868E+02;  1.0000000E-01; -3.4078049E+02;3; -2.3398951E-01;  0.0000000E+00;  1.0921701E+00;0;  3.5752319E-03;  3.9966188E+04;  0.0000000E+00;  4.1603008E-01;  4.0000000E+04;  0.0000000E+00;  4.0008336E+04;  3.6820844E-03;  0.0000000E+00; -1.0685239E-04;  1.2839491E+03;
  2.9066801E-01;  9.9999998E-03;  2.4999447E-01;4270; -2.1089844E-03;  0.0000000E+00; -2.8509289E-06;  9.9970630E+02;  1.0000000E-01; -2.4330176E+02;3; -1.0138792E+00;  0.0000000E+00;  1.4693040E+00;0;  3.9858250E-03;  3.9980965E+04;  0.0000000E+00;  4.0268794E-01;  4.0000000E+04;  0.0000000E+00;  4.0005215E+04;  4.1100159E-03;  0.0000000E+00; -1.2419111E-04;  1.0280259E+03;
  2.9061860E-01;  9.9999998E-03;  2.6000568E-01;4271; -2.0686195E-03;  0.0000000E+00; -6.1707564E-05;  9.9988098E+02;  1.0000000E-01; -9.8614494E+01;3; -2.1048954E+00;  0.0000000E+00;  1.7599471E+00;0;  4.1312645E-03;  4.0000059E+04;  0.0000000E+00;  6.0527509E-01;  4.0000000E+04;  0.0000000E+00;  4.0002523E+04;  4.4678226E-03;  0.0000000E+00; -3.3655809E-04;  1.1585596E+03;
  2.9060921E-01;  9.9999998E-03;  2.7001220E-01;4272; -1.9710895E-03;  0.0000000E+00; -1.1262642E-04;  1.0000792E+03;  1.0000000E-01;  6.5677155E+01;3; -3.5491166E+00;  0.0000000E+00;  1.8346909E+00;0;  4.0915618E-03;  4.0020484E+04;  0.0000000E+00;  8.3472061E-01;  4.0000000E+04;  0.0000000E+00;  3.9999918E+04;  4.7512492E-03;  0.0000000E+00; -6.5968721E-04;  1.5377358E+03;
  2.9064143E-01;  9.9999998E-03;  2.8001615E-01;4273; -1.8172999E-03;  0.0000000E+00; -1.5013416E-04;  1.0002589E+03;  1.0000000E-01;  2.1451245E+02;3; -5.4628615E+00;  0.0000000E+00;  1.5585797E+00;0;  3.9836848E-03;  4.0038203E+04;  0.0000000E+00;  6.2410384E-01;  4.0000000E+04;  0.0000000E+00;  3.9997777E+04;  4.9635372E-03;  0.0000000E+00; -9.7985251E-04;  1.3861997E+03;
  2.9068941E-01;  9.9999998E-03;  2.9001874E-01;4274; -1.6138701E-03;  0.0000000E+00; -1.8749786E-04;  1.0003862E+03;  1.0000000E-01;  3.1989218E+02;3; -7.9402590E+00;  0.0000000E+00;  8.7861961E-01;0;  3.7172041E-03;  4.0051207E+04;  0.0000000E+00; -2.0342676E-01;  4.0000000E+04;  0.0000000E+00;  3.9996109E+04;  5.1132962E-03;  0.0000000E+00; -1.3960922E-03;  6.2098822E+02;
  2.9073885E-01;  9.9999998E-03;  3.0002019E-01;4275; -1.3412229E-03;  0.0000000E+00; -2.1411250E-04;  1.0004292E+03;  1.0000000E-01;  3.5554550E+02;3; -1.1004219E+01;  0.0000000E+00; -1.2491145E-01;0;  3.5707282E-03;  4.0056656E+04;  0.0000000E+00; -1.7426128E+00;  4.0000000E+04;  0.0000000E+00;  3.9995215E+04;  5.2490197E-03;  0.0000000E+00; -1.6782915E-03;  1.8699146E+03;
  3.0079091E-01;  9.9999998E-03;  2.3998322E-01;4330; -2.1409455E-03;  0.0000000E+00; -6.7153313E-05;  9.9951245E+02;  1.0000000E-01; -4.0393918E+02;3;  2.6082501E-01;  0.0000000E+00;  6.1657441E-01;0;  3.1164065E-03;  3.9960691E+04;  0.0000000E+00;  2.7753407E-01;  4.0000000E+04;  0.0000000E+00;  4.0008102E+04;  3.6470715E-03;  0.0000000E+00; -5.3066516E-04;  1.1087991E+03;
  3.0070862E-01;  9.9999998E-03;  2.4999619E-01;4331; -2.1031874E-03;  0.0000000E+00; -1.1032861E-04;  9.9960730E+02;  1.0000000E-01; -3.2532413E+02;3; -2.2312860E-01;  0.0000000E+00;  8.6099130E-01;0;  3.5083729E-03;  3.9972238E+04;  0.0000000E+00;  1.0474766E-01;  4.0000000E+04;  0.0000000E+00;  4.0005824E+04;  4.1445820E-03;  0.0000000E+00; -6.3620904E-04;  7.7439874E+02;
  3.0062637E-01;  9.9999998E-03;  2.6000455E-01;4332; -2.0609319E-03;  0.0000000E+00; -1.6288577E-04;  9.9976373E+02;  1.0000000E-01; -1.9574754E+02;3; -9.3937701E-01;  0.0000000E+00;  1.0953506E+00;0;  3.6721993E-03;  3.9989195E+04;  0.0000000E+00;  8.7682024E-02;  4.0000000E+04;  0.0000000E+00;  4.0003281E+04;  4.5979032E-03;  0.0000000E+00; -9.2570402E-04;  5.0533774E+02;
  3.0060151E-01;  9.9999998E-03;  2.7000979E-01;4333; -1.9848261E-03;  0.0000000E+00; -2.0617002E-04;  9.9995770E+02;  1.0000000E-01; -3.5060738E+01;3; -1.8954215E+00;  0.0000000E+00;  1.2341216E+00;0;  3.7036813E-03;  4.0008699E+04;  0.0000000E+00;  5.6889322E-02;  4.0000000E+04;  0.0000000E+00;  4.0001246E+04;  4.9899030E-03;  0.0000000E+00; -1.2862216E-03;  3.2175470E+02;
  3.0062693E-01;  9.9999998E-03;  2.8001338E-01;4334; -1.8761030E-03;  0.0000000E+00; -2.3929855E-04;  1.0001536E+03;  1.0000000E-01;  1.2730504E+02;3; -3.1832168E+00;  0.0000000E+00;  1.1904403E+00;0;  3.6725621E-03;  4.0028305E+04;  0.0000000E+00; -3.4386301E-01;  4.0000000E+04;  0.0000000E+00;  3.9999129E+04;  5.3080786E-03;  0.0000000E+00; -1.6355166E-03;  2.4973604E+02;
  3.0067170E-01;  9.9999998E-03;  2.9001603E-01;4335; -1.7436068E-03;  0.0000000E+00; -2.7471440E-04;  1.0003257E+03;  1.0000000E-01;  2.6981952E+02;3; -4.8959007E+00;  0.0000000E+00;  9.1427332E-01;0;  3.4699726E-03;  4.0045281E+04;  0.0000000E+00; -1.3381987E+00;  4.0000000E+04;  0.0000000E+00;  3.9997094E+04;  5.5400413E-03;  0.0000000E+00; -2.0700686E-03;  1.5859714E+03;
  3.0071574E-01;  9.9999998E-03;  3.0001789E-01;4336; -1.5944948E-03;  0.0000000E+00; -3.1423333E-04;  1.0004460E+03;  1.0000000E-01;  3.6947104E+02;3; -7.1092782E+00;  0.0000000E+00;  4.3597198E-01;0;  3.0947130E-03;  4.0058316E+04;  0.0000000E+00; -2.9931154E+00;  4.0000000E+04;  0.0000000E+00;  3.9995805E+04;  5.6728362E-03;  0.0000000E+00; -2.5781232E-03;  3.8231187E+03;
  3.1086877E-01;  9.9999998E-03;  2.3999310E-01;4391; -2.1598265E-03;  0.0000000E+00; -1.7656166E-04;  9.9950177E+02;  1.0000000E-01; -4.1277844E+02;3;  5.8043092E-01;  0.0000000E+00;  3.2157511E-01;0;  2.7240349E-03;  3.9960891E+04;  0.0000000E+00;  3.1386515E-01;  4.0000000E+04;  0.0000000E+00;  4.0006191E+04;  3.6199924E-03;  0.0000000E+00; -8.9595740E-04;  9.6302478E+02;
  3.1076255E-01;  9.9999998E-03;  2.5000072E-01;4392; -2.1014309E-03;  0.0000000E+00; -2.1463782E-04;  9.9955646E+02;  1.0000000E-01; -3.6744641E+02;3;  3.1296170E-01;  0.0000000E+00;  4.6398935E-01;0;  3.0831131E-03;  3.9968316E+04;  0.0000000E+00;  8.8912643E-02;  4.0000000E+04;  0.0000000E+00;  4.0005051E+04;  4.1506812E-03;  0.0000000E+00; -1.0675681E-03;  6.9899731E+02;
  3.1065524E-01;  9.9999998E-03;  2.6000601E-01;4393; -2.0400402E-03;  0.0000000E+00; -2.6112833E-04;  9.9967603E+02;  1.0000000E-01; -2.6838748E+02;3; -9.3898177E-02;  0.0000000E+00;  6.1481798E-01;0;  3.2464438E-03;  3.9981156E+04;  0.0000000E+00; -8.5566491E-02;  4.0000000E+04;  0.0000000E+00;  4.0003762E+04;  4.6624048E-03;  0.0000000E+00; -1.4159610E-03;  4.6929938E+02;
  3.1062159E-01;  9.9999998E-03;  2.7000961E-01;4394; -1.9617588E-03;  0.0000000E+00; -2.9701839E-04;  9.9984039E+02;  1.0000000E-01; -1.3224318E+02;3; -6.6150939E-01;  0.0000000E+00;  7.3224777E-01;0;  3.3339912E-03;  3.9997551E+04;  0.0000000E+00; -3.3734894E-01;  4.0000000E+04;  0.0000000E+00;  4.0001730E+04;  5.1340410E-03;  0.0000000E+00; -1.8000498E-03;  4.4269528E+02;
  3.1065083E-01;  9.9999998E-03;  2.8001237E-01;4395; -1.8674241E-03;  0.0000000E+00; -3.2541592E-04;  1.0000157E+03;  1.0000000E-01;  1.3036669E+01;3; -1.4271550E+00;  0.0000000E+00;  7.6555431E-01;0;  3.3833960E-03;  4.0015152E+04;  0.0000000E+00; -9.0587819E-01;  4.0000000E+04;  0.0000000E+00;  4.0000484E+04;  5.5483095E-03;  0.0000000E+00; -2.1649136E-03;  1.1309567E+03;
  3.1070709E-01;  9.9999998E-03;  2.9001459E-01;4396; -1.7649265E-03;  0.0000000E+00; -3.5961167E-04;  1.0001839E+03;  1.0000000E-01;  1.5239075E+02;3; -2.4577632E+00;  0.0000000E+00;  6.8038815E-01;0;  3.2562525E-03;  4.0032074E+04;  0.0000000E+00; -1.9932948E+00;  4.0000000E+04;  0.0000000E+00;  3.9998766E+04;  5.8883457E-03;  0.0000000E+00; -2.6320932E-03;  2.6334365E+03;
  3.1076837E-01;  9.9999998E-03;  3.0001634E-01;4397; -1.6599414E-03;  0.0000000E+00; -3.9577080E-04;  1.0003278E+03;  1.0000000E-01;  2.7159726E+02;3; -3.8194034E+00;  0.0000000E+00;  4.7658354E-01;0;  3.0336815E-03;  4.0047047E+04;  0.0000000E+00; -3.6658471E+00;  4.0000000E+04;  0.0000000E+00;  3.9997102E+04;  6.1358153E-03;  0.0000000E+00; -3.1021337E-03;  4.9527656E+03;
  3.2096919E-01;  9.9999998E-03;  2.4000397E-01;4452; -2.1768394E-03;  0.0000000E+00; -2.8100034E-04;  9.9955261E+02;  1.0000000E-01; -3.7065619E+02;3;  7.6018339E-01;  0.0000000E+00;  1.6333057E-01;0;  2.4313033E-03;  3.9966594E+04;  0.0000000E+00;  4.0429911E-01;  4.0000000E+04;  0.0000000E+00;  4.0004516E+04;  3.6224287E-03;  0.0000000E+00; -1.1911254E-03;  8.4679413E+02;
  3.2086268E-01;  9.9999998E-03;  2.5000688E-01;4453; -2.0955487E-03;  0.0000000E+00; -3.1761971E-04;  9.9956586E+02;  1.0000000E-01; -3.5969354E+02;3;  6.4035439E-01;  0.0000000E+00;  2.3017707E-01;0;  2.7211159E-03;  3.9969305E+04;  0.0000000E+00;  1.9570462E-01;  4.0000000E+04;  0.0000000E+00;  4.0004398E+04;  4.1514444E-03;  0.0000000E+00; -1.4303285E-03;  6.3246564E+02;
  3.2073998E-01;  9.9999998E-03;  2.6000917E-01;4454; -2.0071685E-03;  0.0000000E+00; -3.5595187E-04;  9.9963751E+02;  1.0000000E-01; -3.0033719E+02;3;  4.4961619E-01;  0.0000000E+00;  3.0792132E-01;0;  2.8753246E-03;  3.9977324E+04;  0.0000000E+00; -4.5684967E-02;  4.0000000E+04;  0.0000000E+00;  4.0003520E+04;  4.6805628E-03;  0.0000000E+00; -1.8052382E-03;  4.5723499E+02;
  3.2067916E-01;  9.9999998E-03;  2.7001107E-01;4455; -1.9097973E-03;  0.0000000E+00; -3.8273499E-04;  9.9975787E+02;  1.0000000E-01; -2.0058691E+02;3;  1.6546898E-01;  0.0000000E+00;  3.8247207E-01;0;  3.0091007E-03;  3.9989285E+04;  0.0000000E+00; -3.6314419E-01;  4.0000000E+04;  0.0000000E+00;  4.0002535E+04;  5.1889331E-03;  0.0000000E+00; -2.1798324E-03;  5.6324042E+02;
  3.2069048E-01;  9.9999998E-03;  2.8001279E-01;4456; -1.8046672E-03;  0.0000000E+00; -4.0793396E-04;  9.9989850E+02;  1.0000000E-01; -8.4096390E+01;3; -2.3193504E-01;  0.0000000E+00;  4.2250392E-01;0;  3.0863492E-03;  4.0003383E+04;  0.0000000E+00; -8.7555045E-01;  4.0000000E+04;  0.0000000E+00;  4.0001379E+04;  5.6584990E-03;  0.0000000E+00; -2.5721497E-03;  1.1771615E+03;
  3.2073024E-01;  9.9999998E-03;  2.9001448E-01;4457; -1.6910658E-03;  0.0000000E+00; -4.4553663E-04;  1.0000504E+03;  1.0000000E-01;  4.1677834E+01;3; -7.7673459E-01;  0.0000000E+00;  4.0446648E-01;0;  2.9285215E-03;  4.0018797E+04;  0.0000000E+00; -1.6581045E+00;  4.0000000E+04;  0.0000000E+00;  3.9999766E+04;  6.0739229E-03;  0.0000000E+00; -3.1454014E-03;  2.2534019E+03;
  3.2076919E-01;  9.9999998E-03;  3.0001593E-01;4458; -1.5608190E-03;  0.0000000E+00; -4.8791457E-04;  1.0001974E+03;  1.0000000E-01;  1.6355093E+02;3; -1.4920357E+00;  0.0000000E+00;  3.2649371E-01;0;  2.6671467E-03;  4.0033938E+04;  0.0000000E+00; -2.7068751E+00;  4.0000000E+04;  0.0000000E+00;  3.9998277E+04;  6.4234589E-03;  0.0000000E+00; -3.7563122E-03;  3.7197717E+03;
  3.3102715E-01;  9.9999998E-03;  2.4001493E-01;4513; -2.1817037E-03;  0.0000000E+00; -3.8239371E-04;  9.9965625E+02;  1.0000000E-01; -2.8478207E+02;3;  8.5083467E-01;  0.0000000E+00;  8.8122785E-02;0;  2.2111388E-03;  3.9976238E+04;  0.0000000E+00;  4.8622459E-01;  4.0000000E+04;  0.0000000E+00;  4.0002566E+04;  3.6440974E-03;  0.0000000E+00; -1.4329585E-03;  7.7606146E+02;
  3.3092797E-01;  9.9999998E-03;  2.5001365E-01;4514; -2.0762731E-03;  0.0000000E+00; -4.1530820E-04;  9.9962915E+02;  1.0000000E-01; -3.0725058E+02;3;  8.2211268E-01;  0.0000000E+00;  1.0817635E-01;0;  2.4278765E-03;  3.9974836E+04;  0.0000000E+00;  3.6349040E-01;  4.0000000E+04;  0.0000000E+00;  4.0002871E+04;  4.1395957E-03;  0.0000000E+00; -1.7117191E-03;  6.6056122E+02;
  3.3080530E-01;  9.9999998E-03;  2.6001334E-01;4515; -1.9583195E-03;  0.0000000E+00; -4.4187414E-04;  9.9965594E+02;  1.0000000E-01; -2.8502896E+02;3;  7.6271015E-01;  0.0000000E+00;  1.3902141E-01;0;  2.5835393E-03;  3.9977949E+04;  0.0000000E+00;  1.7463720E-01;  4.0000000E+04;  0.0000000E+00;  4.0003074E+04;  4.6460507E-03;  0.0000000E+00; -2.0625114E-03;  4.8075134E+02;
  3.3072335E-01;  9.9999998E-03;  2.7001357E-01;4516; -1.8234916E-03;  0.0000000E+00; -4.5741303E-04;  9.9972589E+02;  1.0000000E-01; -2.2710469E+02;3;  6.6587842E-01;  0.0000000E+00;  1.7314035E-01;0;  2.7691959E-03;  3.9984988E+04;  0.0000000E+00; -9.0846375E-02;  4.0000000E+04;  0.0000000E+00;  4.0002742E+04;  5.1445393E-03;  0.0000000E+00; -2.3753433E-03;  3.6788199E+02;
  3.3070579E-01;  9.9999998E-03;  2.8001431E-01;4517; -1.6731633E-03;  0.0000000E+00; -4.7900429E-04;  9.9982281E+02;  1.0000000E-01; -1.4681067E+02;3;  5.2920753E-01;  0.0000000E+00;  1.9617413E-01;0;  2.8532851E-03;  3.9994992E+04;  0.0000000E+00; -4.6825579E-01;  4.0000000E+04;  0.0000000E+00;  4.0001727E+04;  5.6177787E-03;  0.0000000E+00; -2.7644937E-03;  6.7577368E+02;
  3.3072585E-01;  9.9999998E-03;  2.9001525E-01;4518; -1.5053657E-03;  0.0000000E+00; -5.1718019E-04;  9.9993683E+02;  1.0000000E-01; -5.2344200E+01;3;  3.3497831E-01;  0.0000000E+00;  2.0612592E-01;0;  2.6603653E-03;  4.0006742E+04;  0.0000000E+00; -9.7742110E-01;  4.0000000E+04;  0.0000000E+00;  4.0000660E+04;  6.0515250E-03;  0.0000000E+00; -3.3911597E-03;  1.3466891E+03;
  3.3074898E-01;  9.9999998E-03;  3.0001619E-01;4519; -1.3149983E-03;  0.0000000E+00; -5.5067521E-04;  1.0000582E+03;  1.0000000E-01;  4.8196167E+01;3;  5.9549581E-02;  0.0000000E+00;  1.8930988E-01;0;  2.5580833E-03;  4.0019281E+04;  0.0000000E+00; -1.5939444E+00;  4.0000000E+04;  0.0000000E+00;  3.9999371E+04;  6.4358073E-03;  0.0000000E+00; -3.8777241E-03;  2.2093936E+03;
  3.4106144E-01;  9.9999998E-03;  2.4002446E-01;4574; -2.1682817E-03;  0.0000000E+00; -4.8136275E-04;  9.9977618E+02;  1.0000000E-01; -1.8542685E+02;3;  9.0298182E-01;  0.0000000E+00;  5.0868746E-02;0;  2.0157816E-03;  3.9987375E+04;  0.0000000E+00;  4.9350458E-01;  4.0000000E+04;  0.0000000E+00;  4.0000629E+04;  3.6515330E-03;  0.0000000E+00; -1.6357515E-03;  7.0928235E+02;
  3.4097710E-01;  9.9999998E-03;  2.5001988E-01;4575; -2.0386435E-03;  0.0000000E+00; -5.0016149E-04;  9.9972729E+02;  1.0000000E-01; -2.2591954E+02;3;  9.1722548E-01;  0.0000000E+00;  5.1726069E-02;0;  2.2082552E-03;  3.9982406E+04;  0.0000000E+00;  4.4869649E-01;  4.0000000E+04;  0.0000000E+00;  4.0001914E+04;  4.0868013E-03;  0.0000000E+00; -1.8785460E-03;  6.8588251E+02;
  3.4086642E-01;  9.9999998E-03;  2.6001751E-01;4576; -1.8823260E-03;  0.0000000E+00; -5.1033252E-04;  9.9971100E+02;  1.0000000E-01; -2.3945001E+02;3;  9.3879288E-01;  0.0000000E+00;  5.8661733E-02;0;  2.4055755E-03;  3.9981199E+04;  0.0000000E+00;  3.3703819E-01;  4.0000000E+04;  0.0000000E+00;  4.0002523E+04;  4.5356411E-03;  0.0000000E+00; -2.1300656E-03;  5.8848389E+02;
  3.4078017E-01;  9.9999998E-03;  2.7001658E-01;4577; -1.6897187E-03;  0.0000000E+00; -5.1662716E-04;  9.9972986E+02;  1.0000000E-01; -2.2379614E+02;3;  9.7741061E-01;  0.0000000E+00;  7.2977178E-02;0;  2.6213732E-03;  3.9983578E+04;  0.0000000E+00;  1.5249377E-01;  4.0000000E+04;  0.0000000E+00;  4.0002688E+04;  4.9812193E-03;  0.0000000E+00; -2.3598461E-03;  4.0859027E+02;
  3.4073499E-01;  9.9999998E-03;  2.8001639E-01;4578; -1.4627390E-03;  0.0000000E+00; -5.2839186E-04;  9.9977295E+02;  1.0000000E-01; -1.8809344E+02;3;  1.0149792E+00;  0.0000000E+00;  1.0198294E-01;0;  2.7774277E-03;  3.9988934E+04;  0.0000000E+00; -1.0775209E-01;  4.0000000E+04;  0.0000000E+00;  4.0002125E+04;  5.4079778E-03;  0.0000000E+00; -2.6305502E-03;  3.1439868E+02;
  3.4072238E-01;  9.9999998E-03;  2.9001662E-01;4579; -1.2151316E-03;  0.0000000E+00; -5.3974299E-04;  9.9984625E+02;  1.0000000E-01; -1.2735442E+02;3;  1.0303380E+00;  0.0000000E+00;  1.3785346E-01;0;  2.9692487E-03;  3.9996219E+04;  0.0000000E+00; -4.3500957E-01;  4.0000000E+04;  0.0000000E+00;  4.0001387E+04;  5.8027641E-03;  0.0000000E+00; -2.8335154E-03;  6.2480701E+02;
  3.4072438E-01;  9.9999998E-03;  3.0001697E-01;4580; -9.4714487E-04;  0.0000000E+00; -5.3465611E-04;  9.9992590E+02;  1.0000000E-01; -6.1380981E+01;3;  9.9411023E-01;  0.0000000E+00;  1.6626662E-01;0;  3.5080872E-03;  4.0004988E+04;  0.0000000E+00; -7.9621965E-01;  4.0000000E+04;  0.0000000E+00;  4.0000516E+04;  6.1565167E-03;  0.0000000E+00; -2.6484295E-03;  1.1113125E+03;
  3.5105738E-01;  9.9999998E-03;  2.4003126E-01;4635; -2.1271135E-03;  0.0000000E+00; -5.6178024E-04;  9.9989844E+02;  1.0000000E-01; -8.4145767E+01;3;  9.5259953E-01;  0.0000000E+00;  2.3077758E-02;0;  1.8626535E-03;  3.9997152E+04;  0.0000000E+00;  4.3364713E-01;  4.0000000E+04;  0.0000000E+00;  3.9999258E+04;  3.6036579E-03;  0.0000000E+00; -1.7410044E-03;  6.2734570E+02;
  3.5099116E-01;  9.9999998E-03;  2.5002453E-01;4636; -1.9652157E-03;  0.0000000E+00; -5.6330313E-04;  9.9982227E+02;  1.0000000E-01; -1.4725510E+02;3;  1.0000646E+00;  0.0000000E+00;  2.2732833E-02;0;  2.0675887E-03;  3.9989871E+04;  0.0000000E+00;  4.3195823E-01;  4.0000000E+04;  0.0000000E+00;  4.0000992E+04;  3.9601144E-03;  0.0000000E+00; -1.8925258E-03;  6.2996509E+02;
  3.5089999E-01;  9.9999998E-03;  2.6002127E-01;4637; -1.7536283E-03;  0.0000000E+00; -5.5530237E-04;  9.9976910E+02;  1.0000000E-01; -1.9130324E+02;3;  1.0930389E+00;  0.0000000E+00;  3.3308163E-02;0;  2.3452230E-03;  3.9985148E+04;  0.0000000E+00;  3.7404898E-01;  4.0000000E+04;  0.0000000E+00;  4.0002145E+04;  4.3259901E-03;  0.0000000E+00; -1.9807671E-03;  5.9404901E+02;
  3.5081953E-01;  9.9999998E-03;  2.7001950E-01;4638; -1.4777888E-03;  0.0000000E+00; -5.1932893E-04;  9.9974304E+02;  1.0000000E-01; -2.1288287E+02;3;  1.2348481E+00;  0.0000000E+00;  9.1506913E-02;0;  2.9940135E-03;  3.9983203E+04;  0.0000000E+00;  2.5653574E-01;  4.0000000E+04;  0.0000000E+00;  4.0002422E+04;  4.6871416E-03;  0.0000000E+00; -1.6931283E-03;  4.8142343E+02;
  3.5075542E-01;  9.9999998E-03;  2.8001857E-01;4639; -1.1988656E-03;  0.0000000E+00; -4.9212016E-04;  9.9974420E+02;  1.0000000E-01; -2.1194463E+02;3;  1.3249375E+00;  0.0000000E+00;  1.4041436E-01;0;  3.7453473E-03;  3.9984250E+04;  0.0000000E+00;  8.5007921E-02;  4.0000000E+04;  0.0000000E+00;  4.0002414E+04;  5.0316611E-03;  0.0000000E+00; -1.2863138E-03;  3.2300757E+02;
  3.5070366E-01;  9.9999998E-03;  2.9001811E-01;4640; -9.4462978E-04;  0.0000000E+00; -4.9558067E-04;  9.9976624E+02;  1.0000000E-01; -1.9367354E+02;3;  1.3443556E+00;  0.0000000E+00;  1.6254337E-01;0;  4.1540451E-03;  3.9987059E+04;  0.0000000E+00; -1.3048115E-01;  4.0000000E+04;  0.0000000E+00;  4.0001941E+04;  5.3492966E-03;  0.0000000E+00; -1.1952514E-03;  3.0362979E+02;
  3.5067618E-01;  9.9999998E-03;  3.0001789E-01;4641; -6.6666573E-04;  0.0000000E+00; -4.8212465E-04;  9.9979895E+02;  1.0000000E-01; -1.6656319E+02;3;  1.3272939E+00;  0.0000000E+00;  1.6917486E-01;0;  4.8612477E-03;  3.9991344E+04;  0.0000000E+00; -3.6527365E-01;  4.0000000E+04;  0.0000000E+00;  4.0001398E+04;  5.6321309E-03;  0.0000000E+00; -7.7088311E-04;  5.4183740E+02;
  3.6101618E-01;  9.9999998E-03;  2.4003467E-01;4696; -2.0463406E-03;  0.0000000E+00; -6.1937631E-04;  9.9998254E+02;  1.0000000E-01; -1.4468726E+01;3;  1.0332975E+00;  0.0000000E+00;  1.0417302E-02;0;  1.7277345E-03;  4.0003867E+04;  0.0000000E+00;  3.4272119E-01;  4.0000000E+04;  0.0000000E+00;  3.9998562E+04;  3.4758314E-03;  0.0000000E+00; -1.7480969E-03;  5.2697021E+02;
  3.6096597E-01;  9.9999998E-03;  2.5002766E-01;4697; -1.8314520E-03;  0.0000000E+00; -5.8748387E-04;  9.9989209E+02;  1.0000000E-01; -8.9380188E+01;3;  1.1422241E+00;  0.0000000E+00;  4.3589696E-02;0;  2.0790834E-03;  3.9994711E+04;  0.0000000E+00;  3.5173315E-01;  4.0000000E+04;  0.0000000E+00;  4.0000547E+04;  3.7460723E-03;  0.0000000E+00; -1.6669889E-03;  5.0497522E+02;
  3.6088929E-01;  9.9999998E-03;  2.6002383E-01;4698; -1.5365402E-03;  0.0000000E+00; -5.0643168E-04;  9.9980933E+02;  1.0000000E-01; -1.5797084E+02;3;  1.3021162E+00;  0.0000000E+00;  1.1633536E-01;0;  3.0016610E-03;  3.9987340E+04;  0.0000000E+00;  3.1701168E-01;  4.0000000E+04;  0.0000000E+00;  4.0001621E+04;  4.0180539E-03;  0.0000000E+00; -1.0163930E-03;  5.0435019E+02;
  3.6081725E-01;  9.9999998E-03;  2.7002168E-01;4699; -1.2676998E-03;  0.0000000E+00; -4.5483973E-04;  9.9975061E+02;  1.0000000E-01; -2.0661143E+02;3;  1.3854053E+00;  0.0000000E+00;  1.5734716E-01;0;  4.0267468E-03;  3.9982129E+04;  0.0000000E+00;  2.3616581E-01;  4.0000000E+04;  0.0000000E+00;  4.0002172E+04;  4.2818603E-03;  0.0000000E+00; -2.5511338E-04;  4.5077365E+02;
  3.6075133E-01;  9.9999998E-03;  2.8002030E-01;4700; -1.0377314E-03;  0.0000000E+00; -4.6263111E-04;  9.9970917E+02;  1.0000000E-01; -2.4093146E+02;3;  1.4091604E+00;  0.0000000E+00;  1.6501595E-01;0;  4.4936156E-03;  3.9979027E+04;  0.0000000E+00;  1.1288663E-01;  4.0000000E+04;  0.0000000E+00;  4.0002309E+04;  4.5295008E-03;  0.0000000E+00; -3.5885070E-05;  3.6244244E+02;
  3.6068484E-01;  9.9999998E-03;  2.9001930E-01;4701; -7.9976761E-04;  0.0000000E+00; -4.8015499E-04;  9.9968762E+02;  1.0000000E-01; -2.5880750E+02;3;  1.4161665E+00;  0.0000000E+00;  1.6969573E-01;0;  4.7437260E-03;  3.9977980E+04;  0.0000000E+00; -4.3402966E-02;  4.0000000E+04;  0.0000000E+00;  4.0002523E+04;  4.7556311E-03;  0.0000000E+00; -1.1904930E-05;  3.2828271E+02;
  3.6063126E-01;  9.9999998E-03;  3.0001864E-01;4702; -5.1385106E-04;  0.0000000E+00; -4.7391138E-04;  9.9968213E+02;  1.0000000E-01; -2.6335059E+02;3;  1.4098616E+00;  0.0000000E+00;  1.6227800E-01;0;  5.3093187E-03;  3.9978254E+04;  0.0000000E+00; -2.1574336E-01;  4.0000000E+04;  0.0000000E+00;  4.0002227E+04;  4.9563479E-03;  0.0000000E+00;  3.5297059E-04;  4.2771478E+02;
  3.7094823E-01;  9.9999998E-03;  2.4003513E-01;4757; -1.8997708E-03;  0.0000000E+00; -6.2119577E-04;  1.0000233E+03;  1.0000000E-01;  1.9258715E+01;3;  1.2050304E+00;  0.0000000E+00;  5.9140675E-02;0;  1.7590271E-03;  4.0005812E+04;  0.0000000E+00;  2.4726129E-01;  4.0000000E+04;  0.0000000E+00;  3.9998270E+04;  3.2870595E-03;  0.0000000E+00; -1.5280324E-03;  4.0504160E+02;
  3.7090331E-01;  9.9999998E-03;  2.5002864E-01;4758; -1.6362632E-03;  0.0000000E+00; -5.3446321E-04;  9.9991803E+02;  1.0000000E-01; -6.7899315E+01;3;  1.3355670E+00;  0.0000000E+00;  1.2903121E-01;0;  2.5082398E-03;  3.9995520E+04;  0.0000000E+00;  2.5316897E-01;  4.0000000E+04;  0.0000000E+00;  4.0000375E+04;  3.4767762E-03;  0.0000000E+00; -9.6853625E-04;  3.6643979E+02;
  3.7084612E-01;  9.9999998E-03;  2.6002514E-01;4759; -1.3900041E-03;  0.0000000E+00; -4.6560224E-04;  9.9981708E+02;  1.0000000E-01; -1.5155127E+02;3;  1.4069303E+00;  0.0000000E+00;  1.7355041E-01;0;  3.5141972E-03;  3.9986148E+04;  0.0000000E+00;  2.2322519E-01;  4.0000000E+04;  0.0000000E+00;  4.0001680E+04;  3.6601177E-03;  0.0000000E+00; -1.4592058E-04;  3.8999799E+02;
  3.7079135E-01;  9.9999998E-03;  2.7002284E-01;4760; -1.1758232E-03;  0.0000000E+00; -4.5126010E-04;  9.9972845E+02;  1.0000000E-01; -2.2498129E+02;3;  1.4269046E+00;  0.0000000E+00;  1.8283783E-01;0;  4.2832578E-03;  3.9978297E+04;  0.0000000E+00;  1.5671046E-01;  4.0000000E+04;  0.0000000E+00;  4.0002441E+04;  3.8307868E-03;  0.0000000E+00;  4.5247114E-04;  3.9266074E+02;
  3.7073407E-01;  9.9999998E-03;  2.8002116E-01;4761; -9.6932484E-04;  0.0000000E+00; -4.7734170E-04;  9.9965283E+02;  1.0000000E-01; -2.8764618E+02;3;  1.4357386E+00;  0.0000000E+00;  1.8417433E-01;0;  4.5522917E-03;  3.9972445E+04;  0.0000000E+00;  5.8464549E-02;  4.0000000E+04;  0.0000000E+00;  4.0002777E+04;  3.9854245E-03;  0.0000000E+00;  5.6686735E-04;  3.9563913E+02;
  3.7066928E-01;  9.9999998E-03;  2.9001987E-01;4762; -7.4233668E-04;  0.0000000E+00; -5.0469174E-04;  9.9959949E+02;  1.0000000E-01; -3.3179309E+02;3;  1.4405547E+00;  0.0000000E+00;  1.8507241E-01;0;  4.6372097E-03;  3.9967934E+04;  0.0000000E+00; -6.3147791E-02;  4.0000000E+04;  0.0000000E+00;  4.0003250E+04;  4.1230437E-03;  0.0000000E+00;  5.1416620E-04;  4.3515967E+02;
  3.7060741E-01;  9.9999998E-03;  3.0001882E-01;4763; -4.5825759E-04;  0.0000000E+00; -5.0579879E-04;  9.9955756E+02;  1.0000000E-01; -3.6655753E+02;3;  1.4344816E+00;  0.0000000E+00;  1.7414634E-01;0;  5.0284658E-03;  3.9964965E+04;  0.0000000E+00; -1.9611663E-01;  4.0000000E+04;  0.0000000E+00;  4.0003324E+04;  4.2437585E-03;  0.0000000E+00;  7.8470731E-04;  5.3093945E+02;
  3.8088688E-01;  9.9999998E-03;  2.4003232E-01;4818; -1.7398264E-03;  0.0000000E+00; -5.7812838E-04;  1.0000092E+03;  1.0000000E-01;  7.6047230E+00;3;  1.3537538E+00;  0.0000000E+00;  1.3699420E-01;0;  1.9823955E-03;  4.0002613E+04;  0.0000000E+00;  1.5207084E-01;  4.0000000E+04;  0.0000000E+00;  3.9999402E+04;  3.1203488E-03;  0.0000000E+00; -1.1379531E-03;  2.3172296E+02;
  3.8084388E-01;  9.9999998E-03;  2.5002775E-01;4819; -1.5303626E-03;  0.0000000E+00; -5.1768415E-04;  9.9989362E+02;  1.0000000E-01; -8.8145653E+01;3;  1.4128108E+00;  0.0000000E+00;  1.8428400E-01;0;  2.7069130E-03;  3.9991594E+04;  0.0000000E+00;  1.5026678E-01;  4.0000000E+04;  0.0000000E+00;  4.0000906E+04;  3.2459679E-03;  0.0000000E+00; -5.3905486E-04;  2.5354344E+02;
  3.8080314E-01;  9.9999998E-03;  2.6002491E-01;4820; -1.3346660E-03;  0.0000000E+00; -4.8747324E-04;  9.9977631E+02;  1.0000000E-01; -1.8532809E+02;3;  1.4383892E+00;  0.0000000E+00;  1.9966756E-01;0;  3.4876857E-03;  3.9981117E+04;  0.0000000E+00;  1.2155987E-01;  4.0000000E+04;  0.0000000E+00;  4.0002176E+04;  3.3579723E-03;  0.0000000E+00;  1.2971339E-04;  3.3973758E+02;
  3.8077074E-01;  9.9999998E-03;  2.7002281E-01;4821; -1.1472238E-03;  0.0000000E+00; -4.9246935E-04;  9.9966913E+02;  1.0000000E-01; -2.7411569E+02;3;  1.4506714E+00;  0.0000000E+00;  2.0088036E-01;0;  4.0635969E-03;  3.9971676E+04;  0.0000000E+00;  6.4678967E-02;  4.0000000E+04;  0.0000000E+00;  4.0003172E+04;  3.4531744E-03;  0.0000000E+00;  6.1042263E-04;  4.1429047E+02;
  3.8072959E-01;  9.9999998E-03;  2.8002110E-01;4822; -9.5760729E-04;  0.0000000E+00; -5.2710396E-04;  9.9957416E+02;  1.0000000E-01; -3.5278015E+02;3;  1.4535230E+00;  0.0000000E+00;  2.0035960E-01;0;  4.1910266E-03;  3.9963738E+04;  0.0000000E+00; -1.2976973E-02;  4.0000000E+04;  0.0000000E+00;  4.0003648E+04;  3.5313924E-03;  0.0000000E+00;  6.5963401E-04;  4.9013605E+02;
  3.8067529E-01;  9.9999998E-03;  2.9001966E-01;4823; -7.4469601E-04;  0.0000000E+00; -5.6116743E-04;  9.9949579E+02;  1.0000000E-01; -4.1771658E+02;3;  1.4577653E+00;  0.0000000E+00;  1.9856098E-01;0;  4.1248985E-03;  3.9956980E+04;  0.0000000E+00; -1.0383092E-01;  4.0000000E+04;  0.0000000E+00;  4.0004023E+04;  3.5946495E-03;  0.0000000E+00;  5.3024874E-04;  5.8188025E+02;
  3.8061619E-01;  9.9999998E-03;  3.0001843E-01;4824; -4.7555449E-04;  0.0000000E+00; -5.6818954E-04;  9.9942993E+02;  1.0000000E-01; -4.7228293E+02;3;  1.4555198E+00;  0.0000000E+00;  1.8979715E-01;0;  4.3597762E-03;  3.9951512E+04;  0.0000000E+00; -1.9967291E-01;  4.0000000E+04;  0.0000000E+00;  4.0004676E+04;  3.6461237E-03;  0.0000000E+00;  7.1365235E-04;  6.8622034E+02;
  3.9086372E-01;  9.9999998E-03;  2.4002703E-01;4879; -1.6655440E-03;  0.0000000E+00; -5.7266292E-04;  9.9995642E+02;  1.0000000E-01; -3.6097744E+01;3;  1.4185140E+00;  0.0000000E+00;  1.8638375E-01;0;  2.1704137E-03;  3.9996176E+04;  0.0000000E+00;  6.0842749E-02;  4.0000000E+04;  0.0000000E+00;  4.0000930E+04;  3.1271197E-03;  0.0000000E+00; -9.5670595E-04;  1.5308449E+02;
  3.9082378E-01;  9.9999998E-03;  2.5002524E-01;4880; -1.5005257E-03;  0.0000000E+00; -5.5508647E-04;  9.9982904E+02;  1.0000000E-01; -1.4162563E+02;3;  1.4387531E+00;  0.0000000E+00;  2.0511827E-01;0;  2.7133892E-03;  3.9984348E+04;  0.0000000E+00;  5.1123939E-02;  4.0000000E+04;  0.0000000E+00;  4.0001922E+04;  3.2123595E-03;  0.0000000E+00; -4.9897033E-04;  2.8379520E+02;
  3.9079204E-01;  9.9999998E-03;  2.6002336E-01;4881; -1.3302602E-03;  0.0000000E+00; -5.4885074E-04;  9.9970081E+02;  1.0000000E-01; -2.4789423E+02;3;  1.4526535E+00;  0.0000000E+00;  2.1216249E-01;0;  3.2997974E-03;  3.9973234E+04;  0.0000000E+00;  2.5131274E-02;  4.0000000E+04;  0.0000000E+00;  4.0003336E+04;  3.2788061E-03;  0.0000000E+00;  2.0991338E-05;  4.1646829E+02;
  3.9077210E-01;  9.9999998E-03;  2.7002177E-01;4882; -1.1578726E-03;  0.0000000E+00; -5.6326750E-04;  9.9958630E+02;  1.0000000E-01; -3.4275574E+02;3;  1.4628813E+00;  0.0000000E+00;  2.1176858E-01;0;  3.7325993E-03;  3.9962832E+04;  0.0000000E+00; -1.8174270E-02;  4.0000000E+04;  0.0000000E+00;  4.0003918E+04;  3.3248772E-03;  0.0000000E+00;  4.0772196E-04;  5.2652148E+02;
  3.9074582E-01;  9.9999998E-03;  2.8002027E-01;4883; -9.8048546E-04;  0.0000000E+00; -5.9953699E-04;  9.9947858E+02;  1.0000000E-01; -4.3198779E+02;3;  1.4651595E+00;  0.0000000E+00;  2.0711190E-01;0;  3.7880130E-03;  3.9953449E+04;  0.0000000E+00; -7.2607830E-02;  4.0000000E+04;  0.0000000E+00;  4.0004906E+04;  3.3514102E-03;  0.0000000E+00;  4.3660295E-04;  6.3359039E+02;
  3.9070261E-01;  9.9999998E-03;  2.9001886E-01;4884; -7.8570418E-04;  0.0000000E+00; -6.3942338E-04;  9.9938599E+02;  1.0000000E-01; -5.0867697E+02;3;  1.4727660E+00;  0.0000000E+00;  2.0862593E-01;0;  3.5814722E-03;  3.9945324E+04;  0.0000000E+00; -1.3077991E-01;  4.0000000E+04;  0.0000000E+00;  4.0005230E+04;  3.3620254E-03;  0.0000000E+00;  2.1944678E-04;  7.4030426E+02;
  3.9064968E-01;  9.9999998E-03;  3.0001754E-01;4885; -5.4404460E-04;  0.0000000E+00; -6.5436587E-04;  9.9930554E+02;  1.0000000E-01; -5.7534174E+02;3;  1.4774706E+00;  0.0000000E+00;  2.0748903E-01;0;  3.6359106E-03;  3.9938555E+04;  0.0000000E+00; -1.8953651E-01;  4.0000000E+04;  0.0000000E+00;  4.0005852E+04;  3.3617464E-03;  0.0000000E+00;  2.7416414E-04;  8.4732520E+02;
  4.0084994E-01;  9.9999998E-03;  2.4002087E-01;4940; -1.6576167E-03;  0.0000000E+00; -6.1725813E-04;  9.9988403E+02;  1.0000000E-01; -9.6096046E+01;3;  1.4352187E+00;  0.0000000E+00;  1.9933914E-01;0;  2.4710973E-03;  3.9987328E+04;  0.0000000E+00; -2.2915194E-02;  4.0000000E+04;  0.0000000E+00;  4.0002848E+04;  3.5148819E-03;  0.0000000E+00; -1.0437847E-03;  3.7199048E+02;
  4.0081558E-01;  9.9999998E-03;  2.5002190E-01;4941; -1.5088447E-03;  0.0000000E+00; -6.2266382E-04;  9.9974646E+02;  1.0000000E-01; -2.1006813E+02;3;  1.4481877E+00;  0.0000000E+00;  2.0753954E-01;0;  2.8958663E-03;  3.9975422E+04;  0.0000000E+00; -3.6459461E-02;  4.0000000E+04;  0.0000000E+00;  4.0003285E+04;  3.5873391E-03;  0.0000000E+00; -6.9147279E-04;  4.4588031E+02;
  4.0079021E-01;  9.9999998E-03;  2.6002115E-01;4942; -1.3510702E-03;  0.0000000E+00; -6.2799518E-04;  9.9961469E+02;  1.0000000E-01; -3.1925024E+02;3;  1.4587631E+00;  0.0000000E+00;  2.1224181E-01;0;  3.3681709E-03;  3.9964105E+04;  0.0000000E+00; -5.5841699E-02;  4.0000000E+04;  0.0000000E+00;  4.0004270E+04;  3.6374282E-03;  0.0000000E+00; -2.6925732E-04;  5.6328528E+02;
  4.0077445E-01;  9.9999998E-03;  2.7002007E-01;4943; -1.1901314E-03;  0.0000000E+00; -6.4765662E-04;  9.9949219E+02;  1.0000000E-01; -4.2072885E+02;3;  1.4688544E+00;  0.0000000E+00;  2.1126579E-01;0;  3.7072287E-03;  3.9953207E+04;  0.0000000E+00; -8.2448564E-02;  4.0000000E+04;  0.0000000E+00;  4.0005008E+04;  3.6638819E-03;  0.0000000E+00;  4.3346776E-05;  6.7825293E+02;
  4.0075496E-01;  9.9999998E-03;  2.8001893E-01;4944; -1.0267161E-03;  0.0000000E+00; -6.8863138E-04;  9.9937927E+02;  1.0000000E-01; -5.1425708E+02;3;  1.4756054E+00;  0.0000000E+00;  2.1240959E-01;0;  3.6583792E-03;  3.9943531E+04;  0.0000000E+00; -1.1344170E-01;  4.0000000E+04;  0.0000000E+00;  4.0005738E+04;  3.6675609E-03;  0.0000000E+00; -9.1817883E-06;  7.8609454E+02;
  4.0072367E-01;  9.9999998E-03;  2.9001772E-01;4945; -8.5104542E-04;  0.0000000E+00; -7.3309429E-04;  9.9928357E+02;  1.0000000E-01; -5.9356348E+02;3;  1.4828357E+00;  0.0000000E+00;  2.1119291E-01;0;  3.3510088E-03;  3.9934988E+04;  0.0000000E+00; -1.4444444E-01;  4.0000000E+04;  0.0000000E+00;  4.0006352E+04;  3.6524066E-03;  0.0000000E+00; -3.0139778E-04;  8.8848047E+02;
  4.0067980E-01;  9.9999998E-03;  3.0001643E-01;4946; -6.4659270E-04;  0.0000000E+00; -7.6083239E-04;  9.9919452E+02;  1.0000000E-01; -6.6733917E+02;3;  1.4919561E+00;  0.0000000E+00;  2.1351501E-01;0;  3.1679033E-03;  3.9927422E+04;  0.0000000E+00; -1.7273502E-01;  4.0000000E+04;  0.0000000E+00;  4.0007141E+04;  3.6236639E-03;  0.0000000E+00; -4.5576066E-04;  9.9732294E+02;
  4.1084370E-01;  9.9999998E-03;  2.4001546E-01;5001; -1.6783006E-03;  0.0000000E+00; -6.8970310E-04;  9.9980096E+02;  1.0000000E-01; -1.6488423E+02;3;  1.4391474E+00;  0.0000000E+00;  1.9682853E-01;0;  3.2174406E-03;  3.9978441E+04;  0.0000000E+00; -9.8191559E-02;  4.0000000E+04;  0.0000000E+00;  4.0004320E+04;  4.5180595E-03;  0.0000000E+00; -1.3006191E-03;  5.9746454E+02;
  4.1081959E-01;  9.9999998E-03;  2.5001854E-01;5002; -1.5360533E-03;  0.0000000E+00; -7.0309150E-04;  9.9966492E+02;  1.0000000E-01; -2.7762177E+02;3;  1.4516604E+00;  0.0000000E+00;  2.0351304E-01;0;  3.6055297E-03;  3.9966898E+04;  0.0000000E+00; -1.1258255E-01;  4.0000000E+04;  0.0000000E+00;  4.0004441E+04;  4.6065790E-03;  0.0000000E+00; -1.0010494E-03;  6.2289520E+02;
  4.1080275E-01;  9.9999998E-03;  2.6001874E-01;5003; -1.3863517E-03;  0.0000000E+00; -7.1472261E-04;  9.9953253E+02;  1.0000000E-01; -3.8729770E+02;3;  1.4638911E+00;  0.0000000E+00;  2.0797181E-01;0;  4.0261615E-03;  3.9955738E+04;  0.0000000E+00; -1.2530485E-01;  4.0000000E+04;  0.0000000E+00;  4.0005254E+04;  4.6704239E-03;  0.0000000E+00; -6.4426224E-04;  7.1725256E+02;
  4.1078937E-01;  9.9999998E-03;  2.7001825E-01;5004; -1.2358380E-03;  0.0000000E+00; -7.3984871E-04;  9.9940906E+02;  1.0000000E-01; -4.8956641E+02;3;  1.4741921E+00;  0.0000000E+00;  2.0841326E-01;0;  4.2992220E-03;  3.9945367E+04;  0.0000000E+00; -1.3825049E-01;  4.0000000E+04;  0.0000000E+00;  4.0005770E+04;  4.7073280E-03;  0.0000000E+00; -4.0810593E-04;  8.1940344E+02;
  4.1077119E-01;  9.9999998E-03;  2.8001750E-01;5005; -1.0832241E-03;  0.0000000E+00; -7.8296248E-04;  9.9929773E+02;  1.0000000E-01; -5.8181073E+02;3;  1.4812521E+00;  0.0000000E+00;  2.0795390E-01;0;  4.2192200E-03;  3.9935379E+04;  0.0000000E+00; -1.5111560E-01;  4.0000000E+04;  0.0000000E+00;  4.0006531E+04;  4.7178050E-03;  0.0000000E+00; -4.9858488E-04;  9.1607898E+02;
  4.1074112E-01;  9.9999998E-03;  2.9001650E-01;5006; -9.2493923E-04;  0.0000000E+00; -8.3027635E-04;  9.9919965E+02;  1.0000000E-01; -6.6309235E+02;3;  1.4898517E+00;  0.0000000E+00;  2.0918477E-01;0;  3.8780533E-03;  3.9926707E+04;  0.0000000E+00; -1.5928066E-01;  4.0000000E+04;  0.0000000E+00;  4.0007363E+04;  4.7054142E-03;  0.0000000E+00; -8.2736084E-04;  1.0122083E+03;
  4.1069832E-01;  9.9999998E-03;  3.0001536E-01;5007; -7.5036025E-04;  0.0000000E+00; -8.6645206E-04;  9.9911438E+02;  1.0000000E-01; -7.3370764E+02;3;  1.4986668E+00;  0.0000000E+00;  2.1047348E-01;0;  3.5772831E-03;  3.9919188E+04;  0.0000000E+00; -1.5717095E-01;  4.0000000E+04;  0.0000000E+00;  4.0008078E+04;  4.6749916E-03;  0.0000000E+00; -1.0977085E-03;  1.1077684E+03;
  4.2085961E-01;  9.9999998E-03;  2.4001172E-01;5062; -1.7134721E-03;  0.0000000E+00; -7.7658764E-04;  9.9973712E+02;  1.0000000E-01; -2.1777162E+02;3;  1.4420896E+00;  0.0000000E+00;  1.8899509E-01;0;  4.7042868E-03;  3.9971770E+04;  0.0000000E+00; -1.6254871E-01;  4.0000000E+04;  0.0000000E+00;  4.0005660E+04;  6.3701821E-03;  0.0000000E+00; -1.6658953E-03;  7.5153601E+02;
  4.2084861E-01;  9.9999998E-03;  2.5001574E-01;5063; -1.5746781E-03;  0.0000000E+00; -7.9290109E-04;  9.9960077E+02;  1.0000000E-01; -3.3075607E+02;3;  1.4545209E+00;  0.0000000E+00;  1.9570073E-01;0;  5.1028803E-03;  3.9960668E+04;  0.0000000E+00; -1.7673464E-01;  4.0000000E+04;  0.0000000E+00;  4.0005605E+04;  6.5051042E-03;  0.0000000E+00; -1.4022237E-03;  7.6231494E+02;
  4.2084000E-01;  9.9999998E-03;  2.6001677E-01;5064; -1.4306135E-03;  0.0000000E+00; -8.0883497E-04;  9.9947675E+02;  1.0000000E-01; -4.3351862E+02;3;  1.4675299E+00;  0.0000000E+00;  1.9950768E-01;0;  5.5159428E-03;  3.9950109E+04;  0.0000000E+00; -1.8422385E-01;  4.0000000E+04;  0.0000000E+00;  4.0005957E+04;  6.6133747E-03;  0.0000000E+00; -1.0974320E-03;  8.3018573E+02;
  4.2082629E-01;  9.9999998E-03;  2.7001673E-01;5065; -1.2866686E-03;  0.0000000E+00; -8.3639630E-04;  9.9935693E+02;  1.0000000E-01; -5.3277509E+02;3;  1.4769459E+00;  0.0000000E+00;  2.0114312E-01;0;  5.7911961E-03;  3.9940078E+04;  0.0000000E+00; -1.8511473E-01;  4.0000000E+04;  0.0000000E+00;  4.0006715E+04;  6.6905371E-03;  0.0000000E+00; -8.9934113E-04;  9.1595111E+02;
  4.2080370E-01;  9.9999998E-03;  2.8001630E-01;5066; -1.1431868E-03;  0.0000000E+00; -8.8050577E-04;  9.9925256E+02;  1.0000000E-01; -6.1924176E+02;3;  1.4864174E+00;  0.0000000E+00;  1.9992088E-01;0;  5.7389853E-03;  3.9930793E+04;  0.0000000E+00; -1.7741765E-01;  4.0000000E+04;  0.0000000E+00;  4.0007148E+04;  6.7368182E-03;  0.0000000E+00; -9.9783309E-04;  9.9217743E+02;
  4.2076850E-01;  9.9999998E-03;  2.9001555E-01;5067; -9.9766173E-04;  0.0000000E+00; -9.2829874E-04;  9.9915930E+02;  1.0000000E-01; -6.9652350E+02;3;  1.4944749E+00;  0.0000000E+00;  1.9896008E-01;0;  5.4498692E-03;  3.9922660E+04;  0.0000000E+00; -1.5538795E-01;  4.0000000E+04;  0.0000000E+00;  4.0007871E+04;  6.7556519E-03;  0.0000000E+00; -1.3057827E-03;  1.0716891E+03;
  4.2071721E-01;  9.9999998E-03;  3.0001453E-01;5068; -8.4595749E-04;  0.0000000E+00; -9.6853432E-04;  9.9907770E+02;  1.0000000E-01; -7.6412653E+02;3;  1.5065005E+00;  0.0000000E+00;  2.0249447E-01;0;  5.1475158E-03;  3.9915438E+04;  0.0000000E+00; -1.1113590E-01;  4.0000000E+04;  0.0000000E+00;  4.0008535E+04;  6.7505524E-03;  0.0000000E+00; -1.6030364E-03;  1.1533164E+03;
  4.3089268E-01;  9.9999998E-03;  2.4000989E-01;5123; -1.7546824E-03;  0.0000000E+00; -8.7079033E-04;  9.9970807E+02;  1.0000000E-01; -2.4186971E+02;3;  1.4407986E+00;  0.0000000E+00;  1.7785276E-01;0;  7.1650455E-03;  3.9968812E+04;  0.0000000E+00; -2.0872246E-01;  4.0000000E+04;  0.0000000E+00;  4.0005922E+04;  9.2701409E-03;  0.0000000E+00; -2.1050952E-03;  8.1243280E+02;
  4.3088934E-01;  9.9999998E-03;  2.5001416E-01;5124; -1.6168912E-03;  0.0000000E+00; -8.8769326E-04;  9.9957904E+02;  1.0000000E-01; -3.4878027E+02;3;  1.4560095E+00;  0.0000000E+00;  1.8501444E-01;0;  7.6186177E-03;  3.9958500E+04;  0.0000000E+00; -2.1899164E-01;  4.0000000E+04;  0.0000000E+00;  4.0005820E+04;  9.4821863E-03;  0.0000000E+00; -1.8635687E-03;  8.2072412E+02;
  4.3088493E-01;  9.9999998E-03;  2.6001555E-01;5125; -1.4764778E-03;  0.0000000E+00; -9.0569677E-04;  9.9946448E+02;  1.0000000E-01; -4.4369116E+02;3;  1.4697955E+00;  0.0000000E+00;  1.8917927E-01;0;  8.0806660E-03;  3.9948766E+04;  0.0000000E+00; -2.1805701E-01;  4.0000000E+04;  0.0000000E+00;  4.0006227E+04;  9.6658282E-03;  0.0000000E+00; -1.5851620E-03;  8.7012354E+02;
  4.3087035E-01;  9.9999998E-03;  2.7001584E-01;5126; -1.3373226E-03;  0.0000000E+00; -9.3573058E-04;  9.9935394E+02;  1.0000000E-01; -5.3524414E+02;3;  1.4799865E+00;  0.0000000E+00;  1.9000112E-01;0;  8.4035825E-03;  3.9939480E+04;  0.0000000E+00; -2.0360281E-01;  4.0000000E+04;  0.0000000E+00;  4.0006699E+04;  9.8139206E-03;  0.0000000E+00; -1.4103376E-03;  9.3288617E+02;
  4.3084604E-01;  9.9999998E-03;  2.8001562E-01;5127; -1.2003272E-03;  0.0000000E+00; -9.7965065E-04;  9.9925586E+02;  1.0000000E-01; -6.1652576E+02;3;  1.4902525E+00;  0.0000000E+00;  1.8883039E-01;0;  8.4441239E-03;  3.9931066E+04;  0.0000000E+00; -1.7068042E-01;  4.0000000E+04;  0.0000000E+00;  4.0007312E+04;  9.9270539E-03;  0.0000000E+00; -1.4829297E-03;  9.9106128E+02;
  4.3080834E-01;  9.9999998E-03;  2.9001504E-01;5128; -1.0641030E-03;  0.0000000E+00; -1.0278516E-03;  9.9917206E+02;  1.0000000E-01; -6.8595593E+02;3;  1.5017226E+00;  0.0000000E+00;  1.9014856E-01;0;  8.2554966E-03;  3.9923473E+04;  0.0000000E+00; -1.1088283E-01;  4.0000000E+04;  0.0000000E+00;  4.0007785E+04;  1.0007872E-02;  0.0000000E+00; -1.7523759E-03;  1.0491460E+03;
  4.3075293E-01;  9.9999998E-03;  3.0001414E-01;5129; -9.2839455E-04;  0.0000000E+00; -1.0703328E-03;  9.9909589E+02;  1.0000000E-01; -7.4906525E+02;3;  1.5129431E+00;  0.0000000E+00;  1.9157611E-01;0;  8.0340784E-03;  3.9916691E+04;  0.0000000E+00; -1.4042247E-02;  4.0000000E+04;  0.0000000E+00;  4.0008191E+04;  1.0058793E-02;  0.0000000E+00; -2.0247146E-03;  1.1245974E+03;
  4.4093534E-01;  9.9999998E-03;  2.4001025E-01;5184; -1.7950075E-03;  0.0000000E+00; -9.7017508E-04;  9.9972211E+02;  1.0000000E-01; -2.3021571E+02;3;  1.4389671E+00;  0.0000000E+00;  1.6534436E-01;0;  1.0747674E-02;  3.9970547E+04;  0.0000000E+00; -2.3133080E-01;  4.0000000E+04;  0.0000000E+00;  4.0005184E+04;  1.3351150E-02;  0.0000000E+00; -2.6034762E-03;  7.6363263E+02;
  4.4093642E-01;  9.9999998E-03;  2.5001401E-01;5185; -1.6576026E-03;  0.0000000E+00; -9.8673382E-04;  9.9960834E+02;  1.0000000E-01; -3.2448465E+02;3;  1.4559093E+00;  0.0000000E+00;  1.7313728E-01;0;  1.1297508E-02;  3.9961215E+04;  0.0000000E+00; -2.3448652E-01;  4.0000000E+04;  0.0000000E+00;  4.0005230E+04;  1.3674307E-02;  0.0000000E+00; -2.3767985E-03;  7.8038159E+02;
  4.4093436E-01;  9.9999998E-03;  2.6001534E-01;5186; -1.5189169E-03;  0.0000000E+00; -1.0056293E-03;  9.9950342E+02;  1.0000000E-01; -4.1139578E+02;3;  1.4713650E+00;  0.0000000E+00;  1.7670189E-01;0;  1.1859020E-02;  3.9952500E+04;  0.0000000E+00; -2.2240458E-01;  4.0000000E+04;  0.0000000E+00;  4.0005750E+04;  1.3967087E-02;  0.0000000E+00; -2.1080670E-03;  8.2136566E+02;
  4.4092214E-01;  9.9999998E-03;  2.7001578E-01;5187; -1.3824722E-03;  0.0000000E+00; -1.0374587E-03;  9.9940570E+02;  1.0000000E-01; -4.9238113E+02;3;  1.4834408E+00;  0.0000000E+00;  1.7664143E-01;0;  1.2284746E-02;  3.9943996E+04;  0.0000000E+00; -1.9035918E-01;  4.0000000E+04;  0.0000000E+00;  4.0006117E+04;  1.4220849E-02;  0.0000000E+00; -1.9361026E-03;  8.5995990E+02;
  4.4090149E-01;  9.9999998E-03;  2.8001559E-01;5188; -1.2493184E-03;  0.0000000E+00; -1.0813978E-03;  9.9931598E+02;  1.0000000E-01; -5.6670001E+02;3;  1.4932793E+00;  0.0000000E+00;  1.7572887E-01;0;  1.2465847E-02;  3.9936605E+04;  0.0000000E+00; -1.3068368E-01;  4.0000000E+04;  0.0000000E+00;  4.0006699E+04;  1.4435994E-02;  0.0000000E+00; -1.9701475E-03;  9.0136755E+02;
  4.4086668E-01;  9.9999998E-03;  2.9001504E-01;5189; -1.1202121E-03;  0.0000000E+00; -1.1303258E-03;  9.9923694E+02;  1.0000000E-01; -6.3217963E+02;3;  1.5049827E+00;  0.0000000E+00;  1.7586114E-01;0;  1.2426078E-02;  3.9929484E+04;  0.0000000E+00; -3.2985222E-02;  4.0000000E+04;  0.0000000E+00;  4.0007117E+04;  1.4613274E-02;  0.0000000E+00; -2.1871964E-03;  9.5532251E+02;
  4.4081366E-01;  9.9999998E-03;  3.0001423E-01;5190; -9.9511154E-04;  0.0000000E+00; -1.1747644E-03;  9.9916901E+02;  1.0000000E-01; -6.8847437E+02;3;  1.5198207E+00;  0.0000000E+00;  1.7575534E-01;0;  1.2338320E-02;  3.9923520E+04;  0.0000000E+00;  1.1437070E-01;  4.0000000E+04;  0.0000000E+00;  4.0007746E+04;  1.4754535E-02;  0.0000000E+00; -2.4162144E-03;  1.0439281E+03;
  4.5098773E-01;  9.9999998E-03;  2.4001251E-01;5245; -1.8272332E-03;  0.0000000E+00; -1.0725756E-03;  9.9977148E+02;  1.0000000E-01; -1.8932797E+02;3;  1.4348592E+00;  0.0000000E+00;  1.5237723E-01;0;  1.5515328E-02;  3.9976207E+04;  0.0000000E+00; -2.3089476E-01;  4.0000000E+04;  0.0000000E+00;  4.0004094E+04;  1.8657891E-02;  0.0000000E+00; -3.1425629E-03;  6.2224542E+02;
  4.5099011E-01;  9.9999998E-03;  2.5001505E-01;5246; -1.6911686E-03;  0.0000000E+00; -1.0894026E-03;  9.9967633E+02;  1.0000000E-01; -2.6814056E+02;3;  1.4538106E+00;  0.0000000E+00;  1.5902364E-01;0;  1.6199106E-02;  3.9968035E+04;  0.0000000E+00; -2.2611216E-01;  4.0000000E+04;  0.0000000E+00;  4.0004262E+04;  1.9130135E-02;  0.0000000E+00; -2.9310288E-03;  6.6041016E+02;
  4.5099023E-01;  9.9999998E-03;  2.6001608E-01;5247; -1.5531959E-03;  0.0000000E+00; -1.1088063E-03;  9.9958630E+02;  1.0000000E-01; -3.4275574E+02;3;  1.4710121E+00;  0.0000000E+00;  1.6294436E-01;0;  1.6906433E-02;  3.9960141E+04;  0.0000000E+00; -2.0241004E-01;  4.0000000E+04;  0.0000000E+00;  4.0004652E+04;  1.9570591E-02;  0.0000000E+00; -2.6641591E-03;  6.9491779E+02;
  4.5098487E-01;  9.9999998E-03;  2.7001640E-01;5248; -1.4179568E-03;  0.0000000E+00; -1.1420400E-03;  9.9950092E+02;  1.0000000E-01; -4.1346979E+02;3;  1.4855216E+00;  0.0000000E+00;  1.6298299E-01;0;  1.7487949E-02;  3.9953016E+04;  0.0000000E+00; -1.5309234E-01;  4.0000000E+04;  0.0000000E+00;  4.0005055E+04;  1.9970469E-02;  0.0000000E+00; -2.4825204E-03;  7.1613232E+02;
  4.5097303E-01;  9.9999998E-03;  2.8001612E-01;5249; -1.2867798E-03;  0.0000000E+00; -1.1866030E-03;  9.9941772E+02;  1.0000000E-01; -4.8240610E+02;3;  1.4975067E+00;  0.0000000E+00;  1.6164096E-01;0;  1.7853864E-02;  3.9946191E+04;  0.0000000E+00; -6.9217421E-02;  4.0000000E+04;  0.0000000E+00;  4.0005605E+04;  2.0327346E-02;  0.0000000E+00; -2.4734838E-03;  7.5148468E+02;
  4.5094678E-01;  9.9999998E-03;  2.9001558E-01;5250; -1.1605611E-03;  0.0000000E+00; -1.2368724E-03;  9.9934863E+02;  1.0000000E-01; -5.3963904E+02;3;  1.5118482E+00;  0.0000000E+00;  1.6122545E-01;0;  1.8002961E-02;  3.9939922E+04;  0.0000000E+00;  5.9350390E-02;  4.0000000E+04;  0.0000000E+00;  4.0006020E+04;  2.0639038E-02;  0.0000000E+00; -2.6360769E-03;  8.1117236E+02;
  4.5090163E-01;  9.9999998E-03;  3.0001479E-01;5251; -1.0405640E-03;  0.0000000E+00; -1.2839456E-03;  9.9928577E+02;  1.0000000E-01; -5.9173633E+02;3;  1.5270411E+00;  0.0000000E+00;  1.5970087E-01;0;  1.8084098E-02;  3.9934523E+04;  0.0000000E+00;  2.4419129E-01;  4.0000000E+04;  0.0000000E+00;  4.0006316E+04;  2.0906532E-02;  0.0000000E+00; -2.8224355E-03;  9.4399780E+02;
  4.6103579E-01;  9.9999998E-03;  2.4001631E-01;5306; -1.8455493E-03;  0.0000000E+00; -1.1780066E-03;  9.9985138E+02;  1.0000000E-01; -1.2310763E+02;3;  1.4374580E+00;  0.0000000E+00;  1.4407924E-01;0;  2.1401137E-02;  3.9984469E+04;  0.0000000E+00; -2.0998806E-01;  4.0000000E+04;  0.0000000E+00;  4.0002293E+04;  2.5111096E-02;  0.0000000E+00; -3.7099596E-03;  4.2173645E+02;
  4.6103719E-01;  9.9999998E-03;  2.5001702E-01;5307; -1.7100995E-03;  0.0000000E+00; -1.1940202E-03;  9.9976685E+02;  1.0000000E-01; -1.9317972E+02;3;  1.4538878E+00;  0.0000000E+00;  1.4652380E-01;0;  2.2268774E-02;  3.9977074E+04;  0.0000000E+00; -1.9798417E-01;  4.0000000E+04;  0.0000000E+00;  4.0003156E+04;  2.5774317E-02;  0.0000000E+00; -3.5055436E-03;  4.9138794E+02;
  4.6103591E-01;  9.9999998E-03;  2.6001742E-01;5308; -1.5731143E-03;  0.0000000E+00; -1.2155733E-03;  9.9968805E+02;  1.0000000E-01; -2.5846182E+02;3;  1.4707778E+00;  0.0000000E+00;  1.4854416E-01;0;  2.3151934E-02;  3.9970188E+04;  0.0000000E+00; -1.6353989E-01;  4.0000000E+04;  0.0000000E+00;  4.0003488E+04;  2.6402259E-02;  0.0000000E+00; -3.2503260E-03;  5.2582709E+02;
  4.6102893E-01;  9.9999998E-03;  2.7001745E-01;5309; -1.4381059E-03;  0.0000000E+00; -1.2515174E-03;  9.9961151E+02;  1.0000000E-01; -3.2186743E+02;3;  1.4872631E+00;  0.0000000E+00;  1.4844976E-01;0;  2.3911340E-02;  3.9963492E+04;  0.0000000E+00; -9.8831050E-02;  4.0000000E+04;  0.0000000E+00;  4.0003812E+04;  2.6983349E-02;  0.0000000E+00; -3.0720080E-03;  5.4116010E+02;
  4.6101609E-01;  9.9999998E-03;  2.8001702E-01;5310; -1.3061892E-03;  0.0000000E+00; -1.2975122E-03;  9.9954077E+02;  1.0000000E-01; -3.8048306E+02;3;  1.5022368E+00;  0.0000000E+00;  1.4616740E-01;0;  2.4482967E-02;  3.9957402E+04;  0.0000000E+00;  4.0078596E-03;  4.0000000E+04;  0.0000000E+00;  4.0004109E+04;  2.7513357E-02;  0.0000000E+00; -3.0303898E-03;  5.7701788E+02;
  4.6099207E-01;  9.9999998E-03;  2.9001635E-01;5311; -1.1792888E-03;  0.0000000E+00; -1.3500936E-03;  9.9947540E+02;  1.0000000E-01; -4.3460498E+02;3;  1.5179093E+00;  0.0000000E+00;  1.4499769E-01;0;  2.4835892E-02;  3.9952016E+04;  0.0000000E+00;  1.5192568E-01;  4.0000000E+04;  0.0000000E+00;  4.0004883E+04;  2.7989302E-02;  0.0000000E+00; -3.1534093E-03;  6.7402850E+02;
  4.6095228E-01;  9.9999998E-03;  3.0001551E-01;5312; -1.0568292E-03;  0.0000000E+00; -1.4006583E-03;  9.9941577E+02;  1.0000000E-01; -4.8403571E+02;3;  1.5366940E+00;  0.0000000E+00;  1.4270286E-01;0;  2.5101965E-02;  3.9946875E+04;  0.0000000E+00;  3.5308909E-01;  4.0000000E+04;  0.0000000E+00;  4.0005164E+04;  2.8410878E-02;  0.0000000E+00; -3.3089130E-03;  8.6686285E+02;
  4.7102138E-01;  9.9999998E-03;  2.4002029E-01;5367; -1.8439702E-03;  0.0000000E+00; -1.2857160E-03;  9.9992157E+02;  1.0000000E-01; -6.4985809E+01;3;  1.4418054E+00;  0.0000000E+00;  1.3674411E-01;0;  2.8174901E-02;  3.9992668E+04;  0.0000000E+00; -1.7232952E-01;  4.0000000E+04;  0.0000000E+00;  4.0000578E+04;  3.2458089E-02;  0.0000000E+00; -4.2831884E-03;  2.5373386E+02;
  4.7101560E-01;  9.9999998E-03;  2.5001913E-01;5368; -1.7086403E-03;  0.0000000E+00; -1.3009646E-03;  9.9984863E+02;  1.0000000E-01; -1.2542854E+02;3;  1.4590964E+00;  0.0000000E+00;  1.3855132E-01;0;  2.9262159E-02;  3.9985410E+04;  0.0000000E+00; -1.5563594E-01;  4.0000000E+04;  0.0000000E+00;  4.0001879E+04;  3.3351108E-02;  0.0000000E+00; -4.0889489E-03;  3.2216846E+02;
  4.7100943E-01;  9.9999998E-03;  2.6001883E-01;5369; -1.5713063E-03;  0.0000000E+00; -1.3265661E-03;  9.9977240E+02;  1.0000000E-01; -1.8853786E+02;3;  1.4748594E+00;  0.0000000E+00;  1.3801432E-01;0;  3.0340854E-02;  3.9978812E+04;  0.0000000E+00; -1.1526169E-01;  4.0000000E+04;  0.0000000E+00;  4.0002582E+04;  3.4205187E-02;  0.0000000E+00; -3.8643333E-03;  3.6600601E+02;
  4.7099823E-01;  9.9999998E-03;  2.7001846E-01;5370; -1.4345507E-03;  0.0000000E+00; -1.3665034E-03;  9.9970410E+02;  1.0000000E-01; -2.4512885E+02;3;  1.4898309E+00;  0.0000000E+00;  1.3460460E-01;0;  3.1294748E-02;  3.9972633E+04;  0.0000000E+00; -4.3754458E-02;  4.0000000E+04;  0.0000000E+00;  4.0002672E+04;  3.5004053E-02;  0.0000000E+00; -3.7093058E-03;  3.8950958E+02;
  4.7097862E-01;  9.9999998E-03;  2.8001782E-01;5371; -1.2998969E-03;  0.0000000E+00; -1.4160059E-03;  9.9963989E+02;  1.0000000E-01; -2.9836191E+02;3;  1.5065161E+00;  0.0000000E+00;  1.3148689E-01;0;  3.2063276E-02;  3.9966844E+04;  0.0000000E+00;  6.3811362E-02;  4.0000000E+04;  0.0000000E+00;  4.0003418E+04;  3.5736836E-02;  0.0000000E+00; -3.6735591E-03;  4.5088068E+02;
  4.7095266E-01;  9.9999998E-03;  2.9001698E-01;5372; -1.1659930E-03;  0.0000000E+00; -1.4728234E-03;  9.9957806E+02;  1.0000000E-01; -3.4957034E+02;3;  1.5245612E+00;  0.0000000E+00;  1.2635833E-01;0;  3.2608524E-02;  3.9961738E+04;  0.0000000E+00;  2.0936345E-01;  4.0000000E+04;  0.0000000E+00;  4.0003719E+04;  3.6402717E-02;  0.0000000E+00; -3.7941916E-03;  5.8649182E+02;
  4.7091755E-01;  9.9999998E-03;  3.0001608E-01;5373; -1.0305432E-03;  0.0000000E+00; -1.5302018E-03;  9.9952271E+02;  1.0000000E-01; -3.9544559E+02;3;  1.5460489E+00;  0.0000000E+00;  1.2369043E-01;0;  3.3019707E-02;  3.9956883E+04;  0.0000000E+00;  3.9559788E-01;  4.0000000E+04;  0.0000000E+00;  4.0004344E+04;  3.7000317E-02;  0.0000000E+00; -3.9806101E-03;  8.0175488E+02;
  4.8083720E-01;  9.9999998E-03;  3.0001622E-01;5434; -9.4508019E-04;  0.0000000E+00; -1.6775394E-03;  9.9957806E+02;  1.0000147E-01; -3.4957034E+02;3;  1.5558158E+00;  0.0000000E+00;  1.0709137E-01;0;  4.1400295E-02;  3.9961016E+04;  0.0000000E+00;  3.4420931E-01;  4.0000000E+04;  0.0000000E+00;  4.0003949E+04;  4.6324231E-02;  0.0000000E+00; -4.9239346E-03;  7.1150385E+02;
  4.8086575E-01;  9.9999998E-03;  2.9001725E-01;5433; -1.1092810E-03;  0.0000000E+00; -1.6100473E-03;  9.9963245E+02;  1.0000147E-01; -3.0453458E+02;3;  1.5333322E+00;  0.0000000E+00;  1.0943052E-01;0;  4.0895369E-02;  3.9966121E+04;  0.0000000E+00;  2.0055661E-01;  4.0000000E+04;  0.0000000E+00;  4.0003344E+04;  4.5532644E-02;  0.0000000E+00; -4.6372740E-03;  5.2780219E+02;
  4.8088729E-01;  9.9999998E-03;  2.8001827E-01;5432; -1.2600988E-03;  0.0000000E+00; -1.5433329E-03;  9.9969513E+02;  1.0000148E-01; -2.5258543E+02;3;  1.5120394E+00;  0.0000000E+00;  1.1731774E-01;0;  4.0236998E-02;  3.9971285E+04;  0.0000000E+00;  8.0794245E-02;  4.0000000E+04;  0.0000000E+00;  4.0002711E+04;  4.4646949E-02;  0.0000000E+00; -4.4099498E-03;  3.8669998E+02;
  4.8094115E-01;  9.9999998E-03;  2.4002397E-01;5428; -1.8134937E-03;  0.0000000E+00; -1.3941171E-03;  9.9997003E+02;  1.0000148E-01; -2.4838802E+01;3;  1.4505169E+00;  0.0000000E+00;  1.3173278E-01;0;  3.5505008E-02;  3.9997410E+04;  0.0000000E+00; -1.2703089E-01;  4.0000000E+04;  0.0000000E+00;  3.9999227E+04;  4.0338542E-02;  0.0000000E+00; -4.8335334E-03;  2.1358476E+02;
  4.8092896E-01;  9.9999998E-03;  2.5002101E-01;5429; -1.6766767E-03;  0.0000000E+00; -1.4088242E-03;  9.9990326E+02;  1.0000146E-01; -8.0145874E+01;3;  1.4686563E+00;  0.0000000E+00;  1.3240591E-01;0;  3.6850661E-02;  3.9990027E+04;  0.0000000E+00; -1.1212554E-01;  4.0000000E+04;  0.0000000E+00;  4.0000867E+04;  4.1502103E-02;  0.0000000E+00; -4.6514403E-03;  1.8877063E+02;
  4.8091757E-01;  9.9999998E-03;  2.6002005E-01;5430; -1.5391336E-03;  0.0000000E+00; -1.4431038E-03;  9.9982727E+02;  1.0000145E-01; -1.4310706E+02;3;  1.4847660E+00;  0.0000000E+00;  1.3208532E-01;0;  3.8118429E-02;  3.9983227E+04;  0.0000000E+00; -7.5922310E-02;  4.0000000E+04;  0.0000000E+00;  4.0001539E+04;  4.2619821E-02;  0.0000000E+00; -4.5013907E-03;  2.4234384E+02;
  4.8090556E-01;  9.9999998E-03;  2.7001920E-01;5431; -1.4018019E-03;  0.0000000E+00; -1.4887614E-03;  9.9976031E+02;  1.0000148E-01; -1.9856227E+02;3;  1.4978679E+00;  0.0000000E+00;  1.2535906E-01;0;  3.9270613E-02;  3.9976879E+04;  0.0000000E+00; -1.2168054E-02;  4.0000000E+04;  0.0000000E+00;  4.0002055E+04;  4.3674007E-02;  0.0000000E+00; -4.4033942E-03;  2.9566202E+02;
  4.9093893E-01;  9.9999998E-03;  2.4002564E-01;5489; -1.7271924E-03;  0.0000000E+00; -1.4934072E-03;  9.9996472E+02;  1.0000210E-01; -2.9233738E+01;3;  1.4743969E+00;  0.0000000E+00;  1.3162376E-01;0;  4.3099288E-02;  3.9997242E+04;  0.0000000E+00; -9.1097757E-02;  4.0000000E+04;  0.0000000E+00;  3.9998375E+04;  4.8390456E-02;  0.0000000E+00; -5.2911672E-03;  2.2695660E+02;
  4.9090657E-01;  9.9999998E-03;  2.5002185E-01;5490; -1.5805098E-03;  0.0000000E+00; -1.5142518E-03;  9.9988806E+02;  1.0000207E-01; -9.2738113E+01;3;  1.4965587E+00;  0.0000000E+00;  1.3311747E-01;0;  4.4705607E-02;  3.9988984E+04;  0.0000000E+00; -8.5521676E-02;  4.0000000E+04;  0.0000000E+00;  4.0000363E+04;  4.9850449E-02;  0.0000000E+00; -5.1448401E-03;  1.3683492E+02;
  4.9087265E-01;  9.9999998E-03;  2.6002032E-01;5491; -1.4350909E-03;  0.0000000E+00; -1.5593843E-03;  9.9980579E+02;  1.0000200E-01; -1.6088432E+02;3;  1.5111364E+00;  0.0000000E+00;  1.2627108E-01;0;  4.6170518E-02;  3.9981391E+04;  0.0000000E+00; -6.3164994E-02;  4.0000000E+04;  0.0000000E+00;  4.0001676E+04;  5.1249769E-02;  0.0000000E+00; -5.0792494E-03;  2.2816473E+02;
  4.9084485E-01;  9.9999998E-03;  2.7001908E-01;5492; -1.2859525E-03;  0.0000000E+00; -1.6160945E-03;  9.9973419E+02;  1.0000207E-01; -2.2024066E+02;3;  1.5261968E+00;  0.0000000E+00;  1.1715965E-01;0;  4.7474336E-02;  3.9974543E+04;  0.0000000E+00; -1.9774901E-02;  4.0000000E+04;  0.0000000E+00;  4.0002465E+04;  5.2574415E-02;  0.0000000E+00; -5.1000784E-03;  3.2255911E+02;
  4.9082094E-01;  9.9999998E-03;  2.8001788E-01;5493; -1.1101009E-03;  0.0000000E+00; -1.6877633E-03;  9.9966522E+02;  1.0000204E-01; -2.7737485E+02;3;  1.5536633E+00;  0.0000000E+00;  1.0693053E-01;0;  4.8468124E-02;  3.9968367E+04;  0.0000000E+00;  4.3611731E-02;  4.0000000E+04;  0.0000000E+00;  4.0003055E+04;  5.3805053E-02;  0.0000000E+00; -5.3369286E-03;  4.2589474E+02;
  4.9080050E-01;  9.9999998E-03;  2.9001671E-01;5494; -8.9241058E-04;  0.0000000E+00; -1.7709975E-03;  9.9960077E+02;  1.0000199E-01; -3.3075604E+02;3;  1.5950470E+00;  0.0000000E+00;  9.8178849E-02;0;  4.9111638E-02;  3.9962594E+04;  0.0000000E+00;  1.2169949E-01;  4.0000000E+04;  0.0000000E+00;  4.0003867E+04;  5.4926507E-02;  0.0000000E+00; -5.8148704E-03;  5.4298175E+02;
  4.9078086E-01;  9.9999998E-03;  3.0001554E-01;5495; -6.4404384E-04;  0.0000000E+00; -1.8528712E-03;  9.9954150E+02;  1.0000207E-01; -3.7984109E+02;3;  1.6465355E+00;  0.0000000E+00;  9.0277784E-02;0;  4.9626868E-02;  3.9957387E+04;  0.0000000E+00;  2.0834182E-01;  4.0000000E+04;  0.0000000E+00;  4.0004500E+04;  5.5927087E-02;  0.0000000E+00; -6.3002175E-03;  6.7237451E+02;
  5.0094551E-01;  9.9999998E-03;  2.4002592E-01;5550; -1.4355688E-03;  0.0000000E+00; -1.5982251E-03;  9.9991064E+02;  1.0000383E-01; -7.4022591E+01;3;  1.5675920E+00;  0.0000000E+00;  1.3016903E-01;0;  5.0281104E-02;  3.9991449E+04;  0.0000000E+00; -6.6997230E-02;  4.0000000E+04;  0.0000000E+00;  3.9998660E+04;  5.5974215E-02;  0.0000000E+00; -5.6931111E-03;  1.8777859E+02;
  5.0092858E-01;  9.9999998E-03;  2.5002185E-01;5551; -1.2149151E-03;  0.0000000E+00; -1.6427417E-03;  9.9981476E+02;  1.0000373E-01; -1.5347713E+02;3;  1.6275873E+00;  0.0000000E+00;  1.2477779E-01;0;  5.2078761E-02;  3.9981734E+04;  0.0000000E+00; -7.8080691E-02;  4.0000000E+04;  0.0000000E+00;  4.0000633E+04;  5.7783064E-02;  0.0000000E+00; -5.7043005E-03;  1.5307263E+02;
  5.0090533E-01;  9.9999998E-03;  2.6001981E-01;5552; -9.2759001E-04;  0.0000000E+00; -1.7103426E-03;  9.9972369E+02;  1.0000370E-01; -2.2893178E+02;3;  1.7145052E+00;  0.0000000E+00;  1.1769069E-01;0;  5.3628154E-02;  3.9973023E+04;  0.0000000E+00; -7.6768346E-02;  4.0000000E+04;  0.0000000E+00;  4.0002176E+04;  5.9511475E-02;  0.0000000E+00; -5.8833193E-03;  3.1061499E+02;
  5.0088447E-01;  9.9999998E-03;  2.7001816E-01;5553; -5.7589810E-04;  0.0000000E+00; -1.7764537E-03;  9.9964233E+02;  1.0000364E-01; -2.9633728E+02;3;  1.8133695E+00;  0.0000000E+00;  1.0791752E-01;0;  5.5046979E-02;  3.9965227E+04;  0.0000000E+00; -5.8708414E-02;  4.0000000E+04;  0.0000000E+00;  4.0003402E+04;  6.1142314E-02;  0.0000000E+00; -6.0953340E-03;  4.5648746E+02;
  5.0087225E-01;  9.9999998E-03;  2.8001678E-01;5554; -1.8323044E-04;  0.0000000E+00; -1.8562733E-03;  9.9956604E+02;  1.0000388E-01; -3.5954535E+02;3;  1.9126545E+00;  0.0000000E+00;  9.8332852E-02;0;  5.6141868E-02;  3.9957953E+04;  0.0000000E+00; -2.6095299E-02;  4.0000000E+04;  0.0000000E+00;  4.0004531E+04;  6.2659733E-02;  0.0000000E+00; -6.5178666E-03;  5.8113281E+02;
  5.0086468E-01;  9.9999998E-03;  2.9001552E-01;5555;  2.1841443E-04;  0.0000000E+00; -1.9416197E-03;  9.9949713E+02;  1.0000371E-01; -4.1663016E+02;3;  1.9925195E+00;  0.0000000E+00;  8.8680997E-02;0;  5.6982383E-02;  3.9951668E+04;  0.0000000E+00;  1.5458775E-02;  4.0000000E+04;  0.0000000E+00;  4.0005223E+04;  6.4041562E-02;  0.0000000E+00; -7.0591792E-03;  6.9092590E+02;
  5.0086093E-01;  9.9999998E-03;  3.0001426E-01;5556;  5.7345303E-04;  0.0000000E+00; -2.0224620E-03;  9.9943164E+02;  1.0000388E-01; -4.7085083E+02;3;  2.0463591E+00;  0.0000000E+00;  8.6366892E-02;0;  5.7777822E-02;  3.9945973E+04;  0.0000000E+00;  5.9919380E-02;  4.0000000E+04;  0.0000000E+00;  4.0005934E+04;  6.5274619E-02;  0.0000000E+00; -7.4967984E-03;  7.9803204E+02;
  5.1090252E-01;  9.9999998E-03;  2.4002407E-01;5611; -2.8748342E-04;  0.0000000E+00; -1.7253862E-03;  9.9980676E+02;  1.0000615E-01; -1.6009422E+02;3;  2.0230827E+00;  0.0000000E+00;  1.2794790E-01;0;  5.6339707E-02;  3.9980266E+04;  0.0000000E+00; -5.0509125E-02;  4.0000000E+04;  0.0000000E+00;  3.9999887E+04;  6.2428068E-02;  0.0000000E+00; -6.0883625E-03;  7.0235512E+01;
  5.1088357E-01;  9.9999998E-03;  2.5002015E-01;5612;  1.0847508E-04;  0.0000000E+00; -1.7750920E-03;  9.9969586E+02;  1.0000618E-01; -2.5199286E+02;3;  2.1123664E+00;  0.0000000E+00;  1.2459920E-01;0;  5.8403980E-02;  3.9969129E+04;  0.0000000E+00; -7.5362198E-02;  4.0000000E+04;  0.0000000E+00;  4.0001965E+04;  6.4580813E-02;  0.0000000E+00; -6.1768335E-03;  2.9435062E+02;
  5.1085925E-01;  9.9999998E-03;  2.6001796E-01;5613;  5.4168532E-04;  0.0000000E+00; -1.8345877E-03;  9.9958850E+02;  1.0000620E-01; -3.4092859E+02;3;  2.1986029E+00;  0.0000000E+00;  1.1489996E-01;0;  6.0303554E-02;  3.9958863E+04;  0.0000000E+00; -9.0566106E-02;  4.0000000E+04;  0.0000000E+00;  4.0003754E+04;  6.6634104E-02;  0.0000000E+00; -6.3305483E-03;  5.0898654E+02;
  5.1083302E-01;  9.9999998E-03;  2.7001640E-01;5614;  9.9214097E-04;  0.0000000E+00; -1.8960994E-03;  9.9949493E+02;  1.0000632E-01; -4.1845728E+02;3;  2.2809057E+00;  0.0000000E+00;  9.7621091E-02;0;  6.2067565E-02;  3.9949922E+04;  0.0000000E+00; -8.9773610E-02;  4.0000000E+04;  0.0000000E+00;  4.0005090E+04;  6.8564251E-02;  0.0000000E+00; -6.4966879E-03;  6.7884845E+02;
  5.1082182E-01;  9.9999998E-03;  2.8001511E-01;5615;  1.4256886E-03;  0.0000000E+00; -1.9871353E-03;  9.9940991E+02;  1.0000617E-01; -4.8887503E+02;3;  2.3539455E+00;  0.0000000E+00;  7.5794727E-02;0;  6.3311510E-02;  3.9941855E+04;  0.0000000E+00; -7.6683842E-02;  4.0000000E+04;  0.0000000E+00;  4.0006004E+04;  7.0361294E-02;  0.0000000E+00; -7.0497869E-03;  8.1191516E+02;
  5.1082098E-01;  9.9999998E-03;  2.9001391E-01;5616;  1.8139367E-03;  0.0000000E+00; -2.0804801E-03;  9.9933392E+02;  1.0000617E-01; -5.5183618E+02;3;  2.3984046E+00;  0.0000000E+00;  6.4556435E-02;0;  6.4313985E-02;  3.9934852E+04;  0.0000000E+00; -5.6569986E-02;  4.0000000E+04;  0.0000000E+00;  4.0006961E+04;  7.2004735E-02;  0.0000000E+00; -7.6907529E-03;  9.2729517E+02;
  5.1083142E-01;  9.9999998E-03;  3.0001265E-01;5617;  2.1300756E-03;  0.0000000E+00; -2.1681492E-03;  9.9926477E+02;  1.0000626E-01; -6.0911853E+02;3;  2.4159610E+00;  0.0000000E+00;  5.3309843E-02;0;  6.5290987E-02;  3.9928691E+04;  0.0000000E+00; -3.4452487E-02;  4.0000000E+04;  0.0000000E+00;  4.0007633E+04;  7.3486499E-02;  0.0000000E+00; -8.1955157E-03;  1.0339351E+03;
  5.2086878E-01;  9.9999998E-03;  2.4002191E-01;5672;  1.3452127E-03;  0.0000000E+00; -1.8167810E-03;  9.9967859E+02;  1.0001042E-01; -2.6626407E+02;3;  2.5441589E+00;  0.0000000E+00;  1.2679748E-01;0;  6.1091442E-02;  3.9964789E+04;  0.0000000E+00; -4.5713264E-02;  4.0000000E+04;  0.0000000E+00;  4.0001309E+04;  6.7274310E-02;  0.0000000E+00; -6.1828690E-03;  1.8625250E+02;
  5.2085000E-01;  9.9999998E-03;  2.5001842E-01;5673;  1.7170366E-03;  0.0000000E+00; -1.8870191E-03;  9.9954749E+02;  1.0001062E-01; -3.7490295E+02;3;  2.5865972E+00;  0.0000000E+00;  1.1227400E-01;0;  6.3419282E-02;  3.9952148E+04;  0.0000000E+00; -8.1761353E-02;  4.0000000E+04;  0.0000000E+00;  4.0003195E+04;  6.9782354E-02;  0.0000000E+00; -6.3630696E-03;  4.6149377E+02;
  5.2082360E-01;  9.9999998E-03;  2.6001620E-01;5674;  2.0972802E-03;  0.0000000E+00; -1.9608880E-03;  9.9942670E+02;  1.0001060E-01; -4.7494949E+02;3;  2.6202226E+00;  0.0000000E+00;  9.4286166E-02;0;  6.5535441E-02;  3.9940754E+04;  0.0000000E+00; -1.0837757E-01;  4.0000000E+04;  0.0000000E+00;  4.0004980E+04;  7.2170272E-02;  0.0000000E+00; -6.6348314E-03;  6.9504834E+02;
  5.2079296E-01;  9.9999998E-03;  2.7001455E-01;5675;  2.4865062E-03;  0.0000000E+00; -2.0309035E-03;  9.9932001E+02;  1.0001048E-01; -5.6334204E+02;3;  2.6455593E+00;  0.0000000E+00;  6.8070970E-02;0;  6.7500204E-02;  3.9930734E+04;  0.0000000E+00; -1.1606327E-01;  4.0000000E+04;  0.0000000E+00;  4.0006375E+04;  7.4412547E-02;  0.0000000E+00; -6.9123409E-03;  8.9138129E+02;
  5.2077663E-01;  9.9999998E-03;  2.8001326E-01;5676;  2.8472028E-03;  0.0000000E+00; -2.1230967E-03;  9.9922467E+02;  1.0001054E-01; -6.4235217E+02;3;  2.6633484E+00;  0.0000000E+00;  3.8806088E-02;0;  6.9002949E-02;  3.9921805E+04;  0.0000000E+00; -1.0919247E-01;  4.0000000E+04;  0.0000000E+00;  4.0007621E+04;  7.6498285E-02;  0.0000000E+00; -7.4953339E-03;  1.0479978E+03;
  5.2077818E-01;  9.9999998E-03;  2.9001212E-01;5677;  3.1645086E-03;  0.0000000E+00; -2.2208525E-03;  9.9914465E+02;  1.0001048E-01; -7.0862189E+02;3;  2.6617529E+00;  0.0000000E+00;  2.0200448E-02;0;  7.0217840E-02;  3.9914383E+04;  0.0000000E+00; -9.7897790E-02;  4.0000000E+04;  0.0000000E+00;  4.0008688E+04;  7.8416675E-02;  0.0000000E+00; -8.1988350E-03;  1.1745270E+03;
  5.2079529E-01;  9.9999998E-03;  3.0001092E-01;5678;  3.4277071E-03;  0.0000000E+00; -2.3159904E-03;  9.9907178E+02;  1.0001039E-01; -7.6901526E+02;3;  2.6392889E+00;  0.0000000E+00;  3.7285357E-03;0;  7.1361601E-02;  3.9907629E+04;  0.0000000E+00; -8.7811038E-02;  4.0000000E+04;  0.0000000E+00;  4.0009430E+04;  8.0164269E-02;  0.0000000E+00; -8.8026663E-03;  1.2888279E+03;
  5.3085005E-01;  9.9999998E-03;  2.4002001E-01;5733;  2.7789569E-03;  0.0000000E+00; -1.8671677E-03;  9.9955420E+02;  1.0001750E-01; -3.6932285E+02;3;  2.9783514E+00;  0.0000000E+00;  1.2669162E-01;0;  6.4310402E-02;  3.9947672E+04;  0.0000000E+00; -5.0264623E-02;  4.0000000E+04;  0.0000000E+00;  4.0002406E+04;  7.0240535E-02;  0.0000000E+00; -5.9301308E-03;  3.5078479E+02;
  5.3083783E-01;  9.9999998E-03;  2.5001681E-01;5734;  3.0321160E-03;  0.0000000E+00; -1.9654923E-03;  9.9940582E+02;  1.0001737E-01; -4.9228235E+02;3;  2.9573662E+00;  0.0000000E+00;  1.0246932E-01;0;  6.6968903E-02;  3.9934035E+04;  0.0000000E+00; -9.2660651E-02;  4.0000000E+04;  0.0000000E+00;  4.0004297E+04;  7.3116675E-02;  0.0000000E+00; -6.1477716E-03;  6.0391907E+02;
  5.3081489E-01;  9.9999998E-03;  2.6001447E-01;5735;  3.2920924E-03;  0.0000000E+00; -2.0650409E-03;  9.9927277E+02;  1.0001739E-01; -6.0250140E+02;3;  2.9282575E+00;  0.0000000E+00;  8.2378633E-02;0;  6.9314405E-02;  3.9921914E+04;  0.0000000E+00; -1.2353949E-01;  4.0000000E+04;  0.0000000E+00;  4.0005949E+04;  7.5856961E-02;  0.0000000E+00; -6.5425555E-03;  8.4347137E+02;
  5.3078431E-01;  9.9999998E-03;  2.7001274E-01;5736;  3.5904075E-03;  0.0000000E+00; -2.1461686E-03;  9.9915753E+02;  1.0001741E-01; -6.9795551E+02;3;  2.8939049E+00;  0.0000000E+00;  5.1202200E-02;0;  7.1536951E-02;  3.9910660E+04;  0.0000000E+00; -1.2889661E-01;  4.0000000E+04;  0.0000000E+00;  4.0007750E+04;  7.8430995E-02;  0.0000000E+00; -6.8940427E-03;  1.0616859E+03;
  5.3076845E-01;  9.9999998E-03;  2.8001150E-01;5737;  3.8880638E-03;  0.0000000E+00; -2.2380257E-03;  9.9906018E+02;  1.0001760E-01; -7.7864459E+02;3;  2.8550098E+00;  0.0000000E+00;  1.5061938E-02;0;  7.3390238E-02;  3.9901508E+04;  0.0000000E+00; -1.1454400E-01;  4.0000000E+04;  0.0000000E+00;  4.0008945E+04;  8.0826417E-02;  0.0000000E+00; -7.4361763E-03;  1.2326279E+03;
  5.3077555E-01;  9.9999998E-03;  2.9001045E-01;5738;  4.1683950E-03;  0.0000000E+00; -2.3434134E-03;  9.9897607E+02;  1.0001747E-01; -8.4832159E+02;3;  2.8133850E+00;  0.0000000E+00; -1.1556350E-02;0;  7.4813046E-02;  3.9893527E+04;  0.0000000E+00; -1.0195085E-01;  4.0000000E+04;  0.0000000E+00;  4.0010172E+04;  8.3035953E-02;  0.0000000E+00; -8.2229050E-03;  1.3722604E+03;
  5.3080052E-01;  9.9999998E-03;  3.0000946E-01;5739;  4.4284025E-03;  0.0000000E+00; -2.4469865E-03;  9.9890588E+02;  1.0001730E-01; -9.0644342E+02;3;  2.7673910E+00;  0.0000000E+00; -2.6071709E-02;0;  7.6110303E-02;  3.9887230E+04;  0.0000000E+00; -1.0241682E-01;  4.0000000E+04;  0.0000000E+00;  4.0010969E+04;  8.5060179E-02;  0.0000000E+00; -8.9498730E-03;  1.4878042E+03;
  5.4085511E-01;  9.9999998E-03;  2.4001834E-01;5794;  3.8689103E-03;  0.0000000E+00; -1.8843316E-03;  9.9948602E+02;  1.0002956E-01; -4.2581509E+02;3;  3.3197191E+00;  0.0000000E+00;  1.4409198E-01;0;  6.6012256E-02;  3.9931445E+04;  0.0000000E+00; -5.9990484E-02;  4.0000000E+04;  0.0000000E+00;  4.0003160E+04;  7.1365424E-02;  0.0000000E+00; -5.3531663E-03;  4.7163300E+02;
  5.4085404E-01;  9.9999998E-03;  2.5001532E-01;5795;  4.0531186E-03;  0.0000000E+00; -1.9983780E-03;  9.9932709E+02;  1.0002953E-01; -5.5751508E+02;3;  3.2488449E+00;  0.0000000E+00;  1.1857775E-01;0;  6.9170102E-02;  3.9917227E+04;  0.0000000E+00; -1.0282676E-01;  4.0000000E+04;  0.0000000E+00;  4.0004883E+04;  7.4598707E-02;  0.0000000E+00; -5.4286011E-03;  6.8735199E+02;
  5.4083699E-01;  9.9999998E-03;  2.6001301E-01;5796;  4.2418703E-03;  0.0000000E+00; -2.1188781E-03;  9.9918805E+02;  1.0002952E-01; -6.7267230E+02;3;  3.1747978E+00;  0.0000000E+00;  9.1729917E-02;0;  7.1926266E-02;  3.9904422E+04;  0.0000000E+00; -1.3058144E-01;  4.0000000E+04;  0.0000000E+00;  4.0006227E+04;  7.7689163E-02;  0.0000000E+00; -5.7628956E-03;  9.1137665E+02;
  5.4080945E-01;  9.9999998E-03;  2.7001128E-01;5797;  4.4889078E-03;  0.0000000E+00; -2.2207762E-03;  9.9906708E+02;  1.0002949E-01; -7.7291638E+02;3;  3.0938914E+00;  0.0000000E+00;  5.4171424E-02;0;  7.4450091E-02;  3.9893328E+04;  0.0000000E+00; -1.2488931E-01;  4.0000000E+04;  0.0000000E+00;  4.0008195E+04;  8.0596395E-02;  0.0000000E+00; -6.1463010E-03;  1.1312194E+03;
  5.4079580E-01;  9.9999998E-03;  2.8001019E-01;5798;  4.7644502E-03;  0.0000000E+00; -2.3248375E-03;  9.9896844E+02;  1.0002955E-01; -8.5464246E+02;3;  3.0146019E+00;  0.0000000E+00;  1.1900359E-02;0;  7.6583639E-02;  3.9883820E+04;  0.0000000E+00; -9.4765358E-02;  4.0000000E+04;  0.0000000E+00;  4.0009539E+04;  8.3301209E-02;  0.0000000E+00; -6.7175734E-03;  1.3069601E+03;
  5.4081005E-01;  9.9999998E-03;  2.9000944E-01;5799;  5.0545097E-03;  0.0000000E+00; -2.4435320E-03;  9.9888898E+02;  1.0002948E-01; -9.2046771E+02;3;  2.9509609E+00;  0.0000000E+00; -1.8969350E-02;0;  7.8157350E-02;  3.9876234E+04;  0.0000000E+00; -8.1170253E-02;  4.0000000E+04;  0.0000000E+00;  4.0010629E+04;  8.5793488E-02;  0.0000000E+00; -7.6361368E-03;  1.4451263E+03;
  5.4084480E-01;  9.9999998E-03;  3.0000874E-01;5800;  5.3689769E-03;  0.0000000E+00; -2.5579748E-03;  9.9882935E+02;  1.0002959E-01; -9.6984906E+02;3;  2.8982484E+00;  0.0000000E+00; -3.9928019E-02;0;  7.9553373E-02;  3.9870398E+04;  0.0000000E+00; -1.0649283E-01;  4.0000000E+04;  0.0000000E+00;  4.0011250E+04;  8.8072635E-02;  0.0000000E+00; -8.5192621E-03;  1.5515278E+03;
  5.5089265E-01;  9.9999998E-03;  2.4001688E-01;5855;  4.6979585E-03;  0.0000000E+00; -1.9013999E-03;  9.9950372E+02;  1.0004855E-01; -4.1114883E+02;3;  3.5893722E+00;  0.0000000E+00;  1.8712676E-01;0;  6.6351071E-02;  3.9916551E+04;  0.0000000E+00; -6.9696099E-02;  4.0000000E+04;  0.0000000E+00;  4.0003352E+04;  7.0952199E-02;  0.0000000E+00; -4.6011303E-03;  5.1072687E+02;
  5.5090630E-01;  9.9999998E-03;  2.5001416E-01;5856;  4.9034925E-03;  0.0000000E+00; -2.0220955E-03;  9.9934235E+02;  1.0004877E-01; -5.4487341E+02;3;  3.4975052E+00;  0.0000000E+00;  1.6252175E-01;0;  7.0050813E-02;  3.9902781E+04;  0.0000000E+00; -1.1006116E-01;  4.0000000E+04;  0.0000000E+00;  4.0004309E+04;  7.4481174E-02;  0.0000000E+00; -4.4303634E-03;  6.7292847E+02;
  5.5089790E-01;  9.9999998E-03;  2.6001203E-01;5857;  5.1043099E-03;  0.0000000E+00; -2.1590134E-03;  9.9920203E+02;  1.0004857E-01; -6.6111707E+02;3;  3.3970163E+00;  0.0000000E+00;  1.3165432E-01;0;  7.3270291E-02;  3.9890164E+04;  0.0000000E+00; -1.3436827E-01;  4.0000000E+04;  0.0000000E+00;  4.0005879E+04;  7.7870987E-02;  0.0000000E+00; -4.6006944E-03;  8.6325836E+02;
  5.5087501E-01;  9.9999998E-03;  2.7001053E-01;5858;  5.3708851E-03;  0.0000000E+00; -2.2828258E-03;  9.9908398E+02;  1.0004877E-01; -7.5889209E+02;3;  3.3018777E+00;  0.0000000E+00;  8.6536378E-02;0;  7.6104239E-02;  3.9879230E+04;  0.0000000E+00; -1.2066212E-01;  4.0000000E+04;  0.0000000E+00;  4.0007297E+04;  8.1066586E-02;  0.0000000E+00; -4.9623456E-03;  1.0595433E+03;
  5.5086112E-01;  9.9999998E-03;  2.8000978E-01;5859;  5.6880587E-03;  0.0000000E+00; -2.4042113E-03;  9.9899005E+02;  1.0004848E-01; -8.3671704E+02;3;  3.2121136E+00;  0.0000000E+00;  3.7857689E-02;0;  7.8445680E-02;  3.9870328E+04;  0.0000000E+00; -7.8357138E-02;  4.0000000E+04;  0.0000000E+00;  4.0008758E+04;  8.4035516E-02;  0.0000000E+00; -5.5898330E-03;  1.2232391E+03;
  5.5087841E-01;  9.9999998E-03;  2.9000938E-01;5860;  6.0476814E-03;  0.0000000E+00; -2.5391511E-03;  9.9891675E+02;  1.0004845E-01; -8.9745605E+02;3;  3.1449716E+00;  0.0000000E+00;  1.2736808E-04;0;  8.0084331E-02;  3.9863566E+04;  0.0000000E+00; -7.2402388E-02;  4.0000000E+04;  0.0000000E+00;  4.0009672E+04;  8.6758062E-02;  0.0000000E+00; -6.6737281E-03;  1.3536263E+03;
  5.5091715E-01;  9.9999998E-03;  3.0000916E-01;5861;  6.4667440E-03;  0.0000000E+00; -2.6653782E-03;  9.9886664E+02;  1.0004847E-01; -9.3898572E+02;3;  3.0972993E+00;  0.0000000E+00; -3.0856675E-02;0;  8.1487067E-02;  3.9858977E+04;  0.0000000E+00; -1.3533799E-01;  4.0000000E+04;  0.0000000E+00;  4.0010430E+04;  8.9227013E-02;  0.0000000E+00; -7.7399495E-03;  1.4517872E+03;
  5.6096834E-01;  9.9999998E-03;  2.4001552E-01;5916;  5.3793578E-03;  0.0000000E+00; -1.9568803E-03;  9.9961035E+02;  1.0007975E-01; -3.2280566E+02;3;  3.8115692E+00;  0.0000000E+00;  2.4978828E-01;0;  6.5617718E-02;  3.9900449E+04;  0.0000000E+00; -7.6489888E-02;  4.0000000E+04;  0.0000000E+00;  4.0002465E+04;  6.9479175E-02;  0.0000000E+00; -3.8614564E-03;  4.4797943E+02;
  5.6100011E-01;  9.9999998E-03;  2.5001326E-01;5917;  5.6817001E-03;  0.0000000E+00; -2.0753946E-03;  9.9945520E+02;  1.0007986E-01; -4.5134521E+02;3;  3.7336607E+00;  0.0000000E+00;  2.1911444E-01;0;  6.9772519E-02;  3.9887762E+04;  0.0000000E+00; -1.1986863E-01;  4.0000000E+04;  0.0000000E+00;  4.0003328E+04;  7.3178135E-02;  0.0000000E+00; -3.4056127E-03;  5.5078156E+02;
  5.6100577E-01;  9.9999998E-03;  2.6001155E-01;5918;  5.9824875E-03;  0.0000000E+00; -2.2194893E-03;  9.9932159E+02;  1.0007985E-01; -5.6205811E+02;3;  3.6443176E+00;  0.0000000E+00;  1.7596275E-01;0;  7.3406205E-02;  3.9876000E+04;  0.0000000E+00; -1.5753971E-01;  4.0000000E+04;  0.0000000E+00;  4.0004242E+04;  7.6749124E-02;  0.0000000E+00; -3.3429181E-03;  6.9778253E+02;
  5.6098562E-01;  9.9999998E-03;  2.7001056E-01;5919;  6.3448646E-03;  0.0000000E+00; -2.3600797E-03;  9.9920892E+02;  1.0007992E-01; -6.5538879E+02;3;  3.5578687E+00;  0.0000000E+00;  1.2849146E-01;0;  7.6491095E-02;  3.9865891E+04;  0.0000000E+00; -1.5899998E-01;  4.0000000E+04;  0.0000000E+00;  4.0005465E+04;  8.0123730E-02;  0.0000000E+00; -3.6326316E-03;  8.5863733E+02;
  5.6096673E-01;  9.9999998E-03;  2.8001031E-01;5920;  6.7721964E-03;  0.0000000E+00; -2.4943112E-03;  9.9912024E+02;  1.0007984E-01; -7.2886823E+02;3;  3.4709325E+00;  0.0000000E+00;  7.3161267E-02;0;  7.8992777E-02;  3.9857762E+04;  0.0000000E+00; -1.2691042E-01;  4.0000000E+04;  0.0000000E+00;  4.0006707E+04;  8.3253294E-02;  0.0000000E+00; -4.2605158E-03;  9.9658484E+02;
  5.6098002E-01;  9.9999998E-03;  2.9001057E-01;5921;  7.2539425E-03;  0.0000000E+00; -2.6409223E-03;  9.9906244E+02;  1.0007969E-01; -7.7676807E+02;3;  3.4172873E+00;  0.0000000E+00;  2.0219440E-02;0;  8.0661394E-02;  3.9852238E+04;  0.0000000E+00; -1.4404026E-01;  4.0000000E+04;  0.0000000E+00;  4.0007688E+04;  8.6104505E-02;  0.0000000E+00; -5.4431087E-03;  1.1020597E+03;
  5.6101269E-01;  9.9999998E-03;  3.0001101E-01;5922;  7.8147408E-03;  0.0000000E+00; -2.7776225E-03;  9.9902802E+02;  1.0007991E-01; -8.0526111E+02;3;  3.4002490E+00;  0.0000000E+00; -2.3766220E-02;0;  8.1972748E-02;  3.9849484E+04;  0.0000000E+00; -2.3769161E-01;  4.0000000E+04;  0.0000000E+00;  4.0008074E+04;  8.8660493E-02;  0.0000000E+00; -6.6877464E-03;  1.1914412E+03;
  5.7107985E-01;  9.9999998E-03;  2.4001358E-01;5977;  6.0043940E-03;  0.0000000E+00; -2.0633677E-03;  9.9978674E+02;  1.0013139E-01; -1.7668634E+02;3;  4.0370893E+00;  0.0000000E+00;  3.0447343E-01;0;  6.4300008E-02;  3.9874434E+04;  0.0000000E+00; -8.2137629E-02;  4.0000000E+04;  0.0000000E+00;  4.0001312E+04;  6.7516640E-02;  0.0000000E+00; -3.2166317E-03;  3.1067746E+02;
  5.7112294E-01;  9.9999998E-03;  2.5001219E-01;5978;  6.4777276E-03;  0.0000000E+00; -2.1610935E-03;  9.9964288E+02;  1.0013139E-01; -2.9584348E+02;3;  3.9888737E+00;  0.0000000E+00;  2.7635691E-01;0;  6.8808533E-02;  3.9863320E+04;  0.0000000E+00; -1.3952817E-01;  4.0000000E+04;  0.0000000E+00;  4.0001371E+04;  7.1197703E-02;  0.0000000E+00; -2.3891688E-03;  3.6705591E+02;
  5.7113993E-01;  9.9999998E-03;  2.6001137E-01;5979;  6.9478382E-03;  0.0000000E+00; -2.2962925E-03;  9.9951837E+02;  1.0013117E-01; -3.9900104E+02;3;  3.9199829E+00;  0.0000000E+00;  2.2410768E-01;0;  7.2808862E-02;  3.9853027E+04;  0.0000000E+00; -2.1383896E-01;  4.0000000E+04;  0.0000000E+00;  4.0002109E+04;  7.4768119E-02;  0.0000000E+00; -1.9592566E-03;  4.8845227E+02;
  5.7112294E-01;  9.9999998E-03;  2.7001134E-01;5980;  7.4559604E-03;  0.0000000E+00; -2.4467902E-03;  9.9941486E+02;  1.0013127E-01; -4.8477637E+02;3;  3.8578837E+00;  0.0000000E+00;  1.5706179E-01;0;  7.6082028E-02;  3.9844145E+04;  0.0000000E+00; -2.6690185E-01;  4.0000000E+04;  0.0000000E+00;  4.0002918E+04;  7.8153647E-02;  0.0000000E+00; -2.0716183E-03;  6.2253680E+02;
  5.7109702E-01;  9.9999998E-03;  2.8001195E-01;5981;  8.0318218E-03;  0.0000000E+00; -2.5982864E-03;  9.9933759E+02;  1.0013135E-01; -5.4877454E+02;3;  3.8080862E+00;  0.0000000E+00;  9.0294607E-02;0;  7.8548215E-02;  3.9837168E+04;  0.0000000E+00; -2.8117862E-01;  4.0000000E+04;  0.0000000E+00;  4.0003590E+04;  8.1288837E-02;  0.0000000E+00; -2.7406248E-03;  7.2352875E+02;
  5.7109684E-01;  9.9999998E-03;  2.9001305E-01;5982;  8.6663645E-03;  0.0000000E+00; -2.7568752E-03;  9.9929120E+02;  1.0013096E-01; -5.8724261E+02;3;  3.7858386E+00;  0.0000000E+00;  3.9213061E-02;0;  8.0086142E-02;  3.9832699E+04;  0.0000000E+00; -3.2877544E-01;  4.0000000E+04;  0.0000000E+00;  4.0004176E+04;  8.4128372E-02;  0.0000000E+00; -4.0422324E-03;  8.1782294E+02;
  5.7111293E-01;  9.9999998E-03;  3.0001432E-01;5983;  9.3766563E-03;  0.0000000E+00; -2.8994174E-03;  9.9927020E+02;  1.0013086E-01; -6.0462482E+02;3;  3.7862434E+00;  0.0000000E+00; -5.3313252E-04;0;  8.1236072E-02;  3.9831062E+04;  0.0000000E+00; -4.2774028E-01;  4.0000000E+04;  0.0000000E+00;  4.0004715E+04;  8.6648561E-02;  0.0000000E+00; -5.4124924E-03;  9.2263263E+02;
  5.8120596E-01;  9.9999998E-03;  2.4000907E-01;6038;  6.6584474E-03;  0.0000000E+00; -2.1935026E-03;  9.9995374E+02;  1.0021478E-01; -3.8319901E+01;3;  4.2820511E+00;  0.0000000E+00;  3.7411320E-01;0;  6.3063286E-02;  3.9822941E+04;  0.0000000E+00; -8.7619685E-02;  4.0000000E+04;  0.0000000E+00;  4.0000105E+04;  6.5654941E-02;  0.0000000E+00; -2.5916577E-03;  2.1203040E+02;
  5.8125395E-01;  9.9999998E-03;  2.5000978E-01;6039;  7.3436298E-03;  0.0000000E+00; -2.2626154E-03;  9.9982233E+02;  1.0021477E-01; -1.4720570E+02;3;  4.2883854E+00;  0.0000000E+00;  3.3266780E-01;0;  6.7779601E-02;  3.9813473E+04;  0.0000000E+00; -1.6770385E-01;  4.0000000E+04;  0.0000000E+00;  3.9999551E+04;  6.9091603E-02;  0.0000000E+00; -1.3120028E-03;  2.6217090E+02;
  5.8126962E-01;  9.9999998E-03;  2.6001090E-01;6040;  8.0288053E-03;  0.0000000E+00; -2.3775622E-03;  9.9971265E+02;  1.0021447E-01; -2.3806732E+02;3;  4.2715073E+00;  0.0000000E+00;  2.7790257E-01;0;  7.2065145E-02;  3.9804652E+04;  0.0000000E+00; -2.8487167E-01;  4.0000000E+04;  0.0000000E+00;  3.9999555E+04;  7.2440825E-02;  0.0000000E+00; -3.7568097E-04;  4.0910803E+02;
  5.8125210E-01;  9.9999998E-03;  2.7001241E-01;6041;  8.7171011E-03;  0.0000000E+00; -2.5279538E-03;  9.9961749E+02;  1.0021449E-01; -3.1687991E+02;3;  4.2348018E+00;  0.0000000E+00;  2.0073634E-01;0;  7.5497247E-02;  3.9797270E+04;  0.0000000E+00; -4.0380564E-01;  4.0000000E+04;  0.0000000E+00;  3.9999785E+04;  7.5630806E-02;  0.0000000E+00; -1.3355802E-04;  5.7941187E+02;
  5.8121884E-01;  9.9999998E-03;  2.8001437E-01;6042;  9.4435550E-03;  0.0000000E+00; -2.6916566E-03;  9.9955042E+02;  1.0021434E-01; -3.7248328E+02;3;  4.1974583E+00;  0.0000000E+00;  1.1608569E-01;0;  7.7897303E-02;  3.9791574E+04;  0.0000000E+00; -4.8608401E-01;  4.0000000E+04;  0.0000000E+00;  4.0000625E+04;  7.8590915E-02;  0.0000000E+00; -6.9361459E-04;  7.0396814E+02;
  5.8120036E-01;  9.9999998E-03;  2.9001656E-01;6043;  1.0197334E-02;  0.0000000E+00; -2.8667070E-03;  9.9951196E+02;  1.0021405E-01; -4.0433420E+02;3;  4.1964388E+00;  0.0000000E+00;  4.3846190E-02;0;  7.9149827E-02;  3.9788277E+04;  0.0000000E+00; -5.6523120E-01;  4.0000000E+04;  0.0000000E+00;  4.0000723E+04;  8.1272095E-02;  0.0000000E+00; -2.1222665E-03;  8.1683942E+02;
  5.8119303E-01;  9.9999998E-03;  3.0001882E-01;6044;  1.1015032E-02;  0.0000000E+00; -3.0199403E-03;  9.9950122E+02;  1.0021381E-01; -4.1322284E+02;3;  4.2452292E+00;  0.0000000E+00; -1.8116652E-03;0;  7.9955578E-02;  3.9787773E+04;  0.0000000E+00; -6.4581412E-01;  4.0000000E+04;  0.0000000E+00;  4.0000938E+04;  8.3641358E-02;  0.0000000E+00; -3.6857775E-03;  9.1975641E+02;
  5.9128290E-01;  9.9999998E-03;  2.4000090E-01;6099;  7.3208800E-03;  0.0000000E+00; -2.3829681E-03;  1.0000178E+03;  1.0034949E-01;  1.4715632E+01;3;  4.5510564E+00;  0.0000000E+00;  4.4390002E-01;0;  6.2258054E-02;  3.9722902E+04;  0.0000000E+00; -7.5206272E-02;  4.0000000E+04;  0.0000000E+00;  3.9999242E+04;  6.4472206E-02;  0.0000000E+00; -2.2141507E-03;  2.1871155E+02;
  5.9132916E-01;  9.9999998E-03;  2.5000525E-01;6100;  8.2601001E-03;  0.0000000E+00; -2.3807755E-03;  9.9990161E+02;  1.0034920E-01; -8.1528549E+01;3;  4.6310458E+00;  0.0000000E+00;  4.1305116E-01;0;  6.7172617E-02;  3.9715051E+04;  0.0000000E+00; -1.5991355E-01;  4.0000000E+04;  0.0000000E+00;  3.9998434E+04;  6.7424402E-02;  0.0000000E+00; -2.5178277E-04;  2.4180383E+02;
  5.9134239E-01;  9.9999998E-03;  2.6000941E-01;6101;  9.1465041E-03;  0.0000000E+00; -2.4697362E-03;  9.9980231E+02;  1.0034929E-01; -1.6379782E+02;3;  4.6575513E+00;  0.0000000E+00;  3.3685941E-01;0;  7.1623228E-02;  3.9707629E+04;  0.0000000E+00; -2.9203084E-01;  4.0000000E+04;  0.0000000E+00;  3.9998184E+04;  7.0334591E-02;  0.0000000E+00;  1.2886402E-03;  3.9776080E+02;
  5.9132284E-01;  9.9999998E-03;  2.7001339E-01;6102;  9.9969842E-03;  0.0000000E+00; -2.6232125E-03;  9.9971686E+02;  1.0034879E-01; -2.3456125E+02;3;  4.6591349E+00;  0.0000000E+00;  2.4987105E-01;0;  7.5029276E-02;  3.9701258E+04;  0.0000000E+00; -4.3926752E-01;  4.0000000E+04;  0.0000000E+00;  3.9998062E+04;  7.3129624E-02;  0.0000000E+00;  1.8996497E-03;  5.9733392E+02;
  5.9128982E-01;  9.9999998E-03;  2.8001720E-01;6103;  1.0857684E-02;  0.0000000E+00; -2.7935489E-03;  9.9965802E+02;  1.0034849E-01; -2.8330060E+02;3;  4.6601505E+00;  0.0000000E+00;  1.5623525E-01;0;  7.7300481E-02;  3.9696730E+04;  0.0000000E+00; -5.7487088E-01;  4.0000000E+04;  0.0000000E+00;  3.9998277E+04;  7.5736769E-02;  0.0000000E+00;  1.5637104E-03;  7.8377087E+02;
  5.9126419E-01;  9.9999998E-03;  2.9002085E-01;6104;  1.1705716E-02;  0.0000000E+00; -2.9788991E-03;  9.9962616E+02;  1.0034816E-01; -3.0971960E+02;3;  4.6762710E+00;  0.0000000E+00;  7.6439366E-02;0;  7.8254178E-02;  3.9694465E+04;  0.0000000E+00; -7.0722449E-01;  4.0000000E+04;  0.0000000E+00;  3.9998262E+04;  7.8115150E-02;  0.0000000E+00;  1.3902879E-04;  9.6586755E+02;
  5.9124434E-01;  9.9999998E-03;  3.0002433E-01;6105;  1.2571441E-02;  0.0000000E+00; -3.1435743E-03;  9.9962152E+02;  1.0034749E-01; -3.1357135E+02;3;  4.7309966E+00;  0.0000000E+00;  1.9187186E-02;0;  7.8626595E-02;  3.9694723E+04;  0.0000000E+00; -8.2272446E-01;  4.0000000E+04;  0.0000000E+00;  3.9998305E+04;  8.0233462E-02;  0.0000000E+00; -1.6068690E-03;  1.1233262E+03;
  6.0127717E-01;  9.9999998E-03;  2.3998885E-01;6160;  7.9134870E-03;  0.0000000E+00; -2.6781263E-03;  9.9991052E+02;  1.0056426E-01; -7.4121353E+01;3;  4.8151817E+00;  0.0000000E+00;  4.9915648E-01;0;  6.2094193E-02;  3.9546020E+04;  0.0000000E+00; -2.5181051E-02;  4.0000000E+04;  0.0000000E+00;  3.9999730E+04;  6.4454600E-02;  0.0000000E+00; -2.3604082E-03;  4.3268839E+02;
  6.0131884E-01;  9.9999998E-03;  2.4999842E-01;6161;  9.1055073E-03;  0.0000000E+00; -2.5743206E-03;  9.9980493E+02;  1.0056369E-01; -1.6162505E+02;3;  4.9674950E+00;  0.0000000E+00;  4.7280309E-01;0;  6.7059018E-02;  3.9538758E+04;  0.0000000E+00; -7.6254375E-02;  4.0000000E+04;  0.0000000E+00;  3.9998855E+04;  6.6719167E-02;  0.0000000E+00;  3.3985192E-04;  3.6703323E+02;
  6.0132813E-01;  9.9999998E-03;  2.6000693E-01;6162;  1.0182445E-02;  0.0000000E+00; -2.6093966E-03;  9.9970941E+02;  1.0056348E-01; -2.4073392E+02;3;  5.0451670E+00;  0.0000000E+00;  3.9990216E-01;0;  7.1627416E-02;  3.9532477E+04;  0.0000000E+00; -1.6512516E-01;  4.0000000E+04;  0.0000000E+00;  3.9998250E+04;  6.9000602E-02;  0.0000000E+00;  2.6268167E-03;  3.4798340E+02;
  6.0130739E-01;  9.9999998E-03;  2.7001426E-01;6163;  1.1155588E-02;  0.0000000E+00; -2.7536235E-03;  9.9963080E+02;  1.0056274E-01; -3.0586786E+02;3;  5.0751076E+00;  0.0000000E+00;  3.0234104E-01;0;  7.4949436E-02;  3.9527312E+04;  0.0000000E+00; -2.6567230E-01;  4.0000000E+04;  0.0000000E+00;  3.9997770E+04;  7.1236588E-02;  0.0000000E+00;  3.7128474E-03;  4.1789429E+02;
  6.0127521E-01;  9.9999998E-03;  2.8002051E-01;6164;  1.2090090E-02;  0.0000000E+00; -2.9334915E-03;  9.9957654E+02;  1.0056198E-01; -3.5085425E+02;3;  5.0922928E+00;  0.0000000E+00;  1.9212751E-01;0;  7.6910034E-02;  3.9523758E+04;  0.0000000E+00; -3.6011195E-01;  4.0000000E+04;  0.0000000E+00;  3.9997762E+04;  7.3357999E-02;  0.0000000E+00;  3.5520336E-03;  5.2488623E+02;
  6.0124487E-01;  9.9999998E-03;  2.9002598E-01;6165;  1.2979873E-02;  0.0000000E+00; -3.1231646E-03;  9.9954419E+02;  1.0056148E-01; -3.7761893E+02;3;  5.1325264E+00;  0.0000000E+00;  1.1502644E-01;0;  7.7540547E-02;  3.9521934E+04;  0.0000000E+00; -4.3942192E-01;  4.0000000E+04;  0.0000000E+00;  3.9997273E+04;  7.5328194E-02;  0.0000000E+00;  2.2123544E-03;  6.2521558E+02;
  6.0121602E-01;  9.9999998E-03;  3.0003074E-01;6166;  1.3872320E-02;  0.0000000E+00; -3.2893696E-03;  9.9952850E+02;  1.0056042E-01; -3.9060620E+02;3;  5.2024236E+00;  0.0000000E+00;  5.9114274E-02;0;  7.7564336E-02;  3.9522012E+04;  0.0000000E+00; -4.7508928E-01;  4.0000000E+04;  0.0000000E+00;  3.9997637E+04;  7.7114731E-02;  0.0000000E+00;  4.4960403E-04;  6.7013080E+02;
  6.1122036E-01;  9.9999998E-03;  2.3997445E-01;6221;  8.3991541E-03;  0.0000000E+00; -3.0868726E-03;  9.9963373E+02;  1.0089970E-01; -3.0344818E+02;3;  5.0435824E+00;  0.0000000E+00;  5.2123570E-01;0;  6.2810354E-02;  3.9262176E+04;  0.0000000E+00;  5.0662648E-02;  4.0000000E+04;  0.0000000E+00;  4.0000980E+04;  6.5924861E-02;  0.0000000E+00; -3.1145073E-03;  9.1106824E+02;
  6.1125445E-01;  9.9999998E-03;  2.4999098E-01;6222;  9.7630313E-03;  0.0000000E+00; -2.9028866E-03;  9.9953082E+02;  1.0089895E-01; -3.8868033E+02;3;  5.2576375E+00;  0.0000000E+00;  5.2232641E-01;0;  6.7383170E-02;  3.9255238E+04;  0.0000000E+00;  5.6276135E-02;  4.0000000E+04;  0.0000000E+00;  4.0000410E+04;  6.7375168E-02;  0.0000000E+00;  7.9983201E-06;  8.5263019E+02;
  6.1126208E-01;  9.9999998E-03;  2.6000488E-01;6223;  1.0981769E-02;  0.0000000E+00; -2.8709045E-03;  9.9944006E+02;  1.0089819E-01; -4.6388809E+02;3;  5.3775477E+00;  0.0000000E+00;  4.6168375E-01;0;  7.1806654E-02;  3.9249570E+04;  0.0000000E+00;  3.8614783E-02;  4.0000000E+04;  0.0000000E+00;  3.9999637E+04;  6.8901524E-02;  0.0000000E+00;  2.9051285E-03;  7.5271063E+02;
  6.1124301E-01;  9.9999998E-03;  2.7001607E-01;6224;  1.2047089E-02;  0.0000000E+00; -2.9756331E-03;  9.9935944E+02;  1.0089751E-01; -5.3070099E+02;3;  5.4141350E+00;  0.0000000E+00;  3.5387379E-01;0;  7.5044781E-02;  3.9244871E+04;  0.0000000E+00;  1.6960111E-02;  4.0000000E+04;  0.0000000E+00;  3.9998938E+04;  7.0461765E-02;  0.0000000E+00;  4.5830174E-03;  6.7625970E+02;
  6.1120999E-01;  9.9999998E-03;  2.8002512E-01;6225;  1.2995210E-02;  0.0000000E+00; -3.1470200E-03;  9.9929834E+02;  1.0089610E-01; -5.8131683E+02;3;  5.4346452E+00;  0.0000000E+00;  2.3883364E-01;0;  7.6713264E-02;  3.9241477E+04;  0.0000000E+00;  1.2432254E-02;  4.0000000E+04;  0.0000000E+00;  3.9998594E+04;  7.2009452E-02;  0.0000000E+00;  4.7038142E-03;  6.3996039E+02;
  6.1117375E-01;  9.9999998E-03;  2.9003254E-01;6226;  1.3898762E-02;  0.0000000E+00; -3.3341667E-03;  9.9925421E+02;  1.0089499E-01; -6.1785901E+02;3;  5.4712243E+00;  0.0000000E+00;  1.5392230E-01;0;  7.6988235E-02;  3.9239891E+04;  0.0000000E+00;  4.9652074E-02;  4.0000000E+04;  0.0000000E+00;  3.9998473E+04;  7.3497139E-02;  0.0000000E+00;  3.4910978E-03;  6.3532452E+02;
  6.1113423E-01;  9.9999998E-03;  3.0003878E-01;6227;  1.4762030E-02;  0.0000000E+00; -3.4997263E-03;  9.9922534E+02;  1.0089329E-01; -6.4180896E+02;3;  5.5072045E+00;  0.0000000E+00;  1.0256518E-01;0;  7.6633297E-02;  3.9239184E+04;  0.0000000E+00;  1.8192571E-01;  4.0000000E+04;  0.0000000E+00;  3.9998598E+04;  7.4908666E-02;  0.0000000E+00;  1.7246314E-03;  6.8558588E+02;
  6.2113339E-01;  9.9999998E-03;  2.3996337E-01;6282;  8.7290546E-03;  0.0000000E+00; -3.6158869E-03;  9.9929065E+02;  1.0140960E-01; -5.8768701E+02;3;  5.2182689E+00;  0.0000000E+00;  5.0427502E-01;0;  6.4473026E-02;  3.8842805E+04;  0.0000000E+00;  1.3023469E-01;  4.0000000E+04;  0.0000000E+00;  4.0002020E+04;  6.9015667E-02;  0.0000000E+00; -4.5426432E-03;  1.4842861E+03;
  6.2115848E-01;  9.9999998E-03;  2.4998711E-01;6283;  1.0171334E-02;  0.0000000E+00; -3.3997647E-03;  9.9918152E+02;  1.0140868E-01; -6.7810425E+02;3;  5.4644160E+00;  0.0000000E+00;  5.4219049E-01;0;  6.8083346E-02;  3.8835508E+04;  0.0000000E+00;  1.8864293E-01;  4.0000000E+04;  0.0000000E+00;  4.0001516E+04;  6.9594949E-02;  0.0000000E+00; -1.5116020E-03;  1.4709764E+03;
  6.2116140E-01;  9.9999998E-03;  2.6000607E-01;6284;  1.1481949E-02;  0.0000000E+00; -3.2906313E-03;  9.9908209E+02;  1.0140751E-01; -7.6047229E+02;3;  5.6004348E+00;  0.0000000E+00;  4.8585039E-01;0;  7.2050557E-02;  3.8829301E+04;  0.0000000E+00;  2.3507376E-01;  4.0000000E+04;  0.0000000E+00;  4.0000867E+04;  7.0306525E-02;  0.0000000E+00;  1.7440340E-03;  1.4196465E+03;
  6.2114191E-01;  9.9999998E-03;  2.7002111E-01;6285;  1.2573791E-02;  0.0000000E+00; -3.3476381E-03;  9.9899182E+02;  1.0140579E-01; -8.3523560E+02;3;  5.6552386E+00;  0.0000000E+00;  3.8629580E-01;0;  7.4902765E-02;  3.8824465E+04;  0.0000000E+00;  2.7749625E-01;  4.0000000E+04;  0.0000000E+00;  4.0000289E+04;  7.1143314E-02;  0.0000000E+00;  3.7594493E-03;  1.3703755E+03;
  6.2110609E-01;  9.9999998E-03;  2.8003290E-01;6286;  1.3551329E-02;  0.0000000E+00; -3.4862703E-03;  9.9891785E+02;  1.0140418E-01; -8.9656714E+02;3;  5.6770053E+00;  0.0000000E+00;  2.8672394E-01;0;  7.6263115E-02;  3.8820645E+04;  0.0000000E+00;  3.4213841E-01;  4.0000000E+04;  0.0000000E+00;  4.0000062E+04;  7.2059445E-02;  0.0000000E+00;  4.2036725E-03;  1.3700024E+03;
  6.2106490E-01;  9.9999998E-03;  2.9004225E-01;6287;  1.4427598E-02;  0.0000000E+00; -3.6527140E-03;  9.9885498E+02;  1.0140157E-01; -9.4861505E+02;3;  5.6831198E+00;  0.0000000E+00;  2.0273703E-01;0;  7.6270953E-02;  3.8817977E+04;  0.0000000E+00;  4.6379057E-01;  4.0000000E+04;  0.0000000E+00;  3.9999902E+04;  7.3031999E-02;  0.0000000E+00;  3.2389548E-03;  1.4430016E+03;
  6.2101644E-01;  9.9999998E-03;  3.0004981E-01;6288;  1.5290223E-02;  0.0000000E+00; -3.8030848E-03;  9.9879651E+02;  1.0139902E-01; -9.9705817E+02;3;  5.6940765E+00;  0.0000000E+00;  1.4950339E-01;0;  7.5694136E-02;  3.8816320E+04;  0.0000000E+00;  7.1045178E-01;  4.0000000E+04;  0.0000000E+00;  4.0000180E+04;  7.4026674E-02;  0.0000000E+00;  1.6674635E-03;  1.6562003E+03;
  6.3101065E-01;  9.9999998E-03;  2.3996373E-01;6343;  8.9208251E-03;  0.0000000E+00; -4.2397059E-03;  9.9904388E+02;  1.0215342E-01; -7.9212567E+02;3;  5.3180442E+00;  0.0000000E+00;  4.5646518E-01;0;  6.7037538E-02;  3.8263070E+04;  0.0000000E+00;  1.8680623E-01;  4.0000000E+04;  0.0000000E+00;  3.9999738E+04;  7.3584974E-02;  0.0000000E+00; -6.5474366E-03;  1.8783063E+03;
  6.3102186E-01;  9.9999998E-03;  2.4999221E-01;6344;  1.0329940E-02;  0.0000000E+00; -4.0391237E-03;  9.9891827E+02;  1.0215217E-01; -8.9617212E+02;3;  5.5873666E+00;  0.0000000E+00;  5.1855123E-01;0;  6.9222979E-02;  3.8254285E+04;  0.0000000E+00;  2.6357162E-01;  4.0000000E+04;  0.0000000E+00;  4.0000031E+04;  7.3303670E-02;  0.0000000E+00; -4.0806932E-03;  1.9412909E+03;
  6.3101542E-01;  9.9999998E-03;  2.6001468E-01;6345;  1.1703173E-02;  0.0000000E+00; -3.8568988E-03;  9.9880249E+02;  1.0215039E-01; -9.9212000E+02;3;  5.7624741E+00;  0.0000000E+00;  5.0730163E-01;0;  7.2391964E-02;  3.8247168E+04;  0.0000000E+00;  3.1471378E-01;  4.0000000E+04;  0.0000000E+00;  3.9999844E+04;  7.3205620E-02;  0.0000000E+00; -8.1365253E-04;  1.9566431E+03;
  6.3099051E-01;  9.9999998E-03;  2.7003244E-01;6346;  1.2835111E-02;  0.0000000E+00; -3.8409703E-03;  9.9869116E+02;  1.0214785E-01; -1.0843643E+03;3;  5.8255262E+00;  0.0000000E+00;  4.2451498E-01;0;  7.4818395E-02;  3.8240941E+04;  0.0000000E+00;  3.3711639E-01;  4.0000000E+04;  0.0000000E+00;  3.9999785E+04;  7.3313884E-02;  0.0000000E+00;  1.5045111E-03;  1.9411243E+03;
  6.3095063E-01;  9.9999998E-03;  2.8004634E-01;6347;  1.3798993E-02;  0.0000000E+00; -3.9331112E-03;  9.9859528E+02;  1.0214505E-01; -1.1637694E+03;3;  5.8243160E+00;  0.0000000E+00;  3.2968307E-01;0;  7.5843431E-02;  3.8236395E+04;  0.0000000E+00;  3.5275504E-01;  4.0000000E+04;  0.0000000E+00;  3.9999602E+04;  7.3606059E-02;  0.0000000E+00;  2.2373730E-03;  1.9382068E+03;
  6.3090354E-01;  9.9999998E-03;  2.9005727E-01;6348;  1.4670984E-02;  0.0000000E+00; -4.0614922E-03;  9.9850293E+02;  1.0214166E-01; -1.2403105E+03;3;  5.8111801E+00;  0.0000000E+00;  2.5001189E-01;0;  7.5717829E-02;  3.8232262E+04;  0.0000000E+00;  4.1832146E-01;  4.0000000E+04;  0.0000000E+00;  3.9999898E+04;  7.4054360E-02;  0.0000000E+00;  1.6634678E-03;  1.9918196E+03;
  6.3084501E-01;  9.9999998E-03;  3.0006590E-01;6349;  1.5545087E-02;  0.0000000E+00; -4.1829832E-03;  9.9841150E+02;  1.0213718E-01; -1.3160614E+03;3;  5.8130031E+00;  0.0000000E+00;  2.0062540E-01;0;  7.5105935E-02;  3.8229133E+04;  0.0000000E+00;  6.2600625E-01;  4.0000000E+04;  0.0000000E+00;  4.0000180E+04;  7.4621886E-02;  0.0000000E+00;  4.8404816E-04;  2.1532515E+03;
  6.4086813E-01;  9.9999998E-03;  2.3998280E-01;6404;  9.0703042E-03;  0.0000000E+00; -4.8840367E-03;  9.9904816E+02;  1.0318413E-01; -7.8857025E+02;3;  5.3647499E+00;  0.0000000E+00;  3.8234141E-01;0;  7.0442438E-02;  3.7507922E+04;  0.0000000E+00;  1.7386037E-01;  4.0000000E+04;  0.0000000E+00;  3.9992863E+04;  7.9226434E-02;  0.0000000E+00; -8.7839942E-03;  1.8405002E+03;
  6.4086258E-01;  9.9999998E-03;  2.5001132E-01;6405;  1.0381194E-02;  0.0000000E+00; -4.7314377E-03;  9.9890240E+02;  1.0318229E-01; -9.0935693E+02;3;  5.6390538E+00;  0.0000000E+00;  4.6528774E-01;0;  7.1018279E-02;  3.7497309E+04;  0.0000000E+00;  1.8263969E-01;  4.0000000E+04;  0.0000000E+00;  3.9993930E+04;  7.8140408E-02;  0.0000000E+00; -7.1221255E-03;  1.9972769E+03;
  6.4084405E-01;  9.9999998E-03;  2.6003438E-01;6406;  1.1729578E-02;  0.0000000E+00; -4.5076185E-03;  9.9876294E+02;  1.0317974E-01; -1.0248599E+03;3;  5.8452826E+00;  0.0000000E+00;  5.0786543E-01;0;  7.3076934E-02;  3.7487836E+04;  0.0000000E+00;  9.4206922E-02;  4.0000000E+04;  0.0000000E+00;  3.9994500E+04;  7.7303231E-02;  0.0000000E+00; -4.2262948E-03;  2.0803232E+03;
  6.4081198E-01;  9.9999998E-03;  2.7005306E-01;6407;  1.2890840E-02;  0.0000000E+00; -4.4104028E-03;  9.9862402E+02;  1.0317664E-01; -1.1399677E+03;3;  5.9202623E+00;  0.0000000E+00;  4.5587707E-01;0;  7.5055040E-02;  3.7480289E+04;  0.0000000E+00; -1.1729844E-01;  4.0000000E+04;  0.0000000E+00;  3.9994797E+04;  7.6740749E-02;  0.0000000E+00; -1.6857104E-03;  2.1291299E+03;
  6.4076936E-01;  9.9999998E-03;  2.8006795E-01;6408;  1.3844346E-02;  0.0000000E+00; -4.4362932E-03;  9.9849664E+02;  1.0317304E-01; -1.2454956E+03;3;  5.9043512E+00;  0.0000000E+00;  3.6718625E-01;0;  7.5942926E-02;  3.7473914E+04;  0.0000000E+00; -4.2828408E-01;  4.0000000E+04;  0.0000000E+00;  3.9995234E+04;  7.6450936E-02;  0.0000000E+00; -5.0801004E-04;  2.2583586E+03;
  6.4072043E-01;  9.9999998E-03;  2.9007974E-01;6409;  1.4707919E-02;  0.0000000E+00; -4.5268531E-03;  9.9837115E+02;  1.0316797E-01; -1.3494432E+03;3;  5.8958263E+00;  0.0000000E+00;  2.9573834E-01;0;  7.5666137E-02;  3.7468676E+04;  0.0000000E+00; -7.4335665E-01;  4.0000000E+04;  0.0000000E+00;  3.9995641E+04;  7.6407023E-02;  0.0000000E+00; -7.4088230E-04;  2.4995491E+03;
  6.4065802E-01;  9.9999998E-03;  3.0008915E-01;6410;  1.5572576E-02;  0.0000000E+00; -4.6210634E-03;  9.9824628E+02;  1.0316148E-01; -1.4529464E+03;3;  5.8984938E+00;  0.0000000E+00;  2.5436965E-01;0;  7.5003758E-02;  3.7464574E+04;  0.0000000E+00; -9.1689640E-01;  4.0000000E+04;  0.0000000E+00;  3.9996395E+04;  7.6563299E-02;  0.0000000E+00; -1.5595392E-03;  2.7104224E+03;
  6.5052927E-01;  9.9999998E-03;  3.0012038E-01;6471;  1.5580419E-02;  0.0000000E+00; -5.0554108E-03;  9.9833917E+02;  1.0450038E-01; -1.3759609E+03;3;  5.9669099E+00;  0.0000000E+00;  2.9685926E-01;0;  7.6040454E-02;  3.6521758E+04;  0.0000000E+00; -4.3210292E+00;  4.0000000E+04;  0.0000000E+00;  3.9987684E+04;  7.9436071E-02;  0.0000000E+00; -3.3956144E-03;  7.0773027E+03;
  6.5057892E-01;  9.9999998E-03;  2.9011050E-01;6470;  1.4711572E-02;  0.0000000E+00; -4.9809832E-03;  9.9849066E+02;  1.0450910E-01; -1.2504337E+03;3;  5.9445729E+00;  0.0000000E+00;  3.2881096E-01;0;  7.6785684E-02;  3.6526051E+04;  0.0000000E+00; -3.4000113E+00;  4.0000000E+04;  0.0000000E+00;  3.9986332E+04;  7.9664536E-02;  0.0000000E+00; -2.8788513E-03;  5.7111118E+03;
  6.5061748E-01;  9.9999998E-03;  2.8009844E-01;6469;  1.3846338E-02;  0.0000000E+00; -4.9238726E-03;  9.9864337E+02;  1.0451502E-01; -1.1239187E+03;3;  5.9489102E+00;  0.0000000E+00;  4.0002513E-01;0;  7.7126980E-02;  3.6532707E+04;  0.0000000E+00; -2.3090169E+00;  4.0000000E+04;  0.0000000E+00;  3.9985883E+04;  8.0144577E-02;  0.0000000E+00; -3.0175981E-03;  4.1616528E+03;
  6.5065444E-01;  9.9999998E-03;  2.7008384E-01;6468;  1.2898324E-02;  0.0000000E+00; -4.9616150E-03;  9.9880792E+02;  1.0452000E-01; -9.8762634E+02;3;  5.9648638E+00;  0.0000000E+00;  4.7814199E-01;0;  7.6231569E-02;  3.6541023E+04;  0.0000000E+00; -1.3069626E+00;  4.0000000E+04;  0.0000000E+00;  3.9984879E+04;  8.0939069E-02;  0.0000000E+00; -4.7075022E-03;  2.8615474E+03;
  6.5069175E-01;  9.9999998E-03;  2.6006615E-01;6467;  1.1757957E-02;  0.0000000E+00; -5.1293699E-03;  9.9897223E+02;  1.0452373E-01; -8.5148206E+02;3;  5.8731937E+00;  0.0000000E+00;  4.9410003E-01;0;  7.4610040E-02;  3.6550930E+04;  0.0000000E+00; -5.6667954E-01;  4.0000000E+04;  0.0000000E+00;  3.9984195E+04;  8.2074910E-02;  0.0000000E+00; -7.4648676E-03;  2.0788765E+03;
  6.5072691E-01;  9.9999998E-03;  2.5004572E-01;6466;  1.0518767E-02;  0.0000000E+00; -5.3491872E-03;  9.9914258E+02;  1.0452656E-01; -7.1035022E+02;3;  5.6720653E+00;  0.0000000E+00;  4.1650581E-01;0;  7.3769644E-02;  3.6562168E+04;  0.0000000E+00; -1.3190617E-01;  4.0000000E+04;  0.0000000E+00;  3.9982578E+04;  8.3553977E-02;  0.0000000E+00; -9.7843343E-03;  1.6611038E+03;
  6.5075511E-01;  9.9999998E-03;  2.4002258E-01;6465;  9.3366290E-03;  0.0000000E+00; -5.4675769E-03;  9.9930957E+02;  1.0452793E-01; -5.7198376E+02;3;  5.4469390E+00;  0.0000000E+00;  3.3529130E-01;0;  7.4489169E-02;  3.6574957E+04;  0.0000000E+00;  5.3879552E-02;  4.0000000E+04;  0.0000000E+00;  3.9980070E+04;  8.5348159E-02;  0.0000000E+00; -1.0858989E-02;  1.3272659E+03;
  6.6057968E-01;  9.9999998E-03;  3.0015886E-01;6532;  1.6267866E-02;  0.0000000E+00; -5.3703976E-03;  9.9854199E+02;  1.0615198E-01; -1.2079164E+03;3;  6.1953630E+00;  0.0000000E+00;  3.3289632E-01;0;  7.9715304E-02;  3.5413062E+04;  0.0000000E+00; -8.8720875E+00;  4.0000000E+04;  0.0000000E+00;  3.9975008E+04;  8.2691900E-02;  0.0000000E+00; -2.9765950E-03;  1.4253444E+04;
  6.6082329E-01;  9.9999998E-03;  2.4007742E-01;6526;  9.7776130E-03;  0.0000000E+00; -5.9463521E-03;  9.9962012E+02;  1.0617972E-01; -3.1470712E+02;3;  5.5199761E+00;  0.0000000E+00;  3.1732464E-01;0;  7.8756146E-02;  3.5473465E+04;  0.0000000E+00; -1.3359022E-01;  4.0000000E+04;  0.0000000E+00;  3.9964176E+04;  9.1272347E-02;  0.0000000E+00; -1.2516198E-02;  6.9835156E+02;
  6.6060191E-01;  9.9999998E-03;  2.9014850E-01;6531;  1.4961428E-02;  0.0000000E+00; -5.3482489E-03;  9.9870209E+02;  1.0616223E-01; -1.0752782E+03;3;  6.0142183E+00;  0.0000000E+00;  3.5421005E-01;0;  7.9750963E-02;  3.5416652E+04;  0.0000000E+00; -7.0532250E+00;  4.0000000E+04;  0.0000000E+00;  3.9974199E+04;  8.3224773E-02;  0.0000000E+00; -3.4738104E-03;  1.1418168E+04;
  6.6078180E-01;  9.9999998E-03;  2.5009140E-01;6527;  1.0830527E-02;  0.0000000E+00; -5.8398074E-03;  9.9943665E+02;  1.0617909E-01; -4.6675220E+02;3;  5.7191782E+00;  0.0000000E+00;  3.9593530E-01;0;  7.7245988E-02;  3.5458539E+04;  0.0000000E+00; -5.9720910E-01;  4.0000000E+04;  0.0000000E+00;  3.9968215E+04;  8.8912800E-02;  0.0000000E+00; -1.1666811E-02;  1.5553235E+03;
  6.6065264E-01;  9.9999998E-03;  2.7012289E-01;6529;  1.3019526E-02;  0.0000000E+00; -5.4180743E-03;  9.9906885E+02;  1.0617333E-01; -7.7143494E+02;3;  5.9958134E+00;  0.0000000E+00;  5.1474929E-01;0;  7.8664526E-02;  3.5434555E+04;  0.0000000E+00; -3.0289667E+00;  4.0000000E+04;  0.0000000E+00;  3.9972039E+04;  8.5283689E-02;  0.0000000E+00; -6.6191638E-03;  5.1870981E+03;
  6.6071081E-01;  9.9999998E-03;  2.6010752E-01;6528;  1.1950657E-02;  0.0000000E+00; -5.6206770E-03;  9.9925903E+02;  1.0617708E-01; -6.1385913E+02;3;  5.8990731E+00;  0.0000000E+00;  4.8618588E-01;0;  7.7341177E-02;  3.5446094E+04;  0.0000000E+00; -1.5351905E+00;  4.0000000E+04;  0.0000000E+00;  3.9970758E+04;  8.6898983E-02;  0.0000000E+00; -9.5578041E-03;  2.9394976E+03;
  6.6062456E-01;  9.9999998E-03;  2.8013659E-01;6530;  1.3996380E-02;  0.0000000E+00; -5.3250352E-03;  9.9887921E+02;  1.0616936E-01; -9.2856628E+02;3;  6.0058751E+00;  0.0000000E+00;  4.3207589E-01;0;  7.9845630E-02;  3.5424262E+04;  0.0000000E+00; -4.9535689E+00;  4.0000000E+04;  0.0000000E+00;  3.9973305E+04;  8.4073164E-02;  0.0000000E+00; -4.2275330E-03;  8.1524731E+03;
  6.7082995E-01;  9.9999998E-03;  2.4013619E-01;6587;  1.0524270E-02;  0.0000000E+00; -6.2065660E-03;  9.9977869E+02;  1.0811506E-01; -1.8335283E+02;3;  5.6323438E+00;  0.0000000E+00;  3.4206408E-01;0;  8.2844101E-02;  3.4229730E+04;  0.0000000E+00; -4.4335717E-01;  4.0000000E+04;  0.0000000E+00;  3.9948336E+04;  9.6020333E-02;  0.0000000E+00; -1.3176233E-02;  8.9132599E+02;
  6.7080408E-01;  9.9999998E-03;  2.5014246E-01;6588;  1.1325900E-02;  0.0000000E+00; -6.1604129E-03;  9.9959082E+02;  1.0811606E-01; -3.3900275E+02;3;  5.7780757E+00;  0.0000000E+00;  4.0119275E-01;0;  8.0801271E-02;  3.4214113E+04;  0.0000000E+00; -1.2705629E+00;  4.0000000E+04;  0.0000000E+00;  3.9953383E+04;  9.3252853E-02;  0.0000000E+00; -1.2451584E-02;  2.3981008E+03;
  6.7078668E-01;  9.9999998E-03;  2.6015392E-01;6589;  1.2282872E-02;  0.0000000E+00; -5.9820288E-03;  9.9938892E+02;  1.0811608E-01; -5.0625726E+02;3;  5.9275432E+00;  0.0000000E+00;  4.8204669E-01;0;  8.0389388E-02;  3.4198957E+04;  0.0000000E+00; -2.7287509E+00;  4.0000000E+04;  0.0000000E+00;  3.9956629E+04;  9.0874247E-02;  0.0000000E+00; -1.0484858E-02;  4.8256636E+03;
  6.7079824E-01;  9.9999998E-03;  2.7016702E-01;6590;  1.3297337E-02;  0.0000000E+00; -5.7828762E-03;  9.9917914E+02;  1.0811607E-01; -6.8007947E+02;3;  6.0160370E+00;  0.0000000E+00;  5.0031704E-01;0;  8.1523746E-02;  3.4183805E+04;  0.0000000E+00; -4.8725843E+00;  4.0000000E+04;  0.0000000E+00;  3.9958613E+04;  8.8923834E-02;  0.0000000E+00; -7.4000908E-03;  8.3063799E+03;
  6.7082524E-01;  9.9999998E-03;  2.8017986E-01;6591;  1.4367684E-02;  0.0000000E+00; -5.6722066E-03;  9.9897632E+02;  1.0811489E-01; -8.4812408E+02;3;  6.0655417E+00;  0.0000000E+00;  4.3212897E-01;0;  8.2844205E-02;  3.4170961E+04;  0.0000000E+00; -7.5667973E+00;  4.0000000E+04;  0.0000000E+00;  3.9959766E+04;  8.7402478E-02;  0.0000000E+00; -4.5582750E-03;  1.2661240E+04;
  6.7085689E-01;  9.9999998E-03;  2.9019183E-01;6592;  1.5968548E-02;  0.0000000E+00; -5.6160609E-03;  9.9879114E+02;  1.0810889E-01; -1.0015024E+03;3;  6.2299328E+00;  0.0000000E+00;  3.5882491E-01;0;  8.4093206E-02;  3.4163043E+04;  0.0000000E+00; -1.0402916E+01;  4.0000000E+04;  0.0000000E+00;  3.9960785E+04;  8.6360462E-02;  0.0000000E+00; -2.2672536E-03;  1.7226971E+04;
  6.7091477E-01;  9.9999998E-03;  3.0020303E-01;6593;  1.8631648E-02;  0.0000000E+00; -5.5717253E-03;  9.9862311E+02;  1.0809863E-01; -1.1407084E+03;3;  6.4407754E+00;  0.0000000E+00;  2.7529848E-01;0;  8.5495107E-02;  3.4159762E+04;  0.0000000E+00; -1.2584696E+01;  4.0000000E+04;  0.0000000E+00;  3.9961020E+04;  8.5787088E-02;  0.0000000E+00; -2.9198106E-04;  2.0704221E+04;
  6.8107224E-01;  9.9999998E-03;  2.4019298E-01;6648;  1.1590194E-02;  0.0000000E+00; -6.3026068E-03;  9.9962854E+02;  1.1032353E-01; -3.0774435E+02;3;  5.6952481E+00;  0.0000000E+00;  3.8003168E-01;0;  8.5890442E-02;  3.2869062E+04;  0.0000000E+00; -7.4197525E-01;  4.0000000E+04;  0.0000000E+00;  3.9934145E+04;  9.8866031E-02;  0.0000000E+00; -1.2975590E-02;  1.5181615E+03;
  6.8104184E-01;  9.9999998E-03;  2.5019449E-01;6649;  1.2013482E-02;  0.0000000E+00; -6.3545913E-03;  9.9946069E+02;  1.1033116E-01; -4.4680215E+02;3;  5.8055439E+00;  0.0000000E+00;  4.0775841E-01;0;  8.3497189E-02;  3.2851633E+04;  0.0000000E+00; -1.9169704E+00;  4.0000000E+04;  0.0000000E+00;  3.9939434E+04;  9.5792890E-02;  0.0000000E+00; -1.2295702E-02;  3.6387854E+03;
  6.8107027E-01;  9.9999998E-03;  2.6020303E-01;6650;  1.2759799E-02;  0.0000000E+00; -6.2747123E-03;  9.9927448E+02;  1.1034176E-01; -6.0106940E+02;3;  5.9297056E+00;  0.0000000E+00;  4.4854000E-01;0;  8.2470246E-02;  3.2831477E+04;  0.0000000E+00; -3.8180528E+00;  4.0000000E+04;  0.0000000E+00;  3.9943105E+04;  9.3142547E-02;  0.0000000E+00; -1.0672298E-02;  6.9222437E+03;
  6.8115461E-01;  9.9999998E-03;  2.7021465E-01;6651;  1.3751346E-02;  0.0000000E+00; -6.1368654E-03;  9.9906946E+02;  1.1035369E-01; -7.7094110E+02;3;  6.0312047E+00;  0.0000000E+00;  4.6629274E-01;0;  8.3017409E-02;  3.2810605E+04;  0.0000000E+00; -6.4359965E+00;  4.0000000E+04;  0.0000000E+00;  3.9945676E+04;  9.0937585E-02;  0.0000000E+00; -7.9201777E-03;  1.1356280E+04;
  6.8126887E-01;  9.9999998E-03;  2.8022724E-01;6652;  1.5327349E-02;  0.0000000E+00; -5.9930766E-03;  9.9887128E+02;  1.1036298E-01; -9.3513397E+02;3;  6.2340279E+00;  0.0000000E+00;  4.3161964E-01;0;  8.4933043E-02;  3.2792359E+04;  0.0000000E+00; -9.4973421E+00;  4.0000000E+04;  0.0000000E+00;  3.9946719E+04;  8.9266434E-02;  0.0000000E+00; -4.3333909E-03;  1.6495900E+04;
  6.8142056E-01;  9.9999998E-03;  2.9023993E-01;6653;  1.8319888E-02;  0.0000000E+00; -5.8764783E-03;  9.9868695E+02;  1.1036934E-01; -1.0878210E+03;3;  6.4867859E+00;  0.0000000E+00;  3.1727967E-01;0;  8.7615423E-02;  3.2778023E+04;  0.0000000E+00; -1.2240793E+01;  4.0000000E+04;  0.0000000E+00;  3.9947133E+04;  8.8277437E-02;  0.0000000E+00; -6.6201383E-04;  2.1051928E+04;
  6.8159980E-01;  9.9999998E-03;  3.0025217E-01;6654;  2.0978840E-02;  0.0000000E+00; -5.9205466E-03;  9.9853052E+02;  1.1036929E-01; -1.2174469E+03;3;  6.5450492E+00;  0.0000000E+00;  1.6374578E-01;0;  8.7519504E-02;  3.2770227E+04;  0.0000000E+00; -1.3855659E+01;  4.0000000E+04;  0.0000000E+00;  3.9947215E+04;  8.7347791E-02;  0.0000000E+00;  1.7171391E-04;  2.3656721E+04;
  6.9208282E-01;  9.9999998E-03;  2.4024875E-01;6709;  1.3423678E-02;  0.0000000E+00; -6.3550575E-03;  9.9925360E+02;  1.1291512E-01; -6.1835284E+02;3;  5.7325330E+00;  0.0000000E+00;  3.9702061E-01;0;  8.6653545E-02;  3.1365418E+04;  0.0000000E+00; -7.2756088E-01;  4.0000000E+04;  0.0000000E+00;  3.9920559E+04;  9.8958492E-02;  0.0000000E+00; -1.2304943E-02;  1.7548944E+03;
  6.9219607E-01;  9.9999998E-03;  2.5024873E-01;6710;  1.3218150E-02;  0.0000000E+00; -6.4943293E-03;  9.9909875E+02;  1.1294329E-01; -7.4664551E+02;3;  5.7603397E+00;  0.0000000E+00;  3.9328271E-01;0;  8.4167920E-02;  3.1338350E+04;  0.0000000E+00; -1.8159416E+00;  4.0000000E+04;  0.0000000E+00;  3.9925379E+04;  9.5603168E-02;  0.0000000E+00; -1.1435246E-02;  3.8487561E+03;
  6.9235277E-01;  9.9999998E-03;  2.6025641E-01;6711;  1.3665332E-02;  0.0000000E+00; -6.5306611E-03;  9.9895636E+02;  1.1297821E-01; -8.6461743E+02;3;  5.9089708E+00;  0.0000000E+00;  4.0016472E-01;0;  8.2633249E-02;  3.1308631E+04;  0.0000000E+00; -3.4769499E+00;  4.0000000E+04;  0.0000000E+00;  3.9929242E+04;  9.2713691E-02;  0.0000000E+00; -1.0080440E-02;  6.8705015E+03;
  6.9258249E-01;  9.9999998E-03;  2.7026841E-01;6712;  1.4795207E-02;  0.0000000E+00; -6.5065585E-03;  9.9880737E+02;  1.1302113E-01; -9.8807074E+02;3;  6.1169724E+00;  0.0000000E+00;  3.9953330E-01;0;  8.2265861E-02;  3.1275365E+04;  0.0000000E+00; -5.5641832E+00;  4.0000000E+04;  0.0000000E+00;  3.9931395E+04;  9.0306923E-02;  0.0000000E+00; -8.0410605E-03;  1.0586721E+04;
  6.9286901E-01;  9.9999998E-03;  2.8028208E-01;6713;  1.7080905E-02;  0.0000000E+00; -6.4452062E-03;  9.9866431E+02;  1.1306658E-01; -1.1065859E+03;3;  6.4789577E+00;  0.0000000E+00;  3.5998425E-01;0;  8.3243340E-02;  3.1242287E+04;  0.0000000E+00; -7.6179538E+00;  4.0000000E+04;  0.0000000E+00;  3.9932180E+04;  8.8482738E-02;  0.0000000E+00; -5.2393987E-03;  1.4212344E+04;
  6.9316077E-01;  9.9999998E-03;  2.9029623E-01;6714;  1.9585257E-02;  0.0000000E+00; -6.4023850E-03;  9.9854089E+02;  1.1310297E-01; -1.2088546E+03;3;  6.6331015E+00;  0.0000000E+00;  2.4256985E-01;0;  8.4348030E-02;  3.1216637E+04;  0.0000000E+00; -9.0498781E+00;  4.0000000E+04;  0.0000000E+00;  3.9932297E+04;  8.6889796E-02;  0.0000000E+00; -2.5417632E-03;  1.6693131E+04;
  6.9342500E-01;  9.9999998E-03;  3.0030996E-01;6715;  2.1519935E-02;  0.0000000E+00; -6.5084412E-03;  9.9846167E+02;  1.1312354E-01; -1.2744824E+03;3;  6.6604805E+00;  0.0000000E+00;  2.0454133E-01;0;  8.2585886E-02;  3.1202869E+04;  0.0000000E+00; -9.4129267E+00;  4.0000000E+04;  0.0000000E+00;  3.9932254E+04;  8.5290067E-02;  0.0000000E+00; -2.7041798E-03;  1.7229918E+04;
  7.0432860E-01;  9.9999998E-03;  2.4031353E-01;6770;  1.6356312E-02;  0.0000000E+00; -6.5753562E-03;  9.9905286E+02;  1.1607365E-01; -7.8466913E+02;3;  6.0820160E+00;  0.0000000E+00;  2.3393777E-01;0;  8.2852006E-02;  2.9690020E+04;  0.0000000E+00; -3.5743800E-01;  4.0000000E+04;  0.0000000E+00;  3.9902523E+04;  9.4740212E-02;  0.0000000E+00; -1.1888210E-02;  1.4083962E+03;
  7.0451087E-01;  9.9999998E-03;  2.5031558E-01;6771;  1.6147548E-02;  0.0000000E+00; -6.7860759E-03;  9.9896460E+02;  1.1612593E-01; -8.5780286E+02;3;  6.0112896E+00;  0.0000000E+00;  2.6006562E-01;0;  8.0389068E-02;  2.9657555E+04;  0.0000000E+00; -1.2275709E+00;  4.0000000E+04;  0.0000000E+00;  3.9905508E+04;  9.1356494E-02;  0.0000000E+00; -1.0967428E-02;  3.1703252E+03;
  7.0476574E-01;  9.9999998E-03;  2.6032332E-01;6772;  1.6379932E-02;  0.0000000E+00; -6.8683717E-03;  9.9891229E+02;  1.1619013E-01; -9.0115961E+02;3;  6.0918794E+00;  0.0000000E+00;  2.7001494E-01;0;  7.8732215E-02;  2.9620602E+04;  0.0000000E+00; -2.4858637E+00;  4.0000000E+04;  0.0000000E+00;  3.9908676E+04;  8.8234849E-02;  0.0000000E+00; -9.5026335E-03;  5.6400811E+03;
  7.0507914E-01;  9.9999998E-03;  2.7033579E-01;6773;  1.7388461E-02;  0.0000000E+00; -6.8602241E-03;  9.9887299E+02;  1.1626185E-01; -9.3370190E+02;3;  6.2669644E+00;  0.0000000E+00;  2.4436453E-01;0;  7.8345530E-02;  2.9581656E+04;  0.0000000E+00; -4.0124769E+00;  4.0000000E+04;  0.0000000E+00;  3.9910379E+04;  8.5473299E-02;  0.0000000E+00; -7.1277679E-03;  8.5692676E+03;
  7.0537543E-01;  9.9999998E-03;  2.8035054E-01;6774;  1.9128771E-02;  0.0000000E+00; -6.8643424E-03;  9.9883923E+02;  1.1632186E-01; -9.6165173E+02;3;  6.4446130E+00;  0.0000000E+00;  1.6871358E-01;0;  7.8287922E-02;  2.9550529E+04;  0.0000000E+00; -5.5443068E+00;  4.0000000E+04;  0.0000000E+00;  3.9910371E+04;  8.3066419E-02;  0.0000000E+00; -4.7784997E-03;  1.1463626E+04;
  7.0563316E-01;  9.9999998E-03;  2.9036584E-01;6775;  2.1060737E-02;  0.0000000E+00; -6.9426480E-03;  9.9881183E+02;  1.1636340E-01; -9.8436713E+02;3;  6.3794355E+00;  0.0000000E+00;  1.0519230E-01;0;  7.7024348E-02;  2.9530127E+04;  0.0000000E+00; -6.6340756E+00;  4.0000000E+04;  0.0000000E+00;  3.9909867E+04;  8.0864608E-02;  0.0000000E+00; -3.8402609E-03;  1.3482537E+04;
  7.0584041E-01;  9.9999998E-03;  3.0038092E-01;6776;  2.2921277E-02;  0.0000000E+00; -7.0436262E-03;  9.9879706E+02;  1.1638027E-01; -9.9661371E+02;3;  5.7894297E+00;  0.0000000E+00;  2.9513159E-01;0;  7.4804068E-02;  2.9522789E+04;  0.0000000E+00; -6.8727870E+00;  4.0000000E+04;  0.0000000E+00;  3.9909254E+04;  7.8830771E-02;  0.0000000E+00; -4.0267021E-03;  1.3847709E+04;
  7.1677816E-01;  9.9999998E-03;  2.4038371E-01;6831;  1.9074915E-02;  0.0000000E+00; -6.8356218E-03;  9.9914478E+02;  1.1959387E-01; -7.0852313E+02;3;  5.9951482E+00;  0.0000000E+00; -1.3707140E-01;0;  7.4170962E-02;  2.7996205E+04;  0.0000000E+00; -2.4355216E-01;  4.0000000E+04;  0.0000000E+00;  3.9881125E+04;  8.5260779E-02;  0.0000000E+00; -1.1089814E-02;  1.3365831E+03;
  7.1692681E-01;  9.9999998E-03;  2.5038880E-01;6832;  1.9089710E-02;  0.0000000E+00; -7.1363682E-03;  9.9909735E+02;  1.1964690E-01; -7.4783063E+02;3;  6.0166411E+00;  0.0000000E+00; -6.5120950E-02;0;  7.1649216E-02;  2.7968852E+04;  0.0000000E+00; -1.1252787E+00;  4.0000000E+04;  0.0000000E+00;  3.9881996E+04;  8.1929423E-02;  0.0000000E+00; -1.0280206E-02;  3.1488503E+03;
  7.1709251E-01;  9.9999998E-03;  2.6039669E-01;6833;  1.9397881E-02;  0.0000000E+00; -7.2813686E-03;  9.9911212E+02;  1.1970447E-01; -7.3558411E+02;3;  5.9721169E+00;  0.0000000E+00; -5.5989753E-02;0;  6.9747426E-02;  2.7941432E+04;  0.0000000E+00; -2.4834199E+00;  4.0000000E+04;  0.0000000E+00;  3.9883949E+04;  7.8765683E-02;  0.0000000E+00; -9.0182582E-03;  5.9174956E+03;
  7.1718186E-01;  9.9999998E-03;  2.7040792E-01;6834;  2.0352365E-02;  0.0000000E+00; -7.2636595E-03;  9.9912964E+02;  1.1973210E-01; -7.2106598E+02;3;  5.8081150E+00;  0.0000000E+00; -6.0730685E-02;0;  6.9567852E-02;  2.7928992E+04;  0.0000000E+00; -4.2983751E+00;  4.0000000E+04;  0.0000000E+00;  3.9885711E+04;  7.5931050E-02;  0.0000000E+00; -6.3632005E-03;  9.5425752E+03;
  7.1724510E-01;  9.9999998E-03;  2.8042194E-01;6835;  2.2115987E-02;  0.0000000E+00; -7.2566951E-03;  9.9913684E+02;  1.1974037E-01; -7.1509082E+02;3;  4.4749355E+00;  0.0000000E+00; -3.3578668E-02;0;  6.9635108E-02;  2.7926084E+04;  0.0000000E+00; -6.2372136E+00;  4.0000000E+04;  0.0000000E+00;  3.9886227E+04;  7.3396862E-02;  0.0000000E+00; -3.7617562E-03;  1.3342113E+04;
  7.1728629E-01;  9.9999998E-03;  2.9043716E-01;6836;  2.3635674E-02;  0.0000000E+00; -7.1486053E-03;  9.9912299E+02;  1.1973148E-01; -7.2659668E+02;3; -4.2150414E-01;  0.0000000E+00;  8.0247062E-01;0;  7.0870154E-02;  2.7930855E+04;  0.0000000E+00; -7.7826090E+00;  4.0000000E+04;  0.0000000E+00;  3.9885945E+04;  7.0989124E-02;  0.0000000E+00; -1.1897242E-04;  1.6308010E+04;
  7.1730375E-01;  9.9999998E-03;  3.0045259E-01;6837;  2.4641249E-02;  0.0000000E+00; -7.0902291E-03;  9.9909027E+02;  1.1970387E-01; -7.5370703E+02;3; -1.7372032E+00;  0.0000000E+00;  9.2654055E-01;0;  7.1422324E-02;  2.7943682E+04;  0.0000000E+00; -8.4485521E+00;  4.0000000E+04;  0.0000000E+00;  3.9885695E+04;  6.8692513E-02;  0.0000000E+00;  2.7298117E-03;  1.7496346E+04;
  7.2875798E-01;  9.9999998E-03;  2.4043806E-01;6892;  2.0453420E-02;  0.0000000E+00; -7.3821070E-03;  9.9906580E+02;  1.2325639E-01; -7.7395331E+02;3;  1.8035443E+00;  0.0000000E+00; -1.5805198E+00;0;  6.0936175E-02;  2.6371494E+04;  0.0000000E+00; -3.6588076E-01;  4.0000000E+04;  0.0000000E+00;  3.9863238E+04;  7.1951777E-02;  0.0000000E+00; -1.1015601E-02;  1.7753483E+03;
  7.2873592E-01;  9.9999998E-03;  2.5045061E-01;6893;  2.0845762E-02;  0.0000000E+00; -7.6269461E-03;  9.9897675E+02;  1.2325794E-01; -8.4772900E+02;3;  2.2701118E+00;  0.0000000E+00; -1.0238291E+00;0;  5.8792755E-02;  2.6366572E+04;  0.0000000E+00; -1.2486024E+00;  4.0000000E+04;  0.0000000E+00;  3.9862543E+04;  6.8755656E-02;  0.0000000E+00; -9.9629033E-03;  3.5403701E+03;
  7.2869891E-01;  9.9999998E-03;  2.6046103E-01;6894;  2.1334819E-02;  0.0000000E+00; -7.7946959E-03;  9.9896259E+02;  1.2325587E-01; -8.5948175E+02;3;  1.9887314E+00;  0.0000000E+00; -5.8335131E-01;0;  5.6639485E-02;  2.6364959E+04;  0.0000000E+00; -2.5361781E+00;  4.0000000E+04;  0.0000000E+00;  3.9864258E+04;  6.5706953E-02;  0.0000000E+00; -9.0674693E-03;  6.2119023E+03;
  7.2865736E-01;  9.9999998E-03;  2.7047324E-01;6895;  2.2067832E-02;  0.0000000E+00; -7.7921031E-03;  9.9897363E+02;  1.2324646E-01; -8.5034619E+02;3; -3.2811776E-01;  0.0000000E+00; -1.5355347E-01;0;  5.5890616E-02;  2.6368072E+04;  0.0000000E+00; -4.1491795E+00;  4.0000000E+04;  0.0000000E+00;  3.9866555E+04;  6.2815331E-02;  0.0000000E+00; -6.9247158E-03;  9.5305244E+03;
  7.2863007E-01;  9.9999998E-03;  2.8048822E-01;6896;  2.2884190E-02;  0.0000000E+00; -7.6963827E-03;  9.9897101E+02;  1.2323122E-01; -8.5251898E+02;3; -2.5640655E+00;  0.0000000E+00; -5.1675052E-03;0;  5.6764014E-02;  2.6374545E+04;  0.0000000E+00; -5.8140759E+00;  4.0000000E+04;  0.0000000E+00;  3.9867555E+04;  6.0040783E-02;  0.0000000E+00; -3.2767705E-03;  1.2901550E+04;
  7.2859734E-01;  9.9999998E-03;  2.9050460E-01;6897;  2.3694403E-02;  0.0000000E+00; -7.6258532E-03;  9.9894495E+02;  1.2320474E-01; -8.7409863E+02;3; -3.5305047E+00;  0.0000000E+00; -2.3868965E-02;0;  5.7575364E-02;  2.6385066E+04;  0.0000000E+00; -7.0706277E+00;  4.0000000E+04;  0.0000000E+00;  3.9867766E+04;  5.7444774E-02;  0.0000000E+00;  1.3059117E-04;  1.5403072E+04;
  7.2854018E-01;  9.9999998E-03;  3.0052114E-01;6898;  2.4553612E-02;  0.0000000E+00; -7.5624171E-03;  9.9888245E+02;  1.2316234E-01; -9.2585022E+02;3; -3.7365386E+00;  0.0000000E+00;  2.1736951E-01;0;  5.7983667E-02;  2.6401461E+04;  0.0000000E+00; -7.4744306E+00;  4.0000000E+04;  0.0000000E+00;  3.9868246E+04;  5.5114180E-02;  0.0000000E+00;  2.8694868E-03;  1.6161613E+04;
  7.4068606E-01;  9.9999998E-03;  2.4047261E-01;6953;  2.0676523E-02;  0.0000000E+00; -8.0443863E-03;  9.9859106E+02;  1.2709633E-01; -1.1672755E+03;3; -1.4908863E+00;  0.0000000E+00; -8.7656999E-01;0;  4.4946335E-02;  2.4792078E+04;  0.0000000E+00; -3.4105960E-01;  4.0000000E+04;  0.0000000E+00;  3.9850430E+04;  5.6273136E-02;  0.0000000E+00; -1.1326799E-02;  2.3938923E+03;
  7.4066740E-01;  9.9999998E-03;  2.5050056E-01;6954;  2.1116000E-02;  0.0000000E+00; -8.2955826E-03;  9.9844397E+02;  1.2709978E-01; -1.2891486E+03;3; -2.2735388E+00;  0.0000000E+00; -5.9684300E-01;0;  4.2206131E-02;  2.4783932E+04;  0.0000000E+00; -8.6505383E-01;  4.0000000E+04;  0.0000000E+00;  3.9848121E+04;  5.2828595E-02;  0.0000000E+00; -1.0622465E-02;  3.0831299E+03;
  7.4063969E-01;  9.9999998E-03;  2.6051897E-01;6955;  2.1555649E-02;  0.0000000E+00; -8.4412862E-03;  9.9837256E+02;  1.2709929E-01; -1.3483074E+03;3; -2.9782550E+00;  0.0000000E+00; -3.4166491E-01;0;  3.9643623E-02;  2.4779125E+04;  0.0000000E+00; -1.4626676E+00;  4.0000000E+04;  0.0000000E+00;  3.9849258E+04;  4.9552672E-02;  0.0000000E+00; -9.9090468E-03;  4.2711987E+03;
  7.4062681E-01;  9.9999998E-03;  2.7053568E-01;6956;  2.2048306E-02;  0.0000000E+00; -8.4411409E-03;  9.9833276E+02;  1.2709881E-01; -1.3812941E+03;3; -3.6034613E+00;  0.0000000E+00; -2.5379553E-01;0;  3.8311291E-02;  2.4776037E+04;  0.0000000E+00; -1.9905193E+00;  4.0000000E+04;  0.0000000E+00;  3.9851734E+04;  4.6412762E-02;  0.0000000E+00; -8.1014708E-03;  5.4033882E+03;
  7.4065524E-01;  9.9999998E-03;  2.8055394E-01;6957;  2.2637844E-02;  0.0000000E+00; -8.3740549E-03;  9.9829755E+02;  1.2710457E-01; -1.4104291E+03;3; -4.0543027E+00;  0.0000000E+00; -2.5273168E-01;0;  3.8100053E-02;  2.4771650E+04;  0.0000000E+00; -2.2424467E+00;  4.0000000E+04;  0.0000000E+00;  3.9853316E+04;  4.3390974E-02;  0.0000000E+00; -5.2909208E-03;  5.9469019E+03;
  7.4065143E-01;  9.9999998E-03;  2.9057288E-01;6958;  2.3323646E-02;  0.0000000E+00; -8.2862955E-03;  9.9824036E+02;  1.2709673E-01; -1.4578351E+03;3; -4.3931966E+00;  0.0000000E+00; -2.1621476E-01;0;  3.8530953E-02;  2.4772174E+04;  0.0000000E+00; -1.9385489E+00;  4.0000000E+04;  0.0000000E+00;  3.9854238E+04;  4.0630657E-02;  0.0000000E+00; -2.0997054E-03;  5.3882246E+03;
  7.4061638E-01;  9.9999998E-03;  3.0059198E-01;6959;  2.4139903E-02;  0.0000000E+00; -8.1467684E-03;  9.9815765E+02;  1.2707601E-01; -1.5263270E+03;3; -4.6389723E+00;  0.0000000E+00; -1.1730728E-02;0;  3.9850678E-02;  2.4777240E+04;  0.0000000E+00; -9.3013149E-01;  4.0000000E+04;  0.0000000E+00;  3.9855207E+04;  3.8166266E-02;  0.0000000E+00;  1.6844106E-03;  3.6567114E+03;
  7.5386471E-01;  9.9999998E-03;  2.4051468E-01;7014;  2.0599043E-02;  0.0000000E+00; -8.7420307E-03;  9.9816418E+02;  1.3146847E-01; -1.5209445E+03;3; -2.7538407E+00;  0.0000000E+00;  7.4567817E-02;0;  2.7113684E-02;  2.3165119E+04;  0.0000000E+00; -1.9737498E-01;  4.0000000E+04;  0.0000000E+00;  3.9834605E+04;  3.8109247E-02;  0.0000000E+00; -1.0995563E-02;  2.9487000E+03;
  7.5374377E-01;  9.9999998E-03;  2.5055507E-01;7015;  2.0965820E-02;  0.0000000E+00; -8.9696730E-03;  9.9793707E+02;  1.3144511E-01; -1.7090872E+03;3; -3.2251985E+00;  0.0000000E+00;  1.9681364E-01;0;  2.4031989E-02;  2.3162908E+04;  0.0000000E+00; -2.1246147E-01;  4.0000000E+04;  0.0000000E+00;  3.9831824E+04;  3.4407508E-02;  0.0000000E+00; -1.0375517E-02;  2.6079163E+03;
  7.5351870E-01;  9.9999998E-03;  2.6058090E-01;7016;  2.1345330E-02;  0.0000000E+00; -9.1209691E-03;  9.9776392E+02;  1.3139175E-01; -1.8525399E+03;3; -3.5540102E+00;  0.0000000E+00;  2.8616446E-01;0;  2.0955453E-02;  2.3172082E+04;  0.0000000E+00;  1.2454972E-01;  4.0000000E+04;  0.0000000E+00;  3.9832832E+04;  3.1093433E-02;  0.0000000E+00; -1.0137981E-02;  2.5123064E+03;
  7.5334281E-01;  9.9999998E-03;  2.7060190E-01;7017;  2.1778312E-02;  0.0000000E+00; -9.1484170E-03;  9.9763330E+02;  1.3134778E-01; -1.9607838E+03;3; -3.8369260E+00;  0.0000000E+00;  2.9705516E-01;0;  1.8657910E-02;  2.3179697E+04;  0.0000000E+00;  1.0125171E+00;  4.0000000E+04;  0.0000000E+00;  3.9836188E+04;  2.7939253E-02;  0.0000000E+00; -9.2813428E-03;  3.5626907E+03;
  7.5327486E-01;  9.9999998E-03;  2.8062320E-01;7018;  2.2301570E-02;  0.0000000E+00; -9.1107935E-03;  9.9752826E+02;  1.3132827E-01; -2.0477936E+03;3; -4.1511283E+00;  0.0000000E+00;  3.0385584E-01;0;  1.7173223E-02;  2.3180420E+04;  0.0000000E+00;  2.5392146E+00;  4.0000000E+04;  0.0000000E+00;  3.9838797E+04;  2.4857048E-02;  0.0000000E+00; -7.6838243E-03;  6.5608208E+03;
  7.5320733E-01;  9.9999998E-03;  2.9064485E-01;7019;  2.2930086E-02;  0.0000000E+00; -9.0676630E-03;  9.9741815E+02;  1.3130458E-01; -2.1390010E+03;3; -4.5135098E+00;  0.0000000E+00;  2.7891836E-01;0;  1.6038084E-02;  2.3183617E+04;  0.0000000E+00;  4.8101053E+00;  4.0000000E+04;  0.0000000E+00;  3.9840125E+04;  2.2016589E-02;  0.0000000E+00; -5.9785037E-03;  1.1495056E+04;
  7.5312150E-01;  9.9999998E-03;  3.0066660E-01;7020;  2.3706798E-02;  0.0000000E+00; -9.0244003E-03;  9.9730530E+02;  1.3127016E-01; -2.2325291E+03;3; -4.9698215E+00;  0.0000000E+00;  2.1321845E-01;0;  1.5094319E-02;  2.3191258E+04;  0.0000000E+00;  7.7928705E+00;  4.0000000E+04;  0.0000000E+00;  3.9841156E+04;  1.9449452E-02;  0.0000000E+00; -4.3551321E-03;  1.8078543E+04;
  7.6774669E-01;  9.9999998E-03;  2.4059175E-01;7075;  2.0456795E-02;  0.0000000E+00; -9.4675124E-03;  9.9840936E+02;  1.3629089E-01; -1.3177897E+03;3; -2.9936481E+00;  0.0000000E+00;  6.5979177E-01;0;  9.5203668E-03;  2.1578830E+04;  0.0000000E+00; -2.6147854E-01;  4.0000000E+04;  0.0000000E+00;  3.9808133E+04;  1.9541617E-02;  0.0000000E+00; -1.0021251E-02;  2.6999297E+03;
  7.6760834E-01;  9.9999998E-03;  2.5063404E-01;7076;  2.0771746E-02;  0.0000000E+00; -9.6649854E-03;  9.9814270E+02;  1.3625117E-01; -1.5387217E+03;3; -3.3110230E+00;  0.0000000E+00;  7.2543389E-01;0;  5.9583560E-03;  2.1579148E+04;  0.0000000E+00; -5.6325868E-02;  4.0000000E+04;  0.0000000E+00;  3.9806012E+04;  1.5328251E-02;  0.0000000E+00; -9.3698949E-03;  2.2304297E+03;
  7.6734024E-01;  9.9999998E-03;  2.6066235E-01;7077;  2.1117752E-02;  0.0000000E+00; -9.8340567E-03;  9.9787201E+02;  1.3617711E-01; -1.7630116E+03;3; -3.5500276E+00;  0.0000000E+00;  7.9367274E-01;0;  1.9775881E-03;  2.1589756E+04;  0.0000000E+00;  7.3360884E-01;  4.0000000E+04;  0.0000000E+00;  3.9807000E+04;  1.1615362E-02;  0.0000000E+00; -9.6377740E-03;  3.1013538E+03;
  7.6715517E-01;  9.9999998E-03;  2.7068546E-01;7078;  2.1511048E-02;  0.0000000E+00; -9.9035716E-03;  9.9766541E+02;  1.3612583E-01; -1.9341672E+03;3; -3.8391173E+00;  0.0000000E+00;  8.6378849E-01;0; -1.7992323E-03;  2.1595014E+04;  0.0000000E+00;  2.3391843E+00;  4.0000000E+04;  0.0000000E+00;  3.9810078E+04;  8.0950800E-03;  0.0000000E+00; -9.8943124E-03;  6.9525332E+03;
  7.6717013E-01;  9.9999998E-03;  2.8070921E-01;7079;  2.1984702E-02;  0.0000000E+00; -9.9012060E-03;  9.9753107E+02;  1.3612922E-01; -2.0454727E+03;3; -4.1505990E+00;  0.0000000E+00;  9.6775305E-01;0; -5.0848979E-03;  2.1586605E+04;  0.0000000E+00;  4.6343651E+00;  4.0000000E+04;  0.0000000E+00;  3.9812582E+04;  4.5740767E-03;  0.0000000E+00; -9.6589746E-03;  1.2838322E+04;
  7.6722974E-01;  9.9999998E-03;  2.9073361E-01;7080;  2.2579389E-02;  0.0000000E+00; -9.8634195E-03;  9.9741199E+02;  1.3613954E-01; -2.1441365E+03;3; -4.5186071E+00;  0.0000000E+00;  1.0265561E+00;0; -7.6908283E-03;  2.1577736E+04;  0.0000000E+00;  7.5896115E+00;  4.0000000E+04;  0.0000000E+00;  3.9814145E+04;  1.2469265E-03;  0.0000000E+00; -8.9377547E-03;  2.0359398E+04;
  7.6729095E-01;  9.9999998E-03;  3.0075872E-01;7081;  2.3358207E-02;  0.0000000E+00; -9.8408721E-03;  9.9732172E+02;  1.3613909E-01; -2.2188999E+03;3; -4.9534106E+00;  0.0000000E+00;  9.9694729E-01;0; -1.0229561E-02;  2.1574678E+04;  0.0000000E+00;  1.1051086E+01;  4.0000000E+04;  0.0000000E+00;  3.9814531E+04; -1.8609965E-03;  0.0000000E+00; -8.3685638E-03;  2.8980482E+04;
  7.8242403E-01;  9.9999998E-03;  2.4070869E-01;7136;  2.0296462E-02;  0.0000000E+00; -1.0223022E-02;  9.9941626E+02;  1.4168152E-01; -4.8364053E+02;3; -3.1749797E+00;  0.0000000E+00;  1.0321748E+00;0; -6.8334937E-03;  2.0016625E+04;  0.0000000E+00; -4.3660226E-01;  4.0000000E+04;  0.0000000E+00;  3.9770547E+04;  1.5133393E-03;  0.0000000E+00; -8.3468333E-03;  1.6274403E+03;
  7.8227758E-01;  9.9999998E-03;  2.5074109E-01;7137;  2.0556472E-02;  0.0000000E+00; -1.0364666E-02;  9.9914563E+02;  1.4163859E-01; -7.0783167E+02;3; -3.4543455E+00;  0.0000000E+00;  1.1067132E+00;0; -1.0859083E-02;  2.0016432E+04;  0.0000000E+00; -3.6556238E-01;  4.0000000E+04;  0.0000000E+00;  3.9769562E+04; -3.4085508E-03;  0.0000000E+00; -7.4505331E-03;  1.0714565E+03;
  7.8205174E-01;  9.9999998E-03;  2.6076683E-01;7138;  2.0853100E-02;  0.0000000E+00; -1.0557515E-02;  9.9884155E+02;  1.4157392E-01; -9.5977509E+02;3; -3.7280481E+00;  0.0000000E+00;  1.1517090E+00;0; -1.6020086E-02;  2.0021576E+04;  0.0000000E+00;  2.2130093E-01;  4.0000000E+04;  0.0000000E+00;  3.9769727E+04; -7.8177899E-03;  0.0000000E+00; -8.2022967E-03;  1.9020298E+03;
  7.8196645E-01;  9.9999998E-03;  2.7078933E-01;7139;  2.1189388E-02;  0.0000000E+00; -1.0647980E-02;  9.9860956E+02;  1.4155322E-01; -1.1519672E+03;3; -4.0290594E+00;  0.0000000E+00;  1.2641696E+00;0; -2.1349987E-02;  2.0016377E+04;  0.0000000E+00;  1.5538404E+00;  4.0000000E+04;  0.0000000E+00;  3.9771820E+04; -1.2016151E-02;  0.0000000E+00; -9.3338359E-03;  6.1724546E+03;
  7.8226131E-01;  9.9999998E-03;  2.8081459E-01;7140;  2.1587985E-02;  0.0000000E+00; -1.0611806E-02;  9.9852533E+02;  1.4165220E-01; -1.2217429E+03;3; -4.3353734E+00;  0.0000000E+00;  1.4143702E+00;0; -2.5809068E-02;  1.9983719E+04;  0.0000000E+00;  3.1415699E+00;  4.0000000E+04;  0.0000000E+00;  3.9773328E+04; -1.6379427E-02;  0.0000000E+00; -9.4296401E-03;  1.1464180E+04;
  7.8259015E-01;  9.9999998E-03;  2.9084152E-01;7141;  2.2105884E-02;  0.0000000E+00; -1.0500764E-02;  9.9844733E+02;  1.4175479E-01; -1.2863831E+03;3; -4.6977201E+00;  0.0000000E+00;  1.5481005E+00;0; -2.8921925E-02;  1.9951268E+04;  0.0000000E+00;  5.1269484E+00;  4.0000000E+04;  0.0000000E+00;  3.9774164E+04; -2.0513417E-02;  0.0000000E+00; -8.4085073E-03;  1.7913646E+04;
  7.8290856E-01;  9.9999998E-03;  3.0087027E-01;7142;  2.2825474E-02;  0.0000000E+00; -1.0422461E-02;  9.9837775E+02;  1.4184007E-01; -1.3440111E+03;3; -5.1177483E+00;  0.0000000E+00;  1.5800782E+00;0; -3.2108847E-02;  1.9925066E+04;  0.0000000E+00;  7.4610581E+00;  4.0000000E+04;  0.0000000E+00;  3.9773465E+04; -2.4425982E-02;  0.0000000E+00; -7.6828655E-03;  2.5181230E+04;
  7.9750085E-01;  9.9999998E-03;  2.4083400E-01;7197;  2.0096002E-02;  0.0000000E+00; -1.0980051E-02;  1.0003090E+03;  1.4757031E-01;  2.5599266E+02;3; -3.4197750E+00;  0.0000000E+00;  1.2453164E+00;0; -2.0778904E-02;  1.8484398E+04;  0.0000000E+00; -4.0448439E-01;  4.0000000E+04;  0.0000000E+00;  3.9732395E+04; -1.4876588E-02;  0.0000000E+00; -5.9023155E-03;  1.0874578E+03;
  7.9754329E-01;  9.9999998E-03;  2.5085354E-01;7198;  2.0275826E-02;  0.0000000E+00; -1.1016622E-02;  1.0000961E+03;  1.4758590E-01;  7.9602654E+01;3; -3.7305613E+00;  0.0000000E+00;  1.3449463E+00;0; -2.5309751E-02;  1.8469941E+04;  0.0000000E+00; -4.7848931E-01;  4.0000000E+04;  0.0000000E+00;  3.9733133E+04; -2.0974228E-02;  0.0000000E+00; -4.3355227E-03;  7.0951074E+02;
  7.9749382E-01;  9.9999998E-03;  2.6087698E-01;7199;  2.0494331E-02;  0.0000000E+00; -1.1163797E-02;  9.9981439E+02;  1.4757515E-01; -1.5377338E+02;3; -4.0578284E+00;  0.0000000E+00;  1.4530398E+00;0; -3.1298980E-02;  1.8461471E+04;  0.0000000E+00; -2.3206340E-01;  4.0000000E+04;  0.0000000E+00;  3.9732320E+04; -2.6465956E-02;  0.0000000E+00; -4.8330259E-03;  8.9512219E+02;
  7.9754174E-01;  9.9999998E-03;  2.7089918E-01;7200;  2.0744529E-02;  0.0000000E+00; -1.1244613E-02;  9.9957086E+02;  1.4760260E-01; -3.5554538E+02;3; -4.3487926E+00;  0.0000000E+00;  1.5860447E+00;0; -3.7907701E-02;  1.8444553E+04;  0.0000000E+00;  5.7197601E-01;  4.0000000E+04;  0.0000000E+00;  3.9733141E+04; -3.1580828E-02;  0.0000000E+00; -6.3268715E-03;  4.3428896E+03;
  7.9784036E-01;  9.9999998E-03;  2.8092378E-01;7201;  2.1052336E-02;  0.0000000E+00; -1.1151290E-02;  9.9940582E+02;  1.4771907E-01; -4.9228220E+02;3; -4.6753745E+00;  0.0000000E+00;  1.7934121E+00;0; -4.3156847E-02;  1.8408281E+04;  0.0000000E+00;  1.8084862E+00;  4.0000000E+04;  0.0000000E+00;  3.9734383E+04; -3.6569536E-02;  0.0000000E+00; -6.5873102E-03;  9.4069453E+03;
  7.9809892E-01;  9.9999998E-03;  2.9095063E-01;7202;  2.1473935E-02;  0.0000000E+00; -1.0941858E-02;  9.9921600E+02;  1.4780913E-01; -6.4951227E+02;3; -4.9948320E+00;  0.0000000E+00;  2.0454729E+00;0; -4.6383884E-02;  1.8378078E+04;  0.0000000E+00;  3.7953031E+00;  4.0000000E+04;  0.0000000E+00;  3.9735980E+04; -4.1144207E-02;  0.0000000E+00; -5.2396762E-03;  1.6735168E+04;
  7.9822522E-01;  9.9999998E-03;  3.0097911E-01;7203;  2.2129515E-02;  0.0000000E+00; -1.0761711E-02;  9.9898071E+02;  1.4782721E-01; -8.4446960E+02;3; -5.3163404E+00;  0.0000000E+00;  2.2276363E+00;0; -4.9408160E-02;  1.8366180E+04;  0.0000000E+00;  6.7129879E+00;  4.0000000E+04;  0.0000000E+00;  3.9737141E+04; -4.5267966E-02;  0.0000000E+00; -4.1401950E-03;  2.6421018E+04;
  8.1219006E-01;  9.9999998E-03;  2.4092254E-01;7258;  1.9788168E-02;  0.0000000E+00; -1.1666576E-02;  1.0001151E+03;  1.5356410E-01;  9.5404671E+01;3; -3.7272577E+00;  0.0000000E+00;  1.3428732E+00;0; -3.1251017E-02;  1.7059838E+04;  0.0000000E+00;  7.3059633E-02;  4.0000000E+04;  0.0000000E+00;  3.9706938E+04; -2.8580464E-02;  0.0000000E+00; -2.6705537E-03;  2.2472917E+02;
  8.1225365E-01;  9.9999998E-03;  2.5093701E-01;7259;  1.9865017E-02;  0.0000000E+00; -1.1558982E-02;  9.9991614E+02;  1.5358092E-01; -6.9479492E+01;3; -4.1009836E+00;  0.0000000E+00;  1.5531386E+00;0; -3.6159195E-02;  1.7045887E+04;  0.0000000E+00;  1.4380497E-01;  4.0000000E+04;  0.0000000E+00;  3.9710234E+04; -3.5894275E-02;  0.0000000E+00; -2.6492213E-04;  8.6124939E+02;
  8.1209624E-01;  9.9999998E-03;  2.6096085E-01;7260;  1.9992566E-02;  0.0000000E+00; -1.1565855E-02;  9.9961780E+02;  1.5351759E-01; -3.1663290E+02;3; -4.4416146E+00;  0.0000000E+00;  1.7298708E+00;0; -4.2148162E-02;  1.7048854E+04;  0.0000000E+00;  4.4978598E-01;  4.0000000E+04;  0.0000000E+00;  3.9710484E+04; -4.2344183E-02;  0.0000000E+00;  1.9601993E-04;  2.1572202E+03;
  8.1194460E-01;  9.9999998E-03;  2.7098492E-01;7261;  2.0155994E-02;  0.0000000E+00; -1.1573607E-02;  9.9932880E+02;  1.5345535E-01; -5.5608282E+02;3; -4.7464905E+00;  0.0000000E+00;  1.9193381E+00;0; -4.9116451E-02;  1.7052691E+04;  0.0000000E+00;  1.2014318E+00;  4.0000000E+04;  0.0000000E+00;  3.9710676E+04; -4.8145805E-02;  0.0000000E+00; -9.7064622E-04;  5.0796211E+03;
  8.1209046E-01;  9.9999998E-03;  2.8101104E-01;7262;  2.0351907E-02;  0.0000000E+00; -1.1376251E-02;  9.9911090E+02;  1.5350167E-01; -7.3662085E+02;3; -5.0543184E+00;  0.0000000E+00;  2.2140572E+00;0; -5.4305717E-02;  1.7034455E+04;  0.0000000E+00;  2.1777740E+00;  4.0000000E+04;  0.0000000E+00;  3.9711801E+04; -5.3681105E-02;  0.0000000E+00; -6.2461192E-04;  8.8914570E+03;
  8.1226826E-01;  9.9999998E-03;  2.9103956E-01;7263;  2.0636944E-02;  0.0000000E+00; -1.0955521E-02;  9.9887085E+02;  1.5355936E-01; -9.3547937E+02;3; -5.3231640E+00;  0.0000000E+00;  2.5922873E+00;0; -5.5661794E-02;  1.7013379E+04;  0.0000000E+00;  3.5138018E+00;  4.0000000E+04;  0.0000000E+00;  3.9713430E+04; -5.8731772E-02;  0.0000000E+00;  3.0699775E-03;  1.3856677E+04;
  8.1237870E-01;  9.9999998E-03;  3.0107003E-01;7264;  2.1118991E-02;  0.0000000E+00; -1.0528240E-02;  9.9854749E+02;  1.5358755E-01; -1.2033729E+03;3; -5.5811777E+00;  0.0000000E+00;  2.7862053E+00;0; -5.5878866E-02;  1.6997842E+04;  0.0000000E+00;  5.6052485E+00;  4.0000000E+04;  0.0000000E+00;  3.9715074E+04; -6.3254908E-02;  0.0000000E+00;  7.3760399E-03;  2.0977840E+04;
  8.2554078E-01;  9.9999998E-03;  2.7105445E-01;7322;  1.9256121E-02;  0.0000000E+00; -1.1593454E-02;  9.9822479E+02;  1.5924159E-01; -1.4707231E+03;3; -5.1112342E+00;  0.0000000E+00;  2.2017834E+00;0; -5.5143416E-02;  1.5804642E+04;  0.0000000E+00;  1.6805054E+00;  4.0000000E+04;  0.0000000E+00;  3.9700301E+04; -6.2403738E-02;  0.0000000E+00;  7.2603235E-03;  5.0748623E+03;
  8.2562506E-01;  9.9999998E-03;  2.8108463E-01;7323;  1.9304045E-02;  0.0000000E+00; -1.1179283E-02;  9.9788947E+02;  1.5926777E-01; -1.7485424E+03;3; -5.3908753E+00;  0.0000000E+00;  2.5668941E+00;0; -5.8404908E-02;  1.5789371E+04;  0.0000000E+00;  2.1302664E+00;  4.0000000E+04;  0.0000000E+00;  3.9701961E+04; -6.8704113E-02;  0.0000000E+00;  1.0299206E-02;  6.2311411E+03;
  8.2565856E-01;  9.9999998E-03;  2.6102448E-01;7321;  1.9225014E-02;  0.0000000E+00; -1.1775542E-02;  9.9855817E+02;  1.5929207E-01; -1.1945336E+03;3; -4.8100138E+00;  0.0000000E+00;  1.9778378E+00;0; -4.9108870E-02;  1.5804199E+04;  0.0000000E+00;  1.3260652E+00;  4.0000000E+04;  0.0000000E+00;  3.9699992E+04; -5.5540107E-02;  0.0000000E+00;  6.4312383E-03;  4.3205415E+03;
  8.2579982E-01;  9.9999998E-03;  2.9111680E-01;7324;  1.9417094E-02;  0.0000000E+00; -1.0469614E-02;  9.9753802E+02;  1.5933093E-01; -2.0396945E+03;3; -5.6203833E+00;  0.0000000E+00;  2.7706223E+00;0; -5.6138214E-02;  1.5766916E+04;  0.0000000E+00;  2.7612033E+00;  4.0000000E+04;  0.0000000E+00;  3.9703496E+04; -7.4404344E-02;  0.0000000E+00;  1.8266130E-02;  7.9714814E+03;
  8.2585847E-01;  9.9999998E-03;  2.5099576E-01;7320;  1.9220084E-02;  0.0000000E+00; -1.2011387E-02;  9.9886676E+02;  1.5937302E-01; -9.3888660E+02;3; -4.4792786E+00;  0.0000000E+00;  1.7321023E+00;0; -4.3763980E-02;  1.5797936E+04;  0.0000000E+00;  1.0309130E+00;  4.0000000E+04;  0.0000000E+00;  3.9698438E+04; -4.7921181E-02;  0.0000000E+00;  4.1572014E-03;  3.6630396E+03;
  8.2597214E-01;  9.9999998E-03;  3.0115092E-01;7325;  1.9694362E-02;  0.0000000E+00; -9.7323544E-03;  9.9713123E+02;  1.5939479E-01; -2.3767219E+03;3; -5.7996631E+00;  0.0000000E+00;  2.7140996E+00;0; -5.2187704E-02;  1.5744079E+04;  0.0000000E+00;  3.7720892E+00;  4.0000000E+04;  0.0000000E+00;  3.9704785E+04; -7.9469457E-02;  0.0000000E+00;  2.7281756E-02;  1.0881589E+04;
  8.2596081E-01;  9.9999998E-03;  2.4097671E-01;7319;  1.9263735E-02;  0.0000000E+00; -1.2246869E-02;  9.9908539E+02;  1.5942089E-01; -7.5775598E+02;3; -4.0817442E+00;  0.0000000E+00;  1.5051539E+00;0; -3.8221519E-02;  1.5797934E+04;  0.0000000E+00;  7.5517219E-01;  4.0000000E+04;  0.0000000E+00;  3.9692395E+04; -3.9366510E-02;  0.0000000E+00;  1.1449913E-03;  2.7453066E+03;
  8.4141248E-01;  9.9999998E-03;  2.8117114E-01;7384;  1.7517211E-02;  0.0000000E+00; -1.0572877E-02;  9.9658636E+02;  1.6597487E-01; -2.8281160E+03;3; -5.7885199E+00;  0.0000000E+00;  2.6374540E+00;0; -5.7544261E-02;  1.4517072E+04;  0.0000000E+00;  1.3115749E+00;  4.0000000E+04;  0.0000000E+00;  3.9689961E+04; -8.4888242E-02;  0.0000000E+00;  2.7343983E-02;  5.0664688E+03;
  8.4164459E-01;  9.9999998E-03;  2.9120818E-01;7385;  1.7410623E-02;  0.0000000E+00; -9.6168816E-03;  9.9613416E+02;  1.6607612E-01; -3.2027720E+03;3; -5.9667959E+00;  0.0000000E+00;  2.4181178E+00;0; -5.2326407E-02;  1.4489084E+04;  0.0000000E+00;  8.0238986E-01;  4.0000000E+04;  0.0000000E+00;  3.9690840E+04; -9.1546178E-02;  0.0000000E+00;  3.9219771E-02;  6.4734268E+03;
  8.4176254E-01;  9.9999998E-03;  3.0124578E-01;7386;  1.7500522E-02;  0.0000000E+00; -8.8444045E-03;  9.9564264E+02;  1.6614172E-01; -3.6099700E+03;3; -6.0977917E+00;  0.0000000E+00;  1.8740739E+00;0; -4.9160924E-02;  1.4467959E+04;  0.0000000E+00;  4.7517154E-01;  4.0000000E+04;  0.0000000E+00;  3.9691648E+04; -9.7220719E-02;  0.0000000E+00;  4.8059795E-02;  8.2128262E+03;
  8.4120375E-01;  9.9999998E-03;  2.7113500E-01;7383;  1.7691081E-02;  0.0000000E+00; -1.1338988E-02;  9.9701038E+02;  1.6589250E-01; -2.4768669E+03;3; -5.5465350E+00;  0.0000000E+00;  2.4993374E+00;0; -5.8059569E-02;  1.4542394E+04;  0.0000000E+00;  1.7302824E+00;  4.0000000E+04;  0.0000000E+00;  3.9689102E+04; -7.7350564E-02;  0.0000000E+00;  1.9290995E-02;  5.3405391E+03;
  8.4128165E-01;  9.9999998E-03;  2.6109952E-01;7382;  1.7871659E-02;  0.0000000E+00; -1.1887610E-02;  9.9741010E+02;  1.6592358E-01; -2.1456665E+03;3; -5.2532010E+00;  0.0000000E+00;  2.2256441E+00;0; -5.4557793E-02;  1.4546783E+04;  0.0000000E+00;  1.8460597E+00;  4.0000000E+04;  0.0000000E+00;  3.9687684E+04; -6.9096476E-02;  0.0000000E+00;  1.4538681E-02;  6.1715723E+03;
  8.4140265E-01;  9.9999998E-03;  2.5106558E-01;7381;  1.8081525E-02;  0.0000000E+00; -1.2420882E-02;  9.9775519E+02;  1.6597597E-01; -1.8597982E+03;3; -4.8938713E+00;  0.0000000E+00;  2.0404832E+00;0; -4.9794376E-02;  1.4547368E+04;  0.0000000E+00;  1.6007055E+00;  4.0000000E+04;  0.0000000E+00;  3.9683492E+04; -5.9822075E-02;  0.0000000E+00;  1.0027699E-02;  6.0439419E+03;
  8.4137154E-01;  9.9999998E-03;  2.4103917E-01;7380;  1.8334258E-02;  0.0000000E+00; -1.2804545E-02;  9.9801849E+02;  1.6597672E-01; -1.6416317E+03;3; -4.5102887E+00;  0.0000000E+00;  1.8364069E+00;0; -4.3120068E-02;  1.4556413E+04;  0.0000000E+00;  1.1490757E+00;  4.0000000E+04;  0.0000000E+00;  3.9675641E+04; -4.9360108E-02;  0.0000000E+00;  6.2400391E-03;  4.9383643E+03;
  8.5776818E-01;  9.9999998E-03;  2.4113588E-01;7441;  1.7001171E-02;  0.0000000E+00; -1.3322876E-02;  9.9760797E+02;  1.7342511E-01; -1.9817697E+03;3; -4.9504271E+00;  0.0000000E+00;  2.2842405E+00;0; -4.6214763E-02;  1.3345746E+04;  0.0000000E+00;  6.3561678E-01;  4.0000000E+04;  0.0000000E+00;  3.9648305E+04; -5.8281213E-02;  0.0000000E+00;  1.2066451E-02;  4.5800615E+03;
  8.5766971E-01;  9.9999998E-03;  2.5116420E-01;7442;  1.6489500E-02;  0.0000000E+00; -1.2740030E-02;  9.9730756E+02;  1.7338765E-01; -2.2306514E+03;3; -5.3443408E+00;  0.0000000E+00;  2.4475572E+00;0; -5.4235235E-02;  1.3343438E+04;  0.0000000E+00;  1.1358604E+00;  4.0000000E+04;  0.0000000E+00;  3.9657750E+04; -7.0695087E-02;  0.0000000E+00;  1.6459854E-02;  5.6880283E+03;
  8.5763729E-01;  9.9999998E-03;  2.6119950E-01;7443;  1.5977891E-02;  0.0000000E+00; -1.1819541E-02;  9.9691125E+02;  1.7338786E-01; -2.5589873E+03;3; -5.6759405E+00;  0.0000000E+00;  2.5386608E+00;0; -5.8085263E-02;  1.3334601E+04;  0.0000000E+00;  1.2570477E+00;  4.0000000E+04;  0.0000000E+00;  3.9664344E+04; -8.1792288E-02;  0.0000000E+00;  2.3707027E-02;  5.8184336E+03;
  8.5781640E-01;  9.9999998E-03;  2.7123934E-01;7444;  1.5488924E-02;  0.0000000E+00; -1.0845415E-02;  9.9642505E+02;  1.7348528E-01; -2.9617905E+03;3; -5.9492946E+00;  0.0000000E+00;  2.5408218E+00;0; -5.8622930E-02;  1.3309766E+04;  0.0000000E+00;  8.4825695E-01;  4.0000000E+04;  0.0000000E+00;  3.9666695E+04; -9.1756478E-02;  0.0000000E+00;  3.3133548E-02;  6.3021968E+03;
  8.5803682E-01;  9.9999998E-03;  2.8127944E-01;7445;  1.5073620E-02;  0.0000000E+00; -9.8568024E-03;  9.9591748E+02;  1.7360252E-01; -3.3822722E+03;3; -6.1273670E+00;  0.0000000E+00;  2.2731822E+00;0; -5.6251097E-02;  1.3281404E+04;  0.0000000E+00;  1.8610653E-02;  4.0000000E+04;  0.0000000E+00;  3.9667336E+04; -1.0054245E-01;  0.0000000E+00;  4.4291351E-02;  9.7646543E+03;
  8.5806000E-01;  9.9999998E-03;  2.9131901E-01;7446;  1.4812362E-02;  0.0000000E+00; -8.9084962E-03;  9.9541052E+02;  1.7363419E-01; -3.8023093E+03;3; -6.2612562E+00;  0.0000000E+00;  1.8923038E+00;0; -5.2607898E-02;  1.3267134E+04;  0.0000000E+00; -1.2310987E+00;  4.0000000E+04;  0.0000000E+00;  3.9667422E+04; -1.0798986E-01;  0.0000000E+00;  5.5381957E-02;  1.5716945E+04;
  8.5800469E-01;  9.9999998E-03;  3.0135870E-01;7447;  1.4793470E-02;  0.0000000E+00; -8.3050774E-03;  9.9488843E+02;  1.7362760E-01; -4.2348398E+03;3; -6.3554635E+00;  0.0000000E+00;  1.1551616E+00;0; -5.4347076E-02;  1.3259302E+04;  0.0000000E+00; -2.5609307E+00;  4.0000000E+04;  0.0000000E+00;  3.9667871E+04; -1.1423790E-01;  0.0000000E+00;  5.9890822E-02;  2.1942906E+04;
  8.7620276E-01;  9.9999998E-03;  2.4127302E-01;7502;  1.5246231E-02;  0.0000000E+00; -1.3916123E-02;  9.9775323E+02;  1.8215933E-01; -1.8613778E+03;3; -5.4548678E+00;  0.0000000E+00;  2.9080257E+00;0; -5.0066881E-02;  1.2129590E+04;  0.0000000E+00; -3.3547023E-01;  4.0000000E+04;  0.0000000E+00;  3.9605648E+04; -6.7658328E-02;  0.0000000E+00;  1.7591445E-02;  2.4503066E+03;
  8.7602413E-01;  9.9999998E-03;  2.5129482E-01;7503;  1.4395151E-02;  0.0000000E+00; -1.3115493E-02;  9.9743805E+02;  1.8209061E-01; -2.1225059E+03;3; -5.7634187E+00;  0.0000000E+00;  3.0265527E+00;0; -6.0306497E-02;  1.2132543E+04;  0.0000000E+00;  9.8090418E-02;  4.0000000E+04;  0.0000000E+00;  3.9617832E+04; -8.2115091E-02;  0.0000000E+00;  2.1808593E-02;  3.9604504E+03;
  8.7625909E-01;  9.9999998E-03;  2.6132786E-01;7504;  1.3470569E-02;  0.0000000E+00; -1.1641271E-02;  9.9702936E+02;  1.8223831E-01; -2.4611133E+03;3; -6.0677862E+00;  0.0000000E+00;  2.9157331E+00;0; -6.2868588E-02;  1.2105943E+04;  0.0000000E+00;  1.9441500E-01;  4.0000000E+04;  0.0000000E+00;  3.9627773E+04; -9.5202751E-02;  0.0000000E+00;  3.2334164E-02;  5.5534194E+03;
  8.7666386E-01;  9.9999998E-03;  2.7136996E-01;7505;  1.2625248E-02;  0.0000000E+00; -1.0147335E-02;  9.9652710E+02;  1.8247744E-01; -2.8772493E+03;3; -6.2869639E+00;  0.0000000E+00;  2.5809252E+00;0; -6.0116056E-02;  1.2066435E+04;  0.0000000E+00;  8.2857190E-03;  4.0000000E+04;  0.0000000E+00;  3.9630824E+04; -1.0685661E-01;  0.0000000E+00;  4.6740558E-02;  7.8294224E+03;
  8.7673795E-01;  9.9999998E-03;  2.8141224E-01;7506;  1.1975949E-02;  0.0000000E+00; -9.0259612E-03;  9.9602094E+02;  1.8255147E-01; -3.2965952E+03;3; -6.4169931E+00;  0.0000000E+00;  1.9497520E+00;0; -5.7581346E-02;  1.2048623E+04;  0.0000000E+00; -6.0368925E-01;  4.0000000E+04;  0.0000000E+00;  3.9630668E+04; -1.1676570E-01;  0.0000000E+00;  5.9184354E-02;  1.2198393E+04;
  8.7658578E-01;  9.9999998E-03;  2.9145378E-01;7507;  1.1541995E-02;  0.0000000E+00; -8.2582962E-03;  9.9550385E+02;  1.8250178E-01; -3.7249778E+03;3; -6.5742636E+00;  0.0000000E+00;  1.4155328E+00;0; -5.8884308E-02;  1.2047211E+04;  0.0000000E+00; -1.7765021E+00;  4.0000000E+04;  0.0000000E+00;  3.9630301E+04; -1.2506989E-01;  0.0000000E+00;  6.6185579E-02;  1.8869006E+04;
  8.7634408E-01;  9.9999998E-03;  3.0149490E-01;7508;  1.1268540E-02;  0.0000000E+00; -7.5087566E-03;  9.9497034E+02;  1.8238860E-01; -4.1669893E+03;3; -6.6622624E+00;  0.0000000E+00;  9.7590399E-01;0; -6.0802519E-02;  1.2054066E+04;  0.0000000E+00; -3.2427869E+00;  4.0000000E+04;  0.0000000E+00;  3.9631285E+04; -1.3202751E-01;  0.0000000E+00;  7.1224988E-02;  2.6025312E+04;
  8.9470315E-01;  9.9999998E-03;  2.4142008E-01;7563;  1.3377747E-02;  0.0000000E+00; -1.4309282E-02;  9.9844537E+02;  1.9141826E-01; -1.2879619E+03;3; -5.9660592E+00;  0.0000000E+00;  3.4027801E+00;0; -5.7212796E-02;  1.1025146E+04;  0.0000000E+00; -5.7428253E-01;  4.0000000E+04;  0.0000000E+00;  3.9555410E+04; -7.8617729E-02;  0.0000000E+00;  2.1404933E-02;  3.7638382E+02;
  8.9465207E-01;  9.9999998E-03;  2.5144342E-01;7564;  1.2114039E-02;  0.0000000E+00; -1.3646530E-02;  9.9815784E+02;  1.9143362E-01; -1.5261771E+03;3; -6.2382941E+00;  0.0000000E+00;  3.6106205E+00;0; -7.2357967E-02;  1.1021131E+04;  0.0000000E+00; -3.6259979E-01;  4.0000000E+04;  0.0000000E+00;  3.9564852E+04; -9.4642475E-02;  0.0000000E+00;  2.2284511E-02;  1.7900343E+03;
  8.9517373E-01;  9.9999998E-03;  2.6147044E-01;7565;  1.0768413E-02;  0.0000000E+00; -1.1875547E-02;  9.9780792E+02;  1.9173275E-01; -1.8160945E+03;3; -6.4336257E+00;  0.0000000E+00;  3.5320473E+00;0; -7.7383235E-02;  1.0982276E+04;  0.0000000E+00; -4.5028809E-01;  4.0000000E+04;  0.0000000E+00;  3.9577020E+04; -1.0923241E-01;  0.0000000E+00;  3.1849176E-02;  4.7042979E+03;
  8.9563793E-01;  9.9999998E-03;  2.7150807E-01;7566;  9.5808823E-03;  0.0000000E+00; -9.6457321E-03;  9.9738531E+02;  1.9199170E-01; -2.1662075E+03;3; -6.5677867E+00;  0.0000000E+00;  2.9219368E+00;0; -7.0764415E-02;  1.0946735E+04;  0.0000000E+00; -8.0118036E-01;  4.0000000E+04;  0.0000000E+00;  3.9583590E+04; -1.2201082E-01;  0.0000000E+00;  5.1246405E-02;  8.6609512E+03;
  8.9585531E-01;  9.9999998E-03;  2.8155214E-01;7567;  8.6640865E-03;  0.0000000E+00; -8.1136804E-03;  9.9690210E+02;  1.9212654E-01; -2.5665415E+03;3; -6.7340617E+00;  0.0000000E+00;  1.9931275E+00;0; -6.5478764E-02;  1.0925188E+04;  0.0000000E+00; -1.4860512E+00;  4.0000000E+04;  0.0000000E+00;  3.9584020E+04; -1.3290410E-01;  0.0000000E+00;  6.7425333E-02;  1.4146118E+04;
  8.9574271E-01;  9.9999998E-03;  2.9159671E-01;7568;  7.9656718E-03;  0.0000000E+00; -7.1033030E-03;  9.9641217E+02;  1.9208689E-01; -2.9724553E+03;3; -6.8955321E+00;  0.0000000E+00;  1.1359713E+00;0; -6.5064229E-02;  1.0923670E+04;  0.0000000E+00; -2.6689215E+00;  4.0000000E+04;  0.0000000E+00;  3.9583094E+04; -1.4199691E-01;  0.0000000E+00;  7.6932676E-02;  2.1698102E+04;
  8.9547879E-01;  9.9999998E-03;  3.0164129E-01;7569;  7.4365167E-03;  0.0000000E+00; -6.3289967E-03;  9.9592389E+02;  1.9194460E-01; -3.3769866E+03;3; -7.1545038E+00;  0.0000000E+00;  7.5886697E-01;0; -6.8789914E-02;  1.0933797E+04;  0.0000000E+00; -4.1405382E+00;  4.0000000E+04;  0.0000000E+00;  3.9583594E+04; -1.4959355E-01;  0.0000000E+00;  8.0803633E-02;  2.9711191E+04;
  9.1532922E-01;  9.9999998E-03;  2.4156199E-01;7624;  1.1256048E-02;  0.0000000E+00; -1.3881343E-02;  9.9864575E+02;  2.0196773E-01; -1.1219911E+03;3; -6.6282454E+00;  0.0000000E+00;  3.9336543E+00;0; -7.1220383E-02;  9.9247822E+03;  0.0000000E+00; -6.5925997E-01;  4.0000000E+04;  0.0000000E+00;  3.9504547E+04; -9.5619254E-02;  0.0000000E+00;  2.4398867E-02;  1.3345654E+03;
  9.1536248E-01;  9.9999998E-03;  2.5159529E-01;7625;  9.5537733E-03;  0.0000000E+00; -1.3729753E-02;  9.9830908E+02;  2.0204045E-01; -1.4008964E+03;3; -6.7957578E+00;  0.0000000E+00;  3.9782431E+00;0; -9.3445949E-02;  9.9168232E+03;  0.0000000E+00; -5.7626235E-01;  4.0000000E+04;  0.0000000E+00;  3.9507855E+04; -1.1230489E-01;  0.0000000E+00;  1.8858938E-02;  1.2877039E+03;
  9.1575545E-01;  9.9999998E-03;  2.6162121E-01;7626;  7.8669274E-03;  0.0000000E+00; -1.2723767E-02;  9.9798938E+02;  2.0229699E-01; -1.6657773E+03;3; -6.9390087E+00;  0.0000000E+00;  4.0864515E+00;0; -1.1099378E-01;  9.8887002E+03;  0.0000000E+00; -6.1060619E-01;  4.0000000E+04;  0.0000000E+00;  3.9518023E+04; -1.2735926E-01;  0.0000000E+00;  1.6365478E-02;  2.3663181E+03;
  9.1616732E-01;  9.9999998E-03;  2.7165008E-01;7627;  6.2729516E-03;  0.0000000E+00; -1.0491135E-02;  9.9767603E+02;  2.0254871E-01; -1.9253744E+03;3; -7.0615540E+00;  0.0000000E+00;  3.9421518E+00;0; -1.1264517E-01;  9.8592373E+03;  0.0000000E+00; -7.5168276E-01;  4.0000000E+04;  0.0000000E+00;  3.9530832E+04; -1.4059712E-01;  0.0000000E+00;  2.7951950E-02;  4.7943813E+03;
  9.1640621E-01;  9.9999998E-03;  2.8168988E-01;7628;  4.9103755E-03;  0.0000000E+00; -7.5690094E-03;  9.9728809E+02;  2.0270887E-01; -2.2467476E+03;3; -7.1808739E+00;  0.0000000E+00;  3.3178015E+00;0; -9.5489666E-02;  9.8382441E+03;  0.0000000E+00; -9.4932854E-01;  4.0000000E+04;  0.0000000E+00;  3.9538375E+04; -1.5196303E-01;  0.0000000E+00;  5.6473359E-02;  7.2668838E+03;
  9.1633648E-01;  9.9999998E-03;  2.9173672E-01;7629;  3.8360292E-03;  0.0000000E+00; -5.1894533E-03;  9.9683453E+02;  2.0270400E-01; -2.6225388E+03;3; -7.4485431E+00;  0.0000000E+00;  1.9450814E+00;0; -7.6308787E-02;  9.8335762E+03;  0.0000000E+00; -1.2167507E+00;  4.0000000E+04;  0.0000000E+00;  3.9539996E+04; -1.6146444E-01;  0.0000000E+00;  8.5155651E-02;  9.7650850E+03;
  9.1608822E-01;  9.9999998E-03;  3.0178663E-01;7630;  2.9049634E-03;  0.0000000E+00; -3.8658592E-03;  9.9637891E+02;  2.0259346E-01; -3.0000090E+03;3; -7.7346439E+00;  0.0000000E+00;  3.5808596E-01;0; -7.1321301E-02;  9.8396641E+03;  0.0000000E+00; -1.5435801E+00;  4.0000000E+04;  0.0000000E+00;  3.9539820E+04; -1.6942109E-01;  0.0000000E+00;  9.8099791E-02;  1.2338106E+04;
  9.3767732E-01;  9.9999998E-03;  2.4167550E-01;7685;  8.6885411E-03;  0.0000000E+00; -1.1295316E-02;  9.9870276E+02;  2.1391062E-01; -1.0747325E+03;3; -7.2657566E+00;  0.0000000E+00;  3.8502815E+00;0; -9.2409499E-02;  8.8588477E+03;  0.0000000E+00; -5.4119557E-01;  4.0000000E+04;  0.0000000E+00;  3.9460809E+04; -1.2197928E-01;  0.0000000E+00;  2.9569784E-02;  1.5809480E+03;
  9.3749577E-01;  9.9999998E-03;  2.5172564E-01;7686;  6.5592621E-03;  0.0000000E+00; -1.1594929E-02;  9.9819824E+02;  2.1386151E-01; -1.4926951E+03;3; -7.3638678E+00;  0.0000000E+00;  3.8941188E+00;0; -1.1844113E-01;  8.8607871E+03;  0.0000000E+00; -7.1396863E-01;  4.0000000E+04;  0.0000000E+00;  3.9456629E+04; -1.3789745E-01;  0.0000000E+00;  1.9456310E-02;  2.2360330E+03;
  9.3782771E-01;  9.9999998E-03;  2.6176754E-01;7687;  4.4638678E-03;  0.0000000E+00; -1.1947027E-02;  9.9770874E+02;  2.1408747E-01; -1.8982628E+03;3; -7.4957433E+00;  0.0000000E+00;  4.0111222E+00;0; -1.5119497E-01;  8.8383174E+03;  0.0000000E+00; -7.4845535E-01;  4.0000000E+04;  0.0000000E+00;  3.9455027E+04; -1.5263887E-01;  0.0000000E+00;  1.4438936E-03;  2.1557317E+03;
  9.3832469E-01;  9.9999998E-03;  2.7179936E-01;7688;  2.4867016E-03;  0.0000000E+00; -1.1448001E-02;  9.9733032E+02;  2.1439707E-01; -2.2117842E+03;3; -7.5793591E+00;  0.0000000E+00;  4.2271905E+00;0; -1.8058911E-01;  8.8076592E+03;  0.0000000E+00; -5.5675346E-01;  4.0000000E+04;  0.0000000E+00;  3.9464898E+04; -1.6583794E-01;  0.0000000E+00; -1.4751166E-02;  2.3861748E+03;
  9.3867576E-01;  9.9999998E-03;  2.8183523E-01;7689;  7.7190291E-04;  0.0000000E+00; -9.6312799E-03;  9.9695251E+02;  2.1462885E-01; -2.5247620E+03;3; -7.7797399E+00;  0.0000000E+00;  4.9072032E+00;0; -1.9115303E-01;  8.7826270E+03;  0.0000000E+00;  8.6733438E-02;  4.0000000E+04;  0.0000000E+00;  3.9478387E+04; -1.7726031E-01;  0.0000000E+00; -1.3892720E-02;  7.5806104E+03;
  9.3884718E-01;  9.9999998E-03;  2.9188001E-01;7690; -6.3529576E-04;  0.0000000E+00; -6.8920935E-03;  9.9653760E+02;  2.1475263E-01; -2.8685046E+03;3; -8.0411482E+00;  0.0000000E+00;  5.2536802E+00;0; -1.7823592E-01;  8.7664258E+03;  0.0000000E+00;  1.2884864E+00;  4.0000000E+04;  0.0000000E+00;  3.9489652E+04; -1.8702404E-01;  0.0000000E+00;  8.7881237E-03;  1.5817502E+04;
  9.3896383E-01;  9.9999998E-03;  3.0193308E-01;7691; -1.7094628E-03;  0.0000000E+00; -3.8361086E-03;  9.9610657E+02;  2.1482520E-01; -3.2256294E+03;3; -8.5082312E+00;  0.0000000E+00;  5.1251793E+00;0; -1.5062581E-01;  8.7554756E+03;  0.0000000E+00;  2.8304157E+00;  4.0000000E+04;  0.0000000E+00;  3.9495531E+04; -1.9546926E-01;  0.0000000E+00;  4.4843450E-02;  2.5213666E+04;
  9.6127284E-01;  9.9999998E-03;  2.4171658E-01;7746;  5.4626921E-03;  0.0000000E+00; -5.6983423E-03;  9.9887860E+02;  2.2721845E-01; -9.2905701E+02;3; -8.0691090E+00;  0.0000000E+00;  3.5110233E+00;0; -1.1904828E-01;  7.8560840E+03;  0.0000000E+00; -1.3770007E-01;  4.0000000E+04;  0.0000000E+00;  3.9438930E+04; -1.5710719E-01;  0.0000000E+00;  3.8058907E-02;  1.4200858E+03;
  9.6103030E-01;  9.9999998E-03;  2.5177994E-01;7747;  2.8659389E-03;  0.0000000E+00; -5.3295242E-03;  9.9828967E+02;  2.2713795E-01; -1.4169922E+03;3; -8.1211243E+00;  0.0000000E+00;  3.6895802E+00;0; -1.3797711E-01;  7.8572964E+03;  0.0000000E+00; -7.1825421E-01;  4.0000000E+04;  0.0000000E+00;  3.9439012E+04; -1.7183009E-01;  0.0000000E+00;  3.3852976E-02;  1.5204021E+03;
  9.6130276E-01;  9.9999998E-03;  2.6185080E-01;7748;  2.7582468E-04;  0.0000000E+00; -5.6856787E-03;  9.9760480E+02;  2.2734492E-01; -1.9843816E+03;3; -8.1985455E+00;  0.0000000E+00;  3.8409216E+00;0; -1.6690677E-01;  7.8376587E+03;  0.0000000E+00; -9.5890743E-01;  4.0000000E+04;  0.0000000E+00;  3.9430723E+04; -1.8577673E-01;  0.0000000E+00;  1.8869953E-02;  1.3206713E+03;
  9.6191055E-01;  9.9999998E-03;  2.7190834E-01;7749; -2.2403232E-03;  0.0000000E+00; -5.6843366E-03;  9.9707281E+02;  2.2774169E-01; -2.4251084E+03;3; -8.3183670E+00;  0.0000000E+00;  4.1468439E+00;0; -1.9920036E-01;  7.8054575E+03;  0.0000000E+00; -6.9575274E-01;  4.0000000E+04;  0.0000000E+00;  3.9428969E+04; -1.9867085E-01;  0.0000000E+00; -5.2951986E-04;  8.1236670E+03;
  9.6246409E-01;  9.9999998E-03;  2.8196049E-01;7750; -4.4755726E-03;  0.0000000E+00; -4.5789969E-03;  9.9663794E+02;  2.2809939E-01; -2.7853933E+03;3; -8.4747629E+00;  0.0000000E+00;  4.9277115E+00;0; -2.1919525E-01;  7.7757778E+03;  0.0000000E+00;  2.7861181E-01;  4.0000000E+04;  0.0000000E+00;  3.9435719E+04; -2.1010494E-01;  0.0000000E+00; -9.0903081E-03;  2.0740506E+04;
  9.6305412E-01;  9.9999998E-03;  2.9201797E-01;7751; -6.2240632E-03;  0.0000000E+00; -2.1344637E-03;  9.9624512E+02;  2.2846353E-01; -3.1108147E+03;3; -8.6563692E+00;  0.0000000E+00;  5.6692648E+00;0; -2.1375240E-01;  7.7469336E+03;  0.0000000E+00;  1.8577180E+00;  4.0000000E+04;  0.0000000E+00;  3.9442887E+04; -2.2050357E-01;  0.0000000E+00;  6.7511639E-03;  3.7374953E+04;
  9.6371937E-01;  9.9999998E-03;  3.0208382E-01;7752; -7.1693808E-03;  0.0000000E+00;  6.1173347E-04;  9.9591718E+02;  2.2882907E-01; -3.3825098E+03;3; -8.8772011E+00;  0.0000000E+00;  5.6616387E+00;0; -1.9590272E-01;  7.7202939E+03;  0.0000000E+00;  3.4094205E+00;  4.0000000E+04;  0.0000000E+00;  3.9444570E+04; -2.3037174E-01;  0.0000000E+00;  3.4469027E-02;  5.2722070E+04;
  9.8503333E-01;  9.9999998E-03;  2.4176529E-01;7807;  1.1334996E-03;  0.0000000E+00;  5.0772977E-04;  9.9839124E+02;  2.4114768E-01; -1.3328448E+03;3; -9.0003653E+00;  0.0000000E+00;  2.7964866E+00;0; -1.5604906E-01;  6.9696543E+03;  0.0000000E+00;  3.4270799E-01;  4.0000000E+04;  0.0000000E+00;  3.9413383E+04; -1.9224142E-01;  0.0000000E+00;  3.6192358E-02;  3.7373296E+03;
  9.8512232E-01;  9.9999998E-03;  2.5182858E-01;7808; -1.9082000E-03;  0.0000000E+00;  2.1971299E-03;  9.9793292E+02;  2.4127667E-01; -1.7125360E+03;3; -9.0428343E+00;  0.0000000E+00;  3.3323624E+00;0; -1.6660154E-01;  6.9576118E+03;  0.0000000E+00; -5.5210775E-01;  4.0000000E+04;  0.0000000E+00;  3.9424355E+04; -2.0676641E-01;  0.0000000E+00;  4.0164880E-02;  5.4274287E+03;
  9.8549443E-01;  9.9999998E-03;  2.6191869E-01;7809; -4.9499329E-03;  0.0000000E+00;  3.2171200E-03;  9.9726007E+02;  2.4156928E-01; -2.2699497E+03;3; -9.1218414E+00;  0.0000000E+00;  3.7812135E+00;0; -1.8021715E-01;  6.9355195E+03;  0.0000000E+00; -1.1874002E+00;  4.0000000E+04;  0.0000000E+00;  3.9418621E+04; -2.2042359E-01;  0.0000000E+00;  4.0206444E-02;  4.6288633E+03;
  9.8626089E-01;  9.9999998E-03;  2.7200404E-01;7810; -8.0170892E-03;  0.0000000E+00;  3.6995811E-03;  9.9666571E+02;  2.4210130E-01; -2.7623774E+03;3; -9.2168169E+00;  0.0000000E+00;  4.1903725E+00;0; -2.0103860E-01;  6.9011040E+03;  0.0000000E+00; -1.2814558E+00;  4.0000000E+04;  0.0000000E+00;  3.9409234E+04; -2.3324750E-01;  0.0000000E+00;  3.2208905E-02;  9.7896650E+03;
  9.8695576E-01;  9.9999998E-03;  2.8207847E-01;7811; -1.0816145E-02;  0.0000000E+00;  4.8284559E-03;  9.9619391E+02;  2.4258113E-01; -3.1532781E+03;3; -9.2928629E+00;  0.0000000E+00;  4.6924047E+00;0; -2.1431947E-01;  6.8704204E+03;  0.0000000E+00; -6.2425441E-01;  4.0000000E+04;  0.0000000E+00;  3.9405695E+04; -2.4476928E-01;  0.0000000E+00;  3.0449808E-02;  2.5511398E+04;
  9.8779017E-01;  9.9999998E-03;  2.9215312E-01;7812; -1.3075124E-02;  0.0000000E+00;  7.0879045E-03;  9.9579047E+02;  2.4313775E-01; -3.4874890E+03;3; -9.3470097E+00;  0.0000000E+00;  5.0151949E+00;0; -2.0814349E-01;  6.8366587E+03;  0.0000000E+00;  5.9723014E-01;  4.0000000E+04;  0.0000000E+00;  3.9404238E+04; -2.5563625E-01;  0.0000000E+00;  4.7492757E-02;  4.6345875E+04;
  9.8869932E-01;  9.9999998E-03;  3.0223224E-01;7813; -1.4169818E-02;  0.0000000E+00;  9.5738275E-03;  9.9541296E+02;  2.4371128E-01; -3.8002683E+03;3; -9.4642096E+00;  0.0000000E+00;  4.9751010E+00;0; -1.9466707E-01;  6.8038921E+03;  0.0000000E+00;  1.8477017E+00;  4.0000000E+04;  0.0000000E+00;  3.9400562E+04; -2.6653546E-01;  0.0000000E+00;  7.1868397E-02;  6.6067742E+04;
  1.0098128E+00;  9.9999998E-03;  2.4188247E-01;7868; -4.9279737E-03;  0.0000000E+00;  8.0337552E-03;  9.9668536E+02;  2.5619632E-01; -2.7460764E+03;3; -9.9213009E+00;  0.0000000E+00;  2.4311614E+00;0; -1.8007350E-01;  6.1583315E+03;  0.0000000E+00;  4.7479928E-01;  4.0000000E+04;  0.0000000E+00;  3.9372730E+04; -2.0240870E-01;  0.0000000E+00;  2.2335209E-02;  4.4574580E+03;
  1.0101792E+00;  9.9999998E-03;  2.5193503E-01;7869; -8.6343549E-03;  0.0000000E+00;  9.8137558E-03;  9.9638373E+02;  2.5652236E-01; -2.9959932E+03;3; -9.9829426E+00;  0.0000000E+00;  2.9001274E+00;0; -1.9106786E-01;  6.1384204E+03;  0.0000000E+00; -4.3370530E-01;  4.0000000E+04;  0.0000000E+00;  3.9393910E+04; -2.1666716E-01;  0.0000000E+00;  2.5599301E-02;  7.6682354E+03;
  1.0105854E+00;  9.9999998E-03;  2.6202044E-01;7870; -1.2219324E-02;  0.0000000E+00;  1.2039646E-02;  9.9589832E+02;  2.5687274E-01; -3.3981519E+03;3; -1.0005987E+01;  0.0000000E+00;  3.4997416E+00;0; -1.9387567E-01;  6.1173398E+03;  0.0000000E+00; -1.3359326E+00;  4.0000000E+04;  0.0000000E+00;  3.9402082E+04; -2.2997761E-01;  0.0000000E+00;  3.6101934E-02;  8.6568633E+03;
  1.0111847E+00;  9.9999998E-03;  2.7211842E-01;7871; -1.5733218E-02;  0.0000000E+00;  1.3614752E-02;  9.9528046E+02;  2.5734261E-01; -3.9100349E+03;3; -1.0031866E+01;  0.0000000E+00;  3.8298676E+00;0; -1.9688942E-01;  6.0908804E+03;  0.0000000E+00; -1.9123713E+00;  4.0000000E+04;  0.0000000E+00;  3.9394832E+04; -2.4199113E-01;  0.0000000E+00;  4.5101721E-02;  9.1913711E+03;
  1.0117651E+00;  9.9999998E-03;  2.8220755E-01;7872; -1.9038433E-02;  0.0000000E+00;  1.5104692E-02;  9.9470013E+02;  2.5780311E-01; -4.3908071E+03;3; -1.0039707E+01;  0.0000000E+00;  4.1955943E+00;0; -1.9700928E-01;  6.0656699E+03;  0.0000000E+00; -1.8474556E+00;  4.0000000E+04;  0.0000000E+00;  3.9386863E+04; -2.5313774E-01;  0.0000000E+00;  5.6128457E-02;  1.9848521E+04;
  1.0125937E+00;  9.9999998E-03;  2.9229435E-01;7873; -2.2037892E-02;  0.0000000E+00;  1.7020484E-02;  9.9414813E+02;  2.5844204E-01; -4.8481245E+03;3; -1.0043366E+01;  0.0000000E+00;  4.4661498E+00;0; -1.8863380E-01;  6.0329136E+03;  0.0000000E+00; -1.2153127E+00;  4.0000000E+04;  0.0000000E+00;  3.9380723E+04; -2.6308689E-01;  0.0000000E+00;  7.4453078E-02;  3.7824055E+04;
  1.0134469E+00;  9.9999998E-03;  3.0238038E-01;7874; -2.4219969E-02;  0.0000000E+00;  1.9021310E-02;  9.9355933E+02;  2.5911123E-01; -5.3359580E+03;3; -1.0027982E+01;  0.0000000E+00;  4.6021237E+00;0; -1.7764704E-01;  5.9996431E+03;  0.0000000E+00; -1.5722436E-01;  4.0000000E+04;  0.0000000E+00;  3.9376809E+04; -2.7272880E-01;  0.0000000E+00;  9.5081761E-02;  5.7841617E+04;
  1.0350025E+00;  9.9999998E-03;  2.4207923E-01;7929; -1.2217471E-02;  0.0000000E+00;  1.7592926E-02;  9.9427899E+02;  2.7186412E-01; -4.7397197E+03;3; -1.0763641E+01;  0.0000000E+00;  2.4885545E+00;0; -4.6379264E-02;  5.4497139E+03;  0.0000000E+00; -4.2953926E-01;  4.0000000E+04;  0.0000000E+00;  3.9319008E+04; -4.5229647E-02;  0.0000000E+00; -1.1496164E-03;  3.6448730E+03;
  1.0355314E+00;  9.9999998E-03;  2.5212330E-01;7930; -1.6822804E-02;  0.0000000E+00;  1.8355574E-02;  9.9396771E+02;  2.7232853E-01; -4.9975854E+03;3; -1.0837420E+01;  0.0000000E+00;  2.6831369E+00;0; -5.6689959E-02;  5.4269229E+03;  0.0000000E+00; -9.0853041E-01;  4.0000000E+04;  0.0000000E+00;  3.9341785E+04; -5.1128581E-02;  0.0000000E+00; -5.5613793E-03;  6.8182598E+03;
  1.0358537E+00;  9.9999998E-03;  2.6218313E-01;7931; -2.1156734E-02;  0.0000000E+00;  2.0257268E-02;  9.9365094E+02;  2.7265745E-01; -5.2600444E+03;3; -1.0888355E+01;  0.0000000E+00;  3.0159395E+00;0; -5.8801156E-02;  5.4098315E+03;  0.0000000E+00; -1.5088905E+00;  4.0000000E+04;  0.0000000E+00;  3.9365867E+04; -5.9873968E-02;  0.0000000E+00;  1.0728129E-03;  1.0236579E+04;
  1.0359682E+00;  9.9999998E-03;  2.7226815E-01;7932; -2.5169155E-02;  0.0000000E+00;  2.1840638E-02;  9.9313330E+02;  2.7283758E-01; -5.6888677E+03;3; -1.0911864E+01;  0.0000000E+00;  3.3086925E+00;0; -5.9048630E-02;  5.3986621E+03;  0.0000000E+00; -2.0560436E+00;  4.0000000E+04;  0.0000000E+00;  3.9371711E+04; -7.1712315E-02;  0.0000000E+00;  1.2663685E-02;  1.0897120E+04;
  1.0361651E+00;  9.9999998E-03;  2.8235674E-01;7933; -2.8992085E-02;  0.0000000E+00;  2.3215747E-02;  9.9254633E+02;  2.7307823E-01; -6.1751694E+03;3; -1.0865820E+01;  0.0000000E+00;  3.8528373E+00;0; -5.5728938E-02;  5.3856079E+03;  0.0000000E+00; -2.3312027E+00;  4.0000000E+04;  0.0000000E+00;  3.9368129E+04; -8.2812928E-02;  0.0000000E+00;  2.7083989E-02;  1.0613713E+04;
  1.0365939E+00;  9.9999998E-03;  2.9244465E-01;7934; -3.2755606E-02;  0.0000000E+00;  2.4745727E-02;  9.9193127E+02;  2.7351120E-01; -6.6847300E+03;3; -1.0834540E+01;  0.0000000E+00;  4.3651357E+00;0; -4.4858426E-02;  5.3656147E+03;  0.0000000E+00; -2.2123206E+00;  4.0000000E+04;  0.0000000E+00;  3.9363336E+04; -9.1062278E-02;  0.0000000E+00;  4.6203852E-02;  1.3379601E+04;
  1.0371724E+00;  9.9999998E-03;  3.0253196E-01;7935; -3.6508519E-02;  0.0000000E+00;  2.6200820E-02;  9.9123596E+02;  2.7410153E-01; -7.2607568E+03;3; -1.0753574E+01;  0.0000000E+00;  4.8463311E+00;0; -3.3129014E-02;  5.3399546E+03;  0.0000000E+00; -1.6734258E+00;  4.0000000E+04;  0.0000000E+00;  3.9361508E+04; -9.7464547E-02;  0.0000000E+00;  6.4335532E-02;  1.9970787E+04;
  1.0610136E+00;  9.9999998E-03;  2.4233447E-01;7990; -1.9578833E-02;  0.0000000E+00;  3.0058704E-02;  9.9371857E+02;  2.8805196E-01; -5.2039731E+03;3; -1.1655974E+01;  0.0000000E+00;  2.8125710E+00;0;  4.6526474E-01;  4.8569565E+03;  0.0000000E+00; -2.0697715E+00;  4.0000000E+04;  0.0000000E+00;  3.9253516E+04;  4.9290040E-01;  0.0000000E+00; -2.7635662E-02;  2.3848228E+03;
  1.0614877E+00;  9.9999998E-03;  2.5237498E-01;7991; -2.4973487E-02;  0.0000000E+00;  2.9917413E-02;  9.9319800E+02;  2.8850442E-01; -5.6352627E+03;3; -1.1785803E+01;  0.0000000E+00;  2.8724949E+00;0;  4.6698406E-01;  4.8371157E+03;  0.0000000E+00; -2.0060155E+00;  4.0000000E+04;  0.0000000E+00;  3.9268824E+04;  5.0611812E-01;  0.0000000E+00; -3.9134059E-02;  3.2036934E+03;
  1.0620546E+00;  9.9999998E-03;  2.6241964E-01;7992; -3.0266544E-02;  0.0000000E+00;  3.0476928E-02;  9.9276575E+02;  2.8902966E-01; -5.9933701E+03;3; -1.1923360E+01;  0.0000000E+00;  3.0018201E+00;0;  4.7449571E-01;  4.8149487E+03;  0.0000000E+00; -1.9947010E+00;  4.0000000E+04;  0.0000000E+00;  3.9293074E+04;  5.2010006E-01;  0.0000000E+00; -4.5604344E-02;  7.3207769E+03;
  1.0624317E+00;  9.9999998E-03;  2.7248552E-01;7993; -3.5272878E-02;  0.0000000E+00;  3.1122519E-02;  9.9228119E+02;  2.8941235E-01; -6.3947837E+03;3; -1.2024093E+01;  0.0000000E+00;  3.1885664E+00;0;  4.8007178E-01;  4.7979180E+03;  0.0000000E+00; -2.0146701E+00;  4.0000000E+04;  0.0000000E+00;  3.9307969E+04;  5.2615702E-01;  0.0000000E+00; -4.6085250E-02;  1.2227793E+04;
  1.0625918E+00;  9.9999998E-03;  2.8256196E-01;7994; -3.9964817E-02;  0.0000000E+00;  3.1361029E-02;  9.9173242E+02;  2.8964487E-01; -6.8494307E+03;3; -1.2094620E+01;  0.0000000E+00;  3.5182045E+00;0;  4.7825125E-01;  4.7863164E+03;  0.0000000E+00; -2.0940115E+00;  4.0000000E+04;  0.0000000E+00;  3.9313035E+04;  5.2339149E-01;  0.0000000E+00; -4.5140225E-02;  1.8580195E+04;
  1.0625347E+00;  9.9999998E-03;  2.9264015E-01;7995; -4.4391885E-02;  0.0000000E+00;  3.1536344E-02;  9.9116016E+02;  2.8976721E-01; -7.3235337E+03;3; -1.2119633E+01;  0.0000000E+00;  4.0385809E+00;0;  4.7220689E-01;  4.7795166E+03;  0.0000000E+00; -2.2785139E+00;  4.0000000E+04;  0.0000000E+00;  3.9315484E+04;  5.1193738E-01;  0.0000000E+00; -3.9730493E-02;  2.7248951E+04;
  1.0623682E+00;  9.9999998E-03;  3.0271930E-01;7996; -4.8793115E-02;  0.0000000E+00;  3.1898931E-02;  9.9051843E+02;  2.8987026E-01; -7.8551650E+03;3; -1.2090736E+01;  0.0000000E+00;  4.6541724E+00;0;  4.6767858E-01;  4.7741611E+03;  0.0000000E+00; -2.5165691E+00;  4.0000000E+04;  0.0000000E+00;  3.9319457E+04;  4.9533841E-01;  0.0000000E+00; -2.7659830E-02;  3.7354281E+04;
  1.0910301E+00;  9.9999998E-03;  2.5267613E-01;8052; -3.1405631E-02;  0.0000000E+00;  4.5894939E-02;  9.9704926E+02;  3.0575845E-01; -2.4445654E+03;3; -1.3052364E+01;  0.0000000E+00;  3.5355282E+00;0;  1.6312621E+00;  4.3492305E+03;  0.0000000E+00; -3.3120778E+00;  4.0000000E+04;  0.0000000E+00;  3.9169785E+04;  1.6999005E+00;  0.0000000E+00; -6.8638504E-02;  4.0206267E+03;
  1.0904957E+00;  9.9999998E-03;  2.4262697E-01;8051; -2.5408845E-02;  0.0000000E+00;  4.6706952E-02;  9.9797815E+02;  3.0526397E-01; -1.6750250E+03;3; -1.2806057E+01;  0.0000000E+00;  3.5734465E+00;0;  1.5972260E+00;  4.3686748E+03;  0.0000000E+00; -3.3091588E+00;  4.0000000E+04;  0.0000000E+00;  3.9171488E+04;  1.6446575E+00;  0.0000000E+00; -4.7431510E-02;  4.2539912E+03;
  1.0916214E+00;  9.9999998E-03;  2.6271722E-01;8053; -3.7344955E-02;  0.0000000E+00;  4.5034435E-02;  9.9614185E+02;  3.0629215E-01; -3.1963284E+03;3; -1.3331388E+01;  0.0000000E+00;  3.5375896E+00;0;  1.6634837E+00;  4.3280591E+03;  0.0000000E+00; -3.1651590E+00;  4.0000000E+04;  0.0000000E+00;  3.9178297E+04;  1.7528747E+00;  0.0000000E+00; -8.9391030E-02;  5.9807383E+03;
  1.0918223E+00;  9.9999998E-03;  2.7276671E-01;8054; -4.3056045E-02;  0.0000000E+00;  4.3703478E-02;  9.9530402E+02;  3.0656123E-01; -3.8904651E+03;3; -1.3622234E+01;  0.0000000E+00;  3.6360319E+00;0;  1.6715755E+00;  4.3145947E+03;  0.0000000E+00; -2.7678766E+00;  4.0000000E+04;  0.0000000E+00;  3.9187719E+04;  1.7822078E+00;  0.0000000E+00; -1.1063230E-01;  1.0195115E+04;
  1.0918669E+00;  9.9999998E-03;  2.8282452E-01;8055; -4.8581485E-02;  0.0000000E+00;  4.2208482E-02;  9.9458148E+02;  3.0672631E-01; -4.4890513E+03;3; -1.3937174E+01;  0.0000000E+00;  3.8997347E+00;0;  1.6694041E+00;  4.3048740E+03;  0.0000000E+00; -2.2986114E+00;  4.0000000E+04;  0.0000000E+00;  3.9197254E+04;  1.7999794E+00;  0.0000000E+00; -1.3057528E-01;  1.7613193E+04;
  1.0914477E+00;  9.9999998E-03;  2.9288709E-01;8056; -5.3820521E-02;  0.0000000E+00;  4.0971201E-02;  9.9401031E+02;  3.0661574E-01; -4.9622124E+03;3; -1.4217638E+01;  0.0000000E+00;  4.2895851E+00;0;  1.6524532E+00;  4.3045444E+03;  0.0000000E+00; -2.2904735E+00;  4.0000000E+04;  0.0000000E+00;  3.9209551E+04;  1.7910901E+00;  0.0000000E+00; -1.3863698E-01;  3.3006762E+04;
  1.0907218E+00;  9.9999998E-03;  3.0295542E-01;8057; -5.8564771E-02;  0.0000000E+00;  4.0198829E-02;  9.9348029E+02;  3.0631983E-01; -5.4013516E+03;3; -1.4437096E+01;  0.0000000E+00;  4.6870899E+00;0;  1.6336495E+00;  4.3108057E+03;  0.0000000E+00; -3.2414370E+00;  4.0000000E+04;  0.0000000E+00;  3.9222695E+04;  1.7643565E+00;  0.0000000E+00; -1.3070698E-01;  5.9530125E+04;
  1.1238290E+00;  9.9999998E-03;  2.4285002E-01;8112; -2.6764171E-02;  0.0000000E+00;  6.8803608E-02;  1.0049553E+03;  3.1848362E-01;  4.1052095E+03;3; -1.4455464E+01;  0.0000000E+00;  5.0186710E+00;0;  3.1654904E+00;  4.0748281E+03;  0.0000000E+00; -2.6619966E+00;  4.0000000E+04;  0.0000000E+00;  3.9085309E+04;  3.1827953E+00;  0.0000000E+00; -1.7304841E-02;  1.1011173E+04;
  1.1246612E+00;  9.9999998E-03;  2.5291434E-01;8113; -3.2811876E-02;  0.0000000E+00;  6.7099348E-02;  1.0035460E+03;  3.1896055E-01;  2.9376804E+03;3; -1.4959116E+01;  0.0000000E+00;  5.0799084E+00;0;  3.2588725E+00;  4.0559253E+03;  0.0000000E+00; -3.5377116E+00;  4.0000000E+04;  0.0000000E+00;  3.9065238E+04;  3.3054621E+00;  0.0000000E+00; -4.6589620E-02;  1.5113270E+04;
  1.1256065E+00;  9.9999998E-03;  2.6295924E-01;8114; -3.8688868E-02;  0.0000000E+00;  6.4428203E-02;  1.0019861E+03;  3.1946972E-01;  1.6453213E+03;3; -1.5765067E+01;  0.0000000E+00;  5.1628714E+00;0;  3.3421423E+00;  4.0345754E+03;  0.0000000E+00; -4.2961397E+00;  4.0000000E+04;  0.0000000E+00;  3.9056914E+04;  3.4245090E+00;  0.0000000E+00; -8.2366809E-02;  1.7333604E+04;
  1.1256164E+00;  9.9999998E-03;  2.7299878E-01;8115; -4.4607464E-02;  0.0000000E+00;  6.0500801E-02;  1.0006830E+03;  3.1962481E-01;  5.6588782E+02;3; -1.6480293E+01;  0.0000000E+00;  5.3490157E+00;0;  3.3667934E+00;  4.0227014E+03;  0.0000000E+00; -4.5927844E+00;  4.0000000E+04;  0.0000000E+00;  3.9060238E+04;  3.4966369E+00;  0.0000000E+00; -1.2984338E-01;  1.5765056E+04;
  1.1254495E+00;  9.9999998E-03;  2.8303951E-01;8116; -5.0629172E-02;  0.0000000E+00;  5.7037670E-02;  9.9964746E+02;  3.1970930E-01; -2.9207910E+02;3; -1.7195650E+01;  0.0000000E+00;  5.7602925E+00;0;  3.3782699E+00;  4.0130713E+03;  0.0000000E+00; -4.4642758E+00;  4.0000000E+04;  0.0000000E+00;  3.9078438E+04;  3.5516677E+00;  0.0000000E+00; -1.7339778E-01;  1.1683398E+04;
  1.1251506E+00;  9.9999998E-03;  2.9309019E-01;8117; -5.7222251E-02;  0.0000000E+00;  5.5062551E-02;  9.9878857E+02;  3.1975499E-01; -1.0035870E+03;3; -1.7999210E+01;  0.0000000E+00;  6.1034141E+00;0;  3.4013591E+00;  4.0054165E+03;  0.0000000E+00; -4.0956197E+00;  4.0000000E+04;  0.0000000E+00;  3.9106438E+04;  3.5911784E+00;  0.0000000E+00; -1.8981932E-01;  7.5119897E+03;
  1.1244941E+00;  9.9999998E-03;  3.0315435E-01;8118; -6.4716622E-02;  0.0000000E+00;  5.4305945E-02;  9.9803351E+02;  3.1967834E-01; -1.6291260E+03;3; -1.9172213E+01;  0.0000000E+00;  6.3720689E+00;0;  3.4302175E+00;  4.0027075E+03;  0.0000000E+00; -3.9994361E+00;  4.0000000E+04;  0.0000000E+00;  3.9133547E+04;  3.6047602E+00;  0.0000000E+00; -1.7454274E-01;  9.7937090E+03;
  1.1579249E+00;  9.9999998E-03;  2.4278836E-01;8173;  3.5043409E-01;  0.0000000E+00;  1.1078412E-01;  1.0072440E+03;  3.2020482E-01;  6.0011289E+03;3; -5.5271549E+00;  0.0000000E+00;  1.9576220E+01;0;  3.8463938E+00;  4.0507546E+03;  0.0000000E+00; -1.0985651E+00;  4.0000000E+04;  0.0000000E+00;  3.9068078E+04;  3.6324494E+00;  0.0000000E+00;  2.1394435E-01;  1.2169934E+04;
  1.1592599E+00;  9.9999998E-03;  2.5287169E-01;8174;  3.6849979E-01;  0.0000000E+00;  1.0559343E-01;  1.0061611E+03;  3.2042202E-01;  5.1040200E+03;3; -5.0516486E+00;  0.0000000E+00;  1.8925714E+01;0;  3.9756129E+00;  4.0408901E+03;  0.0000000E+00; -2.4405589E+00;  4.0000000E+04;  0.0000000E+00;  3.9047832E+04;  3.7499611E+00;  0.0000000E+00;  2.2565176E-01;  1.6387594E+04;
  1.1618625E+00;  9.9999998E-03;  2.6293933E-01;8175;  4.0626028E-01;  0.0000000E+00;  9.4793677E-02;  1.0048293E+03;  3.2073748E-01;  4.0007043E+03;3;  2.7080538E+00;  0.0000000E+00;  1.7576092E+01;0;  4.0033011E+00;  4.0260251E+03;  0.0000000E+00; -4.1018929E+00;  4.0000000E+04;  0.0000000E+00;  3.9034102E+04;  3.8134649E+00;  0.0000000E+00;  1.8983641E-01;  2.0200016E+04;
  1.1628517E+00;  9.9999998E-03;  2.7301830E-01;8176;  4.1727173E-01;  0.0000000E+00;  8.7837018E-02;  1.0033629E+03;  3.2094416E-01;  2.7859041E+03;3;  7.9430467E-01;  0.0000000E+00;  1.6902515E+01;0;  4.0626912E+00;  4.0142732E+03;  0.0000000E+00; -5.6656513E+00;  4.0000000E+04;  0.0000000E+00;  3.9014426E+04;  3.9044275E+00;  0.0000000E+00;  1.5826388E-01;  2.2316457E+04;
  1.1628324E+00;  9.9999998E-03;  2.8308350E-01;8177;  4.1684982E-01;  0.0000000E+00;  8.1890345E-02;  1.0020953E+03;  3.2106790E-01;  1.7357338E+03;3; -4.5384126E+00;  0.0000000E+00;  1.6315344E+01;0;  4.1276217E+00;  4.0038906E+03;  0.0000000E+00; -6.8751578E+00;  4.0000000E+04;  0.0000000E+00;  3.9017398E+04;  4.0132914E+00;  0.0000000E+00;  1.1433039E-01;  1.9901703E+04;
  1.1633323E+00;  9.9999998E-03;  2.9314777E-01;8178;  4.2006630E-01;  0.0000000E+00;  7.7031337E-02;  1.0009479E+03;  3.2121900E-01;  7.8530652E+02;3; -8.4040604E+00;  0.0000000E+00;  1.5888450E+01;0;  4.1630440E+00;  3.9921731E+03;  0.0000000E+00; -7.3598509E+00;  4.0000000E+04;  0.0000000E+00;  3.9040727E+04;  4.0921016E+00;  0.0000000E+00;  7.0942469E-02;  1.3803342E+04;
  1.1642314E+00;  9.9999998E-03;  3.0322099E-01;8179;  4.2846850E-01;  0.0000000E+00;  7.3250838E-02;  9.9978168E+02;  3.2139793E-01; -1.8087117E+02;3; -9.7298889E+00;  0.0000000E+00;  1.5164428E+01;0;  4.1801162E+00;  3.9797642E+03;  0.0000000E+00; -6.7619138E+00;  4.0000000E+04;  0.0000000E+00;  3.9071434E+04;  4.1444669E+00;  0.0000000E+00;  3.5649382E-02;  1.3622496E+04;
  1.1907598E+00;  9.9999998E-03;  2.4252336E-01;8234;  4.4767097E-01;  0.0000000E+00;  1.0103890E-01;  1.0059913E+03;  3.1378227E-01;  4.9630981E+03;3;  6.4337372E+01;  0.0000000E+00;  4.1924129E+01;0;  2.6717577E+00;  4.2063359E+03;  0.0000000E+00; -6.8343288E-01;  4.0000000E+04;  0.0000000E+00;  3.9119375E+04;  2.3422954E+00;  0.0000000E+00;  3.2946226E-01;  5.7106694E+03;
  1.1924685E+00;  9.9999998E-03;  2.5262189E-01;8235;  4.6599805E-01;  0.0000000E+00;  1.0025491E-01;  1.0055499E+03;  3.1367937E-01;  4.5975049E+03;3;  6.4682922E+01;  0.0000000E+00;  3.7556530E+01;0;  2.7519245E+00;  4.2080112E+03;  0.0000000E+00; -1.8781469E+00;  4.0000000E+04;  0.0000000E+00;  3.9115410E+04;  2.3613369E+00;  0.0000000E+00;  3.9058766E-01;  8.3586006E+03;
  1.1956520E+00;  9.9999998E-03;  2.6272479E-01;8236;  4.8442519E-01;  0.0000000E+00;  9.3185209E-02;  1.0050994E+03;  3.1349036E-01;  4.2242979E+03;3;  6.8994370E+01;  0.0000000E+00;  3.3664333E+01;0;  2.7180882E+00;  4.2112998E+03;  0.0000000E+00; -3.4865670E+00;  4.0000000E+04;  0.0000000E+00;  3.9105191E+04;  2.2874553E+00;  0.0000000E+00;  4.3063277E-01;  1.2270728E+04;
  1.1974187E+00;  9.9999998E-03;  2.7285236E-01;8237;  5.0096738E-01;  0.0000000E+00;  8.3351843E-02;  1.0041186E+03;  3.1345043E-01;  3.4117598E+03;3;  6.8470505E+01;  0.0000000E+00;  3.3498108E+01;0;  2.6750662E+00;  4.2103184E+03;  0.0000000E+00; -5.3884325E+00;  4.0000000E+04;  0.0000000E+00;  3.9068297E+04;  2.2701252E+00;  0.0000000E+00;  4.0494102E-01;  1.8433900E+04;
  1.1980565E+00;  9.9999998E-03;  2.8295317E-01;8238;  5.1424783E-01;  0.0000000E+00;  7.6548457E-02;  1.0030325E+03;  3.1347835E-01;  2.5120334E+03;3;  6.8051323E+01;  0.0000000E+00;  3.3304821E+01;0;  2.6631527E+00;  4.2053633E+03;  0.0000000E+00; -6.9722676E+00;  4.0000000E+04;  0.0000000E+00;  3.9052938E+04;  2.3025424E+00;  0.0000000E+00;  3.6061037E-01;  2.0050719E+04;
  1.1989913E+00;  9.9999998E-03;  2.9304364E-01;8239;  5.2704704E-01;  0.0000000E+00;  7.1293145E-02;  1.0020612E+03;  3.1348601E-01;  1.7075046E+03;3;  6.7867378E+01;  0.0000000E+00;  3.2957714E+01;0;  2.6198807E+00;  4.2001328E+03;  0.0000000E+00; -7.7978110E+00;  4.0000000E+04;  0.0000000E+00;  3.9058754E+04;  2.3094041E+00;  0.0000000E+00;  3.1047657E-01;  1.5800675E+04;
  1.2005088E+00;  9.9999998E-03;  3.0313629E-01;8240;  5.4066747E-01;  0.0000000E+00;  6.7097463E-02;  1.0011807E+03;  3.1346914E-01;  9.7812659E+02;3;  6.7572098E+01;  0.0000000E+00;  3.2078438E+01;0;  2.5385616E+00;  4.1956978E+03;  0.0000000E+00; -7.8612442E+00;  4.0000000E+04;  0.0000000E+00;  3.9074164E+04;  2.2738664E+00;  0.0000000E+00;  2.6469523E-01;  9.5965439E+03;
  1.2232671E+00;  9.9999998E-03;  2.4232101E-01;8295;  4.4737369E-01;  0.0000000E+00;  4.0599983E-02;  1.0025150E+03;  3.0373049E-01;  2.0832437E+03;3;  7.5052574E+01;  0.0000000E+00;  5.3604053E+01;0;  1.2057291E+00;  4.4539937E+03;  0.0000000E+00; -2.0615725E-01;  4.0000000E+04;  0.0000000E+00;  3.9172430E+04;  9.0172863E-01;  0.0000000E+00;  3.0400047E-01;  3.0731021E+03;
  1.2249222E+00;  9.9999998E-03;  2.5241899E-01;8296;  4.7010881E-01;  0.0000000E+00;  5.0631851E-02;  1.0024404E+03;  3.0345061E-01;  2.0215190E+03;3;  7.6716850E+01;  0.0000000E+00;  4.7644398E+01;0;  1.2855029E+00;  4.4622192E+03;  0.0000000E+00; -1.3976016E+00;  4.0000000E+04;  0.0000000E+00;  3.9182953E+04;  8.7729663E-01;  0.0000000E+00;  4.0820622E-01;  6.2863760E+03;
  1.2276812E+00;  9.9999998E-03;  2.6253182E-01;8297;  4.8801091E-01;  0.0000000E+00;  5.2630641E-02;  1.0024113E+03;  3.0304191E-01;  1.9973118E+03;3;  7.5867203E+01;  0.0000000E+00;  3.8148560E+01;0;  1.3163695E+00;  4.4739873E+03;  0.0000000E+00; -3.1787786E+00;  4.0000000E+04;  0.0000000E+00;  3.9186945E+04;  8.0637050E-01;  0.0000000E+00;  5.0999898E-01;  1.0642629E+04;
  1.2295179E+00;  9.9999998E-03;  2.7267858E-01;8298;  5.0337416E-01;  0.0000000E+00;  4.8616394E-02;  1.0017144E+03;  3.0280972E-01;  1.4200424E+03;3;  7.6823235E+01;  0.0000000E+00;  3.5782368E+01;0;  1.3056904E+00;  4.4800688E+03;  0.0000000E+00; -5.5307970E+00;  4.0000000E+04;  0.0000000E+00;  3.9154285E+04;  7.6349825E-01;  0.0000000E+00;  5.4219216E-01;  1.6230436E+04;
  1.2303479E+00;  9.9999998E-03;  2.8280687E-01;8299;  5.1784468E-01;  0.0000000E+00;  4.2393714E-02;  1.0006088E+03;  3.0270356E-01;  5.0428616E+02;3;  7.7522110E+01;  0.0000000E+00;  3.4594242E+01;0;  1.2429583E+00;  4.4798506E+03;  0.0000000E+00; -7.4873886E+00;  4.0000000E+04;  0.0000000E+00;  3.9124715E+04;  7.5204378E-01;  0.0000000E+00;  4.9091452E-01;  1.8040768E+04;
  1.2313577E+00;  9.9999998E-03;  2.9291838E-01;8300;  5.3212023E-01;  0.0000000E+00;  3.6618568E-02;  9.9948663E+02;  3.0257672E-01; -4.2524030E+02;3;  7.8782791E+01;  0.0000000E+00;  3.4238491E+01;0;  1.1331756E+00;  4.4790005E+03;  0.0000000E+00; -8.4068432E+00;  4.0000000E+04;  0.0000000E+00;  3.9114035E+04;  7.2839576E-01;  0.0000000E+00;  4.0477985E-01;  1.1764209E+04;
  1.2328992E+00;  9.9999998E-03;  3.0302283E-01;8301;  5.4787773E-01;  0.0000000E+00;  3.3025876E-02;  9.9845599E+02;  3.0240324E-01; -1.2789243E+03;3;  8.0036438E+01;  0.0000000E+00;  3.3710491E+01;0;  1.0169420E+00;  4.4792251E+03;  0.0000000E+00; -8.4211044E+00;  4.0000000E+04;  0.0000000E+00;  3.9119910E+04;  6.7773354E-01;  0.0000000E+00;  3.3920842E-01;  3.5983650E+03;
  1.2540709E+00;  9.9999998E-03;  2.4226612E-01;8356;  4.3923029E-01;  0.0000000E+00; -2.8442252E-02;  9.9805536E+02;  2.9163343E-01; -1.6106835E+03;3;  7.5566704E+01;  0.0000000E+00;  4.7688404E+01;0;  4.2222565E-01;  4.7797783E+03;  0.0000000E+00;  4.0774128E-01;  4.0000000E+04;  0.0000000E+00;  3.9212469E+04;  1.6501816E-01;  0.0000000E+00;  2.5720751E-01;  7.4432563E+03;
  1.2556463E+00;  9.9999998E-03;  2.5234476E-01;8357;  4.5945194E-01;  0.0000000E+00; -2.1200819E-02;  9.9822479E+02;  2.9126394E-01; -1.4703207E+03;3;  7.9093864E+01;  0.0000000E+00;  5.4914497E+01;0;  4.3848103E-01;  4.7921597E+03;  0.0000000E+00; -1.1062638E+00;  4.0000000E+04;  0.0000000E+00;  3.9233531E+04;  1.2315948E-01;  0.0000000E+00;  3.1532156E-01;  1.0498614E+04;
  1.2580448E+00;  9.9999998E-03;  2.6243863E-01;8358;  4.8076332E-01;  0.0000000E+00;  3.3573306E-03;  9.9843433E+02;  2.9076701E-01; -1.2967798E+03;3;  8.2491035E+01;  0.0000000E+00;  5.2593929E+01;0;  6.2817770E-01;  4.8080361E+03;  0.0000000E+00; -3.5322642E+00;  4.0000000E+04;  0.0000000E+00;  3.9256543E+04;  6.9772355E-02;  0.0000000E+00;  5.5840534E-01;  1.6617506E+04;
  1.2597461E+00;  9.9999998E-03;  2.7258465E-01;8359;  4.9729082E-01;  0.0000000E+00;  7.9183960E-03;  9.9779871E+02;  2.9041058E-01; -1.8232191E+03;3;  8.1209457E+01;  0.0000000E+00;  3.3153515E+01;0;  7.0531321E-01;  4.8181616E+03;  0.0000000E+00; -6.7268205E+00;  4.0000000E+04;  0.0000000E+00;  3.9233500E+04;  2.6402710E-02;  0.0000000E+00;  6.7891049E-01;  2.2860623E+04;
  1.2601904E+00;  9.9999998E-03;  2.8272286E-01;8360;  5.1214242E-01;  0.0000000E+00;  4.5126085E-03;  9.9658752E+02;  2.9029822E-01; -2.8263496E+03;3;  8.2034828E+01;  0.0000000E+00;  2.9421888E+01;0;  6.5012014E-01;  4.8182197E+03;  0.0000000E+00; -9.3379040E+00;  4.0000000E+04;  0.0000000E+00;  3.9197926E+04; -6.8480102E-04;  0.0000000E+00;  6.5080494E-01;  2.5451686E+04;
  1.2605414E+00;  9.9999998E-03;  2.9284474E-01;8361;  5.2657050E-01;  0.0000000E+00; -6.5859820E-04;  9.9529138E+02;  2.9025951E-01; -3.8998745E+03;3;  8.3195335E+01;  0.0000000E+00;  2.8699341E+01;0;  5.1197189E-01;  4.8148662E+03;  0.0000000E+00; -1.0453629E+01;  4.0000000E+04;  0.0000000E+00;  3.9174602E+04; -2.5169875E-02;  0.0000000E+00;  5.3714174E-01;  1.8987191E+04;
  1.2615511E+00;  9.9999998E-03;  3.0295637E-01;8362;  5.4106331E-01;  0.0000000E+00; -3.5777923E-03;  9.9411237E+02;  2.9016453E-01; -4.8763267E+03;3;  8.5462524E+01;  0.0000000E+00;  2.8666555E+01;0;  3.8100794E-01;  4.8132183E+03;  0.0000000E+00; -1.0502440E+01;  4.0000000E+04;  0.0000000E+00;  3.9170074E+04; -5.8343738E-02;  0.0000000E+00;  4.3935168E-01;  9.3261992E+03;
  1.2827188E+00;  9.9999998E-03;  2.4229032E-01;8417;  4.3118417E-01;  0.0000000E+00; -8.3474994E-02;  9.9428009E+02;  2.7803737E-01; -4.7368794E+03;3;  7.5556610E+01;  0.0000000E+00;  3.8515579E+01;0;  4.3614012E-01;  5.2068604E+03;  0.0000000E+00;  2.6891366E-02;  4.0000000E+04;  0.0000000E+00;  3.9251867E+04;  2.3696545E-01;  0.0000000E+00;  1.9917469E-01;  1.1470135E+04;
  1.2841358E+00;  9.9999998E-03;  2.5236747E-01;8418;  4.4874576E-01;  0.0000000E+00; -8.0935970E-02;  9.9444104E+02;  2.7763981E-01; -4.6035640E+03;3;  8.0322784E+01;  0.0000000E+00;  4.2442432E+01;0;  3.8375407E-01;  5.2213872E+03;  0.0000000E+00; -1.6991858E+00;  4.0000000E+04;  0.0000000E+00;  3.9271613E+04;  1.6816454E-01;  0.0000000E+00;  2.1558954E-01;  1.4731849E+04;
  1.2857327E+00;  9.9999998E-03;  2.6244599E-01;8419;  4.6731076E-01;  0.0000000E+00; -6.5146782E-02;  9.9459668E+02;  2.7725610E-01; -4.4746382E+03;3;  8.6672821E+01;  0.0000000E+00;  5.2032360E+01;0;  4.3855163E-01;  5.2343535E+03;  0.0000000E+00; -4.3508010E+00;  4.0000000E+04;  0.0000000E+00;  3.9300223E+04;  1.0839114E-01;  0.0000000E+00;  3.3016050E-01;  2.1838338E+04;
  1.2869217E+00;  9.9999998E-03;  2.7256039E-01;8420;  4.8673090E-01;  0.0000000E+00; -3.6381491E-02;  9.9419641E+02;  2.7696621E-01; -4.8060537E+03;3;  8.8170067E+01;  0.0000000E+00;  4.8533283E+01;0;  6.9399178E-01;  5.2426465E+03;  0.0000000E+00; -7.6362147E+00;  4.0000000E+04;  0.0000000E+00;  3.9302270E+04;  4.9417868E-02;  0.0000000E+00;  6.4457393E-01;  2.9629201E+04;
  1.2873075E+00;  9.9999998E-03;  2.8269404E-01;8421;  5.0235862E-01;  0.0000000E+00; -2.7196484E-02;  9.9311884E+02;  2.7685979E-01; -5.6984131E+03;3;  8.7174957E+01;  0.0000000E+00;  2.3542702E+01;0;  7.7560002E-01;  5.2429375E+03;  0.0000000E+00; -1.0413842E+01;  4.0000000E+04;  0.0000000E+00;  3.9270391E+04; -1.1227505E-02;  0.0000000E+00;  7.8682750E-01;  3.3509332E+04;
  1.2878834E+00;  9.9999998E-03;  2.9282212E-01;8422;  5.1622164E-01;  0.0000000E+00; -3.2421760E-02;  9.9179407E+02;  2.7674162E-01; -6.7954521E+03;3;  8.8937889E+01;  0.0000000E+00;  1.8150093E+01;0;  6.1836445E-01;  5.2426123E+03;  0.0000000E+00; -1.1933326E+01;  4.0000000E+04;  0.0000000E+00;  3.9236477E+04; -6.1389782E-02;  0.0000000E+00;  6.7975426E-01;  3.2280729E+04;
  1.2890943E+00;  9.9999998E-03;  3.0293748E-01;8423;  5.2927089E-01;  0.0000000E+00; -3.6680020E-02;  9.9048743E+02;  2.7650878E-01; -7.8773950E+03;3;  9.1314720E+01;  0.0000000E+00;  2.0083300E+01;0;  4.4994876E-01;  5.2456768E+03;  0.0000000E+00; -1.2149950E+01;  4.0000000E+04;  0.0000000E+00;  3.9221594E+04; -9.8634094E-02;  0.0000000E+00;  5.4858285E-01;  2.8051100E+04;
  1.3090529E+00;  9.9999998E-03;  2.4236438E-01;8478;  4.2276207E-01;  0.0000000E+00; -1.2744404E-01;  9.9096100E+02;  2.6333606E-01; -7.4840566E+03;3;  7.5958549E+01;  0.0000000E+00;  2.9999386E+01;0;  1.0584797E+00;  5.7561406E+03;  0.0000000E+00; -9.4974834E-01;  4.0000000E+04;  0.0000000E+00;  3.9278145E+04;  9.9759734E-01;  0.0000000E+00;  6.0882304E-02;  1.4054624E+04;
  1.3097665E+00;  9.9999998E-03;  2.5245631E-01;8479;  4.3839025E-01;  0.0000000E+00; -1.2593284E-01;  9.9092664E+02;  2.6312193E-01; -7.5124824E+03;3;  8.0732803E+01;  0.0000000E+00;  3.1404938E+01;0;  9.1405708E-01;  5.7642744E+03;  0.0000000E+00; -2.4619179E+00;  4.0000000E+04;  0.0000000E+00;  3.9284629E+04;  8.6736006E-01;  0.0000000E+00;  4.6697035E-02;  1.6474473E+04;
  1.3111281E+00;  9.9999998E-03;  2.6252428E-01;8480;  4.5414925E-01;  0.0000000E+00; -1.1989156E-01;  9.9095648E+02;  2.6272064E-01; -7.4876626E+03;3;  8.7542366E+01;  0.0000000E+00;  3.5240067E+01;0;  8.1979477E-01;  5.7787832E+03;  0.0000000E+00; -4.7382779E+00;  4.0000000E+04;  0.0000000E+00;  3.9310418E+04;  7.7862567E-01;  0.0000000E+00;  4.1169126E-02;  2.3153439E+04;
  1.3126606E+00;  9.9999998E-03;  2.7259523E-01;8481;  4.7096980E-01;  0.0000000E+00; -9.8722897E-02;  9.9090332E+02;  2.6228246E-01; -7.5315732E+03;3;  9.5575272E+01;  0.0000000E+00;  5.0835144E+01;0;  9.1236776E-01;  5.7935576E+03;  0.0000000E+00; -7.5210748E+00;  4.0000000E+04;  0.0000000E+00;  3.9343387E+04;  7.1028382E-01;  0.0000000E+00;  2.0208396E-01;  3.2296676E+04;
  1.3137472E+00;  9.9999998E-03;  2.8269845E-01;8482;  4.8853421E-01;  0.0000000E+00; -6.6324607E-02;  9.9029620E+02;  2.6196194E-01; -8.0341621E+03;3;  9.6098457E+01;  0.0000000E+00;  3.9515091E+01;0;  1.2474213E+00;  5.8026304E+03;  0.0000000E+00; -9.9323397E+00;  4.0000000E+04;  0.0000000E+00;  3.9345348E+04;  6.3776577E-01;  0.0000000E+00;  6.0965556E-01;  3.7726754E+04;
  1.3149526E+00;  9.9999998E-03;  2.9282525E-01;8483;  5.0152987E-01;  0.0000000E+00; -5.3493991E-02;  9.8903436E+02;  2.6160577E-01; -9.0787705E+03;3;  9.5359543E+01;  0.0000000E+00;  8.9091349E+00;0;  1.3937887E+00;  5.8122769E+03;  0.0000000E+00; -1.1081899E+01;  4.0000000E+04;  0.0000000E+00;  3.9313770E+04;  5.8231163E-01;  0.0000000E+00;  8.1147707E-01;  3.6664438E+04;
  1.3166655E+00;  9.9999998E-03;  3.0295032E-01;8484;  5.1291919E-01;  0.0000000E+00; -6.5639660E-02;  9.8747717E+02;  2.6110125E-01; -1.0367818E+04;3;  9.7987816E+01;  0.0000000E+00;  4.5075541E+00;0;  1.1201379E+00;  5.8272505E+03;  0.0000000E+00; -1.0366730E+01;  4.0000000E+04;  0.0000000E+00;  3.9282859E+04;  5.5707741E-01;  0.0000000E+00;  5.6306058E-01;  2.9723002E+04;
  1.3346636E+00;  9.9999998E-03;  2.4245124E-01;8539;  4.1142088E-01;  0.0000000E+00; -1.6179465E-01;  9.8880798E+02;  2.4783918E-01; -9.2640732E+03;3;  7.6073105E+01;  0.0000000E+00;  2.1076698E+01;0;  2.1960545E+00;  6.4632598E+03;  0.0000000E+00; -1.7336844E+00;  4.0000000E+04;  0.0000000E+00;  3.9290766E+04;  2.3677781E+00;  0.0000000E+00; -1.7172354E-01;  1.5702214E+04;
  1.3355551E+00;  9.9999998E-03;  2.5255051E-01;8540;  4.2522922E-01;  0.0000000E+00; -1.5864265E-01;  9.8862067E+02;  2.4751115E-01; -9.4190264E+03;3;  8.3761292E+01;  0.0000000E+00;  2.1489380E+01;0;  1.9948130E+00;  6.4767920E+03;  0.0000000E+00; -3.2374399E+00;  4.0000000E+04;  0.0000000E+00;  3.9292035E+04;  2.2102141E+00;  0.0000000E+00; -2.1540117E-01;  1.8730594E+04;
  1.3367449E+00;  9.9999998E-03;  2.6262686E-01;8541;  4.3947339E-01;  0.0000000E+00; -1.5372530E-01;  9.8849078E+02;  2.4710564E-01; -9.5263750E+03;3;  9.1334465E+01;  0.0000000E+00;  2.0697678E+01;0;  1.8232815E+00;  6.4937793E+03;  0.0000000E+00; -5.3936801E+00;  4.0000000E+04;  0.0000000E+00;  3.9306422E+04;  2.0925274E+00;  0.0000000E+00; -2.6924583E-01;  2.4903494E+04;
  1.3380686E+00;  9.9999998E-03;  2.7268842E-01;8542;  4.5484933E-01;  0.0000000E+00; -1.4257145E-01;  9.8845404E+02;  2.4668819E-01; -9.5565889E+03;3;  9.9675362E+01;  0.0000000E+00;  2.1571333E+01;0;  1.7431320E+00;  6.5106943E+03;  0.0000000E+00; -7.7794948E+00;  4.0000000E+04;  0.0000000E+00;  3.9338832E+04;  2.0031490E+00;  0.0000000E+00; -2.6001707E-01;  3.2787430E+04;
  1.3393005E+00;  9.9999998E-03;  2.8275847E-01;8543;  4.7091791E-01;  0.0000000E+00; -1.2436241E-01;  9.8827380E+02;  2.4629018E-01; -9.7056064E+03;3;  1.0725438E+02;  0.0000000E+00;  2.2966011E+01;0;  1.8148205E+00;  6.5260176E+03;  0.0000000E+00; -9.4727125E+00;  4.0000000E+04;  0.0000000E+00;  3.9371324E+04;  1.9268563E+00;  0.0000000E+00; -1.1203577E-01;  3.7889820E+04;
  1.3408673E+00;  9.9999998E-03;  2.9285210E-01;8544;  4.8309106E-01;  0.0000000E+00; -9.7424865E-02;  9.8753247E+02;  2.4575439E-01; -1.0318938E+04;3;  1.0681281E+02;  0.0000000E+00;  3.7963272E+01;0;  2.1346741E+00;  6.5472383E+03;  0.0000000E+00; -9.4236202E+00;  4.0000000E+04;  0.0000000E+00;  3.9381305E+04;  1.8898416E+00;  0.0000000E+00;  2.4483263E-01;  3.5824793E+04;
  1.3428934E+00;  9.9999998E-03;  3.0297163E-01;8545;  4.8842531E-01;  0.0000000E+00; -7.7097453E-02;  9.8597510E+02;  2.4505550E-01; -1.1607602E+04;3;  1.1063813E+02;  0.0000000E+00;  1.7484234E+01;0;  2.4656422E+00;  6.5756558E+03;  0.0000000E+00; -6.3025575E+00;  4.0000000E+04;  0.0000000E+00;  3.9357785E+04;  1.9002222E+00;  0.0000000E+00;  5.6541997E-01;  2.4224799E+04;
  1.3589150E+00;  9.9999998E-03;  2.4255075E-01;8600;  4.0529749E-01;  0.0000000E+00; -1.5902765E-01;  9.8827924E+02;  2.3269960E-01; -9.6979365E+03;3;  6.7395454E+01;  0.0000000E+00; -2.9124949E+01;0;  3.7068443E+00;  7.3231963E+03;  0.0000000E+00; -2.4410605E+00;  4.0000000E+04;  0.0000000E+00;  3.9280703E+04;  4.0441127E+00;  0.0000000E+00; -3.3726823E-01;  1.5888781E+04;
  1.3598052E+00;  9.9999998E-03;  2.5265858E-01;8601;  4.1588899E-01;  0.0000000E+00; -1.6291331E-01;  9.8796381E+02;  2.3233961E-01; -9.9587539E+03;3;  7.8673065E+01;  0.0000000E+00; -2.8163465E+01;0;  3.4556594E+00;  7.3403467E+03;  0.0000000E+00; -4.2945251E+00;  4.0000000E+04;  0.0000000E+00;  3.9274105E+04;  3.8878393E+00;  0.0000000E+00; -4.3217984E-01;  2.0535426E+04;
  1.3607361E+00;  9.9999998E-03;  2.6274657E-01;8602;  4.2696747E-01;  0.0000000E+00; -1.6726480E-01;  9.8768573E+02;  2.3198365E-01; -1.0188630E+04;3;  8.8517662E+01;  0.0000000E+00; -2.4014509E+01;0;  3.1734376E+00;  7.3577124E+03;  0.0000000E+00; -6.7075462E+00;  4.0000000E+04;  0.0000000E+00;  3.9273141E+04;  3.7551088E+00;  0.0000000E+00; -5.8167118E-01;  2.7443605E+04;
  1.3618640E+00;  9.9999998E-03;  2.7281031E-01;8603;  4.3908826E-01;  0.0000000E+00; -1.6848677E-01;  9.8757556E+02;  2.3158044E-01; -1.0279534E+04;3;  9.6381615E+01;  0.0000000E+00; -1.4897577E+01;0;  2.9103711E+00;  7.3783745E+03;  0.0000000E+00; -9.1708364E+00;  4.0000000E+04;  0.0000000E+00;  3.9293285E+04;  3.6575303E+00;  0.0000000E+00; -7.4715918E-01;  3.4735246E+04;
  1.3632828E+00;  9.9999998E-03;  2.8286624E-01;8604;  4.5047900E-01;  0.0000000E+00; -1.6163647E-01;  9.8752069E+02;  2.3107417E-01; -1.0324655E+04;3;  1.0139876E+02;  0.0000000E+00;  1.1442361E+00;0;  2.7865629E+00;  7.4045381E+03;  0.0000000E+00; -1.0563924E+01;  4.0000000E+04;  0.0000000E+00;  3.9332695E+04;  3.6023366E+00;  0.0000000E+00; -8.1577384E-01;  3.8488102E+04;
  1.3651351E+00;  9.9999998E-03;  2.9293600E-01;8605;  4.5859167E-01;  0.0000000E+00; -1.4352581E-01;  9.8706305E+02;  2.3039323E-01; -1.0702869E+04;3;  1.0998840E+02;  0.0000000E+00;  1.6665976E+01;0;  2.9499907E+00;  7.4401274E+03;  0.0000000E+00; -9.1679258E+00;  4.0000000E+04;  0.0000000E+00;  3.9368699E+04;  3.6009505E+00;  0.0000000E+00; -6.5095973E-01;  3.3483855E+04;
  1.3672684E+00;  9.9999998E-03;  3.0302292E-01;8606;  4.6030042E-01;  0.0000000E+00; -1.1961677E-01;  9.8587396E+02;  2.2962911E-01; -1.1686099E+04;3;  1.1442935E+02;  0.0000000E+00;  2.5191513E+01;0;  3.3427444E+00;  7.4785098E+03;  0.0000000E+00; -2.3381026E+00;  4.0000000E+04;  0.0000000E+00;  3.9387816E+04;  3.6429036E+00;  0.0000000E+00; -3.0015919E-01;  2.4145635E+04;
  1.3820990E+00;  9.9999998E-03;  2.4262470E-01;8661;  5.2856296E-01;  0.0000000E+00; -1.1128850E-01;  9.8965955E+02;  2.1822454E-01; -8.5512646E+03;3; -1.2619524E+02;  0.0000000E+00; -4.7131237E+01;0;  5.1894631E+00;  8.3530488E+03;  0.0000000E+00; -3.9936640E+00;  4.0000000E+04;  0.0000000E+00;  3.9262512E+04;  5.5367098E+00;  0.0000000E+00; -3.4724650E-01;  1.8469369E+04;
  1.3828571E+00;  9.9999998E-03;  2.5273731E-01;8662;  5.0870055E-01;  0.0000000E+00; -1.1590083E-01;  9.8929968E+02;  2.1791834E-01; -8.8487021E+03;3; -1.2587790E+02;  0.0000000E+00; -4.6087631E+01;0;  5.0272574E+00;  8.3693828E+03;  0.0000000E+00; -6.8477402E+00;  4.0000000E+04;  0.0000000E+00;  3.9251922E+04;  5.4238887E+00;  0.0000000E+00; -3.9663133E-01;  2.7380191E+04;
  1.3835471E+00;  9.9999998E-03;  2.6283869E-01;8663;  4.9093443E-01;  0.0000000E+00; -1.2276006E-01;  9.8889990E+02;  2.1762034E-01; -9.1791172E+03;3; -1.2579839E+02;  0.0000000E+00; -4.1151005E+01;0;  4.8260608E+00;  8.3865137E+03;  0.0000000E+00; -1.0294279E+01;  4.0000000E+04;  0.0000000E+00;  3.9239223E+04;  5.3198857E+00;  0.0000000E+00; -4.9382505E-01;  3.8324914E+04;
  1.3843696E+00;  9.9999998E-03;  2.7291802E-01;8664;  4.8064524E-01;  0.0000000E+00; -1.3061114E-01;  9.8856842E+02;  2.1725810E-01; -9.4529971E+03;3; -1.1889552E+02;  0.0000000E+00; -3.8754837E+01;0;  4.5944958E+00;  8.4090244E+03;  0.0000000E+00; -1.3574823E+01;  4.0000000E+04;  0.0000000E+00;  3.9239609E+04;  5.2370954E+00;  0.0000000E+00; -6.4259964E-01;  4.8238371E+04;
  1.3856542E+00;  9.9999998E-03;  2.8298035E-01;8665;  4.7845188E-01;  0.0000000E+00; -1.3524185E-01;  9.8831616E+02;  2.1675968E-01; -9.6612314E+03;3; -1.0802158E+02;  0.0000000E+00; -3.6343628E+01;0;  4.4107995E+00;  8.4409590E+03;  0.0000000E+00; -1.5103550E+01;  4.0000000E+04;  0.0000000E+00;  3.9264629E+04;  5.1978550E+00;  0.0000000E+00; -7.8705567E-01;  5.1748188E+04;
  1.3876202E+00;  9.9999998E-03;  2.9304191E-01;8666;  4.7865862E-01;  0.0000000E+00; -1.3482310E-01;  9.8772864E+02;  2.1604924E-01; -1.0146467E+04;3; -1.0101427E+02;  0.0000000E+00; -2.9672344E+01;0;  4.3589320E+00;  8.4855898E+03;  0.0000000E+00; -1.2082279E+01;  4.0000000E+04;  0.0000000E+00;  3.9305461E+04;  5.2180910E+00;  0.0000000E+00; -8.5915911E-01;  4.0298602E+04;
  1.3897874E+00;  9.9999998E-03;  3.0311185E-01;8667;  4.8089156E-01;  0.0000000E+00; -1.3269360E-01;  9.8641675E+02;  2.1534134E-01; -1.1230468E+04;3; -9.8230194E+01;  0.0000000E+00; -2.1879421E+01;0;  4.3999839E+00;  8.5248428E+03;  0.0000000E+00;  2.6513541E-01;  4.0000000E+04;  0.0000000E+00;  3.9345285E+04;  5.2647820E+00;  0.0000000E+00; -8.6479795E-01;  1.8207609E+04;
  1.4037718E+00;  9.9999998E-03;  2.4266127E-01;8722;  7.6159871E-01;  0.0000000E+00; -6.8505138E-02;  9.9245667E+02;  2.0483847E-01; -6.2337686E+03;3; -1.4586902E+02;  0.0000000E+00; -5.2490654E+01;0;  5.9848075E+00;  9.5389717E+03;  0.0000000E+00; -6.4240236E+00;  4.0000000E+04;  0.0000000E+00;  3.9244234E+04;  6.3456588E+00;  0.0000000E+00; -3.6085126E-01;  2.4150334E+04;
  1.4044087E+00;  9.9999998E-03;  2.5277516E-01;8723;  7.4283254E-01;  0.0000000E+00; -7.4017592E-02;  9.9207434E+02;  2.0458753E-01; -6.5495454E+03;3; -1.4726500E+02;  0.0000000E+00; -5.3443413E+01;0;  5.9119558E+00;  9.5540225E+03;  0.0000000E+00; -1.0968248E+01;  4.0000000E+04;  0.0000000E+00;  3.9233855E+04;  6.3080559E+00;  0.0000000E+00; -3.9610016E-01;  3.9088332E+04;
  1.4047869E+00;  9.9999998E-03;  2.6288614E-01;8724;  7.1485400E-01;  0.0000000E+00; -8.2063407E-02;  9.9156836E+02;  2.0435736E-01; -6.9675776E+03;3; -1.5036151E+02;  0.0000000E+00; -5.3034706E+01;0;  5.8020220E+00;  9.5680967E+03;  0.0000000E+00; -1.6146513E+01;  4.0000000E+04;  0.0000000E+00;  3.9216555E+04;  6.2669854E+00;  0.0000000E+00; -4.6496329E-01;  5.5838840E+04;
  1.4051290E+00;  9.9999998E-03;  2.7298051E-01;8725;  6.8405664E-01;  0.0000000E+00; -9.1700524E-02;  9.9104083E+02;  2.0409903E-01; -7.4034375E+03;3; -1.5402972E+02;  0.0000000E+00; -5.1436779E+01;0;  5.6482706E+00;  9.5857617E+03;  0.0000000E+00; -2.0472889E+01;  4.0000000E+04;  0.0000000E+00;  3.9204660E+04;  6.2264609E+00;  0.0000000E+00; -5.7819057E-01;  6.8862305E+04;
  1.4061658E+00;  9.9999998E-03;  2.8305426E-01;8726;  6.7234087E-01;  0.0000000E+00; -9.9478871E-02;  9.9048071E+02;  2.0365015E-01; -7.8659653E+03;3; -1.5688370E+02;  0.0000000E+00; -4.8384342E+01;0;  5.5016160E+00;  9.6190693E+03;  0.0000000E+00; -2.2238991E+01;  4.0000000E+04;  0.0000000E+00;  3.9216773E+04;  6.2104163E+00;  0.0000000E+00; -7.0880049E-01;  7.3374375E+04;
  1.4083486E+00;  9.9999998E-03;  2.9311728E-01;8727;  6.8157899E-01;  0.0000000E+00; -1.0360309E-01;  9.8936462E+02;  2.0291367E-01; -8.7874570E+03;3; -1.6022778E+02;  0.0000000E+00; -4.5107471E+01;0;  5.4271016E+00;  9.6710039E+03;  0.0000000E+00; -1.7327562E+01;  4.0000000E+04;  0.0000000E+00;  3.9255293E+04;  6.2386742E+00;  0.0000000E+00; -8.1157255E-01;  5.7683742E+04;
  1.4105734E+00;  9.9999998E-03;  3.0318579E-01;8728;  6.9907314E-01;  0.0000000E+00; -1.0715157E-01;  9.8735156E+02;  2.0231603E-01; -1.0449813E+04;3; -1.6108719E+02;  0.0000000E+00; -4.3093262E+01;0;  5.3933325E+00;  9.6989658E+03;  0.0000000E+00;  3.2976501E+00;  4.0000000E+04;  0.0000000E+00;  3.9297488E+04;  6.2736516E+00;  0.0000000E+00; -8.8031900E-01;  1.3102743E+04;
  1.4242264E+00;  9.9999998E-03;  2.4266428E-01;8783;  9.6906835E-01;  0.0000000E+00; -2.7725337E-02;  9.9557867E+02;  1.9260666E-01; -3.6504971E+03;3; -1.3573907E+02;  0.0000000E+00; -5.6247131E+01;0;  6.0530152E+00;  1.0864136E+04;  0.0000000E+00; -9.4930973E+00;  4.0000000E+04;  0.0000000E+00;  3.9229246E+04;  6.3921356E+00;  0.0000000E+00; -3.3912057E-01;  3.1491434E+04;
  1.4239173E+00;  9.9999998E-03;  2.7301040E-01;8786;  8.6378515E-01;  0.0000000E+00; -5.3016253E-02;  9.9397150E+02;  1.9240220E-01; -4.9775459E+03;3; -1.6407336E+02;  0.0000000E+00; -5.8010044E+01;0;  6.0294113E+00;  1.0860588E+04;  0.0000000E+00; -2.6016960E+01;  4.0000000E+04;  0.0000000E+00;  3.9183965E+04;  6.5174479E+00;  0.0000000E+00; -4.8803651E-01;  8.0143031E+04;
  1.4241874E+00;  9.9999998E-03;  2.6290360E-01;8785;  9.0914941E-01;  0.0000000E+00; -4.1527409E-02;  9.9450958E+02;  1.9249217E-01; -4.5331841E+03;3; -1.5331107E+02;  0.0000000E+00; -5.8218914E+01;0;  6.0867829E+00;  1.0856633E+04;  0.0000000E+00; -2.1836006E+01;  4.0000000E+04;  0.0000000E+00;  3.9200922E+04;  6.4869771E+00;  0.0000000E+00; -4.0019429E-01;  6.9428445E+04;
  1.4244438E+00;  9.9999998E-03;  2.5278643E-01;8784;  9.4798183E-01;  0.0000000E+00; -3.2903202E-02;  9.9506085E+02;  1.9252680E-01; -4.0779624E+03;3; -1.4223267E+02;  0.0000000E+00; -5.6770885E+01;0;  6.0835762E+00;  1.0861687E+04;  0.0000000E+00; -1.5698127E+01;  4.0000000E+04;  0.0000000E+00;  3.9218094E+04;  6.4418778E+00;  0.0000000E+00; -3.5830146E-01;  5.1067246E+04;
  1.4246447E+00;  9.9999998E-03;  2.8309730E-01;8787;  8.4313494E-01;  0.0000000E+00; -6.2491640E-02;  9.9320764E+02;  1.9205086E-01; -5.6080073E+03;3; -1.6930859E+02;  0.0000000E+00; -5.5817142E+01;0;  5.9427876E+00;  1.0890162E+04;  0.0000000E+00; -2.7511747E+01;  4.0000000E+04;  0.0000000E+00;  3.9186203E+04;  6.5372891E+00;  0.0000000E+00; -5.9450161E-01;  8.3425727E+04;
  1.4270117E+00;  9.9999998E-03;  2.9316399E-01;8788;  8.5999835E-01;  0.0000000E+00; -6.9031410E-02;  9.9130048E+02;  1.9132689E-01; -7.1817427E+03;3; -1.6986143E+02;  0.0000000E+00; -5.3628139E+01;0;  5.8587518E+00;  1.0941113E+04;  0.0000000E+00; -2.0904566E+01;  4.0000000E+04;  0.0000000E+00;  3.9223250E+04;  6.5612450E+00;  0.0000000E+00; -7.0249325E-01;  6.6285484E+04;
  1.4290102E+00;  9.9999998E-03;  3.0323648E-01;8789;  8.8862318E-01;  0.0000000E+00; -7.5529605E-02;  9.8848425E+02;  1.9096544E-01; -9.5055801E+03;3; -1.6672351E+02;  0.0000000E+00; -5.4341671E+01;0;  5.8074250E+00;  1.0934215E+04;  0.0000000E+00;  9.3684568E+00;  4.0000000E+04;  0.0000000E+00;  3.9261723E+04;  6.5946388E+00;  0.0000000E+00; -7.8721368E-01;  2.0787891E+04;
  1.4414212E+00;  9.9999998E-03;  2.7301964E-01;8847;  1.0242934E+00;  0.0000000E+00; -2.0024562E-02;  9.9664728E+02;  1.8206771E-01; -2.7653967E+03;3; -1.5334467E+02;  0.0000000E+00; -5.8351582E+01;0;  5.8520274E+00;  1.2204477E+04;  0.0000000E+00; -2.7553196E+01;  4.0000000E+04;  0.0000000E+00;  3.9172863E+04;  6.2616358E+00;  0.0000000E+00; -4.0960842E-01;  7.5638656E+04;
  1.4421176E+00;  9.9999998E-03;  2.6289999E-01;8846;  1.0666494E+00;  0.0000000E+00; -8.2230410E-03;  9.9693768E+02;  1.8200885E-01; -2.5257556E+03;3; -1.3714034E+02;  0.0000000E+00; -5.7520840E+01;0;  5.8083043E+00;  1.2213527E+04;  0.0000000E+00; -2.4879875E+01;  4.0000000E+04;  0.0000000E+00;  3.9193055E+04;  6.1466942E+00;  0.0000000E+00; -3.3838972E-01;  7.1005844E+04;
  1.4419284E+00;  9.9999998E-03;  2.8311968E-01;8848;  1.0024465E+00;  0.0000000E+00; -2.9942885E-02;  9.9582715E+02;  1.8181628E-01; -3.4417708E+03;3; -1.6007494E+02;  0.0000000E+00; -5.7727581E+01;0;  5.8301077E+00;  1.2228358E+04;  0.0000000E+00; -2.8573074E+01;  4.0000000E+04;  0.0000000E+00;  3.9168516E+04;  6.3261490E+00;  0.0000000E+00; -4.9604154E-01;  7.7682602E+04;
  1.4429249E+00;  9.9999998E-03;  2.5277501E-01;8845;  1.1056192E+00;  0.0000000E+00;  1.2920653E-03;  9.9740778E+02;  1.8187748E-01; -2.1379058E+03;3; -1.2098284E+02;  0.0000000E+00; -5.5616638E+01;0;  5.7000356E+00;  1.2239276E+04;  0.0000000E+00; -1.9270546E+01;  4.0000000E+04;  0.0000000E+00;  3.9208492E+04;  6.0029120E+00;  0.0000000E+00; -3.0287656E-01;  5.6699754E+04;
  1.4430948E+00;  9.9999998E-03;  2.4264836E-01;8844;  1.1259142E+00;  0.0000000E+00;  6.1582015E-03;  9.9808508E+02;  1.8184026E-01; -1.5792990E+03;3; -1.1235651E+02;  0.0000000E+00; -5.5421768E+01;0;  5.5725026E+00;  1.2259239E+04;  0.0000000E+00; -1.1954329E+01;  4.0000000E+04;  0.0000000E+00;  3.9217270E+04;  5.8636694E+00;  0.0000000E+00; -2.9116675E-01;  3.5864070E+04;
  1.4442132E+00;  9.9999998E-03;  2.9319328E-01;8849;  1.0182071E+00;  0.0000000E+00; -3.7236597E-02;  9.9306866E+02;  1.8120278E-01; -5.7160986E+03;3; -1.5850528E+02;  0.0000000E+00; -5.7530777E+01;0;  5.7617159E+00;  1.2261810E+04;  0.0000000E+00; -1.9914110E+01;  4.0000000E+04;  0.0000000E+00;  3.9202410E+04;  6.3501444E+00;  0.0000000E+00; -5.8842862E-01;  5.9227887E+04;
  1.4454943E+00;  9.9999998E-03;  3.0327684E-01;8850;  1.0438784E+00;  0.0000000E+00; -4.4577613E-02;  9.8999207E+02;  1.8115535E-01; -8.2525117E+03;3; -1.5476915E+02;  0.0000000E+00; -5.9039196E+01;0;  5.7701950E+00;  1.2204949E+04;  0.0000000E+00;  1.9617422E+01;  4.0000000E+04;  0.0000000E+00;  3.9229742E+04;  6.4213610E+00;  0.0000000E+00; -6.5116596E-01;  4.2893562E+04;
  1.4579687E+00;  9.9999998E-03;  2.7302465E-01;8908;  1.1584858E+00;  0.0000000E+00;  8.1142997E-03;  9.9866504E+02;  1.7307070E-01; -1.0997557E+03;3; -1.2522076E+02;  0.0000000E+00; -5.7720894E+01;0;  5.3296542E+00;  1.3570848E+04;  0.0000000E+00; -2.4542240E+01;  4.0000000E+04;  0.0000000E+00;  3.9162711E+04;  5.6476145E+00;  0.0000000E+00; -3.1796020E-01;  6.0498805E+04;
  1.4587475E+00;  9.9999998E-03;  2.6289287E-01;8907;  1.1878535E+00;  0.0000000E+00;  1.9032691E-02;  9.9871320E+02;  1.7296146E-01; -1.0600107E+03;3; -1.0928410E+02;  0.0000000E+00; -5.5733761E+01;0;  5.2068100E+00;  1.3582634E+04;  0.0000000E+00; -2.2911293E+01;  4.0000000E+04;  0.0000000E+00;  3.9185691E+04;  5.4668870E+00;  0.0000000E+00; -2.6007718E-01;  5.8726637E+04;
  1.4583411E+00;  9.9999998E-03;  2.8313535E-01;8909;  1.1411308E+00;  0.0000000E+00; -6.6438410E-04;  9.9782385E+02;  1.7288753E-01; -1.7926873E+03;3; -1.3252953E+02;  0.0000000E+00; -5.7882496E+01;0;  5.3800907E+00;  1.3590123E+04;  0.0000000E+00; -2.5659012E+01;  4.0000000E+04;  0.0000000E+00;  3.9155016E+04;  5.7560515E+00;  0.0000000E+00; -3.7596077E-01;  6.3421297E+04;
  1.4598551E+00;  9.9999998E-03;  2.5275722E-01;8906;  1.2166923E+00;  0.0000000E+00;  2.7939046E-02;  9.9896240E+02;  1.7274395E-01; -8.5464417E+02;3; -9.2065239E+01;  0.0000000E+00; -5.2781185E+01;0;  5.0142179E+00;  1.3620522E+04;  0.0000000E+00; -1.9197018E+01;  4.0000000E+04;  0.0000000E+00;  3.9201039E+04;  5.2460432E+00;  0.0000000E+00; -2.3182553E-01;  5.1299637E+04;
  1.4604579E+00;  9.9999998E-03;  2.4262966E-01;8905;  1.2337732E+00;  0.0000000E+00;  3.2684561E-02;  9.9965747E+02;  1.7258808E-01; -2.8213367E+02;3; -8.0789726E+01;  0.0000000E+00; -5.0642784E+01;0;  4.8095098E+00;  1.3663110E+04;  0.0000000E+00; -1.2570253E+01;  4.0000000E+04;  0.0000000E+00;  3.9204648E+04;  5.0325909E+00;  0.0000000E+00; -2.2308113E-01;  3.4484145E+04;
  1.4605051E+00;  9.9999998E-03;  3.0331975E-01;8911;  1.1640934E+00;  0.0000000E+00; -1.4491939E-02;  9.9227582E+02;  1.7268033E-01; -6.3618501E+03;3; -1.3076111E+02;  0.0000000E+00; -6.1158623E+01;0;  5.4847636E+00;  1.3499074E+04;  0.0000000E+00;  3.0877203E+01;  4.0000000E+04;  0.0000000E+00;  3.9191449E+04;  5.9468889E+00;  0.0000000E+00; -4.6212551E-01;  6.6254844E+04;
  1.4602573E+00;  9.9999998E-03;  2.9321823E-01;8910;  1.1511645E+00;  0.0000000E+00; -7.0528900E-03;  9.9447974E+02;  1.7244536E-01; -4.5467666E+03;3; -1.3141074E+02;  0.0000000E+00; -5.9051422E+01;0;  5.3739061E+00;  1.3592587E+04;  0.0000000E+00; -1.4038744E+01;  4.0000000E+04;  0.0000000E+00;  3.9184227E+04;  5.8028431E+00;  0.0000000E+00; -4.2893681E-01;  4.1375547E+04;
  1.4739264E+00;  9.9999998E-03;  2.7303246E-01;8968;  1.2592530E+00;  0.0000000E+00;  3.5526097E-02;  9.9958350E+02;  1.6517901E-01; -3.4261169E+02;3; -9.0081039E+01;  0.0000000E+00; -5.4808533E+01;0;  4.6759615E+00;  1.4937578E+04;  0.0000000E+00; -2.0642088E+01;  4.0000000E+04;  0.0000000E+00;  3.9152113E+04;  4.8345332E+00;  0.0000000E+00; -1.5857181E-01;  4.6571449E+04;
  1.4746619E+00;  9.9999998E-03;  2.6289350E-01;8967;  1.2772361E+00;  0.0000000E+00;  4.4945858E-02;  9.9953479E+02;  1.6508049E-01; -3.8263791E+02;3; -7.5619820E+01;  0.0000000E+00; -5.1615246E+01;0;  4.4932232E+00;  1.4946521E+04;  0.0000000E+00; -1.8789925E+01;  4.0000000E+04;  0.0000000E+00;  3.9174789E+04;  4.6179438E+00;  0.0000000E+00; -1.2472034E-01;  4.3976266E+04;
  1.4741701E+00;  9.9999998E-03;  2.8315008E-01;8969;  1.2466826E+00;  0.0000000E+00;  2.7230399E-02;  9.9865472E+02;  1.6504447E-01; -1.1065461E+03;3; -9.8436172E+01;  0.0000000E+00; -5.5381523E+01;0;  4.7793593E+00;  1.4950228E+04;  0.0000000E+00; -2.1476498E+01;  4.0000000E+04;  0.0000000E+00;  3.9145652E+04;  4.9783554E+00;  0.0000000E+00; -1.9899598E-01;  4.9173008E+04;
  1.4757037E+00;  9.9999998E-03;  2.5274915E-01;8966;  1.2940760E+00;  0.0000000E+00;  5.1837817E-02;  9.9970819E+02;  1.6487058E-01; -2.3999792E+02;3; -6.0233868E+01;  0.0000000E+00; -4.8120747E+01;0;  4.2457743E+00;  1.4986448E+04;  0.0000000E+00; -1.5752913E+01;  4.0000000E+04;  0.0000000E+00;  3.9190215E+04;  4.3660989E+00;  0.0000000E+00; -1.2032469E-01;  3.8342711E+04;
  1.4764508E+00;  9.9999998E-03;  2.4261446E-01;8965;  1.3033386E+00;  0.0000000E+00;  5.5667061E-02;  1.0004226E+03;  1.6466825E-01;  3.4751752E+02;3; -4.9362534E+01;  0.0000000E+00; -4.7691486E+01;0;  3.9941194E+00;  1.5043728E+04;  0.0000000E+00; -1.0347811E+01;  4.0000000E+04;  0.0000000E+00;  3.9192363E+04;  4.1187563E+00;  0.0000000E+00; -1.2463688E-01;  2.5837955E+04;
  1.4755180E+00;  9.9999998E-03;  2.9324234E-01;8970;  1.2524399E+00;  0.0000000E+00;  2.1450061E-02;  9.9520807E+02;  1.6480613E-01; -3.9409773E+03;3; -9.8580559E+01;  0.0000000E+00; -5.7240974E+01;0;  4.8487396E+00;  1.4914680E+04;  0.0000000E+00; -4.3439550E+00;  4.0000000E+04;  0.0000000E+00;  3.9170156E+04;  5.0715981E+00;  0.0000000E+00; -2.2285841E-01;  1.8319699E+04;
  1.4891149E+00;  9.9999998E-03;  2.7304551E-01;9027;  1.3234186E+00;  0.0000000E+00;  5.4944381E-02;  9.9977289E+02;  1.5828565E-01; -1.8646118E+02;3; -5.6796177E+01;  0.0000000E+00; -4.8716721E+01;0;  3.9343500E+00;  1.6283825E+04;  0.0000000E+00; -1.5709729E+01;  4.0000000E+04;  0.0000000E+00;  3.9146688E+04;  3.9636390E+00;  0.0000000E+00; -2.9289031E-02;  3.1408830E+04;
  1.4897968E+00;  9.9999998E-03;  2.6289943E-01;9026;  1.3335972E+00;  0.0000000E+00;  6.2849835E-02;  9.9966797E+02;  1.5820117E-01; -2.7261963E+02;3; -4.4851398E+01;  0.0000000E+00; -4.4850277E+01;0;  3.7310870E+00;  1.6289138E+04;  0.0000000E+00; -1.3073925E+01;  4.0000000E+04;  0.0000000E+00;  3.9168727E+04;  3.7393687E+00;  0.0000000E+00; -8.2816249E-03;  2.6762295E+04;
  1.4892477E+00;  9.9999998E-03;  2.8316826E-01;9028;  1.3170067E+00;  0.0000000E+00;  4.8052151E-02;  9.9874219E+02;  1.5820783E-01; -1.0327615E+03;3; -6.3771637E+01;  0.0000000E+00; -4.9428886E+01;0;  4.0769048E+00;  1.6284132E+04;  0.0000000E+00; -1.5590385E+01;  4.0000000E+04;  0.0000000E+00;  3.9142781E+04;  4.1301880E+00;  0.0000000E+00; -5.3283177E-02;  3.3146215E+04;
  1.4898887E+00;  9.9999998E-03;  2.9327223E-01;9029;  1.3207346E+00;  0.0000000E+00;  4.3078262E-02;  9.9592657E+02;  1.5816282E-01; -3.3442590E+03;3; -6.6175468E+01;  0.0000000E+00; -5.1110142E+01;0;  4.2196012E+00;  1.6219505E+04;  0.0000000E+00;  8.2077532E+00;  4.0000000E+04;  0.0000000E+00;  3.9158613E+04;  4.2798724E+00;  0.0000000E+00; -6.0271479E-02;  1.0317393E+04;
  1.4907417E+00;  9.9999998E-03;  2.5274482E-01;9025;  1.3412728E+00;  0.0000000E+00;  6.8554848E-02;  9.9981641E+02;  1.5802148E-01; -1.5070207E+02;3; -3.2161240E+01;  0.0000000E+00; -4.2674763E+01;0;  3.4738235E+00;  1.6326259E+04;  0.0000000E+00; -1.0014226E+01;  4.0000000E+04;  0.0000000E+00;  3.9185184E+04;  3.4870219E+00;  0.0000000E+00; -1.3198424E-02;  2.1302010E+04;
  1.4915074E+00;  9.9999998E-03;  2.4259549E-01;9024;  1.3440199E+00;  0.0000000E+00;  7.1806975E-02;  1.0005857E+03;  1.5782906E-01;  4.8072836E+02;3; -2.2680359E+01;  0.0000000E+00; -4.0368462E+01;0;  3.2129226E+00;  1.6388971E+04;  0.0000000E+00; -5.6050625E+00;  4.0000000E+04;  0.0000000E+00;  3.9187438E+04;  3.2389228E+00;  0.0000000E+00; -2.6000185E-02;  1.2239548E+04;
  1.5035863E+00;  9.9999998E-03;  2.7307338E-01;9086;  1.3635247E+00;  0.0000000E+00;  6.6672996E-02;  9.9961584E+02;  1.5229025E-01; -3.1474368E+02;3; -2.8079300E+01;  0.0000000E+00; -3.9936466E+01;0;  3.1935928E+00;  1.7595393E+04;  0.0000000E+00; -1.0003095E+01;  4.0000000E+04;  0.0000000E+00;  3.9142289E+04;  3.1393790E+00;  0.0000000E+00;  5.4213669E-02;  1.6194101E+04;
  1.5033935E+00;  9.9999998E-03;  2.9332045E-01;9088;  1.3635582E+00;  0.0000000E+00;  5.7714615E-02;  9.9742975E+02;  1.5237120E-01; -2.1059434E+03;3; -3.8381393E+01;  0.0000000E+00; -4.3385143E+01;0;  3.5622880E+00;  1.7524832E+04;  0.0000000E+00;  2.0531458E+01;  4.0000000E+04;  0.0000000E+00;  3.9137230E+04;  3.5165937E+00;  0.0000000E+00;  4.5694236E-02;  3.1759793E+04;
  1.5042595E+00;  9.9999998E-03;  2.6292157E-01;9085;  1.3675005E+00;  0.0000000E+00;  7.2633989E-02;  9.9936273E+02;  1.5220945E-01; -5.2208942E+02;3; -1.8163813E+01;  0.0000000E+00; -3.7114925E+01;0;  2.9900007E+00;  1.7595590E+04;  0.0000000E+00; -6.7424140E+00;  4.0000000E+04;  0.0000000E+00;  3.9163484E+04;  2.9221730E+00;  0.0000000E+00;  6.7827798E-02;  9.7723672E+03;
  1.5035272E+00;  9.9999998E-03;  2.8320202E-01;9087;  1.3614649E+00;  0.0000000E+00;  6.1662365E-02;  9.9872308E+02;  1.5227710E-01; -1.0462094E+03;3; -3.3989609E+01;  0.0000000E+00; -4.1231384E+01;0;  3.3635890E+00;  1.7584604E+04;  0.0000000E+00; -7.5005736E+00;  4.0000000E+04;  0.0000000E+00;  3.9137469E+04;  3.3195257E+00;  0.0000000E+00;  4.4063214E-02;  1.5484640E+04;
  1.5051733E+00;  9.9999998E-03;  2.5275835E-01;9084;  1.3684220E+00;  0.0000000E+00;  7.6915011E-02;  9.9935236E+02;  1.5204979E-01; -5.3050500E+02;3; -9.7476425E+00;  0.0000000E+00; -3.4372974E+01;0;  2.7452493E+00;  1.7626943E+04;  0.0000000E+00; -3.5505919E+00;  4.0000000E+04;  0.0000000E+00;  3.9180254E+04;  2.6844025E+00;  0.0000000E+00;  6.0846880E-02;  4.2221514E+03;
  1.5059888E+00;  9.9999998E-03;  2.4259594E-01;9083;  1.3664912E+00;  0.0000000E+00;  7.9342030E-02;  1.0000588E+03;  1.5187123E-01;  4.8132336E+01;3; -3.2001665E+00;  0.0000000E+00; -3.2249569E+01;0;  2.5000408E+00;  1.7690805E+04;  0.0000000E+00;  3.0126311E-03;  4.0000000E+04;  0.0000000E+00;  3.9182691E+04;  2.4522345E+00;  0.0000000E+00;  4.7806326E-02;  2.8570735E+03;
  1.5163419E+00;  9.9999998E-03;  2.9339170E-01;9147;  1.3895668E+00;  0.0000000E+00;  6.6474065E-02;  9.9974402E+02;  1.4728341E-01; -2.0926654E+02;3; -1.6843485E+01;  0.0000000E+00; -3.5407173E+01;0;  2.9182019E+00;  1.8841260E+04;  0.0000000E+00;  2.8165138E+01;  4.0000000E+04;  0.0000000E+00;  3.9102531E+04;  2.8185017E+00;  0.0000000E+00;  9.9700138E-02;  4.1157648E+04;
  1.5170813E+00;  9.9999998E-03;  2.8326121E-01;9146;  1.3872612E+00;  0.0000000E+00;  6.9169797E-02;  9.9917780E+02;  1.4713429E-01; -6.7199060E+02;3; -1.1424685E+01;  0.0000000E+00; -3.3272240E+01;0;  2.6922762E+00;  1.8861068E+04;  0.0000000E+00;  1.9203231E+00;  4.0000000E+04;  0.0000000E+00;  3.9120145E+04;  2.5977914E+00;  0.0000000E+00;  9.4484717E-02;  5.9737354E+03;
  1.5173994E+00;  9.9999998E-03;  2.7312729E-01;9145;  1.3861476E+00;  0.0000000E+00;  7.2522946E-02;  9.9951758E+02;  1.4709209E-01; -3.9428351E+02;3; -6.5363984E+00;  0.0000000E+00; -3.1421185E+01;0;  2.5118527E+00;  1.8869170E+04;  0.0000000E+00; -3.6243870E+00;  4.0000000E+04;  0.0000000E+00;  3.9128855E+04;  2.4125898E+00;  0.0000000E+00;  9.9262998E-02;  4.6993721E+03;
  1.5181290E+00;  9.9999998E-03;  2.6297241E-01;9144;  1.3856944E+00;  0.0000000E+00;  7.6544806E-02;  9.9888049E+02;  1.4700846E-01; -9.1479437E+02;3;  1.7640162E-01;  0.0000000E+00; -2.9240604E+01;0;  2.3203077E+00;  1.8857043E+04;  0.0000000E+00; -4.3290281E-01;  4.0000000E+04;  0.0000000E+00;  3.9150023E+04;  2.2104928E+00;  0.0000000E+00;  1.0981482E-01;  6.6792266E+03;
  1.5190651E+00;  9.9999998E-03;  2.5280431E-01;9143;  1.3831232E+00;  0.0000000E+00;  7.9556853E-02;  9.9850171E+02;  1.4686756E-01; -1.2240870E+03;3;  6.1321239E+00;  0.0000000E+00; -2.6928009E+01;0;  2.1058688E+00;  1.8874285E+04;  0.0000000E+00;  2.7991290E+00;  4.0000000E+04;  0.0000000E+00;  3.9167699E+04;  1.9977624E+00;  0.0000000E+00;  1.0810639E-01;  1.1450492E+04;
  1.5199144E+00;  9.9999998E-03;  2.4263296E-01;9142;  1.3786457E+00;  0.0000000E+00;  8.1216991E-02;  9.9902423E+02;  1.4670680E-01; -7.9707281E+02;3;  1.0349342E+01;  0.0000000E+00; -2.4699036E+01;0;  1.8944837E+00;  1.8932805E+04;  0.0000000E+00;  6.1055393E+00;  4.0000000E+04;  0.0000000E+00;  3.9171156E+04;  1.7938923E+00;  0.0000000E+00;  1.0059142E-01;  1.6568883E+04;
  1.5301031E+00;  9.9999998E-03;  2.8334817E-01;9204;  1.4012983E+00;  0.0000000E+00;  7.2475329E-02;  1.0002780E+03;  1.4265905E-01;  2.2656490E+02;3;  3.9084530E+00;  0.0000000E+00; -2.5921354E+01;0;  2.0969601E+00;  2.0116734E+04;  0.0000000E+00;  9.7575827E+00;  4.0000000E+04;  0.0000000E+00;  3.9088648E+04;  1.9829069E+00;  0.0000000E+00;  1.1405314E-01;  1.3979925E+04;
  1.5306826E+00;  9.9999998E-03;  2.7321202E-01;9203;  1.3981601E+00;  0.0000000E+00;  7.4337579E-02;  9.9973248E+02;  1.4258495E-01; -2.1798485E+02;3;  8.1293287E+00;  0.0000000E+00; -2.4275223E+01;0;  1.9204199E+00;  2.0105439E+04;  0.0000000E+00;  2.2147403E+00;  4.0000000E+04;  0.0000000E+00;  3.9102867E+04;  1.8032857E+00;  0.0000000E+00;  1.1713418E-01;  1.0717521E+04;
  1.5314677E+00;  9.9999998E-03;  2.6305744E-01;9202;  1.3954145E+00;  0.0000000E+00;  7.6925956E-02;  9.9856921E+02;  1.4250670E-01; -1.1657144E+03;3;  1.2786716E+01;  0.0000000E+00; -2.2519472E+01;0;  1.7559001E+00;  2.0071484E+04;  0.0000000E+00;  5.4618678E+00;  4.0000000E+04;  0.0000000E+00;  3.9124523E+04;  1.6247562E+00;  0.0000000E+00;  1.3114394E-01;  1.8426258E+04;
  1.5324044E+00;  9.9999998E-03;  2.5288776E-01;9201;  1.3912245E+00;  0.0000000E+00;  7.9094827E-02;  9.9770251E+02;  1.4238967E-01; -1.8713638E+03;3;  1.6304375E+01;  0.0000000E+00; -2.0444475E+01;0;  1.5838861E+00;  2.0065236E+04;  0.0000000E+00;  9.5725670E+00;  4.0000000E+04;  0.0000000E+00;  3.9144414E+04;  1.4440818E+00;  0.0000000E+00;  1.3980433E-01;  2.5525730E+04;
  1.5332718E+00;  9.9999998E-03;  2.4271052E-01;9200;  1.3853709E+00;  0.0000000E+00;  8.0172472E-02;  9.9787207E+02;  1.4225186E-01; -1.7329120E+03;3;  1.9244223E+01;  0.0000000E+00; -1.9053249E+01;0;  1.4130267E+00;  2.0108439E+04;  0.0000000E+00;  1.3213545E+01;  4.0000000E+04;  0.0000000E+00;  3.9150859E+04;  1.2724369E+00;  0.0000000E+00;  1.4058988E-01;  3.0986209E+04;
  1.5427821E+00;  9.9999998E-03;  2.8346252E-01;9261;  1.4094980E+00;  0.0000000E+00;  7.2866142E-02;  1.0018184E+03;  1.3875958E-01;  1.4770638E+03;3;  1.3766049E+01;  0.0000000E+00; -2.0387245E+01;0;  1.5949676E+00;  2.1341119E+04;  0.0000000E+00;  1.3251766E+01;  4.0000000E+04;  0.0000000E+00;  3.9043730E+04;  1.4812819E+00;  0.0000000E+00;  1.1368575E-01;  1.4128742E+04;
  1.5435190E+00;  9.9999998E-03;  2.7332881E-01;9260;  1.4041252E+00;  0.0000000E+00;  7.3298372E-02;  1.0005209E+03;  1.3867728E-01;  4.2296564E+02;3;  1.6821722E+01;  0.0000000E+00; -1.8981922E+01;0;  1.4264387E+00;  2.1308115E+04;  0.0000000E+00;  6.4466362E+00;  4.0000000E+04;  0.0000000E+00;  3.9062371E+04;  1.3123908E+00;  0.0000000E+00;  1.1404791E-01;  1.5030253E+04;
  1.5443499E+00;  9.9999998E-03;  2.6317722E-01;9259;  1.4000908E+00;  0.0000000E+00;  7.4810624E-02;  9.9875995E+02;  1.3860770E-01; -1.0068282E+03;3;  1.9954456E+01;  0.0000000E+00; -1.7522392E+01;0;  1.2937729E+00;  2.1245262E+04;  0.0000000E+00;  1.0317912E+01;  4.0000000E+04;  0.0000000E+00;  3.9086078E+04;  1.1594572E+00;  0.0000000E+00;  1.3431573E-01;  2.6205551E+04;
  1.5453089E+00;  9.9999998E-03;  2.5300869E-01;9258;  1.3951000E+00;  0.0000000E+00;  7.6278441E-02;  9.9719080E+02;  1.3851476E-01; -2.2801904E+03;3;  2.2341936E+01;  0.0000000E+00; -1.6050343E+01;0;  1.1646357E+00;  2.1202543E+04;  0.0000000E+00;  1.5554806E+01;  4.0000000E+04;  0.0000000E+00;  3.9109117E+04;  1.0100605E+00;  0.0000000E+00;  1.5457514E-01;  3.5858816E+04;
  1.5462195E+00;  9.9999998E-03;  2.4282910E-01;9257;  1.3887410E+00;  0.0000000E+00;  7.7054806E-02;  9.9672302E+02;  1.3840120E-01; -2.6591494E+03;3;  2.4377707E+01;  0.0000000E+00; -1.4778171E+01;0;  1.0370574E+00;  2.1215768E+04;  0.0000000E+00;  1.9790663E+01;  4.0000000E+04;  0.0000000E+00;  3.9120668E+04;  8.6990464E-01;  0.0000000E+00;  1.6715275E-01;  4.2379773E+04;
  1.5552911E+00;  9.9999998E-03;  2.8360024E-01;9318;  1.4166539E+00;  0.0000000E+00;  7.2487131E-02;  1.0032688E+03;  1.3536306E-01;  2.6447949E+03;3;  2.0228405E+01;  0.0000000E+00; -1.6312515E+01;0;  1.2218692E+00;  2.2508150E+04;  0.0000000E+00;  1.2975632E+01;  4.0000000E+04;  0.0000000E+00;  3.8990590E+04;  1.1002281E+00;  0.0000000E+00;  1.2164117E-01;  9.5948174E+03;
  1.5560503E+00;  9.9999998E-03;  2.7347460E-01;9317;  1.4077715E+00;  0.0000000E+00;  7.0883833E-02;  1.0017996E+03;  1.3528816E-01;  1.4556503E+03;3;  2.2438805E+01;  0.0000000E+00; -1.4507456E+01;0;  1.0391033E+00;  2.2470688E+04;  0.0000000E+00;  7.3692760E+00;  4.0000000E+04;  0.0000000E+00;  3.9009891E+04;  9.3473041E-01;  0.0000000E+00;  1.0437288E-01;  1.2087961E+04;
  1.5568857E+00;  9.9999998E-03;  2.6333028E-01;9316;  1.4023207E+00;  0.0000000E+00;  7.1263731E-02;  9.9956110E+02;  1.3522798E-01; -3.5493814E+02;3;  2.4310328E+01;  0.0000000E+00; -1.3839208E+01;0;  9.2914087E-01;  2.2382861E+04;  0.0000000E+00;  1.2575501E+01;  4.0000000E+04;  0.0000000E+00;  3.9033977E+04;  8.0331486E-01;  0.0000000E+00;  1.2582599E-01;  2.7549510E+04;
  1.5578637E+00;  9.9999998E-03;  2.5316676E-01;9315;  1.3967574E+00;  0.0000000E+00;  7.2026029E-02;  9.9715100E+02;  1.3515790E-01; -2.3030261E+03;3;  2.5987659E+01;  0.0000000E+00; -1.2897684E+01;0;  8.3619869E-01;  2.2293766E+04;  0.0000000E+00;  1.9456068E+01;  4.0000000E+04;  0.0000000E+00;  3.9060578E+04;  6.8104380E-01;  0.0000000E+00;  1.5515485E-01;  4.0830832E+04;
  1.5588108E+00;  9.9999998E-03;  2.4298921E-01;9314;  1.3902247E+00;  0.0000000E+00;  7.2536893E-02;  9.9581989E+02;  1.3506916E-01; -3.3779421E+03;3;  2.7741055E+01;  0.0000000E+00; -1.1899724E+01;0;  7.4834871E-01;  2.2262527E+04;  0.0000000E+00;  2.4930313E+01;  4.0000000E+04;  0.0000000E+00;  3.9077797E+04;  5.6839848E-01;  0.0000000E+00;  1.7995024E-01;  4.9711797E+04;
  1.5684365E+00;  9.9999998E-03;  2.7364227E-01;9373;  1.4108070E+00;  0.0000000E+00;  6.8195380E-02;  1.0030131E+03;  1.3235025E-01;  2.4258982E+03;3;  2.6914282E+01;  0.0000000E+00; -1.1103615E+01;0;  7.5905347E-01;  2.3563578E+04;  0.0000000E+00;  5.4408679E+00;  4.0000000E+04;  0.0000000E+00;  3.8951852E+04;  6.5795690E-01;  0.0000000E+00;  1.0109656E-01;  7.0473276E+03;
  1.5691774E+00;  9.9999998E-03;  2.6351207E-01;9372;  1.4034469E+00;  0.0000000E+00;  6.7163393E-02;  1.0009135E+03;  1.3229972E-01;  7.3524188E+02;3;  2.7367113E+01;  0.0000000E+00; -1.0973773E+01;0;  6.5337491E-01;  2.3480746E+04;  0.0000000E+00;  1.0870770E+01;  4.0000000E+04;  0.0000000E+00;  3.8971129E+04;  5.3983217E-01;  0.0000000E+00;  1.1354272E-01;  2.1142092E+04;
  1.5701127E+00;  9.9999998E-03;  2.5335875E-01;9371;  1.3974519E+00;  0.0000000E+00;  6.7363933E-02;  9.9788470E+02;  1.3225092E-01; -1.7018667E+03;3;  2.8568352E+01;  0.0000000E+00; -1.0487789E+01;0;  5.8993006E-01;  2.3351723E+04;  0.0000000E+00;  2.0607529E+01;  4.0000000E+04;  0.0000000E+00;  3.8998570E+04;  4.4047219E-01;  0.0000000E+00;  1.4945789E-01;  3.9916168E+04;
  1.5710773E+00;  9.9999998E-03;  2.4318813E-01;9370;  1.3908244E+00;  0.0000000E+00;  6.7649141E-02;  9.9554504E+02;  1.3218886E-01; -3.5827732E+03;3;  2.9735048E+01;  0.0000000E+00; -9.8077393E+00;0;  5.3541785E-01;  2.3263961E+04;  0.0000000E+00;  2.8146114E+01;  4.0000000E+04;  0.0000000E+00;  3.9020820E+04;  3.5049853E-01;  0.0000000E+00;  1.8491933E-01;  5.2476379E+04;
  1.5806907E+00;  9.9999998E-03;  2.7382821E-01;9428;  1.4141228E+00;  0.0000000E+00;  6.5954104E-02;  1.0039623E+03;  1.2980872E-01;  3.1726375E+03;3;  3.0999123E+01;  0.0000000E+00; -7.7316432E+00;0;  5.8856273E-01;  2.4572375E+04;  0.0000000E+00;  5.8756032E+00;  4.0000000E+04;  0.0000000E+00;  3.8889160E+04;  4.7667453E-01;  0.0000000E+00;  1.1188817E-01;  9.2618604E+03;
  1.5813469E+00;  9.9999998E-03;  2.6371530E-01;9427;  1.4043376E+00;  0.0000000E+00;  6.3337214E-02;  1.0023639E+03;  1.2976852E-01;  1.8922104E+03;3;  2.9727512E+01;  0.0000000E+00; -8.6461849E+00;0;  4.6438283E-01;  2.4513877E+04;  0.0000000E+00;  5.5204725E+00;  4.0000000E+04;  0.0000000E+00;  3.8902844E+04;  3.5666564E-01;  0.0000000E+00;  1.0771719E-01;  9.5890557E+03;
  1.5821546E+00;  9.9999998E-03;  2.5357854E-01;9426;  1.3976263E+00;  0.0000000E+00;  6.2802978E-02;  9.9934552E+02;  1.2973468E-01; -5.2365643E+02;3;  3.0163191E+01;  0.0000000E+00; -8.7636738E+00;0;  4.1421479E-01;  2.4376898E+04;  0.0000000E+00;  1.7301493E+01;  4.0000000E+04;  0.0000000E+00;  3.8925441E+04;  2.7154326E-01;  0.0000000E+00;  1.4267154E-01;  3.1530463E+04;
  1.5830839E+00;  9.9999998E-03;  2.4342057E-01;9425;  1.3909415E+00;  0.0000000E+00;  6.2774569E-02;  9.9612628E+02;  1.2969580E-01; -3.0980598E+03;3;  3.1076120E+01;  0.0000000E+00; -8.3646374E+00;0;  3.8276535E-01;  2.4234982E+04;  0.0000000E+00;  2.8193895E+01;  4.0000000E+04;  0.0000000E+00;  3.8949727E+04;  1.9809620E-01;  0.0000000E+00;  1.8466914E-01;  4.9312961E+04;
  1.5934449E+00;  9.9999998E-03;  2.6393217E-01;9481;  1.4054766E+00;  0.0000000E+00;  6.0030933E-02;  1.0034292E+03;  1.2758523E-01;  2.7273181E+03;3;  3.2279785E+01;  0.0000000E+00; -6.5611925E+00;0;  3.5470158E-01;  2.5453615E+04;  0.0000000E+00;  2.1533434E+00;  4.0000000E+04;  0.0000000E+00;  3.8833434E+04;  2.4356949E-01;  0.0000000E+00;  1.1113209E-01;  7.4519780E+03;
  1.5940877E+00;  9.9999998E-03;  2.5381735E-01;9480;  1.3976691E+00;  0.0000000E+00;  5.8598708E-02;  1.0011731E+03;  1.2756039E-01;  9.3268372E+02;3;  3.1326603E+01;  0.0000000E+00; -7.3495593E+00;0;  2.9988289E-01;  2.5351598E+04;  0.0000000E+00;  9.4298306E+00;  4.0000000E+04;  0.0000000E+00;  3.8846664E+04;  1.6170587E-01;  0.0000000E+00;  1.3817702E-01;  1.6889191E+04;
  1.5948981E+00;  9.9999998E-03;  2.4367769E-01;9479;  1.3909142E+00;  0.0000000E+00;  5.8291540E-02;  9.9770062E+02;  1.2753867E-01; -1.8272101E+03;3;  3.2093159E+01;  0.0000000E+00; -7.1404238E+00;0;  2.8214979E-01;  2.5185613E+04;  0.0000000E+00;  2.3799150E+01;  4.0000000E+04;  0.0000000E+00;  3.8867684E+04;  9.8639503E-02;  0.0000000E+00;  1.8351030E-01;  3.9516207E+04;
  1.6053743E+00;  9.9999998E-03;  2.6416063E-01;9534;  1.4071574E+00;  0.0000000E+00;  5.7237692E-02;  1.0045755E+03;  1.2570861E-01;  3.6121162E+03;3;  3.5467331E+01;  0.0000000E+00; -4.2241802E+00;0;  3.1440777E-01;  2.6320674E+04;  0.0000000E+00;  8.5538044E+00;  4.0000000E+04;  0.0000000E+00;  3.8759473E+04;  1.9215737E-01;  0.0000000E+00;  1.2225039E-01;  7.8695469E+03;
  1.6059945E+00;  9.9999998E-03;  2.5406608E-01;9533;  1.3979753E+00;  0.0000000E+00;  5.5063035E-02;  1.0026759E+03;  1.2569156E-01;  2.1115964E+03;3;  3.2850853E+01;  0.0000000E+00; -5.9265938E+00;0;  2.4278465E-01;  2.6237234E+04;  0.0000000E+00;  1.8154244E+00;  4.0000000E+04;  0.0000000E+00;  3.8767719E+04;  1.0148559E-01;  0.0000000E+00;  1.4129907E-01;  5.4173984E+03;
  1.6066287E+00;  9.9999998E-03;  2.4394917E-01;9532;  1.3907765E+00;  0.0000000E+00;  5.4199204E-02;  9.9986407E+02;  1.2567747E-01; -1.0719398E+02;3;  3.3045570E+01;  0.0000000E+00; -6.0007682E+00;0;  2.2288522E-01;  2.6099475E+04;  0.0000000E+00;  1.3927685E+01;  4.0000000E+04;  0.0000000E+00;  3.8780215E+04;  4.0284324E-02;  0.0000000E+00;  1.8260090E-01;  2.3259645E+04;
  1.6178138E+00;  9.9999998E-03;  2.5431859E-01;9585;  1.3985111E+00;  0.0000000E+00;  5.1922385E-02;  1.0038990E+03;  1.2408808E-01;  3.0504258E+03;3;  3.4868618E+01;  0.0000000E+00; -4.0300446E+00;0;  2.3147361E-01;  2.7033564E+04;  0.0000000E+00;  5.2024169E+00;  4.0000000E+04;  0.0000000E+00;  3.8688520E+04;  8.3448470E-02;  0.0000000E+00;  1.4802514E-01;  6.1271147E+03;
  1.6183603E+00;  9.9999998E-03;  2.4422413E-01;9584;  1.3907052E+00;  0.0000000E+00;  5.0635234E-02;  1.0018594E+03;  1.2407865E-01;  1.4540801E+03;3;  3.4271729E+01;  0.0000000E+00; -4.5454607E+00;0;  2.0185854E-01;  2.6935732E+04;  0.0000000E+00;  2.7255089E+00;  4.0000000E+04;  0.0000000E+00;  3.8693949E+04;  1.6787443E-02;  0.0000000E+00;  1.8507110E-01;  6.6632461E+03;
  1.6300709E+00;  9.9999998E-03;  2.4449608E-01;9634;  1.3906384E+00;  0.0000000E+00;  4.7219429E-02;  1.0033063E+03;  1.2271357E-01;  2.5599980E+03;3;  3.5702312E+01;  0.0000000E+00; -2.7431004E+00;0;  2.0921284E-01;  2.7672166E+04;  0.0000000E+00;  2.7614841E+00;  4.0000000E+04;  0.0000000E+00;  3.8608988E+04;  2.2859002E-02;  0.0000000E+00;  1.8635383E-01;  4.2614751E+03;
